.Version 9.5.1 of ABINIT

 ABINIT is a project of the Universite Catholique de Louvain,
 Corning Inc. and other collaborators, see ~abinit/doc/developers/contributors.txt .
 acknowledgments of the ABINIT effort.

.Starting date : Sun 25 Apr 2021.
- ( at 17h18 )

- input  file    -> /scratch/users/j/a/jabreu/flow_simple2/flow/w180/t1/run.abi
- output file    -> /scratch/users/j/a/jabreu/flow_simple2/flow/w180/t1/run.abo
- root for input  files -> /scratch/users/j/a/jabreu/flow_simple2/flow/w180/t1/indata/in
- root for output files -> /scratch/users/j/a/jabreu/flow_simple2/flow/w180/t1/outdata/out

 Symmetries : space group F-4 3 m (#216); Bravais cF (face-center cubic)
     intxc =       0      iscf =       7    lmnmax =      18     lnmax =       6
     mgfft =      54  mpssoang =       3    mqgrid =    3001     natom =       2
  nloc_mem =       1    nspden =       1   nspinor =       1    nsppol =       1
      nsym =      24    n1xccc =    2501    ntypat =       2    occopt =       1
   xclevel =       2
-    mband =          22        mffmem =           1         mkmem =           1
-   mkqmem =           1        mk1mem =           1           mpw =        5961
      nfft =      157464          nkpt =           1
  Rough estimation (10% accuracy) of disk space for files :

------------- Echo of variables that govern the present computation ------------
-
- outvars: echo of selected default values
-   iomode0 =  0 , fftalg0 =512 , wfoptalg0 =  0
-
- outvars: echo of global parameters not present in the input file
-  max_nthreads =    0
-
 -outvars: echo values of preprocessed input variables --------
            acell      1.0000000000E+00  1.0000000000E+00  1.0000000000E+00 Bohr
              amu      2.43050000E+01  1.27600000E+02
             ecut      4.20000000E+01 Hartree
-          fftalg         512
           irdden           1
           irdwfk           1
           istwfk        1
              ixc     -116133
           kptopt           0
P           mkmem           1
P          mkqmem           1
P          mk1mem           1
            natom           2
            nband          22
           nbdbuf           4
            ngfft          54      54      54
             nkpt           1
            nstep         100
             nsym          24
           ntypat           2
              occ      2.000000  2.000000  2.000000  2.000000  2.000000  2.000000
                       2.000000  2.000000  2.000000  2.000000  2.000000  2.000000
                       2.000000  0.000000  0.000000  0.000000  0.000000  0.000000
                       0.000000  0.000000  0.000000  0.000000
        optdriver           1
            prtwf          -1
            rfdir           1       1       1
           rfelfd           2
            rprim      7.4520725166E+00  0.0000000000E+00  4.3024560735E+00
                       2.4840241722E+00  7.0258813472E+00  4.3024560735E+00
                       0.0000000000E+00  0.0000000000E+00  8.6049121470E+00
          spgroup         216
           symrel      1  0  0   0  1  0   0  0  1       0 -1  1   0 -1  0   1 -1  0
                      -1  0  0  -1  0  1  -1  1  0       0  1 -1   1  0 -1   0  0 -1
                      -1  0  0  -1  1  0  -1  0  1       0 -1  1   1 -1  0   0 -1  0
                       1  0  0   0  0  1   0  1  0       0  1 -1   0  0 -1   1  0 -1
                      -1  0  1  -1  1  0  -1  0  0       0 -1  0   1 -1  0   0 -1  1
                       1  0 -1   0  0 -1   0  1 -1       0  1  0   0  0  1   1  0  0
                       1  0 -1   0  1 -1   0  0 -1       0 -1  0   0 -1  1   1 -1  0
                      -1  0  1  -1  0  0  -1  1  0       0  1  0   1  0  0   0  0  1
                       0  0 -1   0  1 -1   1  0 -1       1 -1  0   0 -1  1   0 -1  0
                       0  0  1   1  0  0   0  1  0      -1  1  0  -1  0  0  -1  0  1
                       0  0  1   0  1  0   1  0  0       1 -1  0   0 -1  0   0 -1  1
                       0  0 -1   1  0 -1   0  1 -1      -1  1  0  -1  0  1  -1  0  0
           tolwfr      1.00000000E-20
            typat      1  2
           useylm           1
           xangst      0.0000000000E+00  0.0000000000E+00  0.0000000000E+00
                       1.3144889775E+00  9.2948406980E-01  2.2767616951E+00
            xcart      0.0000000000E+00  0.0000000000E+00  0.0000000000E+00
                       2.4840241722E+00  1.7564703368E+00  4.3024560735E+00
             xred      0.0000000000E+00  0.0000000000E+00  0.0000000000E+00
                       2.5000000000E-01  2.5000000000E-01  2.5000000000E-01
            znucl       12.00000   52.00000

 chkinp: Checking input parameters for consistency.

== DATASET  1 ==================================================================
-   mpi_nproc: 1, omp_nthreads: -1 (-1 if OMP is not activated)

--- !DatasetInfo
iteration_state: {dtset: 1, }
dimensions: {natom: 2, nkpt: 1, mband: 22, nsppol: 1, nspinor: 1, nspden: 1, mpw: 5961, }
cutoff_energies: {ecut:  42.0, pawecutdg:  -1.0, }
electrons: {nelect:   2.60000000E+01, charge:   0.00000000E+00, occopt:   1.00000000E+00, tsmear:   1.00000000E-02, }
meta: {optdriver: 1, rfelfd: 2, }
...

 Real(R)+Recip(G) space primitive vectors, cartesian coordinates (Bohr,Bohr^-1):
 R(1)=  7.4520725  0.0000000  4.3024561  G(1)=  0.1341909 -0.0474436  0.0000000
 R(2)=  2.4840242  7.0258813  4.3024561  G(2)=  0.0000000  0.1423309  0.0000000
 R(3)=  0.0000000  0.0000000  8.6049121  G(3)= -0.0670954 -0.0474436  0.1162127
 Unit cell volume ucvol=  4.5053063E+02 bohr^3
 Angles (23,13,12)=  6.00000000E+01  6.00000000E+01  6.00000000E+01 degrees

 getcut: wavevector=  0.0000  0.0000  0.0000  ngfft=  54  54  54
         ecut(hartree)=     42.000   => boxcut(ratio)=   2.15182

--- Pseudopotential description ------------------------------------------------
- pspini: atom type   1  psp file is /scratch/users/j/a/jabreu/pseudos/PBEsol/Mg.psp8
- pspatm: opening atomic psp file    /scratch/users/j/a/jabreu/pseudos/PBEsol/Mg.psp8
- Mg    ONCVPSP-3.3.0  r_core=   1.16056   1.56380
- 12.00000  10.00000    180112                znucl, zion, pspdat
    8 -116133    1    4       400   0.00000   pspcod,pspxc,lmax,lloc,mmax,r2well
    3.99000000000000    0.00000000000000    0.00000000000000   rchrg,fchrg,qchrg
     nproj     2     2
     extension_switch     1
  pspatm : epsatm=    9.18164846
         --- l  ekb(1:nproj) -->
             0    2.230603   -0.826587
             1   -6.503151   -2.501445
 pspatm: atomic psp has been read  and splines computed

- pspini: atom type   2  psp file is /scratch/users/j/a/jabreu/pseudos/PBEsol/Te.psp8
- pspatm: opening atomic psp file    /scratch/users/j/a/jabreu/pseudos/PBEsol/Te.psp8
- Te    ONCVPSP-3.3.0  r_core=   2.26547   1.91704   1.80604
- 52.00000  16.00000    180112                znucl, zion, pspdat
    8 -116133    2    4       600   0.00000   pspcod,pspxc,lmax,lloc,mmax,r2well
    5.99000000000000    5.00000000000000    0.00000000000000   rchrg,fchrg,qchrg
     nproj     2     2     2
     extension_switch     1
  pspatm : epsatm=   36.82679836
         --- l  ekb(1:nproj) -->
             0    6.345999    0.785432
             1    5.709019    1.070069
             2   -6.035173   -1.870937
 pspatm: atomic psp has been read  and splines computed

   1.19621962E+03                                ecore*ucvol(ha*bohr**3)

-inwffil : will read wavefunctions from disk file /scratch/users/j/a/jabreu/flow_simple2/flow/w180/t1/indata/in_WFK

 ==>  initialize data related to q vector <==

 The list of irreducible perturbations for this q vector is:
    1)    idir= 1    ipert=   3
    2)    idir= 2    ipert=   3
    3)    idir= 3    ipert=   3

 Perturbation wavevector (in red.coord.)   0.000000  0.000000  0.000000
 Perturbation : derivative vs k along direction   1

 dfpt_looppert : COMMENT -
  In a d/dk calculation, iscf is set to -3 automatically.
 The set of symmetries contains only one element for this perturbation.
 symkpt : not enough symmetry to change the number of k points.

[...]

 Initialisation of the first-order wave-functions :
  ireadwf=   0

--- !BeginCycle
iteration_state: {dtset: 1, }
solver: {iscf: 7, nstep: 100, nline: 4, wfoptalg: 0, }
tolerances: {tolwfr: 1.00E-20, }
...

     iter   2DEtotal(Ha)        deltaE(Ha) residm    vres2
-ETOT  1  -50.642101624849     -5.064E+01 5.193E-02 0.000E+00
 ETOT  2  -50.652429398285     -1.033E-02 3.047E-05 0.000E+00
 ETOT  3  -50.652432440832     -3.043E-06 1.304E-07 0.000E+00
 ETOT  4  -50.652432441306     -4.738E-10 2.910E-10 0.000E+00
 ETOT  5  -50.652432441306     -3.055E-13 5.899E-12 0.000E+00
 ETOT  6  -50.652432441306      7.105E-15 2.855E-14 0.000E+00
 ETOT  7  -50.652432441306      5.684E-14 2.692E-15 0.000E+00
 ETOT  8  -50.652432441306     -1.421E-14 2.096E-17 0.000E+00
 ETOT  9  -50.652432441306      0.000E+00 1.860E-18 0.000E+00
 ETOT 10  -50.652432441306      0.000E+00 1.536E-20 0.000E+00
 ETOT 11  -50.652432441306      0.000E+00 9.513E-21 0.000E+00

 At SCF step   11   max residual=  9.51E-21 < tolwfr=  1.00E-20 =>converged.

 ----iterations are completed or convergence reached----

 dfpt_looppert: DFPT cycle converged with prtwf=-1. Will skip output of the 1st-order WFK file.
 dfpt_looppert : ek2=    4.1587370164E+01
          f-sum rule ratio=    1.5041161306E+00
 prteigrs : about to open file /scratch/users/j/a/jabreu/flow_simple2/flow/w180/t1/tmpdata/tmp_1WF1_EIG
 Expectation of eigenvalue derivatives (hartree) for nkpt=   1  k points:
  (in case of degenerate eigenvalues, averaged derivative)
 kpt#   1, nband= 22, wtk=  1.00000, kpt=  0.0000  0.0000  0.0000 (reduced coord)
  -0.00000   -0.00000   -0.00000   -0.00000    0.00000    0.00000    0.00000    0.00000
   0.00000    0.00000   -0.00000   -0.00000   -0.00000   -0.00000    0.00000    0.00000
   0.00000    0.00000    0.00000    0.00000   -0.00000   -0.00000

 Eight components of 2nd-order total energy (hartree) are
 1,2,3: 0th-order hamiltonian combined with 1st-order wavefunctions
     kin0=   3.80839249E+01 eigvalue=   8.83317564E+00  local=  -1.90710834E+01
 4,5,6: 1st-order hamiltonian combined with 1st and 0th-order wfs
     kin1=  -6.25522343E+01  Hartree=   0.00000000E+00     xc=   0.00000000E+00
 7,8,9: eventually, occupation + non-local contributions
    edocc=   1.77832181E+01     enl0=   5.02319722E+00   enl1=  -3.87526306E+01
 1-9 gives the relaxation energy (to be shifted if some occ is /=2.0)
   erelax=  -5.06524324E+01
  No Ewald or frozen-wf contrib.: the relaxation energy is the total one
 2DEtotal=   -0.5065243244E+02 Ha. Also 2DEtotal=   -0.137832278260E+04 eV
    (  non-var. 2DEtotal :   -5.0652432441E+01 Ha)

 Perturbation wavevector (in red.coord.)   0.000000  0.000000  0.000000
 Perturbation : derivative vs k along direction   2
 The set of symmetries contains only one element for this perturbation.
 symkpt : not enough symmetry to change the number of k points.

[...]

 Perturbation wavevector (in red.coord.)   0.000000  0.000000  0.000000
 Perturbation : derivative vs k along direction   3
 The set of symmetries contains only one element for this perturbation.
 symkpt : not enough symmetry to change the number of k points.

-inwffil : will read wavefunctions from disk file /scratch/users/j/a/jabreu/flow_simple2/flow/w180/t1/indata/in_WFK

 Initialisation of the first-order wave-functions :
  ireadwf=   0

--- !BeginCycle
iteration_state: {dtset: 1, }
solver: {iscf: 7, nstep: 100, nline: 4, wfoptalg: 0, }
tolerances: {tolwfr: 1.00E-20, }
...

     iter   2DEtotal(Ha)        deltaE(Ha) residm    vres2
-ETOT  1  -50.641959810696     -5.064E+01 3.623E-02 0.000E+00
 ETOT  2  -50.652429426665     -1.047E-02 2.986E-05 0.000E+00
 ETOT  3  -50.652432440101     -3.013E-06 3.592E-07 0.000E+00
 ETOT  4  -50.652432440580     -4.792E-10 4.054E-10 0.000E+00
 ETOT  5  -50.652432440580     -1.421E-13 2.823E-11 0.000E+00
 ETOT  6  -50.652432440580      7.105E-14 3.731E-14 0.000E+00
 ETOT  7  -50.652432440580     -2.842E-14 3.206E-15 0.000E+00
 ETOT  8  -50.652432440580      0.000E+00 4.453E-18 0.000E+00
 ETOT  9  -50.652432440580      0.000E+00 4.829E-19 0.000E+00
 ETOT 10  -50.652432440580      0.000E+00 9.177E-21 0.000E+00

 At SCF step   10   max residual=  9.18E-21 < tolwfr=  1.00E-20 =>converged.

 ----iterations are completed or convergence reached----

 dfpt_looppert: DFPT cycle converged with prtwf=-1. Will skip output of the 1st-order WFK file.
 dfpt_looppert : ek2=    4.1587370164E+01
          f-sum rule ratio=    1.5041161306E+00
 prteigrs : about to open file /scratch/users/j/a/jabreu/flow_simple2/flow/w180/t1/tmpdata/tmp_1WF1_EIG
 Expectation of eigenvalue derivatives (hartree) for nkpt=   1  k points:
  (in case of degenerate eigenvalues, averaged derivative)
 kpt#   1, nband= 22, wtk=  1.00000, kpt=  0.0000  0.0000  0.0000 (reduced coord)
   0.00000    0.00000    0.00000    0.00000   -0.00000   -0.00000   -0.00000   -0.00000
  -0.00000    0.00000   -0.00000   -0.00000   -0.00000    0.00000   -0.00000   -0.00000
  -0.00000    0.00000    0.00000    0.00000   -0.00000   -0.00000

 Eight components of 2nd-order total energy (hartree) are
 1,2,3: 0th-order hamiltonian combined with 1st-order wavefunctions
     kin0=   3.82093129E+01 eigvalue=   8.84868009E+00  local=  -1.91446036E+01
 4,5,6: 1st-order hamiltonian combined with 1st and 0th-order wfs
     kin1=  -6.25522343E+01  Hartree=   0.00000000E+00     xc=   0.00000000E+00
 7,8,9: eventually, occupation + non-local contributions
    edocc=   1.77111118E+01     enl0=   5.02793116E+00   enl1=  -3.87526306E+01
 1-9 gives the relaxation energy (to be shifted if some occ is /=2.0)
   erelax=  -5.06524324E+01
  No Ewald or frozen-wf contrib.: the relaxation energy is the total one
 2DEtotal=   -0.5065243244E+02 Ha. Also 2DEtotal=   -0.137832278258E+04 eV
    (  non-var. 2DEtotal :   -5.0652432441E+01 Ha)

 CALCULATION OF EFFECTIVE MASSES
 NOTE : Additional infos (eff. mass eigenvalues, eigenvectors and, if degenerate, average mass) are available in stdout.

 COMMENTS:
 - At k-point ( 0.000, 0.000, 0.000), bands    11 through    13
   are DEGENERATE (effective mass tensor is therefore not defined).
   See Section IIIB Eqs. (67)-(70) and Appendix E of PRB 93 205147 (2016).
 - Angular average effective mass for Frohlich model is to be averaged over degenerate bands. See later.
 - Associated theta integrals calculated with ntheta=   1000 points.

 K-point ( 0.000, 0.000, 0.000) | band =    11
 Transport equivalent effective mass tensor:
             -0.1703728126              0.0000000000              0.0000000000
              0.0000000000             -0.1703728126             -0.0000000000
              0.0000000000             -0.0000000000             -0.1703728126
 Transport equivalent effective mass tensor eigenvalues:
             -0.1703728126             -0.1703728126             -0.1703728126
 Angular average effective mass 1/(<1/m>)=  -0.1641934688
 Angular average effective mass for Frohlich model (<m**0.5>)**2=  -0.1646076717
 Effective masses along directions: (cart. coord. / red. coord. -> eff. mass)
    1:   1.000000  0.000000  0.000000 /   0.948683  0.316228  0.000000 ->  -0.1586116483
    2:   0.000000  1.000000  0.000000 /   0.000000  1.000000  0.000000 ->  -0.1513852555
    3:   0.000000  0.000000  1.000000 /   0.408248  0.408248  0.816497 ->  -0.1596172473
    4:   0.577350  0.577350  0.577350 /   0.585539  0.688047  0.428644 ->  -0.1585022056
    5:   0.000000  0.707107  0.707107 /   0.289489  0.762222  0.578977 ->  -0.1697857485
    6:   0.707107  0.000000  0.707107 /   0.731423  0.422287  0.535439 ->  -0.1591093166
    7:   0.707107  0.707107  0.000000 /   0.616798  0.787122  0.000000 ->  -0.1858067490

[...]

 K-point ( 0.000, 0.000, 0.000) | band =    13
 Transport equivalent effective mass tensor:
            -35.4254510851              0.0000348975              0.0000000013
              0.0000348975            -35.4254395114              0.0000000001
              0.0000000013              0.0000000001            -35.4253937925
 Transport equivalent effective mass tensor eigenvalues:
            -35.4254806723            -35.4254099241            -35.4253937925
 Angular average effective mass 1/(<1/m>)=  -2.1867161874
 Angular average effective mass for Frohlich model (<m**0.5>)**2=  -2.7601594961
 Effective masses along directions: (cart. coord. / red. coord. -> eff. mass)
    1:   1.000000  0.000000  0.000000 /   0.948683  0.316228  0.000000 ->  -2.3748311839
    2:   0.000000  1.000000  0.000000 /   0.000000  1.000000  0.000000 ->  -2.1701265154
    3:   0.000000  0.000000  1.000000 /   0.408248  0.408248  0.816497 ->  -8.3245488096
    4:   0.577350  0.577350  0.577350 /   0.585539  0.688047  0.428644 ->  -2.9378272860
    5:   0.000000  0.707107  0.707107 /   0.289489  0.762222  0.578977 ->  -1.9147165773
    6:   0.707107  0.000000  0.707107 /   0.731423  0.422287  0.535439 ->  -4.2332186772
    7:   0.707107  0.707107  0.000000 /   0.616798  0.787122  0.000000 ->  -0.9686137110

 Angular average effective mass for Frohlich model, averaged over degenerate bands.
 Value of     (<<m**0.5>>)**2 =     1.061367E+00
 Absolute Value of <<m**0.5>> =     1.030227E+00

 K-point ( 0.000, 0.000, 0.000) | band =    14
 Effective mass tensor:
              0.1633291329             -0.0000000000             -0.0000000000
             -0.0000000000              0.1633291329              0.0000000000
             -0.0000000000              0.0000000000              0.1633291329
 Effective mass tensor eigenvalues:
              0.1633291329              0.1633291329              0.1633291330
 Angular average effective mass 1/(<1/m>)=   0.1633291329
 Angular average effective mass for Frohlich model (<m**0.5>)**2=   0.1633291329
 Effective masses along directions: (cart. coord. / red. coord. -> eff. mass)
    1:   1.000000  0.000000  0.000000 /   0.948683  0.316228  0.000000 ->   0.1633291329
    2:   0.000000  1.000000  0.000000 /   0.000000  1.000000  0.000000 ->   0.1633291329
    3:   0.000000  0.000000  1.000000 /   0.408248  0.408248  0.816497 ->   0.1633291329
    4:   0.577350  0.577350  0.577350 /   0.585539  0.688047  0.428644 ->   0.1633291329
    5:   0.000000  0.707107  0.707107 /   0.289489  0.762222  0.578977 ->   0.1633291329
    6:   0.707107  0.000000  0.707107 /   0.731423  0.422287  0.535439 ->   0.1633291329
    7:   0.707107  0.707107  0.000000 /   0.616798  0.787122  0.000000 ->   0.1633291329

 END OF EFFECTIVE MASSES SECTION

 ---- first-order wavefunction calculations are completed ----

 Total localisation tensor (bohr^2) in cartesian coordinates
  WARNING : still subject to testing - especially symmetries.
      direction              matrix element
   alpha     beta       real part   imaginary part
     1        1       4.3469742117    0.0000000000
     1        2       1.2295099771    0.0000000000
     1        3       3.0116720775    0.0000000000
     2        1       1.2295099771    0.0000000000
     2        2       3.4775793693    0.0000000000
     2        3       2.1295737487    0.0000000000
     3        1       3.0116720775    0.0000000000
     3        2       2.1295737487    0.0000000000
     3        3       7.8245535809    0.0000000000

 respfn : d/dk was computed, but no 2DTE, so no DDB output.

== END DATASET(S) ==============================================================

 -outvars: echo values of variables after computation  --------
            acell      1.0000000000E+00  1.0000000000E+00  1.0000000000E+00 Bohr
              amu      2.43050000E+01  1.27600000E+02
             ecut      4.20000000E+01 Hartree
           etotal     -5.0652432441E+01
            fcart      0.0000000000E+00  0.0000000000E+00  0.0000000000E+00
                       0.0000000000E+00  0.0000000000E+00  0.0000000000E+00
-          fftalg         512
           irdden           1
           irdwfk           1
           istwfk        1
              ixc     -116133
           kptopt           0
P           mkmem           1
P          mkqmem           1
P          mk1mem           1
            natom           2
            nband          22
           nbdbuf           4
            ngfft          54      54      54
             nkpt           1
            nstep         100
             nsym          24
           ntypat           2
              occ      2.000000  2.000000  2.000000  2.000000  2.000000  2.000000
                       2.000000  2.000000  2.000000  2.000000  2.000000  2.000000
                       2.000000  0.000000  0.000000  0.000000  0.000000  0.000000
                       0.000000  0.000000  0.000000  0.000000
        optdriver           1
            prtwf          -1
            rfdir           1       1       1
           rfelfd           2
            rprim      7.4520725166E+00  0.0000000000E+00  4.3024560735E+00
                       2.4840241722E+00  7.0258813472E+00  4.3024560735E+00
                       0.0000000000E+00  0.0000000000E+00  8.6049121470E+00
          spgroup         216
           strten      0.0000000000E+00  0.0000000000E+00  0.0000000000E+00
                       0.0000000000E+00  0.0000000000E+00  0.0000000000E+00
           symrel      1  0  0   0  1  0   0  0  1       0 -1  1   0 -1  0   1 -1  0
                      -1  0  0  -1  0  1  -1  1  0       0  1 -1   1  0 -1   0  0 -1
                      -1  0  0  -1  1  0  -1  0  1       0 -1  1   1 -1  0   0 -1  0
                       1  0  0   0  0  1   0  1  0       0  1 -1   0  0 -1   1  0 -1
                      -1  0  1  -1  1  0  -1  0  0       0 -1  0   1 -1  0   0 -1  1
                       1  0 -1   0  0 -1   0  1 -1       0  1  0   0  0  1   1  0  0
                       1  0 -1   0  1 -1   0  0 -1       0 -1  0   0 -1  1   1 -1  0
                      -1  0  1  -1  0  0  -1  1  0       0  1  0   1  0  0   0  0  1
                       0  0 -1   0  1 -1   1  0 -1       1 -1  0   0 -1  1   0 -1  0
                       0  0  1   1  0  0   0  1  0      -1  1  0  -1  0  0  -1  0  1
                       0  0  1   0  1  0   1  0  0       1 -1  0   0 -1  0   0 -1  1
                       0  0 -1   1  0 -1   0  1 -1      -1  1  0  -1  0  1  -1  0  0
           tolwfr      1.00000000E-20
            typat      1  2
           useylm           1
           xangst      0.0000000000E+00  0.0000000000E+00  0.0000000000E+00
                       1.3144889775E+00  9.2948406980E-01  2.2767616951E+00
            xcart      0.0000000000E+00  0.0000000000E+00  0.0000000000E+00
                       2.4840241722E+00  1.7564703368E+00  4.3024560735E+00
             xred      0.0000000000E+00  0.0000000000E+00  0.0000000000E+00
                       2.5000000000E-01  2.5000000000E-01  2.5000000000E-01
            znucl       12.00000   52.00000

- Timing analysis has been suppressed with timopt=0

 Suggested references for the acknowledgment of ABINIT usage.

 Calculation completed.
.Delivered   6 WARNINGs and   5 COMMENTs to log file.