.Version 9.5.2 of ABINIT

 ABINIT is a project of the Universite Catholique de Louvain,
 Corning Inc. and other collaborators, see ~abinit/doc/developers/contributors.txt .
 acknowledgments of the ABINIT effort.

.Starting date : Mon 24 May 2021.
- ( at 23h06 )

- input  file    -> /scratch/users/j/a/jabreu/flow_simple_10atoms/flow/w474/t1/run.abi
- output file    -> /scratch/users/j/a/jabreu/flow_simple_10atoms/flow/w474/t1/run.abo
- root for input  files -> /scratch/users/j/a/jabreu/flow_simple_10atoms/flow/w474/t1/indata/in
- root for output files -> /scratch/users/j/a/jabreu/flow_simple_10atoms/flow/w474/t1/outdata/out

 Symmetries : space group Im m a (# 74); Bravais oI (body-center ortho.)
     intxc =       0      iscf =       7    lmnmax =      32     lnmax =       8
     mgfft =      72  mpssoang =       4    mqgrid =    3001     natom =      10
  nloc_mem =       1    nspden =       1   nspinor =       1    nsppol =       1
      nsym =       8    n1xccc =    2501    ntypat =       3    occopt =       1
   xclevel =       2
-    mband =          49        mffmem =           1         mkmem =           2
-   mkqmem =           2        mk1mem =           2           mpw =       12650
      nfft =      373248          nkpt =           2
  Rough estimation (10% accuracy) of disk space for files :

------------- Echo of variables that govern the present computation ------------
-
- outvars: echo of selected default values
-   iomode0 =  0 , fftalg0 =512 , wfoptalg0 =  0
-
- outvars: echo of global parameters not present in the input file
-  max_nthreads =    0
-
 -outvars: echo values of preprocessed input variables --------
            acell      1.0000000000E+00  1.0000000000E+00  1.0000000000E+00 Bohr
              amu      8.76200000E+01  1.78490000E+02  1.59994000E+01
             ecut      4.40000000E+01 Hartree
-          fftalg         512
           irdden           1
           irdwfk           1
           istwfk        0    1
              ixc     -116133
              kpt      5.00000000E-01  5.00000000E-01 -5.00000000E-01
                       0.00000000E+00  0.00000000E+00  0.00000000E+00
           kptopt           0
P           mkmem           2
P          mkqmem           2
P          mk1mem           2
            natom          10
            nband          49
           nbdbuf           4
            ngfft          72      72      72
             nkpt           2
            nstep        2000
             nsym           8
           ntypat           3
              occ      2.000000  2.000000  2.000000  2.000000  2.000000  2.000000
                       2.000000  2.000000  2.000000  2.000000  2.000000  2.000000
                       2.000000  2.000000  2.000000  2.000000  2.000000  2.000000
                       2.000000  2.000000  2.000000  2.000000  2.000000  2.000000
                       2.000000  2.000000  2.000000  2.000000  2.000000  2.000000
                       2.000000  2.000000  2.000000  2.000000  2.000000  2.000000
                       2.000000  2.000000  2.000000  2.000000  0.000000  0.000000
                       0.000000  0.000000  0.000000  0.000000  0.000000  0.000000
                       0.000000
        optdriver           1
            prtwf          -1
            rfdir           1       1       1
           rfelfd           2
            rprim      9.4279631728E+00  0.0000000000E+00 -5.3587594061E+00
                      -3.1714480910E+00  8.8572220507E+00 -5.3939156938E+00
                       0.0000000000E+00  0.0000000000E+00  1.0844482097E+01
          spgroup          74
           symrel      1  0  0   0  1  0   0  0  1      -1  0  0   0 -1  0   0  0 -1
                      -1 -1 -1   0  0  1   0  1  0       1  1  1   0  0 -1   0 -1  0
                       0  1  0   1  0  0  -1 -1 -1       0 -1  0  -1  0  0   1  1  1
                       0  0  1  -1 -1 -1   1  0  0       0  0 -1   1  1  1  -1  0  0
            tnons      0.0000000  0.0000000  0.0000000     0.0000000  0.0000000  0.0000000
                       0.0000000  0.5000000  0.5000000     0.0000000  0.5000000  0.5000000
                       0.0000000  0.0000000  0.0000000     0.0000000  0.0000000  0.0000000
                       0.0000000  0.5000000  0.5000000     0.0000000  0.5000000  0.5000000
           tolwfr      1.00000000E-20
            typat      1  1  2  2  3  3  3  3  3  3
           useylm           1
              wtk        0.50000    0.50000
           xangst      3.2731355426E+00  1.1717600102E+00  2.8697008143E+00
                       3.7669643921E-02  3.5152800305E+00 -2.8211186436E+00
                       1.6554025932E+00  2.3435200203E+00  2.4291085333E-02
                       0.0000000000E+00  0.0000000000E+00  2.8693263825E+00
                       1.3195662365E-01  3.7182663606E+00 -2.2678546851E-01
                       2.3397195388E+00  3.3122937004E+00 -4.0211273684E+00
                       3.1788485628E+00  9.6877368008E-01  2.7536763918E-01
                       9.7108564764E-01  1.3747463402E+00 -1.6689432259E+00
                       4.3246770719E-01  1.1717600102E+00  1.2168394574E+00
                       2.8783374793E+00  3.5152800305E+00 -1.1682572867E+00
            xcart      6.1853297713E+00  2.2143055127E+00  5.4229486224E+00
                       7.1185310534E-02  6.6429165380E+00 -5.3311416249E+00
                       3.1282575409E+00  4.4286110254E+00  4.5903498750E-02
                       0.0000000000E+00  0.0000000000E+00  5.4222410487E+00
                       2.4936188011E-01  7.0265051106E+00 -4.2856242640E-01
                       4.4214291562E+00  6.2593279655E+00 -7.5988294717E+00
                       6.0071532017E+00  1.8307169401E+00  5.2036942390E-01
                       1.8350859256E+00  2.5978940852E+00 -3.1538456282E+00
                       8.1724552790E-01  2.2143055127E+00  2.2994933221E+00
                       5.4392695539E+00  6.6429165380E+00 -2.2076863246E+00
             xred      7.4015900000E-01  2.5000000000E-01  9.9015900000E-01
                       2.5984100000E-01  7.5000000000E-01  9.8410000000E-03
                       5.0000000000E-01  5.0000000000E-01  5.0000000000E-01
                       0.0000000000E+00  0.0000000000E+00  5.0000000000E-01
                       2.9330800000E-01  7.9330800000E-01  5.0000000000E-01
                       7.0669200000E-01  7.0669200000E-01 -2.7755575616E-17
                       7.0669200000E-01  2.0669200000E-01  5.0000000000E-01
                       2.9330800000E-01  2.9330800000E-01  2.7755575616E-17
                       1.7078000000E-01  2.5000000000E-01  4.2078000000E-01
                       8.2922000000E-01  7.5000000000E-01  5.7922000000E-01
            znucl       38.00000   72.00000    8.00000

 chkinp: Checking input parameters for consistency.

== DATASET  1 ==================================================================
-   mpi_nproc: 1, omp_nthreads: -1 (-1 if OMP is not activated)

--- !DatasetInfo
iteration_state: {dtset: 1, }
dimensions: {natom: 10, nkpt: 2, mband: 49, nsppol: 1, nspinor: 1, nspden: 1, mpw: 12650, }
cutoff_energies: {ecut:  44.0, pawecutdg:  -1.0, }
electrons: {nelect:   8.00000000E+01, charge:   0.00000000E+00, occopt:   1.00000000E+00, tsmear:   1.00000000E-02, }
meta: {optdriver: 1, rfelfd: 2, }
...

 Real(R)+Recip(G) space primitive vectors, cartesian coordinates (Bohr,Bohr^-1):
 R(1)=  9.4279632  0.0000000 -5.3587594  G(1)=  0.1060674  0.0379789  0.0000000
 R(2)= -3.1714481  8.8572221 -5.3939157  G(2)=  0.0000000  0.1129022  0.0000000
 R(3)=  0.0000000  0.0000000 10.8444821  G(3)=  0.0524128  0.0749233  0.0922128
 Unit cell volume ucvol=  9.0557459E+02 bohr^3
 Angles (23,13,12)=  1.19827344E+02  1.19613464E+02  9.04850592E+01 degrees

 getcut: wavevector=  0.0000  0.0000  0.0000  ngfft=  72  72  72
         ecut(hartree)=     44.000   => boxcut(ratio)=   2.22356

 getcut : COMMENT -
  Note that boxcut > 2.2 ; recall that boxcut=Gcut(box)/Gcut(sphere) = 2
  is sufficient for exact treatment of convolution.
  Such a large boxcut is a waste : you could raise ecut
  e.g. ecut=   54.386420 Hartrees makes boxcut=2

--- Pseudopotential description ------------------------------------------------
- pspini: atom type   1  psp file is /scratch/users/j/a/jabreu/pseudos/PBEsol/Sr.psp8
- pspatm: opening atomic psp file    /scratch/users/j/a/jabreu/pseudos/PBEsol/Sr.psp8
- Sr    ONCVPSP-3.3.0  r_core=   1.66721   1.31335   1.51547
- 38.00000  10.00000    180112                znucl, zion, pspdat
    8 -116133    2    4       600   0.00000   pspcod,pspxc,lmax,lloc,mmax,r2well
    5.99000000000000    6.00000000000000    0.00000000000000   rchrg,fchrg,qchrg
     nproj     2     2     2
     extension_switch     1
  pspatm : epsatm=   12.46450977
         --- l  ekb(1:nproj) -->
             0   10.029206    1.044171
             1    7.472414    1.670829
             2    4.142950    0.968140
 pspatm: atomic psp has been read  and splines computed

- pspini: atom type   2  psp file is /scratch/users/j/a/jabreu/pseudos/PBEsol/Hf.psp8
- pspatm: opening atomic psp file    /scratch/users/j/a/jabreu/pseudos/PBEsol/Hf.psp8
- Hf    ONCVPSP-3.3.0  r_core=   1.71613   1.71613   1.71613   2.42541
- 72.00000  12.00000    180112                znucl, zion, pspdat
    8 -116133    3    4       600   0.00000   pspcod,pspxc,lmax,lloc,mmax,r2well
    5.99000000000000    5.40000000000000    0.00000000000000   rchrg,fchrg,qchrg
     nproj     2     2     2     2
     extension_switch     1
  pspatm : epsatm=   21.99082902
         --- l  ekb(1:nproj) -->
             0    5.882750   -0.519107
             1    2.555685   -1.768609
             2    1.383259    0.138001
             3    9.464546    0.347497
 pspatm: atomic psp has been read  and splines computed

- pspini: atom type   3  psp file is /scratch/users/j/a/jabreu/pseudos/PBEsol/O.psp8
- pspatm: opening atomic psp file    /scratch/users/j/a/jabreu/pseudos/PBEsol/O.psp8
- O     ONCVPSP-3.3.0  r_core=   1.35509   1.45563   1.26150
-  8.00000   6.00000    180112                znucl, zion, pspdat
    8 -116133    2    4       600   0.00000   pspcod,pspxc,lmax,lloc,mmax,r2well
    5.99000000000000    4.00000000000000    0.00000000000000   rchrg,fchrg,qchrg
     nproj     2     2     1
     extension_switch     1
  pspatm : epsatm=    6.22910522
         --- l  ekb(1:nproj) -->
             0    6.050032    0.820363
             1   -4.739617   -1.153841
             2   -1.335834
 pspatm: atomic psp has been read  and splines computed

   8.50282471E+03                                ecore*ucvol(ha*bohr**3)

 ==>  initialize data related to q vector <==

 The list of irreducible perturbations for this q vector is:
    1)    idir= 1    ipert=  11
    2)    idir= 2    ipert=  11
    3)    idir= 3    ipert=  11

 Perturbation wavevector (in red.coord.)   0.000000  0.000000  0.000000
 Perturbation : derivative vs k along direction   1

 dfpt_looppert : COMMENT -
  In a d/dk calculation, iscf is set to -3 automatically.
 The set of symmetries contains only one element for this perturbation.
[...]

 ----iterations are completed or convergence reached----

 dfpt_looppert: DFPT cycle converged with prtwf=-1. Will skip output of the 1st-order WFK file.
 dfpt_looppert : ek2=    8.0174029292E+01
          f-sum rule ratio=    1.0874688060E+00
 prteigrs : about to open file /scratch/users/j/a/jabreu/flow_simple_10atoms/flow/w474/t1/tmpdata/tmp_1WF1_EIG
 Expectation of eigenvalue derivatives (hartree) for nkpt=   2  k points:
  (in case of degenerate eigenvalues, averaged derivative)
 kpt#   1, nband= 49, wtk=  0.50000, kpt=  0.5000  0.5000 -0.5000 (reduced coord)
   0.00000   -0.00000   -0.00000    0.00000    0.00000   -0.00000   -0.00000    0.00000
   0.00000    0.00000   -0.00000   -0.00000   -0.00000   -0.00000   -0.00000    0.00000
   0.00000    0.00000   -0.00000    0.00000    0.00000    0.00000    0.00000    0.00000
  -0.00000   -0.00000    0.00000   -0.00000   -0.00000   -0.00000   -0.00000    0.00000
  -0.00000   -0.00000   -0.00000    0.00000   -0.00000    0.00000   -0.00000   -0.00000
   0.00000    0.00000    0.00000   -0.00000   -0.00000   -0.00000   -0.00000    0.00007
  -0.00003
 prteigrs : prtvol=0 or 1, do not print more k-points.

 Eight components of 2nd-order total energy (hartree) are
 1,2,3: 0th-order hamiltonian combined with 1st-order wavefunctions
     kin0=   7.50203614E+01 eigvalue=  -1.42966751E+00  local=  -4.21695413E+01
 4,5,6: 1st-order hamiltonian combined with 1st and 0th-order wfs
     kin1=  -8.71867559E+01  Hartree=   0.00000000E+00     xc=   0.00000000E+00
 7,8,9: eventually, occupation + non-local contributions
    edocc=   1.05962371E+01     enl0=   2.71634632E+00   enl1=  -2.28071609E+00
 1-9 gives the relaxation energy (to be shifted if some occ is /=2.0)
   erelax=  -4.47337360E+01
  No Ewald or frozen-wf contrib.: the relaxation energy is the total one
 2DEtotal=   -0.4473373600E+02 Ha. Also 2DEtotal=   -0.121726686174E+04 eV
    (  non-var. 2DEtotal :   -4.4733735998E+01 Ha)

 Perturbation wavevector (in red.coord.)   0.000000  0.000000  0.000000
 Perturbation : derivative vs k along direction   2
 The set of symmetries contains only one element for this perturbation.
 symkpt : not enough symmetry to change the number of k points.

[...]

 Perturbation wavevector (in red.coord.)   0.000000  0.000000  0.000000
 Perturbation : derivative vs k along direction   3
 The set of symmetries contains only one element for this perturbation.
 symkpt : not enough symmetry to change the number of k points.

 Initialisation of the first-order wave-functions :
  ireadwf=   0

--- !BeginCycle
iteration_state: {dtset: 1, }
solver: {iscf: 7, nstep: 2000, nline: 4, wfoptalg: 0, }
tolerances: {tolwfr: 1.00E-20, }
...

     iter   2DEtotal(Ha)        deltaE(Ha) residm    vres2
-ETOT  1  -60.527899291814     -6.053E+01 6.303E-02 0.000E+00
 ETOT  2  -60.608123947220     -8.022E-02 2.236E-02 0.000E+00
 ETOT  3  -60.608788415636     -6.645E-04 1.054E-03 0.000E+00
 ETOT  4  -60.608798462392     -1.005E-05 4.111E-04 0.000E+00
 ETOT  5  -60.608798649360     -1.870E-07 3.876E-05 0.000E+00
 ETOT  6  -60.608798653112     -3.751E-09 1.831E-05 0.000E+00
 ETOT  7  -60.608798653192     -7.993E-11 2.021E-06 0.000E+00
 ETOT  8  -60.608798653193     -1.755E-12 9.764E-07 0.000E+00
 ETOT  9  -60.608798653193     -7.105E-15 1.163E-07 0.000E+00
 ETOT 10  -60.608798653193     -1.421E-14 5.904E-08 0.000E+00
 ETOT 11  -60.608798653193     -7.105E-14 7.366E-09 0.000E+00
 ETOT 12  -60.608798653193      7.105E-15 3.892E-09 0.000E+00
 ETOT 13  -60.608798653193      1.421E-14 4.928E-10 0.000E+00
 ETOT 14  -60.608798653193      2.842E-14 2.671E-10 0.000E+00
 ETOT 15  -60.608798653193     -5.684E-14 3.383E-11 0.000E+00
 ETOT 16  -60.608798653193      2.842E-14 1.864E-11 0.000E+00
 ETOT 17  -60.608798653193      0.000E+00 2.351E-12 0.000E+00
 ETOT 18  -60.608798653193     -4.974E-14 1.309E-12 0.000E+00
 ETOT 19  -60.608798653193      4.974E-14 1.643E-13 0.000E+00
 ETOT 20  -60.608798653193      2.132E-14 9.213E-14 0.000E+00
 ETOT 21  -60.608798653193     -1.421E-14 1.152E-14 0.000E+00
 ETOT 22  -60.608798653193      7.105E-15 6.494E-15 0.000E+00
 ETOT 23  -60.608798653193      0.000E+00 8.087E-16 0.000E+00
 ETOT 24  -60.608798653193     -7.105E-15 4.580E-16 0.000E+00
 ETOT 25  -60.608798653193      0.000E+00 5.684E-17 0.000E+00
 ETOT 26  -60.608798653193      1.421E-14 3.231E-17 0.000E+00
 ETOT 27  -60.608798653193      0.000E+00 3.998E-18 0.000E+00
 ETOT 28  -60.608798653193      7.105E-15 2.280E-18 0.000E+00
 ETOT 29  -60.608798653193     -2.132E-14 2.814E-19 0.000E+00
 ETOT 30  -60.608798653193      1.421E-14 1.609E-19 0.000E+00
 ETOT 31  -60.608798653193      0.000E+00 1.981E-20 0.000E+00
 ETOT 32  -60.608798653193      0.000E+00 1.136E-20 0.000E+00
 ETOT 33  -60.608798653193      0.000E+00 9.961E-21 0.000E+00

 At SCF step   33   max residual=  9.96E-21 < tolwfr=  1.00E-20 =>converged.

 ----iterations are completed or convergence reached----

 dfpt_looppert: DFPT cycle converged with prtwf=-1. Will skip output of the 1st-order WFK file.
 dfpt_looppert : ek2=    1.0652104170E+02
          f-sum rule ratio=    1.1111192862E+00
 prteigrs : about to open file /scratch/users/j/a/jabreu/flow_simple_10atoms/flow/w474/t1/tmpdata/tmp_1WF1_EIG
 Expectation of eigenvalue derivatives (hartree) for nkpt=   2  k points:
  (in case of degenerate eigenvalues, averaged derivative)
 kpt#   1, nband= 49, wtk=  0.50000, kpt=  0.5000  0.5000 -0.5000 (reduced coord)
   0.00000   -0.00000   -0.00000   -0.00000    0.00000   -0.00000   -0.00000    0.00000
  -0.00000    0.00000   -0.00000   -0.00000   -0.00000   -0.00000   -0.00000    0.00000
   0.00000   -0.00000   -0.00000   -0.00000   -0.00000    0.00000    0.00000    0.00000
   0.00000   -0.00000   -0.00000   -0.00000    0.00000   -0.00000   -0.00000    0.00000
   0.00000   -0.00000   -0.00000   -0.00000    0.00000    0.00000    0.00000   -0.00000
   0.00000    0.00000    0.00000   -0.00000   -0.00000    0.00000   -0.00000    0.00030
  -0.00001
 prteigrs : prtvol=0 or 1, do not print more k-points.

 Eight components of 2nd-order total energy (hartree) are
 1,2,3: 0th-order hamiltonian combined with 1st-order wavefunctions
     kin0=   9.97535954E+01 eigvalue=  -2.21964566E+00  local=  -5.61974045E+01
 4,5,6: 1st-order hamiltonian combined with 1st and 0th-order wfs
     kin1=  -1.18357584E+02  Hartree=   0.00000000E+00     xc=   0.00000000E+00
 7,8,9: eventually, occupation + non-local contributions
    edocc=   1.51114422E+01     enl0=   4.16081127E+00   enl1=  -2.86001348E+00
 1-9 gives the relaxation energy (to be shifted if some occ is /=2.0)
   erelax=  -6.06087987E+01
  No Ewald or frozen-wf contrib.: the relaxation energy is the total one
 2DEtotal=   -0.6060879865E+02 Ha. Also 2DEtotal=   -0.164924928545E+04 eV
    (  non-var. 2DEtotal :   -6.0608798653E+01 Ha)

 CALCULATION OF EFFECTIVE MASSES
 NOTE : Additional infos (eff. mass eigenvalues, eigenvectors and, if degenerate, average mass) are available in stdout.

 K-point ( 0.500, 0.500,-0.500) | band =    40
 Effective mass tensor:
             -7.3759950473             -8.2055807312              9.8708579642
             -8.2055807312            -13.0403491745             14.1024157527
              9.8708579642             14.1024157527            -18.5969966421
 Effective mass tensor eigenvalues:
            -35.9568997957             -1.6325733442             -1.4238677241
 Angular average effective mass 1/(<1/m>)=  -2.2343815431
 Angular average effective mass for Frohlich model (<m**0.5>)**2=  -2.9577186452
 Effective masses along directions: (cart. coord. / red. coord. -> eff. mass)
    1:   1.000000  0.000000  0.000000 /   0.947811 -0.318832  0.000000 ->  -1.9156118922
    2:   0.000000  1.000000  0.000000 /   0.000000  1.000000  0.000000 ->  -2.1034095778
    3:   0.000000  0.000000  1.000000 /  -0.404606 -0.407261  0.818799 ->  -2.8968007393
    4:   0.577350  0.577350  0.577350 /   0.351203  0.025190  0.935960 ->  -1.5922777282
    5:   0.000000  0.707107  0.707107 /  -0.425898  0.275253  0.861886 ->  -1.4582302540
    6:   0.707107  0.000000  0.707107 /   0.282470 -0.594578  0.752787 ->  -1.6973314820
    7:   0.707107  0.707107  0.000000 /   0.856329  0.516431  0.000000 ->  -2.9546413579

 K-point ( 0.000, 0.000, 0.000) | band =    41
 Effective mass tensor:
              0.6966534918              0.3632643265             -0.4127926431
              0.3632643265              0.9058360200             -0.6243199020
             -0.4127926431             -0.6243199020              1.1659095020
 Effective mass tensor eigenvalues:
              0.3915696950              0.4564677787              1.9203615402
 Angular average effective mass 1/(<1/m>)=   0.5697687326
 Angular average effective mass for Frohlich model (<m**0.5>)**2=   0.6346415873
 Effective masses along directions: (cart. coord. / red. coord. -> eff. mass)
    1:   1.000000  0.000000  0.000000 /   0.947811 -0.318832  0.000000 ->   0.5151117276
    2:   0.000000  1.000000  0.000000 /   0.000000  1.000000  0.000000 ->   0.5347826907
    3:   0.000000  0.000000  1.000000 /  -0.404606 -0.407261  0.818799 ->   0.6877345555
    4:   0.577350  0.577350  0.577350 /   0.351203  0.025190  0.935960 ->   0.4400815324
    5:   0.000000  0.707107  0.707107 /  -0.425898  0.275253  0.861886 ->   0.4012445904
    6:   0.707107  0.000000  0.707107 /   0.282470 -0.594578  0.752787 ->   0.4702934227
    7:   0.707107  0.707107  0.000000 /   0.856329  0.516431  0.000000 ->   0.7029734259

 END OF EFFECTIVE MASSES SECTION

 ---- first-order wavefunction calculations are completed ----

 Total localisation tensor (bohr^2) in cartesian coordinates
  WARNING : still subject to testing - especially symmetries.
      direction              matrix element
   alpha     beta       real part   imaginary part
     1        1       1.0981961566    0.0000000000
     1        2      -0.3178399403    0.0000000000
     1        3      -0.3659571884    0.0000000000
     2        1      -0.3178399403    0.0000000000
     2        2       0.8876635678    0.0000000000
     2        3      -0.5405738302    0.0000000000
     3        1      -0.3659571884    0.0000000000
     3        2      -0.5405738302    0.0000000000
     3        3       2.4613498848    0.0000000000

 respfn : d/dk was computed, but no 2DTE, so no DDB output.

== END DATASET(S) ==============================================================

 -outvars: echo values of variables after computation  --------
            acell      1.0000000000E+00  1.0000000000E+00  1.0000000000E+00 Bohr
              amu      8.76200000E+01  1.78490000E+02  1.59994000E+01
             ecut      4.40000000E+01 Hartree
           etotal     -6.0608798653E+01
            fcart      0.0000000000E+00  0.0000000000E+00  0.0000000000E+00
                       0.0000000000E+00  0.0000000000E+00  0.0000000000E+00
                       0.0000000000E+00  0.0000000000E+00  0.0000000000E+00
                       0.0000000000E+00  0.0000000000E+00  0.0000000000E+00
                       0.0000000000E+00  0.0000000000E+00  0.0000000000E+00
                       0.0000000000E+00  0.0000000000E+00  0.0000000000E+00
                       0.0000000000E+00  0.0000000000E+00  0.0000000000E+00
                       0.0000000000E+00  0.0000000000E+00  0.0000000000E+00
                       0.0000000000E+00  0.0000000000E+00  0.0000000000E+00
                       0.0000000000E+00  0.0000000000E+00  0.0000000000E+00
-          fftalg         512
           irdden           1
           irdwfk           1
           istwfk        0    1
              ixc     -116133
              kpt      5.00000000E-01  5.00000000E-01 -5.00000000E-01
                       0.00000000E+00  0.00000000E+00  0.00000000E+00
           kptopt           0
P           mkmem           2
P          mkqmem           2
P          mk1mem           2
            natom          10
            nband          49
           nbdbuf           4
            ngfft          72      72      72
             nkpt           2
            nstep        2000
             nsym           8
           ntypat           3
              occ      2.000000  2.000000  2.000000  2.000000  2.000000  2.000000
                       2.000000  2.000000  2.000000  2.000000  2.000000  2.000000
                       2.000000  2.000000  2.000000  2.000000  2.000000  2.000000
                       2.000000  2.000000  2.000000  2.000000  2.000000  2.000000
                       2.000000  2.000000  2.000000  2.000000  2.000000  2.000000
                       2.000000  2.000000  2.000000  2.000000  2.000000  2.000000
                       2.000000  2.000000  2.000000  2.000000  0.000000  0.000000
                       0.000000  0.000000  0.000000  0.000000  0.000000  0.000000
                       0.000000
        optdriver           1
            prtwf          -1
            rfdir           1       1       1
           rfelfd           2
            rprim      9.4279631728E+00  0.0000000000E+00 -5.3587594061E+00
                      -3.1714480910E+00  8.8572220507E+00 -5.3939156938E+00
                       0.0000000000E+00  0.0000000000E+00  1.0844482097E+01
          spgroup          74
           strten      0.0000000000E+00  0.0000000000E+00  0.0000000000E+00
                       0.0000000000E+00  0.0000000000E+00  0.0000000000E+00
           symrel      1  0  0   0  1  0   0  0  1      -1  0  0   0 -1  0   0  0 -1
                      -1 -1 -1   0  0  1   0  1  0       1  1  1   0  0 -1   0 -1  0
                       0  1  0   1  0  0  -1 -1 -1       0 -1  0  -1  0  0   1  1  1
                       0  0  1  -1 -1 -1   1  0  0       0  0 -1   1  1  1  -1  0  0
            tnons      0.0000000  0.0000000  0.0000000     0.0000000  0.0000000  0.0000000
                       0.0000000  0.5000000  0.5000000     0.0000000  0.5000000  0.5000000
                       0.0000000  0.0000000  0.0000000     0.0000000  0.0000000  0.0000000
                       0.0000000  0.5000000  0.5000000     0.0000000  0.5000000  0.5000000
           tolwfr      1.00000000E-20
            typat      1  1  2  2  3  3  3  3  3  3
           useylm           1
              wtk        0.50000    0.50000
           xangst      3.2731355426E+00  1.1717600102E+00  2.8697008143E+00
                       3.7669643921E-02  3.5152800305E+00 -2.8211186436E+00
                       1.6554025932E+00  2.3435200203E+00  2.4291085333E-02
                       0.0000000000E+00  0.0000000000E+00  2.8693263825E+00
                       1.3195662365E-01  3.7182663606E+00 -2.2678546851E-01
                       2.3397195388E+00  3.3122937004E+00 -4.0211273684E+00
                       3.1788485628E+00  9.6877368008E-01  2.7536763918E-01
                       9.7108564764E-01  1.3747463402E+00 -1.6689432259E+00
                       4.3246770719E-01  1.1717600102E+00  1.2168394574E+00
                       2.8783374793E+00  3.5152800305E+00 -1.1682572867E+00
            xcart      6.1853297713E+00  2.2143055127E+00  5.4229486224E+00
                       7.1185310534E-02  6.6429165380E+00 -5.3311416249E+00
                       3.1282575409E+00  4.4286110254E+00  4.5903498750E-02
                       0.0000000000E+00  0.0000000000E+00  5.4222410487E+00
                       2.4936188011E-01  7.0265051106E+00 -4.2856242640E-01
                       4.4214291562E+00  6.2593279655E+00 -7.5988294717E+00
                       6.0071532017E+00  1.8307169401E+00  5.2036942390E-01
                       1.8350859256E+00  2.5978940852E+00 -3.1538456282E+00
                       8.1724552790E-01  2.2143055127E+00  2.2994933221E+00
                       5.4392695539E+00  6.6429165380E+00 -2.2076863246E+00
             xred      7.4015900000E-01  2.5000000000E-01  9.9015900000E-01
                       2.5984100000E-01  7.5000000000E-01  9.8410000000E-03
                       5.0000000000E-01  5.0000000000E-01  5.0000000000E-01
                       0.0000000000E+00  0.0000000000E+00  5.0000000000E-01
                       2.9330800000E-01  7.9330800000E-01  5.0000000000E-01
                       7.0669200000E-01  7.0669200000E-01 -2.7755575616E-17
                       7.0669200000E-01  2.0669200000E-01  5.0000000000E-01
                       2.9330800000E-01  2.9330800000E-01  2.7755575616E-17
                       1.7078000000E-01  2.5000000000E-01  4.2078000000E-01
                       8.2922000000E-01  7.5000000000E-01  5.7922000000E-01
            znucl       38.00000   72.00000    8.00000

- Timing analysis has been suppressed with timopt=0

 Suggested references for the acknowledgment of ABINIT usage.

 Calculation completed.
.Delivered   2 WARNINGs and  11 COMMENTs to log file.