.Version 9.5.1 of ABINIT

 ABINIT is a project of the Universite Catholique de Louvain,
 Corning Inc. and other collaborators, see ~abinit/doc/developers/contributors.txt .
 acknowledgments of the ABINIT effort.

.Starting date : Tue 18 May 2021.
- ( at 17h34 )

- input  file    -> /scratch/users/j/a/jabreu/flow_simple_8atoms/flow/w353/t1/run.abi
- output file    -> /scratch/users/j/a/jabreu/flow_simple_8atoms/flow/w353/t1/run.abo
- root for input  files -> /scratch/users/j/a/jabreu/flow_simple_8atoms/flow/w353/t1/indata/in
- root for output files -> /scratch/users/j/a/jabreu/flow_simple_8atoms/flow/w353/t1/outdata/out

 Symmetries : space group P-4 2_1 m (#113); Bravais tP (primitive tetrag.)
     intxc =       0      iscf =       7    lmnmax =      18     lnmax =       6
     mgfft =      80  mpssoang =       3    mqgrid =    3866     natom =       8
  nloc_mem =       1    nspden =       1   nspinor =       1    nsppol =       1
      nsym =       8    n1xccc =    2501    ntypat =       3    occopt =       1
   xclevel =       2
-    mband =          71        mffmem =           1         mkmem =           2
-   mkqmem =           2        mk1mem =           2           mpw =       20547
      nfft =      345600          nkpt =           2
  Rough estimation (10% accuracy) of disk space for files :

------------- Echo of variables that govern the present computation ------------
-
- outvars: echo of selected default values
-   iomode0 =  0 , fftalg0 =512 , wfoptalg0 =  0
-
- outvars: echo of global parameters not present in the input file
-  max_nthreads =    0
-
 -outvars: echo values of preprocessed input variables --------
            acell      1.0000000000E+00  1.0000000000E+00  1.0000000000E+00 Bohr
              amu      8.89058500E+01  1.07868200E+02  1.27600000E+02
             ecut      4.30000000E+01 Hartree
-          fftalg         512
           irdden           1
           irdwfk           1
           istwfk        1    0
              ixc     -116133
              kpt      0.00000000E+00  0.00000000E+00  0.00000000E+00
                      -7.70371978E-34 -7.70371978E-34  4.76190476E-02
           kptopt           0
P           mkmem           2
P          mkqmem           2
P          mk1mem           2
            natom           8
            nband          71
           nbdbuf           4
            ngfft          80      80      54
             nkpt           2
            nstep        2000
             nsym           8
           ntypat           3
              occ      2.000000  2.000000  2.000000  2.000000  2.000000  2.000000
                       2.000000  2.000000  2.000000  2.000000  2.000000  2.000000
                       2.000000  2.000000  2.000000  2.000000  2.000000  2.000000
                       2.000000  2.000000  2.000000  2.000000  2.000000  2.000000
                       2.000000  2.000000  2.000000  2.000000  2.000000  2.000000
                       2.000000  2.000000  2.000000  2.000000  2.000000  2.000000
                       2.000000  2.000000  2.000000  2.000000  2.000000  2.000000
                       2.000000  2.000000  2.000000  2.000000  2.000000  2.000000
                       2.000000  2.000000  2.000000  2.000000  2.000000  2.000000
                       2.000000  2.000000  2.000000  2.000000  2.000000  2.000000
                       2.000000  2.000000  0.000000  0.000000  0.000000  0.000000
                       0.000000  0.000000  0.000000  0.000000  0.000000
        optdriver           1
            prtwf          -1
            rfdir           1       1       1
           rfelfd           2
            rprim      1.3096497935E+01  0.0000000000E+00  0.0000000000E+00
                       0.0000000000E+00  1.3096497935E+01  0.0000000000E+00
                       0.0000000000E+00  0.0000000000E+00  8.8796371484E+00
          spgroup         113
           symrel      1  0  0   0  1  0   0  0  1      -1  0  0   0  1  0   0  0 -1
                      -1  0  0   0 -1  0   0  0  1       1  0  0   0 -1  0   0  0 -1
                       0  1  0   1  0  0   0  0  1       0 -1  0   1  0  0   0  0 -1
                       0 -1  0  -1  0  0   0  0  1       0  1  0  -1  0  0   0  0 -1
            tnons      0.0000000  0.0000000  0.0000000     0.5000000  0.5000000  0.0000000
                       0.0000000  0.0000000  0.0000000     0.5000000  0.5000000  0.0000000
                       0.5000000  0.5000000  0.0000000     0.0000000  0.0000000  0.0000000
                       0.5000000  0.5000000  0.0000000     0.0000000  0.0000000  0.0000000
           tolwfr      1.00000000E-20
            typat      1  1  2  2  3  3  3  3
           useylm           1
              wtk        0.50000    0.50000
           xangst      0.0000000000E+00  3.4651841099E+00  3.8400786552E+00
                       3.4651841099E+00  0.0000000000E+00  8.5882294424E-01
                       0.0000000000E+00  0.0000000000E+00  0.0000000000E+00
                       3.4651841099E+00  3.4651841099E+00  0.0000000000E+00
                       5.5288883672E+00  2.0637042574E+00  1.4038109496E+00
                       2.0637042574E+00  1.4014798525E+00  3.2950906499E+00
                       4.8666639623E+00  5.5288883672E+00  3.2950906499E+00
                       1.4014798525E+00  4.8666639623E+00  1.4038109496E+00
            xcart      0.0000000000E+00  6.5482489677E+00  7.2566969871E+00
                       6.5482489677E+00  0.0000000000E+00  1.6229401613E+00
                       0.0000000000E+00  0.0000000000E+00  0.0000000000E+00
                       6.5482489677E+00  6.5482489677E+00  0.0000000000E+00
                       1.0448084833E+01  3.8998358657E+00  2.6528182370E+00
                       3.8998358657E+00  2.6484131020E+00  6.2268189114E+00
                       9.1966620696E+00  1.0448084833E+01  6.2268189114E+00
                       2.6484131020E+00  9.1966620696E+00  2.6528182370E+00
             xred      0.0000000000E+00  5.0000000000E-01  8.1722900000E-01
                       5.0000000000E-01  0.0000000000E+00  1.8277100000E-01
                       0.0000000000E+00  0.0000000000E+00  0.0000000000E+00
                       5.0000000000E-01  5.0000000000E-01  0.0000000000E+00
                       7.9777700000E-01  2.9777700000E-01  2.9875300000E-01
                       2.9777700000E-01  2.0222300000E-01  7.0124700000E-01
                       7.0222300000E-01  7.9777700000E-01  7.0124700000E-01
                       2.0222300000E-01  7.0222300000E-01  2.9875300000E-01
            znucl       39.00000   47.00000   52.00000

 chkinp: Checking input parameters for consistency.

== DATASET  1 ==================================================================
-   mpi_nproc: 1, omp_nthreads: -1 (-1 if OMP is not activated)

--- !DatasetInfo
iteration_state: {dtset: 1, }
dimensions: {natom: 8, nkpt: 2, mband: 71, nsppol: 1, nspinor: 1, nspden: 1, mpw: 20547, }
cutoff_energies: {ecut:  43.0, pawecutdg:  -1.0, }
electrons: {nelect:   1.24000000E+02, charge:   0.00000000E+00, occopt:   1.00000000E+00, tsmear:   1.00000000E-02, }
meta: {optdriver: 1, rfelfd: 2, }
...

 Real(R)+Recip(G) space primitive vectors, cartesian coordinates (Bohr,Bohr^-1):
 R(1)= 13.0964979  0.0000000  0.0000000  G(1)=  0.0763563  0.0000000  0.0000000
 R(2)=  0.0000000 13.0964979  0.0000000  G(2)=  0.0000000  0.0763563  0.0000000
 R(3)=  0.0000000  0.0000000  8.8796371  G(3)=  0.0000000  0.0000000  0.1126172
 Unit cell volume ucvol=  1.5230199E+03 bohr^3
 Angles (23,13,12)=  9.00000000E+01  9.00000000E+01  9.00000000E+01 degrees

 getcut: wavevector=  0.0000  0.0000  0.0000  ngfft=  80  80  54
         ecut(hartree)=     43.000   => boxcut(ratio)=   2.06015

--- Pseudopotential description ------------------------------------------------
- pspini: atom type   1  psp file is /scratch/users/j/a/jabreu/pseudos/PBEsol/Y.psp8
- pspatm: opening atomic psp file    /scratch/users/j/a/jabreu/pseudos/PBEsol/Y.psp8
- Y     ONCVPSP-3.3.0  r_core=   1.60520   1.51226   1.56736
- 39.00000  11.00000    180112                znucl, zion, pspdat
    8 -116133    2    4       600   0.00000   pspcod,pspxc,lmax,lloc,mmax,r2well
    5.99000000000000    4.00000000000000    0.00000000000000   rchrg,fchrg,qchrg
     nproj     2     2     2
     extension_switch     1
  pspatm : epsatm=   18.54790046
         --- l  ekb(1:nproj) -->
             0   10.130768    0.866504
             1    5.598307    0.427135
             2    1.217602    0.315447
 pspatm: atomic psp has been read  and splines computed

- pspini: atom type   2  psp file is /scratch/users/j/a/jabreu/pseudos/PBEsol/Ag.psp8
- pspatm: opening atomic psp file    /scratch/users/j/a/jabreu/pseudos/PBEsol/Ag.psp8
- Ag    ONCVPSP-3.3.0  r_core=   1.41384   1.46535   1.61207
- 47.00000  19.00000    180112                znucl, zion, pspdat
    8 -116133    2    4       600   0.00000   pspcod,pspxc,lmax,lloc,mmax,r2well
    5.99000000000000    7.00000000000000    0.00000000000000   rchrg,fchrg,qchrg
     nproj     2     2     2
     extension_switch     1
  pspatm : epsatm=   27.64581383
         --- l  ekb(1:nproj) -->
             0    9.559407   -0.398585
             1    3.418858   -0.136622
             2   -1.644397   -0.401551
 pspatm: atomic psp has been read  and splines computed

- pspini: atom type   3  psp file is /scratch/users/j/a/jabreu/pseudos/PBEsol/Te.psp8
- pspatm: opening atomic psp file    /scratch/users/j/a/jabreu/pseudos/PBEsol/Te.psp8
- Te    ONCVPSP-3.3.0  r_core=   2.26547   1.91704   1.80604
- 52.00000  16.00000    180112                znucl, zion, pspdat
    8 -116133    2    4       600   0.00000   pspcod,pspxc,lmax,lloc,mmax,r2well
    5.99000000000000    5.00000000000000    0.00000000000000   rchrg,fchrg,qchrg
     nproj     2     2     2
     extension_switch     1
  pspatm : epsatm=   36.82679836
         --- l  ekb(1:nproj) -->
             0    6.345999    0.785432
             1    5.709019    1.070069
             2   -6.035173   -1.870937
 pspatm: atomic psp has been read  and splines computed

   2.97221331E+04                                ecore*ucvol(ha*bohr**3)

-inwffil : will read wavefunctions from disk file /scratch/users/j/a/jabreu/flow_simple_8atoms/flow/w353/t1/indata/in_WFK

 ==>  initialize data related to q vector <==

 The list of irreducible perturbations for this q vector is:
    1)    idir= 1    ipert=   9
    2)    idir= 2    ipert=   9
    3)    idir= 3    ipert=   9

 Perturbation wavevector (in red.coord.)   0.000000  0.000000  0.000000
 Perturbation : derivative vs k along direction   1

 dfpt_looppert : COMMENT -
  In a d/dk calculation, iscf is set to -3 automatically.
 The set of symmetries contains only one element for this perturbation.
 symkpt : not enough symmetry to change the number of k points.

[...]

 Initialisation of the first-order wave-functions :
  ireadwf=   0

--- !BeginCycle
iteration_state: {dtset: 1, }
solver: {iscf: 7, nstep: 2000, nline: 4, wfoptalg: 0, }
tolerances: {tolwfr: 1.00E-20, }
...

     iter   2DEtotal(Ha)        deltaE(Ha) residm    vres2
-ETOT  1  -52.677560449992     -5.268E+01 4.788E-02 0.000E+00
[...]
     kin0=   7.07102974E+01 eigvalue=   4.23455695E+00  local=  -3.89860382E+01
 4,5,6: 1st-order hamiltonian combined with 1st and 0th-order wfs
     kin1=  -6.48977835E+01  Hartree=   0.00000000E+00     xc=   0.00000000E+00
 7,8,9: eventually, occupation + non-local contributions
    edocc=   9.13711915E+00     enl0=   7.67537949E+00   enl1=  -4.06448460E+01
 1-9 gives the relaxation energy (to be shifted if some occ is /=2.0)
   erelax=  -5.27713148E+01
  No Ewald or frozen-wf contrib.: the relaxation energy is the total one
 2DEtotal=   -0.5277131476E+02 Ha. Also 2DEtotal=   -0.143598050284E+04 eV
    (  non-var. 2DEtotal :   -5.2771314764E+01 Ha)

 Perturbation wavevector (in red.coord.)   0.000000  0.000000  0.000000
 Perturbation : derivative vs k along direction   2
 The set of symmetries contains only one element for this perturbation.
 symkpt : not enough symmetry to change the number of k points.

[...]

 Perturbation wavevector (in red.coord.)   0.000000  0.000000  0.000000
 Perturbation : derivative vs k along direction   3
 The set of symmetries contains only one element for this perturbation.
 symkpt : not enough symmetry to change the number of k points.

-inwffil : will read wavefunctions from disk file /scratch/users/j/a/jabreu/flow_simple_8atoms/flow/w353/t1/indata/in_WFK

 Initialisation of the first-order wave-functions :
  ireadwf=   0

--- !BeginCycle
iteration_state: {dtset: 1, }
solver: {iscf: 7, nstep: 2000, nline: 4, wfoptalg: 0, }
tolerances: {tolwfr: 1.00E-20, }
...

     iter   2DEtotal(Ha)        deltaE(Ha) residm    vres2
-ETOT  1  -117.84956825198     -1.178E+02 5.079E-02 0.000E+00
 ETOT  2  -118.06465348335     -2.151E-01 6.910E-03 0.000E+00
 ETOT  3  -118.06755928632     -2.906E-03 2.546E-04 0.000E+00
 ETOT  4  -118.06763791633     -7.863E-05 4.669E-05 0.000E+00
 ETOT  5  -118.06764042451     -2.508E-06 2.254E-06 0.000E+00
 ETOT  6  -118.06764051198     -8.747E-08 4.456E-07 0.000E+00
 ETOT  7  -118.06764051571     -3.730E-09 2.318E-08 0.000E+00
 ETOT  8  -118.06764051588     -1.754E-10 6.686E-09 0.000E+00
 ETOT  9  -118.06764051589     -8.782E-12 3.723E-10 0.000E+00
 ETOT 10  -118.06764051589     -4.121E-13 1.050E-10 0.000E+00
 ETOT 11  -118.06764051589     -1.421E-14 5.699E-12 0.000E+00
 ETOT 12  -118.06764051589      4.263E-14 1.678E-12 0.000E+00
 ETOT 13  -118.06764051589     -2.842E-14 8.820E-14 0.000E+00
 ETOT 14  -118.06764051589      0.000E+00 2.685E-14 0.000E+00
 ETOT 15  -118.06764051589      2.842E-14 2.097E-15 0.000E+00
 ETOT 16  -118.06764051589      1.421E-14 4.337E-16 0.000E+00
 ETOT 17  -118.06764051589     -4.263E-14 7.209E-17 0.000E+00
 ETOT 18  -118.06764051589      7.105E-14 7.084E-18 0.000E+00
 ETOT 19  -118.06764051589     -8.527E-14 2.498E-18 0.000E+00
 ETOT 20  -118.06764051589      5.684E-14 1.796E-19 0.000E+00
 ETOT 21  -118.06764051589     -4.263E-14 8.718E-20 0.000E+00
 ETOT 22  -118.06764051589      0.000E+00 9.962E-21 0.000E+00

 At SCF step   22   max residual=  9.96E-21 < tolwfr=  1.00E-20 =>converged.

 ----iterations are completed or convergence reached----

 dfpt_looppert: DFPT cycle converged with prtwf=-1. Will skip output of the 1st-order WFK file.
 dfpt_looppert : ek2=    1.2417122874E+02
          f-sum rule ratio=    1.1852205209E+00
 prteigrs : about to open file /scratch/users/j/a/jabreu/flow_simple_8atoms/flow/w353/t1/tmpdata/tmp_1WF1_EIG
 Expectation of eigenvalue derivatives (hartree) for nkpt=   2  k points:
  (in case of degenerate eigenvalues, averaged derivative)
 kpt#   1, nband= 71, wtk=  0.50000, kpt=  0.0000  0.0000  0.0000 (reduced coord)
   0.00000    0.00000   -0.00000   -0.00000   -0.00000   -0.00000    0.00000   -0.00000
  -0.00000    0.00000   -0.00000    0.00000   -0.00000   -0.00000   -0.00000    0.00000
   0.00000   -0.00000    0.00000   -0.00000   -0.00000   -0.00000    0.00000   -0.00000
   0.00000    0.00000    0.00000    0.00000   -0.00000   -0.00000    0.00000    0.00000
   0.00000   -0.00000   -0.00000    0.00000    0.00000    0.00000    0.00000    0.00000
   0.00000    0.00000   -0.00000    0.00000    0.00000    0.00000   -0.00000   -0.00000
  -0.00000   -0.00000    0.00000   -0.00000    0.00000    0.00000    0.00000   -0.00000
  -0.00000    0.00000   -0.00000   -0.00000   -0.00000   -0.00000   -0.00000    0.00000
  -0.00000   -0.00000   -0.00000    0.00000    0.00000    0.00009    0.00000
 prteigrs : prtvol=0 or 1, do not print more k-points.

 Eight components of 2nd-order total energy (hartree) are
 1,2,3: 0th-order hamiltonian combined with 1st-order wavefunctions
     kin0=   1.78953344E+02 eigvalue=   5.05328120E+00  local=  -1.00405074E+02
 4,5,6: 1st-order hamiltonian combined with 1st and 0th-order wfs
     kin1=  -1.47170288E+02  Hartree=   0.00000000E+00     xc=   0.00000000E+00
 7,8,9: eventually, occupation + non-local contributions
    edocc=   1.84512050E+01     enl0=   1.60148841E+01   enl1=  -8.89649926E+01
 1-9 gives the relaxation energy (to be shifted if some occ is /=2.0)
   erelax=  -1.18067641E+02
  No Ewald or frozen-wf contrib.: the relaxation energy is the total one
 2DEtotal=   -0.1180676405E+03 Ha. Also 2DEtotal=   -0.321278388752E+04 eV
    (  non-var. 2DEtotal :   -1.1806764052E+02 Ha)

 CALCULATION OF EFFECTIVE MASSES
 NOTE : Additional infos (eff. mass eigenvalues, eigenvectors and, if degenerate, average mass) are available in stdout.

 COMMENTS:
 - At k-point ( 0.000, 0.000, 0.000), bands    61 through    62
   are DEGENERATE (effective mass tensor is therefore not defined).
   See Section IIIB Eqs. (67)-(70) and Appendix E of PRB 93 205147 (2016).
 - Angular average effective mass for Frohlich model is to be averaged over degenerate bands. See later.
 - Associated theta integrals calculated with ntheta=   1000 points.

 K-point ( 0.000, 0.000, 0.000) | band =    61
 Transport equivalent effective mass tensor:
             -0.1393931879             -0.0000000042             -0.0000002079
             -0.0000000042             -0.1393932733              0.0000009721
             -0.0000002079              0.0000009721             -0.3900671765
 Transport equivalent effective mass tensor eigenvalues:
             -0.3900671765             -0.1393932735             -0.1393931877
 Angular average effective mass 1/(<1/m>)=  -0.1752128051
 Angular average effective mass for Frohlich model (<m**0.5>)**2=  -0.1853973230
 Effective masses along directions: (cart. coord. / red. coord. -> eff. mass)
    1:   1.000000  0.000000  0.000000 /   1.000000  0.000000  0.000000 ->  -0.1481736034
    2:   0.000000  1.000000  0.000000 /   0.000000  1.000000  0.000000 ->  -0.1481736031
    3:   0.000000  0.000000  1.000000 /   0.000000  0.000000  1.000000 ->  -0.3830472206
    4:   0.577350  0.577350  0.577350 /   0.637615  0.637615  0.432313 ->  -0.1661448764
    5:   0.000000  0.707107  0.707107 /   0.000000  0.827689  0.561187 ->  -0.2136867799
    6:   0.707107  0.000000  0.707107 /   0.827689  0.000000  0.561187 ->  -0.2136877202
    7:   0.707107  0.707107  0.000000 /   0.707107  0.707107  0.000000 ->  -0.1294844057

 K-point ( 0.000, 0.000, 0.000) | band =    62
 Transport equivalent effective mass tensor:
             -1.1959271309              0.0000087537             -0.0000022472
              0.0000087537             -1.1959362488             -0.0000189539
             -0.0000022472             -0.0000189539             -0.6910379975
 Transport equivalent effective mass tensor eigenvalues:
             -1.1959415600             -1.1959218204             -0.6910379967
 Angular average effective mass 1/(<1/m>)=  -0.5936670771
 Angular average effective mass for Frohlich model (<m**0.5>)**2=  -0.6372479289
 Effective masses along directions: (cart. coord. / red. coord. -> eff. mass)
    1:   1.000000  0.000000  0.000000 /   1.000000  0.000000  0.000000 ->  -0.5786251216
    2:   0.000000  1.000000  0.000000 /   0.000000  1.000000  0.000000 ->  -0.5786315913
    3:   0.000000  0.000000  1.000000 /   0.000000  0.000000  1.000000 ->  -0.3830539167
    4:   0.577350  0.577350  0.577350 /   0.637615  0.637615  0.432313 ->  -0.7283703161
    5:   0.000000  0.707107  0.707107 /   0.000000  0.827689  0.561187 ->  -0.4609618649
    6:   0.707107  0.000000  0.707107 /   0.827689  0.000000  0.561187 ->  -0.4609519417
    7:   0.707107  0.707107  0.000000 /   0.707107  0.707107  0.000000 ->  -1.3260259621

 Angular average effective mass for Frohlich model, averaged over degenerate bands.
 Value of     (<<m**0.5>>)**2 =     3.775218E-01
 Absolute Value of <<m**0.5>> =     6.144280E-01

 K-point (-0.000,-0.000, 0.048) | band =    63
 Effective mass tensor:
              0.3363103074             -0.0000000566             -0.0000000890
             -0.0000000566              0.3363103025              0.0000000564
             -0.0000000890              0.0000000564              0.2912866813
 Effective mass tensor eigenvalues:
              0.2912866813              0.3363102483              0.3363103617
 Angular average effective mass 1/(<1/m>)=   0.3198317135
 Angular average effective mass for Frohlich model (<m**0.5>)**2=   0.3202831533
 Effective masses along directions: (cart. coord. / red. coord. -> eff. mass)
    1:   1.000000  0.000000  0.000000 /   1.000000  0.000000  0.000000 ->   0.3363103074
    2:   0.000000  1.000000  0.000000 /   0.000000  1.000000  0.000000 ->   0.3363103025
    3:   0.000000  0.000000  1.000000 /   0.000000  0.000000  1.000000 ->   0.2912866813
    4:   0.577350  0.577350  0.577350 /   0.637615  0.637615  0.432313 ->   0.3198316567
    5:   0.000000  0.707107  0.707107 /   0.000000  0.827689  0.561187 ->   0.3121835574
    6:   0.707107  0.000000  0.707107 /   0.827689  0.000000  0.561187 ->   0.3121834149
    7:   0.707107  0.707107  0.000000 /   0.707107  0.707107  0.000000 ->   0.3363102483

 END OF EFFECTIVE MASSES SECTION

 ---- first-order wavefunction calculations are completed ----

 Total localisation tensor (bohr^2) in cartesian coordinates
  WARNING : still subject to testing - especially symmetries.
      direction              matrix element
   alpha     beta       real part   imaginary part
     1        1       2.1094170522    0.0000000000
     1        2       0.0000000000    0.0000000000
     1        3       0.0000000000    0.0000000000
     2        1       0.0000000000    0.0000000000
     2        2       2.1094158560    0.0000000000
     2        3       0.0000000000    0.0000000000
     3        1       0.0000000000    0.0000000000
     3        2       0.0000000000    0.0000000000
     3        3       2.3093634009    0.0000000000

 respfn : d/dk was computed, but no 2DTE, so no DDB output.

== END DATASET(S) ==============================================================

 -outvars: echo values of variables after computation  --------
            acell      1.0000000000E+00  1.0000000000E+00  1.0000000000E+00 Bohr
              amu      8.89058500E+01  1.07868200E+02  1.27600000E+02
             ecut      4.30000000E+01 Hartree
           etotal     -1.1806764052E+02
            fcart      0.0000000000E+00  0.0000000000E+00  0.0000000000E+00
                       0.0000000000E+00  0.0000000000E+00  0.0000000000E+00
                       0.0000000000E+00  0.0000000000E+00  0.0000000000E+00
                       0.0000000000E+00  0.0000000000E+00  0.0000000000E+00
                       0.0000000000E+00  0.0000000000E+00  0.0000000000E+00
                       0.0000000000E+00  0.0000000000E+00  0.0000000000E+00
                       0.0000000000E+00  0.0000000000E+00  0.0000000000E+00
                       0.0000000000E+00  0.0000000000E+00  0.0000000000E+00
-          fftalg         512
           irdden           1
           irdwfk           1
           istwfk        1    0
              ixc     -116133
              kpt      0.00000000E+00  0.00000000E+00  0.00000000E+00
                      -7.70371978E-34 -7.70371978E-34  4.76190476E-02
           kptopt           0
P           mkmem           2
P          mkqmem           2
P          mk1mem           2
            natom           8
            nband          71
           nbdbuf           4
            ngfft          80      80      54
             nkpt           2
            nstep        2000
             nsym           8
           ntypat           3
              occ      2.000000  2.000000  2.000000  2.000000  2.000000  2.000000
                       2.000000  2.000000  2.000000  2.000000  2.000000  2.000000
                       2.000000  2.000000  2.000000  2.000000  2.000000  2.000000
                       2.000000  2.000000  2.000000  2.000000  2.000000  2.000000
                       2.000000  2.000000  2.000000  2.000000  2.000000  2.000000
                       2.000000  2.000000  2.000000  2.000000  2.000000  2.000000
                       2.000000  2.000000  2.000000  2.000000  2.000000  2.000000
                       2.000000  2.000000  2.000000  2.000000  2.000000  2.000000
                       2.000000  2.000000  2.000000  2.000000  2.000000  2.000000
                       2.000000  2.000000  2.000000  2.000000  2.000000  2.000000
                       2.000000  2.000000  0.000000  0.000000  0.000000  0.000000
                       0.000000  0.000000  0.000000  0.000000  0.000000
        optdriver           1
            prtwf          -1
            rfdir           1       1       1
           rfelfd           2
            rprim      1.3096497935E+01  0.0000000000E+00  0.0000000000E+00
                       0.0000000000E+00  1.3096497935E+01  0.0000000000E+00
                       0.0000000000E+00  0.0000000000E+00  8.8796371484E+00
          spgroup         113
           strten      0.0000000000E+00  0.0000000000E+00  0.0000000000E+00
                       0.0000000000E+00  0.0000000000E+00  0.0000000000E+00
           symrel      1  0  0   0  1  0   0  0  1      -1  0  0   0  1  0   0  0 -1
                      -1  0  0   0 -1  0   0  0  1       1  0  0   0 -1  0   0  0 -1
                       0  1  0   1  0  0   0  0  1       0 -1  0   1  0  0   0  0 -1
                       0 -1  0  -1  0  0   0  0  1       0  1  0  -1  0  0   0  0 -1
            tnons      0.0000000  0.0000000  0.0000000     0.5000000  0.5000000  0.0000000
                       0.0000000  0.0000000  0.0000000     0.5000000  0.5000000  0.0000000
                       0.5000000  0.5000000  0.0000000     0.0000000  0.0000000  0.0000000
                       0.5000000  0.5000000  0.0000000     0.0000000  0.0000000  0.0000000
           tolwfr      1.00000000E-20
            typat      1  1  2  2  3  3  3  3
           useylm           1
              wtk        0.50000    0.50000
           xangst      0.0000000000E+00  3.4651841099E+00  3.8400786552E+00
                       3.4651841099E+00  0.0000000000E+00  8.5882294424E-01
                       0.0000000000E+00  0.0000000000E+00  0.0000000000E+00
                       3.4651841099E+00  3.4651841099E+00  0.0000000000E+00
                       5.5288883672E+00  2.0637042574E+00  1.4038109496E+00
                       2.0637042574E+00  1.4014798525E+00  3.2950906499E+00
                       4.8666639623E+00  5.5288883672E+00  3.2950906499E+00
                       1.4014798525E+00  4.8666639623E+00  1.4038109496E+00
            xcart      0.0000000000E+00  6.5482489677E+00  7.2566969871E+00
                       6.5482489677E+00  0.0000000000E+00  1.6229401613E+00
                       0.0000000000E+00  0.0000000000E+00  0.0000000000E+00
                       6.5482489677E+00  6.5482489677E+00  0.0000000000E+00
                       1.0448084833E+01  3.8998358657E+00  2.6528182370E+00
                       3.8998358657E+00  2.6484131020E+00  6.2268189114E+00
                       9.1966620696E+00  1.0448084833E+01  6.2268189114E+00
                       2.6484131020E+00  9.1966620696E+00  2.6528182370E+00
             xred      0.0000000000E+00  5.0000000000E-01  8.1722900000E-01
                       5.0000000000E-01  0.0000000000E+00  1.8277100000E-01
                       0.0000000000E+00  0.0000000000E+00  0.0000000000E+00
                       5.0000000000E-01  5.0000000000E-01  0.0000000000E+00
                       7.9777700000E-01  2.9777700000E-01  2.9875300000E-01
                       2.9777700000E-01  2.0222300000E-01  7.0124700000E-01
                       7.0222300000E-01  7.9777700000E-01  7.0124700000E-01
                       2.0222300000E-01  7.0222300000E-01  2.9875300000E-01
            znucl       39.00000   47.00000   52.00000

- Timing analysis has been suppressed with timopt=0

 Suggested references for the acknowledgment of ABINIT usage.

 Calculation completed.
.Delivered  14 WARNINGs and  11 COMMENTs to log file.