.Version 9.5.2 of ABINIT

 ABINIT is a project of the Universite Catholique de Louvain,
 Corning Inc. and other collaborators, see ~abinit/doc/developers/contributors.txt .
 acknowledgments of the ABINIT effort.

.Starting date : Mon 31 May 2021.
- ( at 23h04 )

- input  file    -> /scratch/users/j/a/jabreu/flow_simple_11atoms/flow/w397/t1/run.abi
- output file    -> /scratch/users/j/a/jabreu/flow_simple_11atoms/flow/w397/t1/run.abo
- root for input  files -> /scratch/users/j/a/jabreu/flow_simple_11atoms/flow/w397/t1/indata/in
- root for output files -> /scratch/users/j/a/jabreu/flow_simple_11atoms/flow/w397/t1/outdata/out

 Symmetries : space group I-4 m 2 (#119); Bravais tI (body-center tetrag.)
     intxc =       0      iscf =       7    lmnmax =      18     lnmax =       6
     mgfft =      96  mpssoang =       3    mqgrid =    3080     natom =      12
  nloc_mem =       1    nspden =       1   nspinor =       1    nsppol =       1
      nsym =       8    n1xccc =    2501    ntypat =       2    occopt =       1
   xclevel =       2
-    mband =          81        mffmem =           1         mkmem =           2
-   mkqmem =           2        mk1mem =           2           mpw =       23142
      nfft =      884736          nkpt =           2
  Rough estimation (10% accuracy) of disk space for files :

------------- Echo of variables that govern the present computation ------------
-
- outvars: echo of selected default values
-   iomode0 =  0 , fftalg0 =512 , wfoptalg0 =  0
-
- outvars: echo of global parameters not present in the input file
-  max_nthreads =    0
-
 -outvars: echo values of preprocessed input variables --------
            acell      1.0000000000E+00  1.0000000000E+00  1.0000000000E+00 Bohr
              amu      3.90983000E+01  6.97230000E+01
             ecut      4.00000000E+01 Hartree
-          fftalg         512
           irdden           1
           irdwfk           1
              ixc     -116133
              kpt      0.00000000E+00  0.00000000E+00  3.86363636E-01
                       1.71875000E-01  3.28125000E-01  1.71875000E-01
           kptopt           0
P           mkmem           2
P          mkqmem           2
P          mk1mem           2
            natom          12
            nband          81
           nbdbuf           4
            ngfft          96      96      96
             nkpt           2
            nstep        2000
             nsym           8
           ntypat           2
              occ      2.000000  2.000000  2.000000  2.000000  2.000000  2.000000
                       2.000000  2.000000  2.000000  2.000000  2.000000  2.000000
                       2.000000  2.000000  2.000000  2.000000  2.000000  2.000000
                       2.000000  2.000000  2.000000  2.000000  2.000000  2.000000
                       2.000000  2.000000  2.000000  2.000000  2.000000  2.000000
                       2.000000  2.000000  2.000000  2.000000  2.000000  2.000000
                       2.000000  2.000000  2.000000  2.000000  2.000000  2.000000
                       2.000000  2.000000  2.000000  2.000000  2.000000  2.000000
                       2.000000  2.000000  2.000000  2.000000  2.000000  2.000000
                       2.000000  2.000000  2.000000  2.000000  2.000000  2.000000
                       2.000000  2.000000  2.000000  2.000000  2.000000  2.000000
                       2.000000  2.000000  2.000000  2.000000  2.000000  2.000000
                       0.000000  0.000000  0.000000  0.000000  0.000000  0.000000
                       0.000000  0.000000  0.000000
        optdriver           1
            prtwf          -1
            rfdir           1       1       1
           rfelfd           2
            rprim      1.0941699489E+01  0.0000000000E+00 -1.1913009866E+01
                      -1.6603623711E+00  1.0814988881E+01 -1.1913009866E+01
                       0.0000000000E+00  0.0000000000E+00  1.6175308089E+01
          spgroup         119
           symrel      1  0  0   0  1  0   0  0  1       0  0 -1   1  1  1  -1  0  0
                       0  1  0   1  0  0  -1 -1 -1       1  1  1   0  0 -1   0 -1  0
                       0 -1  0  -1  0  0   0  0 -1       0  0  1  -1 -1 -1   0  1  0
                      -1  0  0   0 -1  0   1  1  1      -1 -1 -1   0  0  1   1  0  0
           tolwfr      1.00000000E-20
            typat      1  1  1  2  2  2  2  2  2  2  2  2
           useylm           1
              wtk        0.50000    0.50000
           xangst      1.3967082604E+00  5.0009288989E+00 -3.5854746068E+00
                       1.8040184871E-01  3.5836395415E+00 -4.6310762458E-01
                       2.6404480780E-16  6.3538570260E-16 -8.5600911875E-16
                       2.2765864566E+00  1.2669578256E+00 -2.3278934939E+00
                       3.6437081133E+00  5.6316085269E+00 -9.3537235313E+00
                       3.2532192376E+00  1.7357997386E+00  2.0830060143E-01
                       1.6229824976E-01  2.2440991898E+00  2.9287375066E+00
                       3.6894377687E+00  2.2440991898E+00 -4.2568828328E+00
                       2.7179888796E+00  5.2220931356E+00 -6.9773197380E+00
                      -1.0200027401E-01  1.2669578256E+00  5.3051413000E+00
                       4.0046498398E+00  3.2805670758E+00 -1.7206887374E+00
                       2.4557360339E+00  2.8615228135E+00 -6.3040933070E+00
            xcart      2.6393960997E+00  9.4503860289E+00 -6.7755650632E+00
                       3.4091008792E-01  6.7720972925E+00 -8.7514658050E-01
                       4.9897237356E-16  1.2007049667E-15 -1.6176228017E-15
                       4.3021249208E+00  2.3942033122E+00 -4.3990811701E+00
                       6.8856104423E+00  1.0642197804E+01 -1.7675975797E+01
                       6.1476934093E+00  3.2801861276E+00  3.9363109002E-01
                       3.0669924389E-01  4.2407328838E+00  5.5345118027E+00
                       6.9720269671E+00  4.2407328838E+00 -8.0443427337E+00
                       5.1362546147E+00  9.8683258667E+00 -1.3185223446E+01
                      -1.9275258335E-01  2.3942033122E+00  1.0025264153E+01
                       7.5676914552E+00  6.1993733338E+00 -3.2516304736E+00
                       4.6406685587E+00  5.4074944404E+00 -1.1913009866E+01
             xred      3.7382300000E-01  8.7382300000E-01  5.0000000000E-01
                       1.2617700000E-01  6.2617700000E-01  5.0000000000E-01
                       6.2450045135E-17  1.1102230246E-16  2.7755575616E-17
                       4.2677950000E-01  2.2137825000E-01  2.0540125000E-01
                       7.7862175000E-01  9.8402300000E-01  2.0540125000E-01
                       6.0788375000E-01  3.0330000000E-01  6.9541625000E-01
                       8.7532500000E-02  3.9211625000E-01  6.9541625000E-01
                       6.9670000000E-01  3.9211625000E-01  3.0458375000E-01
                       6.0788375000E-01  9.1246750000E-01  3.0458375000E-01
                       1.5977000000E-02  2.2137825000E-01  7.9459875000E-01
                       7.7862175000E-01  5.7322050000E-01  7.9459875000E-01
                       5.0000000000E-01  5.0000000000E-01  2.7755575616E-17
            znucl       19.00000   31.00000

 chkinp: Checking input parameters for consistency.

== DATASET  1 ==================================================================
-   mpi_nproc: 1, omp_nthreads: -1 (-1 if OMP is not activated)

--- !DatasetInfo
iteration_state: {dtset: 1, }
dimensions: {natom: 12, nkpt: 2, mband: 81, nsppol: 1, nspinor: 1, nspden: 1, mpw: 23142, }
cutoff_energies: {ecut:  40.0, pawecutdg:  -1.0, }
electrons: {nelect:   1.44000000E+02, charge:   0.00000000E+00, occopt:   1.00000000E+00, tsmear:   1.00000000E-02, }
meta: {optdriver: 1, rfelfd: 2, }
...

 Real(R)+Recip(G) space primitive vectors, cartesian coordinates (Bohr,Bohr^-1):
 R(1)= 10.9416995  0.0000000-11.9130099  G(1)=  0.0913935  0.0140311  0.0000000
 R(2)= -1.6603624 10.8149889-11.9130099  G(2)=  0.0000000  0.0924643  0.0000000
 R(3)=  0.0000000  0.0000000 16.1753081  G(3)=  0.0673107  0.0784332  0.0618226
 Unit cell volume ucvol=  1.9140947E+03 bohr^3
 Angles (23,13,12)=  1.37433569E+02  1.37433569E+02  6.17716307E+01 degrees

 getcut: wavevector=  0.0000  0.0000  0.0000  ngfft=  96  96  96
         ecut(hartree)=     40.000   => boxcut(ratio)=   2.08489

--- Pseudopotential description ------------------------------------------------
- pspini: atom type   1  psp file is /scratch/users/j/a/jabreu/pseudos/PBEsol/K.psp8
- pspatm: opening atomic psp file    /scratch/users/j/a/jabreu/pseudos/PBEsol/K.psp8
- K     ONCVPSP-3.3.0  r_core=   1.36296   1.46408   1.61068
- 19.00000   9.00000    180112                znucl, zion, pspdat
    8 -116133    2    4       400   0.00000   pspcod,pspxc,lmax,lloc,mmax,r2well
    3.99000000000000    5.00000000000000    0.00000000000000   rchrg,fchrg,qchrg
     nproj     2     2     2
     extension_switch     1
  pspatm : epsatm=    8.32487830
         --- l  ekb(1:nproj) -->
             0   10.921326    0.816676
             1    4.431000    0.560368
             2   -3.384038   -1.043186
 pspatm: atomic psp has been read  and splines computed

- pspini: atom type   2  psp file is /scratch/users/j/a/jabreu/pseudos/PBEsol/Ga.psp8
- pspatm: opening atomic psp file    /scratch/users/j/a/jabreu/pseudos/PBEsol/Ga.psp8
- Ga    ONCVPSP-3.3.0  r_core=   1.66857   1.75011   1.90252
- 31.00000  13.00000    180112                znucl, zion, pspdat
    8 -116133    2    4       600   0.00000   pspcod,pspxc,lmax,lloc,mmax,r2well
    5.99000000000000    5.00000000000000    0.00000000000000   rchrg,fchrg,qchrg
     nproj     2     2     2
     extension_switch     1
  pspatm : epsatm=   24.50969055
         --- l  ekb(1:nproj) -->
             0    7.053021    1.156713
             1    6.846070    1.293139
             2   -8.368667   -2.819170
 pspatm: atomic psp has been read  and splines computed

   3.53609064E+04                                ecore*ucvol(ha*bohr**3)

 ==>  initialize data related to q vector <==

 The list of irreducible perturbations for this q vector is:
    1)    idir= 1    ipert=  13
    2)    idir= 2    ipert=  13
    3)    idir= 3    ipert=  13

 Perturbation wavevector (in red.coord.)   0.000000  0.000000  0.000000
 Perturbation : derivative vs k along direction   1

 dfpt_looppert : COMMENT -
  In a d/dk calculation, iscf is set to -3 automatically.
 The set of symmetries contains only one element for this perturbation.
 symkpt : not enough symmetry to change the number of k points.

 Initialisation of the first-order wave-functions :
  ireadwf=   0

--- !BeginCycle
iteration_state: {dtset: 1, }
solver: {iscf: 7, nstep: 2000, nline: 4, wfoptalg: 0, }
tolerances: {tolwfr: 1.00E-20, }
...

     iter   2DEtotal(Ha)        deltaE(Ha) residm    vres2
-ETOT  1  -112.12277916134     -1.121E+02 2.207E-01 0.000E+00
 ETOT  2  -112.33378493929     -2.110E-01 1.737E-02 0.000E+00
 ETOT  3  -112.33626846774     -2.484E-03 1.841E-03 0.000E+00
 ETOT  4  -112.33634682198     -7.835E-05 3.784E-04 0.000E+00
[...]
  -0.00027    0.00088    0.00090   -0.00153   -0.00239   -0.00155   -0.00030    0.00096
   0.00111    0.00036    0.00176   -0.00235    0.00169   -0.00241   -0.00298   -0.00031
   0.00101    0.03303   -0.04590    0.00449   -0.02867   -0.00566   -0.00587    0.00005
  -0.01559   -0.05064    0.08881    0.07002    0.08973   -0.01184    0.03232    0.01029
  -0.05890    0.05996   -0.04475   -0.00707   -0.09571    0.02436    0.07426   -0.05061
  -0.15161
 prteigrs : prtvol=0 or 1, do not print more k-points.

 Eight components of 2nd-order total energy (hartree) are
 1,2,3: 0th-order hamiltonian combined with 1st-order wavefunctions
     kin0=   1.26487314E+02 eigvalue=   8.62636057E+00  local=  -5.26164278E+01
 4,5,6: 1st-order hamiltonian combined with 1st and 0th-order wfs
     kin1=  -1.05909932E+02  Hartree=   0.00000000E+00     xc=   0.00000000E+00
 7,8,9: eventually, occupation + non-local contributions
    edocc=   1.39301976E+01     enl0=   1.59089059E+01   enl1=  -1.18762770E+02
 1-9 gives the relaxation energy (to be shifted if some occ is /=2.0)
   erelax=  -1.12336351E+02
  No Ewald or frozen-wf contrib.: the relaxation energy is the total one
 2DEtotal=   -0.1123363506E+03 Ha. Also 2DEtotal=   -0.305682755754E+04 eV
    (  non-var. 2DEtotal :   -1.1233635060E+02 Ha)

 Perturbation wavevector (in red.coord.)   0.000000  0.000000  0.000000
 Perturbation : derivative vs k along direction   2
 The set of symmetries contains only one element for this perturbation.
 symkpt : not enough symmetry to change the number of k points.

[...]

 Perturbation wavevector (in red.coord.)   0.000000  0.000000  0.000000
 Perturbation : derivative vs k along direction   3
 The set of symmetries contains only one element for this perturbation.
 symkpt : not enough symmetry to change the number of k points.

 Initialisation of the first-order wave-functions :
  ireadwf=   0

--- !BeginCycle
iteration_state: {dtset: 1, }
solver: {iscf: 7, nstep: 2000, nline: 4, wfoptalg: 0, }
tolerances: {tolwfr: 1.00E-20, }
...

     iter   2DEtotal(Ha)        deltaE(Ha) residm    vres2
-ETOT  1  -190.22032073382     -1.902E+02 2.780E-01 0.000E+00
 ETOT  2  -190.58023345605     -3.599E-01 2.434E-02 0.000E+00
 ETOT  3  -190.58453755347     -4.304E-03 2.278E-03 0.000E+00
 ETOT  4  -190.58467472551     -1.372E-04 5.148E-04 0.000E+00
 ETOT  5  -190.58468102881     -6.303E-06 5.838E-05 0.000E+00
 ETOT  6  -190.58468136721     -3.384E-07 1.545E-05 0.000E+00
 ETOT  7  -190.58468138666     -1.945E-08 1.781E-06 0.000E+00
 ETOT  8  -190.58468138784     -1.176E-09 5.048E-07 0.000E+00
 ETOT  9  -190.58468138791     -7.338E-11 5.837E-08 0.000E+00
 ETOT 10  -190.58468138792     -4.633E-12 1.735E-08 0.000E+00
 ETOT 11  -190.58468138792     -2.558E-13 1.993E-09 0.000E+00
 ETOT 12  -190.58468138792     -8.527E-14 6.138E-10 0.000E+00
 ETOT 13  -190.58468138792      2.842E-14 7.257E-11 0.000E+00
 ETOT 14  -190.58468138792     -2.842E-14 2.210E-11 0.000E+00
 ETOT 15  -190.58468138792      0.000E+00 2.788E-12 0.000E+00
 ETOT 16  -190.58468138792     -5.684E-14 8.046E-13 0.000E+00
 ETOT 17  -190.58468138792     -5.684E-14 1.076E-13 0.000E+00
 ETOT 18  -190.58468138792      1.137E-13 2.952E-14 0.000E+00
 ETOT 19  -190.58468138792     -8.527E-14 4.166E-15 0.000E+00
 ETOT 20  -190.58468138792      0.000E+00 1.089E-15 0.000E+00
 ETOT 21  -190.58468138792     -2.842E-14 1.617E-16 0.000E+00
 ETOT 22  -190.58468138792      5.684E-14 4.029E-17 0.000E+00
 ETOT 23  -190.58468138792      0.000E+00 6.293E-18 0.000E+00
 ETOT 24  -190.58468138792      0.000E+00 1.495E-18 0.000E+00
 ETOT 25  -190.58468138792      2.842E-14 2.453E-19 0.000E+00
 ETOT 26  -190.58468138792     -2.842E-14 5.560E-20 0.000E+00
 ETOT 27  -190.58468138792     -2.842E-14 9.895E-21 0.000E+00

 At SCF step   27   max residual=  9.89E-21 < tolwfr=  1.00E-20 =>converged.

 ----iterations are completed or convergence reached----

 dfpt_looppert: DFPT cycle converged with prtwf=-1. Will skip output of the 1st-order WFK file.
 dfpt_looppert : ek2=    1.6491335613E+02
          f-sum rule ratio=    1.0893096783E+00
 prteigrs : about to open file /scratch/users/j/a/jabreu/flow_simple_11atoms/flow/w397/t1/tmpdata/tmp_1WF1_EIG
 Expectation of eigenvalue derivatives (hartree) for nkpt=   2  k points:
  (in case of degenerate eigenvalues, averaged derivative)
 kpt#   1, nband= 81, wtk=  0.50000, kpt=  0.0000  0.0000  0.3864 (reduced coord)
   0.00156   -0.00000   -0.00156    0.00291   -0.00042   -0.00217    0.00669   -0.00411
   0.00691   -0.00103    0.00138   -0.00762    0.00457   -0.00087    0.00205   -0.00219
  -0.00395   -0.00311   -0.00170    0.00141   -0.00624    0.00199    0.01027    0.01232
   0.00068    0.00404    0.00136   -0.00137    0.00380    0.00994   -0.00176    0.00385
  -0.00920   -0.00686   -0.00385   -0.00129   -0.00695   -0.00336    0.00444   -0.00222
  -0.00055    0.00175    0.00180   -0.00307   -0.00477   -0.00311   -0.00061    0.00193
   0.00222    0.00072    0.00351   -0.00470    0.00338   -0.00482   -0.00596   -0.00063
   0.00202    0.06605   -0.09179    0.00898   -0.05734   -0.01132   -0.01175    0.00010
  -0.03117   -0.10127    0.17763    0.14004    0.17945   -0.02368    0.06463    0.02058
  -0.11779    0.11993   -0.08951   -0.01413   -0.19142    0.04872    0.14853   -0.10122
  -0.30329
 prteigrs : prtvol=0 or 1, do not print more k-points.

 Eight components of 2nd-order total energy (hartree) are
 1,2,3: 0th-order hamiltonian combined with 1st-order wavefunctions
     kin0=   2.14210006E+02 eigvalue=   1.47695696E+01  local=  -8.88028719E+01
 4,5,6: 1st-order hamiltonian combined with 1st and 0th-order wfs
     kin1=  -1.79641715E+02  Hartree=   0.00000000E+00     xc=   0.00000000E+00
 7,8,9: eventually, occupation + non-local contributions
    edocc=   2.36915851E+01     enl0=   2.67163927E+01   enl1=  -2.01527648E+02
 1-9 gives the relaxation energy (to be shifted if some occ is /=2.0)
   erelax=  -1.90584681E+02
  No Ewald or frozen-wf contrib.: the relaxation energy is the total one
 2DEtotal=   -0.1905846814E+03 Ha. Also 2DEtotal=   -0.518607292308E+04 eV
    (  non-var. 2DEtotal :   -1.9058468139E+02 Ha)

 CALCULATION OF EFFECTIVE MASSES
 NOTE : Additional infos (eff. mass eigenvalues, eigenvectors and, if degenerate, average mass) are available in stdout.

 K-point ( 0.000, 0.000, 0.386) | band =    72
 Effective mass tensor:
             -0.7614768565             -0.6504149804              1.5571388690
             -0.6504149804             -0.9611857999              1.8144410685
              1.5571388690              1.8144410685             -4.0865681092
 Effective mass tensor eigenvalues:
             -5.5167302222             -0.2032959474             -0.0892045959
 Angular average effective mass 1/(<1/m>)=  -0.1839318515
 Angular average effective mass for Frohlich model (<m**0.5>)**2=  -0.2697991554
 Effective masses along directions: (cart. coord. / red. coord. -> eff. mass)
    1:   1.000000  0.000000  0.000000 /   0.988682 -0.150029  0.000000 ->  -0.1573649541
    2:   0.000000  1.000000  0.000000 /   0.000000  1.000000  0.000000 ->  -0.1455958315
    3:   0.000000  0.000000  1.000000 /  -0.510073 -0.510073  0.692569 ->  -0.3238965862
    4:   0.577350  0.577350  0.577350 /  -0.059091 -0.167810  0.984047 ->  -0.0899317527
    5:   0.000000  0.707107  0.707107 /  -0.592133 -0.054577  0.803990 ->  -0.1154085083
    6:   0.707107  0.000000  0.707107 /  -0.045951 -0.642127  0.765220 ->  -0.1268200166
    7:   0.707107  0.707107  0.000000 /   0.766960  0.641695  0.000000 ->  -0.1207081317

 K-point ( 0.172, 0.328, 0.172) | band =    73
 Effective mass tensor:
              0.1853692870              0.0286535587             -0.1010724989
              0.0286535587              0.3792274657             -0.0735562948
             -0.1010724989             -0.0735562948              0.4054593222
 Effective mass tensor eigenvalues:
              0.1459969163              0.3265454662              0.4975136924
 Angular average effective mass 1/(<1/m>)=   0.2516395288
 Angular average effective mass for Frohlich model (<m**0.5>)**2=   0.2728485598
 Effective masses along directions: (cart. coord. / red. coord. -> eff. mass)
    1:   1.000000  0.000000  0.000000 /   0.988682 -0.150029  0.000000 ->   0.1598830914
    2:   0.000000  1.000000  0.000000 /   0.000000  1.000000  0.000000 ->   0.3652186730
    3:   0.000000  0.000000  1.000000 /  -0.510073 -0.510073  0.692569 ->   0.3413948431
    4:   0.577350  0.577350  0.577350 /  -0.059091 -0.167810  0.984047 ->   0.1931885533
    5:   0.000000  0.707107  0.707107 /  -0.592133 -0.054577  0.803990 ->   0.3042856357
    6:   0.707107  0.000000  0.707107 /  -0.045951 -0.642127  0.765220 ->   0.1634253591
    7:   0.707107  0.707107  0.000000 /   0.766960  0.641695  0.000000 ->   0.2314838582

 END OF EFFECTIVE MASSES SECTION

 ---- first-order wavefunction calculations are completed ----

 Total localisation tensor (bohr^2) in cartesian coordinates
  WARNING : still subject to testing - especially symmetries.
      direction              matrix element
   alpha     beta       real part   imaginary part
     1        1       3.3574688113    0.0000000000
     1        2      -0.3456151191    0.0000000000
     1        3      -3.2170409938    0.0000000000
     2        1      -0.3456151191    0.0000000000
     2        2       2.2512095765    0.0000000000
     2        3      -2.4797697151    0.0000000000
     3        1      -3.2170409938    0.0000000000
     3        2      -2.4797697151    0.0000000000
     3        3      19.0942262403    0.0000000000

 respfn : d/dk was computed, but no 2DTE, so no DDB output.

== END DATASET(S) ==============================================================

 -outvars: echo values of variables after computation  --------
            acell      1.0000000000E+00  1.0000000000E+00  1.0000000000E+00 Bohr
              amu      3.90983000E+01  6.97230000E+01
             ecut      4.00000000E+01 Hartree
           etotal     -1.9058468139E+02
            fcart      0.0000000000E+00  0.0000000000E+00  0.0000000000E+00
                       0.0000000000E+00  0.0000000000E+00  0.0000000000E+00
                       0.0000000000E+00  0.0000000000E+00  0.0000000000E+00
                       0.0000000000E+00  0.0000000000E+00  0.0000000000E+00
                       0.0000000000E+00  0.0000000000E+00  0.0000000000E+00
                       0.0000000000E+00  0.0000000000E+00  0.0000000000E+00
                       0.0000000000E+00  0.0000000000E+00  0.0000000000E+00
                       0.0000000000E+00  0.0000000000E+00  0.0000000000E+00
                       0.0000000000E+00  0.0000000000E+00  0.0000000000E+00
                       0.0000000000E+00  0.0000000000E+00  0.0000000000E+00
                       0.0000000000E+00  0.0000000000E+00  0.0000000000E+00
                       0.0000000000E+00  0.0000000000E+00  0.0000000000E+00
-          fftalg         512
           irdden           1
           irdwfk           1
              ixc     -116133
              kpt      0.00000000E+00  0.00000000E+00  3.86363636E-01
                       1.71875000E-01  3.28125000E-01  1.71875000E-01
           kptopt           0
P           mkmem           2
P          mkqmem           2
P          mk1mem           2
            natom          12
            nband          81
           nbdbuf           4
            ngfft          96      96      96
             nkpt           2
            nstep        2000
             nsym           8
           ntypat           2
              occ      2.000000  2.000000  2.000000  2.000000  2.000000  2.000000
                       2.000000  2.000000  2.000000  2.000000  2.000000  2.000000
                       2.000000  2.000000  2.000000  2.000000  2.000000  2.000000
                       2.000000  2.000000  2.000000  2.000000  2.000000  2.000000
                       2.000000  2.000000  2.000000  2.000000  2.000000  2.000000
                       2.000000  2.000000  2.000000  2.000000  2.000000  2.000000
                       2.000000  2.000000  2.000000  2.000000  2.000000  2.000000
                       2.000000  2.000000  2.000000  2.000000  2.000000  2.000000
                       2.000000  2.000000  2.000000  2.000000  2.000000  2.000000
                       2.000000  2.000000  2.000000  2.000000  2.000000  2.000000
                       2.000000  2.000000  2.000000  2.000000  2.000000  2.000000
                       2.000000  2.000000  2.000000  2.000000  2.000000  2.000000
                       0.000000  0.000000  0.000000  0.000000  0.000000  0.000000
                       0.000000  0.000000  0.000000
        optdriver           1
            prtwf          -1
            rfdir           1       1       1
           rfelfd           2
            rprim      1.0941699489E+01  0.0000000000E+00 -1.1913009866E+01
                      -1.6603623711E+00  1.0814988881E+01 -1.1913009866E+01
                       0.0000000000E+00  0.0000000000E+00  1.6175308089E+01
          spgroup         119
           strten      0.0000000000E+00  0.0000000000E+00  0.0000000000E+00
                       0.0000000000E+00  0.0000000000E+00  0.0000000000E+00
           symrel      1  0  0   0  1  0   0  0  1       0  0 -1   1  1  1  -1  0  0
                       0  1  0   1  0  0  -1 -1 -1       1  1  1   0  0 -1   0 -1  0
                       0 -1  0  -1  0  0   0  0 -1       0  0  1  -1 -1 -1   0  1  0
                      -1  0  0   0 -1  0   1  1  1      -1 -1 -1   0  0  1   1  0  0
           tolwfr      1.00000000E-20
            typat      1  1  1  2  2  2  2  2  2  2  2  2
           useylm           1
              wtk        0.50000    0.50000
           xangst      1.3967082604E+00  5.0009288989E+00 -3.5854746068E+00
                       1.8040184871E-01  3.5836395415E+00 -4.6310762458E-01
                       2.6404480780E-16  6.3538570260E-16 -8.5600911875E-16
                       2.2765864566E+00  1.2669578256E+00 -2.3278934939E+00
                       3.6437081133E+00  5.6316085269E+00 -9.3537235313E+00
                       3.2532192376E+00  1.7357997386E+00  2.0830060143E-01
                       1.6229824976E-01  2.2440991898E+00  2.9287375066E+00
                       3.6894377687E+00  2.2440991898E+00 -4.2568828328E+00
                       2.7179888796E+00  5.2220931356E+00 -6.9773197380E+00
                      -1.0200027401E-01  1.2669578256E+00  5.3051413000E+00
                       4.0046498398E+00  3.2805670758E+00 -1.7206887374E+00
                       2.4557360339E+00  2.8615228135E+00 -6.3040933070E+00
            xcart      2.6393960997E+00  9.4503860289E+00 -6.7755650632E+00
                       3.4091008792E-01  6.7720972925E+00 -8.7514658050E-01
                       4.9897237356E-16  1.2007049667E-15 -1.6176228017E-15
                       4.3021249208E+00  2.3942033122E+00 -4.3990811701E+00
                       6.8856104423E+00  1.0642197804E+01 -1.7675975797E+01
                       6.1476934093E+00  3.2801861276E+00  3.9363109002E-01
                       3.0669924389E-01  4.2407328838E+00  5.5345118027E+00
                       6.9720269671E+00  4.2407328838E+00 -8.0443427337E+00
                       5.1362546147E+00  9.8683258667E+00 -1.3185223446E+01
                      -1.9275258335E-01  2.3942033122E+00  1.0025264153E+01
                       7.5676914552E+00  6.1993733338E+00 -3.2516304736E+00
                       4.6406685587E+00  5.4074944404E+00 -1.1913009866E+01
             xred      3.7382300000E-01  8.7382300000E-01  5.0000000000E-01
                       1.2617700000E-01  6.2617700000E-01  5.0000000000E-01
                       6.2450045135E-17  1.1102230246E-16  2.7755575616E-17
                       4.2677950000E-01  2.2137825000E-01  2.0540125000E-01
                       7.7862175000E-01  9.8402300000E-01  2.0540125000E-01
                       6.0788375000E-01  3.0330000000E-01  6.9541625000E-01
                       8.7532500000E-02  3.9211625000E-01  6.9541625000E-01
                       6.9670000000E-01  3.9211625000E-01  3.0458375000E-01
                       6.0788375000E-01  9.1246750000E-01  3.0458375000E-01
                       1.5977000000E-02  2.2137825000E-01  7.9459875000E-01
                       7.7862175000E-01  5.7322050000E-01  7.9459875000E-01
                       5.0000000000E-01  5.0000000000E-01  2.7755575616E-17
            znucl       19.00000   31.00000

- Timing analysis has been suppressed with timopt=0

 Suggested references for the acknowledgment of ABINIT usage.

 Calculation completed.
.Delivered   2 WARNINGs and   5 COMMENTs to log file.