.Version 9.7.2 of ABINIT

 ABINIT is a project of the Universite Catholique de Louvain,
 Corning Inc. and other collaborators, see ~abinit/doc/developers/contributors.txt .
 acknowledgments of the ABINIT effort.

.Starting date : Wed  1 Dec 2021.
- ( at 22h00 )

- input  file    -> /scratch/users/j/a/jabreu/flow_simple_remain_atoms/flow/w270/t1/run.abi
- output file    -> /scratch/users/j/a/jabreu/flow_simple_remain_atoms/flow/w270/t1/run.abo
- root for input  files -> /scratch/users/j/a/jabreu/flow_simple_remain_atoms/flow/w270/t1/indata/in
- root for output files -> /scratch/users/j/a/jabreu/flow_simple_remain_atoms/flow/w270/t1/outdata/out

 Symmetries : space group P-3 m 1 (#164); Bravais hP (primitive hexag.)
     intxc =       0      iscf =       7    lmnmax =      32     lnmax =       8
     mgfft =      60  mpssoang =       4    mqgrid =    3001     natom =       5
  nloc_mem =       1    nspden =       1   nspinor =       1    nsppol =       1
      nsym =      12    n1xccc =    2501    ntypat =       3    occopt =       1
   xclevel =       2
-    mband =          31        mffmem =           1         mkmem =           1
-   mkqmem =           1        mk1mem =           1           mpw =       11280
      nfft =      216000          nkpt =           1
  Rough estimation (10% accuracy) of disk space for files :

------------- Echo of variables that govern the present computation ------------
-
- outvars: echo of selected default values
-   iomode0 =  0 , fftalg0 =512 , wfoptalg0 =  0
-
- outvars: echo of global parameters not present in the input file
-  max_nthreads =    0
-
 -outvars: echo values of preprocessed input variables --------
            acell      1.0000000000E+00  1.0000000000E+00  1.0000000000E+00 Bohr
              amu      8.54678000E+01  1.95080000E+02  1.20110000E+01
             ecut      4.20000000E+01 Hartree
-          fftalg         512
           irdden           1
           irdwfk           1
           istwfk        1
              ixc     -116133
              kpt      5.00000000E-01  0.00000000E+00  5.00000000E-01
           kptopt           0
P           mkmem           1
P          mkqmem           1
P          mk1mem           1
            natom           5
            nband          31
           nbdbuf           4
            ngfft          60      60      60
             nkpt           1
            nstep        2000
             nsym          12
           ntypat           3
              occ      2.000000  2.000000  2.000000  2.000000  2.000000  2.000000
                       2.000000  2.000000  2.000000  2.000000  2.000000  2.000000
                       2.000000  2.000000  2.000000  2.000000  2.000000  2.000000
                       2.000000  2.000000  2.000000  2.000000  0.000000  0.000000
                       0.000000  0.000000  0.000000  0.000000  0.000000  0.000000
                       0.000000
        optdriver           1
            prtwf          -1
            rfdir           1       1       1
           rfelfd           2
            rprim      1.0094431487E+01  0.0000000000E+00  0.0000000000E+00
                      -5.0472157436E+00  8.7420341046E+00  0.0000000000E+00
                       0.0000000000E+00  0.0000000000E+00  9.8212360489E+00
          spgroup         164
           symrel      1  0  0   0  1  0   0  0  1      -1  0  0   0 -1  0   0  0 -1
                      -1  0  0   1  1  0   0  0  1       1  0  0  -1 -1  0   0  0 -1
                       0  1  0  -1 -1  0   0  0  1       0 -1  0   1  1  0   0  0 -1
                       0 -1  0  -1  0  0   0  0  1       0  1  0   1  0  0   0  0 -1
                      -1 -1  0   1  0  0   0  0  1       1  1  0  -1  0  0   0  0 -1
                       1  1  0   0 -1  0   0  0  1      -1 -1  0   0  1  0   0  0 -1
           tolwfr      1.00000000E-20
            typat      1  1  2  3  3
           useylm           1
           xangst     -1.7639241746E-11  3.0840568032E+00  3.7681696323E+00
                       2.6708715383E+00  1.5420284016E+00  1.4290046449E+00
                       0.0000000000E+00  0.0000000000E+00  0.0000000000E+00
                       0.0000000000E+00  0.0000000000E+00  1.9603741374E+00
                       0.0000000000E+00  0.0000000000E+00  3.2368001399E+00
            xcart     -3.3333336091E-11  5.8280227364E+00  7.1208086274E+00
                       5.0472157435E+00  2.9140113682E+00  2.7004274215E+00
                       0.0000000000E+00  0.0000000000E+00  0.0000000000E+00
                       0.0000000000E+00  0.0000000000E+00  3.7045702376E+00
                       0.0000000000E+00  0.0000000000E+00  6.1166658113E+00
             xred      3.3333333333E-01  6.6666666667E-01  7.2504200000E-01
                       6.6666666667E-01  3.3333333333E-01  2.7495800000E-01
                       0.0000000000E+00  0.0000000000E+00  0.0000000000E+00
                       0.0000000000E+00  0.0000000000E+00  3.7720000000E-01
                       0.0000000000E+00  0.0000000000E+00  6.2280000000E-01
            znucl       37.00000   78.00000    6.00000

 chkinp: Checking input parameters for consistency.

== DATASET  1 ==================================================================
-   mpi_nproc: 1, omp_nthreads: -1 (-1 if OMP is not activated)

--- !DatasetInfo
iteration_state: {dtset: 1, }
dimensions: {natom: 5, nkpt: 1, mband: 31, nsppol: 1, nspinor: 1, nspden: 1, mpw: 11280, }
cutoff_energies: {ecut:  42.0, pawecutdg:  -1.0, }
electrons: {nelect:   4.40000000E+01, charge:   0.00000000E+00, occopt:   1.00000000E+00, tsmear:   1.00000000E-02, }
meta: {optdriver: 1, rfelfd: 2, }
...

 Real(R)+Recip(G) space primitive vectors, cartesian coordinates (Bohr,Bohr^-1):
 R(1)= 10.0944315  0.0000000  0.0000000  G(1)=  0.0990645  0.0571949  0.0000000
 R(2)= -5.0472157  8.7420341  0.0000000  G(2)=  0.0000000  0.1143899  0.0000000
 R(3)=  0.0000000  0.0000000  9.8212360  G(3)=  0.0000000  0.0000000  0.1018202
 Unit cell volume ucvol=  8.6668346E+02 bohr^3
 Angles (23,13,12)=  9.00000000E+01  9.00000000E+01  1.20000000E+02 degrees

 getcut: wavevector=  0.0000  0.0000  0.0000  ngfft=  60  60  60
         ecut(hartree)=     42.000   => boxcut(ratio)=   2.03742

--- Pseudopotential description ------------------------------------------------
- pspini: atom type   1  psp file is /scratch/users/j/a/jabreu/pseudos/PBEsol/Rb.psp8
- pspatm: opening atomic psp file    /scratch/users/j/a/jabreu/pseudos/PBEsol/Rb.psp8
- Rb    ONCVPSP-3.3.0  r_core=   1.71227   1.75361   1.90633
- 37.00000   9.00000    180112                znucl, zion, pspdat
    8 -116133    2    4       600   0.00000   pspcod,pspxc,lmax,lloc,mmax,r2well
    5.99000000000000    7.00000000000000    0.00000000000000   rchrg,fchrg,qchrg
     nproj     2     2     2
     extension_switch     1
  pspatm : epsatm=   34.48400912
         --- l  ekb(1:nproj) -->
             0    8.196957   -0.477221
             1    3.231347   -0.378736
             2   -1.047201    0.996637
 pspatm: atomic psp has been read  and splines computed

- pspini: atom type   2  psp file is /scratch/users/j/a/jabreu/pseudos/PBEsol/Pt.psp8
- pspatm: opening atomic psp file    /scratch/users/j/a/jabreu/pseudos/PBEsol/Pt.psp8
- Pt    ONCVPSP-3.3.0  r_core=   1.45722   1.45722   1.45722   1.91724
- 78.00000  18.00000    180112                znucl, zion, pspdat
    8 -116133    3    4       500   0.00000   pspcod,pspxc,lmax,lloc,mmax,r2well
    4.99000000000000    5.00000000000000    0.00000000000000   rchrg,fchrg,qchrg
     nproj     2     2     2     2
     extension_switch     1
  pspatm : epsatm=   26.54019552
         --- l  ekb(1:nproj) -->
             0   18.149684    1.747248
             1    8.048135    1.208190
             2    2.365973    0.348456
             3    3.491561    0.381218
 pspatm: atomic psp has been read  and splines computed

- pspini: atom type   3  psp file is /scratch/users/j/a/jabreu/pseudos/PBEsol/C.psp8
- pspatm: opening atomic psp file    /scratch/users/j/a/jabreu/pseudos/PBEsol/C.psp8
- C     ONCVPSP-3.3.0  r_core=   1.20440   1.26326
-  6.00000   4.00000    180112                znucl, zion, pspdat
    8 -116133    1    4       600   0.00000   pspcod,pspxc,lmax,lloc,mmax,r2well
    5.99000000000000    4.00000000000000    0.00000000000000   rchrg,fchrg,qchrg
     nproj     2     2
     extension_switch     1
  pspatm : epsatm=    4.34909529
         --- l  ekb(1:nproj) -->
             0    6.468939    0.390031
             1   -4.179695   -0.878453
 pspatm: atomic psp has been read  and splines computed

   4.58508179E+03                                ecore*ucvol(ha*bohr**3)

 ==>  initialize data related to q vector <==

 The list of irreducible perturbations for this q vector is:
    1)    idir= 1    ipert=   6
    2)    idir= 2    ipert=   6
    3)    idir= 3    ipert=   6

 Perturbation wavevector (in red.coord.)   0.000000  0.000000  0.000000
 Perturbation : derivative vs k along direction   1

 dfpt_looppert : COMMENT -
  In a d/dk calculation, iscf is set to -3 automatically.
 The set of symmetries contains only one element for this perturbation.
 symkpt : not enough symmetry to change the number of k points.

 Initialisation of the first-order wave-functions :
  ireadwf=   0

--- !BeginCycle
iteration_state: {dtset: 1, }
solver: {iscf: 7, nstep: 2000, nline: 4, wfoptalg: 0, }
tolerances: {tolwfr: 1.00E-20, }
...

     iter   2DEtotal(Ha)        deltaE(Ha) residm    vres2
-ETOT  1  -24.674663491305     -2.467E+01 7.736E-02 0.000E+00
 ETOT  2  -24.702468464095     -2.780E-02 8.625E-03 0.000E+00
 ETOT  3  -24.702683662722     -2.152E-04 4.805E-04 0.000E+00
 ETOT  4  -24.702687045238     -3.383E-06 7.824E-05 0.000E+00
 ETOT  5  -24.702687110068     -6.483E-08 4.900E-06 0.000E+00
 ETOT  6  -24.702687111399     -1.331E-09 9.086E-07 0.000E+00
 ETOT  7  -24.702687111427     -2.805E-11 7.297E-08 0.000E+00
 ETOT  8  -24.702687111427     -6.395E-13 1.112E-08 0.000E+00
 ETOT  9  -24.702687111427      3.553E-15 7.306E-10 0.000E+00
 ETOT 10  -24.702687111427      1.066E-14 1.395E-10 0.000E+00
 ETOT 11  -24.702687111427      0.000E+00 8.807E-12 0.000E+00
 ETOT 12  -24.702687111427      2.132E-14 1.773E-12 0.000E+00
 ETOT 13  -24.702687111427     -7.105E-15 1.122E-13 0.000E+00
 ETOT 14  -24.702687111427      0.000E+00 2.265E-14 0.000E+00
 ETOT 15  -24.702687111427      7.105E-15 1.421E-15 0.000E+00
 ETOT 16  -24.702687111427     -3.553E-15 2.899E-16 0.000E+00
 ETOT 17  -24.702687111427     -3.553E-15 1.804E-17 0.000E+00
 ETOT 18  -24.702687111427     -1.066E-14 3.719E-18 0.000E+00
 ETOT 19  -24.702687111427      7.105E-15 2.297E-19 0.000E+00
 ETOT 20  -24.702687111427     -7.105E-15 4.777E-20 0.000E+00
 ETOT 21  -24.702687111427      7.105E-15 9.723E-21 0.000E+00

 At SCF step   21   max residual=  9.72E-21 < tolwfr=  1.00E-20 =>converged.

 ----iterations are completed or convergence reached----

 dfpt_looppert: DFPT cycle converged with prtwf=-1. Will skip output of the 1st-order WFK file.
 dfpt_looppert : ek2=    4.5458742300E+01
          f-sum rule ratio=    1.0455355432E+00
 prteigrs : about to open file /scratch/users/j/a/jabreu/flow_simple_remain_atoms/flow/w270/t1/tmpdata/tmp_1WF1_EIG
 Expectation of eigenvalue derivatives (hartree) for nkpt=   1  k points:
  (in case of degenerate eigenvalues, averaged derivative)
 kpt#   1, nband= 31, wtk=  1.00000, kpt=  0.5000  0.0000  0.5000 (reduced coord)
  -0.00000    0.00000   -0.00000    0.00000    0.00000    0.00000    0.00000   -0.00000
  -0.00000    0.00000   -0.00000    0.00000   -0.00000   -0.00000   -0.00000   -0.00000
  -0.00000   -0.00000   -0.00000   -0.00000   -0.00000    0.00000   -0.00000    0.00000
   0.00000   -0.00000   -0.00000    0.00000   -0.00000   -0.00000    0.00002

 Eight components of 2nd-order total energy (hartree) are
 1,2,3: 0th-order hamiltonian combined with 1st-order wavefunctions
     kin0=   3.29561502E+01 eigvalue=   1.96434002E+00  local=  -1.77768902E+01
 4,5,6: 1st-order hamiltonian combined with 1st and 0th-order wfs
     kin1=  -4.75287308E+01  Hartree=   0.00000000E+00     xc=   0.00000000E+00
 7,8,9: eventually, occupation + non-local contributions
    edocc=   6.86496057E+00     enl0=   6.94126501E-01   enl1=  -1.87664340E+00
 1-9 gives the relaxation energy (to be shifted if some occ is /=2.0)
   erelax=  -2.47026871E+01
  No Ewald or frozen-wf contrib.: the relaxation energy is the total one
 2DEtotal=   -0.2470268711E+02 Ha. Also 2DEtotal=   -0.672194301363E+03 eV
    (  non-var. 2DEtotal :   -2.4702687111E+01 Ha)

 Perturbation wavevector (in red.coord.)   0.000000  0.000000  0.000000
 Perturbation : derivative vs k along direction   2
 The set of symmetries contains only one element for this perturbation.
 symkpt : not enough symmetry to change the number of k points.

[...]

 Perturbation wavevector (in red.coord.)   0.000000  0.000000  0.000000
 Perturbation : derivative vs k along direction   3
 The set of symmetries contains only one element for this perturbation.
 symkpt : not enough symmetry to change the number of k points.

 Initialisation of the first-order wave-functions :
  ireadwf=   0

--- !BeginCycle
iteration_state: {dtset: 1, }
solver: {iscf: 7, nstep: 2000, nline: 4, wfoptalg: 0, }
tolerances: {tolwfr: 1.00E-20, }
...

     iter   2DEtotal(Ha)        deltaE(Ha) residm    vres2
-ETOT  1  -30.814271807028     -3.081E+01 7.544E-02 0.000E+00
 ETOT  2  -30.844317018280     -3.005E-02 5.108E-03 0.000E+00
 ETOT  3  -30.844563120831     -2.461E-04 1.678E-04 0.000E+00
 ETOT  4  -30.844566394120     -3.273E-06 3.006E-05 0.000E+00
 ETOT  5  -30.844566445045     -5.093E-08 2.439E-06 0.000E+00
 ETOT  6  -30.844566445874     -8.286E-10 3.204E-07 0.000E+00
 ETOT  7  -30.844566445889     -1.456E-11 3.732E-08 0.000E+00
 ETOT  8  -30.844566445889     -1.883E-13 4.430E-09 0.000E+00
 ETOT  9  -30.844566445889     -6.040E-14 5.572E-10 0.000E+00
 ETOT 10  -30.844566445889      4.974E-14 6.526E-11 0.000E+00
 ETOT 11  -30.844566445889     -1.066E-14 8.308E-12 0.000E+00
 ETOT 12  -30.844566445889     -7.105E-14 9.703E-13 0.000E+00
 ETOT 13  -30.844566445889      7.105E-15 1.239E-13 0.000E+00
 ETOT 14  -30.844566445889     -7.105E-15 1.445E-14 0.000E+00
 ETOT 15  -30.844566445889      1.421E-14 1.846E-15 0.000E+00
 ETOT 16  -30.844566445889     -7.105E-15 2.154E-16 0.000E+00
 ETOT 17  -30.844566445889     -7.105E-15 2.753E-17 0.000E+00
 ETOT 18  -30.844566445889      7.105E-15 3.212E-18 0.000E+00
 ETOT 19  -30.844566445889     -3.553E-15 4.106E-19 0.000E+00
 ETOT 20  -30.844566445889      1.066E-14 4.791E-20 0.000E+00
 ETOT 21  -30.844566445889     -3.553E-15 8.005E-21 0.000E+00

 At SCF step   21   max residual=  8.01E-21 < tolwfr=  1.00E-20 =>converged.

 ----iterations are completed or convergence reached----

 dfpt_looppert: DFPT cycle converged with prtwf=-1. Will skip output of the 1st-order WFK file.
 dfpt_looppert : ek2=    3.6017213512E+01
          f-sum rule ratio=    1.6779869036E+00
 prteigrs : about to open file /scratch/users/j/a/jabreu/flow_simple_remain_atoms/flow/w270/t1/tmpdata/tmp_1WF1_EIG
 Expectation of eigenvalue derivatives (hartree) for nkpt=   1  k points:
  (in case of degenerate eigenvalues, averaged derivative)
 kpt#   1, nband= 31, wtk=  1.00000, kpt=  0.5000  0.0000  0.5000 (reduced coord)
  -0.00000   -0.00000    0.00000    0.00000   -0.00000   -0.00000    0.00000    0.00000
   0.00000   -0.00000   -0.00000    0.00000    0.00000    0.00000    0.00000   -0.00000
   0.00000   -0.00000    0.00000    0.00000    0.00000    0.00000   -0.00000   -0.00000
   0.00000   -0.00000    0.00000   -0.00000   -0.00000    0.00000    0.00001

 Eight components of 2nd-order total energy (hartree) are
 1,2,3: 0th-order hamiltonian combined with 1st-order wavefunctions
     kin0=   3.13867985E+01 eigvalue=   1.43982825E+00  local=  -2.08705831E+01
 4,5,6: 1st-order hamiltonian combined with 1st and 0th-order wfs
     kin1=  -6.04364126E+01  Hartree=   0.00000000E+00     xc=   0.00000000E+00
 7,8,9: eventually, occupation + non-local contributions
    edocc=   1.63072161E+01     enl0=   2.58130656E+00   enl1=  -1.25272031E+00
 1-9 gives the relaxation energy (to be shifted if some occ is /=2.0)
   erelax=  -3.08445664E+01
  No Ewald or frozen-wf contrib.: the relaxation energy is the total one
 2DEtotal=   -0.3084456645E+02 Ha. Also 2DEtotal=   -0.839323337554E+03 eV
    (  non-var. 2DEtotal :   -3.0844566446E+01 Ha)

 CALCULATION OF EFFECTIVE MASSES
 NOTE : Additional infos (eff. mass eigenvalues, eigenvectors and, if degenerate, average mass) are available in stdout.

 K-point ( 0.500, 0.000, 0.500) | band =    22
 Effective mass tensor:
            -41.1786604589            -20.4623432689             -0.7876743577
            -20.4623432689            -17.5510502577             -0.4547662951
             -0.7876743577             -0.4547662951             -0.1208052792
 Effective mass tensor eigenvalues:
            -53.0083085649             -5.7370437159             -0.1051637151
 Angular average effective mass 1/(<1/m>)=  -0.3092096878
 Angular average effective mass for Frohlich model (<m**0.5>)**2=  -1.0196197378
 Effective masses along directions: (cart. coord. / red. coord. -> eff. mass)
    1:   1.000000  0.000000  0.000000 /   0.894427 -0.447214  0.000000 -> -16.7140445544
    2:   0.000000  1.000000  0.000000 /   0.000000  1.000000  0.000000 ->  -7.3450165021
    3:   0.000000  0.000000  1.000000 /   0.000000  0.000000  1.000000 ->  -0.1051947557
    4:   0.577350  0.577350  0.577350 /   0.693279  0.253758  0.674516 ->  -0.3287954601
    5:   0.000000  0.707107  0.707107 /   0.000000  0.664875  0.746954 ->  -0.2109890106
    6:   0.707107  0.000000  0.707107 /   0.674721 -0.337360  0.656460 ->  -0.2154380696
    7:   0.707107  0.707107  0.000000 /   0.939071  0.343724  0.000000 -> -31.3526149094

 K-point ( 0.500, 0.000, 0.500) | band =    23
 Effective mass tensor:
              0.8394875044              0.0162202662             -0.0216058819
              0.0162202662              0.8207579563             -0.0124741617
             -0.0216058819             -0.0124741617              0.1163108019
 Effective mass tensor eigenvalues:
              0.1154621147              0.8113931807              0.8497009671
 Angular average effective mass 1/(<1/m>)=   0.2709982484
 Angular average effective mass for Frohlich model (<m**0.5>)**2=   0.3619400232
 Effective masses along directions: (cart. coord. / red. coord. -> eff. mass)
    1:   1.000000  0.000000  0.000000 /   0.894427 -0.447214  0.000000 ->   0.8352381053
    2:   0.000000  1.000000  0.000000 /   0.000000  1.000000  0.000000 ->   0.8191887608
    3:   0.000000  0.000000  1.000000 /   0.000000  0.000000  1.000000 ->   0.1155775544
    4:   0.577350  0.577350  0.577350 /   0.693279  0.253758  0.674516 ->   0.2558788604
    5:   0.000000  0.707107  0.707107 /   0.000000  0.664875  0.746954 ->   0.1974877065
    6:   0.707107  0.000000  0.707107 /   0.674721 -0.337360  0.656460 ->   0.1943651193
    7:   0.707107  0.707107  0.000000 /   0.939071  0.343724  0.000000 ->   0.8412709279

 END OF EFFECTIVE MASSES SECTION

 ---- first-order wavefunction calculations are completed ----

 Total localisation tensor (bohr^2) in cartesian coordinates
  WARNING : still subject to testing - especially symmetries.
      direction              matrix element
   alpha     beta       real part   imaginary part
     1        1       1.6888520561    0.0000000000
     1        2      -0.5695863397    0.0000000000
     1        3       0.0000000000    0.0000000000
     2        1      -0.5695863397    0.0000000000
     2        2       0.9865524796    0.0000000000
     2        3       0.0000000000    0.0000000000
     3        1       0.0000000000    0.0000000000
     3        2       0.0000000000    0.0000000000
     3        3       7.2585402733    0.0000000000

 respfn : d/dk was computed, but no 2DTE, so no DDB output.

== END DATASET(S) ==============================================================

 -outvars: echo values of variables after computation  --------
            acell      1.0000000000E+00  1.0000000000E+00  1.0000000000E+00 Bohr
              amu      8.54678000E+01  1.95080000E+02  1.20110000E+01
             ecut      4.20000000E+01 Hartree
           etotal     -3.0844566446E+01
            fcart      0.0000000000E+00  0.0000000000E+00  0.0000000000E+00
                       0.0000000000E+00  0.0000000000E+00  0.0000000000E+00
                       0.0000000000E+00  0.0000000000E+00  0.0000000000E+00
                       0.0000000000E+00  0.0000000000E+00  0.0000000000E+00
                       0.0000000000E+00  0.0000000000E+00  0.0000000000E+00
-          fftalg         512
           irdden           1
           irdwfk           1
           istwfk        1
              ixc     -116133
              kpt      5.00000000E-01  0.00000000E+00  5.00000000E-01
           kptopt           0
P           mkmem           1
P          mkqmem           1
P          mk1mem           1
            natom           5
            nband          31
           nbdbuf           4
            ngfft          60      60      60
             nkpt           1
            nstep        2000
             nsym          12
           ntypat           3
              occ      2.000000  2.000000  2.000000  2.000000  2.000000  2.000000
                       2.000000  2.000000  2.000000  2.000000  2.000000  2.000000
                       2.000000  2.000000  2.000000  2.000000  2.000000  2.000000
                       2.000000  2.000000  2.000000  2.000000  0.000000  0.000000
                       0.000000  0.000000  0.000000  0.000000  0.000000  0.000000
                       0.000000
        optdriver           1
            prtwf          -1
            rfdir           1       1       1
           rfelfd           2
            rprim      1.0094431487E+01  0.0000000000E+00  0.0000000000E+00
                      -5.0472157436E+00  8.7420341046E+00  0.0000000000E+00
                       0.0000000000E+00  0.0000000000E+00  9.8212360489E+00
          spgroup         164
           strten      0.0000000000E+00  0.0000000000E+00  0.0000000000E+00
                       0.0000000000E+00  0.0000000000E+00  0.0000000000E+00
           symrel      1  0  0   0  1  0   0  0  1      -1  0  0   0 -1  0   0  0 -1
                      -1  0  0   1  1  0   0  0  1       1  0  0  -1 -1  0   0  0 -1
                       0  1  0  -1 -1  0   0  0  1       0 -1  0   1  1  0   0  0 -1
                       0 -1  0  -1  0  0   0  0  1       0  1  0   1  0  0   0  0 -1
                      -1 -1  0   1  0  0   0  0  1       1  1  0  -1  0  0   0  0 -1
                       1  1  0   0 -1  0   0  0  1      -1 -1  0   0  1  0   0  0 -1
           tolwfr      1.00000000E-20
            typat      1  1  2  3  3
           useylm           1
           xangst     -1.7639241746E-11  3.0840568032E+00  3.7681696323E+00
                       2.6708715383E+00  1.5420284016E+00  1.4290046449E+00
                       0.0000000000E+00  0.0000000000E+00  0.0000000000E+00
                       0.0000000000E+00  0.0000000000E+00  1.9603741374E+00
                       0.0000000000E+00  0.0000000000E+00  3.2368001399E+00
            xcart     -3.3333336091E-11  5.8280227364E+00  7.1208086274E+00
                       5.0472157435E+00  2.9140113682E+00  2.7004274215E+00
                       0.0000000000E+00  0.0000000000E+00  0.0000000000E+00
                       0.0000000000E+00  0.0000000000E+00  3.7045702376E+00
                       0.0000000000E+00  0.0000000000E+00  6.1166658113E+00
             xred      3.3333333333E-01  6.6666666667E-01  7.2504200000E-01
                       6.6666666667E-01  3.3333333333E-01  2.7495800000E-01
                       0.0000000000E+00  0.0000000000E+00  0.0000000000E+00
                       0.0000000000E+00  0.0000000000E+00  3.7720000000E-01
                       0.0000000000E+00  0.0000000000E+00  6.2280000000E-01
            znucl       37.00000   78.00000    6.00000

- Timing analysis has been suppressed with timopt=0

 Suggested references for the acknowledgment of ABINIT usage.

 Calculation completed.
.Delivered   2 WARNINGs and   5 COMMENTs to log file.