.Version 9.5.1 of ABINIT

 ABINIT is a project of the Universite Catholique de Louvain,
 Corning Inc. and other collaborators, see ~abinit/doc/developers/contributors.txt .
 acknowledgments of the ABINIT effort.

.Starting date : Wed  5 May 2021.
- ( at 19h37 )

- input  file    -> /scratch/users/j/a/jabreu/flow_simple_7atoms/flow/w113/t1/run.abi
- output file    -> /scratch/users/j/a/jabreu/flow_simple_7atoms/flow/w113/t1/run.abo
- root for input  files -> /scratch/users/j/a/jabreu/flow_simple_7atoms/flow/w113/t1/indata/in
- root for output files -> /scratch/users/j/a/jabreu/flow_simple_7atoms/flow/w113/t1/outdata/out

 Symmetries : space group I-4 (# 82); Bravais tI (body-center tetrag.)
     intxc =       0      iscf =       7    lmnmax =      25     lnmax =       7
     mgfft =      80  mpssoang =       4    mqgrid =    3001     natom =       7
  nloc_mem =       1    nspden =       1   nspinor =       1    nsppol =       1
      nsym =       4    n1xccc =    2501    ntypat =       3    occopt =       1
   xclevel =       2
-    mband =          64        mffmem =           1         mkmem =           1
-   mkqmem =           1        mk1mem =           1           mpw =       17907
      nfft =      512000          nkpt =           1
  Rough estimation (10% accuracy) of disk space for files :

------------- Echo of variables that govern the present computation ------------
-
- outvars: echo of selected default values
-   iomode0 =  0 , fftalg0 =512 , wfoptalg0 =  0
-
- outvars: echo of global parameters not present in the input file
-  max_nthreads =    0
-
 -outvars: echo values of preprocessed input variables --------
            acell      1.0000000000E+00  1.0000000000E+00  1.0000000000E+00 Bohr
              amu      6.97230000E+01  2.00590000E+02  1.27600000E+02
             ecut      4.00000000E+01 Hartree
-          fftalg         512
           irdden           1
           irdwfk           1
           istwfk        1
              ixc     -116133
           kptopt           0
P           mkmem           1
P          mkqmem           1
P          mk1mem           1
            natom           7
            nband          64
           nbdbuf           4
            ngfft          80      80      80
             nkpt           1
            nstep        2000
             nsym           4
           ntypat           3
              occ      2.000000  2.000000  2.000000  2.000000  2.000000  2.000000
                       2.000000  2.000000  2.000000  2.000000  2.000000  2.000000
                       2.000000  2.000000  2.000000  2.000000  2.000000  2.000000
                       2.000000  2.000000  2.000000  2.000000  2.000000  2.000000
                       2.000000  2.000000  2.000000  2.000000  2.000000  2.000000
                       2.000000  2.000000  2.000000  2.000000  2.000000  2.000000
                       2.000000  2.000000  2.000000  2.000000  2.000000  2.000000
                       2.000000  2.000000  2.000000  2.000000  2.000000  2.000000
                       2.000000  2.000000  2.000000  2.000000  2.000000  2.000000
                       2.000000  0.000000  0.000000  0.000000  0.000000  0.000000
                       0.000000  0.000000  0.000000  0.000000
        optdriver           1
            prtwf          -1
            rfdir           1       1       1
           rfelfd           2
            rprim      1.0472885099E+01  0.0000000000E+00 -9.0138061215E+00
                      -2.2035771239E+00  1.0238435923E+01 -9.0138061215E+00
                       0.0000000000E+00  0.0000000000E+00  1.3817743053E+01
          spgroup          82
           symrel      1  0  0   0  1  0   0  0  1       0  1  0   1  0  0  -1 -1 -1
                       0  0  1  -1 -1 -1   0  1  0      -1 -1 -1   0  0  1   1  0  0
           tolwfr      1.00000000E-20
            typat      1  1  2  3  3  3  3
           useylm           1
           xangst      2.1879646556E+00  2.7089734711E+00 -4.7699007621E+00
                       5.1094093213E-01  4.0634602066E+00 -1.1138834131E+00
                       0.0000000000E+00  0.0000000000E+00  0.0000000000E+00
                      -9.0860377694E-02  3.1364169771E+00  3.7919098417E+00
                       1.8835663079E+00  2.0917934631E+00 -3.2978694713E-04
                       3.7205857146E+00  4.8468465729E+00 -4.9050399117E+00
                       3.2385669776E+00  7.6083687114E-01 -3.3420737955E+00
            xcart      4.1346539875E+00  5.1192179616E+00 -9.0138061215E+00
                       9.6553843180E-01  7.6788269424E+00 -2.1049345948E+00
                       0.0000000000E+00  0.0000000000E+00  0.0000000000E+00
                      -1.7170123017E-01  5.9269691253E+00  7.1656711214E+00
                       3.5594244750E+00  3.9529167718E+00 -6.2320701227E-04
                       7.0308880545E+00  9.1592126310E+00 -9.2691821040E+00
                       6.1200046507E+00  1.4377733183E+00 -6.3156041894E+00
             xred      5.0000000000E-01  5.0000000000E-01  0.0000000000E+00
                       2.5000000000E-01  7.5000000000E-01  5.0000000000E-01
                       0.0000000000E+00  0.0000000000E+00  0.0000000000E+00
                       1.0540900000E-01  5.7889400000E-01  9.6498000000E-01
                       4.2110600000E-01  3.8608600000E-01  5.2651500000E-01
                       8.5957100000E-01  8.9459100000E-01  4.7348500000E-01
                       6.1391400000E-01  1.4042900000E-01  3.5020000000E-02
            znucl       31.00000   80.00000   52.00000

 chkinp: Checking input parameters for consistency.

== DATASET  1 ==================================================================
-   mpi_nproc: 1, omp_nthreads: -1 (-1 if OMP is not activated)

--- !DatasetInfo
iteration_state: {dtset: 1, }
dimensions: {natom: 7, nkpt: 1, mband: 64, nsppol: 1, nspinor: 1, nspden: 1, mpw: 17907, }
cutoff_energies: {ecut:  40.0, pawecutdg:  -1.0, }
electrons: {nelect:   1.10000000E+02, charge:   0.00000000E+00, occopt:   1.00000000E+00, tsmear:   1.00000000E-02, }
meta: {optdriver: 1, rfelfd: 2, }
...

 Real(R)+Recip(G) space primitive vectors, cartesian coordinates (Bohr,Bohr^-1):
 R(1)= 10.4728851  0.0000000 -9.0138061  G(1)=  0.0954847  0.0205508  0.0000000
 R(2)= -2.2035771 10.2384359 -9.0138061  G(2)=  0.0000000  0.0976712  0.0000000
 R(3)=  0.0000000  0.0000000 13.8177431  G(3)=  0.0622881  0.0771204  0.0723707
 Unit cell volume ucvol=  1.4816208E+03 bohr^3
 Angles (23,13,12)=  1.30717931E+02  1.30717931E+02  7.22616128E+01 degrees

 getcut: wavevector=  0.0000  0.0000  0.0000  ngfft=  80  80  80
         ecut(hartree)=     40.000   => boxcut(ratio)=   2.03359

--- Pseudopotential description ------------------------------------------------
- pspini: atom type   1  psp file is /scratch/users/j/a/jabreu/pseudos/PBEsol/Ga.psp8
- pspatm: opening atomic psp file    /scratch/users/j/a/jabreu/pseudos/PBEsol/Ga.psp8
- Ga    ONCVPSP-3.3.0  r_core=   1.66857   1.75011   1.90252
- 31.00000  13.00000    180112                znucl, zion, pspdat
    8 -116133    2    4       600   0.00000   pspcod,pspxc,lmax,lloc,mmax,r2well
    5.99000000000000    5.00000000000000    0.00000000000000   rchrg,fchrg,qchrg
     nproj     2     2     2
     extension_switch     1
  pspatm : epsatm=   24.50969055
         --- l  ekb(1:nproj) -->
             0    7.053021    1.156713
             1    6.846070    1.293139
             2   -8.368667   -2.819170
 pspatm: atomic psp has been read  and splines computed

- pspini: atom type   2  psp file is /scratch/users/j/a/jabreu/pseudos/PBEsol/Hg.psp8
- pspatm: opening atomic psp file    /scratch/users/j/a/jabreu/pseudos/PBEsol/Hg.psp8
- Hg    ONCVPSP-3.3.0  r_core=   1.60079   1.60079   1.45509   1.60079
- 80.00000  20.00000    180112                znucl, zion, pspdat
    8 -116133    3    4       600   0.00000   pspcod,pspxc,lmax,lloc,mmax,r2well
    5.99000000000000    5.00000000000000    0.00000000000000   rchrg,fchrg,qchrg
     nproj     2     2     2     1
     extension_switch     1
  pspatm : epsatm=   30.52477316
         --- l  ekb(1:nproj) -->
             0   15.280580    2.063595
             1   11.999965    1.374025
             2    2.245749    0.205661
             3    0.961656
 pspatm: atomic psp has been read  and splines computed

- pspini: atom type   3  psp file is /scratch/users/j/a/jabreu/pseudos/PBEsol/Te.psp8
- pspatm: opening atomic psp file    /scratch/users/j/a/jabreu/pseudos/PBEsol/Te.psp8
- Te    ONCVPSP-3.3.0  r_core=   2.26547   1.91704   1.80604
- 52.00000  16.00000    180112                znucl, zion, pspdat
    8 -116133    2    4       600   0.00000   pspcod,pspxc,lmax,lloc,mmax,r2well
    5.99000000000000    5.00000000000000    0.00000000000000   rchrg,fchrg,qchrg
     nproj     2     2     2
     extension_switch     1
  pspatm : epsatm=   36.82679836
         --- l  ekb(1:nproj) -->
             0    6.345999    0.785432
             1    5.709019    1.070069
             2   -6.035173   -1.870937
 pspatm: atomic psp has been read  and splines computed

   2.49536482E+04                                ecore*ucvol(ha*bohr**3)

-inwffil : will read wavefunctions from disk file /scratch/users/j/a/jabreu/flow_simple_7atoms/flow/w113/t1/indata/in_WFK

 ==>  initialize data related to q vector <==

 The list of irreducible perturbations for this q vector is:
    1)    idir= 1    ipert=   8
    2)    idir= 2    ipert=   8
    3)    idir= 3    ipert=   8

 Perturbation wavevector (in red.coord.)   0.000000  0.000000  0.000000
 Perturbation : derivative vs k along direction   1

 dfpt_looppert : COMMENT -
  In a d/dk calculation, iscf is set to -3 automatically.
 The set of symmetries contains only one element for this perturbation.
 symkpt : not enough symmetry to change the number of k points.

[...]

 Initialisation of the first-order wave-functions :
  ireadwf=   0

--- !BeginCycle
iteration_state: {dtset: 1, }
solver: {iscf: 7, nstep: 2000, nline: 4, wfoptalg: 0, }
tolerances: {tolwfr: 1.00E-20, }
...

     iter   2DEtotal(Ha)        deltaE(Ha) residm    vres2
-ETOT  1  -100.05521520652     -1.001E+02 1.586E-01 0.000E+00
 ETOT  2  -100.12595669977     -7.074E-02 9.825E-04 0.000E+00
 ETOT  3  -100.12614890805     -1.922E-04 5.342E-05 0.000E+00
 ETOT  4  -100.12615056024     -1.652E-06 1.803E-06 0.000E+00
 ETOT  5  -100.12615057897     -1.873E-08 6.879E-08 0.000E+00
 ETOT  6  -100.12615057921     -2.438E-10 4.624E-09 0.000E+00
 ETOT  7  -100.12615057922     -3.297E-12 1.791E-10 0.000E+00
 ETOT  8  -100.12615057922      1.421E-14 1.246E-11 0.000E+00
 ETOT  9  -100.12615057922      1.279E-13 4.929E-13 0.000E+00
 ETOT 10  -100.12615057922     -7.105E-14 3.477E-14 0.000E+00
 ETOT 11  -100.12615057922     -1.421E-14 1.510E-15 0.000E+00
 ETOT 12  -100.12615057922     -1.421E-14 1.025E-16 0.000E+00
 ETOT 13  -100.12615057922     -1.421E-14 6.325E-18 0.000E+00
 ETOT 14  -100.12615057922      4.263E-14 3.284E-19 0.000E+00
 ETOT 15  -100.12615057922     -2.842E-14 2.673E-20 0.000E+00
 ETOT 16  -100.12615057922      0.000E+00 9.977E-21 0.000E+00

 At SCF step   16   max residual=  9.98E-21 < tolwfr=  1.00E-20 =>converged.

 ----iterations are completed or convergence reached----

 dfpt_looppert: DFPT cycle converged with prtwf=-1. Will skip output of the 1st-order WFK file.
 dfpt_looppert : ek2=    8.2854325144E+01
          f-sum rule ratio=    1.2341531932E+00
 prteigrs : about to open file /scratch/users/j/a/jabreu/flow_simple_7atoms/flow/w113/t1/tmpdata/tmp_1WF1_EIG
 Expectation of eigenvalue derivatives (hartree) for nkpt=   1  k points:
  (in case of degenerate eigenvalues, averaged derivative)
 kpt#   1, nband= 64, wtk=  1.00000, kpt=  0.0000  0.0000  0.0000 (reduced coord)
  -0.00000    0.00000   -0.00000   -0.00000   -0.00000   -0.00000    0.00000    0.00000
  -0.00000    0.00000    0.00000    0.00000   -0.00000   -0.00000   -0.00000   -0.00000
   0.00000    0.00000    0.00000   -0.00000   -0.00000    0.00000   -0.00000   -0.00000
   0.00000    0.00000    0.00000   -0.00000   -0.00000   -0.00000   -0.00000    0.00000
  -0.00000    0.00000    0.00000   -0.00000   -0.00000   -0.00000   -0.00000   -0.00000
   0.00000    0.00000    0.00000    0.00000    0.00000   -0.00000    0.00000   -0.00000
  -0.00000   -0.00000   -0.00000   -0.00000    0.00000   -0.00000   -0.00000   -0.00000
  -0.00000    0.00000   -0.00000   -0.00000   -0.00000   -0.00000    0.00000    0.00000

 Eight components of 2nd-order total energy (hartree) are
 1,2,3: 0th-order hamiltonian combined with 1st-order wavefunctions
     kin0=   1.03657522E+02 eigvalue=   1.37974858E+01  local=  -5.10015182E+01
 4,5,6: 1st-order hamiltonian combined with 1st and 0th-order wfs
     kin1=  -1.02254930E+02  Hartree=   0.00000000E+00     xc=   0.00000000E+00
 7,8,9: eventually, occupation + non-local contributions
    edocc=   2.04169337E+01     enl0=   1.32557271E+01   enl1=  -9.79973712E+01
 1-9 gives the relaxation energy (to be shifted if some occ is /=2.0)
   erelax=  -1.00126151E+02
  No Ewald or frozen-wf contrib.: the relaxation energy is the total one
 2DEtotal=   -0.1001261506E+03 Ha. Also 2DEtotal=   -0.272457111784E+04 eV
    (  non-var. 2DEtotal :   -1.0012615058E+02 Ha)

 Perturbation wavevector (in red.coord.)   0.000000  0.000000  0.000000
 Perturbation : derivative vs k along direction   2
 The set of symmetries contains only one element for this perturbation.
 symkpt : not enough symmetry to change the number of k points.

[...]

 Perturbation wavevector (in red.coord.)   0.000000  0.000000  0.000000
 Perturbation : derivative vs k along direction   3
 The set of symmetries contains only one element for this perturbation.
 symkpt : not enough symmetry to change the number of k points.

-inwffil : will read wavefunctions from disk file /scratch/users/j/a/jabreu/flow_simple_7atoms/flow/w113/t1/indata/in_WFK

 Initialisation of the first-order wave-functions :
  ireadwf=   0

--- !BeginCycle
iteration_state: {dtset: 1, }
solver: {iscf: 7, nstep: 2000, nline: 4, wfoptalg: 0, }
tolerances: {tolwfr: 1.00E-20, }
...

     iter   2DEtotal(Ha)        deltaE(Ha) residm    vres2
-ETOT  1  -160.76151031770     -1.608E+02 1.548E-01 0.000E+00
 ETOT  2  -160.86827258477     -1.068E-01 5.665E-03 0.000E+00
 ETOT  3  -160.86853298890     -2.604E-04 1.172E-04 0.000E+00
 ETOT  4  -160.86853489290     -1.904E-06 9.772E-06 0.000E+00
 ETOT  5  -160.86853491142     -1.852E-08 2.188E-07 0.000E+00
 ETOT  6  -160.86853491163     -2.135E-10 2.326E-08 0.000E+00
 ETOT  7  -160.86853491164     -3.212E-12 5.130E-10 0.000E+00
 ETOT  8  -160.86853491164      8.527E-14 5.760E-11 0.000E+00
 ETOT  9  -160.86853491164      0.000E+00 1.290E-12 0.000E+00
 ETOT 10  -160.86853491164      8.527E-14 1.487E-13 0.000E+00
 ETOT 11  -160.86853491164     -1.421E-13 3.518E-15 0.000E+00
 ETOT 12  -160.86853491164      5.684E-14 4.114E-16 0.000E+00
 ETOT 13  -160.86853491164      0.000E+00 1.071E-17 0.000E+00
 ETOT 14  -160.86853491164      2.842E-14 1.255E-18 0.000E+00
 ETOT 15  -160.86853491164     -2.842E-14 3.657E-20 0.000E+00
 ETOT 16  -160.86853491164     -2.842E-14 9.389E-21 0.000E+00

 At SCF step   16   max residual=  9.39E-21 < tolwfr=  1.00E-20 =>converged.

 ----iterations are completed or convergence reached----

 dfpt_looppert: DFPT cycle converged with prtwf=-1. Will skip output of the 1st-order WFK file.
 dfpt_looppert : ek2=    1.3084225120E+02
          f-sum rule ratio=    1.2725457874E+00
 prteigrs : about to open file /scratch/users/j/a/jabreu/flow_simple_7atoms/flow/w113/t1/tmpdata/tmp_1WF1_EIG
 Expectation of eigenvalue derivatives (hartree) for nkpt=   1  k points:
  (in case of degenerate eigenvalues, averaged derivative)
 kpt#   1, nband= 64, wtk=  1.00000, kpt=  0.0000  0.0000  0.0000 (reduced coord)
   0.00000   -0.00000    0.00000    0.00000   -0.00000   -0.00000    0.00000    0.00000
   0.00000    0.00000    0.00000    0.00000   -0.00000    0.00000   -0.00000   -0.00000
   0.00000    0.00000    0.00000    0.00000   -0.00000   -0.00000   -0.00000   -0.00000
   0.00000    0.00000    0.00000    0.00000   -0.00000   -0.00000    0.00000    0.00000
   0.00000    0.00000   -0.00000    0.00000    0.00000   -0.00000    0.00000   -0.00000
   0.00000    0.00000    0.00000    0.00000    0.00000   -0.00000    0.00000   -0.00000
  -0.00000   -0.00000    0.00000    0.00000   -0.00000   -0.00000   -0.00000    0.00000
  -0.00000   -0.00000   -0.00000   -0.00000   -0.00000    0.00000    0.00000    0.00000

 Eight components of 2nd-order total energy (hartree) are
 1,2,3: 0th-order hamiltonian combined with 1st-order wavefunctions
     kin0=   1.63453601E+02 eigvalue=   2.18013454E+01  local=  -8.03283763E+01
 4,5,6: 1st-order hamiltonian combined with 1st and 0th-order wfs
     kin1=  -1.66502756E+02  Hartree=   0.00000000E+00     xc=   0.00000000E+00
 7,8,9: eventually, occupation + non-local contributions
    edocc=   3.51391521E+01     enl0=   2.08028123E+01   enl1=  -1.55234314E+02
 1-9 gives the relaxation energy (to be shifted if some occ is /=2.0)
   erelax=  -1.60868535E+02
  No Ewald or frozen-wf contrib.: the relaxation energy is the total one
 2DEtotal=   -0.1608685349E+03 Ha. Also 2DEtotal=   -0.437745545448E+04 eV
    (  non-var. 2DEtotal :   -1.6086853491E+02 Ha)

 CALCULATION OF EFFECTIVE MASSES
 NOTE : Additional infos (eff. mass eigenvalues, eigenvectors and, if degenerate, average mass) are available in stdout.

 COMMENTS:
 - At k-point ( 0.000, 0.000, 0.000), bands    54 through    55
   are DEGENERATE (effective mass tensor is therefore not defined).
   See Section IIIB Eqs. (67)-(70) and Appendix E of PRB 93 205147 (2016).
 - Angular average effective mass for Frohlich model is to be averaged over degenerate bands. See later.
 - Associated theta integrals calculated with ntheta=   1000 points.

 K-point ( 0.000, 0.000, 0.000) | band =    54
 Transport equivalent effective mass tensor:
             -0.1089370580             -0.0624849239              0.1100220794
             -0.0624849239             -0.1358338120              0.1362210727
              0.1100220794              0.1362210727             -0.2983247413
 Transport equivalent effective mass tensor eigenvalues:
             -0.4261562643             -0.0584696736             -0.0584696734
 Angular average effective mass 1/(<1/m>)=  -0.0815673392
 Angular average effective mass for Frohlich model (<m**0.5>)**2=  -0.0956134328
 Effective masses along directions: (cart. coord. / red. coord. -> eff. mass)
    1:   1.000000  0.000000  0.000000 /   0.978573 -0.205899  0.000000 ->  -0.0680506460
    2:   0.000000  1.000000  0.000000 /   0.000000  1.000000  0.000000 ->  -0.0746062420
    3:   0.000000  0.000000  1.000000 /  -0.479466 -0.479466  0.734999 ->  -0.1280235457
    4:   0.577350  0.577350  0.577350 /   0.104751 -0.070281  0.992012 ->  -0.0556504128
    5:   0.000000  0.707107  0.707107 /  -0.544864  0.074026  0.835251 ->  -0.0622033138
    6:   0.707107  0.000000  0.707107 /   0.081707 -0.628163  0.773780 ->  -0.0658711297
    7:   0.707107  0.707107  0.000000 /   0.793400  0.608701  0.000000 ->  -0.0795629343

 K-point ( 0.000, 0.000, 0.000) | band =    55
 Transport equivalent effective mass tensor:
             -2.8475743294              0.0450091238             -0.0792510625
              0.0450091238             -2.8282000525             -0.0981227340
             -0.0792510625             -0.0981227340             -2.7111546138
 Transport equivalent effective mass tensor eigenvalues:
             -2.8839269773             -2.8839269636             -2.6190750548
 Angular average effective mass 1/(<1/m>)=  -0.6303446054
 Angular average effective mass for Frohlich model (<m**0.5>)**2=  -0.7240526047
 Effective masses along directions: (cart. coord. / red. coord. -> eff. mass)
    1:   1.000000  0.000000  0.000000 /   0.978573 -0.205899  0.000000 ->  -0.5464062633
    2:   0.000000  1.000000  0.000000 /   0.000000  1.000000  0.000000 ->  -0.4712606821
    3:   0.000000  0.000000  1.000000 /  -0.479466 -0.479466  0.734999 ->  -0.5963329323
    4:   0.577350  0.577350  0.577350 /   0.104751 -0.070281  0.992012 ->  -2.3316864818
    5:   0.000000  0.707107  0.707107 /  -0.544864  0.074026  0.835251 ->  -0.6701994953
    6:   0.707107  0.000000  0.707107 /   0.081707 -0.628163  0.773780 ->  -0.5226098501
    7:   0.707107  0.707107  0.000000 /   0.793400  0.608701  0.000000 ->  -0.8810969326

 Angular average effective mass for Frohlich model, averaged over degenerate bands.
 Value of     (<<m**0.5>>)**2 =     3.364737E-01
 Absolute Value of <<m**0.5>> =     5.800635E-01

 K-point ( 0.000, 0.000, 0.000) | band =    56
 Effective mass tensor:
              0.0749224741              0.0154677268             -0.0272352325
              0.0154677268              0.0815805871             -0.0337206193
             -0.0272352325             -0.0337206193              0.1218041322
 Effective mass tensor eigenvalues:
              0.0624296092              0.0624296094              0.1534479747
 Angular average effective mass 1/(<1/m>)=   0.0778150622
 Angular average effective mass for Frohlich model (<m**0.5>)**2=   0.0813391323
 Effective masses along directions: (cart. coord. / red. coord. -> eff. mass)
    1:   1.000000  0.000000  0.000000 /   0.978573 -0.205899  0.000000 ->   0.0679627515
    2:   0.000000  1.000000  0.000000 /   0.000000  1.000000  0.000000 ->   0.0713321767
    3:   0.000000  0.000000  1.000000 /  -0.479466 -0.479466  0.734999 ->   0.1018320995
    4:   0.577350  0.577350  0.577350 /   0.104751 -0.070281  0.992012 ->   0.0624353213
    5:   0.000000  0.707107  0.707107 /  -0.544864  0.074026  0.835251 ->   0.0647688886
    6:   0.707107  0.000000  0.707107 /   0.081707 -0.628163  0.773780 ->   0.0661812042
    7:   0.707107  0.707107  0.000000 /   0.793400  0.608701  0.000000 ->   0.0784203367

 END OF EFFECTIVE MASSES SECTION

 ---- first-order wavefunction calculations are completed ----

 Total localisation tensor (bohr^2) in cartesian coordinates
  WARNING : still subject to testing - especially symmetries.
      direction              matrix element
   alpha     beta       real part   imaginary part
     1        1       6.1898534856    0.0000000000
     1        2      -1.2192595204    0.0000000000
     1        3      -4.0282059130    0.0000000000
     2        1      -1.2192595204    0.0000000000
     2        2       5.6650209052    0.0000000000
     2        3      -4.9874219555    0.0000000000
     3        1      -4.0282059130    0.0000000000
     3        2      -4.9874219555    0.0000000000
     3        3      27.3107551739    0.0000000000

 respfn : d/dk was computed, but no 2DTE, so no DDB output.

== END DATASET(S) ==============================================================

 -outvars: echo values of variables after computation  --------
            acell      1.0000000000E+00  1.0000000000E+00  1.0000000000E+00 Bohr
              amu      6.97230000E+01  2.00590000E+02  1.27600000E+02
             ecut      4.00000000E+01 Hartree
           etotal     -1.6086853491E+02
            fcart      0.0000000000E+00  0.0000000000E+00  0.0000000000E+00
                       0.0000000000E+00  0.0000000000E+00  0.0000000000E+00
                       0.0000000000E+00  0.0000000000E+00  0.0000000000E+00
                       0.0000000000E+00  0.0000000000E+00  0.0000000000E+00
                       0.0000000000E+00  0.0000000000E+00  0.0000000000E+00
                       0.0000000000E+00  0.0000000000E+00  0.0000000000E+00
                       0.0000000000E+00  0.0000000000E+00  0.0000000000E+00
-          fftalg         512
           irdden           1
           irdwfk           1
           istwfk        1
              ixc     -116133
           kptopt           0
P           mkmem           1
P          mkqmem           1
P          mk1mem           1
            natom           7
            nband          64
           nbdbuf           4
            ngfft          80      80      80
             nkpt           1
            nstep        2000
             nsym           4
           ntypat           3
              occ      2.000000  2.000000  2.000000  2.000000  2.000000  2.000000
                       2.000000  2.000000  2.000000  2.000000  2.000000  2.000000
                       2.000000  2.000000  2.000000  2.000000  2.000000  2.000000
                       2.000000  2.000000  2.000000  2.000000  2.000000  2.000000
                       2.000000  2.000000  2.000000  2.000000  2.000000  2.000000
                       2.000000  2.000000  2.000000  2.000000  2.000000  2.000000
                       2.000000  2.000000  2.000000  2.000000  2.000000  2.000000
                       2.000000  2.000000  2.000000  2.000000  2.000000  2.000000
                       2.000000  2.000000  2.000000  2.000000  2.000000  2.000000
                       2.000000  0.000000  0.000000  0.000000  0.000000  0.000000
                       0.000000  0.000000  0.000000  0.000000
        optdriver           1
            prtwf          -1
            rfdir           1       1       1
           rfelfd           2
            rprim      1.0472885099E+01  0.0000000000E+00 -9.0138061215E+00
                      -2.2035771239E+00  1.0238435923E+01 -9.0138061215E+00
                       0.0000000000E+00  0.0000000000E+00  1.3817743053E+01
          spgroup          82
           strten      0.0000000000E+00  0.0000000000E+00  0.0000000000E+00
                       0.0000000000E+00  0.0000000000E+00  0.0000000000E+00
           symrel      1  0  0   0  1  0   0  0  1       0  1  0   1  0  0  -1 -1 -1
                       0  0  1  -1 -1 -1   0  1  0      -1 -1 -1   0  0  1   1  0  0
           tolwfr      1.00000000E-20
            typat      1  1  2  3  3  3  3
           useylm           1
           xangst      2.1879646556E+00  2.7089734711E+00 -4.7699007621E+00
                       5.1094093213E-01  4.0634602066E+00 -1.1138834131E+00
                       0.0000000000E+00  0.0000000000E+00  0.0000000000E+00
                      -9.0860377694E-02  3.1364169771E+00  3.7919098417E+00
                       1.8835663079E+00  2.0917934631E+00 -3.2978694713E-04
                       3.7205857146E+00  4.8468465729E+00 -4.9050399117E+00
                       3.2385669776E+00  7.6083687114E-01 -3.3420737955E+00
            xcart      4.1346539875E+00  5.1192179616E+00 -9.0138061215E+00
                       9.6553843180E-01  7.6788269424E+00 -2.1049345948E+00
                       0.0000000000E+00  0.0000000000E+00  0.0000000000E+00
                      -1.7170123017E-01  5.9269691253E+00  7.1656711214E+00
                       3.5594244750E+00  3.9529167718E+00 -6.2320701227E-04
                       7.0308880545E+00  9.1592126310E+00 -9.2691821040E+00
                       6.1200046507E+00  1.4377733183E+00 -6.3156041894E+00
             xred      5.0000000000E-01  5.0000000000E-01  0.0000000000E+00
                       2.5000000000E-01  7.5000000000E-01  5.0000000000E-01
                       0.0000000000E+00  0.0000000000E+00  0.0000000000E+00
                       1.0540900000E-01  5.7889400000E-01  9.6498000000E-01
                       4.2110600000E-01  3.8608600000E-01  5.2651500000E-01
                       8.5957100000E-01  8.9459100000E-01  4.7348500000E-01
                       6.1391400000E-01  1.4042900000E-01  3.5020000000E-02
            znucl       31.00000   80.00000   52.00000

- Timing analysis has been suppressed with timopt=0

 Suggested references for the acknowledgment of ABINIT usage.

 Calculation completed.
.Delivered   6 WARNINGs and   5 COMMENTs to log file.