.Version 9.5.1 of ABINIT

 ABINIT is a project of the Universite Catholique de Louvain,
 Corning Inc. and other collaborators, see ~abinit/doc/developers/contributors.txt .
 acknowledgments of the ABINIT effort.

.Starting date : Tue 11 May 2021.
- ( at 22h04 )

- input  file    -> /scratch/users/j/a/jabreu/flow_simple_8atoms/flow/w385/t1/run.abi
- output file    -> /scratch/users/j/a/jabreu/flow_simple_8atoms/flow/w385/t1/run.abo
- root for input  files -> /scratch/users/j/a/jabreu/flow_simple_8atoms/flow/w385/t1/indata/in
- root for output files -> /scratch/users/j/a/jabreu/flow_simple_8atoms/flow/w385/t1/outdata/out

 Symmetries : space group P6_3/m m c (#194); Bravais hP (primitive hexag.)
     intxc =       0      iscf =       7    lmnmax =      18     lnmax =       6
     mgfft =     144  mpssoang =       3    mqgrid =    6967     natom =       8
  nloc_mem =       1    nspden =       1   nspinor =       1    nsppol =       1
      nsym =      24    n1xccc =    2501    ntypat =       3    occopt =       1
   xclevel =       2
-    mband =          53        mffmem =           1         mkmem =           2
-   mkqmem =           2        mk1mem =           2           mpw =        9015
      nfft =      186624          nkpt =           2
  Rough estimation (10% accuracy) of disk space for files :

------------- Echo of variables that govern the present computation ------------
-
- outvars: echo of selected default values
-   iomode0 =  0 , fftalg0 =512 , wfoptalg0 =  0
-
- outvars: echo of global parameters not present in the input file
-  max_nthreads =    0
-
 -outvars: echo values of preprocessed input variables --------
            acell      1.0000000000E+00  1.0000000000E+00  1.0000000000E+00 Bohr
              amu      6.97230000E+01  1.07868200E+02  1.59994000E+01
             ecut      4.40000000E+01 Hartree
-          fftalg         512
           irdden           1
           irdwfk           1
           istwfk        1    1
              ixc     -116133
              kpt      5.00000000E-01  0.00000000E+00  0.00000000E+00
                       0.00000000E+00  0.00000000E+00  0.00000000E+00
           kptopt           0
P           mkmem           2
P          mkqmem           2
P          mk1mem           2
            natom           8
            nband          53
           nbdbuf           4
            ngfft          36      36     144
             nkpt           2
            nstep        2000
             nsym          24
           ntypat           3
              occ      2.000000  2.000000  2.000000  2.000000  2.000000  2.000000
                       2.000000  2.000000  2.000000  2.000000  2.000000  2.000000
                       2.000000  2.000000  2.000000  2.000000  2.000000  2.000000
                       2.000000  2.000000  2.000000  2.000000  2.000000  2.000000
                       2.000000  2.000000  2.000000  2.000000  2.000000  2.000000
                       2.000000  2.000000  2.000000  2.000000  2.000000  2.000000
                       2.000000  2.000000  2.000000  2.000000  2.000000  2.000000
                       2.000000  2.000000  0.000000  0.000000  0.000000  0.000000
                       0.000000  0.000000  0.000000  0.000000  0.000000
        optdriver           1
            prtwf          -1
            rfdir           1       1       1
           rfelfd           2
            rprim      5.6397166932E+00  0.0000000000E+00  0.0000000000E+00
                      -2.8198583466E+00  4.8841379265E+00  0.0000000000E+00
                       0.0000000000E+00  0.0000000000E+00  2.3328996101E+01
          spgroup         194
           symrel      1  0  0   0  1  0   0  0  1      -1  0  0   0 -1  0   0  0 -1
                       0  1  0   1  0  0   0  0  1       0 -1  0  -1  0  0   0  0 -1
                       1  1  0  -1  0  0   0  0  1      -1 -1  0   1  0  0   0  0 -1
                      -1  0  0   1  1  0   0  0  1       1  0  0  -1 -1  0   0  0 -1
                       0  1  0  -1 -1  0   0  0  1       0 -1  0   1  1  0   0  0 -1
                      -1 -1  0   0  1  0   0  0  1       1  1  0   0 -1  0   0  0 -1
                      -1  0  0   0 -1  0   0  0  1       1  0  0   0  1  0   0  0 -1
                       0 -1  0  -1  0  0   0  0  1       0  1  0   1  0  0   0  0 -1
                      -1 -1  0   1  0  0   0  0  1       1  1  0  -1  0  0   0  0 -1
                       1  0  0  -1 -1  0   0  0  1      -1  0  0   1  1  0   0  0 -1
                       0 -1  0   1  1  0   0  0  1       0  1  0  -1 -1  0   0  0 -1
                       1  1  0   0 -1  0   0  0  1      -1 -1  0   0  1  0   0  0 -1
            tnons      0.0000000  0.0000000  0.0000000     0.0000000  0.0000000  0.0000000
                       0.0000000  0.0000000  0.5000000     0.0000000  0.0000000  0.5000000
                       0.0000000  0.0000000  0.5000000     0.0000000  0.0000000  0.5000000
                       0.0000000  0.0000000  0.0000000     0.0000000  0.0000000  0.0000000
                       0.0000000  0.0000000  0.0000000     0.0000000  0.0000000  0.0000000
                       0.0000000  0.0000000  0.5000000     0.0000000  0.0000000  0.5000000
                       0.0000000  0.0000000  0.5000000     0.0000000  0.0000000  0.5000000
                       0.0000000  0.0000000  0.0000000     0.0000000  0.0000000  0.0000000
                       0.0000000  0.0000000  0.0000000     0.0000000  0.0000000  0.0000000
                       0.0000000  0.0000000  0.5000000     0.0000000  0.0000000  0.5000000
                       0.0000000  0.0000000  0.5000000     0.0000000  0.0000000  0.5000000
                       0.0000000  0.0000000  0.0000000     0.0000000  0.0000000  0.0000000
           tolwfr      1.00000000E-20
            typat      1  1  2  2  3  3  3  3
           useylm           1
              wtk        0.50000    0.50000
           xangst      0.0000000000E+00  0.0000000000E+00  0.0000000000E+00
                       0.0000000000E+00  0.0000000000E+00  6.1725865180E+00
                       1.4922047685E+00  8.6152482477E-01  9.2588797770E+00
                       1.1750094422E-16  1.7230496495E+00  3.0862932590E+00
                       1.1750094422E-16  1.7230496495E+00  5.1671709356E+00
                       1.4922047685E+00  8.6152482477E-01  1.1339757454E+01
                       1.1750094422E-16  1.7230496495E+00  1.0054155824E+00
                       1.4922047685E+00  8.6152482477E-01  7.1780021004E+00
            xcart      0.0000000000E+00  0.0000000000E+00  0.0000000000E+00
                       0.0000000000E+00  0.0000000000E+00  1.1664498051E+01
                       2.8198583466E+00  1.6280459755E+00  1.7496747076E+01
                       2.2204460493E-16  3.2560919510E+00  5.8322490253E+00
                       2.2204460493E-16  3.2560919510E+00  9.7645379501E+00
                       2.8198583466E+00  1.6280459755E+00  2.1429036001E+01
                       2.2204460493E-16  3.2560919510E+00  1.8999601005E+00
                       2.8198583466E+00  1.6280459755E+00  1.3564458151E+01
             xred      0.0000000000E+00  0.0000000000E+00  0.0000000000E+00
                       0.0000000000E+00  0.0000000000E+00  5.0000000000E-01
                       6.6666666667E-01  3.3333333333E-01  7.5000000000E-01
                       3.3333333333E-01  6.6666666667E-01  2.5000000000E-01
                       3.3333333333E-01  6.6666666667E-01  4.1855800000E-01
                       6.6666666667E-01  3.3333333333E-01  9.1855800000E-01
                       3.3333333333E-01  6.6666666667E-01  8.1442000000E-02
                       6.6666666667E-01  3.3333333333E-01  5.8144200000E-01
            znucl       31.00000   47.00000    8.00000

 chkinp: Checking input parameters for consistency.

== DATASET  1 ==================================================================
-   mpi_nproc: 1, omp_nthreads: -1 (-1 if OMP is not activated)

--- !DatasetInfo
iteration_state: {dtset: 1, }
dimensions: {natom: 8, nkpt: 2, mband: 53, nsppol: 1, nspinor: 1, nspden: 1, mpw: 9015, }
cutoff_energies: {ecut:  44.0, pawecutdg:  -1.0, }
electrons: {nelect:   8.80000000E+01, charge:   0.00000000E+00, occopt:   1.00000000E+00, tsmear:   1.00000000E-02, }
meta: {optdriver: 1, rfelfd: 2, }
...

 Real(R)+Recip(G) space primitive vectors, cartesian coordinates (Bohr,Bohr^-1):
 R(1)=  5.6397167  0.0000000  0.0000000  G(1)=  0.1773139  0.1023722  0.0000000
 R(2)= -2.8198583  4.8841379  0.0000000  G(2)=  0.0000000  0.2047444  0.0000000
 R(3)=  0.0000000  0.0000000 23.3289961  G(3)=  0.0000000  0.0000000  0.0428651
 Unit cell volume ucvol=  6.4260079E+02 bohr^3
 Angles (23,13,12)=  9.00000000E+01  9.00000000E+01  1.20000000E+02 degrees

 getcut: wavevector=  0.0000  0.0000  0.0000  ngfft=  36  36 144
         ecut(hartree)=     44.000   => boxcut(ratio)=   2.06716

--- Pseudopotential description ------------------------------------------------
- pspini: atom type   1  psp file is /scratch/users/j/a/jabreu/pseudos/PBEsol/Ga.psp8
- pspatm: opening atomic psp file    /scratch/users/j/a/jabreu/pseudos/PBEsol/Ga.psp8
- Ga    ONCVPSP-3.3.0  r_core=   1.66857   1.75011   1.90252
- 31.00000  13.00000    180112                znucl, zion, pspdat
    8 -116133    2    4       600   0.00000   pspcod,pspxc,lmax,lloc,mmax,r2well
    5.99000000000000    5.00000000000000    0.00000000000000   rchrg,fchrg,qchrg
     nproj     2     2     2
     extension_switch     1
  pspatm : epsatm=   24.50969055
         --- l  ekb(1:nproj) -->
             0    7.053021    1.156713
             1    6.846070    1.293139
             2   -8.368667   -2.819170
 pspatm: atomic psp has been read  and splines computed

- pspini: atom type   2  psp file is /scratch/users/j/a/jabreu/pseudos/PBEsol/Ag.psp8
- pspatm: opening atomic psp file    /scratch/users/j/a/jabreu/pseudos/PBEsol/Ag.psp8
- Ag    ONCVPSP-3.3.0  r_core=   1.41384   1.46535   1.61207
- 47.00000  19.00000    180112                znucl, zion, pspdat
    8 -116133    2    4       600   0.00000   pspcod,pspxc,lmax,lloc,mmax,r2well
    5.99000000000000    7.00000000000000    0.00000000000000   rchrg,fchrg,qchrg
     nproj     2     2     2
     extension_switch     1
  pspatm : epsatm=   27.64581383
         --- l  ekb(1:nproj) -->
             0    9.559407   -0.398585
             1    3.418858   -0.136622
             2   -1.644397   -0.401551
 pspatm: atomic psp has been read  and splines computed

- pspini: atom type   3  psp file is /scratch/users/j/a/jabreu/pseudos/PBEsol/O.psp8
- pspatm: opening atomic psp file    /scratch/users/j/a/jabreu/pseudos/PBEsol/O.psp8
- O     ONCVPSP-3.3.0  r_core=   1.35509   1.45563   1.26150
-  8.00000   6.00000    180112                znucl, zion, pspdat
    8 -116133    2    4       600   0.00000   pspcod,pspxc,lmax,lloc,mmax,r2well
    5.99000000000000    4.00000000000000    0.00000000000000   rchrg,fchrg,qchrg
     nproj     2     2     1
     extension_switch     1
  pspatm : epsatm=    6.22910522
         --- l  ekb(1:nproj) -->
             0    6.050032    0.820363
             1   -4.739617   -1.153841
             2   -1.335834
[...]
 ETOT 16  -232.07133888103      0.000E+00 9.972E-21 0.000E+00

 At SCF step   16   max residual=  9.97E-21 < tolwfr=  1.00E-20 =>converged.

 ----iterations are completed or convergence reached----

 dfpt_looppert: DFPT cycle converged with prtwf=-1. Will skip output of the 1st-order WFK file.
 dfpt_looppert : ek2=    2.9127054268E+02
          f-sum rule ratio=    1.1341910457E+00
 prteigrs : about to open file /scratch/users/j/a/jabreu/flow_simple_8atoms/flow/w385/t1/tmpdata/tmp_1WF1_EIG
 Expectation of eigenvalue derivatives (hartree) for nkpt=   2  k points:
  (in case of degenerate eigenvalues, averaged derivative)
 kpt#   1, nband= 53, wtk=  0.50000, kpt=  0.5000  0.0000  0.0000 (reduced coord)
  -0.00000   -0.00000   -0.00000    0.00000    0.00000    0.00000   -0.00000   -0.00000
  -0.00000    0.00000   -0.00000    0.00000   -0.00000    0.00000    0.00000    0.00000
  -0.00000    0.00000   -0.00000    0.00000    0.00000    0.00000   -0.00000    0.00000
  -0.00000    0.00000    0.00000    0.00000   -0.00000   -0.00000   -0.00000   -0.00000
  -0.00000   -0.00000   -0.00000    0.00000   -0.00000    0.00000    0.00000   -0.00000
  -0.00000   -0.00000    0.00000   -0.00000   -0.00000    0.00000    0.00000    0.00000
   0.00000    0.00000    0.00000   -0.00000   -0.02907
 prteigrs : prtvol=0 or 1, do not print more k-points.

 Eight components of 2nd-order total energy (hartree) are
 1,2,3: 0th-order hamiltonian combined with 1st-order wavefunctions
     kin0=   3.01600035E+02 eigvalue=  -1.58919992E+00  local=  -1.17052492E+02
 4,5,6: 1st-order hamiltonian combined with 1st and 0th-order wfs
     kin1=  -3.30356441E+02  Hartree=   0.00000000E+00     xc=   0.00000000E+00
 7,8,9: eventually, occupation + non-local contributions
    edocc=   3.60499779E+01     enl0=   1.30630175E+01   enl1=  -1.33786236E+02
 1-9 gives the relaxation energy (to be shifted if some occ is /=2.0)
   erelax=  -2.32071339E+02
  No Ewald or frozen-wf contrib.: the relaxation energy is the total one
 2DEtotal=   -0.2320713389E+03 Ha. Also 2DEtotal=   -0.631498228520E+04 eV
    (  non-var. 2DEtotal :   -2.3207133888E+02 Ha)

 Perturbation wavevector (in red.coord.)   0.000000  0.000000  0.000000
 Perturbation : derivative vs k along direction   2
 The set of symmetries contains only one element for this perturbation.
 symkpt : not enough symmetry to change the number of k points.

[...]

 Perturbation wavevector (in red.coord.)   0.000000  0.000000  0.000000
 Perturbation : derivative vs k along direction   3
 The set of symmetries contains only one element for this perturbation.
 symkpt : not enough symmetry to change the number of k points.

-inwffil : will read wavefunctions from disk file /scratch/users/j/a/jabreu/flow_simple_8atoms/flow/w385/t1/indata/in_WFK

 Initialisation of the first-order wave-functions :
  ireadwf=   0

--- !BeginCycle
iteration_state: {dtset: 1, }
solver: {iscf: 7, nstep: 2000, nline: 4, wfoptalg: 0, }
tolerances: {tolwfr: 1.00E-20, }
...

     iter   2DEtotal(Ha)        deltaE(Ha) residm    vres2
-ETOT  1  -9.5204082392847     -9.520E+00 5.852E-03 0.000E+00
 ETOT  2  -9.5292671606657     -8.859E-03 8.590E-05 0.000E+00
 ETOT  3  -9.5292952525460     -2.809E-05 5.676E-06 0.000E+00
 ETOT  4  -9.5292954743771     -2.218E-07 1.416E-07 0.000E+00
 ETOT  5  -9.5292954773926     -3.016E-09 1.034E-08 0.000E+00
 ETOT  6  -9.5292954774475     -5.487E-11 2.484E-10 0.000E+00
 ETOT  7  -9.5292954774487     -1.190E-12 2.062E-11 0.000E+00
 ETOT  8  -9.5292954774487     -3.197E-14 5.044E-13 0.000E+00
 ETOT  9  -9.5292954774487      1.776E-15 4.450E-14 0.000E+00
 ETOT 10  -9.5292954774487      1.776E-15 1.108E-15 0.000E+00
 ETOT 11  -9.5292954774487     -1.776E-15 1.006E-16 0.000E+00
 ETOT 12  -9.5292954774487      1.776E-15 2.529E-18 0.000E+00
 ETOT 13  -9.5292954774487      1.776E-15 2.331E-19 0.000E+00
 ETOT 14  -9.5292954774487     -3.553E-15 9.910E-21 0.000E+00

 At SCF step   14   max residual=  9.91E-21 < tolwfr=  1.00E-20 =>converged.

 ----iterations are completed or convergence reached----

 dfpt_looppert: DFPT cycle converged with prtwf=-1. Will skip output of the 1st-order WFK file.
 dfpt_looppert : ek2=    1.2766748513E+01
          f-sum rule ratio=    1.0188006799E+00
 prteigrs : about to open file /scratch/users/j/a/jabreu/flow_simple_8atoms/flow/w385/t1/tmpdata/tmp_1WF1_EIG
 Expectation of eigenvalue derivatives (hartree) for nkpt=   2  k points:
  (in case of degenerate eigenvalues, averaged derivative)
 kpt#   1, nband= 53, wtk=  0.50000, kpt=  0.5000  0.0000  0.0000 (reduced coord)
   0.00000    0.00000   -0.00000   -0.00000    0.00000    0.00000    0.00000    0.00000
  -0.00000   -0.00000   -0.00000    0.00000    0.00000    0.00000   -0.00000   -0.00000
   0.00000   -0.00000   -0.00000   -0.00000    0.00000   -0.00000   -0.00000    0.00000
  -0.00000   -0.00000   -0.00000   -0.00000    0.00000    0.00000    0.00000   -0.00000
  -0.00000   -0.00000    0.00000   -0.00000    0.00000   -0.00000   -0.00000   -0.00000
  -0.00000    0.00000   -0.00000   -0.00000   -0.00000   -0.00000    0.00000    0.00000
   0.00000   -0.00000    0.00000    0.00001   -0.00010
 prteigrs : prtvol=0 or 1, do not print more k-points.

 Eight components of 2nd-order total energy (hartree) are
 1,2,3: 0th-order hamiltonian combined with 1st-order wavefunctions
     kin0=   1.33020431E+01 eigvalue=  -8.86407073E-02  local=  -5.27207413E+00
 4,5,6: 1st-order hamiltonian combined with 1st and 0th-order wfs
     kin1=  -1.30067721E+01  Hartree=   0.00000000E+00     xc=   0.00000000E+00
 7,8,9: eventually, occupation + non-local contributions
    edocc=   1.08460585E+00     enl0=   5.03361377E-01   enl1=  -6.05181889E+00
 1-9 gives the relaxation energy (to be shifted if some occ is /=2.0)
   erelax=  -9.52929548E+00
  No Ewald or frozen-wf contrib.: the relaxation energy is the total one
 2DEtotal=   -0.9529295477E+01 Ha. Also 2DEtotal=   -0.259305317152E+03 eV
    (  non-var. 2DEtotal :   -9.5292954773E+00 Ha)

 CALCULATION OF EFFECTIVE MASSES
 NOTE : Additional infos (eff. mass eigenvalues, eigenvectors and, if degenerate, average mass) are available in stdout.

 K-point ( 0.500, 0.000, 0.000) | band =    44
 Effective mass tensor:
            -11.5078530870             18.8807193033             -0.0018105395
             18.8807193033            -33.3094768248              0.0020238917
             -0.0018105395              0.0020238917             -2.4737355770
 Effective mass tensor eigenvalues:
            -44.2102536180             -2.4737355733             -0.6070762975
 Angular average effective mass 1/(<1/m>)=  -1.4464066424
 Angular average effective mass for Frohlich model (<m**0.5>)**2=  -2.3259659811
 Effective masses along directions: (cart. coord. / red. coord. -> eff. mass)
    1:   1.000000  0.000000  0.000000 /   0.894427 -0.447214  0.000000 ->  -0.8057466202
    2:   0.000000  1.000000  0.000000 /   0.000000  1.000000  0.000000 ->  -2.3322334691
    3:   0.000000  0.000000  1.000000 /   0.000000  0.000000  1.000000 ->  -2.4737349079
    4:   0.577350  0.577350  0.577350 /   0.234114  0.085692  0.968425 ->  -0.8620508176
    5:   0.000000  0.707107  0.707107 /   0.000000  0.204916  0.978779 ->  -2.4018472637
    6:   0.707107  0.000000  0.707107 /   0.233373 -0.116687  0.965361 ->  -1.2160521003
    7:   0.707107  0.707107  0.000000 /   0.939071  0.343724  0.000000 ->  -0.6500217780

 K-point ( 0.000, 0.000, 0.000) | band =    45
 Effective mass tensor:
              0.4098443952             -0.0000003522              0.0000000832
             -0.0000003522              0.4098437649              0.0000000552
              0.0000000832              0.0000000552              0.2414130464
 Effective mass tensor eigenvalues:
              0.2414130464              0.4098436074              0.4098445527
 Angular average effective mass 1/(<1/m>)=   0.3325137691
 Angular average effective mass for Frohlich model (<m**0.5>)**2=   0.3392815812
 Effective masses along directions: (cart. coord. / red. coord. -> eff. mass)
    1:   1.000000  0.000000  0.000000 /   0.894427 -0.447214  0.000000 ->   0.4098443952
    2:   0.000000  1.000000  0.000000 /   0.000000  1.000000  0.000000 ->   0.4098437649
    3:   0.000000  0.000000  1.000000 /   0.000000  0.000000  1.000000 ->   0.2414130464
    4:   0.577350  0.577350  0.577350 /   0.234114  0.085692  0.968425 ->   0.3325137176
    5:   0.000000  0.707107  0.707107 /   0.000000  0.204916  0.978779 ->   0.3038483341
    6:   0.707107  0.000000  0.707107 /   0.233373 -0.116687  0.965361 ->   0.3038485335
    7:   0.707107  0.707107  0.000000 /   0.939071  0.343724  0.000000 ->   0.4098437278

 END OF EFFECTIVE MASSES SECTION

 ---- first-order wavefunction calculations are completed ----

 Total localisation tensor (bohr^2) in cartesian coordinates
  WARNING : still subject to testing - especially symmetries.
      direction              matrix element
   alpha     beta       real part   imaginary part
     1        1       1.6532211005    0.0000000000
     1        2      -0.5315605900    0.0000000000
     1        3       0.0000000000    0.0000000000
     2        1      -0.5315605900    0.0000000000
     2        2       0.9206899492    0.0000000000
     2        3       0.0000000000    0.0000000000
     3        1       0.0000000000    0.0000000000
     3        2       0.0000000000    0.0000000000
     3        3       0.6477491101    0.0000000000

 respfn : d/dk was computed, but no 2DTE, so no DDB output.

== END DATASET(S) ==============================================================

 -outvars: echo values of variables after computation  --------
            acell      1.0000000000E+00  1.0000000000E+00  1.0000000000E+00 Bohr
              amu      6.97230000E+01  1.07868200E+02  1.59994000E+01
             ecut      4.40000000E+01 Hartree
           etotal     -9.5292954774E+00
            fcart      0.0000000000E+00  0.0000000000E+00  0.0000000000E+00
                       0.0000000000E+00  0.0000000000E+00  0.0000000000E+00
                       0.0000000000E+00  0.0000000000E+00  0.0000000000E+00
                       0.0000000000E+00  0.0000000000E+00  0.0000000000E+00
                       0.0000000000E+00  0.0000000000E+00  0.0000000000E+00
                       0.0000000000E+00  0.0000000000E+00  0.0000000000E+00
                       0.0000000000E+00  0.0000000000E+00  0.0000000000E+00
                       0.0000000000E+00  0.0000000000E+00  0.0000000000E+00
-          fftalg         512
           irdden           1
           irdwfk           1
           istwfk        1    1
              ixc     -116133
              kpt      5.00000000E-01  0.00000000E+00  0.00000000E+00
                       0.00000000E+00  0.00000000E+00  0.00000000E+00
           kptopt           0
P           mkmem           2
P          mkqmem           2
P          mk1mem           2
            natom           8
            nband          53
           nbdbuf           4
            ngfft          36      36     144
             nkpt           2
            nstep        2000
             nsym          24
           ntypat           3
              occ      2.000000  2.000000  2.000000  2.000000  2.000000  2.000000
                       2.000000  2.000000  2.000000  2.000000  2.000000  2.000000
                       2.000000  2.000000  2.000000  2.000000  2.000000  2.000000
                       2.000000  2.000000  2.000000  2.000000  2.000000  2.000000
                       2.000000  2.000000  2.000000  2.000000  2.000000  2.000000
                       2.000000  2.000000  2.000000  2.000000  2.000000  2.000000
                       2.000000  2.000000  2.000000  2.000000  2.000000  2.000000
                       2.000000  2.000000  0.000000  0.000000  0.000000  0.000000
                       0.000000  0.000000  0.000000  0.000000  0.000000
        optdriver           1
            prtwf          -1
            rfdir           1       1       1
           rfelfd           2
            rprim      5.6397166932E+00  0.0000000000E+00  0.0000000000E+00
                      -2.8198583466E+00  4.8841379265E+00  0.0000000000E+00
                       0.0000000000E+00  0.0000000000E+00  2.3328996101E+01
          spgroup         194
           strten      0.0000000000E+00  0.0000000000E+00  0.0000000000E+00
                       0.0000000000E+00  0.0000000000E+00  0.0000000000E+00
           symrel      1  0  0   0  1  0   0  0  1      -1  0  0   0 -1  0   0  0 -1
                       0  1  0   1  0  0   0  0  1       0 -1  0  -1  0  0   0  0 -1
                       1  1  0  -1  0  0   0  0  1      -1 -1  0   1  0  0   0  0 -1
                      -1  0  0   1  1  0   0  0  1       1  0  0  -1 -1  0   0  0 -1
                       0  1  0  -1 -1  0   0  0  1       0 -1  0   1  1  0   0  0 -1
                      -1 -1  0   0  1  0   0  0  1       1  1  0   0 -1  0   0  0 -1
                      -1  0  0   0 -1  0   0  0  1       1  0  0   0  1  0   0  0 -1
                       0 -1  0  -1  0  0   0  0  1       0  1  0   1  0  0   0  0 -1
                      -1 -1  0   1  0  0   0  0  1       1  1  0  -1  0  0   0  0 -1
                       1  0  0  -1 -1  0   0  0  1      -1  0  0   1  1  0   0  0 -1
                       0 -1  0   1  1  0   0  0  1       0  1  0  -1 -1  0   0  0 -1
                       1  1  0   0 -1  0   0  0  1      -1 -1  0   0  1  0   0  0 -1
            tnons      0.0000000  0.0000000  0.0000000     0.0000000  0.0000000  0.0000000
                       0.0000000  0.0000000  0.5000000     0.0000000  0.0000000  0.5000000
                       0.0000000  0.0000000  0.5000000     0.0000000  0.0000000  0.5000000
                       0.0000000  0.0000000  0.0000000     0.0000000  0.0000000  0.0000000
                       0.0000000  0.0000000  0.0000000     0.0000000  0.0000000  0.0000000
                       0.0000000  0.0000000  0.5000000     0.0000000  0.0000000  0.5000000
                       0.0000000  0.0000000  0.5000000     0.0000000  0.0000000  0.5000000
                       0.0000000  0.0000000  0.0000000     0.0000000  0.0000000  0.0000000
                       0.0000000  0.0000000  0.0000000     0.0000000  0.0000000  0.0000000
                       0.0000000  0.0000000  0.5000000     0.0000000  0.0000000  0.5000000
                       0.0000000  0.0000000  0.5000000     0.0000000  0.0000000  0.5000000
                       0.0000000  0.0000000  0.0000000     0.0000000  0.0000000  0.0000000
           tolwfr      1.00000000E-20
            typat      1  1  2  2  3  3  3  3
           useylm           1
              wtk        0.50000    0.50000
           xangst      0.0000000000E+00  0.0000000000E+00  0.0000000000E+00
                       0.0000000000E+00  0.0000000000E+00  6.1725865180E+00
                       1.4922047685E+00  8.6152482477E-01  9.2588797770E+00
                       1.1750094422E-16  1.7230496495E+00  3.0862932590E+00
                       1.1750094422E-16  1.7230496495E+00  5.1671709356E+00
                       1.4922047685E+00  8.6152482477E-01  1.1339757454E+01
                       1.1750094422E-16  1.7230496495E+00  1.0054155824E+00
                       1.4922047685E+00  8.6152482477E-01  7.1780021004E+00
            xcart      0.0000000000E+00  0.0000000000E+00  0.0000000000E+00
                       0.0000000000E+00  0.0000000000E+00  1.1664498051E+01
                       2.8198583466E+00  1.6280459755E+00  1.7496747076E+01
                       2.2204460493E-16  3.2560919510E+00  5.8322490253E+00
                       2.2204460493E-16  3.2560919510E+00  9.7645379501E+00
                       2.8198583466E+00  1.6280459755E+00  2.1429036001E+01
                       2.2204460493E-16  3.2560919510E+00  1.8999601005E+00
                       2.8198583466E+00  1.6280459755E+00  1.3564458151E+01
             xred      0.0000000000E+00  0.0000000000E+00  0.0000000000E+00
                       0.0000000000E+00  0.0000000000E+00  5.0000000000E-01
                       6.6666666667E-01  3.3333333333E-01  7.5000000000E-01
                       3.3333333333E-01  6.6666666667E-01  2.5000000000E-01
                       3.3333333333E-01  6.6666666667E-01  4.1855800000E-01
                       6.6666666667E-01  3.3333333333E-01  9.1855800000E-01
                       3.3333333333E-01  6.6666666667E-01  8.1442000000E-02
                       6.6666666667E-01  3.3333333333E-01  5.8144200000E-01
            znucl       31.00000   47.00000    8.00000

- Timing analysis has been suppressed with timopt=0

 Suggested references for the acknowledgment of ABINIT usage.

 Calculation completed.
.Delivered  14 WARNINGs and   9 COMMENTs to log file.