.Version 9.5.1 of ABINIT

 ABINIT is a project of the Universite Catholique de Louvain,
 Corning Inc. and other collaborators, see ~abinit/doc/developers/contributors.txt .
 acknowledgments of the ABINIT effort.

.Starting date : Tue 27 Apr 2021.
- ( at 18h45 )

- input  file    -> /scratch/users/j/a/jabreu/flow_simple_4atoms/flow/w248/t1/run.abi
- output file    -> /scratch/users/j/a/jabreu/flow_simple_4atoms/flow/w248/t1/run.abo
- root for input  files -> /scratch/users/j/a/jabreu/flow_simple_4atoms/flow/w248/t1/indata/in
- root for output files -> /scratch/users/j/a/jabreu/flow_simple_4atoms/flow/w248/t1/outdata/out

 Symmetries : space group F-4 3 m (#216); Bravais cF (face-center cubic)
     intxc =       0      iscf =       7    lmnmax =      18     lnmax =       6
     mgfft =      54  mpssoang =       3    mqgrid =    3001     natom =       4
  nloc_mem =       1    nspden =       1   nspinor =       1    nsppol =       1
      nsym =      24    n1xccc =    2501    ntypat =       3    occopt =       1
   xclevel =       2
-    mband =          29        mffmem =           1         mkmem =           2
-   mkqmem =           2        mk1mem =           2           mpw =        6183
      nfft =      157464          nkpt =           2
  Rough estimation (10% accuracy) of disk space for files :

------------- Echo of variables that govern the present computation ------------
-
- outvars: echo of selected default values
-   iomode0 =  0 , fftalg0 =512 , wfoptalg0 =  0
-
- outvars: echo of global parameters not present in the input file
-  max_nthreads =    0
-
 -outvars: echo values of preprocessed input variables --------
            acell      1.0000000000E+00  1.0000000000E+00  1.0000000000E+00 Bohr
              amu      6.94100000E+00  6.35460000E+01  1.21753000E+02
             ecut      4.60000000E+01 Hartree
-          fftalg         512
           irdden           1
           irdwfk           1
           istwfk        1    1
              ixc     -116133
              kpt      0.00000000E+00  0.00000000E+00  0.00000000E+00
                       5.00000000E-01  0.00000000E+00  5.00000000E-01
           kptopt           0
P           mkmem           2
P          mkqmem           2
P          mk1mem           2
            natom           4
            nband          29
           nbdbuf           4
            ngfft          54      54      54
             nkpt           2
            nstep         100
             nsym          24
           ntypat           3
              occ      2.000000  2.000000  2.000000  2.000000  2.000000  2.000000
                       2.000000  2.000000  2.000000  2.000000  2.000000  2.000000
                       2.000000  2.000000  2.000000  2.000000  2.000000  2.000000
                       2.000000  2.000000  0.000000  0.000000  0.000000  0.000000
                       0.000000  0.000000  0.000000  0.000000  0.000000
        optdriver           1
            prtwf          -1
            rfdir           1       1       1
           rfelfd           2
            rprim      7.2272447183E+00  0.0000000000E+00  4.1726516836E+00
                       2.4090815728E+00  6.8139116661E+00  4.1726516836E+00
                       0.0000000000E+00  0.0000000000E+00  8.3453033672E+00
          spgroup         216
           symrel      1  0  0   0  1  0   0  0  1       0 -1  1   0 -1  0   1 -1  0
                      -1  0  0  -1  0  1  -1  1  0       0  1 -1   1  0 -1   0  0 -1
                      -1  0  0  -1  1  0  -1  0  1       0 -1  1   1 -1  0   0 -1  0
                       1  0  0   0  0  1   0  1  0       0  1 -1   0  0 -1   1  0 -1
                      -1  0  1  -1  1  0  -1  0  0       0 -1  0   1 -1  0   0 -1  1
                       1  0 -1   0  0 -1   0  1 -1       0  1  0   0  0  1   1  0  0
                       1  0 -1   0  1 -1   0  0 -1       0 -1  0   0 -1  1   1 -1  0
                      -1  0  1  -1  0  0  -1  1  0       0  1  0   1  0  0   0  0  1
                       0  0 -1   0  1 -1   1  0 -1       1 -1  0   0 -1  1   0 -1  0
                       0  0  1   1  0  0   0  1  0      -1  1  0  -1  0  0  -1  0  1
                       0  0  1   0  1  0   1  0  0       1 -1  0   0 -1  0   0 -1  1
                       0  0 -1   1  0 -1   0  1 -1      -1  1  0  -1  0  1  -1  0  0
           tolwfr      1.00000000E-20
            typat      1  1  2  3
           useylm           1
              wtk        0.50000    0.50000
           xangst      1.2748310619E+00  9.0144168876E-01  2.2080721703E+00
                       2.5496621239E+00  1.8028833775E+00  4.4161443407E+00
                       0.0000000000E+00  0.0000000000E+00  0.0000000000E+00
                       3.8244931858E+00  2.7043250663E+00  6.6242165110E+00
            xcart      2.4090815728E+00  1.7034779165E+00  4.1726516836E+00
                       4.8181631456E+00  3.4069558331E+00  8.3453033672E+00
                       0.0000000000E+00  0.0000000000E+00  0.0000000000E+00
                       7.2272447183E+00  5.1104337496E+00  1.2517955051E+01
             xred      2.5000000000E-01  2.5000000000E-01  2.5000000000E-01
                       5.0000000000E-01  5.0000000000E-01  5.0000000000E-01
                       0.0000000000E+00  0.0000000000E+00  0.0000000000E+00
                       7.5000000000E-01  7.5000000000E-01  7.5000000000E-01
            znucl        3.00000   29.00000   51.00000

 chkinp: Checking input parameters for consistency.

== DATASET  1 ==================================================================
-   mpi_nproc: 1, omp_nthreads: -1 (-1 if OMP is not activated)

--- !DatasetInfo
iteration_state: {dtset: 1, }
dimensions: {natom: 4, nkpt: 2, mband: 29, nsppol: 1, nspinor: 1, nspden: 1, mpw: 6183, }
cutoff_energies: {ecut:  46.0, pawecutdg:  -1.0, }
electrons: {nelect:   4.00000000E+01, charge:   0.00000000E+00, occopt:   1.00000000E+00, tsmear:   1.00000000E-02, }
meta: {optdriver: 1, rfelfd: 2, }
...

 Real(R)+Recip(G) space primitive vectors, cartesian coordinates (Bohr,Bohr^-1):
 R(1)=  7.2272447  0.0000000  4.1726517  G(1)=  0.1383653 -0.0489195  0.0000000
 R(2)=  2.4090816  6.8139117  4.1726517  G(2)=  0.0000000  0.1467586  0.0000000
 R(3)=  0.0000000  0.0000000  8.3453034  G(3)= -0.0691827 -0.0489195  0.1198279
 Unit cell volume ucvol=  4.1097120E+02 bohr^3
 Angles (23,13,12)=  6.00000000E+01  6.00000000E+01  6.00000000E+01 degrees

 getcut: wavevector=  0.0000  0.0000  0.0000  ngfft=  54  54  54
         ecut(hartree)=     46.000   => boxcut(ratio)=   2.12010

--- Pseudopotential description ------------------------------------------------
- pspini: atom type   1  psp file is /scratch/users/j/a/jabreu/pseudos/PBEsol/Li.psp8
- pspatm: opening atomic psp file    /scratch/users/j/a/jabreu/pseudos/PBEsol/Li.psp8
- Li    ONCVPSP-3.3.0  r_core=   1.40824   1.10935
-  3.00000   3.00000    180112                znucl, zion, pspdat
    8 -116133    1    4       400   0.00000   pspcod,pspxc,lmax,lloc,mmax,r2well
    3.99000000000000    0.00000000000000    0.00000000000000   rchrg,fchrg,qchrg
     nproj     2     2
     extension_switch     1
  pspatm : epsatm=    2.60859637
         --- l  ekb(1:nproj) -->
             0   -4.855856   -1.482423
             1   -2.171544   -0.427615
 pspatm: atomic psp has been read  and splines computed

- pspini: atom type   2  psp file is /scratch/users/j/a/jabreu/pseudos/PBEsol/Cu.psp8
- pspatm: opening atomic psp file    /scratch/users/j/a/jabreu/pseudos/PBEsol/Cu.psp8
- Cu    ONCVPSP-3.3.0  r_core=   1.26204   1.45626   1.76249
- 29.00000  19.00000    180112                znucl, zion, pspdat
    8 -116133    2    4       600   0.00000   pspcod,pspxc,lmax,lloc,mmax,r2well
    5.99000000000000    3.50000000000000    0.00000000000000   rchrg,fchrg,qchrg
     nproj     2     2     2
     extension_switch     1
  pspatm : epsatm=   21.63488701
         --- l  ekb(1:nproj) -->
             0    5.008230   -0.401634
             1   -3.496700   -0.765945
             2   -6.895851   -2.521180
 pspatm: atomic psp has been read  and splines computed

- pspini: atom type   3  psp file is /scratch/users/j/a/jabreu/pseudos/PBEsol/Sb.psp8
- pspatm: opening atomic psp file    /scratch/users/j/a/jabreu/pseudos/PBEsol/Sb.psp8
- Sb    ONCVPSP-3.3.0  r_core=   1.81962   2.12485   1.81962
- 51.00000  15.00000    180112                znucl, zion, pspdat
    8 -116133    2    4       600   0.00000   pspcod,pspxc,lmax,lloc,mmax,r2well
    5.99000000000000    5.00000000000000    0.00000000000000   rchrg,fchrg,qchrg
     nproj     2     2     2
     extension_switch     1
  pspatm : epsatm=   26.35641246
         --- l  ekb(1:nproj) -->
             0    9.727814    1.485032
             1    5.505335    0.704623
             2   -4.710637   -1.436443
 pspatm: atomic psp has been read  and splines computed

   2.12833969E+03                                ecore*ucvol(ha*bohr**3)

-inwffil : will read wavefunctions from disk file /scratch/users/j/a/jabreu/flow_simple_4atoms/flow/w248/t1/indata/in_WFK

 ==>  initialize data related to q vector <==

 The list of irreducible perturbations for this q vector is:
    1)    idir= 1    ipert=   5
    2)    idir= 2    ipert=   5
    3)    idir= 3    ipert=   5

 Perturbation wavevector (in red.coord.)   0.000000  0.000000  0.000000
 Perturbation : derivative vs k along direction   1

 dfpt_looppert : COMMENT -
  In a d/dk calculation, iscf is set to -3 automatically.
 The set of symmetries contains only one element for this perturbation.
 symkpt : not enough symmetry to change the number of k points.

[...]

 Initialisation of the first-order wave-functions :
  ireadwf=   0

--- !BeginCycle
iteration_state: {dtset: 1, }
solver: {iscf: 7, nstep: 100, nline: 4, wfoptalg: 0, }
tolerances: {tolwfr: 1.00E-20, }
...

     iter   2DEtotal(Ha)        deltaE(Ha) residm    vres2
-ETOT  1  -70.730582970531     -7.073E+01 5.453E-01 0.000E+00
 ETOT  2  -70.791493921589     -6.091E-02 1.282E-03 0.000E+00
 ETOT  3  -70.792173904198     -6.800E-04 1.315E-04 0.000E+00
 ETOT  4  -70.792189279390     -1.538E-05 1.924E-06 0.000E+00
 ETOT  5  -70.792189689896     -4.105E-07 4.539E-07 0.000E+00
 ETOT  6  -70.792189701826     -1.193E-08 7.875E-09 0.000E+00
 ETOT  7  -70.792189702193     -3.668E-10 2.435E-09 0.000E+00
 ETOT  8  -70.792189702205     -1.185E-11 4.265E-11 0.000E+00
 ETOT  9  -70.792189702206     -4.832E-13 1.330E-11 0.000E+00
 ETOT 10  -70.792189702206      8.527E-14 2.343E-13 0.000E+00
 ETOT 11  -70.792189702206     -2.842E-14 7.314E-14 0.000E+00
 ETOT 12  -70.792189702206     -2.842E-14 1.295E-15 0.000E+00
 ETOT 13  -70.792189702206      1.421E-14 4.043E-16 0.000E+00
 ETOT 14  -70.792189702206      0.000E+00 7.185E-18 0.000E+00
 ETOT 15  -70.792189702206     -1.421E-14 2.244E-18 0.000E+00
 ETOT 16  -70.792189702206      2.842E-14 4.004E-20 0.000E+00
 ETOT 17  -70.792189702206      0.000E+00 1.250E-20 0.000E+00
 ETOT 18  -70.792189702206     -1.421E-14 9.976E-21 0.000E+00

 At SCF step   18   max residual=  9.98E-21 < tolwfr=  1.00E-20 =>converged.

 ----iterations are completed or convergence reached----

 dfpt_looppert: DFPT cycle converged with prtwf=-1. Will skip output of the 1st-order WFK file.
 dfpt_looppert : ek2=    6.8023147819E+01
          f-sum rule ratio=    1.5366481338E+00
 prteigrs : about to open file /scratch/users/j/a/jabreu/flow_simple_4atoms/flow/w248/t1/tmpdata/tmp_1WF1_EIG
 Expectation of eigenvalue derivatives (hartree) for nkpt=   2  k points:
  (in case of degenerate eigenvalues, averaged derivative)
 kpt#   1, nband= 29, wtk=  0.50000, kpt=  0.0000  0.0000  0.0000 (reduced coord)
   0.00000   -0.00000   -0.00000   -0.00000   -0.00000    0.00000    0.00000    0.00000
   0.00000    0.00000    0.00000   -0.00000   -0.00000   -0.00000   -0.00000   -0.00000
  -0.00000    0.00000    0.00000    0.00000   -0.00000    0.00000    0.00000    0.00000
   0.00000    0.00000    0.00000   -0.00000    0.00000
 prteigrs : prtvol=0 or 1, do not print more k-points.

 Eight components of 2nd-order total energy (hartree) are
 1,2,3: 0th-order hamiltonian combined with 1st-order wavefunctions
     kin0=   6.25390475E+01 eigvalue=   5.18860375E+00  local=  -2.88576837E+01
 4,5,6: 1st-order hamiltonian combined with 1st and 0th-order wfs
     kin1=  -1.04527643E+02  Hartree=   0.00000000E+00     xc=   0.00000000E+00
 7,8,9: eventually, occupation + non-local contributions
    edocc=   2.77908457E+01     enl0=   4.13137649E+00   enl1=  -3.70567362E+01
 1-9 gives the relaxation energy (to be shifted if some occ is /=2.0)
   erelax=  -7.07921897E+01
  No Ewald or frozen-wf contrib.: the relaxation energy is the total one
 2DEtotal=   -0.7079218970E+02 Ha. Also 2DEtotal=   -0.192635344828E+04 eV
    (  non-var. 2DEtotal :   -7.0792189702E+01 Ha)

 Perturbation wavevector (in red.coord.)   0.000000  0.000000  0.000000
 Perturbation : derivative vs k along direction   2
 The set of symmetries contains only one element for this perturbation.
 symkpt : not enough symmetry to change the number of k points.

[...]

 Perturbation wavevector (in red.coord.)   0.000000  0.000000  0.000000
 Perturbation : derivative vs k along direction   3
 The set of symmetries contains only one element for this perturbation.
 symkpt : not enough symmetry to change the number of k points.

-inwffil : will read wavefunctions from disk file /scratch/users/j/a/jabreu/flow_simple_4atoms/flow/w248/t1/indata/in_WFK

 Initialisation of the first-order wave-functions :
  ireadwf=   0

--- !BeginCycle
iteration_state: {dtset: 1, }
solver: {iscf: 7, nstep: 100, nline: 4, wfoptalg: 0, }
tolerances: {tolwfr: 1.00E-20, }
...

     iter   2DEtotal(Ha)        deltaE(Ha) residm    vres2
-ETOT  1  -70.730821109480     -7.073E+01 5.453E-01 0.000E+00
 ETOT  2  -70.791488931863     -6.067E-02 1.282E-03 0.000E+00
 ETOT  3  -70.792177541088     -6.886E-04 1.315E-04 0.000E+00
 ETOT  4  -70.792193846393     -1.631E-05 1.924E-06 0.000E+00
 ETOT  5  -70.792194317267     -4.709E-07 4.539E-07 0.000E+00
 ETOT  6  -70.792194332248     -1.498E-08 7.875E-09 0.000E+00
 ETOT  7  -70.792194332750     -5.016E-10 2.435E-09 0.000E+00
 ETOT  8  -70.792194332767     -1.732E-11 4.265E-11 0.000E+00
 ETOT  9  -70.792194332768     -5.116E-13 1.330E-11 0.000E+00
 ETOT 10  -70.792194332768     -9.948E-14 2.343E-13 0.000E+00
 ETOT 11  -70.792194332768      1.137E-13 7.313E-14 0.000E+00
 ETOT 12  -70.792194332768     -1.421E-14 1.295E-15 0.000E+00
 ETOT 13  -70.792194332768     -1.421E-14 4.043E-16 0.000E+00
 ETOT 14  -70.792194332768     -2.842E-14 7.185E-18 0.000E+00
 ETOT 15  -70.792194332768      0.000E+00 2.244E-18 0.000E+00
 ETOT 16  -70.792194332768      0.000E+00 4.004E-20 0.000E+00
 ETOT 17  -70.792194332768      1.421E-14 1.251E-20 0.000E+00
 ETOT 18  -70.792194332768      0.000E+00 9.972E-21 0.000E+00

 At SCF step   18   max residual=  9.97E-21 < tolwfr=  1.00E-20 =>converged.

 ----iterations are completed or convergence reached----

 dfpt_looppert: DFPT cycle converged with prtwf=-1. Will skip output of the 1st-order WFK file.
 dfpt_looppert : ek2=    6.8023147819E+01
          f-sum rule ratio=    1.5366482084E+00
 prteigrs : about to open file /scratch/users/j/a/jabreu/flow_simple_4atoms/flow/w248/t1/tmpdata/tmp_1WF1_EIG
 Expectation of eigenvalue derivatives (hartree) for nkpt=   2  k points:
  (in case of degenerate eigenvalues, averaged derivative)
 kpt#   1, nband= 29, wtk=  0.50000, kpt=  0.0000  0.0000  0.0000 (reduced coord)
  -0.00000    0.00000    0.00000    0.00000    0.00000    0.00000    0.00000    0.00000
   0.00000    0.00000    0.00000   -0.00000    0.00000    0.00000    0.00000    0.00000
   0.00000   -0.00000   -0.00000   -0.00000    0.00000   -0.00000   -0.00000   -0.00000
  -0.00000   -0.00000   -0.00000   -0.00000    0.00000
 prteigrs : prtvol=0 or 1, do not print more k-points.

 Eight components of 2nd-order total energy (hartree) are
 1,2,3: 0th-order hamiltonian combined with 1st-order wavefunctions
     kin0=   6.25390426E+01 eigvalue=   5.18860291E+00  local=  -2.88576805E+01
 4,5,6: 1st-order hamiltonian combined with 1st and 0th-order wfs
     kin1=  -1.04527648E+02  Hartree=   0.00000000E+00     xc=   0.00000000E+00
 7,8,9: eventually, occupation + non-local contributions
    edocc=   2.77908536E+01     enl0=   4.13137564E+00   enl1=  -3.70567404E+01
 1-9 gives the relaxation energy (to be shifted if some occ is /=2.0)
   erelax=  -7.07921943E+01
  No Ewald or frozen-wf contrib.: the relaxation energy is the total one
 2DEtotal=   -0.7079219433E+02 Ha. Also 2DEtotal=   -0.192635357428E+04 eV
    (  non-var. 2DEtotal :   -7.0792194333E+01 Ha)

 CALCULATION OF EFFECTIVE MASSES
 NOTE : Additional infos (eff. mass eigenvalues, eigenvectors and, if degenerate, average mass) are available in stdout.

 COMMENTS:
 - At k-point ( 0.000, 0.000, 0.000), bands    18 through    20
   are DEGENERATE (effective mass tensor is therefore not defined).
   See Section IIIB Eqs. (67)-(70) and Appendix E of PRB 93 205147 (2016).
 - Angular average effective mass for Frohlich model is to be averaged over degenerate bands. See later.
 - Associated theta integrals calculated with ntheta=   1000 points.

 K-point ( 0.000, 0.000, 0.000) | band =    18
 Transport equivalent effective mass tensor:
             -0.0798915734              0.0000000014             -0.0000000044
              0.0000000014             -0.0798915734              0.0000000070
             -0.0000000044              0.0000000070             -0.0798915726
 Transport equivalent effective mass tensor eigenvalues:
             -0.0798915820             -0.0798915721             -0.0798915652
 Angular average effective mass 1/(<1/m>)=  -0.0649717997
 Angular average effective mass for Frohlich model (<m**0.5>)**2=  -0.0658071269
 Effective masses along directions: (cart. coord. / red. coord. -> eff. mass)
    1:   1.000000  0.000000  0.000000 /   0.948683  0.316228  0.000000 ->  -0.0599627774
    2:   0.000000  1.000000  0.000000 /   0.000000  1.000000  0.000000 ->  -0.0551312516
    3:   0.000000  0.000000  1.000000 /   0.408248  0.408248  0.816497 ->  -0.0621269268
    4:   0.577350  0.577350  0.577350 /   0.585539  0.688047  0.428644 ->  -0.0600867310
    5:   0.000000  0.707107  0.707107 /   0.289489  0.762222  0.578977 ->  -0.0694553517
    6:   0.707107  0.000000  0.707107 /   0.731423  0.422287  0.535439 ->  -0.0609766027
    7:   0.707107  0.707107  0.000000 /   0.616798  0.787122  0.000000 ->  -0.0880755674

[...]

 K-point ( 0.000, 0.000, 0.000) | band =    20
 Transport equivalent effective mass tensor:
            -24.3219915643              0.0000171403             -0.0000006331
              0.0000171403            -24.3219845002              0.0000010095
             -0.0000006331              0.0000010095            -24.3219561171
 Transport equivalent effective mass tensor eigenvalues:
            -24.3220055585            -24.3219705420            -24.3219560812
 Angular average effective mass 1/(<1/m>)=  -0.5049332540
 Angular average effective mass for Frohlich model (<m**0.5>)**2=  -0.7218112911
 Effective masses along directions: (cart. coord. / red. coord. -> eff. mass)
    1:   1.000000  0.000000  0.000000 /   0.948683  0.316228  0.000000 ->  -0.5765994142
    2:   0.000000  1.000000  0.000000 /   0.000000  1.000000  0.000000 ->  -0.4319208603
    3:   0.000000  0.000000  1.000000 /   0.408248  0.408248  0.816497 ->  -3.6658705710
    4:   0.577350  0.577350  0.577350 /   0.585539  0.688047  0.428644 ->  -0.7318116537
    5:   0.000000  0.707107  0.707107 /   0.289489  0.762222  0.578977 ->  -0.4648438267
    6:   0.707107  0.000000  0.707107 /   0.731423  0.422287  0.535439 ->  -1.1740844526
    7:   0.707107  0.707107  0.000000 /   0.616798  0.787122  0.000000 ->  -0.1926709885

 Angular average effective mass for Frohlich model, averaged over degenerate bands.
 Value of     (<<m**0.5>>)**2 =     2.646956E-01
 Absolute Value of <<m**0.5>> =     5.144857E-01

 K-point ( 0.500, 0.000, 0.500) | band =    21
 Effective mass tensor:
              0.4988592780             -0.1949942993              0.2388182681
             -0.1949942993              0.6367410695             -0.3377400336
              0.2388182681             -0.3377400336              0.7746228609
 Effective mass tensor eigenvalues:
              0.3609774867              0.3609774868              1.1882682348
 Angular average effective mass 1/(<1/m>)=   0.4700667334
 Angular average effective mass for Frohlich model (<m**0.5>)**2=   0.5051278224
 Effective masses along directions: (cart. coord. / red. coord. -> eff. mass)
    1:   1.000000  0.000000  0.000000 /   0.948683  0.316228  0.000000 ->   0.4083621638
    2:   0.000000  1.000000  0.000000 /   0.000000  1.000000  0.000000 ->   0.4700667334
    3:   0.000000  0.000000  1.000000 /   0.408248  0.408248  0.816497 ->   0.5537379579
    4:   0.577350  0.577350  0.577350 /   0.585539  0.688047  0.428644 ->   0.3869715241
    5:   0.000000  0.707107  0.707107 /   0.289489  0.762222  0.578977 ->   0.3631056505
    6:   0.707107  0.000000  0.707107 /   0.731423  0.422287  0.535439 ->   0.6367029098
    7:   0.707107  0.707107  0.000000 /   0.616798  0.787122  0.000000 ->   0.3646068960

 END OF EFFECTIVE MASSES SECTION

 ---- first-order wavefunction calculations are completed ----

 Total localisation tensor (bohr^2) in cartesian coordinates
  WARNING : still subject to testing - especially symmetries.
      direction              matrix element
   alpha     beta       real part   imaginary part
     1        1       8.2707719106    0.0000000000
     1        2       2.3393276067    0.0000000000
     1        3       5.7301588852    0.0000000000
     2        1       2.3393276067    0.0000000000
     2        2       6.6166176563    0.0000000000
     2        3       4.0518342703    0.0000000000
     3        1       5.7301588852    0.0000000000
     3        2       4.0518342703    0.0000000000
     3        3      14.8873895545    0.0000000000

 respfn : d/dk was computed, but no 2DTE, so no DDB output.

== END DATASET(S) ==============================================================

 -outvars: echo values of variables after computation  --------
            acell      1.0000000000E+00  1.0000000000E+00  1.0000000000E+00 Bohr
              amu      6.94100000E+00  6.35460000E+01  1.21753000E+02
             ecut      4.60000000E+01 Hartree
           etotal     -7.0792194333E+01
            fcart      0.0000000000E+00  0.0000000000E+00  0.0000000000E+00
                       0.0000000000E+00  0.0000000000E+00  0.0000000000E+00
                       0.0000000000E+00  0.0000000000E+00  0.0000000000E+00
                       0.0000000000E+00  0.0000000000E+00  0.0000000000E+00
-          fftalg         512
           irdden           1
           irdwfk           1
           istwfk        1    1
              ixc     -116133
              kpt      0.00000000E+00  0.00000000E+00  0.00000000E+00
                       5.00000000E-01  0.00000000E+00  5.00000000E-01
           kptopt           0
P           mkmem           2
P          mkqmem           2
P          mk1mem           2
            natom           4
            nband          29
           nbdbuf           4
            ngfft          54      54      54
             nkpt           2
            nstep         100
             nsym          24
           ntypat           3
              occ      2.000000  2.000000  2.000000  2.000000  2.000000  2.000000
                       2.000000  2.000000  2.000000  2.000000  2.000000  2.000000
                       2.000000  2.000000  2.000000  2.000000  2.000000  2.000000
                       2.000000  2.000000  0.000000  0.000000  0.000000  0.000000
                       0.000000  0.000000  0.000000  0.000000  0.000000
        optdriver           1
            prtwf          -1
            rfdir           1       1       1
           rfelfd           2
            rprim      7.2272447183E+00  0.0000000000E+00  4.1726516836E+00
                       2.4090815728E+00  6.8139116661E+00  4.1726516836E+00
                       0.0000000000E+00  0.0000000000E+00  8.3453033672E+00
          spgroup         216
           strten      0.0000000000E+00  0.0000000000E+00  0.0000000000E+00
                       0.0000000000E+00  0.0000000000E+00  0.0000000000E+00
           symrel      1  0  0   0  1  0   0  0  1       0 -1  1   0 -1  0   1 -1  0
                      -1  0  0  -1  0  1  -1  1  0       0  1 -1   1  0 -1   0  0 -1
                      -1  0  0  -1  1  0  -1  0  1       0 -1  1   1 -1  0   0 -1  0
                       1  0  0   0  0  1   0  1  0       0  1 -1   0  0 -1   1  0 -1
                      -1  0  1  -1  1  0  -1  0  0       0 -1  0   1 -1  0   0 -1  1
                       1  0 -1   0  0 -1   0  1 -1       0  1  0   0  0  1   1  0  0
                       1  0 -1   0  1 -1   0  0 -1       0 -1  0   0 -1  1   1 -1  0
                      -1  0  1  -1  0  0  -1  1  0       0  1  0   1  0  0   0  0  1
                       0  0 -1   0  1 -1   1  0 -1       1 -1  0   0 -1  1   0 -1  0
                       0  0  1   1  0  0   0  1  0      -1  1  0  -1  0  0  -1  0  1
                       0  0  1   0  1  0   1  0  0       1 -1  0   0 -1  0   0 -1  1
                       0  0 -1   1  0 -1   0  1 -1      -1  1  0  -1  0  1  -1  0  0
           tolwfr      1.00000000E-20
            typat      1  1  2  3
           useylm           1
              wtk        0.50000    0.50000
           xangst      1.2748310619E+00  9.0144168876E-01  2.2080721703E+00
                       2.5496621239E+00  1.8028833775E+00  4.4161443407E+00
                       0.0000000000E+00  0.0000000000E+00  0.0000000000E+00
                       3.8244931858E+00  2.7043250663E+00  6.6242165110E+00
            xcart      2.4090815728E+00  1.7034779165E+00  4.1726516836E+00
                       4.8181631456E+00  3.4069558331E+00  8.3453033672E+00
                       0.0000000000E+00  0.0000000000E+00  0.0000000000E+00
                       7.2272447183E+00  5.1104337496E+00  1.2517955051E+01
             xred      2.5000000000E-01  2.5000000000E-01  2.5000000000E-01
                       5.0000000000E-01  5.0000000000E-01  5.0000000000E-01
                       0.0000000000E+00  0.0000000000E+00  0.0000000000E+00
                       7.5000000000E-01  7.5000000000E-01  7.5000000000E-01
            znucl        3.00000   29.00000   51.00000

- Timing analysis has been suppressed with timopt=0

 Suggested references for the acknowledgment of ABINIT usage.

 Calculation completed.
.Delivered  14 WARNINGs and   9 COMMENTs to log file.