.Version 9.5.1 of ABINIT

 ABINIT is a project of the Universite Catholique de Louvain,
 Corning Inc. and other collaborators, see ~abinit/doc/developers/contributors.txt .
 acknowledgments of the ABINIT effort.

.Starting date : Wed 19 May 2021.
- ( at 03h15 )

- input  file    -> /scratch/users/j/a/jabreu/flow_simple_8atoms/flow/w491/t1/run.abi
- output file    -> /scratch/users/j/a/jabreu/flow_simple_8atoms/flow/w491/t1/run.abo
- root for input  files -> /scratch/users/j/a/jabreu/flow_simple_8atoms/flow/w491/t1/indata/in
- root for output files -> /scratch/users/j/a/jabreu/flow_simple_8atoms/flow/w491/t1/outdata/out

 Symmetries : space group P6_3/m m c (#194); Bravais hP (primitive hexag.)
     intxc =       0      iscf =       7    lmnmax =      18     lnmax =       6
     mgfft =     120  mpssoang =       3    mqgrid =    5886     natom =       8
  nloc_mem =       1    nspden =       1   nspinor =       1    nsppol =       1
      nsym =      24    n1xccc =    2501    ntypat =       2    occopt =       1
   xclevel =       2
-    mband =          51        mffmem =           1         mkmem =           2
-   mkqmem =           2        mk1mem =           2           mpw =       29351
      nfft =      622080          nkpt =           2
  Rough estimation (10% accuracy) of disk space for files :

------------- Echo of variables that govern the present computation ------------
-
- outvars: echo of selected default values
-   iomode0 =  0 , fftalg0 =512 , wfoptalg0 =  0
-
- outvars: echo of global parameters not present in the input file
-  max_nthreads =    0
-
 -outvars: echo values of preprocessed input variables --------
            acell      1.0000000000E+00  1.0000000000E+00  1.0000000000E+00 Bohr
              amu      3.90983000E+01  1.21753000E+02
             ecut      4.20000000E+01 Hartree
-          fftalg         512
           irdden           1
           irdwfk           1
           istwfk        0    1
              ixc     -116133
              kpt      4.21052632E-01 -2.77555756E-17  0.00000000E+00
                       0.00000000E+00  0.00000000E+00  0.00000000E+00
           kptopt           0
P           mkmem           2
P          mkqmem           2
P          mk1mem           2
            natom           8
            nband          51
           nbdbuf           4
            ngfft          72      72     120
             nkpt           2
            nstep        2000
             nsym          24
           ntypat           2
              occ      2.000000  2.000000  2.000000  2.000000  2.000000  2.000000
                       2.000000  2.000000  2.000000  2.000000  2.000000  2.000000
                       2.000000  2.000000  2.000000  2.000000  2.000000  2.000000
                       2.000000  2.000000  2.000000  2.000000  2.000000  2.000000
                       2.000000  2.000000  2.000000  2.000000  2.000000  2.000000
                       2.000000  2.000000  2.000000  2.000000  2.000000  2.000000
                       2.000000  2.000000  2.000000  2.000000  2.000000  2.000000
                       0.000000  0.000000  0.000000  0.000000  0.000000  0.000000
                       0.000000  0.000000  0.000000
        optdriver           1
            prtwf          -1
            rfdir           1       1       1
           rfelfd           2
            rprim      1.1366198064E+01  0.0000000000E+00  0.0000000000E+00
                      -5.6830990319E+00  9.8434162677E+00  0.0000000000E+00
                       0.0000000000E+00  0.0000000000E+00  2.0172584231E+01
          spgroup         194
           symrel      1  0  0   0  1  0   0  0  1      -1  0  0   0 -1  0   0  0 -1
                       0  1  0   1  0  0   0  0  1       0 -1  0  -1  0  0   0  0 -1
                       1  1  0  -1  0  0   0  0  1      -1 -1  0   1  0  0   0  0 -1
                      -1  0  0   1  1  0   0  0  1       1  0  0  -1 -1  0   0  0 -1
                       0  1  0  -1 -1  0   0  0  1       0 -1  0   1  1  0   0  0 -1
                      -1 -1  0   0  1  0   0  0  1       1  1  0   0 -1  0   0  0 -1
                      -1  0  0   0 -1  0   0  0  1       1  0  0   0  1  0   0  0 -1
                       0 -1  0  -1  0  0   0  0  1       0  1  0   1  0  0   0  0 -1
                      -1 -1  0   1  0  0   0  0  1       1  1  0  -1  0  0   0  0 -1
                       1  0  0  -1 -1  0   0  0  1      -1  0  0   1  1  0   0  0 -1
                       0 -1  0   1  1  0   0  0  1       0  1  0  -1 -1  0   0  0 -1
                       1  1  0   0 -1  0   0  0  1      -1 -1  0   0  1  0   0  0 -1
            tnons      0.0000000  0.0000000  0.0000000    -0.0000000 -0.0000000  0.0000000
                       0.0000000  0.0000000  0.5000000    -0.0000000 -0.0000000  0.5000000
                       0.0000000  0.0000000  0.5000000    -0.0000000 -0.0000000  0.5000000
                      -0.0000000  0.0000000  0.0000000     0.0000000 -0.0000000  0.0000000
                      -0.0000000  0.0000000  0.0000000     0.0000000 -0.0000000  0.0000000
                      -0.0000000 -0.0000000  0.5000000     0.0000000  0.0000000  0.5000000
                      -0.0000000 -0.0000000  0.5000000     0.0000000  0.0000000  0.5000000
                      -0.0000000 -0.0000000  0.0000000     0.0000000  0.0000000  0.0000000
                      -0.0000000 -0.0000000  0.0000000     0.0000000  0.0000000  0.0000000
                       0.0000000 -0.0000000  0.5000000    -0.0000000  0.0000000  0.5000000
                       0.0000000 -0.0000000  0.5000000    -0.0000000  0.0000000  0.5000000
                       0.0000000  0.0000000  0.0000000    -0.0000000 -0.0000000  0.0000000
           tolwfr      1.00000000E-20
            typat      1  1  1  1  1  1  2  2
           useylm           1
              wtk        0.50000    0.50000
           xangst      1.7639241746E-11  3.4726076957E+00  9.8029696334E+00
                       3.0073664819E+00  1.7363038478E+00  4.4655337267E+00
                      -4.4517966822E-16 -1.9276845096E-16  2.6687179533E+00
                      -4.4517966822E-16 -1.9276845096E-16  8.0061538600E+00
                       1.7639241746E-11  3.4726076957E+00  6.2093380866E+00
                       3.0073664819E+00  1.7363038478E+00  8.7190217997E-01
                       3.0073664819E+00  1.7363038478E+00  8.0061538600E+00
                       1.7639241746E-11  3.4726076957E+00  2.6687179533E+00
            xcart      3.3333336091E-11  6.5622775118E+00  1.8524927896E+01
                       5.6830990320E+00  3.2811387559E+00  8.4386357806E+00
                      -8.4126765287E-16 -3.6427957938E-16  5.0431460577E+00
                      -8.4126765287E-16 -3.6427957938E-16  1.5129438173E+01
                       3.3333336091E-11  6.5622775118E+00  1.1733948450E+01
                       5.6830990320E+00  3.2811387559E+00  1.6476563348E+00
                       5.6830990320E+00  3.2811387559E+00  1.5129438173E+01
                       3.3333336091E-11  6.5622775118E+00  5.0431460577E+00
             xred      3.3333333333E-01  6.6666666667E-01  9.1832200000E-01
                       6.6666666667E-01  3.3333333333E-01  4.1832200000E-01
                      -9.2518585385E-17 -3.7007434154E-17  2.5000000000E-01
                      -9.2518585385E-17 -3.7007434154E-17  7.5000000000E-01
                       3.3333333333E-01  6.6666666667E-01  5.8167800000E-01
                       6.6666666667E-01  3.3333333333E-01  8.1678000000E-02
                       6.6666666667E-01  3.3333333333E-01  7.5000000000E-01
                       3.3333333333E-01  6.6666666667E-01  2.5000000000E-01
            znucl       19.00000   51.00000

 chkinp: Checking input parameters for consistency.

== DATASET  1 ==================================================================
-   mpi_nproc: 1, omp_nthreads: -1 (-1 if OMP is not activated)

--- !DatasetInfo
iteration_state: {dtset: 1, }
dimensions: {natom: 8, nkpt: 2, mband: 51, nsppol: 1, nspinor: 1, nspden: 1, mpw: 29351, }
cutoff_energies: {ecut:  42.0, pawecutdg:  -1.0, }
electrons: {nelect:   8.40000000E+01, charge:   0.00000000E+00, occopt:   1.00000000E+00, tsmear:   1.00000000E-02, }
meta: {optdriver: 1, rfelfd: 2, }
...

 Real(R)+Recip(G) space primitive vectors, cartesian coordinates (Bohr,Bohr^-1):
 R(1)= 11.3661981  0.0000000  0.0000000  G(1)=  0.0879802  0.0507954  0.0000000
 R(2)= -5.6830990  9.8434163  0.0000000  G(2)=  0.0000000  0.1015907  0.0000000
 R(3)=  0.0000000  0.0000000 20.1725842  G(3)=  0.0000000  0.0000000  0.0495722
 Unit cell volume ucvol=  2.2569535E+03 bohr^3
 Angles (23,13,12)=  9.00000000E+01  9.00000000E+01  1.20000000E+02 degrees

 getcut: wavevector=  0.0000  0.0000  0.0000  ngfft=  72  72 120
         ecut(hartree)=     42.000   => boxcut(ratio)=   2.03906

--- Pseudopotential description ------------------------------------------------
- pspini: atom type   1  psp file is /scratch/users/j/a/jabreu/pseudos/PBEsol/K.psp8
- pspatm: opening atomic psp file    /scratch/users/j/a/jabreu/pseudos/PBEsol/K.psp8
- K     ONCVPSP-3.3.0  r_core=   1.36296   1.46408   1.61068
- 19.00000   9.00000    180112                znucl, zion, pspdat
    8 -116133    2    4       400   0.00000   pspcod,pspxc,lmax,lloc,mmax,r2well
    3.99000000000000    5.00000000000000    0.00000000000000   rchrg,fchrg,qchrg
     nproj     2     2     2
     extension_switch     1
  pspatm : epsatm=    8.32487830
         --- l  ekb(1:nproj) -->
             0   10.921326    0.816676
             1    4.431000    0.560368
             2   -3.384038   -1.043186
 pspatm: atomic psp has been read  and splines computed

- pspini: atom type   2  psp file is /scratch/users/j/a/jabreu/pseudos/PBEsol/Sb.psp8
- pspatm: opening atomic psp file    /scratch/users/j/a/jabreu/pseudos/PBEsol/Sb.psp8
- Sb    ONCVPSP-3.3.0  r_core=   1.81962   2.12485   1.81962
- 51.00000  15.00000    180112                znucl, zion, pspdat
    8 -116133    2    4       600   0.00000   pspcod,pspxc,lmax,lloc,mmax,r2well
    5.99000000000000    5.00000000000000    0.00000000000000   rchrg,fchrg,qchrg
     nproj     2     2     2
     extension_switch     1
  pspatm : epsatm=   26.35641246
         --- l  ekb(1:nproj) -->
             0    9.727814    1.485032
             1    5.505335    0.704623
             2   -4.710637   -1.436443
 pspatm: atomic psp has been read  and splines computed

   8.62361596E+03                                ecore*ucvol(ha*bohr**3)

-inwffil : will read wavefunctions from disk file /scratch/users/j/a/jabreu/flow_simple_8atoms/flow/w491/t1/indata/in_WFK

 ==>  initialize data related to q vector <==

 The list of irreducible perturbations for this q vector is:
    1)    idir= 1    ipert=   9
    2)    idir= 2    ipert=   9
    3)    idir= 3    ipert=   9

 Perturbation wavevector (in red.coord.)   0.000000  0.000000  0.000000
 Perturbation : derivative vs k along direction   1

 dfpt_looppert : COMMENT -
  In a d/dk calculation, iscf is set to -3 automatically.
 The set of symmetries contains only one element for this perturbation.
[...]
 4,5,6: 1st-order hamiltonian combined with 1st and 0th-order wfs
     kin1=  -7.41339200E+01  Hartree=   0.00000000E+00     xc=   0.00000000E+00
 7,8,9: eventually, occupation + non-local contributions
    edocc=   8.61379832E+00     enl0=   7.07108275E+00   enl1=  -2.44520197E+01
 1-9 gives the relaxation energy (to be shifted if some occ is /=2.0)
   erelax=  -4.92929698E+01
  No Ewald or frozen-wf contrib.: the relaxation energy is the total one
 2DEtotal=   -0.4929296984E+02 Ha. Also 2DEtotal=   -0.134132992393E+04 eV
    (  non-var. 2DEtotal :   -4.9292969840E+01 Ha)

 Perturbation wavevector (in red.coord.)   0.000000  0.000000  0.000000
 Perturbation : derivative vs k along direction   2
 The set of symmetries contains only one element for this perturbation.
 symkpt : not enough symmetry to change the number of k points.

[...]

 Perturbation wavevector (in red.coord.)   0.000000  0.000000  0.000000
 Perturbation : derivative vs k along direction   3
 The set of symmetries contains only one element for this perturbation.
 symkpt : not enough symmetry to change the number of k points.

-inwffil : will read wavefunctions from disk file /scratch/users/j/a/jabreu/flow_simple_8atoms/flow/w491/t1/indata/in_WFK

 Initialisation of the first-order wave-functions :
  ireadwf=   0

--- !BeginCycle
iteration_state: {dtset: 1, }
solver: {iscf: 7, nstep: 2000, nline: 4, wfoptalg: 0, }
tolerances: {tolwfr: 1.00E-20, }
...

     iter   2DEtotal(Ha)        deltaE(Ha) residm    vres2
-ETOT  1  -11.824634252157     -1.182E+01 8.583E-02 0.000E+00
 ETOT  2  -11.852682480964     -2.805E-02 1.374E-02 0.000E+00
 ETOT  3  -11.853470091734     -7.876E-04 4.342E-03 0.000E+00
 ETOT  4  -11.853515187126     -4.510E-05 2.797E-04 0.000E+00
 ETOT  5  -11.853518353923     -3.167E-06 1.245E-04 0.000E+00
 ETOT  6  -11.853518593021     -2.391E-07 9.216E-06 0.000E+00
 ETOT  7  -11.853518612003     -1.898E-08 4.274E-06 0.000E+00
 ETOT  8  -11.853518613536     -1.533E-09 3.293E-07 0.000E+00
 ETOT  9  -11.853518613662     -1.257E-10 1.523E-07 0.000E+00
 ETOT 10  -11.853518613672     -1.041E-11 1.217E-08 0.000E+00
 ETOT 11  -11.853518613673     -8.242E-13 5.525E-09 0.000E+00
 ETOT 12  -11.853518613673     -1.119E-13 5.839E-10 0.000E+00
 ETOT 13  -11.853518613673     -3.553E-15 4.052E-10 0.000E+00
 ETOT 14  -11.853518613673      0.000E+00 9.631E-11 0.000E+00
 ETOT 15  -11.853518613673     -2.842E-14 6.777E-11 0.000E+00
 ETOT 16  -11.853518613673      2.132E-14 1.602E-11 0.000E+00
 ETOT 17  -11.853518613673      8.882E-15 1.136E-11 0.000E+00
 ETOT 18  -11.853518613673      1.421E-14 2.670E-12 0.000E+00
 ETOT 19  -11.853518613673      1.776E-15 1.906E-12 0.000E+00
 ETOT 20  -11.853518613673      0.000E+00 4.457E-13 0.000E+00
 ETOT 21  -11.853518613673      1.776E-15 3.202E-13 0.000E+00
 ETOT 22  -11.853518613673     -1.776E-15 7.451E-14 0.000E+00
 ETOT 23  -11.853518613673      0.000E+00 5.386E-14 0.000E+00
 ETOT 24  -11.853518613673      0.000E+00 1.247E-14 0.000E+00
 ETOT 25  -11.853518613673      0.000E+00 9.064E-15 0.000E+00
 ETOT 26  -11.853518613673      0.000E+00 2.088E-15 0.000E+00
 ETOT 27  -11.853518613673      1.776E-15 1.527E-15 0.000E+00
 ETOT 28  -11.853518613673     -1.776E-15 3.501E-16 0.000E+00
 ETOT 29  -11.853518613673      0.000E+00 2.573E-16 0.000E+00
 ETOT 30  -11.853518613673      1.776E-15 5.872E-17 0.000E+00
 ETOT 31  -11.853518613673      0.000E+00 4.337E-17 0.000E+00
 ETOT 32  -11.853518613673      0.000E+00 9.855E-18 0.000E+00
 ETOT 33  -11.853518613673     -1.776E-15 7.316E-18 0.000E+00
 ETOT 34  -11.853518613673      0.000E+00 1.655E-18 0.000E+00
 ETOT 35  -11.853518613673      0.000E+00 1.234E-18 0.000E+00
 ETOT 36  -11.853518613673      0.000E+00 2.780E-19 0.000E+00
 ETOT 37  -11.853518613673      1.776E-15 2.084E-19 0.000E+00
 ETOT 38  -11.853518613673     -1.776E-15 4.673E-20 0.000E+00
 ETOT 39  -11.853518613673      0.000E+00 3.518E-20 0.000E+00
 ETOT 40  -11.853518613673      0.000E+00 9.744E-21 0.000E+00

 At SCF step   40   max residual=  9.74E-21 < tolwfr=  1.00E-20 =>converged.

 ----iterations are completed or convergence reached----

 dfpt_looppert: DFPT cycle converged with prtwf=-1. Will skip output of the 1st-order WFK file.
 dfpt_looppert : ek2=    1.6298436447E+01
          f-sum rule ratio=    1.0961939522E+00
 prteigrs : about to open file /scratch/users/j/a/jabreu/flow_simple_8atoms/flow/w491/t1/tmpdata/tmp_1WF1_EIG
 Expectation of eigenvalue derivatives (hartree) for nkpt=   2  k points:
  (in case of degenerate eigenvalues, averaged derivative)
 kpt#   1, nband= 51, wtk=  0.50000, kpt=  0.4211  0.0000  0.0000 (reduced coord)
  -0.00000    0.00000   -0.00000   -0.00000   -0.00000    0.00000    0.00000    0.00000
   0.00000    0.00000    0.00000   -0.00000    0.00000    0.00000   -0.00000   -0.00000
   0.00000   -0.00000   -0.00000   -0.00000    0.00000   -0.00000    0.00000    0.00000
  -0.00000    0.00000   -0.00000   -0.00000   -0.00000   -0.00000   -0.00000   -0.00000
  -0.00000   -0.00000   -0.00000    0.00000    0.00000   -0.00000    0.00000   -0.00000
   0.00000    0.00000   -0.00000   -0.00000   -0.00000   -0.00000   -0.00000   -0.00000
  -0.00000    0.00001    0.00006
 prteigrs : prtvol=0 or 1, do not print more k-points.

 Eight components of 2nd-order total energy (hartree) are
 1,2,3: 0th-order hamiltonian combined with 1st-order wavefunctions
     kin0=   1.63631426E+01 eigvalue=   2.56565312E+00  local=  -1.07719173E+01
 4,5,6: 1st-order hamiltonian combined with 1st and 0th-order wfs
     kin1=  -1.78662475E+01  Hartree=   0.00000000E+00     xc=   0.00000000E+00
 7,8,9: eventually, occupation + non-local contributions
    edocc=   1.93183501E+00     enl0=   1.76480523E+00   enl1=  -5.84078976E+00
 1-9 gives the relaxation energy (to be shifted if some occ is /=2.0)
   erelax=  -1.18535186E+01
  No Ewald or frozen-wf contrib.: the relaxation energy is the total one
 2DEtotal=   -0.1185351861E+02 Ha. Also 2DEtotal=   -0.322550645088E+03 eV
    (  non-var. 2DEtotal :   -1.1853518613E+01 Ha)

 CALCULATION OF EFFECTIVE MASSES
 NOTE : Additional infos (eff. mass eigenvalues, eigenvectors and, if degenerate, average mass) are available in stdout.

 K-point ( 0.421,-0.000, 0.000) | band =    42
 Effective mass tensor:
            -11.3004529144             -6.2687849634              0.0084735377
             -6.2687849634             -4.0618190897              0.0048919130
              0.0084735377              0.0048919130            -21.9788062441
 Effective mass tensor eigenvalues:
            -21.9788198056            -14.9197079260             -0.4425505166
 Angular average effective mass 1/(<1/m>)=  -1.2646739959
 Angular average effective mass for Frohlich model (<m**0.5>)**2=  -2.9231385360
 Effective masses along directions: (cart. coord. / red. coord. -> eff. mass)
    1:   1.000000  0.000000  0.000000 /   0.894427 -0.447214  0.000000 ->  -1.6255599151
    2:   0.000000  1.000000  0.000000 /   0.000000  1.000000  0.000000 ->  -0.5842890089
    3:   0.000000  0.000000  1.000000 /   0.000000  0.000000  1.000000 -> -21.9787998277
    4:   0.577350  0.577350  0.577350 /   0.483151  0.176846  0.857491 ->  -6.3372948704
    5:   0.000000  0.707107  0.707107 /   0.000000  0.438536  0.898713 ->  -1.1382974625
    6:   0.707107  0.000000  0.707107 /   0.476738 -0.238369  0.846109 ->  -3.0269882808
    7:   0.707107  0.707107  0.000000 /   0.939071  0.343724  0.000000 ->  -4.6749920583

 K-point ( 0.000, 0.000, 0.000) | band =    43
 Effective mass tensor:
              0.1246816483              0.0000000000              0.0000000000
              0.0000000000              0.1246816483              0.0000000000
              0.0000000000              0.0000000000              0.0895896209
 Effective mass tensor eigenvalues:
              0.0895896209              0.1246816483              0.1246816483
 Angular average effective mass 1/(<1/m>)=   0.1102825204
 Angular average effective mass for Frohlich model (<m**0.5>)**2=   0.1111313385
 Effective masses along directions: (cart. coord. / red. coord. -> eff. mass)
    1:   1.000000  0.000000  0.000000 /   0.894427 -0.447214  0.000000 ->   0.1246816483
    2:   0.000000  1.000000  0.000000 /   0.000000  1.000000  0.000000 ->   0.1246816483
    3:   0.000000  0.000000  1.000000 /   0.000000  0.000000  1.000000 ->   0.0895896209
    4:   0.577350  0.577350  0.577350 /   0.483151  0.176846  0.857491 ->   0.1102825204
    5:   0.000000  0.707107  0.707107 /   0.000000  0.438536  0.898713 ->   0.1042620566
    6:   0.707107  0.000000  0.707107 /   0.476738 -0.238369  0.846109 ->   0.1042620566
    7:   0.707107  0.707107  0.000000 /   0.939071  0.343724  0.000000 ->   0.1246816483

 END OF EFFECTIVE MASSES SECTION

 ---- first-order wavefunction calculations are completed ----

 Total localisation tensor (bohr^2) in cartesian coordinates
  WARNING : still subject to testing - especially symmetries.
      direction              matrix element
   alpha     beta       real part   imaginary part
     1        1       5.2512419184    0.0000000000
     1        2      -1.9047648823    0.0000000000
     1        3       0.0000000000    0.0000000000
     2        1      -1.9047648823    0.0000000000
     2        2       3.2991495527    0.0000000000
     2        3       0.0000000000    0.0000000000
     3        1       0.0000000000    0.0000000000
     3        2       0.0000000000    0.0000000000
     3        3       4.4276161958    0.0000000000

 respfn : d/dk was computed, but no 2DTE, so no DDB output.

== END DATASET(S) ==============================================================

 -outvars: echo values of variables after computation  --------
            acell      1.0000000000E+00  1.0000000000E+00  1.0000000000E+00 Bohr
              amu      3.90983000E+01  1.21753000E+02
             ecut      4.20000000E+01 Hartree
           etotal     -1.1853518614E+01
            fcart      0.0000000000E+00  0.0000000000E+00  0.0000000000E+00
                       0.0000000000E+00  0.0000000000E+00  0.0000000000E+00
                       0.0000000000E+00  0.0000000000E+00  0.0000000000E+00
                       0.0000000000E+00  0.0000000000E+00  0.0000000000E+00
                       0.0000000000E+00  0.0000000000E+00  0.0000000000E+00
                       0.0000000000E+00  0.0000000000E+00  0.0000000000E+00
                       0.0000000000E+00  0.0000000000E+00  0.0000000000E+00
                       0.0000000000E+00  0.0000000000E+00  0.0000000000E+00
-          fftalg         512
           irdden           1
           irdwfk           1
           istwfk        0    1
              ixc     -116133
              kpt      4.21052632E-01 -2.77555756E-17  0.00000000E+00
                       0.00000000E+00  0.00000000E+00  0.00000000E+00
           kptopt           0
P           mkmem           2
P          mkqmem           2
P          mk1mem           2
            natom           8
            nband          51
           nbdbuf           4
            ngfft          72      72     120
             nkpt           2
            nstep        2000
             nsym          24
           ntypat           2
              occ      2.000000  2.000000  2.000000  2.000000  2.000000  2.000000
                       2.000000  2.000000  2.000000  2.000000  2.000000  2.000000
                       2.000000  2.000000  2.000000  2.000000  2.000000  2.000000
                       2.000000  2.000000  2.000000  2.000000  2.000000  2.000000
                       2.000000  2.000000  2.000000  2.000000  2.000000  2.000000
                       2.000000  2.000000  2.000000  2.000000  2.000000  2.000000
                       2.000000  2.000000  2.000000  2.000000  2.000000  2.000000
                       0.000000  0.000000  0.000000  0.000000  0.000000  0.000000
                       0.000000  0.000000  0.000000
        optdriver           1
            prtwf          -1
            rfdir           1       1       1
           rfelfd           2
            rprim      1.1366198064E+01  0.0000000000E+00  0.0000000000E+00
                      -5.6830990319E+00  9.8434162677E+00  0.0000000000E+00
                       0.0000000000E+00  0.0000000000E+00  2.0172584231E+01
          spgroup         194
           strten      0.0000000000E+00  0.0000000000E+00  0.0000000000E+00
                       0.0000000000E+00  0.0000000000E+00  0.0000000000E+00
           symrel      1  0  0   0  1  0   0  0  1      -1  0  0   0 -1  0   0  0 -1
                       0  1  0   1  0  0   0  0  1       0 -1  0  -1  0  0   0  0 -1
                       1  1  0  -1  0  0   0  0  1      -1 -1  0   1  0  0   0  0 -1
                      -1  0  0   1  1  0   0  0  1       1  0  0  -1 -1  0   0  0 -1
                       0  1  0  -1 -1  0   0  0  1       0 -1  0   1  1  0   0  0 -1
                      -1 -1  0   0  1  0   0  0  1       1  1  0   0 -1  0   0  0 -1
                      -1  0  0   0 -1  0   0  0  1       1  0  0   0  1  0   0  0 -1
                       0 -1  0  -1  0  0   0  0  1       0  1  0   1  0  0   0  0 -1
                      -1 -1  0   1  0  0   0  0  1       1  1  0  -1  0  0   0  0 -1
                       1  0  0  -1 -1  0   0  0  1      -1  0  0   1  1  0   0  0 -1
                       0 -1  0   1  1  0   0  0  1       0  1  0  -1 -1  0   0  0 -1
                       1  1  0   0 -1  0   0  0  1      -1 -1  0   0  1  0   0  0 -1
            tnons      0.0000000  0.0000000  0.0000000    -0.0000000 -0.0000000  0.0000000
                       0.0000000  0.0000000  0.5000000    -0.0000000 -0.0000000  0.5000000
                       0.0000000  0.0000000  0.5000000    -0.0000000 -0.0000000  0.5000000
                      -0.0000000  0.0000000  0.0000000     0.0000000 -0.0000000  0.0000000
                      -0.0000000  0.0000000  0.0000000     0.0000000 -0.0000000  0.0000000
                      -0.0000000 -0.0000000  0.5000000     0.0000000  0.0000000  0.5000000
                      -0.0000000 -0.0000000  0.5000000     0.0000000  0.0000000  0.5000000
                      -0.0000000 -0.0000000  0.0000000     0.0000000  0.0000000  0.0000000
                      -0.0000000 -0.0000000  0.0000000     0.0000000  0.0000000  0.0000000
                       0.0000000 -0.0000000  0.5000000    -0.0000000  0.0000000  0.5000000
                       0.0000000 -0.0000000  0.5000000    -0.0000000  0.0000000  0.5000000
                       0.0000000  0.0000000  0.0000000    -0.0000000 -0.0000000  0.0000000
           tolwfr      1.00000000E-20
            typat      1  1  1  1  1  1  2  2
           useylm           1
              wtk        0.50000    0.50000
           xangst      1.7639241746E-11  3.4726076957E+00  9.8029696334E+00
                       3.0073664819E+00  1.7363038478E+00  4.4655337267E+00
                      -4.4517966822E-16 -1.9276845096E-16  2.6687179533E+00
                      -4.4517966822E-16 -1.9276845096E-16  8.0061538600E+00
                       1.7639241746E-11  3.4726076957E+00  6.2093380866E+00
                       3.0073664819E+00  1.7363038478E+00  8.7190217997E-01
                       3.0073664819E+00  1.7363038478E+00  8.0061538600E+00
                       1.7639241746E-11  3.4726076957E+00  2.6687179533E+00
            xcart      3.3333336091E-11  6.5622775118E+00  1.8524927896E+01
                       5.6830990320E+00  3.2811387559E+00  8.4386357806E+00
                      -8.4126765287E-16 -3.6427957938E-16  5.0431460577E+00
                      -8.4126765287E-16 -3.6427957938E-16  1.5129438173E+01
                       3.3333336091E-11  6.5622775118E+00  1.1733948450E+01
                       5.6830990320E+00  3.2811387559E+00  1.6476563348E+00
                       5.6830990320E+00  3.2811387559E+00  1.5129438173E+01
                       3.3333336091E-11  6.5622775118E+00  5.0431460577E+00
             xred      3.3333333333E-01  6.6666666667E-01  9.1832200000E-01
                       6.6666666667E-01  3.3333333333E-01  4.1832200000E-01
                      -9.2518585385E-17 -3.7007434154E-17  2.5000000000E-01
                      -9.2518585385E-17 -3.7007434154E-17  7.5000000000E-01
                       3.3333333333E-01  6.6666666667E-01  5.8167800000E-01
                       6.6666666667E-01  3.3333333333E-01  8.1678000000E-02
                       6.6666666667E-01  3.3333333333E-01  7.5000000000E-01
                       3.3333333333E-01  6.6666666667E-01  2.5000000000E-01
            znucl       19.00000   51.00000

- Timing analysis has been suppressed with timopt=0

 Suggested references for the acknowledgment of ABINIT usage.

 Calculation completed.
.Delivered  14 WARNINGs and  11 COMMENTs to log file.