.Version 9.5.1 of ABINIT

 ABINIT is a project of the Universite Catholique de Louvain,
 Corning Inc. and other collaborators, see ~abinit/doc/developers/contributors.txt .
 acknowledgments of the ABINIT effort.

.Starting date : Tue 11 May 2021.
- ( at 21h38 )

- input  file    -> /scratch/users/j/a/jabreu/flow_simple_8atoms/flow/w337/t1/run.abi
- output file    -> /scratch/users/j/a/jabreu/flow_simple_8atoms/flow/w337/t1/run.abo
- root for input  files -> /scratch/users/j/a/jabreu/flow_simple_8atoms/flow/w337/t1/indata/in
- root for output files -> /scratch/users/j/a/jabreu/flow_simple_8atoms/flow/w337/t1/outdata/out

 Symmetries : space group R-3 (#148); Bravais hR (rhombohedral)
     intxc =       0      iscf =       7    lmnmax =      18     lnmax =       6
     mgfft =      64  mpssoang =       3    mqgrid =    3001     natom =       8
  nloc_mem =       1    nspden =       1   nspinor =       1    nsppol =       1
      nsym =       6    n1xccc =    2501    ntypat =       3    occopt =       1
   xclevel =       2
-    mband =          47        mffmem =           1         mkmem =           1
-   mkqmem =           1        mk1mem =           1           mpw =        9601
      nfft =      262144          nkpt =           1
  Rough estimation (10% accuracy) of disk space for files :

------------- Echo of variables that govern the present computation ------------
-
- outvars: echo of selected default values
-   iomode0 =  0 , fftalg0 =512 , wfoptalg0 =  0
-
- outvars: echo of global parameters not present in the input file
-  max_nthreads =    0
-
 -outvars: echo values of preprocessed input variables --------
            acell      1.0000000000E+00  1.0000000000E+00  1.0000000000E+00 Bohr
              amu      6.53900000E+01  1.18710000E+02  1.89984032E+01
             ecut      4.20000000E+01 Hartree
-          fftalg         512
           irdden           1
           irdwfk           1
           istwfk        1
              ixc     -116133
           kptopt           0
P           mkmem           1
P          mkqmem           1
P          mk1mem           1
            natom           8
            nband          47
           nbdbuf           4
            ngfft          64      64      64
             nkpt           1
            nstep        2000
             nsym           6
           ntypat           3
              occ      2.000000  2.000000  2.000000  2.000000  2.000000  2.000000
                       2.000000  2.000000  2.000000  2.000000  2.000000  2.000000
                       2.000000  2.000000  2.000000  2.000000  2.000000  2.000000
                       2.000000  2.000000  2.000000  2.000000  2.000000  2.000000
                       2.000000  2.000000  2.000000  2.000000  2.000000  2.000000
                       2.000000  2.000000  2.000000  2.000000  2.000000  2.000000
                       2.000000  2.000000  0.000000  0.000000  0.000000  0.000000
                       0.000000  0.000000  0.000000  0.000000  0.000000
        optdriver           1
            prtwf          -1
            rfdir           1       1       1
           rfelfd           2
            rprim      8.6933090890E+00  0.0000000000E+00  5.7850404463E+00
                       3.0991732603E+00  8.1221147505E+00  5.7850404463E+00
                       0.0000000000E+00  0.0000000000E+00  1.0442237111E+01
          spgroup         148
           symrel      1  0  0   0  1  0   0  0  1      -1  0  0   0 -1  0   0  0 -1
                       0  0  1   1  0  0   0  1  0       0  0 -1  -1  0  0   0 -1  0
                       0  1  0   0  0  1   1  0  0       0 -1  0   0  0 -1  -1  0  0
           tolwfr      1.00000000E-20
            typat      1  2  3  3  3  3  3  3
           useylm           1
           xangst      3.1201564460E+00  2.1490190058E+00  5.8242084979E+00
                       0.0000000000E+00  0.0000000000E+00  0.0000000000E+00
                       4.0646586427E+00  1.5876006846E+00  4.1315993076E+00
                       1.8150853982E+00  3.2316088201E+00  4.7301382733E+00
                       4.3335817157E+00  3.7542846266E+00  5.9756093019E+00
                       4.4252274937E+00  1.0664291914E+00  6.9182787224E+00
                       2.1756542492E+00  2.7104373269E+00  7.5168176882E+00
                       1.9067311763E+00  5.4375338491E-01  5.6728076939E+00
            xcart      5.8962411746E+00  4.0610573752E+00  1.1006159002E+01
                       0.0000000000E+00  0.0000000000E+00  0.0000000000E+00
                       7.6810916584E+00  3.0001305023E+00  7.8075911821E+00
                       3.4300143104E+00  6.1068556386E+00  8.9386659073E+00
                       8.1892826171E+00  7.0945697692E+00  1.1292265058E+01
                       8.3624680389E+00  2.0152591119E+00  1.3073652096E+01
                       4.1113906909E+00  5.1219842482E+00  1.4204726821E+01
                       3.6031997322E+00  1.0275449813E+00  1.0720052946E+01
             xred      5.0000000000E-01  5.0000000000E-01  5.0000000000E-01
                       0.0000000000E+00  0.0000000000E+00  0.0000000000E+00
                       7.5188000000E-01  3.6937800000E-01  1.2651200000E-01
                       1.2651200000E-01  7.5188000000E-01  3.6937800000E-01
                       6.3062200000E-01  8.7348800000E-01  2.4812000000E-01
                       8.7348800000E-01  2.4812000000E-01  6.3062200000E-01
                       2.4812000000E-01  6.3062200000E-01  8.7348800000E-01
                       3.6937800000E-01  1.2651200000E-01  7.5188000000E-01
            znucl       30.00000   50.00000    9.00000

 chkinp: Checking input parameters for consistency.

== DATASET  1 ==================================================================
-   mpi_nproc: 1, omp_nthreads: -1 (-1 if OMP is not activated)

--- !DatasetInfo
iteration_state: {dtset: 1, }
dimensions: {natom: 8, nkpt: 1, mband: 47, nsppol: 1, nspinor: 1, nspden: 1, mpw: 9601, }
cutoff_energies: {ecut:  42.0, pawecutdg:  -1.0, }
electrons: {nelect:   7.60000000E+01, charge:   0.00000000E+00, occopt:   1.00000000E+00, tsmear:   1.00000000E-02, }
meta: {optdriver: 1, rfelfd: 2, }
...

 Real(R)+Recip(G) space primitive vectors, cartesian coordinates (Bohr,Bohr^-1):
 R(1)=  8.6933091  0.0000000  5.7850404  G(1)=  0.1150310 -0.0438926  0.0000000
 R(2)=  3.0991733  8.1221148  5.7850404  G(2)=  0.0000000  0.1231206  0.0000000
 R(3)=  0.0000000  0.0000000 10.4422371  G(3)= -0.0637276 -0.0438926  0.0957649
 Unit cell volume ucvol=  7.3730604E+02 bohr^3
 Angles (23,13,12)=  5.63578644E+01  5.63578644E+01  5.63578643E+01 degrees

 getcut: wavevector=  0.0000  0.0000  0.0000  ngfft=  64  64  64
         ecut(hartree)=     42.000   => boxcut(ratio)=   2.10102

--- Pseudopotential description ------------------------------------------------
- pspini: atom type   1  psp file is /scratch/users/j/a/jabreu/pseudos/PBEsol/Zn.psp8
- pspatm: opening atomic psp file    /scratch/users/j/a/jabreu/pseudos/PBEsol/Zn.psp8
- Zn    ONCVPSP-3.3.0  r_core=   1.35823   1.66358   1.85211
- 30.00000  20.00000    180112                znucl, zion, pspdat
    8 -116133    2    4       600   0.00000   pspcod,pspxc,lmax,lloc,mmax,r2well
    5.99000000000000    2.50000000000000    0.00000000000000   rchrg,fchrg,qchrg
     nproj     2     2     2
     extension_switch     1
  pspatm : epsatm=   26.57343589
         --- l  ekb(1:nproj) -->
             0    2.830835   -1.519107
             1   -4.626739   -1.324150
             2   -6.948510   -2.555500
 pspatm: atomic psp has been read  and splines computed

- pspini: atom type   2  psp file is /scratch/users/j/a/jabreu/pseudos/PBEsol/Sn.psp8
- pspatm: opening atomic psp file    /scratch/users/j/a/jabreu/pseudos/PBEsol/Sn.psp8
- Sn    ONCVPSP-3.3.0  r_core=   2.27326   2.62311   1.85601
- 50.00000  14.00000    180112                znucl, zion, pspdat
    8 -116133    2    4       600   0.00000   pspcod,pspxc,lmax,lloc,mmax,r2well
    5.99000000000000    6.50000000000000    0.00000000000000   rchrg,fchrg,qchrg
     nproj     2     2     2
     extension_switch     1
  pspatm : epsatm=   32.44586081
         --- l  ekb(1:nproj) -->
             0    5.587869    0.749373
             1    4.197111    0.728791
             2   -5.271877   -1.523486
 pspatm: atomic psp has been read  and splines computed

- pspini: atom type   3  psp file is /scratch/users/j/a/jabreu/pseudos/PBEsol/F.psp8
- pspatm: opening atomic psp file    /scratch/users/j/a/jabreu/pseudos/PBEsol/F.psp8
- F     ONCVPSP-3.3.0  r_core=   1.30942   1.45782   1.60379
-  9.00000   7.00000    180112                znucl, zion, pspdat
    8 -116133    2    4       600   0.00000   pspcod,pspxc,lmax,lloc,mmax,r2well
    5.99000000000000    2.50000000000000    0.00000000000000   rchrg,fchrg,qchrg
     nproj     2     2     1
     extension_switch     1
  pspatm : epsatm=    4.89824824
         --- l  ekb(1:nproj) -->
             0    6.506434    1.065875
             1   -3.978753   -1.295852
             2   -2.394754
 pspatm: atomic psp has been read  and splines computed

   6.71906775E+03                                ecore*ucvol(ha*bohr**3)

-inwffil : will read wavefunctions from disk file /scratch/users/j/a/jabreu/flow_simple_8atoms/flow/w337/t1/indata/in_WFK

 ==>  initialize data related to q vector <==

 The list of irreducible perturbations for this q vector is:
    1)    idir= 1    ipert=   9
    2)    idir= 2    ipert=   9
    3)    idir= 3    ipert=   9

 Perturbation wavevector (in red.coord.)   0.000000  0.000000  0.000000
 Perturbation : derivative vs k along direction   1

 dfpt_looppert : COMMENT -
  In a d/dk calculation, iscf is set to -3 automatically.
 The set of symmetries contains only one element for this perturbation.
 symkpt : not enough symmetry to change the number of k points.

[...]

 Initialisation of the first-order wave-functions :
  ireadwf=   0

--- !BeginCycle
iteration_state: {dtset: 1, }
solver: {iscf: 7, nstep: 2000, nline: 4, wfoptalg: 0, }
tolerances: {tolwfr: 1.00E-20, }
...

     iter   2DEtotal(Ha)        deltaE(Ha) residm    vres2
-ETOT  1  -62.478454427219     -6.248E+01 1.880E-01 0.000E+00
 ETOT  2  -62.546614596743     -6.816E-02 1.045E-03 0.000E+00
 ETOT  3  -62.546871850277     -2.573E-04 3.489E-05 0.000E+00
 ETOT  4  -62.546873523471     -1.673E-06 1.026E-06 0.000E+00
 ETOT  5  -62.546873538134     -1.466E-08 5.296E-08 0.000E+00
 ETOT  6  -62.546873538279     -1.451E-10 1.657E-09 0.000E+00
 ETOT  7  -62.546873538281     -1.599E-12 1.307E-10 0.000E+00
 ETOT  8  -62.546873538281     -4.263E-14 5.166E-12 0.000E+00
 ETOT  9  -62.546873538281      8.527E-14 3.379E-13 0.000E+00
 ETOT 10  -62.546873538281     -3.553E-14 2.007E-14 0.000E+00
 ETOT 11  -62.546873538281     -1.421E-14 9.791E-16 0.000E+00
 ETOT 12  -62.546873538281      0.000E+00 8.188E-17 0.000E+00
 ETOT 13  -62.546873538281      2.132E-14 2.929E-18 0.000E+00
 ETOT 14  -62.546873538281     -1.421E-14 3.416E-19 0.000E+00
 ETOT 15  -62.546873538281      0.000E+00 9.569E-21 0.000E+00

 At SCF step   15   max residual=  9.57E-21 < tolwfr=  1.00E-20 =>converged.

 ----iterations are completed or convergence reached----

 dfpt_looppert: DFPT cycle converged with prtwf=-1. Will skip output of the 1st-order WFK file.
 dfpt_looppert : ek2=    9.0963064421E+01
          f-sum rule ratio=    1.0365983208E+00
 prteigrs : about to open file /scratch/users/j/a/jabreu/flow_simple_8atoms/flow/w337/t1/tmpdata/tmp_1WF1_EIG
 Expectation of eigenvalue derivatives (hartree) for nkpt=   1  k points:
  (in case of degenerate eigenvalues, averaged derivative)
 kpt#   1, nband= 47, wtk=  1.00000, kpt=  0.0000  0.0000  0.0000 (reduced coord)
   0.00000    0.00000    0.00000   -0.00000    0.00000    0.00000   -0.00000   -0.00000
  -0.00000   -0.00000    0.00000    0.00000   -0.00000    0.00000    0.00000   -0.00000
  -0.00000   -0.00000    0.00000   -0.00000   -0.00000    0.00000   -0.00000   -0.00000
  -0.00000    0.00000   -0.00000   -0.00000    0.00000   -0.00000   -0.00000    0.00000
   0.00000    0.00000    0.00000    0.00000    0.00000    0.00000   -0.00000    0.00000
   0.00000    0.00000    0.00000   -0.00000    0.00000    0.00035   -0.00059

 Eight components of 2nd-order total energy (hartree) are
 1,2,3: 0th-order hamiltonian combined with 1st-order wavefunctions
     kin0=   8.08619154E+01 eigvalue=   5.90964373E+00  local=  -3.32390511E+01
 4,5,6: 1st-order hamiltonian combined with 1st and 0th-order wfs
     kin1=  -9.42921598E+01  Hartree=   0.00000000E+00     xc=   0.00000000E+00
 7,8,9: eventually, occupation + non-local contributions
    edocc=   7.45636157E+00     enl0=   1.55800400E+00   enl1=  -3.08015872E+01
 1-9 gives the relaxation energy (to be shifted if some occ is /=2.0)
   erelax=  -6.25468735E+01
  No Ewald or frozen-wf contrib.: the relaxation energy is the total one
 2DEtotal=   -0.6254687354E+02 Ha. Also 2DEtotal=   -0.170198698509E+04 eV
    (  non-var. 2DEtotal :   -6.2546873538E+01 Ha)

 Perturbation wavevector (in red.coord.)   0.000000  0.000000  0.000000
 Perturbation : derivative vs k along direction   2
 The set of symmetries contains only one element for this perturbation.
 symkpt : not enough symmetry to change the number of k points.

[...]

 Perturbation wavevector (in red.coord.)   0.000000  0.000000  0.000000
 Perturbation : derivative vs k along direction   3
 The set of symmetries contains only one element for this perturbation.
 symkpt : not enough symmetry to change the number of k points.

-inwffil : will read wavefunctions from disk file /scratch/users/j/a/jabreu/flow_simple_8atoms/flow/w337/t1/indata/in_WFK

 Initialisation of the first-order wave-functions :
  ireadwf=   0

--- !BeginCycle
iteration_state: {dtset: 1, }
solver: {iscf: 7, nstep: 2000, nline: 4, wfoptalg: 0, }
tolerances: {tolwfr: 1.00E-20, }
...

     iter   2DEtotal(Ha)        deltaE(Ha) residm    vres2
-ETOT  1  -62.485902286371     -6.249E+01 1.903E-01 0.000E+00
 ETOT  2  -62.546424233167     -6.052E-02 1.386E-03 0.000E+00
 ETOT  3  -62.546627387933     -2.032E-04 4.014E-05 0.000E+00
 ETOT  4  -62.546628640267     -1.252E-06 9.256E-07 0.000E+00
 ETOT  5  -62.546628650862     -1.060E-08 4.160E-08 0.000E+00
 ETOT  6  -62.546628650967     -1.047E-10 1.186E-09 0.000E+00
 ETOT  7  -62.546628650968     -1.180E-12 7.030E-11 0.000E+00
 ETOT  8  -62.546628650968     -7.105E-14 2.855E-12 0.000E+00
 ETOT  9  -62.546628650968      7.105E-14 1.746E-13 0.000E+00
 ETOT 10  -62.546628650968      2.842E-14 8.009E-15 0.000E+00
 ETOT 11  -62.546628650968      0.000E+00 5.322E-16 0.000E+00
 ETOT 12  -62.546628650968     -1.421E-14 2.615E-17 0.000E+00
 ETOT 13  -62.546628650968      0.000E+00 1.791E-18 0.000E+00
 ETOT 14  -62.546628650968      2.132E-14 9.111E-20 0.000E+00
 ETOT 15  -62.546628650968      7.105E-15 9.170E-21 0.000E+00

 At SCF step   15   max residual=  9.17E-21 < tolwfr=  1.00E-20 =>converged.

 ----iterations are completed or convergence reached----

 dfpt_looppert: DFPT cycle converged with prtwf=-1. Will skip output of the 1st-order WFK file.
 dfpt_looppert : ek2=    9.0963064420E+01
          f-sum rule ratio=    1.0365915912E+00
 prteigrs : about to open file /scratch/users/j/a/jabreu/flow_simple_8atoms/flow/w337/t1/tmpdata/tmp_1WF1_EIG
 Expectation of eigenvalue derivatives (hartree) for nkpt=   1  k points:
  (in case of degenerate eigenvalues, averaged derivative)
 kpt#   1, nband= 47, wtk=  1.00000, kpt=  0.0000  0.0000  0.0000 (reduced coord)
  -0.00000   -0.00000   -0.00000   -0.00000    0.00000    0.00000    0.00000    0.00000
   0.00000    0.00000   -0.00000   -0.00000   -0.00000   -0.00000   -0.00000   -0.00000
   0.00000    0.00000    0.00000   -0.00000   -0.00000    0.00000    0.00000    0.00000
  -0.00000   -0.00000   -0.00000   -0.00000    0.00000    0.00000    0.00000    0.00000
  -0.00000   -0.00000   -0.00000   -0.00000    0.00000    0.00000   -0.00000    0.00000
   0.00000   -0.00000   -0.00000    0.00000   -0.00000    0.00056   -0.00088

 Eight components of 2nd-order total energy (hartree) are
 1,2,3: 0th-order hamiltonian combined with 1st-order wavefunctions
     kin0=   8.09227118E+01 eigvalue=   5.91761924E+00  local=  -3.32107174E+01
 4,5,6: 1st-order hamiltonian combined with 1st and 0th-order wfs
     kin1=  -9.42915477E+01  Hartree=   0.00000000E+00     xc=   0.00000000E+00
 7,8,9: eventually, occupation + non-local contributions
    edocc=   7.38603380E+00     enl0=   1.53098122E+00   enl1=  -3.08017096E+01
 1-9 gives the relaxation energy (to be shifted if some occ is /=2.0)
   erelax=  -6.25466287E+01
  No Ewald or frozen-wf contrib.: the relaxation energy is the total one
 2DEtotal=   -0.6254662865E+02 Ha. Also 2DEtotal=   -0.170198032137E+04 eV
    (  non-var. 2DEtotal :   -6.2546628651E+01 Ha)

 CALCULATION OF EFFECTIVE MASSES
 NOTE : Additional infos (eff. mass eigenvalues, eigenvectors and, if degenerate, average mass) are available in stdout.

 COMMENTS:
 - At k-point ( 0.000, 0.000, 0.000), bands    37 through    38
   are DEGENERATE (effective mass tensor is therefore not defined).
   See Section IIIB Eqs. (67)-(70) and Appendix E of PRB 93 205147 (2016).
 - Angular average effective mass for Frohlich model is to be averaged over degenerate bands. See later.
 - Associated theta integrals calculated with ntheta=   1000 points.

 K-point ( 0.000, 0.000, 0.000) | band =    37
 Transport equivalent effective mass tensor:
             -2.3937414620              0.1207825899              0.3242549935
              0.1207825899             -2.4868068901              0.2226093825
              0.3242549935              0.2226093825             -1.9612726755
 Transport equivalent effective mass tensor eigenvalues:
             -2.5697104954             -2.5664564264             -1.7056541058
 Angular average effective mass 1/(<1/m>)=  -1.7485849143
 Angular average effective mass for Frohlich model (<m**0.5>)**2=  -1.7857005143
 Effective masses along directions: (cart. coord. / red. coord. -> eff. mass)
    1:   1.000000  0.000000  0.000000 /   0.941933  0.335800  0.000000 ->  -1.9573157313
    2:   0.000000  1.000000  0.000000 /   0.000000  1.000000  0.000000 ->  -2.4350790377
    3:   0.000000  0.000000  1.000000 /   0.436096  0.436096  0.787172 ->  -1.6086994388
    4:   0.577350  0.577350  0.577350 /   0.587233  0.689767  0.423531 ->  -1.5896386281
    5:   0.000000  0.707107  0.707107 /   0.315639  0.758792  0.569742 ->  -1.5180363341
    6:   0.707107  0.000000  0.707107 /   0.726106  0.445554  0.523690 ->  -1.6198177032
    7:   0.707107  0.707107  0.000000 /   0.612431  0.790524  0.000000 ->  -1.4345879987

 K-point ( 0.000, 0.000, 0.000) | band =    38
 Transport equivalent effective mass tensor:
           -105.4855052475              4.0566259549             10.9558142849
              4.0566259549           -108.6019548728              7.5992540902
             10.9558142849              7.5992540902            -90.7494206079
 Transport equivalent effective mass tensor eigenvalues:
           -111.4040594383           -111.3196741806            -82.1131471092
 Angular average effective mass 1/(<1/m>)=  -6.3332625548
 Angular average effective mass for Frohlich model (<m**0.5>)**2=  -8.2019193223
 Effective masses along directions: (cart. coord. / red. coord. -> eff. mass)
    1:   1.000000  0.000000  0.000000 /   0.941933  0.335800  0.000000 ->  -5.2162335924
    2:   0.000000  1.000000  0.000000 /   0.000000  1.000000  0.000000 ->  -3.7064657824
    3:   0.000000  0.000000  1.000000 /   0.436096  0.436096  0.787172 ->  -5.4151725451
    4:   0.577350  0.577350  0.577350 /   0.587233  0.689767  0.423531 ->  -4.8228583494
    5:   0.000000  0.707107  0.707107 /   0.315639  0.758792  0.569742 ->  -7.2460805506
    6:   0.707107  0.000000  0.707107 /   0.726106  0.445554  0.523690 ->  -4.6554691137
    7:   0.707107  0.707107  0.000000 /   0.612431  0.790524  0.000000 -> -42.8437117027

 Angular average effective mass for Frohlich model, averaged over degenerate bands.
 Value of     (<<m**0.5>>)**2 =     4.410421E+00
 Absolute Value of <<m**0.5>> =     2.100100E+00

 K-point ( 0.000, 0.000, 0.000) | band =    39
 Effective mass tensor:
              0.5536742391             -0.0091162605             -0.0246769532
             -0.0091162605              0.5606536347             -0.0169543375
             -0.0246769532             -0.0169543375              0.5208273892
 Effective mass tensor eigenvalues:
              0.5013588894              0.5668692437              0.5669271299
 Angular average effective mass 1/(<1/m>)=   0.5432273583
 Angular average effective mass for Frohlich model (<m**0.5>)**2=   0.5437856525
 Effective masses along directions: (cart. coord. / red. coord. -> eff. mass)
    1:   1.000000  0.000000  0.000000 /   0.941933  0.335800  0.000000 ->   0.5523293596
    2:   0.000000  1.000000  0.000000 /   0.000000  1.000000  0.000000 ->   0.5599236315
    3:   0.000000  0.000000  1.000000 /   0.436096  0.436096  0.787172 ->   0.5191898347
    4:   0.577350  0.577350  0.577350 /   0.587233  0.689767  0.423531 ->   0.5102348091
    5:   0.000000  0.707107  0.707107 /   0.315639  0.758792  0.569742 ->   0.5220092704
    6:   0.707107  0.000000  0.707107 /   0.726106  0.445554  0.523690 ->   0.5114769491
    7:   0.707107  0.707107  0.000000 /   0.612431  0.790524  0.000000 ->   0.5463583395

 END OF EFFECTIVE MASSES SECTION

 ---- first-order wavefunction calculations are completed ----

 Total localisation tensor (bohr^2) in cartesian coordinates
  WARNING : still subject to testing - especially symmetries.
      direction              matrix element
   alpha     beta       real part   imaginary part
     1        1       0.6168003576    0.0000000000
     1        2       0.1822731737    0.0000000000
     1        3       0.4939979131    0.0000000000
     2        1       0.1822731737    0.0000000000
     2        2       0.4776898574    0.0000000000
     2        3       0.3402383776    0.0000000000
     3        1       0.4939979131    0.0000000000
     3        2       0.3402383776    0.0000000000
     3        3       1.2742586195    0.0000000000

 respfn : d/dk was computed, but no 2DTE, so no DDB output.

== END DATASET(S) ==============================================================

 -outvars: echo values of variables after computation  --------
            acell      1.0000000000E+00  1.0000000000E+00  1.0000000000E+00 Bohr
              amu      6.53900000E+01  1.18710000E+02  1.89984032E+01
             ecut      4.20000000E+01 Hartree
           etotal     -6.2546628651E+01
            fcart      0.0000000000E+00  0.0000000000E+00  0.0000000000E+00
                       0.0000000000E+00  0.0000000000E+00  0.0000000000E+00
                       0.0000000000E+00  0.0000000000E+00  0.0000000000E+00
                       0.0000000000E+00  0.0000000000E+00  0.0000000000E+00
                       0.0000000000E+00  0.0000000000E+00  0.0000000000E+00
                       0.0000000000E+00  0.0000000000E+00  0.0000000000E+00
                       0.0000000000E+00  0.0000000000E+00  0.0000000000E+00
                       0.0000000000E+00  0.0000000000E+00  0.0000000000E+00
-          fftalg         512
           irdden           1
           irdwfk           1
           istwfk        1
              ixc     -116133
           kptopt           0
P           mkmem           1
P          mkqmem           1
P          mk1mem           1
            natom           8
            nband          47
           nbdbuf           4
            ngfft          64      64      64
             nkpt           1
            nstep        2000
             nsym           6
           ntypat           3
              occ      2.000000  2.000000  2.000000  2.000000  2.000000  2.000000
                       2.000000  2.000000  2.000000  2.000000  2.000000  2.000000
                       2.000000  2.000000  2.000000  2.000000  2.000000  2.000000
                       2.000000  2.000000  2.000000  2.000000  2.000000  2.000000
                       2.000000  2.000000  2.000000  2.000000  2.000000  2.000000
                       2.000000  2.000000  2.000000  2.000000  2.000000  2.000000
                       2.000000  2.000000  0.000000  0.000000  0.000000  0.000000
                       0.000000  0.000000  0.000000  0.000000  0.000000
        optdriver           1
            prtwf          -1
            rfdir           1       1       1
           rfelfd           2
            rprim      8.6933090890E+00  0.0000000000E+00  5.7850404463E+00
                       3.0991732603E+00  8.1221147505E+00  5.7850404463E+00
                       0.0000000000E+00  0.0000000000E+00  1.0442237111E+01
          spgroup         148
           strten      0.0000000000E+00  0.0000000000E+00  0.0000000000E+00
                       0.0000000000E+00  0.0000000000E+00  0.0000000000E+00
           symrel      1  0  0   0  1  0   0  0  1      -1  0  0   0 -1  0   0  0 -1
                       0  0  1   1  0  0   0  1  0       0  0 -1  -1  0  0   0 -1  0
                       0  1  0   0  0  1   1  0  0       0 -1  0   0  0 -1  -1  0  0
           tolwfr      1.00000000E-20
            typat      1  2  3  3  3  3  3  3
           useylm           1
           xangst      3.1201564460E+00  2.1490190058E+00  5.8242084979E+00
                       0.0000000000E+00  0.0000000000E+00  0.0000000000E+00
                       4.0646586427E+00  1.5876006846E+00  4.1315993076E+00
                       1.8150853982E+00  3.2316088201E+00  4.7301382733E+00
                       4.3335817157E+00  3.7542846266E+00  5.9756093019E+00
                       4.4252274937E+00  1.0664291914E+00  6.9182787224E+00
                       2.1756542492E+00  2.7104373269E+00  7.5168176882E+00
                       1.9067311763E+00  5.4375338491E-01  5.6728076939E+00
            xcart      5.8962411746E+00  4.0610573752E+00  1.1006159002E+01
                       0.0000000000E+00  0.0000000000E+00  0.0000000000E+00
                       7.6810916584E+00  3.0001305023E+00  7.8075911821E+00
                       3.4300143104E+00  6.1068556386E+00  8.9386659073E+00
                       8.1892826171E+00  7.0945697692E+00  1.1292265058E+01
                       8.3624680389E+00  2.0152591119E+00  1.3073652096E+01
                       4.1113906909E+00  5.1219842482E+00  1.4204726821E+01
                       3.6031997322E+00  1.0275449813E+00  1.0720052946E+01
             xred      5.0000000000E-01  5.0000000000E-01  5.0000000000E-01
                       0.0000000000E+00  0.0000000000E+00  0.0000000000E+00
                       7.5188000000E-01  3.6937800000E-01  1.2651200000E-01
                       1.2651200000E-01  7.5188000000E-01  3.6937800000E-01
                       6.3062200000E-01  8.7348800000E-01  2.4812000000E-01
                       8.7348800000E-01  2.4812000000E-01  6.3062200000E-01
                       2.4812000000E-01  6.3062200000E-01  8.7348800000E-01
                       3.6937800000E-01  1.2651200000E-01  7.5188000000E-01
            znucl       30.00000   50.00000    9.00000

- Timing analysis has been suppressed with timopt=0

 Suggested references for the acknowledgment of ABINIT usage.

 Calculation completed.
.Delivered   6 WARNINGs and   5 COMMENTs to log file.