.Version 9.5.1 of ABINIT

 ABINIT is a project of the Universite Catholique de Louvain,
 Corning Inc. and other collaborators, see ~abinit/doc/developers/contributors.txt .
 acknowledgments of the ABINIT effort.

.Starting date : Fri  7 May 2021.
- ( at 11h47 )

- input  file    -> /scratch/users/j/a/jabreu/flow_simple_7atoms/flow/w121/t1/run.abi
- output file    -> /scratch/users/j/a/jabreu/flow_simple_7atoms/flow/w121/t1/run.abo
- root for input  files -> /scratch/users/j/a/jabreu/flow_simple_7atoms/flow/w121/t1/indata/in
- root for output files -> /scratch/users/j/a/jabreu/flow_simple_7atoms/flow/w121/t1/outdata/out

 Symmetries : space group I-4 (# 82); Bravais tI (body-center tetrag.)
     intxc =       0      iscf =       7    lmnmax =      25     lnmax =       7
     mgfft =      80  mpssoang =       4    mqgrid =    3001     natom =       7
  nloc_mem =       1    nspden =       1   nspinor =       1    nsppol =       1
      nsym =       4    n1xccc =    2501    ntypat =       3    occopt =       1
   xclevel =       2
-    mband =          68        mffmem =           1         mkmem =           1
-   mkqmem =           1        mk1mem =           1           mpw =       17613
      nfft =      512000          nkpt =           1
  Rough estimation (10% accuracy) of disk space for files :

------------- Echo of variables that govern the present computation ------------
-
- outvars: echo of selected default values
-   iomode0 =  0 , fftalg0 =512 , wfoptalg0 =  0
-
- outvars: echo of global parameters not present in the input file
-  max_nthreads =    0
-
 -outvars: echo values of preprocessed input variables --------
            acell      1.0000000000E+00  1.0000000000E+00  1.0000000000E+00 Bohr
              amu      1.18710000E+02  2.00590000E+02  7.89600000E+01
             ecut      4.30000000E+01 Hartree
-          fftalg         512
           irdden           1
           irdwfk           1
           istwfk        1
              ixc     -116133
           kptopt           0
P           mkmem           1
P          mkqmem           1
P          mk1mem           1
            natom           7
            nband          68
           nbdbuf           4
            ngfft          80      80      80
             nkpt           1
            nstep        2000
             nsym           4
           ntypat           3
              occ      2.000000  2.000000  2.000000  2.000000  2.000000  2.000000
                       2.000000  2.000000  2.000000  2.000000  2.000000  2.000000
                       2.000000  2.000000  2.000000  2.000000  2.000000  2.000000
                       2.000000  2.000000  2.000000  2.000000  2.000000  2.000000
                       2.000000  2.000000  2.000000  2.000000  2.000000  2.000000
                       2.000000  2.000000  2.000000  2.000000  2.000000  2.000000
                       2.000000  2.000000  2.000000  2.000000  2.000000  2.000000
                       2.000000  2.000000  2.000000  2.000000  2.000000  2.000000
                       2.000000  2.000000  2.000000  2.000000  2.000000  2.000000
                       2.000000  2.000000  2.000000  2.000000  2.000000  0.000000
                       0.000000  0.000000  0.000000  0.000000  0.000000  0.000000
                       0.000000  0.000000
        optdriver           1
            prtwf          -1
            rfdir           1       1       1
           rfelfd           2
            rprim      9.9810648427E+00  0.0000000000E+00 -8.9213351155E+00
                      -1.9980030961E+00  9.7790408028E+00 -8.9213351155E+00
                       0.0000000000E+00  0.0000000000E+00  1.3387003983E+01
          spgroup          82
           symrel      1  0  0   0  1  0   0  0  1       0  1  0   1  0  0  -1 -1 -1
                      -1 -1 -1   0  0  1   1  0  0       0  0  1  -1 -1 -1   0  1  0
           tolwfr      1.00000000E-20
            typat      1  2  2  3  3  3  3
           useylm           1
           xangst      0.0000000000E+00  0.0000000000E+00  0.0000000000E+00
                       5.2746473219E-01  3.8811341360E+00 -1.1789185138E+00
                       2.1122271655E+00  2.5874227574E+00 -4.7209672133E+00
                       1.2165049856E+00  4.8272433792E+00 -5.8642798955E+00
                       2.8417331100E+00  3.0166490249E+00 -2.1891962089E+00
                       2.0787301268E-01  7.1903831571E-01  2.4572225180E+00
                       4.1827975539E+00  1.7867603096E+00  8.8057953130E-01
            xcart      0.0000000000E+00  0.0000000000E+00  0.0000000000E+00
                       9.9676388860E-01  7.3342806021E+00 -2.2278331241E+00
                       3.9915308733E+00  4.8895204014E+00 -8.9213351155E+00
                       2.2988612621E+00  9.1221679635E+00 -1.1081882969E+01
                       5.3700973206E+00  5.7006404960E+00 -4.1369812860E+00
                       3.9282306438E-01  1.3587854957E+00  4.6434776065E+00
                       7.9043418461E+00  3.3764876503E+00  1.6640541524E+00
             xred      0.0000000000E+00  0.0000000000E+00  0.0000000000E+00
                       2.5000000000E-01  7.5000000000E-01  5.0000000000E-01
                       5.0000000000E-01  5.0000000000E-01  0.0000000000E+00
                       4.1705525000E-01  9.3282850000E-01  7.1777250000E-02
                       6.5472200000E-01  5.8294475000E-01  5.1577325000E-01
                       6.7171500000E-02  1.3894875000E-01  4.8422675000E-01
                       8.6105125000E-01  3.4527800000E-01  9.2822275000E-01
            znucl       50.00000   80.00000   34.00000

 chkinp: Checking input parameters for consistency.

== DATASET  1 ==================================================================
-   mpi_nproc: 1, omp_nthreads: -1 (-1 if OMP is not activated)

--- !DatasetInfo
iteration_state: {dtset: 1, }
dimensions: {natom: 7, nkpt: 1, mband: 68, nsppol: 1, nspinor: 1, nspden: 1, mpw: 17613, }
cutoff_energies: {ecut:  43.0, pawecutdg:  -1.0, }
electrons: {nelect:   1.18000000E+02, charge:   0.00000000E+00, occopt:   1.00000000E+00, tsmear:   1.00000000E-02, }
meta: {optdriver: 1, rfelfd: 2, }
...

 Real(R)+Recip(G) space primitive vectors, cartesian coordinates (Bohr,Bohr^-1):
 R(1)=  9.9810648  0.0000000 -8.9213351  G(1)=  0.1001897  0.0204702  0.0000000
 R(2)= -1.9980031  9.7790408 -8.9213351  G(2)=  0.0000000  0.1022595  0.0000000
 R(3)=  0.0000000  0.0000000 13.3870040  G(3)=  0.0667682  0.0817893  0.0746993
 Unit cell volume ucvol=  1.3066417E+03 bohr^3
 Angles (23,13,12)=  1.31791172E+02  1.31791172E+02  7.05590483E+01 degrees

 getcut: wavevector=  0.0000  0.0000  0.0000  ngfft=  80  80  80
         ecut(hartree)=     43.000   => boxcut(ratio)=   2.02479

--- Pseudopotential description ------------------------------------------------
- pspini: atom type   1  psp file is /scratch/users/j/a/jabreu/pseudos/PBEsol/Sn.psp8
- pspatm: opening atomic psp file    /scratch/users/j/a/jabreu/pseudos/PBEsol/Sn.psp8
- Sn    ONCVPSP-3.3.0  r_core=   2.27326   2.62311   1.85601
- 50.00000  14.00000    180112                znucl, zion, pspdat
    8 -116133    2    4       600   0.00000   pspcod,pspxc,lmax,lloc,mmax,r2well
    5.99000000000000    6.50000000000000    0.00000000000000   rchrg,fchrg,qchrg
     nproj     2     2     2
     extension_switch     1
  pspatm : epsatm=   32.44586081
         --- l  ekb(1:nproj) -->
             0    5.587869    0.749373
             1    4.197111    0.728791
             2   -5.271877   -1.523486
 pspatm: atomic psp has been read  and splines computed

- pspini: atom type   2  psp file is /scratch/users/j/a/jabreu/pseudos/PBEsol/Hg.psp8
- pspatm: opening atomic psp file    /scratch/users/j/a/jabreu/pseudos/PBEsol/Hg.psp8
- Hg    ONCVPSP-3.3.0  r_core=   1.60079   1.60079   1.45509   1.60079
- 80.00000  20.00000    180112                znucl, zion, pspdat
    8 -116133    3    4       600   0.00000   pspcod,pspxc,lmax,lloc,mmax,r2well
    5.99000000000000    5.00000000000000    0.00000000000000   rchrg,fchrg,qchrg
     nproj     2     2     2     1
     extension_switch     1
  pspatm : epsatm=   30.52477316
         --- l  ekb(1:nproj) -->
             0   15.280580    2.063595
             1   11.999965    1.374025
             2    2.245749    0.205661
             3    0.961656
 pspatm: atomic psp has been read  and splines computed

- pspini: atom type   3  psp file is /scratch/users/j/a/jabreu/pseudos/PBEsol/Se.psp8
- pspatm: opening atomic psp file    /scratch/users/j/a/jabreu/pseudos/PBEsol/Se.psp8
- Se    ONCVPSP-3.3.0  r_core=   1.81943   1.50330   1.90835
- 34.00000  16.00000    180112                znucl, zion, pspdat
    8 -116133    2    4       600   0.00000   pspcod,pspxc,lmax,lloc,mmax,r2well
    5.99000000000000    5.00000000000000    0.00000000000000   rchrg,fchrg,qchrg
     nproj     2     2     2
     extension_switch     1
  pspatm : epsatm=   29.17862020
         --- l  ekb(1:nproj) -->
             0    8.973804    1.019550
             1    6.849857    1.297308
             2   -9.203962   -3.731027
 pspatm: atomic psp has been read  and splines computed

   2.48047668E+04                                ecore*ucvol(ha*bohr**3)

-inwffil : will read wavefunctions from disk file /scratch/users/j/a/jabreu/flow_simple_7atoms/flow/w121/t1/indata/in_WFK

 ==>  initialize data related to q vector <==

 The list of irreducible perturbations for this q vector is:
    1)    idir= 1    ipert=   8
    2)    idir= 2    ipert=   8
    3)    idir= 3    ipert=   8

 Perturbation wavevector (in red.coord.)   0.000000  0.000000  0.000000
 Perturbation : derivative vs k along direction   1

 dfpt_looppert : COMMENT -
  In a d/dk calculation, iscf is set to -3 automatically.
 The set of symmetries contains only one element for this perturbation.
 symkpt : not enough symmetry to change the number of k points.

[...]

 Initialisation of the first-order wave-functions :
  ireadwf=   0

--- !BeginCycle
iteration_state: {dtset: 1, }
solver: {iscf: 7, nstep: 2000, nline: 4, wfoptalg: 0, }
tolerances: {tolwfr: 1.00E-20, }
...

     iter   2DEtotal(Ha)        deltaE(Ha) residm    vres2
-ETOT  1  -160.12598918827     -1.601E+02 9.881E-02 0.000E+00
 ETOT  2  -160.20827935551     -8.229E-02 3.031E-03 0.000E+00
 ETOT  3  -160.20850545936     -2.261E-04 1.128E-04 0.000E+00
 ETOT  4  -160.20850742598     -1.967E-06 6.567E-06 0.000E+00
 ETOT  5  -160.20850744790     -2.192E-08 2.812E-07 0.000E+00
 ETOT  6  -160.20850744817     -2.628E-10 1.806E-08 0.000E+00
 ETOT  7  -160.20850744817     -2.956E-12 7.980E-10 0.000E+00
 ETOT  8  -160.20850744817     -5.400E-13 5.354E-11 0.000E+00
 ETOT  9  -160.20850744817      2.842E-14 2.370E-12 0.000E+00
 ETOT 10  -160.20850744817     -5.684E-14 1.637E-13 0.000E+00
 ETOT 11  -160.20850744817     -1.421E-13 7.158E-15 0.000E+00
 ETOT 12  -160.20850744817      8.527E-14 5.058E-16 0.000E+00
 ETOT 13  -160.20850744817     -2.842E-14 2.182E-17 0.000E+00
 ETOT 14  -160.20850744817     -2.842E-14 1.572E-18 0.000E+00
 ETOT 15  -160.20850744817      0.000E+00 6.694E-20 0.000E+00
 ETOT 16  -160.20850744817      0.000E+00 9.845E-21 0.000E+00

 At SCF step   16   max residual=  9.85E-21 < tolwfr=  1.00E-20 =>converged.

 ----iterations are completed or convergence reached----

 dfpt_looppert: DFPT cycle converged with prtwf=-1. Will skip output of the 1st-order WFK file.
 dfpt_looppert : ek2=    9.7426976091E+01
          f-sum rule ratio=    2.1978921714E+00
 prteigrs : about to open file /scratch/users/j/a/jabreu/flow_simple_7atoms/flow/w121/t1/tmpdata/tmp_1WF1_EIG
 Expectation of eigenvalue derivatives (hartree) for nkpt=   1  k points:
  (in case of degenerate eigenvalues, averaged derivative)
 kpt#   1, nband= 68, wtk=  1.00000, kpt=  0.0000  0.0000  0.0000 (reduced coord)
  -0.00000   -0.00000   -0.00000    0.00000    0.00000    0.00000    0.00000   -0.00000
  -0.00000   -0.00000   -0.00000   -0.00000    0.00000   -0.00000   -0.00000   -0.00000
   0.00000    0.00000    0.00000   -0.00000   -0.00000   -0.00000    0.00000    0.00000
  -0.00000    0.00000   -0.00000   -0.00000   -0.00000   -0.00000   -0.00000   -0.00000
  -0.00000   -0.00000    0.00000    0.00000    0.00000    0.00000   -0.00000   -0.00000
  -0.00000    0.00000   -0.00000    0.00000   -0.00000   -0.00000   -0.00000   -0.00000
  -0.00000   -0.00000   -0.00000    0.00000    0.00000   -0.00000    0.00000    0.00000
   0.00000    0.00000    0.00000    0.00000    0.00000    0.00000    0.00000    0.00000
   0.00000   -0.00000   -0.00000   -0.00000

 Eight components of 2nd-order total energy (hartree) are
 1,2,3: 0th-order hamiltonian combined with 1st-order wavefunctions
     kin0=   1.16308095E+02 eigvalue=   1.50931274E+01  local=  -5.36549677E+01
 4,5,6: 1st-order hamiltonian combined with 1st and 0th-order wfs
     kin1=  -2.14133988E+02  Hartree=   0.00000000E+00     xc=   0.00000000E+00
 7,8,9: eventually, occupation + non-local contributions
    edocc=   7.10100126E+01     enl0=   1.14522400E+01   enl1=  -1.06283027E+02
 1-9 gives the relaxation energy (to be shifted if some occ is /=2.0)
   erelax=  -1.60208507E+02
  No Ewald or frozen-wf contrib.: the relaxation energy is the total one
 2DEtotal=   -0.1602085074E+03 Ha. Also 2DEtotal=   -0.435949519381E+04 eV
    (  non-var. 2DEtotal :   -1.6020850745E+02 Ha)

 Perturbation wavevector (in red.coord.)   0.000000  0.000000  0.000000
 Perturbation : derivative vs k along direction   2
 The set of symmetries contains only one element for this perturbation.
 symkpt : not enough symmetry to change the number of k points.

[...]

 Perturbation wavevector (in red.coord.)   0.000000  0.000000  0.000000
 Perturbation : derivative vs k along direction   3
 The set of symmetries contains only one element for this perturbation.
 symkpt : not enough symmetry to change the number of k points.

-inwffil : will read wavefunctions from disk file /scratch/users/j/a/jabreu/flow_simple_7atoms/flow/w121/t1/indata/in_WFK

 Initialisation of the first-order wave-functions :
  ireadwf=   0

--- !BeginCycle
iteration_state: {dtset: 1, }
solver: {iscf: 7, nstep: 2000, nline: 4, wfoptalg: 0, }
tolerances: {tolwfr: 1.00E-20, }
...

     iter   2DEtotal(Ha)        deltaE(Ha) residm    vres2
-ETOT  1  -272.46998680642     -2.725E+02 1.538E-01 0.000E+00
 ETOT  2  -272.60053122722     -1.305E-01 4.256E-03 0.000E+00
 ETOT  3  -272.60085407284     -3.228E-04 1.633E-04 0.000E+00
 ETOT  4  -272.60085661455     -2.542E-06 6.801E-06 0.000E+00
 ETOT  5  -272.60085664029     -2.573E-08 3.158E-07 0.000E+00
 ETOT  6  -272.60085664058     -2.911E-10 1.500E-08 0.000E+00
 ETOT  7  -272.60085664058     -3.979E-12 7.176E-10 0.000E+00
 ETOT  8  -272.60085664058      8.527E-13 3.487E-11 0.000E+00
 ETOT  9  -272.60085664058      1.251E-12 1.693E-12 0.000E+00
 ETOT 10  -272.60085664058     -1.592E-12 8.285E-14 0.000E+00
 ETOT 11  -272.60085664058      5.684E-14 4.051E-15 0.000E+00
 ETOT 12  -272.60085664058      1.705E-13 1.988E-16 0.000E+00
 ETOT 13  -272.60085664058     -1.705E-13 9.757E-18 0.000E+00
 ETOT 14  -272.60085664058      1.137E-13 4.797E-19 0.000E+00
 ETOT 15  -272.60085664058     -5.684E-14 2.359E-20 0.000E+00
 ETOT 16  -272.60085664058      0.000E+00 9.886E-21 0.000E+00

 At SCF step   16   max residual=  9.89E-21 < tolwfr=  1.00E-20 =>converged.

 ----iterations are completed or convergence reached----

 dfpt_looppert: DFPT cycle converged with prtwf=-1. Will skip output of the 1st-order WFK file.
 dfpt_looppert : ek2=    1.5584821429E+02
          f-sum rule ratio=    2.3996090487E+00
 prteigrs : about to open file /scratch/users/j/a/jabreu/flow_simple_7atoms/flow/w121/t1/tmpdata/tmp_1WF1_EIG
 Expectation of eigenvalue derivatives (hartree) for nkpt=   1  k points:
  (in case of degenerate eigenvalues, averaged derivative)
 kpt#   1, nband= 68, wtk=  1.00000, kpt=  0.0000  0.0000  0.0000 (reduced coord)
  -0.00000   -0.00000   -0.00000    0.00000    0.00000    0.00000    0.00000   -0.00000
  -0.00000   -0.00000    0.00000    0.00000    0.00000   -0.00000   -0.00000   -0.00000
   0.00000   -0.00000   -0.00000   -0.00000   -0.00000   -0.00000    0.00000    0.00000
  -0.00000    0.00000   -0.00000   -0.00000    0.00000    0.00000    0.00000   -0.00000
  -0.00000    0.00000    0.00000    0.00000    0.00000    0.00000    0.00000   -0.00000
  -0.00000    0.00000   -0.00000    0.00000   -0.00000   -0.00000   -0.00000    0.00000
  -0.00000   -0.00000   -0.00000    0.00000    0.00000   -0.00000    0.00000    0.00000
  -0.00000    0.00000    0.00000    0.00000    0.00000    0.00000   -0.00000    0.00000
   0.00000    0.00000   -0.00000   -0.00000

 Eight components of 2nd-order total energy (hartree) are
 1,2,3: 0th-order hamiltonian combined with 1st-order wavefunctions
     kin0=   1.85674515E+02 eigvalue=   2.41729537E+01  local=  -8.56885236E+01
 4,5,6: 1st-order hamiltonian combined with 1st and 0th-order wfs
     kin1=  -3.73974785E+02  Hartree=   0.00000000E+00     xc=   0.00000000E+00
 7,8,9: eventually, occupation + non-local contributions
    edocc=   1.30051174E+02     enl0=   1.83907379E+01   enl1=  -1.71226928E+02
 1-9 gives the relaxation energy (to be shifted if some occ is /=2.0)
   erelax=  -2.72600857E+02
  No Ewald or frozen-wf contrib.: the relaxation energy is the total one
 2DEtotal=   -0.2726008566E+03 Ha. Also 2DEtotal=   -0.741784655061E+04 eV
    (  non-var. 2DEtotal :   -2.7260085664E+02 Ha)

 CALCULATION OF EFFECTIVE MASSES
 NOTE : Additional infos (eff. mass eigenvalues, eigenvectors and, if degenerate, average mass) are available in stdout.

 COMMENTS:
 - At k-point ( 0.000, 0.000, 0.000), bands    58 through    59
   are DEGENERATE (effective mass tensor is therefore not defined).
   See Section IIIB Eqs. (67)-(70) and Appendix E of PRB 93 205147 (2016).
 - Angular average effective mass for Frohlich model is to be averaged over degenerate bands. See later.
 - Associated theta integrals calculated with ntheta=   1000 points.

 K-point ( 0.000, 0.000, 0.000) | band =    58
 Transport equivalent effective mass tensor:
             -0.0796618739             -0.0832581772              0.1519114429
             -0.0832581772             -0.1136836360              0.1860875257
              0.1519114429              0.1860875257             -0.3512266692
 Transport equivalent effective mass tensor eigenvalues:
             -0.5211830644             -0.0116945578             -0.0116945569
 Angular average effective mass 1/(<1/m>)=  -0.0173448372
 Angular average effective mass for Frohlich model (<m**0.5>)**2=  -0.0241339493
 Effective masses along directions: (cart. coord. / red. coord. -> eff. mass)
    1:   1.000000  0.000000  0.000000 /   0.980547 -0.196285  0.000000 ->  -0.0135127035
    2:   0.000000  1.000000  0.000000 /   0.000000  1.000000  0.000000 ->  -0.0146455433
    3:   0.000000  0.000000  1.000000 /  -0.484975 -0.484975  0.727735 ->  -0.0333146401
    4:   0.577350  0.577350  0.577350 /   0.078631 -0.084609  0.993307 ->  -0.0116136727
    5:   0.000000  0.707107  0.707107 /  -0.553770  0.053240  0.830966 ->  -0.0125537723
    6:   0.707107  0.000000  0.707107 /   0.061228 -0.630884  0.773458 ->  -0.0130624470
    7:   0.707107  0.707107  0.000000 /   0.788663  0.614826  0.000000 ->  -0.0171596133

 K-point ( 0.000, 0.000, 0.000) | band =    59
 Transport equivalent effective mass tensor:
             -4.4462375941              0.0952548542             -0.1737999105
              0.0952548542             -4.4073137546             -0.2129000246
             -0.1737999105             -0.2129000246             -4.1355444588
 Transport equivalent effective mass tensor eigenvalues:
             -4.5239983837             -4.5239979405             -3.9410994833
 Angular average effective mass 1/(<1/m>)=  -0.8175675211
 Angular average effective mass for Frohlich model (<m**0.5>)**2=  -0.9573601793
 Effective masses along directions: (cart. coord. / red. coord. -> eff. mass)
    1:   1.000000  0.000000  0.000000 /   0.980547 -0.196285  0.000000 ->  -0.7253362674
    2:   0.000000  1.000000  0.000000 /   0.000000  1.000000  0.000000 ->  -0.6289289996
    3:   0.000000  0.000000  1.000000 /  -0.484975 -0.484975  0.727735 ->  -0.7345109444
    4:   0.577350  0.577350  0.577350 /   0.078631 -0.084609  0.993307 ->  -3.4380173052
    5:   0.000000  0.707107  0.707107 /  -0.553770  0.053240  0.830966 ->  -0.8921948733
    6:   0.707107  0.000000  0.707107 /   0.061228 -0.630884  0.773458 ->  -0.6937940158
    7:   0.707107  0.707107  0.000000 /   0.788663  0.614826  0.000000 ->  -1.1641928090

 Angular average effective mass for Frohlich model, averaged over degenerate bands.
 Value of     (<<m**0.5>>)**2 =     3.213750E-01
 Absolute Value of <<m**0.5>> =     5.668994E-01

 K-point ( 0.000, 0.000, 0.000) | band =    60
 Effective mass tensor:
              0.0152052621              0.0042714630             -0.0077936378
              0.0042714630              0.0169507086             -0.0095470014
             -0.0077936378             -0.0095470014              0.0291375740
 Effective mass tensor eigenvalues:
              0.0117182787              0.0117182790              0.0378569869
 Angular average effective mass 1/(<1/m>)=   0.0152215704
 Angular average effective mass for Frohlich model (<m**0.5>)**2=   0.0163260236
 Effective masses along directions: (cart. coord. / red. coord. -> eff. mass)
    1:   1.000000  0.000000  0.000000 /   0.980547 -0.196285  0.000000 ->   0.0129071481
    2:   0.000000  1.000000  0.000000 /   0.000000  1.000000  0.000000 ->   0.0135976935
    3:   0.000000  0.000000  1.000000 /  -0.484975 -0.484975  0.727735 ->   0.0217059116
    4:   0.577350  0.577350  0.577350 /   0.078631 -0.084609  0.993307 ->   0.0117183157
    5:   0.000000  0.707107  0.707107 /  -0.553770  0.053240  0.830966 ->   0.0122960581
    6:   0.707107  0.000000  0.707107 /   0.061228 -0.630884  0.773458 ->   0.0126037052
    7:   0.707107  0.707107  0.000000 /   0.788663  0.614826  0.000000 ->   0.0151790017

 END OF EFFECTIVE MASSES SECTION

 ---- first-order wavefunction calculations are completed ----

 Total localisation tensor (bohr^2) in cartesian coordinates
  WARNING : still subject to testing - especially symmetries.
      direction              matrix element
   alpha     beta       real part   imaginary part
     1        1     197.6247919607    0.0000000000
     1        2     -37.2663432570    0.0000000000
     1        3    -135.8387580919    0.0000000000
     2        1     -37.2663432570    0.0000000000
     2        2     182.3966599415    0.0000000000
     2        3    -166.3989096784    0.0000000000
     3        1    -135.8387580919    0.0000000000
     3        2    -166.3989096784    0.0000000000
     3        3     971.1407848808    0.0000000000

 respfn : d/dk was computed, but no 2DTE, so no DDB output.

== END DATASET(S) ==============================================================

 -outvars: echo values of variables after computation  --------
            acell      1.0000000000E+00  1.0000000000E+00  1.0000000000E+00 Bohr
              amu      1.18710000E+02  2.00590000E+02  7.89600000E+01
             ecut      4.30000000E+01 Hartree
           etotal     -2.7260085664E+02
            fcart      0.0000000000E+00  0.0000000000E+00  0.0000000000E+00
                       0.0000000000E+00  0.0000000000E+00  0.0000000000E+00
                       0.0000000000E+00  0.0000000000E+00  0.0000000000E+00
                       0.0000000000E+00  0.0000000000E+00  0.0000000000E+00
                       0.0000000000E+00  0.0000000000E+00  0.0000000000E+00
                       0.0000000000E+00  0.0000000000E+00  0.0000000000E+00
                       0.0000000000E+00  0.0000000000E+00  0.0000000000E+00
-          fftalg         512
           irdden           1
           irdwfk           1
           istwfk        1
              ixc     -116133
           kptopt           0
P           mkmem           1
P          mkqmem           1
P          mk1mem           1
            natom           7
            nband          68
           nbdbuf           4
            ngfft          80      80      80
             nkpt           1
            nstep        2000
             nsym           4
           ntypat           3
              occ      2.000000  2.000000  2.000000  2.000000  2.000000  2.000000
                       2.000000  2.000000  2.000000  2.000000  2.000000  2.000000
                       2.000000  2.000000  2.000000  2.000000  2.000000  2.000000
                       2.000000  2.000000  2.000000  2.000000  2.000000  2.000000
                       2.000000  2.000000  2.000000  2.000000  2.000000  2.000000
                       2.000000  2.000000  2.000000  2.000000  2.000000  2.000000
                       2.000000  2.000000  2.000000  2.000000  2.000000  2.000000
                       2.000000  2.000000  2.000000  2.000000  2.000000  2.000000
                       2.000000  2.000000  2.000000  2.000000  2.000000  2.000000
                       2.000000  2.000000  2.000000  2.000000  2.000000  0.000000
                       0.000000  0.000000  0.000000  0.000000  0.000000  0.000000
                       0.000000  0.000000
        optdriver           1
            prtwf          -1
            rfdir           1       1       1
           rfelfd           2
            rprim      9.9810648427E+00  0.0000000000E+00 -8.9213351155E+00
                      -1.9980030961E+00  9.7790408028E+00 -8.9213351155E+00
                       0.0000000000E+00  0.0000000000E+00  1.3387003983E+01
          spgroup          82
           strten      0.0000000000E+00  0.0000000000E+00  0.0000000000E+00
                       0.0000000000E+00  0.0000000000E+00  0.0000000000E+00
           symrel      1  0  0   0  1  0   0  0  1       0  1  0   1  0  0  -1 -1 -1
                      -1 -1 -1   0  0  1   1  0  0       0  0  1  -1 -1 -1   0  1  0
           tolwfr      1.00000000E-20
            typat      1  2  2  3  3  3  3
           useylm           1
           xangst      0.0000000000E+00  0.0000000000E+00  0.0000000000E+00
                       5.2746473219E-01  3.8811341360E+00 -1.1789185138E+00
                       2.1122271655E+00  2.5874227574E+00 -4.7209672133E+00
                       1.2165049856E+00  4.8272433792E+00 -5.8642798955E+00
                       2.8417331100E+00  3.0166490249E+00 -2.1891962089E+00
                       2.0787301268E-01  7.1903831571E-01  2.4572225180E+00
                       4.1827975539E+00  1.7867603096E+00  8.8057953130E-01
            xcart      0.0000000000E+00  0.0000000000E+00  0.0000000000E+00
                       9.9676388860E-01  7.3342806021E+00 -2.2278331241E+00
                       3.9915308733E+00  4.8895204014E+00 -8.9213351155E+00
                       2.2988612621E+00  9.1221679635E+00 -1.1081882969E+01
                       5.3700973206E+00  5.7006404960E+00 -4.1369812860E+00
                       3.9282306438E-01  1.3587854957E+00  4.6434776065E+00
                       7.9043418461E+00  3.3764876503E+00  1.6640541524E+00
             xred      0.0000000000E+00  0.0000000000E+00  0.0000000000E+00
                       2.5000000000E-01  7.5000000000E-01  5.0000000000E-01
                       5.0000000000E-01  5.0000000000E-01  0.0000000000E+00
                       4.1705525000E-01  9.3282850000E-01  7.1777250000E-02
                       6.5472200000E-01  5.8294475000E-01  5.1577325000E-01
                       6.7171500000E-02  1.3894875000E-01  4.8422675000E-01
                       8.6105125000E-01  3.4527800000E-01  9.2822275000E-01
            znucl       50.00000   80.00000   34.00000

- Timing analysis has been suppressed with timopt=0

 Suggested references for the acknowledgment of ABINIT usage.

 Calculation completed.
.Delivered   6 WARNINGs and   7 COMMENTs to log file.