.Version 9.5.1 of ABINIT

 ABINIT is a project of the Universite Catholique de Louvain,
 Corning Inc. and other collaborators, see ~abinit/doc/developers/contributors.txt .
 acknowledgments of the ABINIT effort.

.Starting date : Sun 25 Apr 2021.
- ( at 17h18 )

- input  file    -> /scratch/users/j/a/jabreu/flow_simple2/flow/w178/t1/run.abi
- output file    -> /scratch/users/j/a/jabreu/flow_simple2/flow/w178/t1/run.abo
- root for input  files -> /scratch/users/j/a/jabreu/flow_simple2/flow/w178/t1/indata/in
- root for output files -> /scratch/users/j/a/jabreu/flow_simple2/flow/w178/t1/outdata/out

 Symmetries : space group F-4 3 m (#216); Bravais cF (face-center cubic)
     intxc =       0      iscf =       7    lmnmax =      18     lnmax =       6
     mgfft =      36  mpssoang =       3    mqgrid =    3001     natom =       2
  nloc_mem =       1    nspden =       1   nspinor =       1    nsppol =       1
      nsym =      24    n1xccc =    2501    ntypat =       2    occopt =       1
   xclevel =       2
-    mband =          18        mffmem =           1         mkmem =           2
-   mkqmem =           2        mk1mem =           2           mpw =        2044
      nfft =       46656          nkpt =           2
  Rough estimation (10% accuracy) of disk space for files :

------------- Echo of variables that govern the present computation ------------
-
- outvars: echo of selected default values
-   iomode0 =  0 , fftalg0 =512 , wfoptalg0 =  0
-
- outvars: echo of global parameters not present in the input file
-  max_nthreads =    0
-
 -outvars: echo values of preprocessed input variables --------
            acell      1.0000000000E+00  1.0000000000E+00  1.0000000000E+00 Bohr
              amu      7.26100000E+01  1.20110000E+01
             ecut      4.10000000E+01 Hartree
-          fftalg         512
           irdden           1
           irdwfk           1
           istwfk        1    1
              ixc     -116133
              kpt      0.00000000E+00  0.00000000E+00  0.00000000E+00
                       5.00000000E-01  2.46519033E-32  5.00000000E-01
           kptopt           0
P           mkmem           2
P          mkqmem           2
P          mk1mem           2
            natom           2
            nband          18
           nbdbuf           4
            ngfft          36      36      36
             nkpt           2
            nstep         100
             nsym          24
           ntypat           2
              occ      2.000000  2.000000  2.000000  2.000000  2.000000  2.000000
                       2.000000  2.000000  2.000000  0.000000  0.000000  0.000000
                       0.000000  0.000000  0.000000  0.000000  0.000000  0.000000
        optdriver           1
            prtwf          -1
            rfdir           1       1       1
           rfelfd           2
            rprim      5.2842000923E+00  0.0000000000E+00  3.0508343457E+00
                       1.7614000308E+00  4.9819916245E+00  3.0508343457E+00
                       0.0000000000E+00  0.0000000000E+00  6.1016686915E+00
          spgroup         216
           symrel      1  0  0   0  1  0   0  0  1       0 -1  1   0 -1  0   1 -1  0
                      -1  0  0  -1  0  1  -1  1  0       0  1 -1   1  0 -1   0  0 -1
                      -1  0  0  -1  1  0  -1  0  1       0 -1  1   1 -1  0   0 -1  0
                       1  0  0   0  0  1   0  1  0       0  1 -1   0  0 -1   1  0 -1
                      -1  0  1  -1  1  0  -1  0  0       0 -1  0   1 -1  0   0 -1  1
                       1  0 -1   0  0 -1   0  1 -1       0  1  0   0  0  1   1  0  0
                       1  0 -1   0  1 -1   0  0 -1       0 -1  0   0 -1  1   1 -1  0
                      -1  0  1  -1  0  0  -1  1  0       0  1  0   1  0  0   0  0  1
                       0  0 -1   0  1 -1   1  0 -1       1 -1  0   0 -1  1   0 -1  0
                       0  0  1   1  0  0   0  1  0      -1  1  0  -1  0  0  -1  0  1
                       0  0  1   0  1  0   1  0  0       1 -1  0   0 -1  0   0 -1  1
                       0  0 -1   1  0 -1   0  1 -1      -1  1  0  -1  0  1  -1  0  0
           tolwfr      1.00000000E-20
            typat      1  2
           useylm           1
              wtk        0.50000    0.50000
           xangst      0.0000000000E+00  0.0000000000E+00  0.0000000000E+00
                       2.7962782545E+00  1.9772673158E+00  4.8432960088E+00
            xcart      0.0000000000E+00  0.0000000000E+00  0.0000000000E+00
                       5.2842000923E+00  3.7364937184E+00  9.1525030372E+00
             xred      0.0000000000E+00  0.0000000000E+00  0.0000000000E+00
                       7.5000000000E-01  7.5000000000E-01  7.5000000000E-01
            znucl       32.00000    6.00000

 chkinp: Checking input parameters for consistency.

== DATASET  1 ==================================================================
-   mpi_nproc: 1, omp_nthreads: -1 (-1 if OMP is not activated)

--- !DatasetInfo
iteration_state: {dtset: 1, }
dimensions: {natom: 2, nkpt: 2, mband: 18, nsppol: 1, nspinor: 1, nspden: 1, mpw: 2044, }
cutoff_energies: {ecut:  41.0, pawecutdg:  -1.0, }
electrons: {nelect:   1.80000000E+01, charge:   0.00000000E+00, occopt:   1.00000000E+00, tsmear:   1.00000000E-02, }
meta: {optdriver: 1, rfelfd: 2, }
...

 Real(R)+Recip(G) space primitive vectors, cartesian coordinates (Bohr,Bohr^-1):
 R(1)=  5.2842001  0.0000000  3.0508343  G(1)=  0.1892434 -0.0669076  0.0000000
 R(2)=  1.7614000  4.9819916  3.0508343  G(2)=  0.0000000  0.2007229  0.0000000
 R(3)=  0.0000000  0.0000000  6.1016687  G(3)= -0.0946217 -0.0669076  0.1638896
 Unit cell volume ucvol=  1.6063156E+02 bohr^3
 Angles (23,13,12)=  6.00000000E+01  6.00000000E+01  6.00000000E+01 degrees

 getcut: wavevector=  0.0000  0.0000  0.0000  ngfft=  36  36  36
         ecut(hartree)=     41.000   => boxcut(ratio)=   2.04690

--- Pseudopotential description ------------------------------------------------
- pspini: atom type   1  psp file is /scratch/users/j/a/jabreu/pseudos/PBEsol/Ge.psp8
- pspatm: opening atomic psp file    /scratch/users/j/a/jabreu/pseudos/PBEsol/Ge.psp8
- Ge    ONCVPSP-3.3.0  r_core=   1.91022   1.82122   1.91022
- 32.00000  14.00000    180112                znucl, zion, pspdat
    8 -116133    2    4       600   0.00000   pspcod,pspxc,lmax,lloc,mmax,r2well
    5.99000000000000    5.00000000000000    0.00000000000000   rchrg,fchrg,qchrg
     nproj     2     2     2
     extension_switch     1
  pspatm : epsatm=   30.86751540
         --- l  ekb(1:nproj) -->
             0    6.339734    0.583066
             1    3.813259    0.738801
             2   -9.332373   -3.602819
 pspatm: atomic psp has been read  and splines computed

- pspini: atom type   2  psp file is /scratch/users/j/a/jabreu/pseudos/PBEsol/C.psp8
- pspatm: opening atomic psp file    /scratch/users/j/a/jabreu/pseudos/PBEsol/C.psp8
- C     ONCVPSP-3.3.0  r_core=   1.20440   1.26326
-  6.00000   4.00000    180112                znucl, zion, pspdat
    8 -116133    1    4       600   0.00000   pspcod,pspxc,lmax,lloc,mmax,r2well
    5.99000000000000    4.00000000000000    0.00000000000000   rchrg,fchrg,qchrg
     nproj     2     2
     extension_switch     1
  pspatm : epsatm=    4.34909529
         --- l  ekb(1:nproj) -->
             0    6.468939    0.390031
             1   -4.179695   -0.878453
 pspatm: atomic psp has been read  and splines computed

   6.33898993E+02                                ecore*ucvol(ha*bohr**3)

-inwffil : will read wavefunctions from disk file /scratch/users/j/a/jabreu/flow_simple2/flow/w178/t1/indata/in_WFK

 ==>  initialize data related to q vector <==

 The list of irreducible perturbations for this q vector is:
    1)    idir= 1    ipert=   3
    2)    idir= 2    ipert=   3
    3)    idir= 3    ipert=   3

 Perturbation wavevector (in red.coord.)   0.000000  0.000000  0.000000
 Perturbation : derivative vs k along direction   1

 dfpt_looppert : COMMENT -
  In a d/dk calculation, iscf is set to -3 automatically.
 The set of symmetries contains only one element for this perturbation.
 symkpt : not enough symmetry to change the number of k points.

[...]

 Initialisation of the first-order wave-functions :
  ireadwf=   0

--- !BeginCycle
iteration_state: {dtset: 1, }
solver: {iscf: 7, nstep: 100, nline: 4, wfoptalg: 0, }
tolerances: {tolwfr: 1.00E-20, }
...

     iter   2DEtotal(Ha)        deltaE(Ha) residm    vres2
-ETOT  1  -80.486390585972     -8.049E+01 7.448E-02 0.000E+00
 ETOT  2  -80.512708857842     -2.632E-02 6.738E-04 0.000E+00
 ETOT  3  -80.512728226934     -1.937E-05 7.825E-06 0.000E+00
 ETOT  4  -80.512728264598     -3.766E-08 1.030E-07 0.000E+00
 ETOT  5  -80.512728264705     -1.063E-10 1.737E-09 0.000E+00
 ETOT  6  -80.512728264705     -3.411E-13 2.155E-11 0.000E+00
 ETOT  7  -80.512728264705     -2.842E-14 4.078E-13 0.000E+00
 ETOT  8  -80.512728264705     -8.527E-14 4.869E-15 0.000E+00
 ETOT  9  -80.512728264705      1.421E-14 9.817E-17 0.000E+00
 ETOT 10  -80.512728264705      0.000E+00 1.141E-18 0.000E+00
 ETOT 11  -80.512728264705      0.000E+00 2.394E-20 0.000E+00
 ETOT 12  -80.512728264705     -1.421E-14 9.062E-21 0.000E+00

 At SCF step   12   max residual=  9.06E-21 < tolwfr=  1.00E-20 =>converged.

 ----iterations are completed or convergence reached----

 dfpt_looppert: DFPT cycle converged with prtwf=-1. Will skip output of the 1st-order WFK file.
 dfpt_looppert : ek2=    5.7260647054E+01
          f-sum rule ratio=    1.5794234750E+00
 prteigrs : about to open file /scratch/users/j/a/jabreu/flow_simple2/flow/w178/t1/tmpdata/tmp_1WF1_EIG
 Expectation of eigenvalue derivatives (hartree) for nkpt=   2  k points:
  (in case of degenerate eigenvalues, averaged derivative)
 kpt#   1, nband= 18, wtk=  0.50000, kpt=  0.0000  0.0000  0.0000 (reduced coord)
   0.00000    0.00000    0.00000    0.00000    0.00000    0.00000   -0.00000   -0.00000
  -0.00000    0.00000    0.00000    0.00000    0.00000    0.00000    0.00000   -0.22812
   0.00000    0.00000
 prteigrs : prtvol=0 or 1, do not print more k-points.

 Eight components of 2nd-order total energy (hartree) are
 1,2,3: 0th-order hamiltonian combined with 1st-order wavefunctions
     kin0=   5.94452234E+01 eigvalue=   5.08911599E+00  local=  -1.71850177E+01
 4,5,6: 1st-order hamiltonian combined with 1st and 0th-order wfs
     kin1=  -9.04388101E+01  Hartree=   0.00000000E+00     xc=   0.00000000E+00
 7,8,9: eventually, occupation + non-local contributions
    edocc=   2.87276852E+01     enl0=   4.43572138E+00   enl1=  -7.05866464E+01
 1-9 gives the relaxation energy (to be shifted if some occ is /=2.0)
   erelax=  -8.05127283E+01
  No Ewald or frozen-wf contrib.: the relaxation energy is the total one
 2DEtotal=   -0.8051272826E+02 Ha. Also 2DEtotal=   -0.219086275443E+04 eV
    (  non-var. 2DEtotal :   -8.0512728265E+01 Ha)

 Perturbation wavevector (in red.coord.)   0.000000  0.000000  0.000000
 Perturbation : derivative vs k along direction   2
 The set of symmetries contains only one element for this perturbation.
 symkpt : not enough symmetry to change the number of k points.

[...]

 Perturbation wavevector (in red.coord.)   0.000000  0.000000  0.000000
 Perturbation : derivative vs k along direction   3
 The set of symmetries contains only one element for this perturbation.
 symkpt : not enough symmetry to change the number of k points.

-inwffil : will read wavefunctions from disk file /scratch/users/j/a/jabreu/flow_simple2/flow/w178/t1/indata/in_WFK

 Initialisation of the first-order wave-functions :
  ireadwf=   0

--- !BeginCycle
iteration_state: {dtset: 1, }
solver: {iscf: 7, nstep: 100, nline: 4, wfoptalg: 0, }
tolerances: {tolwfr: 1.00E-20, }
...

     iter   2DEtotal(Ha)        deltaE(Ha) residm    vres2
-ETOT  1  -80.485003810989     -8.049E+01 9.129E-02 0.000E+00
 ETOT  2  -80.512604027225     -2.760E-02 6.739E-04 0.000E+00
 ETOT  3  -80.512623062797     -1.904E-05 7.830E-06 0.000E+00
 ETOT  4  -80.512623095338     -3.254E-08 1.030E-07 0.000E+00
 ETOT  5  -80.512623095422     -8.458E-11 1.738E-09 0.000E+00
 ETOT  6  -80.512623095422     -2.842E-13 2.157E-11 0.000E+00
 ETOT  7  -80.512623095422     -1.421E-14 4.081E-13 0.000E+00
 ETOT  8  -80.512623095423     -5.684E-14 8.765E-15 0.000E+00
 ETOT  9  -80.512623095422      5.684E-14 1.223E-16 0.000E+00
 ETOT 10  -80.512623095422      2.842E-14 6.772E-18 0.000E+00
 ETOT 11  -80.512623095422      0.000E+00 9.911E-20 0.000E+00
 ETOT 12  -80.512623095422      0.000E+00 8.136E-21 0.000E+00

 At SCF step   12   max residual=  8.14E-21 < tolwfr=  1.00E-20 =>converged.

 ----iterations are completed or convergence reached----

 dfpt_looppert: DFPT cycle converged with prtwf=-1. Will skip output of the 1st-order WFK file.
 dfpt_looppert : ek2=    5.7260647053E+01
          f-sum rule ratio=    1.5794210620E+00
 prteigrs : about to open file /scratch/users/j/a/jabreu/flow_simple2/flow/w178/t1/tmpdata/tmp_1WF1_EIG
 Expectation of eigenvalue derivatives (hartree) for nkpt=   2  k points:
  (in case of degenerate eigenvalues, averaged derivative)
 kpt#   1, nband= 18, wtk=  0.50000, kpt=  0.0000  0.0000  0.0000 (reduced coord)
   0.00000    0.00000    0.00000   -0.00000   -0.00000   -0.00000    0.00000    0.00000
   0.00000   -0.00000   -0.00000   -0.00000   -0.00000   -0.00000    0.00000   -0.02880
  -0.00000   -0.00000
 prteigrs : prtvol=0 or 1, do not print more k-points.

 Eight components of 2nd-order total energy (hartree) are
 1,2,3: 0th-order hamiltonian combined with 1st-order wavefunctions
     kin0=   5.96435676E+01 eigvalue=   5.09041820E+00  local=  -1.72627894E+01
 4,5,6: 1st-order hamiltonian combined with 1st and 0th-order wfs
     kin1=  -9.04386720E+01  Hartree=   0.00000000E+00     xc=   0.00000000E+00
 7,8,9: eventually, occupation + non-local contributions
    edocc=   2.86226694E+01     enl0=   4.41875724E+00   enl1=  -7.05865742E+01
 1-9 gives the relaxation energy (to be shifted if some occ is /=2.0)
   erelax=  -8.05126231E+01
  No Ewald or frozen-wf contrib.: the relaxation energy is the total one
 2DEtotal=   -0.8051262310E+02 Ha. Also 2DEtotal=   -0.219085989263E+04 eV
    (  non-var. 2DEtotal :   -8.0512623095E+01 Ha)

 CALCULATION OF EFFECTIVE MASSES
 NOTE : Additional infos (eff. mass eigenvalues, eigenvectors and, if degenerate, average mass) are available in stdout.

 COMMENTS:
 - At k-point ( 0.000, 0.000, 0.000), bands     7 through     9
   are DEGENERATE (effective mass tensor is therefore not defined).
   See Section IIIB Eqs. (67)-(70) and Appendix E of PRB 93 205147 (2016).
 - Angular average effective mass for Frohlich model is to be averaged over degenerate bands. See later.
 - Associated theta integrals calculated with ntheta=   1000 points.

 K-point ( 0.000, 0.000, 0.000) | band =     7
 Transport equivalent effective mass tensor:
             -0.1872051655             -0.0000016150             -0.0000004744
             -0.0000016150             -0.1872123057              0.0000020156
             -0.0000004744              0.0000020156             -0.1872028650
 Transport equivalent effective mass tensor eigenvalues:
             -0.1872130023             -0.1872051089             -0.1872022249
 Angular average effective mass 1/(<1/m>)=  -0.1633210119
 Angular average effective mass for Frohlich model (<m**0.5>)**2=  -0.1647660389
 Effective masses along directions: (cart. coord. / red. coord. -> eff. mass)
    1:   1.000000  0.000000  0.000000 /   0.948683  0.316228  0.000000 ->  -0.1528413832
    2:   0.000000  1.000000  0.000000 /   0.000000  1.000000  0.000000 ->  -0.1419032967
    3:   0.000000  0.000000  1.000000 /   0.408248  0.408248  0.816497 ->  -0.1565467563
    4:   0.577350  0.577350  0.577350 /   0.585539  0.688047  0.428644 ->  -0.1529774352
    5:   0.000000  0.707107  0.707107 /   0.289489  0.762222  0.578977 ->  -0.1729472475
    6:   0.707107  0.000000  0.707107 /   0.731423  0.422287  0.535439 ->  -0.1546130665
    7:   0.707107  0.707107  0.000000 /   0.616798  0.787122  0.000000 ->  -0.2092664802

[...]

 K-point ( 0.000, 0.000, 0.000) | band =     9
 Transport equivalent effective mass tensor:
            -12.8503732616              0.0004198144             -0.0003649263
              0.0004198144            -12.8481260366             -0.0002526903
             -0.0003649263             -0.0002526903            -12.8506631749
 Transport equivalent effective mass tensor eigenvalues:
            -12.8509111679            -12.8502388026            -12.8480125026
 Angular average effective mass 1/(<1/m>)=  -1.1702613995
 Angular average effective mass for Frohlich model (<m**0.5>)**2=  -1.4265362806
 Effective masses along directions: (cart. coord. / red. coord. -> eff. mass)
    1:   1.000000  0.000000  0.000000 /   0.948683  0.316228  0.000000 ->  -1.2936404138
    2:   0.000000  1.000000  0.000000 /   0.000000  1.000000  0.000000 ->  -1.0785088031
    3:   0.000000  0.000000  1.000000 /   0.408248  0.408248  0.816497 ->  -3.7168034898
    4:   0.577350  0.577350  0.577350 /   0.585539  0.688047  0.428644 ->  -1.5538554724
    5:   0.000000  0.707107  0.707107 /   0.289489  0.762222  0.578977 ->  -1.0745445718
    6:   0.707107  0.000000  0.707107 /   0.731423  0.422287  0.535439 ->  -2.1424093450
    7:   0.707107  0.707107  0.000000 /   0.616798  0.787122  0.000000 ->  -0.5169787521

 Angular average effective mass for Frohlich model, averaged over degenerate bands.
 Value of     (<<m**0.5>>)**2 =     6.032027E-01
 Absolute Value of <<m**0.5>> =     7.766613E-01

 K-point ( 0.500, 0.000, 0.500) | band =    10
 Effective mass tensor:
              0.3637608797             -0.1782979081              0.2183694485
             -0.1782979081              0.4898365396             -0.3088210355
              0.2183694485             -0.3088210355              0.6159121997
 Effective mass tensor eigenvalues:
              0.2376852198              0.2376852201              0.9941391791
 Angular average effective mass 1/(<1/m>)=   0.3184582962
 Angular average effective mass for Frohlich model (<m**0.5>)**2=   0.3509066559
 Effective masses along directions: (cart. coord. / red. coord. -> eff. mass)
    1:   1.000000  0.000000  0.000000 /   0.948683  0.316228  0.000000 ->   0.2722061049
    2:   0.000000  1.000000  0.000000 /   0.000000  1.000000  0.000000 ->   0.3184582962
    3:   0.000000  0.000000  1.000000 /   0.408248  0.408248  0.816497 ->   0.3836458992
    4:   0.577350  0.577350  0.577350 /   0.585539  0.688047  0.428644 ->   0.2565175213
    5:   0.000000  0.707107  0.707107 /   0.289489  0.762222  0.578977 ->   0.2392175656
    6:   0.707107  0.000000  0.707107 /   0.731423  0.422287  0.535439 ->   0.4512679167
    7:   0.707107  0.707107  0.000000 /   0.616798  0.787122  0.000000 ->   0.2402995209

 END OF EFFECTIVE MASSES SECTION

 ---- first-order wavefunction calculations are completed ----

 Total localisation tensor (bohr^2) in cartesian coordinates
  WARNING : still subject to testing - especially symmetries.
      direction              matrix element
   alpha     beta       real part   imaginary part
     1        1       3.0649025120    0.0000000000
     1        2       0.8668703592    0.0000000000
     1        3       2.1234206325    0.0000000000
     2        1       0.8668703592    0.0000000000
     2        2       2.4518796374    0.0000000000
     2        3       1.5014635056    0.0000000000
     3        1       2.1234206325    0.0000000000
     3        2       1.5014635056    0.0000000000
     3        3       5.5168089116    0.0000000000

 respfn : d/dk was computed, but no 2DTE, so no DDB output.

== END DATASET(S) ==============================================================

 -outvars: echo values of variables after computation  --------
            acell      1.0000000000E+00  1.0000000000E+00  1.0000000000E+00 Bohr
              amu      7.26100000E+01  1.20110000E+01
             ecut      4.10000000E+01 Hartree
           etotal     -8.0512623095E+01
            fcart      0.0000000000E+00  0.0000000000E+00  0.0000000000E+00
                       0.0000000000E+00  0.0000000000E+00  0.0000000000E+00
-          fftalg         512
           irdden           1
           irdwfk           1
           istwfk        1    1
              ixc     -116133
              kpt      0.00000000E+00  0.00000000E+00  0.00000000E+00
                       5.00000000E-01  2.46519033E-32  5.00000000E-01
           kptopt           0
P           mkmem           2
P          mkqmem           2
P          mk1mem           2
            natom           2
            nband          18
           nbdbuf           4
            ngfft          36      36      36
             nkpt           2
            nstep         100
             nsym          24
           ntypat           2
              occ      2.000000  2.000000  2.000000  2.000000  2.000000  2.000000
                       2.000000  2.000000  2.000000  0.000000  0.000000  0.000000
                       0.000000  0.000000  0.000000  0.000000  0.000000  0.000000
        optdriver           1
            prtwf          -1
            rfdir           1       1       1
           rfelfd           2
            rprim      5.2842000923E+00  0.0000000000E+00  3.0508343457E+00
                       1.7614000308E+00  4.9819916245E+00  3.0508343457E+00
                       0.0000000000E+00  0.0000000000E+00  6.1016686915E+00
          spgroup         216
           strten      0.0000000000E+00  0.0000000000E+00  0.0000000000E+00
                       0.0000000000E+00  0.0000000000E+00  0.0000000000E+00
           symrel      1  0  0   0  1  0   0  0  1       0 -1  1   0 -1  0   1 -1  0
                      -1  0  0  -1  0  1  -1  1  0       0  1 -1   1  0 -1   0  0 -1
                      -1  0  0  -1  1  0  -1  0  1       0 -1  1   1 -1  0   0 -1  0
                       1  0  0   0  0  1   0  1  0       0  1 -1   0  0 -1   1  0 -1
                      -1  0  1  -1  1  0  -1  0  0       0 -1  0   1 -1  0   0 -1  1
                       1  0 -1   0  0 -1   0  1 -1       0  1  0   0  0  1   1  0  0
                       1  0 -1   0  1 -1   0  0 -1       0 -1  0   0 -1  1   1 -1  0
                      -1  0  1  -1  0  0  -1  1  0       0  1  0   1  0  0   0  0  1
                       0  0 -1   0  1 -1   1  0 -1       1 -1  0   0 -1  1   0 -1  0
                       0  0  1   1  0  0   0  1  0      -1  1  0  -1  0  0  -1  0  1
                       0  0  1   0  1  0   1  0  0       1 -1  0   0 -1  0   0 -1  1
                       0  0 -1   1  0 -1   0  1 -1      -1  1  0  -1  0  1  -1  0  0
           tolwfr      1.00000000E-20
            typat      1  2
           useylm           1
              wtk        0.50000    0.50000
           xangst      0.0000000000E+00  0.0000000000E+00  0.0000000000E+00
                       2.7962782545E+00  1.9772673158E+00  4.8432960088E+00
            xcart      0.0000000000E+00  0.0000000000E+00  0.0000000000E+00
                       5.2842000923E+00  3.7364937184E+00  9.1525030372E+00
             xred      0.0000000000E+00  0.0000000000E+00  0.0000000000E+00
                       7.5000000000E-01  7.5000000000E-01  7.5000000000E-01
            znucl       32.00000    6.00000

- Timing analysis has been suppressed with timopt=0

 Suggested references for the acknowledgment of ABINIT usage.

 Calculation completed.
.Delivered  14 WARNINGs and   9 COMMENTs to log file.