.Version 9.5.2 of ABINIT

 ABINIT is a project of the Universite Catholique de Louvain,
 Corning Inc. and other collaborators, see ~abinit/doc/developers/contributors.txt .
 acknowledgments of the ABINIT effort.

.Starting date : Mon 31 May 2021.
- ( at 22h26 )

- input  file    -> /scratch/users/j/a/jabreu/flow_simple_11atoms/flow/w362/t1/run.abi
- output file    -> /scratch/users/j/a/jabreu/flow_simple_11atoms/flow/w362/t1/run.abo
- root for input  files -> /scratch/users/j/a/jabreu/flow_simple_11atoms/flow/w362/t1/indata/in
- root for output files -> /scratch/users/j/a/jabreu/flow_simple_11atoms/flow/w362/t1/outdata/out

 Symmetries : space group Cm c 2_1 (# 36); Bravais oC (1-face-center ortho.)
     intxc =       0      iscf =       7    lmnmax =      18     lnmax =       6
     mgfft =      64  mpssoang =       3    mqgrid =    3001     natom =      12
  nloc_mem =       1    nspden =       1   nspinor =       1    nsppol =       1
      nsym =       4    n1xccc =    2501    ntypat =       3    occopt =       1
   xclevel =       2
-    mband =          47        mffmem =           1         mkmem =           2
-   mkqmem =           2        mk1mem =           2           mpw =       11996
      nfft =      245760          nkpt =           2
  Rough estimation (10% accuracy) of disk space for files :

------------- Echo of variables that govern the present computation ------------
-
- outvars: echo of selected default values
-   iomode0 =  0 , fftalg0 =512 , wfoptalg0 =  0
-
- outvars: echo of global parameters not present in the input file
-  max_nthreads =    0
-
 -outvars: echo values of preprocessed input variables --------
            acell      1.0000000000E+00  1.0000000000E+00  1.0000000000E+00 Bohr
              amu      6.94100000E+00  7.26100000E+01  1.59994000E+01
             ecut      4.40000000E+01 Hartree
-          fftalg         512
           irdden           1
           irdwfk           1
           istwfk        0    1
              ixc     -116133
              kpt      0.00000000E+00  0.00000000E+00  4.75000000E-01
                       0.00000000E+00  0.00000000E+00  0.00000000E+00
           kptopt           0
P           mkmem           2
P          mkqmem           2
P          mk1mem           2
            natom          12
            nband          47
           nbdbuf           4
            ngfft          64      64      60
             nkpt           2
            nstep        2000
             nsym           4
           ntypat           3
              occ      2.000000  2.000000  2.000000  2.000000  2.000000  2.000000
                       2.000000  2.000000  2.000000  2.000000  2.000000  2.000000
                       2.000000  2.000000  2.000000  2.000000  2.000000  2.000000
                       2.000000  2.000000  2.000000  2.000000  2.000000  2.000000
                       2.000000  2.000000  2.000000  2.000000  2.000000  2.000000
                       2.000000  2.000000  2.000000  2.000000  2.000000  2.000000
                       2.000000  2.000000  0.000000  0.000000  0.000000  0.000000
                       0.000000  0.000000  0.000000  0.000000  0.000000
        optdriver           1
            prtwf          -1
            rfdir           1       1       1
           rfelfd           2
            rprim      1.0431862061E+01  0.0000000000E+00  0.0000000000E+00
                      -5.3304621740E+00  8.9671578035E+00  0.0000000000E+00
                       0.0000000000E+00  0.0000000000E+00  9.1683987708E+00
          spgroup          36
           symrel      1  0  0   0  1  0   0  0  1       0 -1  0  -1  0  0   0  0  1
                      -1  0  0   0 -1  0   0  0  1       0  1  0   1  0  0   0  0  1
            tnons      0.0000000  0.0000000  0.0000000     0.0000000 -0.0000000  0.5000000
                       0.0000000 -0.0000000  0.5000000     0.0000000  0.0000000  0.0000000
           tolwfr      1.00000000E-20
            typat      1  1  1  1  2  2  3  3  3  3  3  3
           useylm           1
              wtk        0.50000    0.50000
           xangst     -5.3803896139E-01  2.4532052536E+00  4.7976887556E+00
                       3.2375835135E+00  2.2920102819E+00  2.3718349212E+00
                       3.1585937499E-01  3.9541738700E+00  2.3718349212E+00
                       2.3836851772E+00  7.9104166540E-01  4.7976887556E+00
                       4.8362070697E-01  8.5010061796E-01  2.4146124277E+00
                       2.2159238452E+00  3.8951149175E+00  4.8404662621E+00
                       3.6820437919E-01  6.4722367296E-01  6.0268883003E-01
                       2.1423284083E+00  7.8375775956E-01  2.8679948059E+00
                      -4.2097192326E-01  2.2420146910E+00  2.8679948059E+00
                       2.3313401730E+00  4.0979918625E+00  3.0285426644E+00
                       3.1205164754E+00  2.5032008445E+00  4.4214097156E-01
                       5.5721614384E-01  3.9614577759E+00  4.4214097156E-01
            xcart     -1.0167462859E+00  4.6358860770E+00  9.0663178189E+00
                       6.1181461730E+00  4.3312717265E+00  4.4821184335E+00
                       5.9688771523E-01  7.4723056962E+00  4.4821184335E+00
                       4.5045121719E+00  1.4948521073E+00  9.0663178189E+00
                       9.1391068837E-01  1.6064573533E+00  4.5629562054E+00
                       4.1874891987E+00  7.3607004502E+00  9.1471555908E+00
                       6.9580543760E-01  1.2230754886E+00  1.1389168321E+00
                       4.0484139784E+00  1.4810875201E+00  5.4197247338E+00
                      -7.9552164460E-01  4.2367937518E+00  5.4197247338E+00
                       4.4055944495E+00  7.7440823149E+00  5.7231162175E+00
                       5.8969215317E+00  4.7303640517E+00  8.3552534838E-01
                       1.0529859087E+00  7.4860702834E+00  8.3552534838E-01
             xred      1.6670300000E-01  5.1698500000E-01  9.8886600000E-01
                       8.3329700000E-01  4.8301500000E-01  4.8886600000E-01
                       4.8301500000E-01  8.3329700000E-01  4.8886600000E-01
                       5.1698500000E-01  1.6670300000E-01  9.8886600000E-01
                       1.7914900000E-01  1.7914900000E-01  4.9768300000E-01
                       8.2085100000E-01  8.2085100000E-01  9.9768300000E-01
                       1.3639500000E-01  1.3639500000E-01  1.2422200000E-01
                       4.7247900000E-01  1.6516800000E-01  5.9113100000E-01
                       1.6516800000E-01  4.7247900000E-01  5.9113100000E-01
                       8.6360500000E-01  8.6360500000E-01  6.2422200000E-01
                       8.3483200000E-01  5.2752100000E-01  9.1131000000E-02
                       5.2752100000E-01  8.3483200000E-01  9.1131000000E-02
            znucl        3.00000   32.00000    8.00000

 chkinp: Checking input parameters for consistency.

== DATASET  1 ==================================================================
-   mpi_nproc: 1, omp_nthreads: -1 (-1 if OMP is not activated)

--- !DatasetInfo
iteration_state: {dtset: 1, }
dimensions: {natom: 12, nkpt: 2, mband: 47, nsppol: 1, nspinor: 1, nspden: 1, mpw: 11996, }
cutoff_energies: {ecut:  44.0, pawecutdg:  -1.0, }
electrons: {nelect:   7.60000000E+01, charge:   0.00000000E+00, occopt:   1.00000000E+00, tsmear:   1.00000000E-02, }
meta: {optdriver: 1, rfelfd: 2, }
...

 Real(R)+Recip(G) space primitive vectors, cartesian coordinates (Bohr,Bohr^-1):
 R(1)= 10.4318621  0.0000000  0.0000000  G(1)=  0.0958602  0.0569834  0.0000000
 R(2)= -5.3304622  8.9671578  0.0000000  G(2)=  0.0000000  0.1115181  0.0000000
 R(3)=  0.0000000  0.0000000  9.1683988  G(3)=  0.0000000  0.0000000  0.1090703
 Unit cell volume ucvol=  8.5765010E+02 bohr^3
 Angles (23,13,12)=  9.00000000E+01  9.00000000E+01  1.20729061E+02 degrees

 getcut: wavevector=  0.0000  0.0000  0.0000  ngfft=  64  64  60
         ecut(hartree)=     44.000   => boxcut(ratio)=   2.05476

--- Pseudopotential description ------------------------------------------------
- pspini: atom type   1  psp file is /scratch/users/j/a/jabreu/pseudos/PBEsol/Li.psp8
- pspatm: opening atomic psp file    /scratch/users/j/a/jabreu/pseudos/PBEsol/Li.psp8
- Li    ONCVPSP-3.3.0  r_core=   1.40824   1.10935
-  3.00000   3.00000    180112                znucl, zion, pspdat
    8 -116133    1    4       400   0.00000   pspcod,pspxc,lmax,lloc,mmax,r2well
    3.99000000000000    0.00000000000000    0.00000000000000   rchrg,fchrg,qchrg
     nproj     2     2
     extension_switch     1
  pspatm : epsatm=    2.60859637
         --- l  ekb(1:nproj) -->
             0   -4.855856   -1.482423
             1   -2.171544   -0.427615
 pspatm: atomic psp has been read  and splines computed

- pspini: atom type   2  psp file is /scratch/users/j/a/jabreu/pseudos/PBEsol/Ge.psp8
- pspatm: opening atomic psp file    /scratch/users/j/a/jabreu/pseudos/PBEsol/Ge.psp8
- Ge    ONCVPSP-3.3.0  r_core=   1.91022   1.82122   1.91022
- 32.00000  14.00000    180112                znucl, zion, pspdat
    8 -116133    2    4       600   0.00000   pspcod,pspxc,lmax,lloc,mmax,r2well
    5.99000000000000    5.00000000000000    0.00000000000000   rchrg,fchrg,qchrg
     nproj     2     2     2
     extension_switch     1
  pspatm : epsatm=   30.86751540
         --- l  ekb(1:nproj) -->
             0    6.339734    0.583066
             1    3.813259    0.738801
             2   -9.332373   -3.602819
 pspatm: atomic psp has been read  and splines computed

- pspini: atom type   3  psp file is /scratch/users/j/a/jabreu/pseudos/PBEsol/O.psp8
- pspatm: opening atomic psp file    /scratch/users/j/a/jabreu/pseudos/PBEsol/O.psp8
- O     ONCVPSP-3.3.0  r_core=   1.35509   1.45563   1.26150
-  8.00000   6.00000    180112                znucl, zion, pspdat
    8 -116133    2    4       600   0.00000   pspcod,pspxc,lmax,lloc,mmax,r2well
    5.99000000000000    4.00000000000000    0.00000000000000   rchrg,fchrg,qchrg
     nproj     2     2     1
     extension_switch     1
  pspatm : epsatm=    6.22910522
         --- l  ekb(1:nproj) -->
             0    6.050032    0.820363
             1   -4.739617   -1.153841
             2   -1.335834
 pspatm: atomic psp has been read  and splines computed

   8.32534762E+03                                ecore*ucvol(ha*bohr**3)

 ==>  initialize data related to q vector <==

 The list of irreducible perturbations for this q vector is:
    1)    idir= 1    ipert=  13
    2)    idir= 2    ipert=  13
    3)    idir= 3    ipert=  13

 Perturbation wavevector (in red.coord.)   0.000000  0.000000  0.000000
 Perturbation : derivative vs k along direction   1

 dfpt_looppert : COMMENT -
  In a d/dk calculation, iscf is set to -3 automatically.
 The set of symmetries contains only one element for this perturbation.
 symkpt : not enough symmetry to change the number of k points.

 Initialisation of the first-order wave-functions :
  ireadwf=   0

--- !BeginCycle
iteration_state: {dtset: 1, }
solver: {iscf: 7, nstep: 2000, nline: 4, wfoptalg: 0, }
tolerances: {tolwfr: 1.00E-20, }
...

     iter   2DEtotal(Ha)        deltaE(Ha) residm    vres2
[...]
 prteigrs : about to open file /scratch/users/j/a/jabreu/flow_simple_11atoms/flow/w362/t1/tmpdata/tmp_1WF1_EIG
 Expectation of eigenvalue derivatives (hartree) for nkpt=   2  k points:
  (in case of degenerate eigenvalues, averaged derivative)
 kpt#   1, nband= 47, wtk=  0.50000, kpt=  0.0000  0.0000  0.4750 (reduced coord)
  -0.00000    0.00000    0.00000   -0.00000   -0.00000   -0.00000    0.00000    0.00000
   0.00000   -0.00000    0.00000    0.00000   -0.00000    0.00000    0.00000    0.00000
  -0.00000   -0.00000    0.00000   -0.00000   -0.00000   -0.00000    0.00000   -0.00000
  -0.00000   -0.00000    0.00000   -0.00000   -0.00000   -0.00000    0.00000    0.00000
   0.00000    0.00000   -0.00000    0.00000    0.00000    0.00000   -0.00000    0.00000
  -0.00000    0.00000   -0.00000    0.00000    0.00000   -0.00000   -0.00380
 prteigrs : prtvol=0 or 1, do not print more k-points.

 Eight components of 2nd-order total energy (hartree) are
 1,2,3: 0th-order hamiltonian combined with 1st-order wavefunctions
     kin0=   7.44584842E+01 eigvalue=   7.30542258E+00  local=  -2.72445273E+01
 4,5,6: 1st-order hamiltonian combined with 1st and 0th-order wfs
     kin1=  -7.58598719E+01  Hartree=   0.00000000E+00     xc=   0.00000000E+00
 7,8,9: eventually, occupation + non-local contributions
    edocc=   5.63414599E+00     enl0=   7.93502036E-01   enl1=  -4.60341832E+01
 1-9 gives the relaxation energy (to be shifted if some occ is /=2.0)
   erelax=  -6.09470275E+01
  No Ewald or frozen-wf contrib.: the relaxation energy is the total one
 2DEtotal=   -0.6094702752E+02 Ha. Also 2DEtotal=   -0.165845296088E+04 eV
    (  non-var. 2DEtotal :   -6.0947027516E+01 Ha)

 Perturbation wavevector (in red.coord.)   0.000000  0.000000  0.000000
 Perturbation : derivative vs k along direction   2
 The set of symmetries contains only one element for this perturbation.
 symkpt : not enough symmetry to change the number of k points.

[...]

 Perturbation wavevector (in red.coord.)   0.000000  0.000000  0.000000
 Perturbation : derivative vs k along direction   3
 The set of symmetries contains only one element for this perturbation.
 symkpt : not enough symmetry to change the number of k points.

 Initialisation of the first-order wave-functions :
  ireadwf=   0

--- !BeginCycle
iteration_state: {dtset: 1, }
solver: {iscf: 7, nstep: 2000, nline: 4, wfoptalg: 0, }
tolerances: {tolwfr: 1.00E-20, }
...

     iter   2DEtotal(Ha)        deltaE(Ha) residm    vres2
-ETOT  1  -58.221419108945     -5.822E+01 8.430E-02 0.000E+00
 ETOT  2  -58.266307245526     -4.489E-02 5.052E-03 0.000E+00
 ETOT  3  -58.266412599969     -1.054E-04 1.382E-04 0.000E+00
 ETOT  4  -58.266413285233     -6.853E-07 4.556E-05 0.000E+00
 ETOT  5  -58.266413291515     -6.283E-09 7.124E-06 0.000E+00
 ETOT  6  -58.266413291582     -6.603E-11 3.852E-06 0.000E+00
 ETOT  7  -58.266413291582     -8.029E-13 6.073E-07 0.000E+00
 ETOT  8  -58.266413291582      4.974E-14 3.373E-07 0.000E+00
 ETOT  9  -58.266413291582     -2.132E-14 5.266E-08 0.000E+00
 ETOT 10  -58.266413291582     -1.421E-14 2.974E-08 0.000E+00
 ETOT 11  -58.266413291582      7.105E-15 4.603E-09 0.000E+00
 ETOT 12  -58.266413291582      0.000E+00 2.635E-09 0.000E+00
 ETOT 13  -58.266413291582      1.421E-14 4.045E-10 0.000E+00
 ETOT 14  -58.266413291582     -1.421E-14 2.341E-10 0.000E+00
 ETOT 15  -58.266413291582      2.132E-14 3.570E-11 0.000E+00
 ETOT 16  -58.266413291582     -1.421E-14 2.084E-11 0.000E+00
 ETOT 17  -58.266413291582      1.421E-14 3.160E-12 0.000E+00
 ETOT 18  -58.266413291582      7.105E-15 1.860E-12 0.000E+00
 ETOT 19  -58.266413291582      0.000E+00 2.806E-13 0.000E+00
 ETOT 20  -58.266413291582     -7.105E-15 1.662E-13 0.000E+00
 ETOT 21  -58.266413291582      0.000E+00 2.498E-14 0.000E+00
 ETOT 22  -58.266413291582      0.000E+00 1.487E-14 0.000E+00
 ETOT 23  -58.266413291582     -7.105E-15 2.228E-15 0.000E+00
 ETOT 24  -58.266413291582      0.000E+00 1.332E-15 0.000E+00
 ETOT 25  -58.266413291582      0.000E+00 1.991E-16 0.000E+00
 ETOT 26  -58.266413291582      2.132E-14 1.196E-16 0.000E+00
 ETOT 27  -58.266413291582     -2.842E-14 1.783E-17 0.000E+00
 ETOT 28  -58.266413291582      7.105E-15 1.074E-17 0.000E+00
 ETOT 29  -58.266413291582      0.000E+00 1.600E-18 0.000E+00
 ETOT 30  -58.266413291582      7.105E-15 9.666E-19 0.000E+00
 ETOT 31  -58.266413291582      1.421E-14 1.438E-19 0.000E+00
 ETOT 32  -58.266413291582     -7.105E-15 8.710E-20 0.000E+00
 ETOT 33  -58.266413291582      1.421E-14 1.294E-20 0.000E+00
 ETOT 34  -58.266413291582     -1.421E-14 9.600E-21 0.000E+00

 At SCF step   34   max residual=  9.60E-21 < tolwfr=  1.00E-20 =>converged.

 ----iterations are completed or convergence reached----

 dfpt_looppert: DFPT cycle converged with prtwf=-1. Will skip output of the 1st-order WFK file.
 dfpt_looppert : ek2=    7.1386540540E+01
          f-sum rule ratio=    1.0129936164E+00
 prteigrs : about to open file /scratch/users/j/a/jabreu/flow_simple_11atoms/flow/w362/t1/tmpdata/tmp_1WF1_EIG
 Expectation of eigenvalue derivatives (hartree) for nkpt=   2  k points:
  (in case of degenerate eigenvalues, averaged derivative)
 kpt#   1, nband= 47, wtk=  0.50000, kpt=  0.0000  0.0000  0.4750 (reduced coord)
   0.00142   -0.00142    0.00003   -0.00003    0.00240   -0.00197    0.00025   -0.00026
   0.00613   -0.00644    0.00198   -0.00205    0.00077   -0.00077    0.09317   -0.09720
   0.01843   -0.01743    0.00200   -0.00214    0.09213   -0.09896    0.09941    0.08607
  -0.08106   -0.08985    0.13531   -0.14194    0.01501   -0.01784    0.00807   -0.00417
   0.00398   -0.00490    0.02219   -0.02295    0.01075    0.00010    0.17748   -0.16456
  -0.00495   -0.04074    0.06699   -0.06219    0.03767   -0.02973   -0.00432
 prteigrs : prtvol=0 or 1, do not print more k-points.

 Eight components of 2nd-order total energy (hartree) are
 1,2,3: 0th-order hamiltonian combined with 1st-order wavefunctions
     kin0=   6.96595186E+01 eigvalue=   6.89858397E+00  local=  -2.50529229E+01
 4,5,6: 1st-order hamiltonian combined with 1st and 0th-order wfs
     kin1=  -7.23141099E+01  Hartree=   0.00000000E+00     xc=   0.00000000E+00
 7,8,9: eventually, occupation + non-local contributions
    edocc=   6.24053168E+00     enl0=   5.20701906E-01   enl1=  -4.42187167E+01
 1-9 gives the relaxation energy (to be shifted if some occ is /=2.0)
   erelax=  -5.82664133E+01
  No Ewald or frozen-wf contrib.: the relaxation energy is the total one
 2DEtotal=   -0.5826641329E+02 Ha. Also 2DEtotal=   -0.158550973822E+04 eV
    (  non-var. 2DEtotal :   -5.8266413291E+01 Ha)

 CALCULATION OF EFFECTIVE MASSES
 NOTE : Additional infos (eff. mass eigenvalues, eigenvectors and, if degenerate, average mass) are available in stdout.

 K-point ( 0.000, 0.000, 0.475) | band =    38
 Effective mass tensor:
             -4.3447609622             -3.6546053820             -0.0001098020
             -3.6546053820             -8.6874894451              0.0000814508
             -0.0001098020              0.0000814508             -2.2304258725
 Effective mass tensor eigenvalues:
            -10.7671207538             -2.2651301843             -2.2304253418
 Angular average effective mass 1/(<1/m>)=  -3.0528259574
 Angular average effective mass for Frohlich model (<m**0.5>)**2=  -3.4141135503
 Effective masses along directions: (cart. coord. / red. coord. -> eff. mass)
    1:   1.000000  0.000000  0.000000 /   0.890482 -0.455018  0.000000 ->  -2.8073616177
    2:   0.000000  1.000000  0.000000 /   0.000000  1.000000  0.000000 ->  -5.6134099565
    3:   0.000000  0.000000  1.000000 /   0.000000  0.000000  1.000000 ->  -2.2304258644
    4:   0.577350  0.577350  0.577350 /   0.726630  0.253314  0.638624 ->  -4.3924898081
    5:   0.000000  0.707107  0.707107 /   0.000000  0.699217  0.714909 ->  -3.1922493516
    6:   0.707107  0.000000  0.707107 /   0.701252 -0.358325  0.616319 ->  -2.4860001076
    7:   0.707107  0.707107  0.000000 /   0.944266  0.329184  0.000000 ->  -8.5230667629

 K-point ( 0.000, 0.000, 0.000) | band =    39
 Effective mass tensor:
              0.5651829108             -0.0116436013             -0.0000015355
             -0.0116436013              0.5513399823              0.0000007436
             -0.0000015355              0.0000007436              0.4577829725
 Effective mass tensor eigenvalues:
              0.4577829725              0.5447159632              0.5718069299
 Angular average effective mass 1/(<1/m>)=   0.5200115678
 Angular average effective mass for Frohlich model (<m**0.5>)**2=   0.5214740899
 Effective masses along directions: (cart. coord. / red. coord. -> eff. mass)
    1:   1.000000  0.000000  0.000000 /   0.890482 -0.455018  0.000000 ->   0.5649370127
    2:   0.000000  1.000000  0.000000 /   0.000000  1.000000  0.000000 ->   0.5511001070
    3:   0.000000  0.000000  1.000000 /   0.000000  0.000000  1.000000 ->   0.4577829725
    4:   0.577350  0.577350  0.577350 /   0.726630  0.253314  0.638624 ->   0.5133581393
    5:   0.000000  0.707107  0.707107 /   0.000000  0.699217  0.714909 ->   0.5001265386
    6:   0.707107  0.000000  0.707107 /   0.701252 -0.358325  0.616319 ->   0.5057450330
    7:   0.707107  0.707107  0.000000 /   0.944266  0.329184  0.000000 ->   0.5465337844

 END OF EFFECTIVE MASSES SECTION

 ---- first-order wavefunction calculations are completed ----

 Total localisation tensor (bohr^2) in cartesian coordinates
  WARNING : still subject to testing - especially symmetries.
      direction              matrix element
   alpha     beta       real part   imaginary part
     1        1       1.0091136867    0.0000000000
     1        2      -0.3514692244    0.0000000000
     1        3       0.0000000000    0.0000000000
     2        1      -0.3514692244    0.0000000000
     2        2       0.5912582991    0.0000000000
     2        3       0.0000000000    0.0000000000
     3        1       0.0000000000    0.0000000000
     3        2       0.0000000000    0.0000000000
     3        3       0.5922494187    0.0000000000

 respfn : d/dk was computed, but no 2DTE, so no DDB output.

== END DATASET(S) ==============================================================

 -outvars: echo values of variables after computation  --------
            acell      1.0000000000E+00  1.0000000000E+00  1.0000000000E+00 Bohr
              amu      6.94100000E+00  7.26100000E+01  1.59994000E+01
             ecut      4.40000000E+01 Hartree
           etotal     -5.8266413292E+01
            fcart      0.0000000000E+00  0.0000000000E+00  0.0000000000E+00
                       0.0000000000E+00  0.0000000000E+00  0.0000000000E+00
                       0.0000000000E+00  0.0000000000E+00  0.0000000000E+00
                       0.0000000000E+00  0.0000000000E+00  0.0000000000E+00
                       0.0000000000E+00  0.0000000000E+00  0.0000000000E+00
                       0.0000000000E+00  0.0000000000E+00  0.0000000000E+00
                       0.0000000000E+00  0.0000000000E+00  0.0000000000E+00
                       0.0000000000E+00  0.0000000000E+00  0.0000000000E+00
                       0.0000000000E+00  0.0000000000E+00  0.0000000000E+00
                       0.0000000000E+00  0.0000000000E+00  0.0000000000E+00
                       0.0000000000E+00  0.0000000000E+00  0.0000000000E+00
                       0.0000000000E+00  0.0000000000E+00  0.0000000000E+00
-          fftalg         512
           irdden           1
           irdwfk           1
           istwfk        0    1
              ixc     -116133
              kpt      0.00000000E+00  0.00000000E+00  4.75000000E-01
                       0.00000000E+00  0.00000000E+00  0.00000000E+00
           kptopt           0
P           mkmem           2
P          mkqmem           2
P          mk1mem           2
            natom          12
            nband          47
           nbdbuf           4
            ngfft          64      64      60
             nkpt           2
            nstep        2000
             nsym           4
           ntypat           3
              occ      2.000000  2.000000  2.000000  2.000000  2.000000  2.000000
                       2.000000  2.000000  2.000000  2.000000  2.000000  2.000000
                       2.000000  2.000000  2.000000  2.000000  2.000000  2.000000
                       2.000000  2.000000  2.000000  2.000000  2.000000  2.000000
                       2.000000  2.000000  2.000000  2.000000  2.000000  2.000000
                       2.000000  2.000000  2.000000  2.000000  2.000000  2.000000
                       2.000000  2.000000  0.000000  0.000000  0.000000  0.000000
                       0.000000  0.000000  0.000000  0.000000  0.000000
        optdriver           1
            prtwf          -1
            rfdir           1       1       1
           rfelfd           2
            rprim      1.0431862061E+01  0.0000000000E+00  0.0000000000E+00
                      -5.3304621740E+00  8.9671578035E+00  0.0000000000E+00
                       0.0000000000E+00  0.0000000000E+00  9.1683987708E+00
          spgroup          36
           strten      0.0000000000E+00  0.0000000000E+00  0.0000000000E+00
                       0.0000000000E+00  0.0000000000E+00  0.0000000000E+00
           symrel      1  0  0   0  1  0   0  0  1       0 -1  0  -1  0  0   0  0  1
                      -1  0  0   0 -1  0   0  0  1       0  1  0   1  0  0   0  0  1
            tnons      0.0000000  0.0000000  0.0000000     0.0000000 -0.0000000  0.5000000
                       0.0000000 -0.0000000  0.5000000     0.0000000  0.0000000  0.0000000
           tolwfr      1.00000000E-20
            typat      1  1  1  1  2  2  3  3  3  3  3  3
           useylm           1
              wtk        0.50000    0.50000
           xangst     -5.3803896139E-01  2.4532052536E+00  4.7976887556E+00
                       3.2375835135E+00  2.2920102819E+00  2.3718349212E+00
                       3.1585937499E-01  3.9541738700E+00  2.3718349212E+00
                       2.3836851772E+00  7.9104166540E-01  4.7976887556E+00
                       4.8362070697E-01  8.5010061796E-01  2.4146124277E+00
                       2.2159238452E+00  3.8951149175E+00  4.8404662621E+00
                       3.6820437919E-01  6.4722367296E-01  6.0268883003E-01
                       2.1423284083E+00  7.8375775956E-01  2.8679948059E+00
                      -4.2097192326E-01  2.2420146910E+00  2.8679948059E+00
                       2.3313401730E+00  4.0979918625E+00  3.0285426644E+00
                       3.1205164754E+00  2.5032008445E+00  4.4214097156E-01
                       5.5721614384E-01  3.9614577759E+00  4.4214097156E-01
            xcart     -1.0167462859E+00  4.6358860770E+00  9.0663178189E+00
                       6.1181461730E+00  4.3312717265E+00  4.4821184335E+00
                       5.9688771523E-01  7.4723056962E+00  4.4821184335E+00
                       4.5045121719E+00  1.4948521073E+00  9.0663178189E+00
                       9.1391068837E-01  1.6064573533E+00  4.5629562054E+00
                       4.1874891987E+00  7.3607004502E+00  9.1471555908E+00
                       6.9580543760E-01  1.2230754886E+00  1.1389168321E+00
                       4.0484139784E+00  1.4810875201E+00  5.4197247338E+00
                      -7.9552164460E-01  4.2367937518E+00  5.4197247338E+00
                       4.4055944495E+00  7.7440823149E+00  5.7231162175E+00
                       5.8969215317E+00  4.7303640517E+00  8.3552534838E-01
                       1.0529859087E+00  7.4860702834E+00  8.3552534838E-01
             xred      1.6670300000E-01  5.1698500000E-01  9.8886600000E-01
                       8.3329700000E-01  4.8301500000E-01  4.8886600000E-01
                       4.8301500000E-01  8.3329700000E-01  4.8886600000E-01
                       5.1698500000E-01  1.6670300000E-01  9.8886600000E-01
                       1.7914900000E-01  1.7914900000E-01  4.9768300000E-01
                       8.2085100000E-01  8.2085100000E-01  9.9768300000E-01
                       1.3639500000E-01  1.3639500000E-01  1.2422200000E-01
                       4.7247900000E-01  1.6516800000E-01  5.9113100000E-01
                       1.6516800000E-01  4.7247900000E-01  5.9113100000E-01
                       8.6360500000E-01  8.6360500000E-01  6.2422200000E-01
                       8.3483200000E-01  5.2752100000E-01  9.1131000000E-02
                       5.2752100000E-01  8.3483200000E-01  9.1131000000E-02
            znucl        3.00000   32.00000    8.00000

- Timing analysis has been suppressed with timopt=0

 Suggested references for the acknowledgment of ABINIT usage.

 Calculation completed.
.Delivered   2 WARNINGs and   5 COMMENTs to log file.