.Version 9.5.1 of ABINIT

 ABINIT is a project of the Universite Catholique de Louvain,
 Corning Inc. and other collaborators, see ~abinit/doc/developers/contributors.txt .
 acknowledgments of the ABINIT effort.

.Starting date : Tue 18 May 2021.
- ( at 13h19 )

- input  file    -> /scratch/users/j/a/jabreu/flow_simple_8atoms/flow/w339/t1/run.abi
- output file    -> /scratch/users/j/a/jabreu/flow_simple_8atoms/flow/w339/t1/run.abo
- root for input  files -> /scratch/users/j/a/jabreu/flow_simple_8atoms/flow/w339/t1/indata/in
- root for output files -> /scratch/users/j/a/jabreu/flow_simple_8atoms/flow/w339/t1/outdata/out

 Symmetries : space group Cm c m (# 63); Bravais oC (1-face-center ortho.)
     intxc =       0      iscf =       7    lmnmax =      18     lnmax =       6
     mgfft =      75  mpssoang =       3    mqgrid =    3462     natom =       8
  nloc_mem =       1    nspden =       1   nspinor =       1    nsppol =       1
      nsym =       8    n1xccc =    2501    ntypat =       3    occopt =       1
   xclevel =       2
-    mband =          61        mffmem =           1         mkmem =           2
-   mkqmem =           2        mk1mem =           2           mpw =       21709
      nfft =      405000          nkpt =           2
  Rough estimation (10% accuracy) of disk space for files :

------------- Echo of variables that govern the present computation ------------
-
- outvars: echo of selected default values
-   iomode0 =  0 , fftalg0 =512 , wfoptalg0 =  0
-
- outvars: echo of global parameters not present in the input file
-  max_nthreads =    0
-
 -outvars: echo values of preprocessed input variables --------
            acell      1.0000000000E+00  1.0000000000E+00  1.0000000000E+00 Bohr
              amu      3.90983000E+01  6.35460000E+01  7.49215900E+01
             ecut      4.60000000E+01 Hartree
-          fftalg         512
           irdden           1
           irdwfk           1
           istwfk        0    1
              ixc     -116133
              kpt     -5.00000000E-01  5.00000000E-01  0.00000000E+00
                       0.00000000E+00  0.00000000E+00  0.00000000E+00
           kptopt           0
P           mkmem           2
P          mkqmem           2
P          mk1mem           2
            natom           8
            nband          61
           nbdbuf           4
            ngfft          75      75      72
             nkpt           2
            nstep        2000
             nsym           8
           ntypat           3
              occ      2.000000  2.000000  2.000000  2.000000  2.000000  2.000000
                       2.000000  2.000000  2.000000  2.000000  2.000000  2.000000
                       2.000000  2.000000  2.000000  2.000000  2.000000  2.000000
                       2.000000  2.000000  2.000000  2.000000  2.000000  2.000000
                       2.000000  2.000000  2.000000  2.000000  2.000000  2.000000
                       2.000000  2.000000  2.000000  2.000000  2.000000  2.000000
                       2.000000  2.000000  2.000000  2.000000  2.000000  2.000000
                       2.000000  2.000000  2.000000  2.000000  2.000000  2.000000
                       2.000000  2.000000  2.000000  2.000000  0.000000  0.000000
                       0.000000  0.000000  0.000000  0.000000  0.000000  0.000000
                       0.000000
        optdriver           1
            prtwf          -1
            rfdir           1       1       1
           rfelfd           2
            rprim      1.1792825147E+01  0.0000000000E+00  0.0000000000E+00
                      -3.2415681353E+00  1.1338560798E+01  0.0000000000E+00
                       0.0000000000E+00  0.0000000000E+00  1.0898585126E+01
          spgroup          63
           symrel      1  0  0   0  1  0   0  0  1      -1  0  0   0 -1  0   0  0 -1
                       0 -1  0  -1  0  0   0  0 -1       0  1  0   1  0  0   0  0  1
                      -1  0  0   0 -1  0   0  0  1       1  0  0   0  1  0   0  0 -1
                       0  1  0   1  0  0   0  0 -1       0 -1  0  -1  0  0   0  0  1
            tnons      0.0000000  0.0000000  0.0000000     0.0000000 -0.0000000 -0.0000000
                       0.0000000  0.0000000 -0.0000000     0.0000000 -0.0000000  0.0000000
                       0.0000000 -0.0000000  0.5000000     0.0000000  0.0000000  0.5000000
                       0.0000000 -0.0000000  0.5000000     0.0000000  0.0000000  0.5000000
           tolwfr      1.00000000E-20
            typat      1  1  1  1  2  2  3  3
           useylm           1
              wtk        0.50000    0.50000
           xangst      3.0000949623E-01  5.8721076497E+00  4.3254621411E+00
                       4.2251208192E+00  1.2800030295E-01  1.4418207137E+00
                      -1.0383158951E+00  4.0975517222E+00  1.4418207137E+00
                       5.5634462105E+00  1.9025562304E+00  4.3254621411E+00
                       2.2625651577E+00  3.0000539763E+00  2.8836414274E+00
                       2.2625651577E+00  3.0000539763E+00  0.0000000000E+00
                       3.3552664755E+00  4.4489240441E+00  4.3254621411E+00
                       1.1698638399E+00  1.5511839086E+00  1.4418207137E+00
            xcart      5.6693578515E-01  1.1096675281E+01  8.1739388448E+00
                       7.9843212267E+00  2.4188551751E-01  2.7246462816E+00
                      -1.9621326811E+00  7.7432505704E+00  2.7246462816E+00
                       1.0513389693E+01  3.5953102278E+00  8.1739388448E+00
                       4.2756285059E+00  5.6692803991E+00  5.4492925632E+00
                       4.2756285059E+00  5.6692803991E+00  0.0000000000E+00
                       6.3405347416E+00  8.4072480293E+00  8.1739388448E+00
                       2.2107222702E+00  2.9313127689E+00  2.7246462816E+00
             xred      3.1708700000E-01  9.7866700000E-01  7.5000000000E-01
                       6.8291300000E-01  2.1333000000E-02  2.5000000000E-01
                       2.1333000000E-02  6.8291300000E-01  2.5000000000E-01
                       9.7866700000E-01  3.1708700000E-01  7.5000000000E-01
                       5.0000000000E-01  5.0000000000E-01  5.0000000000E-01
                       5.0000000000E-01  5.0000000000E-01  0.0000000000E+00
                       7.4147400000E-01  7.4147400000E-01  7.5000000000E-01
                       2.5852600000E-01  2.5852600000E-01  2.5000000000E-01
            znucl       19.00000   29.00000   33.00000

 chkinp: Checking input parameters for consistency.

== DATASET  1 ==================================================================
-   mpi_nproc: 1, omp_nthreads: -1 (-1 if OMP is not activated)

--- !DatasetInfo
iteration_state: {dtset: 1, }
dimensions: {natom: 8, nkpt: 2, mband: 61, nsppol: 1, nspinor: 1, nspden: 1, mpw: 21709, }
cutoff_energies: {ecut:  46.0, pawecutdg:  -1.0, }
electrons: {nelect:   1.04000000E+02, charge:   0.00000000E+00, occopt:   1.00000000E+00, tsmear:   1.00000000E-02, }
meta: {optdriver: 1, rfelfd: 2, }
...

 Real(R)+Recip(G) space primitive vectors, cartesian coordinates (Bohr,Bohr^-1):
 R(1)= 11.7928251  0.0000000  0.0000000  G(1)=  0.0847973  0.0242426  0.0000000
 R(2)= -3.2415681 11.3385608  0.0000000  G(2)=  0.0000000  0.0881946  0.0000000
 R(3)=  0.0000000  0.0000000 10.8985851  G(3)=  0.0000000  0.0000000  0.0917550
 Unit cell volume ucvol=  1.4572898E+03 bohr^3
 Angles (23,13,12)=  9.00000000E+01  9.00000000E+01  1.05954643E+02 degrees

 getcut: wavevector=  0.0000  0.0000  0.0000  ngfft=  75  75  72
         ecut(hartree)=     46.000   => boxcut(ratio)=   2.05530

--- Pseudopotential description ------------------------------------------------
- pspini: atom type   1  psp file is /scratch/users/j/a/jabreu/pseudos/PBEsol/K.psp8
- pspatm: opening atomic psp file    /scratch/users/j/a/jabreu/pseudos/PBEsol/K.psp8
- K     ONCVPSP-3.3.0  r_core=   1.36296   1.46408   1.61068
- 19.00000   9.00000    180112                znucl, zion, pspdat
    8 -116133    2    4       400   0.00000   pspcod,pspxc,lmax,lloc,mmax,r2well
    3.99000000000000    5.00000000000000    0.00000000000000   rchrg,fchrg,qchrg
     nproj     2     2     2
     extension_switch     1
  pspatm : epsatm=    8.32487830
         --- l  ekb(1:nproj) -->
             0   10.921326    0.816676
             1    4.431000    0.560368
             2   -3.384038   -1.043186
 pspatm: atomic psp has been read  and splines computed

- pspini: atom type   2  psp file is /scratch/users/j/a/jabreu/pseudos/PBEsol/Cu.psp8
- pspatm: opening atomic psp file    /scratch/users/j/a/jabreu/pseudos/PBEsol/Cu.psp8
- Cu    ONCVPSP-3.3.0  r_core=   1.26204   1.45626   1.76249
- 29.00000  19.00000    180112                znucl, zion, pspdat
    8 -116133    2    4       600   0.00000   pspcod,pspxc,lmax,lloc,mmax,r2well
    5.99000000000000    3.50000000000000    0.00000000000000   rchrg,fchrg,qchrg
     nproj     2     2     2
     extension_switch     1
  pspatm : epsatm=   21.63488701
         --- l  ekb(1:nproj) -->
             0    5.008230   -0.401634
             1   -3.496700   -0.765945
             2   -6.895851   -2.521180
 pspatm: atomic psp has been read  and splines computed

- pspini: atom type   3  psp file is /scratch/users/j/a/jabreu/pseudos/PBEsol/As.psp8
- pspatm: opening atomic psp file    /scratch/users/j/a/jabreu/pseudos/PBEsol/As.psp8
- As    ONCVPSP-3.3.0  r_core=   1.76603   1.70395   1.80867
- 33.00000  15.00000    180112                znucl, zion, pspdat
    8 -116133    2    4       600   0.00000   pspcod,pspxc,lmax,lloc,mmax,r2well
    5.99000000000000    5.00000000000000    0.00000000000000   rchrg,fchrg,qchrg
     nproj     2     2     2
     extension_switch     1
  pspatm : epsatm=   28.79155382
         --- l  ekb(1:nproj) -->
             0    8.270760    0.868950
             1    4.919053    0.756587
             2  -10.048665   -4.076802
 pspatm: atomic psp has been read  and splines computed

   1.39518491E+04                                ecore*ucvol(ha*bohr**3)

-inwffil : will read wavefunctions from disk file /scratch/users/j/a/jabreu/flow_simple_8atoms/flow/w339/t1/indata/in_WFK

 ==>  initialize data related to q vector <==

 The list of irreducible perturbations for this q vector is:
    1)    idir= 1    ipert=   9
    2)    idir= 2    ipert=   9
    3)    idir= 3    ipert=   9

 Perturbation wavevector (in red.coord.)   0.000000  0.000000  0.000000
 Perturbation : derivative vs k along direction   1

 dfpt_looppert : COMMENT -
  In a d/dk calculation, iscf is set to -3 automatically.
 The set of symmetries contains only one element for this perturbation.
 symkpt : not enough symmetry to change the number of k points.

[...]

 Initialisation of the first-order wave-functions :
  ireadwf=   0

--- !BeginCycle
iteration_state: {dtset: 1, }
solver: {iscf: 7, nstep: 2000, nline: 4, wfoptalg: 0, }
tolerances: {tolwfr: 1.00E-20, }
...

     iter   2DEtotal(Ha)        deltaE(Ha) residm    vres2
-ETOT  1  -48.291873077621     -4.829E+01 7.283E-02 0.000E+00
 ETOT  2  -48.468062640373     -1.762E-01 4.382E-03 0.000E+00
 ETOT  3  -48.474316460138     -6.254E-03 4.776E-04 0.000E+00
[...]
 ETOT 22  -48.474776464420      1.421E-14 5.108E-16 0.000E+00
 ETOT 23  -48.474776464420      7.105E-15 5.514E-17 0.000E+00
 ETOT 24  -48.474776464420     -1.421E-14 2.850E-17 0.000E+00
 ETOT 25  -48.474776464420      0.000E+00 3.054E-18 0.000E+00
 ETOT 26  -48.474776464420      7.105E-15 1.590E-18 0.000E+00
 ETOT 27  -48.474776464420      0.000E+00 1.693E-19 0.000E+00
 ETOT 28  -48.474776464420      0.000E+00 8.872E-20 0.000E+00
 ETOT 29  -48.474776464420     -7.105E-15 9.864E-21 0.000E+00

 At SCF step   29   max residual=  9.86E-21 < tolwfr=  1.00E-20 =>converged.

 ----iterations are completed or convergence reached----

 dfpt_looppert: DFPT cycle converged with prtwf=-1. Will skip output of the 1st-order WFK file.
 dfpt_looppert : ek2=    6.3871513222E+01
          f-sum rule ratio=    1.0434418131E+00
 prteigrs : about to open file /scratch/users/j/a/jabreu/flow_simple_8atoms/flow/w339/t1/tmpdata/tmp_1WF1_EIG
 Expectation of eigenvalue derivatives (hartree) for nkpt=   2  k points:
  (in case of degenerate eigenvalues, averaged derivative)
 kpt#   1, nband= 61, wtk=  0.50000, kpt= -0.5000  0.5000  0.0000 (reduced coord)
   0.00000    0.00000    0.00000   -0.00000   -0.00000    0.00000   -0.00000    0.00000
   0.00000    0.00000   -0.00000    0.00000   -0.00000    0.00000   -0.00000    0.00000
   0.00000    0.00000    0.00000    0.00000   -0.00000    0.00000    0.00000    0.00000
  -0.00000   -0.00000   -0.00000   -0.00000    0.00000    0.00000   -0.00000   -0.00000
   0.00000    0.00000    0.00000   -0.00000    0.00000   -0.00000   -0.00000    0.00000
  -0.00000   -0.00000    0.00000   -0.00000    0.00000    0.00000   -0.00000    0.00000
  -0.00000    0.00000    0.00000    0.00000    0.00000    0.00000   -0.00000    0.00000
  -0.00000    0.00000    0.00000   -0.00000   -0.00000
 prteigrs : prtvol=0 or 1, do not print more k-points.

 Eight components of 2nd-order total energy (hartree) are
 1,2,3: 0th-order hamiltonian combined with 1st-order wavefunctions
     kin0=   6.40696894E+01 eigvalue=   5.49599117E+00  local=  -2.92545945E+01
 4,5,6: 1st-order hamiltonian combined with 1st and 0th-order wfs
     kin1=  -6.66462076E+01  Hartree=   0.00000000E+00     xc=   0.00000000E+00
 7,8,9: eventually, occupation + non-local contributions
    edocc=   6.02438990E+00     enl0=   2.13930055E+00   enl1=  -3.03033454E+01
 1-9 gives the relaxation energy (to be shifted if some occ is /=2.0)
   erelax=  -4.84747765E+01
  No Ewald or frozen-wf contrib.: the relaxation energy is the total one
 2DEtotal=   -0.4847477646E+02 Ha. Also 2DEtotal=   -0.131906574990E+04 eV
    (  non-var. 2DEtotal :   -4.8474776464E+01 Ha)

 Perturbation wavevector (in red.coord.)   0.000000  0.000000  0.000000
 Perturbation : derivative vs k along direction   2
 The set of symmetries contains only one element for this perturbation.
 symkpt : not enough symmetry to change the number of k points.

[...]

 Perturbation wavevector (in red.coord.)   0.000000  0.000000  0.000000
 Perturbation : derivative vs k along direction   3
 The set of symmetries contains only one element for this perturbation.
 symkpt : not enough symmetry to change the number of k points.

-inwffil : will read wavefunctions from disk file /scratch/users/j/a/jabreu/flow_simple_8atoms/flow/w339/t1/indata/in_WFK

 Initialisation of the first-order wave-functions :
  ireadwf=   0

--- !BeginCycle
iteration_state: {dtset: 1, }
solver: {iscf: 7, nstep: 2000, nline: 4, wfoptalg: 0, }
tolerances: {tolwfr: 1.00E-20, }
...

     iter   2DEtotal(Ha)        deltaE(Ha) residm    vres2
-ETOT  1  -53.655450891546     -5.366E+01 6.813E-02 0.000E+00
 ETOT  2  -53.793526525640     -1.381E-01 1.196E-02 0.000E+00
 ETOT  3  -53.798824169444     -5.298E-03 3.091E-04 0.000E+00
 ETOT  4  -53.799266919358     -4.427E-04 7.492E-05 0.000E+00
 ETOT  5  -53.799316601696     -4.968E-05 2.892E-06 0.000E+00
 ETOT  6  -53.799323010921     -6.409E-06 7.900E-07 0.000E+00
 ETOT  7  -53.799323899849     -8.889E-07 6.316E-08 0.000E+00
 ETOT  8  -53.799324027115     -1.273E-07 1.205E-08 0.000E+00
 ETOT  9  -53.799324045805     -1.869E-08 1.501E-09 0.000E+00
 ETOT 10  -53.799324048589     -2.784E-09 2.934E-10 0.000E+00
 ETOT 11  -53.799324049009     -4.202E-10 3.706E-11 0.000E+00
 ETOT 12  -53.799324049073     -6.401E-11 7.395E-12 0.000E+00
 ETOT 13  -53.799324049083     -9.820E-12 9.393E-13 0.000E+00
 ETOT 14  -53.799324049085     -1.577E-12 1.909E-13 0.000E+00
 ETOT 15  -53.799324049085     -1.990E-13 2.426E-14 0.000E+00
 ETOT 16  -53.799324049085     -1.421E-14 5.006E-15 0.000E+00
 ETOT 17  -53.799324049085     -2.132E-14 6.352E-16 0.000E+00
 ETOT 18  -53.799324049085     -2.132E-14 1.327E-16 0.000E+00
 ETOT 19  -53.799324049085      1.421E-14 1.678E-17 0.000E+00
 ETOT 20  -53.799324049085      0.000E+00 3.538E-18 0.000E+00
 ETOT 21  -53.799324049085     -1.421E-14 4.461E-19 0.000E+00
 ETOT 22  -53.799324049085     -2.132E-14 9.474E-20 0.000E+00
 ETOT 23  -53.799324049085      5.684E-14 1.190E-20 0.000E+00
 ETOT 24  -53.799324049085      7.105E-15 9.889E-21 0.000E+00

 At SCF step   24   max residual=  9.89E-21 < tolwfr=  1.00E-20 =>converged.

 ----iterations are completed or convergence reached----

 dfpt_looppert: DFPT cycle converged with prtwf=-1. Will skip output of the 1st-order WFK file.
 dfpt_looppert : ek2=    6.9132590403E+01
          f-sum rule ratio=    1.0888486594E+00
 prteigrs : about to open file /scratch/users/j/a/jabreu/flow_simple_8atoms/flow/w339/t1/tmpdata/tmp_1WF1_EIG
 Expectation of eigenvalue derivatives (hartree) for nkpt=   2  k points:
  (in case of degenerate eigenvalues, averaged derivative)
 kpt#   1, nband= 61, wtk=  0.50000, kpt= -0.5000  0.5000  0.0000 (reduced coord)
   0.00000    0.00000    0.00000   -0.00000    0.00000   -0.00000    0.00000    0.00000
   0.00000    0.00000   -0.00000    0.00000   -0.00000   -0.00000   -0.00000   -0.00000
  -0.00000    0.00000   -0.00000   -0.00000   -0.00000   -0.00000    0.00000   -0.00000
  -0.00000   -0.00000    0.00000    0.00000    0.00000    0.00000   -0.00000    0.00000
  -0.00000   -0.00000    0.00000   -0.00000   -0.00000   -0.00000    0.00000    0.00000
   0.00000   -0.00000   -0.00000    0.00000   -0.00000   -0.00000    0.00000    0.00000
  -0.00000   -0.00000    0.00000   -0.00000    0.00000   -0.00000    0.00000   -0.00000
  -0.00000    0.00000   -0.00000   -0.00000    0.00000
 prteigrs : prtvol=0 or 1, do not print more k-points.

 Eight components of 2nd-order total energy (hartree) are
 1,2,3: 0th-order hamiltonian combined with 1st-order wavefunctions
     kin0=   6.76790748E+01 eigvalue=   6.09531576E+00  local=  -3.05824411E+01
 4,5,6: 1st-order hamiltonian combined with 1st and 0th-order wfs
     kin1=  -7.52749284E+01  Hartree=   0.00000000E+00     xc=   0.00000000E+00
 7,8,9: eventually, occupation + non-local contributions
    edocc=   8.22615268E+00     enl0=   2.38122191E+00   enl1=  -3.23237197E+01
 1-9 gives the relaxation energy (to be shifted if some occ is /=2.0)
   erelax=  -5.37993240E+01
  No Ewald or frozen-wf contrib.: the relaxation energy is the total one
 2DEtotal=   -0.5379932405E+02 Ha. Also 2DEtotal=   -0.146395405811E+04 eV
    (  non-var. 2DEtotal :   -5.3799324049E+01 Ha)

 CALCULATION OF EFFECTIVE MASSES
 NOTE : Additional infos (eff. mass eigenvalues, eigenvectors and, if degenerate, average mass) are available in stdout.

 K-point (-0.500, 0.500, 0.000) | band =    52
 Effective mass tensor:
             -1.6444310546             -0.3668525651             -0.0000000279
             -0.3668525651             -1.8541890879             -0.0000000352
             -0.0000000279             -0.0000000352             -1.9133236220
 Effective mass tensor eigenvalues:
             -2.1308600845             -1.9133236220             -1.3677600579
 Angular average effective mass 1/(<1/m>)=  -1.7410812595
 Angular average effective mass for Frohlich model (<m**0.5>)**2=  -1.7606679995
 Effective masses along directions: (cart. coord. / red. coord. -> eff. mass)
    1:   1.000000  0.000000  0.000000 /   0.964236 -0.265046  0.000000 ->  -1.5718490264
    2:   0.000000  1.000000  0.000000 /   0.000000  1.000000  0.000000 ->  -1.7723487430
    3:   0.000000  0.000000  1.000000 /   0.000000  0.000000  1.000000 ->  -1.9133236220
    4:   0.577350  0.577350  0.577350 /   0.655753  0.450242  0.606028 ->  -2.0389790706
    5:   0.000000  0.707107  0.707107 /   0.000000  0.720956  0.692981 ->  -1.8401401068
    6:   0.707107  0.000000  0.707107 /   0.719881 -0.197878  0.665293 ->  -1.7258576328
    7:   0.707107  0.707107  0.000000 /   0.824387  0.566027  0.000000 ->  -2.1082060749

 K-point ( 0.000, 0.000, 0.000) | band =    53
 Effective mass tensor:
              0.6942712119              0.0662023050             -0.0000004655
              0.0662023050              0.7321234368              0.0000004392
             -0.0000004655              0.0000004392              0.1939619531
 Effective mass tensor eigenvalues:
              0.1939619531              0.6443428190              0.7820518298
 Angular average effective mass 1/(<1/m>)=   0.3756429695
 Angular average effective mass for Frohlich model (<m**0.5>)**2=   0.4267549266
 Effective masses along directions: (cart. coord. / red. coord. -> eff. mass)
    1:   1.000000  0.000000  0.000000 /   0.964236 -0.265046  0.000000 ->   0.6882848646
    2:   0.000000  1.000000  0.000000 /   0.000000  1.000000  0.000000 ->   0.7258107090
    3:   0.000000  0.000000  1.000000 /   0.000000  0.000000  1.000000 ->   0.1939619531
    4:   0.577350  0.577350  0.577350 /   0.655753  0.450242  0.606028 ->   0.3884222844
    5:   0.000000  0.707107  0.707107 /   0.000000  0.720956  0.692981 ->   0.3061187107
    6:   0.707107  0.000000  0.707107 /   0.719881 -0.197878  0.665293 ->   0.3026384931
    7:   0.707107  0.707107  0.000000 /   0.824387  0.566027  0.000000 ->   0.7788459964

 END OF EFFECTIVE MASSES SECTION

 ---- first-order wavefunction calculations are completed ----

 Total localisation tensor (bohr^2) in cartesian coordinates
  WARNING : still subject to testing - especially symmetries.
      direction              matrix element
   alpha     beta       real part   imaginary part
     1        1       1.1685187241    0.0000000000
     1        2      -0.2871309276    0.0000000000
     1        3       0.0000000000    0.0000000000
     2        1      -0.2871309276    0.0000000000
     2        2       1.0043446085    0.0000000000
     2        3       0.0000000000    0.0000000000
     3        1       0.0000000000    0.0000000000
     3        2       0.0000000000    0.0000000000
     3        3       1.4242235896    0.0000000000

 respfn : d/dk was computed, but no 2DTE, so no DDB output.

== END DATASET(S) ==============================================================

 -outvars: echo values of variables after computation  --------
            acell      1.0000000000E+00  1.0000000000E+00  1.0000000000E+00 Bohr
              amu      3.90983000E+01  6.35460000E+01  7.49215900E+01
             ecut      4.60000000E+01 Hartree
           etotal     -5.3799324049E+01
            fcart      0.0000000000E+00  0.0000000000E+00  0.0000000000E+00
                       0.0000000000E+00  0.0000000000E+00  0.0000000000E+00
                       0.0000000000E+00  0.0000000000E+00  0.0000000000E+00
                       0.0000000000E+00  0.0000000000E+00  0.0000000000E+00
                       0.0000000000E+00  0.0000000000E+00  0.0000000000E+00
                       0.0000000000E+00  0.0000000000E+00  0.0000000000E+00
                       0.0000000000E+00  0.0000000000E+00  0.0000000000E+00
                       0.0000000000E+00  0.0000000000E+00  0.0000000000E+00
-          fftalg         512
           irdden           1
           irdwfk           1
           istwfk        0    1
              ixc     -116133
              kpt     -5.00000000E-01  5.00000000E-01  0.00000000E+00
                       0.00000000E+00  0.00000000E+00  0.00000000E+00
           kptopt           0
P           mkmem           2
P          mkqmem           2
P          mk1mem           2
            natom           8
            nband          61
           nbdbuf           4
            ngfft          75      75      72
             nkpt           2
            nstep        2000
             nsym           8
           ntypat           3
              occ      2.000000  2.000000  2.000000  2.000000  2.000000  2.000000
                       2.000000  2.000000  2.000000  2.000000  2.000000  2.000000
                       2.000000  2.000000  2.000000  2.000000  2.000000  2.000000
                       2.000000  2.000000  2.000000  2.000000  2.000000  2.000000
                       2.000000  2.000000  2.000000  2.000000  2.000000  2.000000
                       2.000000  2.000000  2.000000  2.000000  2.000000  2.000000
                       2.000000  2.000000  2.000000  2.000000  2.000000  2.000000
                       2.000000  2.000000  2.000000  2.000000  2.000000  2.000000
                       2.000000  2.000000  2.000000  2.000000  0.000000  0.000000
                       0.000000  0.000000  0.000000  0.000000  0.000000  0.000000
                       0.000000
        optdriver           1
            prtwf          -1
            rfdir           1       1       1
           rfelfd           2
            rprim      1.1792825147E+01  0.0000000000E+00  0.0000000000E+00
                      -3.2415681353E+00  1.1338560798E+01  0.0000000000E+00
                       0.0000000000E+00  0.0000000000E+00  1.0898585126E+01
          spgroup          63
           strten      0.0000000000E+00  0.0000000000E+00  0.0000000000E+00
                       0.0000000000E+00  0.0000000000E+00  0.0000000000E+00
           symrel      1  0  0   0  1  0   0  0  1      -1  0  0   0 -1  0   0  0 -1
                       0 -1  0  -1  0  0   0  0 -1       0  1  0   1  0  0   0  0  1
                      -1  0  0   0 -1  0   0  0  1       1  0  0   0  1  0   0  0 -1
                       0  1  0   1  0  0   0  0 -1       0 -1  0  -1  0  0   0  0  1
            tnons      0.0000000  0.0000000  0.0000000     0.0000000 -0.0000000 -0.0000000
                       0.0000000  0.0000000 -0.0000000     0.0000000 -0.0000000  0.0000000
                       0.0000000 -0.0000000  0.5000000     0.0000000  0.0000000  0.5000000
                       0.0000000 -0.0000000  0.5000000     0.0000000  0.0000000  0.5000000
           tolwfr      1.00000000E-20
            typat      1  1  1  1  2  2  3  3
           useylm           1
              wtk        0.50000    0.50000
           xangst      3.0000949623E-01  5.8721076497E+00  4.3254621411E+00
                       4.2251208192E+00  1.2800030295E-01  1.4418207137E+00
                      -1.0383158951E+00  4.0975517222E+00  1.4418207137E+00
                       5.5634462105E+00  1.9025562304E+00  4.3254621411E+00
                       2.2625651577E+00  3.0000539763E+00  2.8836414274E+00
                       2.2625651577E+00  3.0000539763E+00  0.0000000000E+00
                       3.3552664755E+00  4.4489240441E+00  4.3254621411E+00
                       1.1698638399E+00  1.5511839086E+00  1.4418207137E+00
            xcart      5.6693578515E-01  1.1096675281E+01  8.1739388448E+00
                       7.9843212267E+00  2.4188551751E-01  2.7246462816E+00
                      -1.9621326811E+00  7.7432505704E+00  2.7246462816E+00
                       1.0513389693E+01  3.5953102278E+00  8.1739388448E+00
                       4.2756285059E+00  5.6692803991E+00  5.4492925632E+00
                       4.2756285059E+00  5.6692803991E+00  0.0000000000E+00
                       6.3405347416E+00  8.4072480293E+00  8.1739388448E+00
                       2.2107222702E+00  2.9313127689E+00  2.7246462816E+00
             xred      3.1708700000E-01  9.7866700000E-01  7.5000000000E-01
                       6.8291300000E-01  2.1333000000E-02  2.5000000000E-01
                       2.1333000000E-02  6.8291300000E-01  2.5000000000E-01
                       9.7866700000E-01  3.1708700000E-01  7.5000000000E-01
                       5.0000000000E-01  5.0000000000E-01  5.0000000000E-01
                       5.0000000000E-01  5.0000000000E-01  0.0000000000E+00
                       7.4147400000E-01  7.4147400000E-01  7.5000000000E-01
                       2.5852600000E-01  2.5852600000E-01  2.5000000000E-01
            znucl       19.00000   29.00000   33.00000

- Timing analysis has been suppressed with timopt=0

 Suggested references for the acknowledgment of ABINIT usage.

 Calculation completed.
.Delivered  14 WARNINGs and  11 COMMENTs to log file.