.Version 9.7.2 of ABINIT

 ABINIT is a project of the Universite Catholique de Louvain,
 Corning Inc. and other collaborators, see ~abinit/doc/developers/contributors.txt .
 acknowledgments of the ABINIT effort.

.Starting date : Wed  1 Dec 2021.
- ( at 21h13 )

- input  file    -> /scratch/users/j/a/jabreu/flow_simple_remain_atoms/flow/w152/t1/run.abi
- output file    -> /scratch/users/j/a/jabreu/flow_simple_remain_atoms/flow/w152/t1/run.abo
- root for input  files -> /scratch/users/j/a/jabreu/flow_simple_remain_atoms/flow/w152/t1/indata/in
- root for output files -> /scratch/users/j/a/jabreu/flow_simple_remain_atoms/flow/w152/t1/outdata/out

 Symmetries : space group Pm -3 m (#221); Bravais cP (primitive cubic)
     intxc =       0      iscf =       7    lmnmax =      18     lnmax =       6
     mgfft =      54  mpssoang =       3    mqgrid =    3001     natom =       5
  nloc_mem =       1    nspden =       1   nspinor =       1    nsppol =       1
      nsym =      48    n1xccc =    2501    ntypat =       3    occopt =       1
   xclevel =       2
-    mband =          29        mffmem =           1         mkmem =           1
-   mkqmem =           1        mk1mem =           1           mpw =        8925
      nfft =      157464          nkpt =           1
  Rough estimation (10% accuracy) of disk space for files :

------------- Echo of variables that govern the present computation ------------
-
- outvars: echo of selected default values
-   iomode0 =  0 , fftalg0 =512 , wfoptalg0 =  0
-
- outvars: echo of global parameters not present in the input file
-  max_nthreads =    0
-
 -outvars: echo values of preprocessed input variables --------
            acell      1.0000000000E+00  1.0000000000E+00  1.0000000000E+00 Bohr
              amu      4.00780000E+01  3.09737620E+01  1.40067400E+01
             ecut      4.20000000E+01 Hartree
-          fftalg         512
           irdden           1
           irdwfk           1
           istwfk        1
              ixc     -116133
           kptopt           0
P           mkmem           1
P          mkqmem           1
P          mk1mem           1
            natom           5
            nband          29
           nbdbuf           4
            ngfft          54      54      54
             nkpt           1
            nstep        2000
             nsym          48
           ntypat           3
              occ      2.000000  2.000000  2.000000  2.000000  2.000000  2.000000
                       2.000000  2.000000  2.000000  2.000000  2.000000  2.000000
                       2.000000  2.000000  2.000000  2.000000  2.000000  2.000000
                       2.000000  2.000000  0.000000  0.000000  0.000000  0.000000
                       0.000000  0.000000  0.000000  0.000000  0.000000
        optdriver           1
            prtwf          -1
            rfdir           1       1       1
           rfelfd           2
            rprim      8.8078907103E+00  0.0000000000E+00  0.0000000000E+00
                       0.0000000000E+00  8.8078907103E+00  0.0000000000E+00
                       0.0000000000E+00  0.0000000000E+00  8.8078907103E+00
          spgroup         221
           symrel      1  0  0   0  1  0   0  0  1      -1  0  0   0 -1  0   0  0 -1
                      -1  0  0   0  1  0   0  0 -1       1  0  0   0 -1  0   0  0  1
                      -1  0  0   0 -1  0   0  0  1       1  0  0   0  1  0   0  0 -1
                       1  0  0   0 -1  0   0  0 -1      -1  0  0   0  1  0   0  0  1
                       0  1  0   1  0  0   0  0  1       0 -1  0  -1  0  0   0  0 -1
                       0 -1  0   1  0  0   0  0 -1       0  1  0  -1  0  0   0  0  1
                       0 -1  0  -1  0  0   0  0  1       0  1  0   1  0  0   0  0 -1
                       0  1  0  -1  0  0   0  0 -1       0 -1  0   1  0  0   0  0  1
                       0  0  1   1  0  0   0  1  0       0  0 -1  -1  0  0   0 -1  0
                       0  0 -1   1  0  0   0 -1  0       0  0  1  -1  0  0   0  1  0
                       0  0 -1  -1  0  0   0  1  0       0  0  1   1  0  0   0 -1  0
                       0  0  1  -1  0  0   0 -1  0       0  0 -1   1  0  0   0  1  0
                       1  0  0   0  0  1   0  1  0      -1  0  0   0  0 -1   0 -1  0
                      -1  0  0   0  0  1   0 -1  0       1  0  0   0  0 -1   0  1  0
                      -1  0  0   0  0 -1   0  1  0       1  0  0   0  0  1   0 -1  0
                       1  0  0   0  0 -1   0 -1  0      -1  0  0   0  0  1   0  1  0
                       0  1  0   0  0  1   1  0  0       0 -1  0   0  0 -1  -1  0  0
                       0 -1  0   0  0  1  -1  0  0       0  1  0   0  0 -1   1  0  0
                       0 -1  0   0  0 -1   1  0  0       0  1  0   0  0  1  -1  0  0
                       0  1  0   0  0 -1  -1  0  0       0 -1  0   0  0  1   1  0  0
                       0  0  1   0  1  0   1  0  0       0  0 -1   0 -1  0  -1  0  0
                       0  0 -1   0  1  0  -1  0  0       0  0  1   0 -1  0   1  0  0
                       0  0 -1   0 -1  0   1  0  0       0  0  1   0  1  0  -1  0  0
                       0  0  1   0 -1  0  -1  0  0       0  0 -1   0  1  0   1  0  0
           tolwfr      1.00000000E-20
            typat      1  1  1  2  3
           useylm           1
           xangst      2.3304675098E+00  0.0000000000E+00  2.3304675098E+00
                       2.3304675098E+00  2.3304675098E+00  0.0000000000E+00
                       0.0000000000E+00  2.3304675098E+00  2.3304675098E+00
                       0.0000000000E+00  0.0000000000E+00  0.0000000000E+00
                       2.3304675098E+00  2.3304675098E+00  2.3304675098E+00
            xcart      4.4039453551E+00  0.0000000000E+00  4.4039453551E+00
                       4.4039453551E+00  4.4039453551E+00  0.0000000000E+00
                       0.0000000000E+00  4.4039453551E+00  4.4039453551E+00
                       0.0000000000E+00  0.0000000000E+00  0.0000000000E+00
                       4.4039453551E+00  4.4039453551E+00  4.4039453551E+00
             xred      5.0000000000E-01  0.0000000000E+00  5.0000000000E-01
                       5.0000000000E-01  5.0000000000E-01  0.0000000000E+00
                       0.0000000000E+00  5.0000000000E-01  5.0000000000E-01
                       0.0000000000E+00  0.0000000000E+00  0.0000000000E+00
                       5.0000000000E-01  5.0000000000E-01  5.0000000000E-01
            znucl       20.00000   15.00000    7.00000

 chkinp: Checking input parameters for consistency.

== DATASET  1 ==================================================================
-   mpi_nproc: 1, omp_nthreads: -1 (-1 if OMP is not activated)

--- !DatasetInfo
iteration_state: {dtset: 1, }
dimensions: {natom: 5, nkpt: 1, mband: 29, nsppol: 1, nspinor: 1, nspden: 1, mpw: 8925, }
cutoff_energies: {ecut:  42.0, pawecutdg:  -1.0, }
electrons: {nelect:   4.00000000E+01, charge:   0.00000000E+00, occopt:   1.00000000E+00, tsmear:   1.00000000E-02, }
meta: {optdriver: 1, rfelfd: 2, }
...

 Real(R)+Recip(G) space primitive vectors, cartesian coordinates (Bohr,Bohr^-1):
 R(1)=  8.8078907  0.0000000  0.0000000  G(1)=  0.1135346  0.0000000  0.0000000
 R(2)=  0.0000000  8.8078907  0.0000000  G(2)=  0.0000000  0.1135346  0.0000000
 R(3)=  0.0000000  0.0000000  8.8078907  G(3)=  0.0000000  0.0000000  0.1135346
 Unit cell volume ucvol=  6.8330681E+02 bohr^3
 Angles (23,13,12)=  9.00000000E+01  9.00000000E+01  9.00000000E+01 degrees

 getcut: wavevector=  0.0000  0.0000  0.0000  ngfft=  54  54  54
         ecut(hartree)=     42.000   => boxcut(ratio)=   2.10151

--- Pseudopotential description ------------------------------------------------
- pspini: atom type   1  psp file is /scratch/users/j/a/jabreu/pseudos/PBEsol/Ca.psp8
- pspatm: opening atomic psp file    /scratch/users/j/a/jabreu/pseudos/PBEsol/Ca.psp8
- Ca    ONCVPSP-3.3.0  r_core=   1.45885   1.45885   1.85192
- 20.00000  10.00000    180112                znucl, zion, pspdat
    8 -116133    2    4       400   0.00000   pspcod,pspxc,lmax,lloc,mmax,r2well
    3.99000000000000    6.00000000000000    0.00000000000000   rchrg,fchrg,qchrg
     nproj     2     2     2
     extension_switch     1
  pspatm : epsatm=   12.46045226
         --- l  ekb(1:nproj) -->
             0   10.054847    0.973777
             1    2.998958    0.458102
             2   -3.447298   -1.091650
 pspatm: atomic psp has been read  and splines computed

- pspini: atom type   2  psp file is /scratch/users/j/a/jabreu/pseudos/PBEsol/P.psp8
- pspatm: opening atomic psp file    /scratch/users/j/a/jabreu/pseudos/PBEsol/P.psp8
- P     ONCVPSP-3.3.0  r_core=   1.46089   1.55067   1.70594
- 15.00000   5.00000    180112                znucl, zion, pspdat
    8 -116133    2    4       600   0.00000   pspcod,pspxc,lmax,lloc,mmax,r2well
    5.99000000000000    5.00000000000000    0.00000000000000   rchrg,fchrg,qchrg
     nproj     2     2     2
     extension_switch     1
  pspatm : epsatm=    7.31221086
         --- l  ekb(1:nproj) -->
             0    6.742364    1.063650
             1    3.449117    0.910422
             2   -3.077645   -0.799176
 pspatm: atomic psp has been read  and splines computed

- pspini: atom type   3  psp file is /scratch/users/j/a/jabreu/pseudos/PBEsol/N.psp8
- pspatm: opening atomic psp file    /scratch/users/j/a/jabreu/pseudos/PBEsol/N.psp8
- N     ONCVPSP-3.3.0  r_core=   1.20551   1.35824
-  7.00000   5.00000    180112                znucl, zion, pspdat
    8 -116133    1    4       600   0.00000   pspcod,pspxc,lmax,lloc,mmax,r2well
    5.99000000000000    4.00000000000000    0.00000000000000   rchrg,fchrg,qchrg
     nproj     2     2
     extension_switch     1
  pspatm : epsatm=    5.26508895
         --- l  ekb(1:nproj) -->
             0    7.464189    0.625868
             1   -4.309714   -1.012941
 pspatm: atomic psp has been read  and splines computed

   1.99834626E+03                                ecore*ucvol(ha*bohr**3)

 ==>  initialize data related to q vector <==

 The list of irreducible perturbations for this q vector is:
    1)    idir= 1    ipert=   6
    2)    idir= 2    ipert=   6
    3)    idir= 3    ipert=   6

 Perturbation wavevector (in red.coord.)   0.000000  0.000000  0.000000
 Perturbation : derivative vs k along direction   1

 dfpt_looppert : COMMENT -
  In a d/dk calculation, iscf is set to -3 automatically.
 The set of symmetries contains only one element for this perturbation.
 symkpt : not enough symmetry to change the number of k points.

 Initialisation of the first-order wave-functions :
  ireadwf=   0

--- !BeginCycle
iteration_state: {dtset: 1, }
solver: {iscf: 7, nstep: 2000, nline: 4, wfoptalg: 0, }
tolerances: {tolwfr: 1.00E-20, }
...

     iter   2DEtotal(Ha)        deltaE(Ha) residm    vres2
-ETOT  1  -34.733058601101     -3.473E+01 2.765E-01 0.000E+00
 ETOT  2  -35.016057483095     -2.830E-01 1.541E-02 0.000E+00
 ETOT  3  -35.037050865571     -2.099E-02 2.505E-03 0.000E+00
 ETOT  4  -35.039065888481     -2.015E-03 1.355E-04 0.000E+00
 ETOT  5  -35.039272855438     -2.070E-04 2.902E-05 0.000E+00
[...]
 ETOT 14  -35.039297637003     -5.045E-13 4.205E-14 0.000E+00
 ETOT 15  -35.039297637003     -1.421E-13 8.390E-15 0.000E+00
 ETOT 16  -35.039297637003     -7.816E-14 5.581E-16 0.000E+00
 ETOT 17  -35.039297637003      1.208E-13 1.069E-16 0.000E+00
 ETOT 18  -35.039297637003     -6.395E-14 7.495E-18 0.000E+00
 ETOT 19  -35.039297637003      5.684E-14 1.375E-18 0.000E+00
 ETOT 20  -35.039297637003     -7.816E-14 1.017E-19 0.000E+00
 ETOT 21  -35.039297637003      6.395E-14 1.789E-20 0.000E+00
 ETOT 22  -35.039297637003     -7.105E-14 9.373E-21 0.000E+00

 At SCF step   22   max residual=  9.37E-21 < tolwfr=  1.00E-20 =>converged.

 ----iterations are completed or convergence reached----

 dfpt_looppert: DFPT cycle converged with prtwf=-1. Will skip output of the 1st-order WFK file.
 dfpt_looppert : ek2=    4.0710448720E+01
          f-sum rule ratio=    1.8686886592E+00
 prteigrs : about to open file /scratch/users/j/a/jabreu/flow_simple_remain_atoms/flow/w152/t1/tmpdata/tmp_1WF1_EIG
 Expectation of eigenvalue derivatives (hartree) for nkpt=   1  k points:
  (in case of degenerate eigenvalues, averaged derivative)
 kpt#   1, nband= 29, wtk=  1.00000, kpt=  0.0000  0.0000  0.0000 (reduced coord)
  -0.00000    0.00000    0.00000   -0.00000   -0.00000   -0.00000   -0.00000   -0.00000
  -0.00000    0.00000    0.00000    0.00000    0.00000    0.00000   -0.00000   -0.00000
  -0.00000   -0.00000   -0.00000   -0.00000    0.00000    0.00000   -0.00000    0.00000
   0.00000    0.00000    0.00000    0.00000    0.00000

 Eight components of 2nd-order total energy (hartree) are
 1,2,3: 0th-order hamiltonian combined with 1st-order wavefunctions
     kin0=   5.02550477E+01 eigvalue=  -1.39528302E+00  local=  -3.20841584E+01
 4,5,6: 1st-order hamiltonian combined with 1st and 0th-order wfs
     kin1=  -7.60751538E+01  Hartree=   0.00000000E+00     xc=   0.00000000E+00
 7,8,9: eventually, occupation + non-local contributions
    edocc=   2.09649228E+01     enl0=  -2.70123145E+00   enl1=   5.99655856E+00
 1-9 gives the relaxation energy (to be shifted if some occ is /=2.0)
   erelax=  -3.50392976E+01
  No Ewald or frozen-wf contrib.: the relaxation energy is the total one
 2DEtotal=   -0.3503929764E+02 Ha. Also 2DEtotal=   -0.953467778185E+03 eV
    (  non-var. 2DEtotal :   -3.5039297637E+01 Ha)

 Perturbation wavevector (in red.coord.)   0.000000  0.000000  0.000000
 Perturbation : derivative vs k along direction   2
 The set of symmetries contains only one element for this perturbation.
 symkpt : not enough symmetry to change the number of k points.

[...]

 Perturbation wavevector (in red.coord.)   0.000000  0.000000  0.000000
 Perturbation : derivative vs k along direction   3
 The set of symmetries contains only one element for this perturbation.
 symkpt : not enough symmetry to change the number of k points.

 Initialisation of the first-order wave-functions :
  ireadwf=   0

--- !BeginCycle
iteration_state: {dtset: 1, }
solver: {iscf: 7, nstep: 2000, nline: 4, wfoptalg: 0, }
tolerances: {tolwfr: 1.00E-20, }
...

     iter   2DEtotal(Ha)        deltaE(Ha) residm    vres2
-ETOT  1  -34.733059395594     -3.473E+01 2.765E-01 0.000E+00
 ETOT  2  -35.016193808020     -2.831E-01 1.541E-02 0.000E+00
 ETOT  3  -35.037058404508     -2.086E-02 2.505E-03 0.000E+00
 ETOT  4  -35.039067049338     -2.009E-03 1.355E-04 0.000E+00
 ETOT  5  -35.039273706930     -2.067E-04 2.902E-05 0.000E+00
 ETOT  6  -35.039295776863     -2.207E-05 1.574E-06 0.000E+00
 ETOT  7  -35.039298175506     -2.399E-06 3.499E-07 0.000E+00
 ETOT  8  -35.039298439397     -2.639E-07 1.951E-08 0.000E+00
 ETOT  9  -35.039298468689     -2.929E-08 4.289E-09 0.000E+00
 ETOT 10  -35.039298471964     -3.275E-09 2.481E-10 0.000E+00
 ETOT 11  -35.039298472332     -3.685E-10 5.316E-11 0.000E+00
 ETOT 12  -35.039298472374     -4.172E-11 3.208E-12 0.000E+00
 ETOT 13  -35.039298472379     -4.675E-12 6.650E-13 0.000E+00
 ETOT 14  -35.039298472379     -4.050E-13 4.205E-14 0.000E+00
 ETOT 15  -35.039298472379     -2.132E-13 8.390E-15 0.000E+00
 ETOT 16  -35.039298472379      1.421E-14 5.581E-16 0.000E+00
 ETOT 17  -35.039298472380     -2.842E-14 1.069E-16 0.000E+00
 ETOT 18  -35.039298472379      4.263E-14 7.495E-18 0.000E+00
 ETOT 19  -35.039298472379      2.842E-14 1.375E-18 0.000E+00
 ETOT 20  -35.039298472380     -7.816E-14 1.017E-19 0.000E+00
 ETOT 21  -35.039298472380     -4.974E-14 1.789E-20 0.000E+00
 ETOT 22  -35.039298472380      1.421E-14 9.222E-21 0.000E+00

 At SCF step   22   max residual=  9.22E-21 < tolwfr=  1.00E-20 =>converged.

 ----iterations are completed or convergence reached----

 dfpt_looppert: DFPT cycle converged with prtwf=-1. Will skip output of the 1st-order WFK file.
 dfpt_looppert : ek2=    4.0710448720E+01
          f-sum rule ratio=    1.8686886676E+00
 prteigrs : about to open file /scratch/users/j/a/jabreu/flow_simple_remain_atoms/flow/w152/t1/tmpdata/tmp_1WF1_EIG
 Expectation of eigenvalue derivatives (hartree) for nkpt=   1  k points:
  (in case of degenerate eigenvalues, averaged derivative)
 kpt#   1, nband= 29, wtk=  1.00000, kpt=  0.0000  0.0000  0.0000 (reduced coord)
   0.00000   -0.00000   -0.00000   -0.00000   -0.00000   -0.00000    0.00000    0.00000
   0.00000    0.00000    0.00000    0.00000    0.00000    0.00000    0.00000    0.00000
   0.00000   -0.00000   -0.00000   -0.00000    0.00000    0.00000   -0.00000   -0.00000
  -0.00000   -0.00000   -0.00000   -0.00000   -0.00000

 Eight components of 2nd-order total energy (hartree) are
 1,2,3: 0th-order hamiltonian combined with 1st-order wavefunctions
     kin0=   5.02550472E+01 eigvalue=  -1.39528308E+00  local=  -3.20841581E+01
 4,5,6: 1st-order hamiltonian combined with 1st and 0th-order wfs
     kin1=  -7.60751542E+01  Hartree=   0.00000000E+00     xc=   0.00000000E+00
 7,8,9: eventually, occupation + non-local contributions
    edocc=   2.09649237E+01     enl0=  -2.70123128E+00   enl1=   5.99655723E+00
 1-9 gives the relaxation energy (to be shifted if some occ is /=2.0)
   erelax=  -3.50392985E+01
  No Ewald or frozen-wf contrib.: the relaxation energy is the total one
 2DEtotal=   -0.3503929847E+02 Ha. Also 2DEtotal=   -0.953467800917E+03 eV
    (  non-var. 2DEtotal :   -3.5039298472E+01 Ha)

 CALCULATION OF EFFECTIVE MASSES
 NOTE : Additional infos (eff. mass eigenvalues, eigenvectors and, if degenerate, average mass) are available in stdout.

 COMMENTS:
 - At k-point ( 0.000, 0.000, 0.000), bands    18 through    20
   are DEGENERATE (effective mass tensor is therefore not defined).
   See Section IIIB Eqs. (67)-(70) and Appendix E of PRB 93 205147 (2016).
 - Angular average effective mass for Frohlich model is to be averaged over degenerate bands. See later.
 - Associated theta integrals calculated with ntheta=   1000 points.

 K-point ( 0.000, 0.000, 0.000) | band =    18
 Transport equivalent effective mass tensor:
             -0.1286945414             -0.0000000424              0.0000000821
             -0.0000000424             -0.1286945403              0.0000000753
              0.0000000821              0.0000000753             -0.1286945418
 Transport equivalent effective mass tensor eigenvalues:
             -0.1286946759             -0.1286944986             -0.1286944491
 Angular average effective mass 1/(<1/m>)=  -0.1279109420
 Angular average effective mass for Frohlich model (<m**0.5>)**2=  -0.1279656122
 Effective masses along directions: (cart. coord. / red. coord. -> eff. mass)
    1:   1.000000  0.000000  0.000000 /   1.000000  0.000000  0.000000 ->  -0.1214420932
    2:   0.000000  1.000000  0.000000 /   0.000000  1.000000  0.000000 ->  -0.1214420929
    3:   0.000000  0.000000  1.000000 /   0.000000  0.000000  1.000000 ->  -0.1214420933
    4:   0.577350  0.577350  0.577350 /   0.577350  0.577350  0.577350 ->  -0.1328643850
    5:   0.000000  0.707107  0.707107 /   0.000000  0.707107  0.707107 ->  -0.1298118762
    6:   0.707107  0.000000  0.707107 /   0.707107  0.000000  0.707107 ->  -0.1298118821
    7:   0.707107  0.707107  0.000000 /   0.707107  0.707107  0.000000 ->  -0.1298120852

[...]

 Angular average effective mass for Frohlich model, averaged over degenerate bands.
 Value of     (<<m**0.5>>)**2 =     2.823970E-01
 Absolute Value of <<m**0.5>> =     5.314103E-01

 COMMENTS:
 - At k-point ( 0.000, 0.000, 0.000), bands    21 through    22
   are DEGENERATE (effective mass tensor is therefore not defined).
   See Section IIIB Eqs. (67)-(70) and Appendix E of PRB 93 205147 (2016).
 - Angular average effective mass for Frohlich model is to be averaged over degenerate bands. See later.
 - Associated theta integrals calculated with ntheta=   1000 points.

[...]

 K-point ( 0.000, 0.000, 0.000) | band =    22
 Transport equivalent effective mass tensor:
              0.2200341678             -0.0000000000             -0.0000000000
             -0.0000000000              0.2200343582             -0.0000000000
             -0.0000000000             -0.0000000000              0.2200329832
 Transport equivalent effective mass tensor eigenvalues:
              0.2200343582              0.2200341678              0.2200329832
 Angular average effective mass 1/(<1/m>)=   0.1897442192
 Angular average effective mass for Frohlich model (<m**0.5>)**2=   0.1914196238
 Effective masses along directions: (cart. coord. / red. coord. -> eff. mass)
    1:   1.000000  0.000000  0.000000 /   1.000000  0.000000  0.000000 ->   0.1583608053
    2:   0.000000  1.000000  0.000000 /   0.000000  1.000000  0.000000 ->   0.1583608054
    3:   0.000000  0.000000  1.000000 /   0.000000  0.000000  1.000000 ->   0.1583608054
    4:   0.577350  0.577350  0.577350 /   0.577350  0.577350  0.577350 ->   0.2668691682
    5:   0.000000  0.707107  0.707107 /   0.000000  0.707107  0.707107 ->   0.1987706372
    6:   0.707107  0.000000  0.707107 /   0.707107  0.000000  0.707107 ->   0.1987706372
    7:   0.707107  0.707107  0.000000 /   0.707107  0.707107  0.000000 ->   0.1987706372

 Angular average effective mass for Frohlich model, averaged over degenerate bands.
 Value of     (<<m**0.5>>)**2 =     3.168351E-01
 Absolute Value of <<m**0.5>> =     5.628810E-01

 END OF EFFECTIVE MASSES SECTION

 ---- first-order wavefunction calculations are completed ----

 Total localisation tensor (bohr^2) in cartesian coordinates
  WARNING : still subject to testing - especially symmetries.
      direction              matrix element
   alpha     beta       real part   imaginary part
     1        1       8.5262677966    0.0000000000
     1        2       0.0000000000    0.0000000000
     1        3       0.0000000000    0.0000000000
     2        1       0.0000000000    0.0000000000
     2        2       8.5262677753    0.0000000000
     2        3       0.0000000000    0.0000000000
     3        1       0.0000000000    0.0000000000
     3        2       0.0000000000    0.0000000000
     3        3       8.5262678554    0.0000000000

 respfn : d/dk was computed, but no 2DTE, so no DDB output.

== END DATASET(S) ==============================================================

 -outvars: echo values of variables after computation  --------
            acell      1.0000000000E+00  1.0000000000E+00  1.0000000000E+00 Bohr
              amu      4.00780000E+01  3.09737620E+01  1.40067400E+01
             ecut      4.20000000E+01 Hartree
           etotal     -3.5039298472E+01
            fcart      0.0000000000E+00  0.0000000000E+00  0.0000000000E+00
                       0.0000000000E+00  0.0000000000E+00  0.0000000000E+00
                       0.0000000000E+00  0.0000000000E+00  0.0000000000E+00
                       0.0000000000E+00  0.0000000000E+00  0.0000000000E+00
                       0.0000000000E+00  0.0000000000E+00  0.0000000000E+00
-          fftalg         512
           irdden           1
           irdwfk           1
           istwfk        1
              ixc     -116133
           kptopt           0
P           mkmem           1
P          mkqmem           1
P          mk1mem           1
            natom           5
            nband          29
           nbdbuf           4
            ngfft          54      54      54
             nkpt           1
            nstep        2000
             nsym          48
           ntypat           3
              occ      2.000000  2.000000  2.000000  2.000000  2.000000  2.000000
                       2.000000  2.000000  2.000000  2.000000  2.000000  2.000000
                       2.000000  2.000000  2.000000  2.000000  2.000000  2.000000
                       2.000000  2.000000  0.000000  0.000000  0.000000  0.000000
                       0.000000  0.000000  0.000000  0.000000  0.000000
        optdriver           1
            prtwf          -1
            rfdir           1       1       1
           rfelfd           2
            rprim      8.8078907103E+00  0.0000000000E+00  0.0000000000E+00
                       0.0000000000E+00  8.8078907103E+00  0.0000000000E+00
                       0.0000000000E+00  0.0000000000E+00  8.8078907103E+00
          spgroup         221
           strten      0.0000000000E+00  0.0000000000E+00  0.0000000000E+00
                       0.0000000000E+00  0.0000000000E+00  0.0000000000E+00
           symrel      1  0  0   0  1  0   0  0  1      -1  0  0   0 -1  0   0  0 -1
                      -1  0  0   0  1  0   0  0 -1       1  0  0   0 -1  0   0  0  1
                      -1  0  0   0 -1  0   0  0  1       1  0  0   0  1  0   0  0 -1
                       1  0  0   0 -1  0   0  0 -1      -1  0  0   0  1  0   0  0  1
                       0  1  0   1  0  0   0  0  1       0 -1  0  -1  0  0   0  0 -1
                       0 -1  0   1  0  0   0  0 -1       0  1  0  -1  0  0   0  0  1
                       0 -1  0  -1  0  0   0  0  1       0  1  0   1  0  0   0  0 -1
                       0  1  0  -1  0  0   0  0 -1       0 -1  0   1  0  0   0  0  1
                       0  0  1   1  0  0   0  1  0       0  0 -1  -1  0  0   0 -1  0
                       0  0 -1   1  0  0   0 -1  0       0  0  1  -1  0  0   0  1  0
                       0  0 -1  -1  0  0   0  1  0       0  0  1   1  0  0   0 -1  0
                       0  0  1  -1  0  0   0 -1  0       0  0 -1   1  0  0   0  1  0
                       1  0  0   0  0  1   0  1  0      -1  0  0   0  0 -1   0 -1  0
                      -1  0  0   0  0  1   0 -1  0       1  0  0   0  0 -1   0  1  0
                      -1  0  0   0  0 -1   0  1  0       1  0  0   0  0  1   0 -1  0
                       1  0  0   0  0 -1   0 -1  0      -1  0  0   0  0  1   0  1  0
                       0  1  0   0  0  1   1  0  0       0 -1  0   0  0 -1  -1  0  0
                       0 -1  0   0  0  1  -1  0  0       0  1  0   0  0 -1   1  0  0
                       0 -1  0   0  0 -1   1  0  0       0  1  0   0  0  1  -1  0  0
                       0  1  0   0  0 -1  -1  0  0       0 -1  0   0  0  1   1  0  0
                       0  0  1   0  1  0   1  0  0       0  0 -1   0 -1  0  -1  0  0
                       0  0 -1   0  1  0  -1  0  0       0  0  1   0 -1  0   1  0  0
                       0  0 -1   0 -1  0   1  0  0       0  0  1   0  1  0  -1  0  0
                       0  0  1   0 -1  0  -1  0  0       0  0 -1   0  1  0   1  0  0
           tolwfr      1.00000000E-20
            typat      1  1  1  2  3
           useylm           1
           xangst      2.3304675098E+00  0.0000000000E+00  2.3304675098E+00
                       2.3304675098E+00  2.3304675098E+00  0.0000000000E+00
                       0.0000000000E+00  2.3304675098E+00  2.3304675098E+00
                       0.0000000000E+00  0.0000000000E+00  0.0000000000E+00
                       2.3304675098E+00  2.3304675098E+00  2.3304675098E+00
            xcart      4.4039453551E+00  0.0000000000E+00  4.4039453551E+00
                       4.4039453551E+00  4.4039453551E+00  0.0000000000E+00
                       0.0000000000E+00  4.4039453551E+00  4.4039453551E+00
                       0.0000000000E+00  0.0000000000E+00  0.0000000000E+00
                       4.4039453551E+00  4.4039453551E+00  4.4039453551E+00
             xred      5.0000000000E-01  0.0000000000E+00  5.0000000000E-01
                       5.0000000000E-01  5.0000000000E-01  0.0000000000E+00
                       0.0000000000E+00  5.0000000000E-01  5.0000000000E-01
                       0.0000000000E+00  0.0000000000E+00  0.0000000000E+00
                       5.0000000000E-01  5.0000000000E-01  5.0000000000E-01
            znucl       20.00000   15.00000    7.00000

- Timing analysis has been suppressed with timopt=0

 Suggested references for the acknowledgment of ABINIT usage.

 Calculation completed.
.Delivered   2 WARNINGs and   5 COMMENTs to log file.