.Version 9.5.2 of ABINIT

 ABINIT is a project of the Universite Catholique de Louvain,
 Corning Inc. and other collaborators, see ~abinit/doc/developers/contributors.txt .
 acknowledgments of the ABINIT effort.

.Starting date : Wed 26 May 2021.
- ( at 03h05 )

- input  file    -> /scratch/users/j/a/jabreu/flow_simple_11atoms/flow/w285/t1/run.abi
- output file    -> /scratch/users/j/a/jabreu/flow_simple_11atoms/flow/w285/t1/run.abo
- root for input  files -> /scratch/users/j/a/jabreu/flow_simple_11atoms/flow/w285/t1/indata/in
- root for output files -> /scratch/users/j/a/jabreu/flow_simple_11atoms/flow/w285/t1/outdata/out

 Symmetries : space group I-4 (# 82); Bravais tI (body-center tetrag.)
     intxc =       0      iscf =       7    lmnmax =      32     lnmax =       8
     mgfft =      72  mpssoang =       4    mqgrid =    3001     natom =      12
  nloc_mem =       1    nspden =       1   nspinor =       1    nsppol =       1
      nsym =       4    n1xccc =    2501    ntypat =       4    occopt =       1
   xclevel =       2
-    mband =          51        mffmem =           1         mkmem =           2
-   mkqmem =           2        mk1mem =           2           mpw =       11850
      nfft =      373248          nkpt =           2
  Rough estimation (10% accuracy) of disk space for files :

------------- Echo of variables that govern the present computation ------------
-
- outvars: echo of selected default values
-   iomode0 =  0 , fftalg0 =512 , wfoptalg0 =  0
-
- outvars: echo of global parameters not present in the input file
-  max_nthreads =    0
-
 -outvars: echo values of preprocessed input variables --------
            acell      1.0000000000E+00  1.0000000000E+00  1.0000000000E+00 Bohr
              amu      6.94100000E+00  4.00780000E+01  1.78490000E+02
                       1.89984032E+01
             ecut      4.20000000E+01 Hartree
-          fftalg         512
           irdden           1
           irdwfk           1
           istwfk        0    1
              ixc     -116133
              kpt      5.00000000E-01  5.00000000E-01 -3.47505044E-01
                       0.00000000E+00  0.00000000E+00  5.00000000E-01
           kptopt           0
P           mkmem           2
P          mkqmem           2
P          mk1mem           2
            natom          12
            nband          51
           nbdbuf           4
            ngfft          72      72      72
             nkpt           2
            nstep        2000
             nsym           4
           ntypat           4
              occ      2.000000  2.000000  2.000000  2.000000  2.000000  2.000000
                       2.000000  2.000000  2.000000  2.000000  2.000000  2.000000
                       2.000000  2.000000  2.000000  2.000000  2.000000  2.000000
                       2.000000  2.000000  2.000000  2.000000  2.000000  2.000000
                       2.000000  2.000000  2.000000  2.000000  2.000000  2.000000
                       2.000000  2.000000  2.000000  2.000000  2.000000  2.000000
                       2.000000  2.000000  2.000000  2.000000  2.000000  2.000000
                       0.000000  0.000000  0.000000  0.000000  0.000000  0.000000
                       0.000000  0.000000  0.000000
        optdriver           1
            prtwf          -1
            rfdir           1       1       1
           rfelfd           2
            rprim      8.8100912867E+00  0.0000000000E+00 -8.1249092712E+00
                      -1.6909706807E+00  8.6462897614E+00 -8.1249092712E+00
                       0.0000000000E+00  0.0000000000E+00  1.1984650981E+01
          spgroup          82
           symrel      1  0  0   0  1  0   0  0  1       0  1  0   1  0  0  -1 -1 -1
                       0  0  1  -1 -1 -1   0  1  0      -1 -1 -1   0  0  1   1  0  0
           tolwfr      1.00000000E-20
            typat      1  1  2  3  4  4  4  4  4  4  4  4
           useylm           1
              wtk        0.50000    0.50000
           xangst      3.2728688497E+00  1.1438548701E+00 -1.1285147320E+00
                       1.7907191851E-16 -2.5398680273E-16  4.7138751549E-16
                       1.8836381849E+00  2.2877097403E+00 -4.2995168082E+00
                       4.9440752016E-01  3.4315646104E+00 -1.1285147320E+00
                       3.2395934677E+00  4.0871856187E+00 -5.0275015723E+00
                       4.0483981410E+00  1.7298562955E+00 -4.7744749461E+00
                       4.3895002224E-02  2.3192927171E+00  3.5328019145E+00
                       2.3693073384E+00  6.1158145186E-01 -2.6990764264E+00
                       1.8817569314E+00  2.1327791736E+00 -3.2028284408E-01
                       2.2164521774E+00  3.4924222650E+00 -2.3861757655E+00
                       3.8805576324E-01  3.6582903720E+00  9.9000773972E-01
                       8.8164665823E-01  2.7027002872E-01  1.6565840436E+00
            xcart      6.1848257949E+00  2.1615724403E+00 -2.1325837805E+00
                       3.3839688407E-16 -4.7996549853E-16  8.9079330673E-16
                       3.5595603030E+00  4.3231448807E+00 -8.1249092712E+00
                       9.3429481115E-01  6.4847173211E+00 -2.1325837805E+00
                       6.1219444359E+00  7.7236614735E+00 -9.5006011042E+00
                       7.6503637633E+00  3.2689546478E+00 -9.0224500764E+00
                       8.2949532805E-02  4.3828280574E+00  6.6760281002E+00
                       4.4773419942E+00  1.1557214520E+00 -5.1005152576E+00
                       3.5560052491E+00  4.0303685399E+00 -6.0524686038E-01
                       4.1884876018E+00  6.5997216212E+00 -4.5092187017E+00
                       7.3331911680E-01  6.9131669176E+00  1.8708434975E+00
                       1.6660707300E+00  5.1073633621E-01  3.1304901586E+00
             xred      7.5000000000E-01  2.5000000000E-01  5.0000000000E-01
                       2.7755575616E-17 -5.5511151231E-17  5.5511151231E-17
                       5.0000000000E-01  5.0000000000E-01  5.5511151231E-17
                       2.5000000000E-01  7.5000000000E-01  5.0000000000E-01
                       8.6633325000E-01  8.9329200000E-01  4.0019475000E-01
                       9.4093000000E-01  3.7807600000E-01  1.4137700000E-01
                       1.0670800000E-01  5.0690275000E-01  9.7304125000E-01
                       5.3386150000E-01  1.3366675000E-01  2.6958750000E-02
                       4.9309725000E-01  4.6613850000E-01  5.9980525000E-01
                       6.2192400000E-01  7.6330100000E-01  5.6285400000E-01
                       2.3669900000E-01  7.9955300000E-01  8.5862300000E-01
                       2.0044700000E-01  5.9070000000E-02  4.3714600000E-01
            znucl        3.00000   20.00000   72.00000    9.00000

 chkinp: Checking input parameters for consistency.

== DATASET  1 ==================================================================
-   mpi_nproc: 1, omp_nthreads: -1 (-1 if OMP is not activated)

--- !DatasetInfo
iteration_state: {dtset: 1, }
dimensions: {natom: 12, nkpt: 2, mband: 51, nsppol: 1, nspinor: 1, nspden: 1, mpw: 11850, }
cutoff_energies: {ecut:  42.0, pawecutdg:  -1.0, }
electrons: {nelect:   8.40000000E+01, charge:   0.00000000E+00, occopt:   1.00000000E+00, tsmear:   1.00000000E-02, }
meta: {optdriver: 1, rfelfd: 2, }
...

 Real(R)+Recip(G) space primitive vectors, cartesian coordinates (Bohr,Bohr^-1):
 R(1)=  8.8100913  0.0000000 -8.1249093  G(1)=  0.1135062  0.0221986  0.0000000
 R(2)= -1.6909707  8.6462898 -8.1249093  G(2)=  0.0000000  0.1156565  0.0000000
 R(3)=  0.0000000  0.0000000 11.9846510  G(3)=  0.0769507  0.0934579  0.0834401
 Unit cell volume ucvol=  9.1292602E+02 bohr^3
 Angles (23,13,12)=  1.32683104E+02  1.32683104E+02  6.91522549E+01 degrees

 getcut: wavevector=  0.0000  0.0000  0.0000  ngfft=  72  72  72
         ecut(hartree)=     42.000   => boxcut(ratio)=   2.05989

--- Pseudopotential description ------------------------------------------------
- pspini: atom type   1  psp file is /scratch/users/j/a/jabreu/pseudos/PBEsol/Li.psp8
- pspatm: opening atomic psp file    /scratch/users/j/a/jabreu/pseudos/PBEsol/Li.psp8
- Li    ONCVPSP-3.3.0  r_core=   1.40824   1.10935
-  3.00000   3.00000    180112                znucl, zion, pspdat
    8 -116133    1    4       400   0.00000   pspcod,pspxc,lmax,lloc,mmax,r2well
    3.99000000000000    0.00000000000000    0.00000000000000   rchrg,fchrg,qchrg
     nproj     2     2
     extension_switch     1
  pspatm : epsatm=    2.60859637
         --- l  ekb(1:nproj) -->
             0   -4.855856   -1.482423
             1   -2.171544   -0.427615
 pspatm: atomic psp has been read  and splines computed

- pspini: atom type   2  psp file is /scratch/users/j/a/jabreu/pseudos/PBEsol/Ca.psp8
- pspatm: opening atomic psp file    /scratch/users/j/a/jabreu/pseudos/PBEsol/Ca.psp8
- Ca    ONCVPSP-3.3.0  r_core=   1.45885   1.45885   1.85192
- 20.00000  10.00000    180112                znucl, zion, pspdat
    8 -116133    2    4       400   0.00000   pspcod,pspxc,lmax,lloc,mmax,r2well
    3.99000000000000    6.00000000000000    0.00000000000000   rchrg,fchrg,qchrg
     nproj     2     2     2
     extension_switch     1
  pspatm : epsatm=   12.46045226
         --- l  ekb(1:nproj) -->
             0   10.054847    0.973777
             1    2.998958    0.458102
             2   -3.447298   -1.091650
 pspatm: atomic psp has been read  and splines computed

[...]

- pspini: atom type   4  psp file is /scratch/users/j/a/jabreu/pseudos/PBEsol/F.psp8
- pspatm: opening atomic psp file    /scratch/users/j/a/jabreu/pseudos/PBEsol/F.psp8
- F     ONCVPSP-3.3.0  r_core=   1.30942   1.45782   1.60379
-  9.00000   7.00000    180112                znucl, zion, pspdat
    8 -116133    2    4       600   0.00000   pspcod,pspxc,lmax,lloc,mmax,r2well
    5.99000000000000    2.50000000000000    0.00000000000000   rchrg,fchrg,qchrg
     nproj     2     2     1
     extension_switch     1
  pspatm : epsatm=    4.89824824
         --- l  ekb(1:nproj) -->
             0    6.506434    1.065875
             1   -3.978753   -1.295852
             2   -2.394754
 pspatm: atomic psp has been read  and splines computed

   6.62377463E+03                                ecore*ucvol(ha*bohr**3)

 ==>  initialize data related to q vector <==

 The list of irreducible perturbations for this q vector is:
    1)    idir= 1    ipert=  13
    2)    idir= 2    ipert=  13
    3)    idir= 3    ipert=  13

 Perturbation wavevector (in red.coord.)   0.000000  0.000000  0.000000
 Perturbation : derivative vs k along direction   1

 dfpt_looppert : COMMENT -
  In a d/dk calculation, iscf is set to -3 automatically.
 The set of symmetries contains only one element for this perturbation.
 symkpt : not enough symmetry to change the number of k points.

 Initialisation of the first-order wave-functions :
  ireadwf=   0

--- !BeginCycle
iteration_state: {dtset: 1, }
solver: {iscf: 7, nstep: 2000, nline: 4, wfoptalg: 0, }
tolerances: {tolwfr: 1.00E-20, }
...

     iter   2DEtotal(Ha)        deltaE(Ha) residm    vres2
-ETOT  1  -45.975319602104     -4.598E+01 4.232E-02 0.000E+00
[...]
  -0.00624    0.00118   -0.00357   -0.00604   -0.03259    0.01846   -0.00511    0.03392
  -0.00722    0.04661    0.00134
 prteigrs : prtvol=0 or 1, do not print more k-points.

 Eight components of 2nd-order total energy (hartree) are
 1,2,3: 0th-order hamiltonian combined with 1st-order wavefunctions
     kin0=   6.12872376E+01 eigvalue=   3.56170043E+00  local=  -2.64514690E+01
 4,5,6: 1st-order hamiltonian combined with 1st and 0th-order wfs
     kin1=  -8.86526493E+01  Hartree=   0.00000000E+00     xc=   0.00000000E+00
 7,8,9: eventually, occupation + non-local contributions
    edocc=   7.83201581E+00     enl0=  -1.86241456E-01   enl1=  -3.43383725E+00
 1-9 gives the relaxation energy (to be shifted if some occ is /=2.0)
   erelax=  -4.60432433E+01
  No Ewald or frozen-wf contrib.: the relaxation energy is the total one
 2DEtotal=   -0.4604324330E+02 Ha. Also 2DEtotal=   -0.125290036753E+04 eV
    (  non-var. 2DEtotal :   -4.6043243297E+01 Ha)

 Perturbation wavevector (in red.coord.)   0.000000  0.000000  0.000000
 Perturbation : derivative vs k along direction   2
 The set of symmetries contains only one element for this perturbation.
 symkpt : not enough symmetry to change the number of k points.

[...]

 Perturbation wavevector (in red.coord.)   0.000000  0.000000  0.000000
 Perturbation : derivative vs k along direction   3
 The set of symmetries contains only one element for this perturbation.
 symkpt : not enough symmetry to change the number of k points.

 Initialisation of the first-order wave-functions :
  ireadwf=   0

--- !BeginCycle
iteration_state: {dtset: 1, }
solver: {iscf: 7, nstep: 2000, nline: 4, wfoptalg: 0, }
tolerances: {tolwfr: 1.00E-20, }
...

     iter   2DEtotal(Ha)        deltaE(Ha) residm    vres2
-ETOT  1  -74.332660629978     -7.433E+01 8.295E-02 0.000E+00
 ETOT  2  -74.437340043352     -1.047E-01 3.597E-02 0.000E+00
 ETOT  3  -74.438212472558     -8.724E-04 1.387E-03 0.000E+00
 ETOT  4  -74.438225656335     -1.318E-05 1.834E-03 0.000E+00
 ETOT  5  -74.438225901593     -2.453E-07 1.283E-04 0.000E+00
 ETOT  6  -74.438225906757     -5.164E-09 2.112E-04 0.000E+00
 ETOT  7  -74.438225906872     -1.153E-10 1.690E-05 0.000E+00
 ETOT  8  -74.438225906875     -2.714E-12 2.845E-05 0.000E+00
 ETOT  9  -74.438225906875     -8.527E-14 2.471E-06 0.000E+00
 ETOT 10  -74.438225906875     -4.263E-14 4.086E-06 0.000E+00
 ETOT 11  -74.438225906875      0.000E+00 3.758E-07 0.000E+00
 ETOT 12  -74.438225906875      0.000E+00 6.069E-07 0.000E+00
 ETOT 13  -74.438225906875      1.421E-14 5.830E-08 0.000E+00
 ETOT 14  -74.438225906875      1.421E-14 9.193E-08 0.000E+00
 ETOT 15  -74.438225906875     -2.842E-14 9.142E-09 0.000E+00
 ETOT 16  -74.438225906875      0.000E+00 1.410E-08 0.000E+00
 ETOT 17  -74.438225906875      0.000E+00 1.443E-09 0.000E+00
 ETOT 18  -74.438225906875      4.263E-14 2.182E-09 0.000E+00
 ETOT 19  -74.438225906875     -4.263E-14 2.288E-10 0.000E+00
 ETOT 20  -74.438225906875      2.842E-14 3.400E-10 0.000E+00
 ETOT 21  -74.438225906875      1.421E-14 3.638E-11 0.000E+00
 ETOT 22  -74.438225906875      0.000E+00 5.330E-11 0.000E+00
 ETOT 23  -74.438225906875     -4.263E-14 5.796E-12 0.000E+00
 ETOT 24  -74.438225906875      4.263E-14 8.399E-12 0.000E+00
 ETOT 25  -74.438225906875     -7.105E-14 9.247E-13 0.000E+00
 ETOT 26  -74.438225906875      4.263E-14 1.330E-12 0.000E+00
 ETOT 27  -74.438225906875     -4.263E-14 1.477E-13 0.000E+00
 ETOT 28  -74.438225906875      0.000E+00 2.114E-13 0.000E+00
 ETOT 29  -74.438225906875      2.842E-14 2.363E-14 0.000E+00
 ETOT 30  -74.438225906875     -1.421E-14 3.375E-14 0.000E+00
 ETOT 31  -74.438225906875      5.684E-14 3.784E-15 0.000E+00
 ETOT 32  -74.438225906875     -7.105E-14 5.406E-15 0.000E+00
 ETOT 33  -74.438225906875      0.000E+00 6.069E-16 0.000E+00
 ETOT 34  -74.438225906875      0.000E+00 8.685E-16 0.000E+00
 ETOT 35  -74.438225906875      4.263E-14 9.747E-17 0.000E+00
 ETOT 36  -74.438225906875     -1.421E-14 1.399E-16 0.000E+00
 ETOT 37  -74.438225906875     -1.421E-14 1.568E-17 0.000E+00
 ETOT 38  -74.438225906875      1.421E-14 2.258E-17 0.000E+00
 ETOT 39  -74.438225906875     -1.421E-14 2.525E-18 0.000E+00
 ETOT 40  -74.438225906875      0.000E+00 3.652E-18 0.000E+00
 ETOT 41  -74.438225906875      0.000E+00 4.072E-19 0.000E+00
 ETOT 42  -74.438225906875      0.000E+00 5.916E-19 0.000E+00
 ETOT 43  -74.438225906875      0.000E+00 6.575E-20 0.000E+00
 ETOT 44  -74.438225906875      0.000E+00 9.593E-20 0.000E+00
 ETOT 45  -74.438225906875     -2.842E-14 1.063E-20 0.000E+00
 ETOT 46  -74.438225906875      2.842E-14 9.965E-21 0.000E+00

 At SCF step   46   max residual=  9.96E-21 < tolwfr=  1.00E-20 =>converged.

 ----iterations are completed or convergence reached----

 dfpt_looppert: DFPT cycle converged with prtwf=-1. Will skip output of the 1st-order WFK file.
 dfpt_looppert : ek2=    1.4337894627E+02
          f-sum rule ratio=    9.9978510970E-01
 prteigrs : about to open file /scratch/users/j/a/jabreu/flow_simple_11atoms/flow/w285/t1/tmpdata/tmp_1WF1_EIG
 Expectation of eigenvalue derivatives (hartree) for nkpt=   2  k points:
  (in case of degenerate eigenvalues, averaged derivative)
 kpt#   1, nband= 51, wtk=  0.50000, kpt=  0.5000  0.5000 -0.3475 (reduced coord)
   0.00000    0.00000    0.00000    0.00005   -0.00032   -0.00028    0.00000    0.01869
  -0.02067   -0.00238    0.00016   -0.01380    0.00416    0.00020    0.00939    0.00122
   0.00153    0.00196    0.02248    0.03748    0.01924    0.03880    0.01320   -0.05432
  -0.02525   -0.00741   -0.00860    0.02949   -0.01447    0.01381   -0.00732   -0.07430
   0.02453    0.00441    0.00872   -0.01648    0.01826   -0.03164   -0.00271    0.00532
  -0.00955   -0.00015   -0.00708   -0.01555   -0.03365    0.00260   -0.00796    0.06836
  -0.01197    0.08807   -0.00500
 prteigrs : prtvol=0 or 1, do not print more k-points.

 Eight components of 2nd-order total energy (hartree) are
 1,2,3: 0th-order hamiltonian combined with 1st-order wavefunctions
     kin0=   1.00265287E+02 eigvalue=   5.96741091E+00  local=  -4.36252843E+01
 4,5,6: 1st-order hamiltonian combined with 1st and 0th-order wfs
     kin1=  -1.43348136E+02  Hartree=   0.00000000E+00     xc=   0.00000000E+00
 7,8,9: eventually, occupation + non-local contributions
    edocc=   1.21588126E+01     enl0=  -3.28000490E-01   enl1=  -5.52831629E+00
 1-9 gives the relaxation energy (to be shifted if some occ is /=2.0)
   erelax=  -7.44382259E+01
  No Ewald or frozen-wf contrib.: the relaxation energy is the total one
 2DEtotal=   -0.7443822591E+02 Ha. Also 2DEtotal=   -0.202556713901E+04 eV
    (  non-var. 2DEtotal :   -7.4438225907E+01 Ha)

 CALCULATION OF EFFECTIVE MASSES
 NOTE : Additional infos (eff. mass eigenvalues, eigenvectors and, if degenerate, average mass) are available in stdout.

 K-point ( 0.500, 0.500,-0.348) | band =    42
 Effective mass tensor:
            -17.1440768400              3.5213164537             -4.3829172355
              3.5213164537             -9.9437215748             -2.2335424891
             -4.3829172355             -2.2335424891             -5.9502732670
 Effective mass tensor eigenvalues:
            -19.4267226835            -10.7659425855             -2.8454064129
 Angular average effective mass 1/(<1/m>)=  -6.0507703841
 Angular average effective mass for Frohlich model (<m**0.5>)**2=  -7.4004129592
 Effective masses along directions: (cart. coord. / red. coord. -> eff. mass)
    1:   1.000000  0.000000  0.000000 /   0.982074 -0.188495  0.000000 -> -10.9840810780
    2:   0.000000  1.000000  0.000000 /   0.000000  1.000000  0.000000 ->  -7.1871248855
    3:   0.000000  0.000000  1.000000 /  -0.489363 -0.489363  0.721836 ->  -3.7646903568
    4:   0.577350  0.577350  0.577350 /   0.056809 -0.096972  0.993664 -> -12.2118996554
    5:   0.000000  0.707107  0.707107 /  -0.560782  0.035986  0.827181 ->  -8.9203618476
    6:   0.707107  0.000000  0.707107 /   0.044187 -0.633015  0.772877 -> -10.8834337085
    7:   0.707107  0.707107  0.000000 /   0.784883  0.619643  0.000000 ->  -5.9970918606

 K-point ( 0.000, 0.000, 0.500) | band =    43
 Effective mass tensor:
             26.1235918357              8.2063919949            -23.5670899305
              8.2063919949             29.0988220282            -28.9099991139
            -23.5670899305            -28.9099991139             64.3302626636
 Effective mass tensor eigenvalues:
             10.2297273755             19.2761205956             90.0468285565
 Angular average effective mass 1/(<1/m>)=  18.6639931701
 Angular average effective mass for Frohlich model (<m**0.5>)**2=  22.2646714514
 Effective masses along directions: (cart. coord. / red. coord. -> eff. mass)
    1:   1.000000  0.000000  0.000000 /   0.982074 -0.188495  0.000000 ->  17.1368430625
    2:   0.000000  1.000000  0.000000 /   0.000000  1.000000  0.000000 ->  15.7815439775
    3:   0.000000  0.000000  1.000000 /  -0.489363 -0.489363  0.721836 ->  25.6289697381
    4:   0.577350  0.577350  0.577350 /   0.056809 -0.096972  0.993664 ->  10.2803321848
    5:   0.000000  0.707107  0.707107 /  -0.560782  0.035986  0.827181 ->  12.0724734116
    6:   0.707107  0.000000  0.707107 /   0.044187 -0.633015  0.772877 ->  13.5233269249
    7:   0.707107  0.707107  0.000000 /   0.784883  0.619643  0.000000 ->  14.3887029349

 END OF EFFECTIVE MASSES SECTION

 ---- first-order wavefunction calculations are completed ----

 Total localisation tensor (bohr^2) in cartesian coordinates
  WARNING : still subject to testing - especially symmetries.
      direction              matrix element
   alpha     beta       real part   imaginary part
     1        1       0.4734575430    0.0000000000
     1        2      -0.0863258544    0.0000000000
     1        3      -0.3399454155    0.0000000000
     2        1      -0.0863258544    0.0000000000
     2        2       0.4414023022    0.0000000000
     2        3      -0.4147852728    0.0000000000
     3        1      -0.3399454155    0.0000000000
     3        2      -0.4147852728    0.0000000000
     3        3       2.1438777579    0.0000000000

 respfn : d/dk was computed, but no 2DTE, so no DDB output.

== END DATASET(S) ==============================================================

 -outvars: echo values of variables after computation  --------
            acell      1.0000000000E+00  1.0000000000E+00  1.0000000000E+00 Bohr
              amu      6.94100000E+00  4.00780000E+01  1.78490000E+02
                       1.89984032E+01
             ecut      4.20000000E+01 Hartree
           etotal     -7.4438225907E+01
            fcart      0.0000000000E+00  0.0000000000E+00  0.0000000000E+00
                       0.0000000000E+00  0.0000000000E+00  0.0000000000E+00
                       0.0000000000E+00  0.0000000000E+00  0.0000000000E+00
                       0.0000000000E+00  0.0000000000E+00  0.0000000000E+00
                       0.0000000000E+00  0.0000000000E+00  0.0000000000E+00
                       0.0000000000E+00  0.0000000000E+00  0.0000000000E+00
                       0.0000000000E+00  0.0000000000E+00  0.0000000000E+00
                       0.0000000000E+00  0.0000000000E+00  0.0000000000E+00
                       0.0000000000E+00  0.0000000000E+00  0.0000000000E+00
                       0.0000000000E+00  0.0000000000E+00  0.0000000000E+00
                       0.0000000000E+00  0.0000000000E+00  0.0000000000E+00
                       0.0000000000E+00  0.0000000000E+00  0.0000000000E+00
-          fftalg         512
           irdden           1
           irdwfk           1
           istwfk        0    1
              ixc     -116133
              kpt      5.00000000E-01  5.00000000E-01 -3.47505044E-01
                       0.00000000E+00  0.00000000E+00  5.00000000E-01
           kptopt           0
P           mkmem           2
P          mkqmem           2
P          mk1mem           2
            natom          12
            nband          51
           nbdbuf           4
            ngfft          72      72      72
             nkpt           2
            nstep        2000
             nsym           4
           ntypat           4
              occ      2.000000  2.000000  2.000000  2.000000  2.000000  2.000000
                       2.000000  2.000000  2.000000  2.000000  2.000000  2.000000
                       2.000000  2.000000  2.000000  2.000000  2.000000  2.000000
                       2.000000  2.000000  2.000000  2.000000  2.000000  2.000000
                       2.000000  2.000000  2.000000  2.000000  2.000000  2.000000
                       2.000000  2.000000  2.000000  2.000000  2.000000  2.000000
                       2.000000  2.000000  2.000000  2.000000  2.000000  2.000000
                       0.000000  0.000000  0.000000  0.000000  0.000000  0.000000
                       0.000000  0.000000  0.000000
        optdriver           1
            prtwf          -1
            rfdir           1       1       1
           rfelfd           2
            rprim      8.8100912867E+00  0.0000000000E+00 -8.1249092712E+00
                      -1.6909706807E+00  8.6462897614E+00 -8.1249092712E+00
                       0.0000000000E+00  0.0000000000E+00  1.1984650981E+01
          spgroup          82
           strten      0.0000000000E+00  0.0000000000E+00  0.0000000000E+00
                       0.0000000000E+00  0.0000000000E+00  0.0000000000E+00
           symrel      1  0  0   0  1  0   0  0  1       0  1  0   1  0  0  -1 -1 -1
                       0  0  1  -1 -1 -1   0  1  0      -1 -1 -1   0  0  1   1  0  0
           tolwfr      1.00000000E-20
            typat      1  1  2  3  4  4  4  4  4  4  4  4
           useylm           1
              wtk        0.50000    0.50000
           xangst      3.2728688497E+00  1.1438548701E+00 -1.1285147320E+00
                       1.7907191851E-16 -2.5398680273E-16  4.7138751549E-16
                       1.8836381849E+00  2.2877097403E+00 -4.2995168082E+00
                       4.9440752016E-01  3.4315646104E+00 -1.1285147320E+00
                       3.2395934677E+00  4.0871856187E+00 -5.0275015723E+00
                       4.0483981410E+00  1.7298562955E+00 -4.7744749461E+00
                       4.3895002224E-02  2.3192927171E+00  3.5328019145E+00
                       2.3693073384E+00  6.1158145186E-01 -2.6990764264E+00
                       1.8817569314E+00  2.1327791736E+00 -3.2028284408E-01
                       2.2164521774E+00  3.4924222650E+00 -2.3861757655E+00
                       3.8805576324E-01  3.6582903720E+00  9.9000773972E-01
                       8.8164665823E-01  2.7027002872E-01  1.6565840436E+00
            xcart      6.1848257949E+00  2.1615724403E+00 -2.1325837805E+00
                       3.3839688407E-16 -4.7996549853E-16  8.9079330673E-16
                       3.5595603030E+00  4.3231448807E+00 -8.1249092712E+00
                       9.3429481115E-01  6.4847173211E+00 -2.1325837805E+00
                       6.1219444359E+00  7.7236614735E+00 -9.5006011042E+00
                       7.6503637633E+00  3.2689546478E+00 -9.0224500764E+00
                       8.2949532805E-02  4.3828280574E+00  6.6760281002E+00
                       4.4773419942E+00  1.1557214520E+00 -5.1005152576E+00
                       3.5560052491E+00  4.0303685399E+00 -6.0524686038E-01
                       4.1884876018E+00  6.5997216212E+00 -4.5092187017E+00
                       7.3331911680E-01  6.9131669176E+00  1.8708434975E+00
                       1.6660707300E+00  5.1073633621E-01  3.1304901586E+00
             xred      7.5000000000E-01  2.5000000000E-01  5.0000000000E-01
                       2.7755575616E-17 -5.5511151231E-17  5.5511151231E-17
                       5.0000000000E-01  5.0000000000E-01  5.5511151231E-17
                       2.5000000000E-01  7.5000000000E-01  5.0000000000E-01
                       8.6633325000E-01  8.9329200000E-01  4.0019475000E-01
                       9.4093000000E-01  3.7807600000E-01  1.4137700000E-01
                       1.0670800000E-01  5.0690275000E-01  9.7304125000E-01
                       5.3386150000E-01  1.3366675000E-01  2.6958750000E-02
                       4.9309725000E-01  4.6613850000E-01  5.9980525000E-01
                       6.2192400000E-01  7.6330100000E-01  5.6285400000E-01
                       2.3669900000E-01  7.9955300000E-01  8.5862300000E-01
                       2.0044700000E-01  5.9070000000E-02  4.3714600000E-01
            znucl        3.00000   20.00000   72.00000    9.00000

- Timing analysis has been suppressed with timopt=0

 Suggested references for the acknowledgment of ABINIT usage.

 Calculation completed.
.Delivered   2 WARNINGs and   5 COMMENTs to log file.