.Version 9.5.1 of ABINIT

 ABINIT is a project of the Universite Catholique de Louvain,
 Corning Inc. and other collaborators, see ~abinit/doc/developers/contributors.txt .
 acknowledgments of the ABINIT effort.

.Starting date : Wed 19 May 2021.
- ( at 13h10 )

- input  file    -> /scratch/users/j/a/jabreu/flow_simple_9atoms/flow/w143/t1/run.abi
- output file    -> /scratch/users/j/a/jabreu/flow_simple_9atoms/flow/w143/t1/run.abo
- root for input  files -> /scratch/users/j/a/jabreu/flow_simple_9atoms/flow/w143/t1/indata/in
- root for output files -> /scratch/users/j/a/jabreu/flow_simple_9atoms/flow/w143/t1/outdata/out

 Symmetries : space group Fm m m (# 69); Bravais oF (face-center ortho.)
     intxc =       0      iscf =       7    lmnmax =      18     lnmax =       6
     mgfft =      96  mpssoang =       3    mqgrid =    3001     natom =       9
  nloc_mem =       1    nspden =       1   nspinor =       1    nsppol =       1
      nsym =       8    n1xccc =    2501    ntypat =       3    occopt =       1
   xclevel =       2
-    mband =          57        mffmem =           1         mkmem =           2
-   mkqmem =           2        mk1mem =           2           mpw =       18478
      nfft =      884736          nkpt =           2
  Rough estimation (10% accuracy) of disk space for files :

------------- Echo of variables that govern the present computation ------------
-
- outvars: echo of selected default values
-   iomode0 =  0 , fftalg0 =512 , wfoptalg0 =  0
-
- outvars: echo of global parameters not present in the input file
-  max_nthreads =    0
-
 -outvars: echo values of preprocessed input variables --------
            acell      1.0000000000E+00  1.0000000000E+00  1.0000000000E+00 Bohr
              amu      8.54678000E+01  1.06420000E+02  3.20660000E+01
             ecut      4.10000000E+01 Hartree
-          fftalg         512
           irdden           1
           irdwfk           1
              ixc     -116133
              kpt      1.00000000E+00  5.00000000E-01  5.00000000E-01
                       5.00000000E-01  7.19814048E-01  2.19814048E-01
           kptopt           0
P           mkmem           2
P          mkqmem           2
P          mk1mem           2
            natom           9
            nband          57
           nbdbuf           4
            ngfft          96      96      96
             nkpt           2
            nstep        2000
             nsym           8
           ntypat           3
              occ      2.000000  2.000000  2.000000  2.000000  2.000000  2.000000
                       2.000000  2.000000  2.000000  2.000000  2.000000  2.000000
                       2.000000  2.000000  2.000000  2.000000  2.000000  2.000000
                       2.000000  2.000000  2.000000  2.000000  2.000000  2.000000
                       2.000000  2.000000  2.000000  2.000000  2.000000  2.000000
                       2.000000  2.000000  2.000000  2.000000  2.000000  2.000000
                       2.000000  2.000000  2.000000  2.000000  2.000000  2.000000
                       2.000000  2.000000  2.000000  2.000000  2.000000  2.000000
                       0.000000  0.000000  0.000000  0.000000  0.000000  0.000000
                       0.000000  0.000000  0.000000
        optdriver           1
            prtwf          -1
            rfdir           1       1       1
           rfelfd           2
            rprim      1.3542589865E+01  0.0000000000E+00  8.5604052198E+00
                       9.7587401715E+00  9.3898205985E+00  2.9930314847E+00
                       0.0000000000E+00  0.0000000000E+00  1.1553436701E+01
          spgroup          69
           symrel      1  0  0   0  1  0   0  0  1      -1  0  0   0 -1  0   0  0 -1
                      -1  0  0  -1  0  1  -1  1  0       1  0  0   1  0 -1   1 -1  0
                       0 -1  1   0 -1  0   1 -1  0       0  1 -1   0  1  0  -1  1  0
                       0  1 -1   1  0 -1   0  0 -1       0 -1  1  -1  0  1   0  0  1
           tolwfr      1.00000000E-20
            typat      1  1  2  2  2  3  3  3  3
           useylm           1
              wtk        0.50000    0.50000
           xangst      1.9382241180E+00  7.8105312954E-01  6.1138153835E+00
                       1.0392308667E+01  4.1878259239E+00  6.1138153847E+00
                       0.0000000000E+00  0.0000000000E+00  3.0569076916E+00
                       6.1652663927E+00  2.4844395267E+00  6.1138153841E+00
                       6.1652663927E+00  2.4844395267E+00  3.0569076925E+00
                       7.2404324932E+00  3.8891316974E+00  4.5900190957E+00
                       4.4165555273E+00  2.7511838610E+00  4.5900190953E+00
                       7.9139772580E+00  2.2176951925E+00  7.6376116729E+00
                       5.0901002922E+00  1.0797473561E+00  7.6376116725E+00
            xcart      3.6627127672E+00  1.4759765101E+00  1.1553436702E+01
                       1.9638617270E+01  7.9138440884E+00  1.1553436704E+01
                       0.0000000000E+00  0.0000000000E+00  5.7767183507E+00
                       1.1650665018E+01  4.6949102992E+00  1.1553436703E+01
                       1.1650665018E+01  4.6949102992E+00  5.7767183522E+00
                       1.3682434496E+01  7.3493938028E+00  8.6738790356E+00
                       8.3460803973E+00  5.1989840384E+00  8.6738790349E+00
                       1.4955249640E+01  4.1908365601E+00  1.4432994371E+01
                       9.6188955412E+00  2.0404267957E+00  1.4432994370E+01
             xred      1.5718900000E-01  1.5718900000E-01  8.4281100000E-01
                       8.4281100000E-01  8.4281100000E-01  1.5718900000E-01
                       0.0000000000E+00  0.0000000000E+00  5.0000000000E-01
                       5.0000000000E-01  5.0000000000E-01  5.0000000000E-01
                       5.0000000000E-01  5.0000000000E-01  0.0000000000E+00
                       4.4631700000E-01  7.8269800000E-01  2.1730200000E-01
                       2.1730200000E-01  5.5368300000E-01  4.4631700000E-01
                       7.8269800000E-01  4.4631700000E-01  5.5368300000E-01
                       5.5368300000E-01  2.1730200000E-01  7.8269800000E-01
            znucl       37.00000   46.00000   16.00000

 chkinp: Checking input parameters for consistency.

== DATASET  1 ==================================================================
-   mpi_nproc: 1, omp_nthreads: -1 (-1 if OMP is not activated)

--- !DatasetInfo
iteration_state: {dtset: 1, }
dimensions: {natom: 9, nkpt: 2, mband: 57, nsppol: 1, nspinor: 1, nspden: 1, mpw: 18478, }
cutoff_energies: {ecut:  41.0, pawecutdg:  -1.0, }
electrons: {nelect:   9.60000000E+01, charge:   0.00000000E+00, occopt:   1.00000000E+00, tsmear:   1.00000000E-02, }
meta: {optdriver: 1, rfelfd: 2, }
...

 Real(R)+Recip(G) space primitive vectors, cartesian coordinates (Bohr,Bohr^-1):
 R(1)= 13.5425899  0.0000000  8.5604052  G(1)=  0.0738411 -0.0767423  0.0000000
 R(2)=  9.7587402  9.3898206  2.9930315  G(2)=  0.0000000  0.1064983  0.0000000
 R(3)=  0.0000000  0.0000000 11.5534367  G(3)= -0.0547119  0.0292720  0.0865543
 Unit cell volume ucvol=  1.4691638E+03 bohr^3
 Angles (23,13,12)=  7.75374618E+01  5.77026139E+01  4.47599244E+01 degrees

 getcut: wavevector=  0.0000  0.0000  0.0000  ngfft=  96  96  96
         ecut(hartree)=     41.000   => boxcut(ratio)=   2.07928

--- Pseudopotential description ------------------------------------------------
- pspini: atom type   1  psp file is /scratch/users/j/a/jabreu/pseudos/PBEsol/Rb.psp8
- pspatm: opening atomic psp file    /scratch/users/j/a/jabreu/pseudos/PBEsol/Rb.psp8
- Rb    ONCVPSP-3.3.0  r_core=   1.71227   1.75361   1.90633
- 37.00000   9.00000    180112                znucl, zion, pspdat
    8 -116133    2    4       600   0.00000   pspcod,pspxc,lmax,lloc,mmax,r2well
    5.99000000000000    7.00000000000000    0.00000000000000   rchrg,fchrg,qchrg
     nproj     2     2     2
     extension_switch     1
  pspatm : epsatm=   34.48400912
         --- l  ekb(1:nproj) -->
             0    8.196957   -0.477221
             1    3.231347   -0.378736
             2   -1.047201    0.996637
 pspatm: atomic psp has been read  and splines computed

- pspini: atom type   2  psp file is /scratch/users/j/a/jabreu/pseudos/PBEsol/Pd.psp8
- pspatm: opening atomic psp file    /scratch/users/j/a/jabreu/pseudos/PBEsol/Pd.psp8
- Pd    ONCVPSP-3.3.0  r_core=   1.41052   1.46191   1.55175
- 46.00000  18.00000    180112                znucl, zion, pspdat
    8 -116133    2    4       600   0.00000   pspcod,pspxc,lmax,lloc,mmax,r2well
    5.99000000000000    7.00000000000000    0.00000000000000   rchrg,fchrg,qchrg
     nproj     2     2     2
     extension_switch     1
  pspatm : epsatm=   26.17262427
         --- l  ekb(1:nproj) -->
             0    7.952303   -2.096627
             1    3.304793   -0.572651
             2   -1.185452   -0.410427
 pspatm: atomic psp has been read  and splines computed

- pspini: atom type   3  psp file is /scratch/users/j/a/jabreu/pseudos/PBEsol/S.psp8
- pspatm: opening atomic psp file    /scratch/users/j/a/jabreu/pseudos/PBEsol/S.psp8
- S     ONCVPSP-3.3.0  r_core=   1.45376   1.45376   1.61851
- 16.00000   6.00000    180112                znucl, zion, pspdat
    8 -116133    2    4       600   0.00000   pspcod,pspxc,lmax,lloc,mmax,r2well
    5.99000000000000    6.00000000000000    0.00000000000000   rchrg,fchrg,qchrg
     nproj     2     2     2
     extension_switch     1
  pspatm : epsatm=    8.71840985
         --- l  ekb(1:nproj) -->
             0    6.834532    0.579453
             1    3.282851    0.896984
             2   -3.496974   -0.974265
 pspatm: atomic psp has been read  and splines computed

   1.75065149E+04                                ecore*ucvol(ha*bohr**3)

-inwffil : will read wavefunctions from disk file /scratch/users/j/a/jabreu/flow_simple_9atoms/flow/w143/t1/indata/in_WFK

 ==>  initialize data related to q vector <==

 The list of irreducible perturbations for this q vector is:
    1)    idir= 1    ipert=  10
    2)    idir= 2    ipert=  10
    3)    idir= 3    ipert=  10

 Perturbation wavevector (in red.coord.)   0.000000  0.000000  0.000000
 Perturbation : derivative vs k along direction   1

 dfpt_looppert : COMMENT -
  In a d/dk calculation, iscf is set to -3 automatically.
 The set of symmetries contains only one element for this perturbation.
 symkpt : not enough symmetry to change the number of k points.

[...]

 Initialisation of the first-order wave-functions :
  ireadwf=   0

--- !BeginCycle
iteration_state: {dtset: 1, }
solver: {iscf: 7, nstep: 2000, nline: 4, wfoptalg: 0, }
tolerances: {tolwfr: 1.00E-20, }
...

     iter   2DEtotal(Ha)        deltaE(Ha) residm    vres2
-ETOT  1  -43.184613328762     -4.318E+01 1.171E-01 0.000E+00
 ETOT  2  -43.337737842667     -1.531E-01 8.727E-03 0.000E+00
 ETOT  3  -43.340686552889     -2.949E-03 4.822E-04 0.000E+00
 ETOT  4  -43.340781222746     -9.467E-05 4.869E-05 0.000E+00
 ETOT  5  -43.340785031325     -3.809E-06 4.109E-06 0.000E+00
 ETOT  6  -43.340785200404     -1.691E-07 5.736E-07 0.000E+00
[...]
 ETOT  9  -43.340785208872     -2.053E-11 7.881E-10 0.000E+00
 ETOT 10  -43.340785208873     -1.023E-12 1.149E-10 0.000E+00
 ETOT 11  -43.340785208873     -1.421E-13 1.192E-11 0.000E+00
 ETOT 12  -43.340785208873     -1.421E-14 1.773E-12 0.000E+00
 ETOT 13  -43.340785208873      7.105E-15 1.869E-13 0.000E+00
 ETOT 14  -43.340785208873      1.421E-14 2.815E-14 0.000E+00
 ETOT 15  -43.340785208873     -7.105E-15 3.001E-15 0.000E+00
 ETOT 16  -43.340785208873     -7.105E-15 4.554E-16 0.000E+00
 ETOT 17  -43.340785208873     -7.105E-15 4.891E-17 0.000E+00
 ETOT 18  -43.340785208873      7.105E-15 7.457E-18 0.000E+00
 ETOT 19  -43.340785208873      0.000E+00 8.050E-19 0.000E+00
 ETOT 20  -43.340785208873      0.000E+00 1.231E-19 0.000E+00
 ETOT 21  -43.340785208873      0.000E+00 1.334E-20 0.000E+00
 ETOT 22  -43.340785208873      0.000E+00 9.951E-21 0.000E+00

 At SCF step   22   max residual=  9.95E-21 < tolwfr=  1.00E-20 =>converged.

 ----iterations are completed or convergence reached----

 dfpt_looppert: DFPT cycle converged with prtwf=-1. Will skip output of the 1st-order WFK file.
 dfpt_looppert : ek2=    8.5969891132E+01
          f-sum rule ratio=    1.0104067135E+00
 prteigrs : about to open file /scratch/users/j/a/jabreu/flow_simple_9atoms/flow/w143/t1/tmpdata/tmp_1WF1_EIG
 Expectation of eigenvalue derivatives (hartree) for nkpt=   2  k points:
  (in case of degenerate eigenvalues, averaged derivative)
 kpt#   1, nband= 57, wtk=  0.50000, kpt=  1.0000  0.5000  0.5000 (reduced coord)
  -0.00000   -0.00000   -0.00000    0.00000    0.00000    0.00000    0.00000   -0.00000
  -0.00000    0.00000    0.00000    0.00000    0.00000   -0.00000    0.00000   -0.00000
  -0.00000   -0.00000    0.00000   -0.00000   -0.00000   -0.00000   -0.00000    0.00000
  -0.00000   -0.00000    0.00000   -0.00000   -0.00000   -0.00000    0.00000   -0.00000
   0.00000   -0.00000   -0.00000    0.00000    0.00000    0.00000   -0.00000   -0.00000
  -0.00000   -0.00000    0.00000   -0.00000   -0.00000   -0.00000    0.00000    0.00000
   0.00000    0.00000    0.00000   -0.00000    0.00000   -0.00000   -0.00000    0.00001
   0.00003
 prteigrs : prtvol=0 or 1, do not print more k-points.

 Eight components of 2nd-order total energy (hartree) are
 1,2,3: 0th-order hamiltonian combined with 1st-order wavefunctions
     kin0=   6.80220620E+01 eigvalue=   4.62547439E-01  local=  -3.66562641E+01
 4,5,6: 1st-order hamiltonian combined with 1st and 0th-order wfs
     kin1=  -8.68645552E+01  Hartree=   0.00000000E+00     xc=   0.00000000E+00
 7,8,9: eventually, occupation + non-local contributions
    edocc=   9.64218993E+00     enl0=   1.87024998E+00   enl1=   1.82984740E-01
 1-9 gives the relaxation energy (to be shifted if some occ is /=2.0)
   erelax=  -4.33407852E+01
  No Ewald or frozen-wf contrib.: the relaxation energy is the total one
 2DEtotal=   -0.4334078521E+02 Ha. Also 2DEtotal=   -0.117936274311E+04 eV
    (  non-var. 2DEtotal :   -4.3340785208E+01 Ha)

 Perturbation wavevector (in red.coord.)   0.000000  0.000000  0.000000
 Perturbation : derivative vs k along direction   2
 The set of symmetries contains only one element for this perturbation.
 symkpt : not enough symmetry to change the number of k points.

[...]

 Perturbation wavevector (in red.coord.)   0.000000  0.000000  0.000000
 Perturbation : derivative vs k along direction   3
 The set of symmetries contains only one element for this perturbation.
 symkpt : not enough symmetry to change the number of k points.

-inwffil : will read wavefunctions from disk file /scratch/users/j/a/jabreu/flow_simple_9atoms/flow/w143/t1/indata/in_WFK

 Initialisation of the first-order wave-functions :
  ireadwf=   0

--- !BeginCycle
iteration_state: {dtset: 1, }
solver: {iscf: 7, nstep: 2000, nline: 4, wfoptalg: 0, }
tolerances: {tolwfr: 1.00E-20, }
...

     iter   2DEtotal(Ha)        deltaE(Ha) residm    vres2
-ETOT  1  -43.184549433787     -4.318E+01 1.171E-01 0.000E+00
 ETOT  2  -43.337699889515     -1.532E-01 8.724E-03 0.000E+00
 ETOT  3  -43.340649312641     -2.949E-03 4.821E-04 0.000E+00
 ETOT  4  -43.340743988561     -9.468E-05 4.866E-05 0.000E+00
 ETOT  5  -43.340747796499     -3.808E-06 4.107E-06 0.000E+00
 ETOT  6  -43.340747965507     -1.690E-07 5.732E-07 0.000E+00
 ETOT  7  -43.340747973549     -8.042E-09 5.501E-08 0.000E+00
 ETOT  8  -43.340747973948     -3.990E-10 7.802E-09 0.000E+00
 ETOT  9  -43.340747973968     -2.044E-11 7.877E-10 0.000E+00
 ETOT 10  -43.340747973969     -1.066E-12 1.148E-10 0.000E+00
 ETOT 11  -43.340747973969     -1.421E-14 1.191E-11 0.000E+00
 ETOT 12  -43.340747973969     -4.974E-14 1.772E-12 0.000E+00
 ETOT 13  -43.340747973969      3.553E-14 1.868E-13 0.000E+00
 ETOT 14  -43.340747973969      2.842E-14 2.813E-14 0.000E+00
 ETOT 15  -43.340747973969     -2.842E-14 3.000E-15 0.000E+00
 ETOT 16  -43.340747973969     -1.421E-14 4.551E-16 0.000E+00
 ETOT 17  -43.340747973969      2.132E-14 4.888E-17 0.000E+00
 ETOT 18  -43.340747973969      1.421E-14 7.451E-18 0.000E+00
 ETOT 19  -43.340747973969     -2.842E-14 8.045E-19 0.000E+00
 ETOT 20  -43.340747973969      2.842E-14 1.230E-19 0.000E+00
 ETOT 21  -43.340747973969     -1.421E-14 1.334E-20 0.000E+00
 ETOT 22  -43.340747973969     -7.105E-15 9.951E-21 0.000E+00

 At SCF step   22   max residual=  9.95E-21 < tolwfr=  1.00E-20 =>converged.

 ----iterations are completed or convergence reached----

 dfpt_looppert: DFPT cycle converged with prtwf=-1. Will skip output of the 1st-order WFK file.
 dfpt_looppert : ek2=    8.5969891136E+01
          f-sum rule ratio=    1.0104058695E+00
 prteigrs : about to open file /scratch/users/j/a/jabreu/flow_simple_9atoms/flow/w143/t1/tmpdata/tmp_1WF1_EIG
 Expectation of eigenvalue derivatives (hartree) for nkpt=   2  k points:
  (in case of degenerate eigenvalues, averaged derivative)
 kpt#   1, nband= 57, wtk=  0.50000, kpt=  1.0000  0.5000  0.5000 (reduced coord)
   0.00000    0.00000    0.00000   -0.00000   -0.00000   -0.00000   -0.00000   -0.00000
   0.00000    0.00000   -0.00000   -0.00000   -0.00000    0.00000   -0.00000    0.00000
   0.00000    0.00000   -0.00000   -0.00000    0.00000   -0.00000    0.00000   -0.00000
  -0.00000    0.00000   -0.00000   -0.00000    0.00000   -0.00000   -0.00000   -0.00000
  -0.00000   -0.00000    0.00000    0.00000    0.00000   -0.00000    0.00000    0.00000
   0.00000    0.00000    0.00000    0.00000    0.00000    0.00000    0.00000   -0.00000
   0.00000    0.00000   -0.00000    0.00000   -0.00000    0.00000   -0.00000   -0.00001
   0.00003
 prteigrs : prtvol=0 or 1, do not print more k-points.

 Eight components of 2nd-order total energy (hartree) are
 1,2,3: 0th-order hamiltonian combined with 1st-order wavefunctions
     kin0=   6.80231114E+01 eigvalue=   4.62080960E-01  local=  -3.66572002E+01
 4,5,6: 1st-order hamiltonian combined with 1st and 0th-order wfs
     kin1=  -8.68644826E+01  Hartree=   0.00000000E+00     xc=   0.00000000E+00
 7,8,9: eventually, occupation + non-local contributions
    edocc=   9.64231128E+00     enl0=   1.87044450E+00   enl1=   1.82986653E-01
 1-9 gives the relaxation energy (to be shifted if some occ is /=2.0)
   erelax=  -4.33407480E+01
  No Ewald or frozen-wf contrib.: the relaxation energy is the total one
 2DEtotal=   -0.4334074797E+02 Ha. Also 2DEtotal=   -0.117936172990E+04 eV
    (  non-var. 2DEtotal :   -4.3340747973E+01 Ha)

 CALCULATION OF EFFECTIVE MASSES
 NOTE : Additional infos (eff. mass eigenvalues, eigenvectors and, if degenerate, average mass) are available in stdout.

 K-point ( 1.000, 0.500, 0.500) | band =    48
 Effective mass tensor:
             -1.0505362493              0.4742437953              0.1554287133
              0.4742437953             -2.0362859651             -0.3857026878
              0.1554287133             -0.3857026878             -1.7700012765
 Effective mass tensor eigenvalues:
             -2.4732782739             -1.5241171527             -0.8594280644
 Angular average effective mass 1/(<1/m>)=  -1.3489186025
 Angular average effective mass for Frohlich model (<m**0.5>)**2=  -1.4257300638
 Effective masses along directions: (cart. coord. / red. coord. -> eff. mass)
    1:   1.000000  0.000000  0.000000 /   0.811305  0.584623  0.000000 ->  -0.9375506059
    2:   0.000000  1.000000  0.000000 /   0.000000  1.000000  0.000000 ->  -1.7652068102
    3:   0.000000  0.000000  1.000000 /   0.582839  0.203782  0.786621 ->  -1.6923658709
    4:   0.577350  0.577350  0.577350 /   0.662743  0.663900  0.346422 ->  -1.1614277913
    5:   0.000000  0.707107  0.707107 /   0.451112  0.652545  0.608837 ->  -2.0991769612
    6:   0.707107  0.000000  0.707107 /   0.789075  0.455237  0.412457 ->  -1.1494496208
    7:   0.707107  0.707107  0.000000 /   0.577422  0.816446  0.000000 ->  -0.9459333943

 K-point ( 0.500, 0.720, 0.220) | band =    49
 Effective mass tensor:
              0.9923397249             -0.0306092133              0.3779484344
             -0.0306092133              1.0559627301             -0.9378998950
              0.3779484344             -0.9378998950              2.1804934121
 Effective mass tensor eigenvalues:
              0.4703824037              0.9800049294              2.7784085340
 Angular average effective mass 1/(<1/m>)=   0.8556146882
 Angular average effective mass for Frohlich model (<m**0.5>)**2=   0.9793755025
 Effective masses along directions: (cart. coord. / red. coord. -> eff. mass)
    1:   1.000000  0.000000  0.000000 /   0.811305  0.584623  0.000000 ->   0.9001443781
    2:   0.000000  1.000000  0.000000 /   0.000000  1.000000  0.000000 ->   0.6337542595
    3:   0.000000  0.000000  1.000000 /   0.582839  0.203782  0.786621 ->   1.2233618944
    4:   0.577350  0.577350  0.577350 /   0.662743  0.663900  0.346422 ->   0.7665092390
    5:   0.000000  0.707107  0.707107 /   0.451112  0.652545  0.608837 ->   0.5221104264
    6:   0.707107  0.000000  0.707107 /   0.789075  0.455237  0.412457 ->   1.4815143163
    7:   0.707107  0.707107  0.000000 /   0.577422  0.816446  0.000000 ->   0.8930481283

 END OF EFFECTIVE MASSES SECTION

 ---- first-order wavefunction calculations are completed ----

 Total localisation tensor (bohr^2) in cartesian coordinates
  WARNING : still subject to testing - especially symmetries.
      direction              matrix element
   alpha     beta       real part   imaginary part
     1        1       3.2807411146    0.0000000000
     1        2       1.0789162131    0.0000000000
     1        3       1.7089078243    0.0000000000
     2        1       1.0789162131    0.0000000000
     2        2       1.0381288470    0.0000000000
     2        3       0.3309064632    0.0000000000
     3        1       1.7089078243    0.0000000000
     3        2       0.3309064632    0.0000000000
     3        3       2.5399648239    0.0000000000

 respfn : d/dk was computed, but no 2DTE, so no DDB output.

== END DATASET(S) ==============================================================

 -outvars: echo values of variables after computation  --------
            acell      1.0000000000E+00  1.0000000000E+00  1.0000000000E+00 Bohr
              amu      8.54678000E+01  1.06420000E+02  3.20660000E+01
             ecut      4.10000000E+01 Hartree
           etotal     -4.3340747974E+01
            fcart      0.0000000000E+00  0.0000000000E+00  0.0000000000E+00
                       0.0000000000E+00  0.0000000000E+00  0.0000000000E+00
                       0.0000000000E+00  0.0000000000E+00  0.0000000000E+00
                       0.0000000000E+00  0.0000000000E+00  0.0000000000E+00
                       0.0000000000E+00  0.0000000000E+00  0.0000000000E+00
                       0.0000000000E+00  0.0000000000E+00  0.0000000000E+00
                       0.0000000000E+00  0.0000000000E+00  0.0000000000E+00
                       0.0000000000E+00  0.0000000000E+00  0.0000000000E+00
                       0.0000000000E+00  0.0000000000E+00  0.0000000000E+00
-          fftalg         512
           irdden           1
           irdwfk           1
              ixc     -116133
              kpt      1.00000000E+00  5.00000000E-01  5.00000000E-01
                       5.00000000E-01  7.19814048E-01  2.19814048E-01
           kptopt           0
P           mkmem           2
P          mkqmem           2
P          mk1mem           2
            natom           9
            nband          57
           nbdbuf           4
            ngfft          96      96      96
             nkpt           2
            nstep        2000
             nsym           8
           ntypat           3
              occ      2.000000  2.000000  2.000000  2.000000  2.000000  2.000000
                       2.000000  2.000000  2.000000  2.000000  2.000000  2.000000
                       2.000000  2.000000  2.000000  2.000000  2.000000  2.000000
                       2.000000  2.000000  2.000000  2.000000  2.000000  2.000000
                       2.000000  2.000000  2.000000  2.000000  2.000000  2.000000
                       2.000000  2.000000  2.000000  2.000000  2.000000  2.000000
                       2.000000  2.000000  2.000000  2.000000  2.000000  2.000000
                       2.000000  2.000000  2.000000  2.000000  2.000000  2.000000
                       0.000000  0.000000  0.000000  0.000000  0.000000  0.000000
                       0.000000  0.000000  0.000000
        optdriver           1
            prtwf          -1
            rfdir           1       1       1
           rfelfd           2
            rprim      1.3542589865E+01  0.0000000000E+00  8.5604052198E+00
                       9.7587401715E+00  9.3898205985E+00  2.9930314847E+00
                       0.0000000000E+00  0.0000000000E+00  1.1553436701E+01
          spgroup          69
           strten      0.0000000000E+00  0.0000000000E+00  0.0000000000E+00
                       0.0000000000E+00  0.0000000000E+00  0.0000000000E+00
           symrel      1  0  0   0  1  0   0  0  1      -1  0  0   0 -1  0   0  0 -1
                      -1  0  0  -1  0  1  -1  1  0       1  0  0   1  0 -1   1 -1  0
                       0 -1  1   0 -1  0   1 -1  0       0  1 -1   0  1  0  -1  1  0
                       0  1 -1   1  0 -1   0  0 -1       0 -1  1  -1  0  1   0  0  1
           tolwfr      1.00000000E-20
            typat      1  1  2  2  2  3  3  3  3
           useylm           1
              wtk        0.50000    0.50000
           xangst      1.9382241180E+00  7.8105312954E-01  6.1138153835E+00
                       1.0392308667E+01  4.1878259239E+00  6.1138153847E+00
                       0.0000000000E+00  0.0000000000E+00  3.0569076916E+00
                       6.1652663927E+00  2.4844395267E+00  6.1138153841E+00
                       6.1652663927E+00  2.4844395267E+00  3.0569076925E+00
                       7.2404324932E+00  3.8891316974E+00  4.5900190957E+00
                       4.4165555273E+00  2.7511838610E+00  4.5900190953E+00
                       7.9139772580E+00  2.2176951925E+00  7.6376116729E+00
                       5.0901002922E+00  1.0797473561E+00  7.6376116725E+00
            xcart      3.6627127672E+00  1.4759765101E+00  1.1553436702E+01
                       1.9638617270E+01  7.9138440884E+00  1.1553436704E+01
                       0.0000000000E+00  0.0000000000E+00  5.7767183507E+00
                       1.1650665018E+01  4.6949102992E+00  1.1553436703E+01
                       1.1650665018E+01  4.6949102992E+00  5.7767183522E+00
                       1.3682434496E+01  7.3493938028E+00  8.6738790356E+00
                       8.3460803973E+00  5.1989840384E+00  8.6738790349E+00
                       1.4955249640E+01  4.1908365601E+00  1.4432994371E+01
                       9.6188955412E+00  2.0404267957E+00  1.4432994370E+01
             xred      1.5718900000E-01  1.5718900000E-01  8.4281100000E-01
                       8.4281100000E-01  8.4281100000E-01  1.5718900000E-01
                       0.0000000000E+00  0.0000000000E+00  5.0000000000E-01
                       5.0000000000E-01  5.0000000000E-01  5.0000000000E-01
                       5.0000000000E-01  5.0000000000E-01  0.0000000000E+00
                       4.4631700000E-01  7.8269800000E-01  2.1730200000E-01
                       2.1730200000E-01  5.5368300000E-01  4.4631700000E-01
                       7.8269800000E-01  4.4631700000E-01  5.5368300000E-01
                       5.5368300000E-01  2.1730200000E-01  7.8269800000E-01
            znucl       37.00000   46.00000   16.00000

- Timing analysis has been suppressed with timopt=0

 Suggested references for the acknowledgment of ABINIT usage.

 Calculation completed.
.Delivered  14 WARNINGs and  11 COMMENTs to log file.