.Version 9.5.2 of ABINIT

 ABINIT is a project of the Universite Catholique de Louvain,
 Corning Inc. and other collaborators, see ~abinit/doc/developers/contributors.txt .
 acknowledgments of the ABINIT effort.

.Starting date : Mon 24 May 2021.
- ( at 10h52 )

- input  file    -> /scratch/users/j/a/jabreu/flow_simple_10atoms/flow/w263/t1/run.abi
- output file    -> /scratch/users/j/a/jabreu/flow_simple_10atoms/flow/w263/t1/run.abo
- root for input  files -> /scratch/users/j/a/jabreu/flow_simple_10atoms/flow/w263/t1/indata/in
- root for output files -> /scratch/users/j/a/jabreu/flow_simple_10atoms/flow/w263/t1/outdata/out

 Symmetries : space group R-3 (#148); Bravais hR (rhombohedral)
     intxc =       0      iscf =       7    lmnmax =      18     lnmax =       6
     mgfft =      72  mpssoang =       3    mqgrid =    3001     natom =      10
  nloc_mem =       1    nspden =       1   nspinor =       1    nsppol =       1
      nsym =       6    n1xccc =    2501    ntypat =       3    occopt =       1
   xclevel =       2
-    mband =          59        mffmem =           1         mkmem =           2
-   mkqmem =           2        mk1mem =           2           mpw =       13704
      nfft =      373248          nkpt =           2
  Rough estimation (10% accuracy) of disk space for files :

------------- Echo of variables that govern the present computation ------------
-
- outvars: echo of selected default values
-   iomode0 =  0 , fftalg0 =512 , wfoptalg0 =  0
-
- outvars: echo of global parameters not present in the input file
-  max_nthreads =    0
-
 -outvars: echo values of preprocessed input variables --------
            acell      1.0000000000E+00  1.0000000000E+00  1.0000000000E+00 Bohr
              amu      4.78800000E+01  1.12411000E+02  1.59994000E+01
             ecut      5.10000000E+01 Hartree
-          fftalg         512
           irdden           1
           irdwfk           1
              ixc     -116133
              kpt      2.00000000E-01  2.00000000E-01  2.00000000E-01
                       1.48523785E-01  0.00000000E+00 -1.48523785E-01
           kptopt           0
P           mkmem           2
P          mkqmem           2
P          mk1mem           2
            natom          10
            nband          59
           nbdbuf           4
            ngfft          72      72      72
             nkpt           2
            nstep        2000
             nsym           6
           ntypat           3
              occ      2.000000  2.000000  2.000000  2.000000  2.000000  2.000000
                       2.000000  2.000000  2.000000  2.000000  2.000000  2.000000
                       2.000000  2.000000  2.000000  2.000000  2.000000  2.000000
                       2.000000  2.000000  2.000000  2.000000  2.000000  2.000000
                       2.000000  2.000000  2.000000  2.000000  2.000000  2.000000
                       2.000000  2.000000  2.000000  2.000000  2.000000  2.000000
                       2.000000  2.000000  2.000000  2.000000  2.000000  2.000000
                       2.000000  2.000000  2.000000  2.000000  2.000000  2.000000
                       2.000000  2.000000  0.000000  0.000000  0.000000  0.000000
                       0.000000  0.000000  0.000000  0.000000  0.000000
        optdriver           1
            prtwf          -1
            rfdir           1       1       1
           rfelfd           2
            rprim      8.8141962084E+00  0.0000000000E+00  6.4600980765E+00
                       3.2746716360E+00  8.1833110949E+00  6.4600980765E+00
                       0.0000000000E+00  0.0000000000E+00  1.0928079518E+01
          spgroup         148
           symrel      1  0  0   0  1  0   0  0  1      -1  0  0   0 -1  0   0  0 -1
                       0  0  1   1  0  0   0  1  0       0  0 -1  -1  0  0   0 -1  0
                       0  1  0   0  0  1   1  0  0       0 -1  0   0  0 -1  -1  0  0
           tolwfr      1.00000000E-20
            typat      1  1  2  2  3  3  3  3  3  3
           useylm           1
              wtk        0.50000    0.50000
           xangst      9.5720605440E-01  6.4796100230E-01  1.8883252058E+00
                       5.4399472865E+00  3.6824607199E+00  1.0731638744E+01
                       2.3250325874E+00  1.5738831141E+00  4.5867006575E+00
                       4.0721207535E+00  2.7565386081E+00  8.0332632919E+00
                       5.4693678192E+00  2.4345544314E+00  6.3523735112E+00
                       2.5862222221E+00  4.1734006306E+00  7.2171927120E+00
                       2.9626237813E+00  8.5059875637E-01  8.1665801247E+00
                       9.2778552172E-01  1.8958672908E+00  6.2675904382E+00
                       3.4345295596E+00  3.4798229659E+00  4.4533838247E+00
                       3.8109311188E+00  1.5702109165E-01  5.4027712375E+00
            xcart      1.8088572956E+00  1.2244688391E+00  3.5684174887E+00
                       1.0280010549E+01  6.9588422558E+00  2.0279858183E+01
                       4.3936748403E+00  2.9742080508E+00  8.6676080962E+00
                       7.6951930041E+00  5.2091030441E+00  1.5180667575E+01
                       1.0335607298E+01  4.6006411309E+00  1.2004246230E+01
                       4.8872517185E+00  7.8865842346E+00  1.3638517674E+01
                       5.5985475814E+00  1.6073986985E+00  1.5432599878E+01
                       1.7532605461E+00  3.5826699640E+00  1.1844029441E+01
                       6.4903202630E+00  6.5759123964E+00  8.4156757933E+00
                       7.2016161259E+00  2.9672686030E-01  1.0209757997E+01
             xred      1.4963000000E-01  1.4963000000E-01  1.4963000000E-01
                       8.5037000000E-01  8.5037000000E-01  8.5037000000E-01
                       3.6344800000E-01  3.6344800000E-01  3.6344800000E-01
                       6.3655200000E-01  6.3655200000E-01  6.3655200000E-01
                       9.6374000000E-01  5.6219800000E-01  1.9642400000E-01
                       1.9642400000E-01  9.6374000000E-01  5.6219800000E-01
                       5.6219800000E-01  1.9642400000E-01  9.6374000000E-01
                       3.6260000000E-02  4.3780200000E-01  8.0357600000E-01
                       4.3780200000E-01  8.0357600000E-01  3.6260000000E-02
                       8.0357600000E-01  3.6260000000E-02  4.3780200000E-01
            znucl       22.00000   48.00000    8.00000

 chkinp: Checking input parameters for consistency.

== DATASET  1 ==================================================================
-   mpi_nproc: 1, omp_nthreads: -1 (-1 if OMP is not activated)

--- !DatasetInfo
iteration_state: {dtset: 1, }
dimensions: {natom: 10, nkpt: 2, mband: 59, nsppol: 1, nspinor: 1, nspden: 1, mpw: 13704, }
cutoff_energies: {ecut:  51.0, pawecutdg:  -1.0, }
electrons: {nelect:   1.00000000E+02, charge:   0.00000000E+00, occopt:   1.00000000E+00, tsmear:   1.00000000E-02, }
meta: {optdriver: 1, rfelfd: 2, }
...

 Real(R)+Recip(G) space primitive vectors, cartesian coordinates (Bohr,Bohr^-1):
 R(1)=  8.8141962  0.0000000  6.4600981  G(1)=  0.1134533 -0.0454000  0.0000000
 R(2)=  3.2746716  8.1833111  6.4600981  G(2)=  0.0000000  0.1221999  0.0000000
 R(3)=  0.0000000  0.0000000 10.9280795  G(3)= -0.0670676 -0.0454000  0.0915074
 Unit cell volume ucvol=  7.8823483E+02 bohr^3
 Angles (23,13,12)=  5.37615766E+01  5.37615766E+01  5.37615766E+01 degrees

 getcut: wavevector=  0.0000  0.0000  0.0000  ngfft=  72  72  72
         ecut(hartree)=     51.000   => boxcut(ratio)=   2.04960

--- Pseudopotential description ------------------------------------------------
- pspini: atom type   1  psp file is /scratch/users/j/a/jabreu/pseudos/PBEsol/Ti.psp8
- pspatm: opening atomic psp file    /scratch/users/j/a/jabreu/pseudos/PBEsol/Ti.psp8
- Ti    ONCVPSP-3.3.0  r_core=   1.35825   1.31050   1.66360
- 22.00000  12.00000    180112                znucl, zion, pspdat
    8 -116133    2    4       600   0.00000   pspcod,pspxc,lmax,lloc,mmax,r2well
    5.99000000000000    2.50000000000000    0.00000000000000   rchrg,fchrg,qchrg
     nproj     2     2     2
     extension_switch     1
  pspatm : epsatm=   14.76919902
         --- l  ekb(1:nproj) -->
             0   11.321950    1.254474
             1    1.946894   -0.084268
             2   -5.237105   -1.488377
 pspatm: atomic psp has been read  and splines computed

- pspini: atom type   2  psp file is /scratch/users/j/a/jabreu/pseudos/PBEsol/Cd.psp8
- pspatm: opening atomic psp file    /scratch/users/j/a/jabreu/pseudos/PBEsol/Cd.psp8
- Cd    ONCVPSP-3.3.0  r_core=   1.25838   1.30423   1.35174
- 48.00000  20.00000    180112                znucl, zion, pspdat
    8 -116133    2    4       600   0.00000   pspcod,pspxc,lmax,lloc,mmax,r2well
    5.99000000000000    6.00000000000000    0.00000000000000   rchrg,fchrg,qchrg
     nproj     2     2     2
     extension_switch     1
  pspatm : epsatm=   23.26728021
         --- l  ekb(1:nproj) -->
             0   63.701523    3.700425
             1    8.703569    1.290373
             2    0.983656   -0.721725
 pspatm: atomic psp has been read  and splines computed

- pspini: atom type   3  psp file is /scratch/users/j/a/jabreu/pseudos/PBEsol/O.psp8
- pspatm: opening atomic psp file    /scratch/users/j/a/jabreu/pseudos/PBEsol/O.psp8
- O     ONCVPSP-3.3.0  r_core=   1.35509   1.45563   1.26150
-  8.00000   6.00000    180112                znucl, zion, pspdat
    8 -116133    2    4       600   0.00000   pspcod,pspxc,lmax,lloc,mmax,r2well
    5.99000000000000    4.00000000000000    0.00000000000000   rchrg,fchrg,qchrg
     nproj     2     2     1
     extension_switch     1
  pspatm : epsatm=    6.22910522
         --- l  ekb(1:nproj) -->
             0    6.050032    0.820363
             1   -4.739617   -1.153841
             2   -1.335834
 pspatm: atomic psp has been read  and splines computed

   1.13447590E+04                                ecore*ucvol(ha*bohr**3)

 ==>  initialize data related to q vector <==

 The list of irreducible perturbations for this q vector is:
    1)    idir= 1    ipert=  11
    2)    idir= 2    ipert=  11
    3)    idir= 3    ipert=  11

 Perturbation wavevector (in red.coord.)   0.000000  0.000000  0.000000
 Perturbation : derivative vs k along direction   1

 dfpt_looppert : COMMENT -
  In a d/dk calculation, iscf is set to -3 automatically.
 The set of symmetries contains only one element for this perturbation.
 symkpt : not enough symmetry to change the number of k points.

 Initialisation of the first-order wave-functions :
  ireadwf=   0

--- !BeginCycle
iteration_state: {dtset: 1, }
solver: {iscf: 7, nstep: 2000, nline: 4, wfoptalg: 0, }
tolerances: {tolwfr: 1.00E-20, }
...

     iter   2DEtotal(Ha)        deltaE(Ha) residm    vres2
-ETOT  1  -57.978617361569     -5.798E+01 1.370E-01 0.000E+00
 ETOT  2  -58.496059722958     -5.174E-01 4.844E-02 0.000E+00
 ETOT  3  -58.545759502523     -4.970E-02 5.900E-03 0.000E+00
 ETOT  4  -58.553509905808     -7.750E-03 3.138E-03 0.000E+00
 ETOT  5  -58.554901412554     -1.392E-03 9.281E-04 0.000E+00
 ETOT  6  -58.555162875963     -2.615E-04 5.558E-04 0.000E+00
[...]
 ETOT 28  -58.555552127628     -4.974E-14 7.924E-10 0.000E+00
 ETOT 29  -58.555552127628      2.132E-14 2.188E-10 0.000E+00
 ETOT 30  -58.555552127628      2.132E-14 2.363E-10 0.000E+00
 ETOT 31  -58.555552127628      1.421E-14 6.522E-11 0.000E+00
 ETOT 32  -58.555552127628     -7.105E-15 7.059E-11 0.000E+00
 ETOT 33  -58.555552127628     -7.105E-15 1.948E-11 0.000E+00
 ETOT 34  -58.555552127628      0.000E+00 2.112E-11 0.000E+00
 ETOT 35  -58.555552127628      7.105E-15 5.824E-12 0.000E+00
 ETOT 36  -58.555552127628     -7.105E-15 6.328E-12 0.000E+00
 ETOT 37  -58.555552127628     -7.105E-15 1.744E-12 0.000E+00
 ETOT 38  -58.555552127628      2.842E-14 1.898E-12 0.000E+00
 ETOT 39  -58.555552127628      0.000E+00 5.228E-13 0.000E+00
 ETOT 40  -58.555552127628      0.000E+00 5.701E-13 0.000E+00
 ETOT 41  -58.555552127628     -1.421E-14 1.569E-13 0.000E+00
 ETOT 42  -58.555552127628      2.842E-14 1.714E-13 0.000E+00
 ETOT 43  -58.555552127628     -2.132E-14 4.714E-14 0.000E+00
 ETOT 44  -58.555552127628      1.421E-14 5.158E-14 0.000E+00
 ETOT 45  -58.555552127628     -7.105E-15 1.418E-14 0.000E+00
 ETOT 46  -58.555552127628     -7.105E-15 1.554E-14 0.000E+00
 ETOT 47  -58.555552127628      7.105E-15 4.267E-15 0.000E+00
 ETOT 48  -58.555552127628     -1.421E-14 4.684E-15 0.000E+00
 ETOT 49  -58.555552127628      0.000E+00 1.286E-15 0.000E+00
 ETOT 50  -58.555552127628      2.132E-14 1.413E-15 0.000E+00
 ETOT 51  -58.555552127628     -1.421E-14 3.876E-16 0.000E+00
 ETOT 52  -58.555552127628      7.105E-15 4.266E-16 0.000E+00
 ETOT 53  -58.555552127628     -7.105E-15 1.169E-16 0.000E+00
 ETOT 54  -58.555552127628      0.000E+00 1.289E-16 0.000E+00
 ETOT 55  -58.555552127628      0.000E+00 3.530E-17 0.000E+00
 ETOT 56  -58.555552127628      7.105E-15 3.896E-17 0.000E+00
 ETOT 57  -58.555552127628     -7.105E-15 1.067E-17 0.000E+00
 ETOT 58  -58.555552127628      0.000E+00 1.178E-17 0.000E+00
 ETOT 59  -58.555552127628      3.553E-14 3.224E-18 0.000E+00
 ETOT 60  -58.555552127628      0.000E+00 3.565E-18 0.000E+00
 ETOT 61  -58.555552127628     -3.553E-14 9.750E-19 0.000E+00
 ETOT 62  -58.555552127628      0.000E+00 1.080E-18 0.000E+00
 ETOT 63  -58.555552127628     -1.421E-14 2.950E-19 0.000E+00
 ETOT 64  -58.555552127628      2.132E-14 3.270E-19 0.000E+00
 ETOT 65  -58.555552127628      2.842E-14 8.932E-20 0.000E+00
 ETOT 66  -58.555552127628     -3.553E-14 9.908E-20 0.000E+00
 ETOT 67  -58.555552127628     -7.105E-15 2.705E-20 0.000E+00
 ETOT 68  -58.555552127628      2.132E-14 3.003E-20 0.000E+00
 ETOT 69  -58.555552127628     -2.132E-14 9.926E-21 0.000E+00

 At SCF step   69   max residual=  9.93E-21 < tolwfr=  1.00E-20 =>converged.

 ----iterations are completed or convergence reached----

 dfpt_looppert: DFPT cycle converged with prtwf=-1. Will skip output of the 1st-order WFK file.
 dfpt_looppert : ek2=    1.1790483350E+02
          f-sum rule ratio=    9.9968959117E-01
 prteigrs : about to open file /scratch/users/j/a/jabreu/flow_simple_10atoms/flow/w263/t1/tmpdata/tmp_1WF1_EIG
 Expectation of eigenvalue derivatives (hartree) for nkpt=   2  k points:
  (in case of degenerate eigenvalues, averaged derivative)
 kpt#   1, nband= 59, wtk=  0.50000, kpt=  0.2000  0.2000  0.2000 (reduced coord)
   0.00000   -0.00000   -0.00000   -0.00000    0.00000   -0.00000    0.00000    0.00000
   0.00000   -0.00000   -0.00001   -0.00001   -0.00008    0.00005    0.00001    0.00001
   0.00935    0.00183    0.00183   -0.01204   -0.00174   -0.00174   -0.00001   -0.00001
   0.00058    0.00379    0.00379   -0.00588   -0.00471   -0.00471   -0.00167   -0.00167
   0.03278    0.00768    0.00236    0.00236   -0.00282   -0.00282   -0.02087    0.01498
   0.01498    0.01297   -0.00738   -0.00738   -0.00420   -0.04705   -0.00737   -0.00737
  -0.00044   -0.00044    0.01460    0.00146   -0.00166   -0.00166    0.00456    0.00456
   0.03908    0.00070   -0.00841
 prteigrs : prtvol=0 or 1, do not print more k-points.

 Eight components of 2nd-order total energy (hartree) are
 1,2,3: 0th-order hamiltonian combined with 1st-order wavefunctions
     kin0=   1.09916416E+02 eigvalue=  -2.33131748E+00  local=  -5.38690574E+01
 4,5,6: 1st-order hamiltonian combined with 1st and 0th-order wfs
     kin1=  -1.17868235E+02  Hartree=   0.00000000E+00     xc=   0.00000000E+00
 7,8,9: eventually, occupation + non-local contributions
    edocc=   8.71512496E+00     enl0=  -3.87561414E+00   enl1=   7.57130540E-01
 1-9 gives the relaxation energy (to be shifted if some occ is /=2.0)
   erelax=  -5.85555521E+01
  No Ewald or frozen-wf contrib.: the relaxation energy is the total one
 2DEtotal=   -0.5855555213E+02 Ha. Also 2DEtotal=   -0.159337760608E+04 eV
    (  non-var. 2DEtotal :   -5.8555552127E+01 Ha)

 CALCULATION OF EFFECTIVE MASSES
 NOTE : Additional infos (eff. mass eigenvalues, eigenvectors and, if degenerate, average mass) are available in stdout.

--- !WARNING
src_file: m_efmas.F90
src_line: 0
message: |
    Effective masses calculations require given k-point(s) to be band extrema for given bands, but max abs gradient of band(s) was found to be greater than 1e-5. Abinit will continue anyway.
...

[...]

--- !WARNING
src_file: m_efmas.F90
src_line: 0
message: |
    Effective masses calculations require given k-point(s) to be band extrema for given bands, but max abs gradient of band(s) was found to be greater than 1e-5. Abinit will continue anyway.
...

 COMMENTS:
 - At k-point ( 0.200, 0.200, 0.200), bands    49 through    50
   are DEGENERATE (effective mass tensor is therefore not defined).
   See Section IIIB Eqs. (67)-(70) and Appendix E of PRB 93 205147 (2016).
 - Angular average effective mass for Frohlich model is to be averaged over degenerate bands. See later.
 - Associated theta integrals calculated with ntheta=   1000 points.

 K-point ( 0.200, 0.200, 0.200) | band =    49
 Transport equivalent effective mass tensor:
             -1.0749298304             -0.0685969471             -0.1999190355
             -0.0685969471             -1.0200346591             -0.1353255303
             -0.1999190355             -0.1353255303             -1.3680090866
 Transport equivalent effective mass tensor eigenvalues:
             -1.5157759509             -0.9736033004             -0.9735943247
 Angular average effective mass 1/(<1/m>)=  -0.9548599708
 Angular average effective mass for Frohlich model (<m**0.5>)**2=  -0.9725749946
 Effective masses along directions: (cart. coord. / red. coord. -> eff. mass)
    1:   1.000000  0.000000  0.000000 /   0.937397  0.348264  0.000000 ->  -1.0767551983
    2:   0.000000  1.000000  0.000000 /   0.000000  1.000000  0.000000 ->  -1.0012163086
    3:   0.000000  0.000000  1.000000 /   0.453534  0.453534  0.767211 ->  -1.2066956697
    4:   0.577350  0.577350  0.577350 /   0.588438  0.690289  0.421001 ->  -1.0948114418
    5:   0.000000  0.707107  0.707107 /   0.333338  0.755593  0.563884 ->  -1.0855669742
    6:   0.707107  0.000000  0.707107 /   0.722051  0.460185  0.516596 ->  -1.1872454266
    7:   0.707107  0.707107  0.000000 /   0.609727  0.792612  0.000000 ->  -0.7922940283

 K-point ( 0.200, 0.200, 0.200) | band =    50
 Transport equivalent effective mass tensor:
             -5.3220683173             -0.0073513025             -0.0216822870
             -0.0073513025             -5.3162223829             -0.0146275793
             -0.0216822870             -0.0146275793             -5.3539973888
 Transport equivalent effective mass tensor eigenvalues:
             -5.3699469764             -5.3112439031             -5.3110972096
 Angular average effective mass 1/(<1/m>)=  -2.4854121474
 Angular average effective mass for Frohlich model (<m**0.5>)**2=  -2.6425257080
 Effective masses along directions: (cart. coord. / red. coord. -> eff. mass)
    1:   1.000000  0.000000  0.000000 /   0.937397  0.348264  0.000000 ->  -1.7704818911
    2:   0.000000  1.000000  0.000000 /   0.000000  1.000000  0.000000 ->  -1.9044484664
    3:   0.000000  0.000000  1.000000 /   0.453534  0.453534  0.767211 ->  -1.9890598399
    4:   0.577350  0.577350  0.577350 /   0.588438  0.690289  0.421001 ->  -2.5816069235
    5:   0.000000  0.707107  0.707107 /   0.333338  0.755593  0.563884 ->  -2.3166253061
    6:   0.707107  0.000000  0.707107 /   0.722051  0.460185  0.516596 ->  -2.1755117376
    7:   0.707107  0.707107  0.000000 /   0.609727  0.792612  0.000000 ->  -4.7934153646

 Angular average effective mass for Frohlich model, averaged over degenerate bands.
 Value of     (<<m**0.5>>)**2 =     1.705345E+00
 Absolute Value of <<m**0.5>> =     1.305888E+00

--- !WARNING
src_file: m_efmas.F90
src_line: 0
message: |

    Band(s)    51,
    are not band extrema, but saddle points;
    the transport equivalent formalism breaks down in these conditions.
    The associated tensor(s) will therefore not be printed.
...

 K-point ( 0.149, 0.000,-0.149) | band =    51
 Effective mass tensor:
     *** SADDLE POINT: TRANSPORT EQV. EFF. MASS NOT DEFINED (see WARNING above) ***
 Angular average effective mass 1/(<1/m>)=   2.1860816804
 Angular average effective mass for Frohlich model (<m**0.5>)**2=   5.0038896411
 Effective masses along directions: (cart. coord. / red. coord. -> eff. mass)
    1:   1.000000  0.000000  0.000000 /   0.937397  0.348264  0.000000 ->   2.1258177135
    2:   0.000000  1.000000  0.000000 /   0.000000  1.000000  0.000000 -> -19.9436204385
    3:   0.000000  0.000000  1.000000 /   0.453534  0.453534  0.767211 ->   1.0503622706
    4:   0.577350  0.577350  0.577350 /   0.588438  0.690289  0.421001 ->   1.3295647025
    5:   0.000000  0.707107  0.707107 /   0.333338  0.755593  0.563884 ->   1.8244110047
    6:   0.707107  0.000000  0.707107 /   0.722051  0.460185  0.516596 ->   1.0150958624
    7:   0.707107  0.707107  0.000000 /   0.609727  0.792612  0.000000 ->   3.5574879105

 END OF EFFECTIVE MASSES SECTION

 ---- first-order wavefunction calculations are completed ----

 Total localisation tensor (bohr^2) in cartesian coordinates
  WARNING : still subject to testing - especially symmetries.
      direction              matrix element
   alpha     beta       real part   imaginary part
     1        1       0.7751065338    0.0000000000
     1        2       0.2391313924    0.0000000000
     1        3       0.6867322948    0.0000000000
     2        1       0.2391313924    0.0000000000
     2        2       0.5975825348    0.0000000000
     2        3       0.4717456955    0.0000000000
     3        1       0.6867322948    0.0000000000
     3        2       0.4717456955    0.0000000000
     3        3       1.7881848223    0.0000000000

 respfn : d/dk was computed, but no 2DTE, so no DDB output.

== END DATASET(S) ==============================================================

 -outvars: echo values of variables after computation  --------
            acell      1.0000000000E+00  1.0000000000E+00  1.0000000000E+00 Bohr
              amu      4.78800000E+01  1.12411000E+02  1.59994000E+01
             ecut      5.10000000E+01 Hartree
           etotal     -5.8555552128E+01
            fcart      0.0000000000E+00  0.0000000000E+00  0.0000000000E+00
                       0.0000000000E+00  0.0000000000E+00  0.0000000000E+00
                       0.0000000000E+00  0.0000000000E+00  0.0000000000E+00
                       0.0000000000E+00  0.0000000000E+00  0.0000000000E+00
                       0.0000000000E+00  0.0000000000E+00  0.0000000000E+00
                       0.0000000000E+00  0.0000000000E+00  0.0000000000E+00
                       0.0000000000E+00  0.0000000000E+00  0.0000000000E+00
                       0.0000000000E+00  0.0000000000E+00  0.0000000000E+00
                       0.0000000000E+00  0.0000000000E+00  0.0000000000E+00
                       0.0000000000E+00  0.0000000000E+00  0.0000000000E+00
-          fftalg         512
           irdden           1
           irdwfk           1
              ixc     -116133
              kpt      2.00000000E-01  2.00000000E-01  2.00000000E-01
                       1.48523785E-01  0.00000000E+00 -1.48523785E-01
           kptopt           0
P           mkmem           2
P          mkqmem           2
P          mk1mem           2
            natom          10
            nband          59
           nbdbuf           4
            ngfft          72      72      72
             nkpt           2
            nstep        2000
             nsym           6
           ntypat           3
              occ      2.000000  2.000000  2.000000  2.000000  2.000000  2.000000
                       2.000000  2.000000  2.000000  2.000000  2.000000  2.000000
                       2.000000  2.000000  2.000000  2.000000  2.000000  2.000000
                       2.000000  2.000000  2.000000  2.000000  2.000000  2.000000
                       2.000000  2.000000  2.000000  2.000000  2.000000  2.000000
                       2.000000  2.000000  2.000000  2.000000  2.000000  2.000000
                       2.000000  2.000000  2.000000  2.000000  2.000000  2.000000
                       2.000000  2.000000  2.000000  2.000000  2.000000  2.000000
                       2.000000  2.000000  0.000000  0.000000  0.000000  0.000000
                       0.000000  0.000000  0.000000  0.000000  0.000000
        optdriver           1
            prtwf          -1
            rfdir           1       1       1
           rfelfd           2
            rprim      8.8141962084E+00  0.0000000000E+00  6.4600980765E+00
                       3.2746716360E+00  8.1833110949E+00  6.4600980765E+00
                       0.0000000000E+00  0.0000000000E+00  1.0928079518E+01
          spgroup         148
           strten      0.0000000000E+00  0.0000000000E+00  0.0000000000E+00
                       0.0000000000E+00  0.0000000000E+00  0.0000000000E+00
           symrel      1  0  0   0  1  0   0  0  1      -1  0  0   0 -1  0   0  0 -1
                       0  0  1   1  0  0   0  1  0       0  0 -1  -1  0  0   0 -1  0
                       0  1  0   0  0  1   1  0  0       0 -1  0   0  0 -1  -1  0  0
           tolwfr      1.00000000E-20
            typat      1  1  2  2  3  3  3  3  3  3
           useylm           1
              wtk        0.50000    0.50000
           xangst      9.5720605440E-01  6.4796100230E-01  1.8883252058E+00
                       5.4399472865E+00  3.6824607199E+00  1.0731638744E+01
                       2.3250325874E+00  1.5738831141E+00  4.5867006575E+00
                       4.0721207535E+00  2.7565386081E+00  8.0332632919E+00
                       5.4693678192E+00  2.4345544314E+00  6.3523735112E+00
                       2.5862222221E+00  4.1734006306E+00  7.2171927120E+00
                       2.9626237813E+00  8.5059875637E-01  8.1665801247E+00
                       9.2778552172E-01  1.8958672908E+00  6.2675904382E+00
                       3.4345295596E+00  3.4798229659E+00  4.4533838247E+00
                       3.8109311188E+00  1.5702109165E-01  5.4027712375E+00
            xcart      1.8088572956E+00  1.2244688391E+00  3.5684174887E+00
                       1.0280010549E+01  6.9588422558E+00  2.0279858183E+01
                       4.3936748403E+00  2.9742080508E+00  8.6676080962E+00
                       7.6951930041E+00  5.2091030441E+00  1.5180667575E+01
                       1.0335607298E+01  4.6006411309E+00  1.2004246230E+01
                       4.8872517185E+00  7.8865842346E+00  1.3638517674E+01
                       5.5985475814E+00  1.6073986985E+00  1.5432599878E+01
                       1.7532605461E+00  3.5826699640E+00  1.1844029441E+01
                       6.4903202630E+00  6.5759123964E+00  8.4156757933E+00
                       7.2016161259E+00  2.9672686030E-01  1.0209757997E+01
             xred      1.4963000000E-01  1.4963000000E-01  1.4963000000E-01
                       8.5037000000E-01  8.5037000000E-01  8.5037000000E-01
                       3.6344800000E-01  3.6344800000E-01  3.6344800000E-01
                       6.3655200000E-01  6.3655200000E-01  6.3655200000E-01
                       9.6374000000E-01  5.6219800000E-01  1.9642400000E-01
                       1.9642400000E-01  9.6374000000E-01  5.6219800000E-01
                       5.6219800000E-01  1.9642400000E-01  9.6374000000E-01
                       3.6260000000E-02  4.3780200000E-01  8.0357600000E-01
                       4.3780200000E-01  8.0357600000E-01  3.6260000000E-02
                       8.0357600000E-01  3.6260000000E-02  4.3780200000E-01
            znucl       22.00000   48.00000    8.00000

- Timing analysis has been suppressed with timopt=0

 Suggested references for the acknowledgment of ABINIT usage.

 Calculation completed.
.Delivered   9 WARNINGs and   5 COMMENTs to log file.