.Version 9.5.1 of ABINIT

 ABINIT is a project of the Universite Catholique de Louvain,
 Corning Inc. and other collaborators, see ~abinit/doc/developers/contributors.txt .
 acknowledgments of the ABINIT effort.

.Starting date : Tue 11 May 2021.
- ( at 21h15 )

- input  file    -> /scratch/users/j/a/jabreu/flow_simple_8atoms/flow/w279/t1/run.abi
- output file    -> /scratch/users/j/a/jabreu/flow_simple_8atoms/flow/w279/t1/run.abo
- root for input  files -> /scratch/users/j/a/jabreu/flow_simple_8atoms/flow/w279/t1/indata/in
- root for output files -> /scratch/users/j/a/jabreu/flow_simple_8atoms/flow/w279/t1/outdata/out

 Symmetries : space group I-4 2 d (#122); Bravais tI (body-center tetrag.)
     intxc =       0      iscf =       7    lmnmax =       8     lnmax =       4
     mgfft =      50  mpssoang =       2    mqgrid =    3001     natom =       8
  nloc_mem =       1    nspden =       1   nspinor =       1    nsppol =       1
      nsym =       8    n1xccc =    2501    ntypat =       3    occopt =       1
   xclevel =       2
-    mband =          27        mffmem =           1         mkmem =           1
-   mkqmem =           1        mk1mem =           1           mpw =        4643
      nfft =      125000          nkpt =           1
  Rough estimation (10% accuracy) of disk space for files :

------------- Echo of variables that govern the present computation ------------
-
- outvars: echo of selected default values
-   iomode0 =  0 , fftalg0 =512 , wfoptalg0 =  0
-
- outvars: echo of global parameters not present in the input file
-  max_nthreads =    0
-
 -outvars: echo values of preprocessed input variables --------
            acell      1.0000000000E+00  1.0000000000E+00  1.0000000000E+00 Bohr
              amu      9.01218200E+00  1.20110000E+01  1.40067400E+01
             ecut      4.40000000E+01 Hartree
-          fftalg         512
           irdden           1
           irdwfk           1
           istwfk        1
              ixc     -116133
           kptopt           0
P           mkmem           1
P          mkqmem           1
P          mk1mem           1
            natom           8
            nband          27
           nbdbuf           4
            ngfft          50      50      50
             nkpt           1
            nstep        2000
             nsym           8
           ntypat           3
              occ      2.000000  2.000000  2.000000  2.000000  2.000000  2.000000
                       2.000000  2.000000  2.000000  2.000000  2.000000  2.000000
                       2.000000  2.000000  2.000000  2.000000  2.000000  2.000000
                       0.000000  0.000000  0.000000  0.000000  0.000000  0.000000
                       0.000000  0.000000  0.000000
        optdriver           1
            prtwf          -1
            rfdir           1       1       1
           rfelfd           2
            rprim      6.3977288485E+00  0.0000000000E+00 -5.2092644753E+00
                      -1.4454923085E+00  6.2322938317E+00 -5.2092644753E+00
                       0.0000000000E+00  0.0000000000E+00  8.2502951942E+00
          spgroup         122
           symrel      1  0  0   0  1  0   0  0  1       0  0  1  -1 -1 -1   1  0  0
                       0  1  0   1  0  0  -1 -1 -1      -1 -1 -1   0  0  1   0  1  0
                       0  1  0   1  0  0   0  0  1       0  0  1  -1 -1 -1   0  1  0
                       1  0  0   0  1  0  -1 -1 -1      -1 -1 -1   0  0  1   1  0  0
            tnons      0.0000000  0.0000000  0.0000000    -0.2500000  0.2500000  0.5000000
                      -0.0000000  0.0000000 -0.0000000    -0.2500000  0.2500000  0.5000000
                      -0.2500000  0.2500000  0.5000000    -0.0000000  0.0000000  0.0000000
                      -0.2500000  0.2500000  0.5000000    -0.0000000 -0.0000000 -0.0000000
           tolwfr      1.00000000E-20
            typat      1  1  2  2  3  3  3  3
           useylm           1
           xangst      2.3479188238E+00  8.2449696324E-01 -5.7368994339E-01
                       0.0000000000E+00  0.0000000000E+00  0.0000000000E+00
                       2.7269188470E-01  2.4734908897E+00 -5.7368994339E-01
                       1.3103053543E+00  1.6489939265E+00 -2.7566240338E+00
                       4.8406918329E-01  4.1224848162E-01  1.5681637834E+00
                       2.6401374270E+00  1.3891916354E+00 -3.3713943409E+00
                       6.3562595861E-01  2.7332931808E+00  8.4570243715E-01
                       1.4813888481E+00  2.0612424081E+00 -1.3372316533E+00
            xcart      4.4369235592E+00  1.5580734579E+00 -1.0841168782E+00
                       0.0000000000E+00  0.0000000000E+00  0.0000000000E+00
                       5.1531298075E-01  4.6742203738E+00 -1.0841168782E+00
                       2.4761182700E+00  3.1161469158E+00 -5.2092644753E+00
                       9.1475818579E-01  7.7903672896E-01  2.9634000822E+00
                       4.9891366903E+00  2.6251917370E+00 -6.3710119902E+00
                       1.2011589847E+00  5.1651755527E+00  1.5981459961E+00
                       2.7994192192E+00  3.8951836448E+00 -2.5270016010E+00
             xred      7.5000000000E-01  2.5000000000E-01  5.0000000000E-01
                       0.0000000000E+00  0.0000000000E+00  0.0000000000E+00
                       2.5000000000E-01  7.5000000000E-01  5.0000000000E-01
                       5.0000000000E-01  5.0000000000E-01 -1.3877787808E-16
                       1.7122400000E-01  1.2500000000E-01  5.4622400000E-01
                       8.7500000000E-01  4.2122400000E-01  4.6224000000E-02
                       3.7500000000E-01  8.2877600000E-01  9.5377600000E-01
                       5.7877600000E-01  6.2500000000E-01  4.5377600000E-01
            znucl        4.00000    6.00000    7.00000

 chkinp: Checking input parameters for consistency.

== DATASET  1 ==================================================================
-   mpi_nproc: 1, omp_nthreads: -1 (-1 if OMP is not activated)

--- !DatasetInfo
iteration_state: {dtset: 1, }
dimensions: {natom: 8, nkpt: 1, mband: 27, nsppol: 1, nspinor: 1, nspden: 1, mpw: 4643, }
cutoff_energies: {ecut:  44.0, pawecutdg:  -1.0, }
electrons: {nelect:   3.60000000E+01, charge:   0.00000000E+00, occopt:   1.00000000E+00, tsmear:   1.00000000E-02, }
meta: {optdriver: 1, rfelfd: 2, }
...

 Real(R)+Recip(G) space primitive vectors, cartesian coordinates (Bohr,Bohr^-1):
 R(1)=  6.3977288  0.0000000 -5.2092645  G(1)=  0.1563055  0.0362528  0.0000000
 R(2)= -1.4454923  6.2322938 -5.2092645  G(2)=  0.0000000  0.1604546  0.0000000
 R(3)=  0.0000000  0.0000000  8.2502952  G(3)=  0.0986918  0.1242017  0.1212078
 Unit cell volume ucvol=  3.2896011E+02 bohr^3
 Angles (23,13,12)=  1.29153739E+02  1.29153739E+02  7.47633263E+01 degrees

 getcut: wavevector=  0.0000  0.0000  0.0000  ngfft=  50  50  50
         ecut(hartree)=     44.000   => boxcut(ratio)=   2.02992

--- Pseudopotential description ------------------------------------------------
- pspini: atom type   1  psp file is /scratch/users/j/a/jabreu/pseudos/PBEsol/Be.psp8
- pspatm: opening atomic psp file    /scratch/users/j/a/jabreu/pseudos/PBEsol/Be.psp8
- Be    ONCVPSP-3.3.0  r_core=   1.35684   1.10780
-  4.00000   4.00000    180112                znucl, zion, pspdat
    8 -116133    1    4       400   0.00000   pspcod,pspxc,lmax,lloc,mmax,r2well
    3.99000000000000    0.00000000000000    0.00000000000000   rchrg,fchrg,qchrg
     nproj     2     2
     extension_switch     1
  pspatm : epsatm=    3.86293307
         --- l  ekb(1:nproj) -->
             0   -7.966826   -2.672546
             1   -3.431835   -0.651830
 pspatm: atomic psp has been read  and splines computed

- pspini: atom type   2  psp file is /scratch/users/j/a/jabreu/pseudos/PBEsol/C.psp8
- pspatm: opening atomic psp file    /scratch/users/j/a/jabreu/pseudos/PBEsol/C.psp8
- C     ONCVPSP-3.3.0  r_core=   1.20440   1.26326
-  6.00000   4.00000    180112                znucl, zion, pspdat
    8 -116133    1    4       600   0.00000   pspcod,pspxc,lmax,lloc,mmax,r2well
    5.99000000000000    4.00000000000000    0.00000000000000   rchrg,fchrg,qchrg
     nproj     2     2
     extension_switch     1
  pspatm : epsatm=    4.34909529
         --- l  ekb(1:nproj) -->
             0    6.468939    0.390031
             1   -4.179695   -0.878453
 pspatm: atomic psp has been read  and splines computed

- pspini: atom type   3  psp file is /scratch/users/j/a/jabreu/pseudos/PBEsol/N.psp8
- pspatm: opening atomic psp file    /scratch/users/j/a/jabreu/pseudos/PBEsol/N.psp8
- N     ONCVPSP-3.3.0  r_core=   1.20551   1.35824
-  7.00000   5.00000    180112                znucl, zion, pspdat
    8 -116133    1    4       600   0.00000   pspcod,pspxc,lmax,lloc,mmax,r2well
    5.99000000000000    4.00000000000000    0.00000000000000   rchrg,fchrg,qchrg
     nproj     2     2
     extension_switch     1
  pspatm : epsatm=    5.26508895
         --- l  ekb(1:nproj) -->
             0    7.464189    0.625868
             1   -4.309714   -1.012941
 pspatm: atomic psp has been read  and splines computed

   1.34943885E+03                                ecore*ucvol(ha*bohr**3)

-inwffil : will read wavefunctions from disk file /scratch/users/j/a/jabreu/flow_simple_8atoms/flow/w279/t1/indata/in_WFK

 ==>  initialize data related to q vector <==

 The list of irreducible perturbations for this q vector is:
    1)    idir= 1    ipert=   9
    2)    idir= 2    ipert=   9
    3)    idir= 3    ipert=   9

 Perturbation wavevector (in red.coord.)   0.000000  0.000000  0.000000
 Perturbation : derivative vs k along direction   1

 dfpt_looppert : COMMENT -
  In a d/dk calculation, iscf is set to -3 automatically.
 The set of symmetries contains only one element for this perturbation.
 symkpt : not enough symmetry to change the number of k points.

[...]

 Initialisation of the first-order wave-functions :
  ireadwf=   0

--- !BeginCycle
iteration_state: {dtset: 1, }
solver: {iscf: 7, nstep: 2000, nline: 4, wfoptalg: 0, }
tolerances: {tolwfr: 1.00E-20, }
...

     iter   2DEtotal(Ha)        deltaE(Ha) residm    vres2
-ETOT  1  -42.921352054938     -4.292E+01 6.104E-02 0.000E+00
 ETOT  2  -42.938684663245     -1.733E-02 2.177E-03 0.000E+00
 ETOT  3  -42.938729042684     -4.438E-05 1.772E-05 0.000E+00
 ETOT  4  -42.938729263931     -2.212E-07 1.658E-06 0.000E+00
 ETOT  5  -42.938729265344     -1.413E-09 2.069E-08 0.000E+00
 ETOT  6  -42.938729265355     -1.008E-11 2.275E-09 0.000E+00
 ETOT  7  -42.938729265355     -1.066E-13 3.062E-11 0.000E+00
 ETOT  8  -42.938729265355      3.553E-14 3.417E-12 0.000E+00
 ETOT  9  -42.938729265355      3.553E-14 4.757E-14 0.000E+00
 ETOT 10  -42.938729265355     -4.263E-14 5.328E-15 0.000E+00
 ETOT 11  -42.938729265355      2.132E-14 7.707E-17 0.000E+00
 ETOT 12  -42.938729265355     -1.421E-14 8.446E-18 0.000E+00
 ETOT 13  -42.938729265355      1.421E-14 1.379E-19 0.000E+00
 ETOT 14  -42.938729265355     -7.105E-15 1.350E-20 0.000E+00
 ETOT 15  -42.938729265355     -7.105E-15 9.612E-21 0.000E+00

 At SCF step   15   max residual=  9.61E-21 < tolwfr=  1.00E-20 =>converged.

 ----iterations are completed or convergence reached----

 dfpt_looppert: DFPT cycle converged with prtwf=-1. Will skip output of the 1st-order WFK file.
 dfpt_looppert : ek2=    7.3180671766E+01
          f-sum rule ratio=    1.1398347512E+00
 prteigrs : about to open file /scratch/users/j/a/jabreu/flow_simple_8atoms/flow/w279/t1/tmpdata/tmp_1WF1_EIG
 Expectation of eigenvalue derivatives (hartree) for nkpt=   1  k points:
  (in case of degenerate eigenvalues, averaged derivative)
 kpt#   1, nband= 27, wtk=  1.00000, kpt=  0.0000  0.0000  0.0000 (reduced coord)
   0.00000    0.00000    0.00000   -0.00000    0.00000    0.00000    0.00000    0.00000
   0.00000    0.00000    0.00000    0.00000   -0.00000    0.00000    0.00000   -0.00000
  -0.00000   -0.00000    0.00000   -0.00000   -0.00000   -0.00000   -0.00000   -0.00000
  -0.00000   -0.00000    0.00000

 Eight components of 2nd-order total energy (hartree) are
 1,2,3: 0th-order hamiltonian combined with 1st-order wavefunctions
     kin0=   3.81143849E+01 eigvalue=   1.05485459E+00  local=  -1.33194537E+01
 4,5,6: 1st-order hamiltonian combined with 1st and 0th-order wfs
     kin1=  -8.34138728E+01  Hartree=   0.00000000E+00     xc=   0.00000000E+00
 7,8,9: eventually, occupation + non-local contributions
    edocc=   2.10443468E+01     enl0=  -3.95540335E+00   enl1=  -2.46358573E+00
 1-9 gives the relaxation energy (to be shifted if some occ is /=2.0)
   erelax=  -4.29387293E+01
  No Ewald or frozen-wf contrib.: the relaxation energy is the total one
 2DEtotal=   -0.4293872927E+02 Ha. Also 2DEtotal=   -0.116842224450E+04 eV
    (  non-var. 2DEtotal :   -4.2938729265E+01 Ha)

 Perturbation wavevector (in red.coord.)   0.000000  0.000000  0.000000
 Perturbation : derivative vs k along direction   2
 The set of symmetries contains only one element for this perturbation.
 symkpt : not enough symmetry to change the number of k points.

[...]

 Perturbation wavevector (in red.coord.)   0.000000  0.000000  0.000000
 Perturbation : derivative vs k along direction   3
 The set of symmetries contains only one element for this perturbation.
 symkpt : not enough symmetry to change the number of k points.

-inwffil : will read wavefunctions from disk file /scratch/users/j/a/jabreu/flow_simple_8atoms/flow/w279/t1/indata/in_WFK

 Initialisation of the first-order wave-functions :
  ireadwf=   0

--- !BeginCycle
iteration_state: {dtset: 1, }
solver: {iscf: 7, nstep: 2000, nline: 4, wfoptalg: 0, }
tolerances: {tolwfr: 1.00E-20, }
...

     iter   2DEtotal(Ha)        deltaE(Ha) residm    vres2
-ETOT  1  -67.607882037434     -6.761E+01 9.356E-02 0.000E+00
 ETOT  2  -67.628848917790     -2.097E-02 2.557E-03 0.000E+00
 ETOT  3  -67.628887429292     -3.851E-05 4.545E-05 0.000E+00
 ETOT  4  -67.628887577467     -1.482E-07 1.246E-06 0.000E+00
 ETOT  5  -67.628887578161     -6.949E-10 5.057E-08 0.000E+00
 ETOT  6  -67.628887578165     -3.467E-12 1.734E-09 0.000E+00
 ETOT  7  -67.628887578165      5.684E-14 7.443E-11 0.000E+00
 ETOT  8  -67.628887578165     -7.105E-14 2.774E-12 0.000E+00
 ETOT  9  -67.628887578165      0.000E+00 1.231E-13 0.000E+00
 ETOT 10  -67.628887578165      0.000E+00 4.672E-15 0.000E+00
 ETOT 11  -67.628887578165      0.000E+00 2.116E-16 0.000E+00
 ETOT 12  -67.628887578165      1.421E-14 8.038E-18 0.000E+00
 ETOT 13  -67.628887578165      0.000E+00 3.684E-19 0.000E+00
 ETOT 14  -67.628887578165     -1.421E-14 1.396E-20 0.000E+00
 ETOT 15  -67.628887578165      0.000E+00 9.883E-21 0.000E+00

 At SCF step   15   max residual=  9.88E-21 < tolwfr=  1.00E-20 =>converged.

 ----iterations are completed or convergence reached----

 dfpt_looppert: DFPT cycle converged with prtwf=-1. Will skip output of the 1st-order WFK file.
 dfpt_looppert : ek2=    1.1329270291E+02
          f-sum rule ratio=    1.1641641854E+00
 prteigrs : about to open file /scratch/users/j/a/jabreu/flow_simple_8atoms/flow/w279/t1/tmpdata/tmp_1WF1_EIG
 Expectation of eigenvalue derivatives (hartree) for nkpt=   1  k points:
  (in case of degenerate eigenvalues, averaged derivative)
 kpt#   1, nband= 27, wtk=  1.00000, kpt=  0.0000  0.0000  0.0000 (reduced coord)
   0.00000    0.00000   -0.00000   -0.00000   -0.00000   -0.00000    0.00000    0.00000
   0.00000    0.00000    0.00000    0.00000    0.00000    0.00000    0.00000   -0.00000
  -0.00000   -0.00000    0.00000   -0.00000   -0.00000   -0.00000   -0.00000   -0.00000
  -0.00000   -0.00000   -0.00000

 Eight components of 2nd-order total energy (hartree) are
 1,2,3: 0th-order hamiltonian combined with 1st-order wavefunctions
     kin0=   5.93039763E+01 eigvalue=   1.52034022E+00  local=  -2.07848393E+01
 4,5,6: 1st-order hamiltonian combined with 1st and 0th-order wfs
     kin1=  -1.31891307E+02  Hartree=   0.00000000E+00     xc=   0.00000000E+00
 7,8,9: eventually, occupation + non-local contributions
    edocc=   3.39254685E+01     enl0=  -6.33605807E+00   enl1=  -3.36646795E+00
 1-9 gives the relaxation energy (to be shifted if some occ is /=2.0)
   erelax=  -6.76288876E+01
  No Ewald or frozen-wf contrib.: the relaxation energy is the total one
 2DEtotal=   -0.6762888758E+02 Ha. Also 2DEtotal=   -0.184027561991E+04 eV
    (  non-var. 2DEtotal :   -6.7628887578E+01 Ha)

 CALCULATION OF EFFECTIVE MASSES
 NOTE : Additional infos (eff. mass eigenvalues, eigenvectors and, if degenerate, average mass) are available in stdout.

 K-point ( 0.000, 0.000, 0.000) | band =    18
 Effective mass tensor:
             -0.5821011076              0.0121554833             -0.0203203292
              0.0121554833             -0.5764625262             -0.0255727379
             -0.0203203292             -0.0255727379             -0.5490100055
 Effective mass tensor eigenvalues:
             -0.5917599659             -0.5917599648             -0.5240537086
 Angular average effective mass 1/(<1/m>)=  -0.5673275920
 Angular average effective mass for Frohlich model (<m**0.5>)**2=  -0.5678977751
 Effective masses along directions: (cart. coord. / red. coord. -> eff. mass)
    1:   1.000000  0.000000  0.000000 /   0.975413 -0.220383  0.000000 ->  -0.5810505954
    2:   0.000000  1.000000  0.000000 /   0.000000  1.000000  0.000000 ->  -0.5749760721
    3:   0.000000  0.000000  1.000000 /  -0.470968 -0.470968  0.745907 ->  -0.5471277299
    4:   0.577350  0.577350  0.577350 /   0.142397 -0.050618  0.988515 ->  -0.5916729963
    5:   0.000000  0.707107  0.707107 /  -0.530976  0.104277  0.840946 ->  -0.5878886424
    6:   0.707107  0.000000  0.707107 /   0.111424 -0.623917  0.773507 ->  -0.5851894531
    7:   0.707107  0.707107  0.000000 /   0.800690  0.599079  0.000000 ->  -0.5651925634

 K-point ( 0.000, 0.000, 0.000) | band =    19
 Effective mass tensor:
              0.3699008950              0.0261383066             -0.0436954210
              0.0261383066              0.3820257152             -0.0549898415
             -0.0436954210             -0.0549898415              0.4410577103
 Effective mass tensor eigenvalues:
              0.3491311623              0.3491311626              0.4947219956
 Angular average effective mass 1/(<1/m>)=   0.3871045976
 Angular average effective mass for Frohlich model (<m**0.5>)**2=   0.3900467557
 Effective masses along directions: (cart. coord. / red. coord. -> eff. mass)
    1:   1.000000  0.000000  0.000000 /   0.975413 -0.220383  0.000000 ->   0.3644309330
    2:   0.000000  1.000000  0.000000 /   0.000000  1.000000  0.000000 ->   0.3739987047
    3:   0.000000  0.000000  1.000000 /  -0.470968 -0.470968  0.745907 ->   0.4288103711
    4:   0.577350  0.577350  0.577350 /   0.142397 -0.050618  0.988515 ->   0.3492480961
    5:   0.000000  0.707107  0.707107 /  -0.530976  0.104277  0.840946 ->   0.3544477926
    6:   0.707107  0.000000  0.707107 /   0.111424 -0.623917  0.773507 ->   0.3582946972
    7:   0.707107  0.707107  0.000000 /   0.800690  0.599079  0.000000 ->   0.3909954970

 END OF EFFECTIVE MASSES SECTION

 ---- first-order wavefunction calculations are completed ----

 Total localisation tensor (bohr^2) in cartesian coordinates
  WARNING : still subject to testing - especially symmetries.
      direction              matrix element
   alpha     beta       real part   imaginary part
     1        1       1.1065125862    0.0000000000
     1        2      -0.2317105432    0.0000000000
     1        3      -0.6635289555    0.0000000000
     2        1      -0.2317105432    0.0000000000
     2        2       0.9990286220    0.0000000000
     2        3      -0.8350383424    0.0000000000
     3        1      -0.6635289555    0.0000000000
     3        2      -0.8350383424    0.0000000000
     3        3       4.1684809333    0.0000000000

 respfn : d/dk was computed, but no 2DTE, so no DDB output.

== END DATASET(S) ==============================================================

 -outvars: echo values of variables after computation  --------
            acell      1.0000000000E+00  1.0000000000E+00  1.0000000000E+00 Bohr
              amu      9.01218200E+00  1.20110000E+01  1.40067400E+01
             ecut      4.40000000E+01 Hartree
           etotal     -6.7628887578E+01
            fcart      0.0000000000E+00  0.0000000000E+00  0.0000000000E+00
                       0.0000000000E+00  0.0000000000E+00  0.0000000000E+00
                       0.0000000000E+00  0.0000000000E+00  0.0000000000E+00
                       0.0000000000E+00  0.0000000000E+00  0.0000000000E+00
                       0.0000000000E+00  0.0000000000E+00  0.0000000000E+00
                       0.0000000000E+00  0.0000000000E+00  0.0000000000E+00
                       0.0000000000E+00  0.0000000000E+00  0.0000000000E+00
                       0.0000000000E+00  0.0000000000E+00  0.0000000000E+00
-          fftalg         512
           irdden           1
           irdwfk           1
           istwfk        1
              ixc     -116133
           kptopt           0
P           mkmem           1
P          mkqmem           1
P          mk1mem           1
            natom           8
            nband          27
           nbdbuf           4
            ngfft          50      50      50
             nkpt           1
            nstep        2000
             nsym           8
           ntypat           3
              occ      2.000000  2.000000  2.000000  2.000000  2.000000  2.000000
                       2.000000  2.000000  2.000000  2.000000  2.000000  2.000000
                       2.000000  2.000000  2.000000  2.000000  2.000000  2.000000
                       0.000000  0.000000  0.000000  0.000000  0.000000  0.000000
                       0.000000  0.000000  0.000000
        optdriver           1
            prtwf          -1
            rfdir           1       1       1
           rfelfd           2
            rprim      6.3977288485E+00  0.0000000000E+00 -5.2092644753E+00
                      -1.4454923085E+00  6.2322938317E+00 -5.2092644753E+00
                       0.0000000000E+00  0.0000000000E+00  8.2502951942E+00
          spgroup         122
           strten      0.0000000000E+00  0.0000000000E+00  0.0000000000E+00
                       0.0000000000E+00  0.0000000000E+00  0.0000000000E+00
           symrel      1  0  0   0  1  0   0  0  1       0  0  1  -1 -1 -1   1  0  0
                       0  1  0   1  0  0  -1 -1 -1      -1 -1 -1   0  0  1   0  1  0
                       0  1  0   1  0  0   0  0  1       0  0  1  -1 -1 -1   0  1  0
                       1  0  0   0  1  0  -1 -1 -1      -1 -1 -1   0  0  1   1  0  0
            tnons      0.0000000  0.0000000  0.0000000    -0.2500000  0.2500000  0.5000000
                      -0.0000000  0.0000000 -0.0000000    -0.2500000  0.2500000  0.5000000
                      -0.2500000  0.2500000  0.5000000    -0.0000000  0.0000000  0.0000000
                      -0.2500000  0.2500000  0.5000000    -0.0000000 -0.0000000 -0.0000000
           tolwfr      1.00000000E-20
            typat      1  1  2  2  3  3  3  3
           useylm           1
           xangst      2.3479188238E+00  8.2449696324E-01 -5.7368994339E-01
                       0.0000000000E+00  0.0000000000E+00  0.0000000000E+00
                       2.7269188470E-01  2.4734908897E+00 -5.7368994339E-01
                       1.3103053543E+00  1.6489939265E+00 -2.7566240338E+00
                       4.8406918329E-01  4.1224848162E-01  1.5681637834E+00
                       2.6401374270E+00  1.3891916354E+00 -3.3713943409E+00
                       6.3562595861E-01  2.7332931808E+00  8.4570243715E-01
                       1.4813888481E+00  2.0612424081E+00 -1.3372316533E+00
            xcart      4.4369235592E+00  1.5580734579E+00 -1.0841168782E+00
                       0.0000000000E+00  0.0000000000E+00  0.0000000000E+00
                       5.1531298075E-01  4.6742203738E+00 -1.0841168782E+00
                       2.4761182700E+00  3.1161469158E+00 -5.2092644753E+00
                       9.1475818579E-01  7.7903672896E-01  2.9634000822E+00
                       4.9891366903E+00  2.6251917370E+00 -6.3710119902E+00
                       1.2011589847E+00  5.1651755527E+00  1.5981459961E+00
                       2.7994192192E+00  3.8951836448E+00 -2.5270016010E+00
             xred      7.5000000000E-01  2.5000000000E-01  5.0000000000E-01
                       0.0000000000E+00  0.0000000000E+00  0.0000000000E+00
                       2.5000000000E-01  7.5000000000E-01  5.0000000000E-01
                       5.0000000000E-01  5.0000000000E-01 -1.3877787808E-16
                       1.7122400000E-01  1.2500000000E-01  5.4622400000E-01
                       8.7500000000E-01  4.2122400000E-01  4.6224000000E-02
                       3.7500000000E-01  8.2877600000E-01  9.5377600000E-01
                       5.7877600000E-01  6.2500000000E-01  4.5377600000E-01
            znucl        4.00000    6.00000    7.00000

- Timing analysis has been suppressed with timopt=0

 Suggested references for the acknowledgment of ABINIT usage.

 Calculation completed.
.Delivered   6 WARNINGs and   5 COMMENTs to log file.