.Version 9.5.2 of ABINIT

 ABINIT is a project of the Universite Catholique de Louvain,
 Corning Inc. and other collaborators, see ~abinit/doc/developers/contributors.txt .
 acknowledgments of the ABINIT effort.

.Starting date : Mon 24 May 2021.
- ( at 11h28 )

- input  file    -> /scratch/users/j/a/jabreu/flow_simple_10atoms/flow/w334/t1/run.abi
- output file    -> /scratch/users/j/a/jabreu/flow_simple_10atoms/flow/w334/t1/run.abo
- root for input  files -> /scratch/users/j/a/jabreu/flow_simple_10atoms/flow/w334/t1/indata/in
- root for output files -> /scratch/users/j/a/jabreu/flow_simple_10atoms/flow/w334/t1/outdata/out

 Symmetries : space group I4/m c m (#140); Bravais tI (body-center tetrag.)
     intxc =       0      iscf =       7    lmnmax =      18     lnmax =       6
     mgfft =      60  mpssoang =       3    mqgrid =    3001     natom =      10
  nloc_mem =       1    nspden =       1   nspinor =       1    nsppol =       1
      nsym =      16    n1xccc =    2501    ntypat =       3    occopt =       1
   xclevel =       2
-    mband =          37        mffmem =           1         mkmem =           2
-   mkqmem =           2        mk1mem =           2           mpw =        9711
      nfft =      216000          nkpt =           2
  Rough estimation (10% accuracy) of disk space for files :

------------- Echo of variables that govern the present computation ------------
-
- outvars: echo of selected default values
-   iomode0 =  0 , fftalg0 =512 , wfoptalg0 =  0
-
- outvars: echo of global parameters not present in the input file
-  max_nthreads =    0
-
 -outvars: echo values of preprocessed input variables --------
            acell      1.0000000000E+00  1.0000000000E+00  1.0000000000E+00 Bohr
              amu      4.00780000E+01  9.01218200E+00  1.40067400E+01
             ecut      4.40000000E+01 Hartree
-          fftalg         512
           irdden           1
           irdwfk           1
              ixc     -116133
              kpt      5.00000000E-01  5.00000000E-01 -4.59831003E-01
                       2.75862069E-01  2.75862069E-01 -2.75862069E-01
           kptopt           0
P           mkmem           2
P          mkqmem           2
P          mk1mem           2
            natom          10
            nband          37
           nbdbuf           4
            ngfft          60      60      60
             nkpt           2
            nstep        2000
             nsym          16
           ntypat           3
              occ      2.000000  2.000000  2.000000  2.000000  2.000000  2.000000
                       2.000000  2.000000  2.000000  2.000000  2.000000  2.000000
                       2.000000  2.000000  2.000000  2.000000  2.000000  2.000000
                       2.000000  2.000000  2.000000  2.000000  2.000000  2.000000
                       2.000000  2.000000  2.000000  2.000000  0.000000  0.000000
                       0.000000  0.000000  0.000000  0.000000  0.000000  0.000000
                       0.000000
        optdriver           1
            prtwf          -1
            rfdir           1       1       1
           rfelfd           2
            rprim      8.8316456606E+00  0.0000000000E+00 -4.1372286484E+00
                      -3.5704798156E+00  8.0777248630E+00 -4.1372286484E+00
                       0.0000000000E+00  0.0000000000E+00  9.7526727600E+00
          spgroup         140
           symrel      1  0  0   0  1  0   0  0  1      -1  0  0   0 -1  0   0  0 -1
                      -1 -1 -1   0  0  1   0  1  0       1  1  1   0  0 -1   0 -1  0
                       0  1  0   1  0  0  -1 -1 -1       0 -1  0  -1  0  0   1  1  1
                       0  0  1  -1 -1 -1   1  0  0       0  0 -1   1  1  1  -1  0  0
                       0  1  0   1  0  0   0  0  1       0 -1  0  -1  0  0   0  0 -1
                      -1 -1 -1   0  0  1   1  0  0       1  1  1   0  0 -1  -1  0  0
                       1  0  0   0  1  0  -1 -1 -1      -1  0  0   0 -1  0   1  1  1
                       0  0  1  -1 -1 -1   0  1  0       0  0 -1   1  1  1   0 -1  0
            tnons      0.0000000  0.0000000  0.0000000     0.0000000  0.0000000  0.0000000
                       0.5000000  0.5000000  0.0000000     0.5000000  0.5000000  0.0000000
                       0.0000000  0.0000000  0.0000000     0.0000000  0.0000000  0.0000000
                       0.5000000  0.5000000  0.0000000     0.5000000  0.5000000  0.0000000
                       0.5000000  0.5000000  0.0000000     0.5000000  0.5000000  0.0000000
                       0.0000000  0.0000000  0.0000000     0.0000000  0.0000000  0.0000000
                       0.5000000  0.5000000  0.0000000     0.5000000  0.5000000  0.0000000
                       0.0000000  0.0000000  0.0000000     0.0000000  0.0000000  0.0000000
           tolwfr      1.00000000E-20
            typat      1  1  2  2  2  2  3  3  3  3
           useylm           1
              wtk        0.50000    0.50000
           xangst      2.0880667918E+00  3.2059109211E+00 -3.2839906612E+00
                       6.9602226395E-01  1.0686369737E+00 -1.0946635537E+00
                       1.2729009994E+00  3.7368428973E+00 -7.0354458747E-01
                       3.3785805003E+00  1.5995689500E+00 -1.4511442923E+00
                       1.5111880564E+00  5.3770499741E-01  1.4857825200E+00
                      -5.9449144455E-01  2.6749789448E+00  2.2333822248E+00
                      -2.5164721260E-02  3.5490940674E+00 -1.7121814232E+00
                       1.6911641920E-01  1.4118201201E+00  1.4857825200E+00
                       2.6149726366E+00  2.8627277747E+00 -7.0354458747E-01
                       2.8092537770E+00  7.2545382732E-01  2.4944193557E+00
            xcart      3.9458743837E+00  6.0582936473E+00 -6.2058429726E+00
                       1.3152914612E+00  2.0194312158E+00 -2.0686143242E+00
                       2.4054342831E+00  7.0616096776E+00 -1.3295065926E+00
                       6.3845918635E+00  3.0227472461E+00 -2.7422652917E+00
                       2.8557315619E+00  1.0161151854E+00  2.8077220558E+00
                      -1.1234260185E+00  5.0549776169E+00  4.2204807549E+00
                      -4.7554431393E-02  6.7068158073E+00 -3.2355539797E+00
                       3.1958371686E-01  2.6679533758E+00  2.8077220558E+00
                       4.9415821281E+00  5.4097714872E+00 -1.3295065926E+00
                       5.3087202764E+00  1.3709090557E+00  4.7137694429E+00
             xred      7.5000000000E-01  7.5000000000E-01  2.0816681712E-17
                       2.5000000000E-01  2.5000000000E-01  2.0816681712E-17
                       6.2579225000E-01  8.7420775000E-01  5.0000000000E-01
                       8.7420775000E-01  3.7420775000E-01  2.4841550000E-01
                       3.7420775000E-01  1.2579225000E-01  5.0000000000E-01
                       1.2579225000E-01  6.2579225000E-01  7.5158450000E-01
                       3.3028525000E-01  8.3028525000E-01  1.6057050000E-01
                       1.6971475000E-01  3.3028525000E-01  5.0000000000E-01
                       8.3028525000E-01  6.6971475000E-01  5.0000000000E-01
                       6.6971475000E-01  1.6971475000E-01  8.3942950000E-01
            znucl       20.00000    4.00000    7.00000

 chkinp: Checking input parameters for consistency.

== DATASET  1 ==================================================================
-   mpi_nproc: 1, omp_nthreads: -1 (-1 if OMP is not activated)

--- !DatasetInfo
iteration_state: {dtset: 1, }
dimensions: {natom: 10, nkpt: 2, mband: 37, nsppol: 1, nspinor: 1, nspden: 1, mpw: 9711, }
cutoff_energies: {ecut:  44.0, pawecutdg:  -1.0, }
electrons: {nelect:   5.60000000E+01, charge:   0.00000000E+00, occopt:   1.00000000E+00, tsmear:   1.00000000E-02, }
meta: {optdriver: 1, rfelfd: 2, }
...

 Real(R)+Recip(G) space primitive vectors, cartesian coordinates (Bohr,Bohr^-1):
 R(1)=  8.8316457  0.0000000 -4.1372286  G(1)=  0.1132292  0.0500491  0.0000000
 R(2)= -3.5704798  8.0777249 -4.1372286  G(2)=  0.0000000  0.1237972  0.0000000
 R(3)=  0.0000000  0.0000000  9.7526728  G(3)=  0.0480335  0.0737482  0.1025360
 Unit cell volume ucvol=  6.9575181E+02 bohr^3
 Angles (23,13,12)=  1.15100976E+02  1.15100976E+02  9.87179383E+01 degrees

 getcut: wavevector=  0.0000  0.0000  0.0000  ngfft=  60  60  60
         ecut(hartree)=     44.000   => boxcut(ratio)=   2.06068

--- Pseudopotential description ------------------------------------------------
- pspini: atom type   1  psp file is /scratch/users/j/a/jabreu/pseudos/PBEsol/Ca.psp8
- pspatm: opening atomic psp file    /scratch/users/j/a/jabreu/pseudos/PBEsol/Ca.psp8
- Ca    ONCVPSP-3.3.0  r_core=   1.45885   1.45885   1.85192
- 20.00000  10.00000    180112                znucl, zion, pspdat
    8 -116133    2    4       400   0.00000   pspcod,pspxc,lmax,lloc,mmax,r2well
    3.99000000000000    6.00000000000000    0.00000000000000   rchrg,fchrg,qchrg
     nproj     2     2     2
     extension_switch     1
  pspatm : epsatm=   12.46045226
         --- l  ekb(1:nproj) -->
             0   10.054847    0.973777
             1    2.998958    0.458102
             2   -3.447298   -1.091650
 pspatm: atomic psp has been read  and splines computed

- pspini: atom type   2  psp file is /scratch/users/j/a/jabreu/pseudos/PBEsol/Be.psp8
- pspatm: opening atomic psp file    /scratch/users/j/a/jabreu/pseudos/PBEsol/Be.psp8
- Be    ONCVPSP-3.3.0  r_core=   1.35684   1.10780
-  4.00000   4.00000    180112                znucl, zion, pspdat
    8 -116133    1    4       400   0.00000   pspcod,pspxc,lmax,lloc,mmax,r2well
    3.99000000000000    0.00000000000000    0.00000000000000   rchrg,fchrg,qchrg
     nproj     2     2
     extension_switch     1
  pspatm : epsatm=    3.86293307
         --- l  ekb(1:nproj) -->
             0   -7.966826   -2.672546
             1   -3.431835   -0.651830
 pspatm: atomic psp has been read  and splines computed

- pspini: atom type   3  psp file is /scratch/users/j/a/jabreu/pseudos/PBEsol/N.psp8
- pspatm: opening atomic psp file    /scratch/users/j/a/jabreu/pseudos/PBEsol/N.psp8
- N     ONCVPSP-3.3.0  r_core=   1.20551   1.35824
-  7.00000   5.00000    180112                znucl, zion, pspdat
    8 -116133    1    4       600   0.00000   pspcod,pspxc,lmax,lloc,mmax,r2well
    5.99000000000000    4.00000000000000    0.00000000000000   rchrg,fchrg,qchrg
     nproj     2     2
     extension_switch     1
  pspatm : epsatm=    5.26508895
         --- l  ekb(1:nproj) -->
             0    7.464189    0.625868
             1   -4.309714   -1.012941
 pspatm: atomic psp has been read  and splines computed

   3.44024759E+03                                ecore*ucvol(ha*bohr**3)

 ==>  initialize data related to q vector <==

 The list of irreducible perturbations for this q vector is:
    1)    idir= 1    ipert=  11
    2)    idir= 2    ipert=  11
    3)    idir= 3    ipert=  11

 Perturbation wavevector (in red.coord.)   0.000000  0.000000  0.000000
 Perturbation : derivative vs k along direction   1

 dfpt_looppert : COMMENT -
  In a d/dk calculation, iscf is set to -3 automatically.
[...]
     kin0=   5.06170226E+01 eigvalue=   1.72327999E+00  local=  -2.30053480E+01
 4,5,6: 1st-order hamiltonian combined with 1st and 0th-order wfs
     kin1=  -6.97324256E+01  Hartree=   0.00000000E+00     xc=   0.00000000E+00
 7,8,9: eventually, occupation + non-local contributions
    edocc=   9.26389893E+00     enl0=  -3.47236308E+00   enl1=  -5.20555199E-01
 1-9 gives the relaxation energy (to be shifted if some occ is /=2.0)
   erelax=  -3.51264904E+01
  No Ewald or frozen-wf contrib.: the relaxation energy is the total one
 2DEtotal=   -0.3512649038E+02 Ha. Also 2DEtotal=   -0.955840413336E+03 eV
    (  non-var. 2DEtotal :   -3.5126490378E+01 Ha)

 Perturbation wavevector (in red.coord.)   0.000000  0.000000  0.000000
 Perturbation : derivative vs k along direction   2
 The set of symmetries contains only one element for this perturbation.
 symkpt : not enough symmetry to change the number of k points.

[...]

 Perturbation wavevector (in red.coord.)   0.000000  0.000000  0.000000
 Perturbation : derivative vs k along direction   3
 The set of symmetries contains only one element for this perturbation.
 symkpt : not enough symmetry to change the number of k points.

 Initialisation of the first-order wave-functions :
  ireadwf=   0

--- !BeginCycle
iteration_state: {dtset: 1, }
solver: {iscf: 7, nstep: 2000, nline: 4, wfoptalg: 0, }
tolerances: {tolwfr: 1.00E-20, }
...

     iter   2DEtotal(Ha)        deltaE(Ha) residm    vres2
-ETOT  1  -42.990693249152     -4.299E+01 1.835E-01 0.000E+00
 ETOT  2  -43.035639760773     -4.495E-02 2.126E-02 0.000E+00
 ETOT  3  -43.036009067894     -3.693E-04 6.584E-03 0.000E+00
 ETOT  4  -43.036016039989     -6.972E-06 1.276E-03 0.000E+00
 ETOT  5  -43.036016232099     -1.921E-07 4.628E-04 0.000E+00
 ETOT  6  -43.036016238312     -6.214E-09 1.143E-04 0.000E+00
 ETOT  7  -43.036016238533     -2.207E-10 3.853E-05 0.000E+00
 ETOT  8  -43.036016238541     -8.320E-12 1.870E-05 0.000E+00
 ETOT  9  -43.036016238542     -3.553E-13 3.247E-06 0.000E+00
 ETOT 10  -43.036016238542      4.974E-14 3.124E-06 0.000E+00
 ETOT 11  -43.036016238542     -7.105E-14 5.096E-07 0.000E+00
 ETOT 12  -43.036016238542      3.553E-14 5.277E-07 0.000E+00
 ETOT 13  -43.036016238542     -2.842E-14 8.630E-08 0.000E+00
 ETOT 14  -43.036016238542      0.000E+00 8.962E-08 0.000E+00
 ETOT 15  -43.036016238542      2.132E-14 1.465E-08 0.000E+00
 ETOT 16  -43.036016238542      2.132E-14 1.526E-08 0.000E+00
 ETOT 17  -43.036016238542     -1.421E-14 2.489E-09 0.000E+00
 ETOT 18  -43.036016238542      0.000E+00 2.603E-09 0.000E+00
 ETOT 19  -43.036016238542      0.000E+00 4.234E-10 0.000E+00
 ETOT 20  -43.036016238542      0.000E+00 4.444E-10 0.000E+00
 ETOT 21  -43.036016238542     -1.421E-14 7.210E-11 0.000E+00
 ETOT 22  -43.036016238542      2.132E-14 7.591E-11 0.000E+00
 ETOT 23  -43.036016238542      0.000E+00 1.229E-11 0.000E+00
 ETOT 24  -43.036016238542     -7.105E-15 1.297E-11 0.000E+00
 ETOT 25  -43.036016238542      0.000E+00 2.095E-12 0.000E+00
 ETOT 26  -43.036016238542     -1.421E-14 2.216E-12 0.000E+00
 ETOT 27  -43.036016238542      0.000E+00 3.574E-13 0.000E+00
 ETOT 28  -43.036016238542      2.132E-14 3.788E-13 0.000E+00
 ETOT 29  -43.036016238542      0.000E+00 6.100E-14 0.000E+00
 ETOT 30  -43.036016238542      0.000E+00 6.476E-14 0.000E+00
 ETOT 31  -43.036016238542      0.000E+00 1.041E-14 0.000E+00
 ETOT 32  -43.036016238542     -7.105E-15 1.107E-14 0.000E+00
 ETOT 33  -43.036016238542      1.421E-14 1.779E-15 0.000E+00
 ETOT 34  -43.036016238542      7.105E-15 1.893E-15 0.000E+00
 ETOT 35  -43.036016238542      0.000E+00 3.039E-16 0.000E+00
 ETOT 36  -43.036016238542      0.000E+00 3.236E-16 0.000E+00
 ETOT 37  -43.036016238542     -1.421E-14 5.193E-17 0.000E+00
 ETOT 38  -43.036016238542      1.421E-14 5.534E-17 0.000E+00
 ETOT 39  -43.036016238542     -4.263E-14 8.876E-18 0.000E+00
 ETOT 40  -43.036016238542      3.553E-14 9.463E-18 0.000E+00
 ETOT 41  -43.036016238542      7.105E-15 1.517E-18 0.000E+00
 ETOT 42  -43.036016238542     -2.842E-14 1.618E-18 0.000E+00
 ETOT 43  -43.036016238542      1.421E-14 2.594E-19 0.000E+00
 ETOT 44  -43.036016238542      0.000E+00 2.768E-19 0.000E+00
 ETOT 45  -43.036016238542     -1.421E-14 4.435E-20 0.000E+00
 ETOT 46  -43.036016238542      7.105E-15 4.733E-20 0.000E+00
 ETOT 47  -43.036016238542     -1.421E-14 9.803E-21 0.000E+00

 At SCF step   47   max residual=  9.80E-21 < tolwfr=  1.00E-20 =>converged.

 ----iterations are completed or convergence reached----

 dfpt_looppert: DFPT cycle converged with prtwf=-1. Will skip output of the 1st-order WFK file.
 dfpt_looppert : ek2=    8.0736514784E+01
          f-sum rule ratio=    1.0613942089E+00
 prteigrs : about to open file /scratch/users/j/a/jabreu/flow_simple_10atoms/flow/w334/t1/tmpdata/tmp_1WF1_EIG
 Expectation of eigenvalue derivatives (hartree) for nkpt=   2  k points:
  (in case of degenerate eigenvalues, averaged derivative)
 kpt#   1, nband= 37, wtk=  0.50000, kpt=  0.5000  0.5000 -0.4598 (reduced coord)
   0.00000   -0.00000   -0.00000    0.00000   -0.00019    0.00017    0.00173   -0.00077
   0.00465   -0.00326    0.00028   -0.00038    0.00179   -0.01255   -0.01169    0.00671
  -0.02937    0.02809    0.03121   -0.03116    0.01773    0.10793   -0.01371   -0.06491
  -0.05729   -0.02882    0.01052    0.00050    0.06150    0.02514   -0.05998   -0.18906
  -0.04143    0.21052   -0.08280   -0.01380    0.07677
 prteigrs : prtvol=0 or 1, do not print more k-points.

 Eight components of 2nd-order total energy (hartree) are
 1,2,3: 0th-order hamiltonian combined with 1st-order wavefunctions
     kin0=   6.58801165E+01 eigvalue=   1.59657458E+00  local=  -3.12808354E+01
 4,5,6: 1st-order hamiltonian combined with 1st and 0th-order wfs
     kin1=  -8.56932692E+01  Hartree=   0.00000000E+00     xc=   0.00000000E+00
 7,8,9: eventually, occupation + non-local contributions
    edocc=   1.19323731E+01     enl0=  -5.09221253E+00   enl1=  -3.78763242E-01
 1-9 gives the relaxation energy (to be shifted if some occ is /=2.0)
   erelax=  -4.30360162E+01
  No Ewald or frozen-wf contrib.: the relaxation energy is the total one
 2DEtotal=   -0.4303601624E+02 Ha. Also 2DEtotal=   -0.117106955767E+04 eV
    (  non-var. 2DEtotal :   -4.3036016238E+01 Ha)

 CALCULATION OF EFFECTIVE MASSES
 NOTE : Additional infos (eff. mass eigenvalues, eigenvectors and, if degenerate, average mass) are available in stdout.

 K-point ( 0.500, 0.500,-0.460) | band =    28
 Effective mass tensor:
             -6.0567848556              0.8171265944             -0.1730289138
              0.8171265944             -5.3383638178             -0.2700083590
             -0.1730289138             -0.2700083590             -4.9025475513
 Effective mass tensor eigenvalues:
             -6.5901750518             -5.1781303116             -4.5293908613
 Angular average effective mass 1/(<1/m>)=  -5.3037157281
 Angular average effective mass for Frohlich model (<m**0.5>)**2=  -5.3409578826
 Effective masses along directions: (cart. coord. / red. coord. -> eff. mass)
    1:   1.000000  0.000000  0.000000 /   0.927101 -0.374811  0.000000 ->  -5.9223111036
    2:   0.000000  1.000000  0.000000 /   0.000000  1.000000  0.000000 ->  -5.2105535951
    3:   0.000000  0.000000  1.000000 /  -0.363772 -0.363772  0.857519 ->  -4.8811444259
    4:   0.577350  0.577350  0.577350 /   0.433464  0.034166  0.900523 ->  -5.1698823876
    5:   0.000000  0.707107  0.707107 /  -0.366028  0.348623  0.862836 ->  -5.3504902164
    6:   0.707107  0.000000  0.707107 /   0.353292 -0.580067  0.733967 ->  -5.5723354753
    7:   0.707107  0.707107  0.000000 /   0.890709  0.454575  0.000000 ->  -4.8401338960

 K-point ( 0.276, 0.276,-0.276) | band =    29
 Effective mass tensor:
              0.6634234965             -0.1103669967              0.1132423576
             -0.1103669967              0.5658026486              0.1738336128
              0.1132423576              0.1738336128              0.5574914440
 Effective mass tensor eigenvalues:
              0.3158276687              0.7352889019              0.7356010184
 Angular average effective mass 1/(<1/m>)=   0.5097077284
 Angular average effective mass for Frohlich model (<m**0.5>)**2=   0.5373951168
 Effective masses along directions: (cart. coord. / red. coord. -> eff. mass)
    1:   1.000000  0.000000  0.000000 /   0.927101 -0.374811  0.000000 ->   0.5989391435
    2:   0.000000  1.000000  0.000000 /   0.000000  1.000000  0.000000 ->   0.4784613955
    3:   0.000000  0.000000  1.000000 /  -0.363772 -0.363772  0.857519 ->   0.4703504144
    4:   0.577350  0.577350  0.577350 /   0.433464  0.034166  0.900523 ->   0.6872467499
    5:   0.000000  0.707107  0.707107 /  -0.366028  0.348623  0.862836 ->   0.7354129329
    6:   0.707107  0.000000  0.707107 /   0.353292 -0.580067  0.733967 ->   0.7089905685
    7:   0.707107  0.707107  0.000000 /   0.890709  0.454575  0.000000 ->   0.4245835797

 END OF EFFECTIVE MASSES SECTION

 ---- first-order wavefunction calculations are completed ----

 Total localisation tensor (bohr^2) in cartesian coordinates
  WARNING : still subject to testing - especially symmetries.
      direction              matrix element
   alpha     beta       real part   imaginary part
     1        1       1.1682537168    0.0000000000
     1        2      -0.3713054784    0.0000000000
     1        3      -0.2802158650    0.0000000000
     2        1      -0.3713054784    0.0000000000
     2        2       0.8400281334    0.0000000000
     2        3      -0.4302434804    0.0000000000
     3        1      -0.2802158650    0.0000000000
     3        2      -0.4302434804    0.0000000000
     3        3       2.0159548329    0.0000000000

 respfn : d/dk was computed, but no 2DTE, so no DDB output.

== END DATASET(S) ==============================================================

 -outvars: echo values of variables after computation  --------
            acell      1.0000000000E+00  1.0000000000E+00  1.0000000000E+00 Bohr
              amu      4.00780000E+01  9.01218200E+00  1.40067400E+01
             ecut      4.40000000E+01 Hartree
           etotal     -4.3036016239E+01
            fcart      0.0000000000E+00  0.0000000000E+00  0.0000000000E+00
                       0.0000000000E+00  0.0000000000E+00  0.0000000000E+00
                       0.0000000000E+00  0.0000000000E+00  0.0000000000E+00
                       0.0000000000E+00  0.0000000000E+00  0.0000000000E+00
                       0.0000000000E+00  0.0000000000E+00  0.0000000000E+00
                       0.0000000000E+00  0.0000000000E+00  0.0000000000E+00
                       0.0000000000E+00  0.0000000000E+00  0.0000000000E+00
                       0.0000000000E+00  0.0000000000E+00  0.0000000000E+00
                       0.0000000000E+00  0.0000000000E+00  0.0000000000E+00
                       0.0000000000E+00  0.0000000000E+00  0.0000000000E+00
-          fftalg         512
           irdden           1
           irdwfk           1
              ixc     -116133
              kpt      5.00000000E-01  5.00000000E-01 -4.59831003E-01
                       2.75862069E-01  2.75862069E-01 -2.75862069E-01
           kptopt           0
P           mkmem           2
P          mkqmem           2
P          mk1mem           2
            natom          10
            nband          37
           nbdbuf           4
            ngfft          60      60      60
             nkpt           2
            nstep        2000
             nsym          16
           ntypat           3
              occ      2.000000  2.000000  2.000000  2.000000  2.000000  2.000000
                       2.000000  2.000000  2.000000  2.000000  2.000000  2.000000
                       2.000000  2.000000  2.000000  2.000000  2.000000  2.000000
                       2.000000  2.000000  2.000000  2.000000  2.000000  2.000000
                       2.000000  2.000000  2.000000  2.000000  0.000000  0.000000
                       0.000000  0.000000  0.000000  0.000000  0.000000  0.000000
                       0.000000
        optdriver           1
            prtwf          -1
            rfdir           1       1       1
           rfelfd           2
            rprim      8.8316456606E+00  0.0000000000E+00 -4.1372286484E+00
                      -3.5704798156E+00  8.0777248630E+00 -4.1372286484E+00
                       0.0000000000E+00  0.0000000000E+00  9.7526727600E+00
          spgroup         140
           strten      0.0000000000E+00  0.0000000000E+00  0.0000000000E+00
                       0.0000000000E+00  0.0000000000E+00  0.0000000000E+00
           symrel      1  0  0   0  1  0   0  0  1      -1  0  0   0 -1  0   0  0 -1
                      -1 -1 -1   0  0  1   0  1  0       1  1  1   0  0 -1   0 -1  0
                       0  1  0   1  0  0  -1 -1 -1       0 -1  0  -1  0  0   1  1  1
                       0  0  1  -1 -1 -1   1  0  0       0  0 -1   1  1  1  -1  0  0
                       0  1  0   1  0  0   0  0  1       0 -1  0  -1  0  0   0  0 -1
                      -1 -1 -1   0  0  1   1  0  0       1  1  1   0  0 -1  -1  0  0
                       1  0  0   0  1  0  -1 -1 -1      -1  0  0   0 -1  0   1  1  1
                       0  0  1  -1 -1 -1   0  1  0       0  0 -1   1  1  1   0 -1  0
            tnons      0.0000000  0.0000000  0.0000000     0.0000000  0.0000000  0.0000000
                       0.5000000  0.5000000  0.0000000     0.5000000  0.5000000  0.0000000
                       0.0000000  0.0000000  0.0000000     0.0000000  0.0000000  0.0000000
                       0.5000000  0.5000000  0.0000000     0.5000000  0.5000000  0.0000000
                       0.5000000  0.5000000  0.0000000     0.5000000  0.5000000  0.0000000
                       0.0000000  0.0000000  0.0000000     0.0000000  0.0000000  0.0000000
                       0.5000000  0.5000000  0.0000000     0.5000000  0.5000000  0.0000000
                       0.0000000  0.0000000  0.0000000     0.0000000  0.0000000  0.0000000
           tolwfr      1.00000000E-20
            typat      1  1  2  2  2  2  3  3  3  3
           useylm           1
              wtk        0.50000    0.50000
           xangst      2.0880667918E+00  3.2059109211E+00 -3.2839906612E+00
                       6.9602226395E-01  1.0686369737E+00 -1.0946635537E+00
                       1.2729009994E+00  3.7368428973E+00 -7.0354458747E-01
                       3.3785805003E+00  1.5995689500E+00 -1.4511442923E+00
                       1.5111880564E+00  5.3770499741E-01  1.4857825200E+00
                      -5.9449144455E-01  2.6749789448E+00  2.2333822248E+00
                      -2.5164721260E-02  3.5490940674E+00 -1.7121814232E+00
                       1.6911641920E-01  1.4118201201E+00  1.4857825200E+00
                       2.6149726366E+00  2.8627277747E+00 -7.0354458747E-01
                       2.8092537770E+00  7.2545382732E-01  2.4944193557E+00
            xcart      3.9458743837E+00  6.0582936473E+00 -6.2058429726E+00
                       1.3152914612E+00  2.0194312158E+00 -2.0686143242E+00
                       2.4054342831E+00  7.0616096776E+00 -1.3295065926E+00
                       6.3845918635E+00  3.0227472461E+00 -2.7422652917E+00
                       2.8557315619E+00  1.0161151854E+00  2.8077220558E+00
                      -1.1234260185E+00  5.0549776169E+00  4.2204807549E+00
                      -4.7554431393E-02  6.7068158073E+00 -3.2355539797E+00
                       3.1958371686E-01  2.6679533758E+00  2.8077220558E+00
                       4.9415821281E+00  5.4097714872E+00 -1.3295065926E+00
                       5.3087202764E+00  1.3709090557E+00  4.7137694429E+00
             xred      7.5000000000E-01  7.5000000000E-01  2.0816681712E-17
                       2.5000000000E-01  2.5000000000E-01  2.0816681712E-17
                       6.2579225000E-01  8.7420775000E-01  5.0000000000E-01
                       8.7420775000E-01  3.7420775000E-01  2.4841550000E-01
                       3.7420775000E-01  1.2579225000E-01  5.0000000000E-01
                       1.2579225000E-01  6.2579225000E-01  7.5158450000E-01
                       3.3028525000E-01  8.3028525000E-01  1.6057050000E-01
                       1.6971475000E-01  3.3028525000E-01  5.0000000000E-01
                       8.3028525000E-01  6.6971475000E-01  5.0000000000E-01
                       6.6971475000E-01  1.6971475000E-01  8.3942950000E-01
            znucl       20.00000    4.00000    7.00000

- Timing analysis has been suppressed with timopt=0

 Suggested references for the acknowledgment of ABINIT usage.

 Calculation completed.
.Delivered   2 WARNINGs and   5 COMMENTs to log file.