.Version 9.5.1 of ABINIT

 ABINIT is a project of the Universite Catholique de Louvain,
 Corning Inc. and other collaborators, see ~abinit/doc/developers/contributors.txt .
 acknowledgments of the ABINIT effort.

.Starting date : Sun 25 Apr 2021.
- ( at 17h13 )

- input  file    -> /scratch/users/j/a/jabreu/flow_simple2/flow/w141/t1/run.abi
- output file    -> /scratch/users/j/a/jabreu/flow_simple2/flow/w141/t1/run.abo
- root for input  files -> /scratch/users/j/a/jabreu/flow_simple2/flow/w141/t1/indata/in
- root for output files -> /scratch/users/j/a/jabreu/flow_simple2/flow/w141/t1/outdata/out

 Symmetries : space group F-4 3 m (#216); Bravais cF (face-center cubic)
     intxc =       0      iscf =       7    lmnmax =      18     lnmax =       6
     mgfft =      40  mpssoang =       3    mqgrid =    3001     natom =       2
  nloc_mem =       1    nspden =       1   nspinor =       1    nsppol =       1
      nsym =      24    n1xccc =    2501    ntypat =       2    occopt =       1
   xclevel =       2
-    mband =          17        mffmem =           1         mkmem =           1
-   mkqmem =           1        mk1mem =           1           mpw =        2488
      nfft =       64000          nkpt =           1
  Rough estimation (10% accuracy) of disk space for files :

------------- Echo of variables that govern the present computation ------------
-
- outvars: echo of selected default values
-   iomode0 =  0 , fftalg0 =512 , wfoptalg0 =  0
-
- outvars: echo of global parameters not present in the input file
-  max_nthreads =    0
-
 -outvars: echo values of preprocessed input variables --------
            acell      1.0000000000E+00  1.0000000000E+00  1.0000000000E+00 Bohr
              amu      4.49559100E+01  1.40067400E+01
             ecut      4.20000000E+01 Hartree
-          fftalg         512
           irdden           1
           irdwfk           1
              ixc     -116133
              kpt      5.00000000E-01  2.50000000E-01  7.50000000E-01
           kptopt           0
P           mkmem           1
P          mkqmem           1
P          mk1mem           1
            natom           2
            nband          17
           nbdbuf           4
            ngfft          40      40      40
             nkpt           1
            nstep         100
             nsym          24
           ntypat           2
              occ      2.000000  2.000000  2.000000  2.000000  2.000000  2.000000
                       2.000000  2.000000  0.000000  0.000000  0.000000  0.000000
                       0.000000  0.000000  0.000000  0.000000  0.000000
        optdriver           1
            prtwf          -1
            rfdir           1       1       1
           rfelfd           2
            rprim      5.6014314291E+00  0.0000000000E+00  3.2339879434E+00
                       1.8671438097E+00  5.2810801971E+00  3.2339879434E+00
                       0.0000000000E+00  0.0000000000E+00  6.4679758869E+00
          spgroup         216
           symrel      1  0  0   0  1  0   0  0  1       0 -1  1   0 -1  0   1 -1  0
                      -1  0  0  -1  0  1  -1  1  0       0  1 -1   1  0 -1   0  0 -1
                      -1  0  0  -1  1  0  -1  0  1       0 -1  1   1 -1  0   0 -1  0
                       1  0  0   0  0  1   0  1  0       0  1 -1   0  0 -1   1  0 -1
                      -1  0  1  -1  1  0  -1  0  0       0 -1  0   1 -1  0   0 -1  1
                       1  0 -1   0  0 -1   0  1 -1       0  1  0   0  0  1   1  0  0
                       1  0 -1   0  1 -1   0  0 -1       0 -1  0   0 -1  1   1 -1  0
                      -1  0  1  -1  0  0  -1  1  0       0  1  0   1  0  0   0  0  1
                       0  0 -1   0  1 -1   1  0 -1       1 -1  0   0 -1  1   0 -1  0
                       0  0  1   1  0  0   0  1  0      -1  1  0  -1  0  0  -1  0  1
                       0  0  1   0  1  0   1  0  0       1 -1  0   0 -1  0   0 -1  1
                       0  0 -1   1  0 -1   0  1 -1      -1  1  0  -1  0  1  -1  0  0
           tolwfr      1.00000000E-20
            typat      1  2
           useylm           1
           xangst      0.0000000000E+00  0.0000000000E+00  0.0000000000E+00
                       2.9641498478E+00  2.0959704578E+00  5.1340581375E+00
            xcart      0.0000000000E+00  0.0000000000E+00  0.0000000000E+00
                       5.6014314291E+00  3.9608101478E+00  9.7019638303E+00
             xred      0.0000000000E+00  0.0000000000E+00  0.0000000000E+00
                       7.5000000000E-01  7.5000000000E-01  7.5000000000E-01
            znucl       21.00000    7.00000

 chkinp: Checking input parameters for consistency.

== DATASET  1 ==================================================================
-   mpi_nproc: 1, omp_nthreads: -1 (-1 if OMP is not activated)

--- !DatasetInfo
iteration_state: {dtset: 1, }
dimensions: {natom: 2, nkpt: 1, mband: 17, nsppol: 1, nspinor: 1, nspden: 1, mpw: 2488, }
cutoff_energies: {ecut:  42.0, pawecutdg:  -1.0, }
electrons: {nelect:   1.60000000E+01, charge:   0.00000000E+00, occopt:   1.00000000E+00, tsmear:   1.00000000E-02, }
meta: {optdriver: 1, rfelfd: 2, }
...

 Real(R)+Recip(G) space primitive vectors, cartesian coordinates (Bohr,Bohr^-1):
 R(1)=  5.6014314  0.0000000  3.2339879  G(1)=  0.1785258 -0.0631184  0.0000000
 R(2)=  1.8671438  5.2810802  3.2339879  G(2)=  0.0000000  0.1893552  0.0000000
 R(3)=  0.0000000  0.0000000  6.4679759  G(3)= -0.0892629 -0.0631184  0.1546079
 Unit cell volume ucvol=  1.9133313E+02 bohr^3
 Angles (23,13,12)=  6.00000000E+01  6.00000000E+01  6.00000000E+01 degrees

 getcut: wavevector=  0.0000  0.0000  0.0000  ngfft=  40  40  40
         ecut(hartree)=     42.000   => boxcut(ratio)=   2.11983

--- Pseudopotential description ------------------------------------------------
- pspini: atom type   1  psp file is /scratch/users/j/a/jabreu/pseudos/PBEsol/Sc.psp8
- pspatm: opening atomic psp file    /scratch/users/j/a/jabreu/pseudos/PBEsol/Sc.psp8
- Sc    ONCVPSP-3.3.0  r_core=   1.35663   1.35663   1.66161
- 21.00000  11.00000    180112                znucl, zion, pspdat
    8 -116133    2    4       600   0.00000   pspcod,pspxc,lmax,lloc,mmax,r2well
    5.99000000000000    5.00000000000000    0.00000000000000   rchrg,fchrg,qchrg
     nproj     2     2     2
     extension_switch     1
  pspatm : epsatm=   13.58981094
         --- l  ekb(1:nproj) -->
             0   10.810997    0.948773
             1    2.871172    0.364831
             2   -4.789751   -1.321945
 pspatm: atomic psp has been read  and splines computed

- pspini: atom type   2  psp file is /scratch/users/j/a/jabreu/pseudos/PBEsol/N.psp8
- pspatm: opening atomic psp file    /scratch/users/j/a/jabreu/pseudos/PBEsol/N.psp8
- N     ONCVPSP-3.3.0  r_core=   1.20551   1.35824
-  7.00000   5.00000    180112                znucl, zion, pspdat
    8 -116133    1    4       600   0.00000   pspcod,pspxc,lmax,lloc,mmax,r2well
    5.99000000000000    4.00000000000000    0.00000000000000   rchrg,fchrg,qchrg
     nproj     2     2
     extension_switch     1
  pspatm : epsatm=    5.26508895
         --- l  ekb(1:nproj) -->
             0    7.464189    0.625868
             1   -4.309714   -1.012941
 pspatm: atomic psp has been read  and splines computed

   3.01678398E+02                                ecore*ucvol(ha*bohr**3)

-inwffil : will read wavefunctions from disk file /scratch/users/j/a/jabreu/flow_simple2/flow/w141/t1/indata/in_WFK

 ==>  initialize data related to q vector <==

 The list of irreducible perturbations for this q vector is:
    1)    idir= 1    ipert=   3
    2)    idir= 2    ipert=   3
    3)    idir= 3    ipert=   3

 Perturbation wavevector (in red.coord.)   0.000000  0.000000  0.000000
 Perturbation : derivative vs k along direction   1

 dfpt_looppert : COMMENT -
  In a d/dk calculation, iscf is set to -3 automatically.
 The set of symmetries contains only one element for this perturbation.
 symkpt : not enough symmetry to change the number of k points.

[...]

 Initialisation of the first-order wave-functions :
  ireadwf=   0

--- !BeginCycle
iteration_state: {dtset: 1, }
solver: {iscf: 7, nstep: 100, nline: 4, wfoptalg: 0, }
tolerances: {tolwfr: 1.00E-20, }
...

     iter   2DEtotal(Ha)        deltaE(Ha) residm    vres2
-ETOT  1  -23.513580386249     -2.351E+01 4.659E-02 0.000E+00
 ETOT  2  -23.519694528544     -6.114E-03 3.852E-04 0.000E+00
 ETOT  3  -23.519695329578     -8.010E-07 1.670E-06 0.000E+00
 ETOT  4  -23.519695330145     -5.663E-10 1.350E-08 0.000E+00
 ETOT  5  -23.519695330146     -7.958E-13 8.750E-11 0.000E+00
 ETOT  6  -23.519695330146     -1.776E-14 8.066E-13 0.000E+00
 ETOT  7  -23.519695330146      1.066E-14 5.194E-15 0.000E+00
 ETOT  8  -23.519695330146     -1.066E-14 4.921E-17 0.000E+00
 ETOT  9  -23.519695330146      0.000E+00 3.199E-19 0.000E+00
 ETOT 10  -23.519695330146      1.066E-14 7.752E-21 0.000E+00

 At SCF step   10   max residual=  7.75E-21 < tolwfr=  1.00E-20 =>converged.

 ----iterations are completed or convergence reached----

 dfpt_looppert: DFPT cycle converged with prtwf=-1. Will skip output of the 1st-order WFK file.
 dfpt_looppert : ek2=    4.5296452422E+01
          f-sum rule ratio=    1.1184149978E+00
 prteigrs : about to open file /scratch/users/j/a/jabreu/flow_simple2/flow/w141/t1/tmpdata/tmp_1WF1_EIG
 Expectation of eigenvalue derivatives (hartree) for nkpt=   1  k points:
  (in case of degenerate eigenvalues, averaged derivative)
 kpt#   1, nband= 17, wtk=  1.00000, kpt=  0.5000  0.2500  0.7500 (reduced coord)
   0.00000   -0.00000    0.00000    0.00000    0.00000   -0.00000    0.00000   -0.00000
  -0.00000    0.00000   -0.00000    0.00000   -0.00000   -0.00000   -0.00000    0.00000
  -0.00000

 Eight components of 2nd-order total energy (hartree) are
 1,2,3: 0th-order hamiltonian combined with 1st-order wavefunctions
     kin0=   1.40488230E+01 eigvalue=  -1.06015856E-01  local=  -5.46998877E+00
 4,5,6: 1st-order hamiltonian combined with 1st and 0th-order wfs
     kin1=  -5.06602317E+01  Hartree=   0.00000000E+00     xc=   0.00000000E+00
 7,8,9: eventually, occupation + non-local contributions
    edocc=   1.54850798E+01     enl0=  -4.38202855E-01   enl1=   3.62084108E+00
 1-9 gives the relaxation energy (to be shifted if some occ is /=2.0)
   erelax=  -2.35196953E+01
  No Ewald or frozen-wf contrib.: the relaxation energy is the total one
 2DEtotal=   -0.2351969533E+02 Ha. Also 2DEtotal=   -0.640003457899E+03 eV
    (  non-var. 2DEtotal :   -2.3519695330E+01 Ha)

 Perturbation wavevector (in red.coord.)   0.000000  0.000000  0.000000
 Perturbation : derivative vs k along direction   2
 The set of symmetries contains only one element for this perturbation.
 symkpt : not enough symmetry to change the number of k points.

[...]

 Perturbation wavevector (in red.coord.)   0.000000  0.000000  0.000000
 Perturbation : derivative vs k along direction   3
 The set of symmetries contains only one element for this perturbation.
 symkpt : not enough symmetry to change the number of k points.

-inwffil : will read wavefunctions from disk file /scratch/users/j/a/jabreu/flow_simple2/flow/w141/t1/indata/in_WFK

 Initialisation of the first-order wave-functions :
  ireadwf=   0

--- !BeginCycle
iteration_state: {dtset: 1, }
solver: {iscf: 7, nstep: 100, nline: 4, wfoptalg: 0, }
tolerances: {tolwfr: 1.00E-20, }
...

     iter   2DEtotal(Ha)        deltaE(Ha) residm    vres2
-ETOT  1  -23.513580385523     -2.351E+01 4.659E-02 0.000E+00
 ETOT  2  -23.519694527818     -6.114E-03 3.852E-04 0.000E+00
 ETOT  3  -23.519695328852     -8.010E-07 1.670E-06 0.000E+00
 ETOT  4  -23.519695329419     -5.663E-10 1.350E-08 0.000E+00
 ETOT  5  -23.519695329419     -7.958E-13 8.750E-11 0.000E+00
 ETOT  6  -23.519695329419     -1.421E-14 8.066E-13 0.000E+00
 ETOT  7  -23.519695329419      3.553E-15 5.194E-15 0.000E+00
 ETOT  8  -23.519695329419     -3.553E-15 4.921E-17 0.000E+00
 ETOT  9  -23.519695329419      3.553E-15 3.199E-19 0.000E+00
 ETOT 10  -23.519695329419     -3.553E-15 7.752E-21 0.000E+00

 At SCF step   10   max residual=  7.75E-21 < tolwfr=  1.00E-20 =>converged.

 ----iterations are completed or convergence reached----

 dfpt_looppert: DFPT cycle converged with prtwf=-1. Will skip output of the 1st-order WFK file.
 dfpt_looppert : ek2=    4.5296452421E+01
          f-sum rule ratio=    1.1184149978E+00
 prteigrs : about to open file /scratch/users/j/a/jabreu/flow_simple2/flow/w141/t1/tmpdata/tmp_1WF1_EIG
 Expectation of eigenvalue derivatives (hartree) for nkpt=   1  k points:
  (in case of degenerate eigenvalues, averaged derivative)
 kpt#   1, nband= 17, wtk=  1.00000, kpt=  0.5000  0.2500  0.7500 (reduced coord)
  -0.00000    0.00000   -0.00000   -0.00000    0.00000    0.00000   -0.00000   -0.00000
   0.00000   -0.00000   -0.00000    0.00000   -0.00000    0.00000    0.00000    0.00000
  -0.00000

 Eight components of 2nd-order total energy (hartree) are
 1,2,3: 0th-order hamiltonian combined with 1st-order wavefunctions
     kin0=   1.40488230E+01 eigvalue=  -1.06015856E-01  local=  -5.46998877E+00
 4,5,6: 1st-order hamiltonian combined with 1st and 0th-order wfs
     kin1=  -5.06602317E+01  Hartree=   0.00000000E+00     xc=   0.00000000E+00
 7,8,9: eventually, occupation + non-local contributions
    edocc=   1.54850798E+01     enl0=  -4.38202855E-01   enl1=   3.62084108E+00
 1-9 gives the relaxation energy (to be shifted if some occ is /=2.0)
   erelax=  -2.35196953E+01
  No Ewald or frozen-wf contrib.: the relaxation energy is the total one
 2DEtotal=   -0.2351969533E+02 Ha. Also 2DEtotal=   -0.640003457879E+03 eV
    (  non-var. 2DEtotal :   -2.3519695329E+01 Ha)

 CALCULATION OF EFFECTIVE MASSES
 NOTE : Additional infos (eff. mass eigenvalues, eigenvectors and, if degenerate, average mass) are available in stdout.

 K-point ( 0.500, 0.250, 0.750) | band =     8
 Effective mass tensor:
            -61.2096905811             85.0101830988            104.1157857642
             85.0101830988           -121.3209674946           -147.2419562642
            104.1157857642           -147.2419562642           -181.4322444179
 Effective mass tensor eigenvalues:
           -361.7660752267             -1.0984136335             -1.0984136333
 Angular average effective mass 1/(<1/m>)=  -1.6451229447
 Angular average effective mass for Frohlich model (<m**0.5>)**2=  -2.5310089204
 Effective masses along directions: (cart. coord. / red. coord. -> eff. mass)
    1:   1.000000  0.000000  0.000000 /   0.948683  0.316228  0.000000 ->  -1.3172964310
    2:   0.000000  1.000000  0.000000 /   0.000000  1.000000  0.000000 ->  -1.6451229446
    3:   0.000000  0.000000  1.000000 /   0.408248  0.408248  0.816497 ->  -2.1901773323
    4:   0.577350  0.577350  0.577350 /   0.585539  0.688047  0.428644 ->  -1.4746517167
    5:   0.000000  0.707107  0.707107 /   0.289489  0.762222  0.578977 ->  -6.1851203640
    6:   0.707107  0.000000  0.707107 /   0.731423  0.422287  0.535439 ->  -1.1495966721
    7:   0.707107  0.707107  0.000000 /   0.616798  0.787122  0.000000 ->  -1.1142971911

 K-point ( 0.500, 0.250, 0.750) | band =     9
 Effective mass tensor:
              2.3523001165             -2.5469550342             -3.1193701157
             -2.5469550342              4.1532692923              4.4114555235
             -3.1193701157              4.4114555235              5.9542384679
 Effective mass tensor eigenvalues:
              0.5513309403              0.5513309404             11.3571459960
 Angular average effective mass 1/(<1/m>)=   0.8073988820
 Angular average effective mass for Frohlich model (<m**0.5>)**2=   1.0539477850
 Effective masses along directions: (cart. coord. / red. coord. -> eff. mass)
    1:   1.000000  0.000000  0.000000 /   0.948683  0.316228  0.000000 ->   0.6552354670
    2:   0.000000  1.000000  0.000000 /   0.000000  1.000000  0.000000 ->   0.8073988821
    3:   0.000000  0.000000  1.000000 /   0.408248  0.408248  0.816497 ->   1.0516115562
    4:   0.577350  0.577350  0.577350 /   0.585539  0.688047  0.428644 ->   0.7287826960
    5:   0.000000  0.707107  0.707107 /   0.289489  0.762222  0.578977 ->   2.5627754217
    6:   0.707107  0.000000  0.707107 /   0.731423  0.422287  0.535439 ->   0.5757966994
    7:   0.707107  0.707107  0.000000 /   0.616798  0.787122  0.000000 ->   0.5589344940

 END OF EFFECTIVE MASSES SECTION

 ---- first-order wavefunction calculations are completed ----

 Total localisation tensor (bohr^2) in cartesian coordinates
  WARNING : still subject to testing - especially symmetries.
      direction              matrix element
   alpha     beta       real part   imaginary part
     1        1       1.5610774411    0.0000000000
     1        2       0.4415393779    0.0000000000
     1        3       1.0815461770    0.0000000000
     2        1       0.4415393779    0.0000000000
     2        2       1.2488619529    0.0000000000
     2        3       0.7647686360    0.0000000000
     3        1       1.0815461770    0.0000000000
     3        2       0.7647686360    0.0000000000
     3        3       2.8099393939    0.0000000000

 respfn : d/dk was computed, but no 2DTE, so no DDB output.

== END DATASET(S) ==============================================================

 -outvars: echo values of variables after computation  --------
            acell      1.0000000000E+00  1.0000000000E+00  1.0000000000E+00 Bohr
              amu      4.49559100E+01  1.40067400E+01
             ecut      4.20000000E+01 Hartree
           etotal     -2.3519695329E+01
            fcart      0.0000000000E+00  0.0000000000E+00  0.0000000000E+00
                       0.0000000000E+00  0.0000000000E+00  0.0000000000E+00
-          fftalg         512
           irdden           1
           irdwfk           1
              ixc     -116133
              kpt      5.00000000E-01  2.50000000E-01  7.50000000E-01
           kptopt           0
P           mkmem           1
P          mkqmem           1
P          mk1mem           1
            natom           2
            nband          17
           nbdbuf           4
            ngfft          40      40      40
             nkpt           1
            nstep         100
             nsym          24
           ntypat           2
              occ      2.000000  2.000000  2.000000  2.000000  2.000000  2.000000
                       2.000000  2.000000  0.000000  0.000000  0.000000  0.000000
                       0.000000  0.000000  0.000000  0.000000  0.000000
        optdriver           1
            prtwf          -1
            rfdir           1       1       1
           rfelfd           2
            rprim      5.6014314291E+00  0.0000000000E+00  3.2339879434E+00
                       1.8671438097E+00  5.2810801971E+00  3.2339879434E+00
                       0.0000000000E+00  0.0000000000E+00  6.4679758869E+00
          spgroup         216
           strten      0.0000000000E+00  0.0000000000E+00  0.0000000000E+00
                       0.0000000000E+00  0.0000000000E+00  0.0000000000E+00
           symrel      1  0  0   0  1  0   0  0  1       0 -1  1   0 -1  0   1 -1  0
                      -1  0  0  -1  0  1  -1  1  0       0  1 -1   1  0 -1   0  0 -1
                      -1  0  0  -1  1  0  -1  0  1       0 -1  1   1 -1  0   0 -1  0
                       1  0  0   0  0  1   0  1  0       0  1 -1   0  0 -1   1  0 -1
                      -1  0  1  -1  1  0  -1  0  0       0 -1  0   1 -1  0   0 -1  1
                       1  0 -1   0  0 -1   0  1 -1       0  1  0   0  0  1   1  0  0
                       1  0 -1   0  1 -1   0  0 -1       0 -1  0   0 -1  1   1 -1  0
                      -1  0  1  -1  0  0  -1  1  0       0  1  0   1  0  0   0  0  1
                       0  0 -1   0  1 -1   1  0 -1       1 -1  0   0 -1  1   0 -1  0
                       0  0  1   1  0  0   0  1  0      -1  1  0  -1  0  0  -1  0  1
                       0  0  1   0  1  0   1  0  0       1 -1  0   0 -1  0   0 -1  1
                       0  0 -1   1  0 -1   0  1 -1      -1  1  0  -1  0  1  -1  0  0
           tolwfr      1.00000000E-20
            typat      1  2
           useylm           1
           xangst      0.0000000000E+00  0.0000000000E+00  0.0000000000E+00
                       2.9641498478E+00  2.0959704578E+00  5.1340581375E+00
            xcart      0.0000000000E+00  0.0000000000E+00  0.0000000000E+00
                       5.6014314291E+00  3.9608101478E+00  9.7019638303E+00
             xred      0.0000000000E+00  0.0000000000E+00  0.0000000000E+00
                       7.5000000000E-01  7.5000000000E-01  7.5000000000E-01
            znucl       21.00000    7.00000

- Timing analysis has been suppressed with timopt=0

 Suggested references for the acknowledgment of ABINIT usage.

 Calculation completed.
.Delivered   6 WARNINGs and   5 COMMENTs to log file.