.Version 9.5.1 of ABINIT

 ABINIT is a project of the Universite Catholique de Louvain,
 Corning Inc. and other collaborators, see ~abinit/doc/developers/contributors.txt .
 acknowledgments of the ABINIT effort.

.Starting date : Sun 25 Apr 2021.
- ( at 17h18 )

- input  file    -> /scratch/users/j/a/jabreu/flow_simple2/flow/w186/t1/run.abi
- output file    -> /scratch/users/j/a/jabreu/flow_simple2/flow/w186/t1/run.abo
- root for input  files -> /scratch/users/j/a/jabreu/flow_simple2/flow/w186/t1/indata/in
- root for output files -> /scratch/users/j/a/jabreu/flow_simple2/flow/w186/t1/outdata/out

 Symmetries : space group Fm -3 m (#225); Bravais cF (face-center cubic)
     intxc =       0      iscf =       7    lmnmax =      18     lnmax =       6
     mgfft =      48  mpssoang =       3    mqgrid =    3001     natom =       2
  nloc_mem =       1    nspden =       1   nspinor =       1    nsppol =       1
      nsym =      48    n1xccc =    2501    ntypat =       2    occopt =       1
   xclevel =       2
-    mband =          22        mffmem =           1         mkmem =           2
-   mkqmem =           2        mk1mem =           2           mpw =        5104
      nfft =      110592          nkpt =           2
  Rough estimation (10% accuracy) of disk space for files :

------------- Echo of variables that govern the present computation ------------
-
- outvars: echo of selected default values
-   iomode0 =  0 , fftalg0 =512 , wfoptalg0 =  0
-
- outvars: echo of global parameters not present in the input file
-  max_nthreads =    0
-
 -outvars: echo values of preprocessed input variables --------
            acell      1.0000000000E+00  1.0000000000E+00  1.0000000000E+00 Bohr
              amu      4.00780000E+01  1.27600000E+02
             ecut      4.00000000E+01 Hartree
-          fftalg         512
           irdden           1
           irdwfk           1
           istwfk        1    1
              ixc     -116133
              kpt      0.00000000E+00  0.00000000E+00  0.00000000E+00
                       5.00000000E-01  4.93038066E-32  5.00000000E-01
           kptopt           0
P           mkmem           2
P          mkqmem           2
P          mk1mem           2
            natom           2
            nband          22
           nbdbuf           4
            ngfft          48      48      48
             nkpt           2
            nstep         100
             nsym          48
           ntypat           2
              occ      2.000000  2.000000  2.000000  2.000000  2.000000  2.000000
                       2.000000  2.000000  2.000000  2.000000  2.000000  2.000000
                       2.000000  0.000000  0.000000  0.000000  0.000000  0.000000
                       0.000000  0.000000  0.000000  0.000000
        optdriver           1
            prtwf          -1
            rfdir           1       1       1
           rfelfd           2
            rprim      7.2803793178E+00  0.0000000000E+00  4.2033289589E+00
                       2.4267931059E+00  6.8640074470E+00  4.2033289589E+00
                       0.0000000000E+00  0.0000000000E+00  8.4066579179E+00
          spgroup         225
           symrel      1  0  0   0  1  0   0  0  1      -1  0  0   0 -1  0   0  0 -1
                       0 -1  1   0 -1  0   1 -1  0       0  1 -1   0  1  0  -1  1  0
                      -1  0  0  -1  0  1  -1  1  0       1  0  0   1  0 -1   1 -1  0
                       0  1 -1   1  0 -1   0  0 -1       0 -1  1  -1  0  1   0  0  1
                      -1  0  0  -1  1  0  -1  0  1       1  0  0   1 -1  0   1  0 -1
                       0 -1  1   1 -1  0   0 -1  0       0  1 -1  -1  1  0   0  1  0
                       1  0  0   0  0  1   0  1  0      -1  0  0   0  0 -1   0 -1  0
                       0  1 -1   0  0 -1   1  0 -1       0 -1  1   0  0  1  -1  0  1
                      -1  0  1  -1  1  0  -1  0  0       1  0 -1   1 -1  0   1  0  0
                       0 -1  0   1 -1  0   0 -1  1       0  1  0  -1  1  0   0  1 -1
                       1  0 -1   0  0 -1   0  1 -1      -1  0  1   0  0  1   0 -1  1
                       0  1  0   0  0  1   1  0  0       0 -1  0   0  0 -1  -1  0  0
                       1  0 -1   0  1 -1   0  0 -1      -1  0  1   0 -1  1   0  0  1
                       0 -1  0   0 -1  1   1 -1  0       0  1  0   0  1 -1  -1  1  0
                      -1  0  1  -1  0  0  -1  1  0       1  0 -1   1  0  0   1 -1  0
                       0  1  0   1  0  0   0  0  1       0 -1  0  -1  0  0   0  0 -1
                       0  0 -1   0  1 -1   1  0 -1       0  0  1   0 -1  1  -1  0  1
                       1 -1  0   0 -1  1   0 -1  0      -1  1  0   0  1 -1   0  1  0
                       0  0  1   1  0  0   0  1  0       0  0 -1  -1  0  0   0 -1  0
                      -1  1  0  -1  0  0  -1  0  1       1 -1  0   1  0  0   1  0 -1
                       0  0  1   0  1  0   1  0  0       0  0 -1   0 -1  0  -1  0  0
                       1 -1  0   0 -1  0   0 -1  1      -1  1  0   0  1  0   0  1 -1
                       0  0 -1   1  0 -1   0  1 -1       0  0  1  -1  0  1   0 -1  1
                      -1  1  0  -1  0  1  -1  0  0       1 -1  0   1  0 -1   1  0  0
           tolwfr      1.00000000E-20
            typat      1  2
           useylm           1
              wtk        0.50000    0.50000
           xangst      0.0000000000E+00  0.0000000000E+00  0.0000000000E+00
                       2.5684072032E+00  1.8161381503E+00  4.4486117705E+00
            xcart      0.0000000000E+00  0.0000000000E+00  0.0000000000E+00
                       4.8535862118E+00  3.4320037235E+00  8.4066579179E+00
             xred      0.0000000000E+00  0.0000000000E+00  0.0000000000E+00
                       5.0000000000E-01  5.0000000000E-01  5.0000000000E-01
            znucl       20.00000   52.00000

 chkinp: Checking input parameters for consistency.

== DATASET  1 ==================================================================
-   mpi_nproc: 1, omp_nthreads: -1 (-1 if OMP is not activated)

--- !DatasetInfo
iteration_state: {dtset: 1, }
dimensions: {natom: 2, nkpt: 2, mband: 22, nsppol: 1, nspinor: 1, nspden: 1, mpw: 5104, }
cutoff_energies: {ecut:  40.0, pawecutdg:  -1.0, }
electrons: {nelect:   2.60000000E+01, charge:   0.00000000E+00, occopt:   1.00000000E+00, tsmear:   1.00000000E-02, }
meta: {optdriver: 1, rfelfd: 2, }
...

 Real(R)+Recip(G) space primitive vectors, cartesian coordinates (Bohr,Bohr^-1):
 R(1)=  7.2803793  0.0000000  4.2033290  G(1)=  0.1373555 -0.0485625  0.0000000
 R(2)=  2.4267931  6.8640074  4.2033290  G(2)=  0.0000000  0.1456875  0.0000000
 R(3)=  0.0000000  0.0000000  8.4066579  G(3)= -0.0686777 -0.0485625  0.1189533
 Unit cell volume ucvol=  4.2010237E+02 bohr^3
 Angles (23,13,12)=  6.00000000E+01  6.00000000E+01  6.00000000E+01 degrees

 getcut: wavevector=  0.0000  0.0000  0.0000  ngfft=  48  48  48
         ecut(hartree)=     40.000   => boxcut(ratio)=   2.00550

--- Pseudopotential description ------------------------------------------------
- pspini: atom type   1  psp file is /scratch/users/j/a/jabreu/pseudos/PBEsol/Ca.psp8
- pspatm: opening atomic psp file    /scratch/users/j/a/jabreu/pseudos/PBEsol/Ca.psp8
- Ca    ONCVPSP-3.3.0  r_core=   1.45885   1.45885   1.85192
- 20.00000  10.00000    180112                znucl, zion, pspdat
    8 -116133    2    4       400   0.00000   pspcod,pspxc,lmax,lloc,mmax,r2well
    3.99000000000000    6.00000000000000    0.00000000000000   rchrg,fchrg,qchrg
     nproj     2     2     2
     extension_switch     1
  pspatm : epsatm=   12.46045226
         --- l  ekb(1:nproj) -->
             0   10.054847    0.973777
             1    2.998958    0.458102
             2   -3.447298   -1.091650
 pspatm: atomic psp has been read  and splines computed

- pspini: atom type   2  psp file is /scratch/users/j/a/jabreu/pseudos/PBEsol/Te.psp8
- pspatm: opening atomic psp file    /scratch/users/j/a/jabreu/pseudos/PBEsol/Te.psp8
- Te    ONCVPSP-3.3.0  r_core=   2.26547   1.91704   1.80604
- 52.00000  16.00000    180112                znucl, zion, pspdat
    8 -116133    2    4       600   0.00000   pspcod,pspxc,lmax,lloc,mmax,r2well
    5.99000000000000    5.00000000000000    0.00000000000000   rchrg,fchrg,qchrg
     nproj     2     2     2
     extension_switch     1
  pspatm : epsatm=   36.82679836
         --- l  ekb(1:nproj) -->
             0    6.345999    0.785432
             1    5.709019    1.070069
             2   -6.035173   -1.870937
 pspatm: atomic psp has been read  and splines computed

   1.28146852E+03                                ecore*ucvol(ha*bohr**3)

-inwffil : will read wavefunctions from disk file /scratch/users/j/a/jabreu/flow_simple2/flow/w186/t1/indata/in_WFK

 ==>  initialize data related to q vector <==

 The list of irreducible perturbations for this q vector is:
    1)    idir= 1    ipert=   3
    2)    idir= 2    ipert=   3
    3)    idir= 3    ipert=   3

 Perturbation wavevector (in red.coord.)   0.000000  0.000000  0.000000
 Perturbation : derivative vs k along direction   1

 dfpt_looppert : COMMENT -
  In a d/dk calculation, iscf is set to -3 automatically.
 The set of symmetries contains only one element for this perturbation.
 symkpt : not enough symmetry to change the number of k points.

[...]

 Initialisation of the first-order wave-functions :
  ireadwf=   0

--- !BeginCycle
iteration_state: {dtset: 1, }
solver: {iscf: 7, nstep: 100, nline: 4, wfoptalg: 0, }
tolerances: {tolwfr: 1.00E-20, }
...

     iter   2DEtotal(Ha)        deltaE(Ha) residm    vres2
-ETOT  1  -48.539152126840     -4.854E+01 3.851E-02 0.000E+00
 ETOT  2  -48.554070810539     -1.492E-02 1.027E-04 0.000E+00
 ETOT  3  -48.554081237463     -1.043E-05 1.205E-06 0.000E+00
 ETOT  4  -48.554081262094     -2.463E-08 1.077E-08 0.000E+00
 ETOT  5  -48.554081262183     -8.838E-11 1.164E-10 0.000E+00
 ETOT  6  -48.554081262183     -3.268E-13 5.545E-12 0.000E+00
 ETOT  7  -48.554081262183     -2.132E-14 1.325E-13 0.000E+00
 ETOT  8  -48.554081262183     -2.842E-14 2.178E-15 0.000E+00
 ETOT  9  -48.554081262183      0.000E+00 3.925E-17 0.000E+00
 ETOT 10  -48.554081262183     -7.105E-15 8.847E-19 0.000E+00
 ETOT 11  -48.554081262183      7.105E-15 1.866E-20 0.000E+00
 ETOT 12  -48.554081262183     -7.105E-15 9.965E-21 0.000E+00

 At SCF step   12   max residual=  9.96E-21 < tolwfr=  1.00E-20 =>converged.

 ----iterations are completed or convergence reached----

 dfpt_looppert: DFPT cycle converged with prtwf=-1. Will skip output of the 1st-order WFK file.
 dfpt_looppert : ek2=    4.3572009365E+01
          f-sum rule ratio=    1.4408077038E+00
 prteigrs : about to open file /scratch/users/j/a/jabreu/flow_simple2/flow/w186/t1/tmpdata/tmp_1WF1_EIG
 Expectation of eigenvalue derivatives (hartree) for nkpt=   2  k points:
  (in case of degenerate eigenvalues, averaged derivative)
 kpt#   1, nband= 22, wtk=  0.50000, kpt=  0.0000  0.0000  0.0000 (reduced coord)
  -0.00000    0.00000    0.00000   -0.00000   -0.00000   -0.00000   -0.00000   -0.00000
  -0.00000   -0.00000   -0.00000   -0.00000   -0.00000   -0.00000   -0.00000   -0.00000
   0.00000    0.00000    0.00000    0.00000    0.00086   -0.00560
 prteigrs : prtvol=0 or 1, do not print more k-points.

 Eight components of 2nd-order total energy (hartree) are
 1,2,3: 0th-order hamiltonian combined with 1st-order wavefunctions
     kin0=   3.64448191E+01 eigvalue=   6.36370532E+00  local=  -1.89187515E+01
 4,5,6: 1st-order hamiltonian combined with 1st and 0th-order wfs
     kin1=  -6.27788868E+01  Hartree=   0.00000000E+00     xc=   0.00000000E+00
 7,8,9: eventually, occupation + non-local contributions
    edocc=   2.00184733E+01     enl0=   4.64583512E+00   enl1=  -3.43292758E+01
 1-9 gives the relaxation energy (to be shifted if some occ is /=2.0)
   erelax=  -4.85540813E+01
  No Ewald or frozen-wf contrib.: the relaxation energy is the total one
 2DEtotal=   -0.4855408126E+02 Ha. Also 2DEtotal=   -0.132122374319E+04 eV
    (  non-var. 2DEtotal :   -4.8554081262E+01 Ha)

 Perturbation wavevector (in red.coord.)   0.000000  0.000000  0.000000
 Perturbation : derivative vs k along direction   2
 The set of symmetries contains only one element for this perturbation.
 symkpt : not enough symmetry to change the number of k points.

[...]

 Perturbation wavevector (in red.coord.)   0.000000  0.000000  0.000000
 Perturbation : derivative vs k along direction   3
 The set of symmetries contains only one element for this perturbation.
 symkpt : not enough symmetry to change the number of k points.

-inwffil : will read wavefunctions from disk file /scratch/users/j/a/jabreu/flow_simple2/flow/w186/t1/indata/in_WFK

 Initialisation of the first-order wave-functions :
  ireadwf=   0

--- !BeginCycle
iteration_state: {dtset: 1, }
solver: {iscf: 7, nstep: 100, nline: 4, wfoptalg: 0, }
tolerances: {tolwfr: 1.00E-20, }
...

     iter   2DEtotal(Ha)        deltaE(Ha) residm    vres2
-ETOT  1  -48.539178351780     -4.854E+01 3.878E-02 0.000E+00
 ETOT  2  -48.554060408968     -1.488E-02 1.027E-04 0.000E+00
 ETOT  3  -48.554069932025     -9.523E-06 1.205E-06 0.000E+00
 ETOT  4  -48.554069952810     -2.079E-08 1.077E-08 0.000E+00
 ETOT  5  -48.554069952884     -7.456E-11 1.163E-10 0.000E+00
 ETOT  6  -48.554069952884     -2.771E-13 5.524E-12 0.000E+00
 ETOT  7  -48.554069952885     -2.842E-14 4.347E-14 0.000E+00
 ETOT  8  -48.554069952885     -1.421E-14 1.082E-15 0.000E+00
 ETOT  9  -48.554069952884      3.553E-14 1.681E-17 0.000E+00
 ETOT 10  -48.554069952884     -7.105E-15 5.599E-19 0.000E+00
 ETOT 11  -48.554069952884      0.000E+00 1.116E-20 0.000E+00
 ETOT 12  -48.554069952884      0.000E+00 8.849E-21 0.000E+00

 At SCF step   12   max residual=  8.85E-21 < tolwfr=  1.00E-20 =>converged.

 ----iterations are completed or convergence reached----

 dfpt_looppert: DFPT cycle converged with prtwf=-1. Will skip output of the 1st-order WFK file.
 dfpt_looppert : ek2=    4.3572009365E+01
          f-sum rule ratio=    1.4408045762E+00
 prteigrs : about to open file /scratch/users/j/a/jabreu/flow_simple2/flow/w186/t1/tmpdata/tmp_1WF1_EIG
 Expectation of eigenvalue derivatives (hartree) for nkpt=   2  k points:
  (in case of degenerate eigenvalues, averaged derivative)
 kpt#   1, nband= 22, wtk=  0.50000, kpt=  0.0000  0.0000  0.0000 (reduced coord)
  -0.00000   -0.00000   -0.00000    0.00000    0.00000    0.00000    0.00000    0.00000
   0.00000    0.00000    0.00000    0.00000    0.00000   -0.00000   -0.00000   -0.00000
  -0.00000   -0.00000   -0.00000   -0.00000    0.00058   -0.00406
 prteigrs : prtvol=0 or 1, do not print more k-points.

 Eight components of 2nd-order total energy (hartree) are
 1,2,3: 0th-order hamiltonian combined with 1st-order wavefunctions
     kin0=   3.61312883E+01 eigvalue=   6.38005992E+00  local=  -1.87394342E+01
 4,5,6: 1st-order hamiltonian combined with 1st and 0th-order wfs
     kin1=  -6.27787505E+01  Hartree=   0.00000000E+00     xc=   0.00000000E+00
 7,8,9: eventually, occupation + non-local contributions
    edocc=   2.00874736E+01     enl0=   4.69468234E+00   enl1=  -3.43293894E+01
 1-9 gives the relaxation energy (to be shifted if some occ is /=2.0)
   erelax=  -4.85540700E+01
  No Ewald or frozen-wf contrib.: the relaxation energy is the total one
 2DEtotal=   -0.4855406995E+02 Ha. Also 2DEtotal=   -0.132122343545E+04 eV
    (  non-var. 2DEtotal :   -4.8554069953E+01 Ha)

 CALCULATION OF EFFECTIVE MASSES
 NOTE : Additional infos (eff. mass eigenvalues, eigenvectors and, if degenerate, average mass) are available in stdout.

 COMMENTS:
 - At k-point ( 0.000, 0.000, 0.000), bands    11 through    13
   are DEGENERATE (effective mass tensor is therefore not defined).
   See Section IIIB Eqs. (67)-(70) and Appendix E of PRB 93 205147 (2016).
 - Angular average effective mass for Frohlich model is to be averaged over degenerate bands. See later.
 - Associated theta integrals calculated with ntheta=   1000 points.

 K-point ( 0.000, 0.000, 0.000) | band =    11
 Transport equivalent effective mass tensor:
             -0.1508204921             -0.0000002704              0.0000055002
             -0.0000002704             -0.1508222704              0.0000011936
              0.0000055002              0.0000011936             -0.1508199139
 Transport equivalent effective mass tensor eigenvalues:
             -0.1508259921             -0.1508220503             -0.1508146339
 Angular average effective mass 1/(<1/m>)=  -0.1503517332
 Angular average effective mass for Frohlich model (<m**0.5>)**2=  -0.1503845090
 Effective masses along directions: (cart. coord. / red. coord. -> eff. mass)
    1:   1.000000  0.000000  0.000000 /   0.948683  0.316228  0.000000 ->  -0.1517926456
    2:   0.000000  1.000000  0.000000 /   0.000000  1.000000  0.000000 ->  -0.1544323996
    3:   0.000000  0.000000  1.000000 /   0.408248  0.408248  0.816497 ->  -0.1519016423
    4:   0.577350  0.577350  0.577350 /   0.585539  0.688047  0.428644 ->  -0.1518957145
    5:   0.000000  0.707107  0.707107 /   0.289489  0.762222  0.578977 ->  -0.1487370098
    6:   0.707107  0.000000  0.707107 /   0.731423  0.422287  0.535439 ->  -0.1518378409
    7:   0.707107  0.707107  0.000000 /   0.616798  0.787122  0.000000 ->  -0.1455091804

[...]

 K-point ( 0.000, 0.000, 0.000) | band =    13
 Transport equivalent effective mass tensor:
             -0.6345220414              0.0000076852             -0.0000155582
              0.0000076852             -0.6345086224             -0.0000129895
             -0.0000155582             -0.0000129895             -0.6344981366
 Transport equivalent effective mass tensor eigenvalues:
             -0.6345297944             -0.6345170407             -0.6344819654
 Angular average effective mass 1/(<1/m>)=  -0.6236024953
 Angular average effective mass for Frohlich model (<m**0.5>)**2=  -0.6240763678
 Effective masses along directions: (cart. coord. / red. coord. -> eff. mass)
    1:   1.000000  0.000000  0.000000 /   0.948683  0.316228  0.000000 ->  -0.6019778785
    2:   0.000000  1.000000  0.000000 /   0.000000  1.000000  0.000000 ->  -0.5653296815
    3:   0.000000  0.000000  1.000000 /   0.408248  0.408248  0.816497 ->  -0.6437677827
    4:   0.577350  0.577350  0.577350 /   0.585539  0.688047  0.428644 ->  -0.6118135708
    5:   0.000000  0.707107  0.707107 /   0.289489  0.762222  0.578977 ->  -0.6405123818
    6:   0.707107  0.000000  0.707107 /   0.731423  0.422287  0.535439 ->  -0.6274712509
    7:   0.707107  0.707107  0.000000 /   0.616798  0.787122  0.000000 ->  -0.6399642263

 Angular average effective mass for Frohlich model, averaged over degenerate bands.
 Value of     (<<m**0.5>>)**2 =     4.149745E-01
 Absolute Value of <<m**0.5>> =     6.441852E-01

 K-point ( 0.500, 0.000, 0.500) | band =    14
 Effective mass tensor:
              0.4352798317             -0.2747431770              0.3364902971
             -0.2747431770              0.6295525954             -0.4758691417
              0.3364902971             -0.4758691417              0.8238253590
 Effective mass tensor eigenvalues:
              0.2410070681              0.2410070683              1.4066436497
 Angular average effective mass 1/(<1/m>)=   0.3329846648
 Angular average effective mass for Frohlich model (<m**0.5>)**2=   0.3806520690
 Effective masses along directions: (cart. coord. / red. coord. -> eff. mass)
    1:   1.000000  0.000000  0.000000 /   0.948683  0.316228  0.000000 ->   0.2796265283
    2:   0.000000  1.000000  0.000000 /   0.000000  1.000000  0.000000 ->   0.3329846649
    3:   0.000000  0.000000  1.000000 /   0.408248  0.408248  0.816497 ->   0.4115084081
    4:   0.577350  0.577350  0.577350 /   0.585539  0.688047  0.428644 ->   0.2619505794
    5:   0.000000  0.707107  0.707107 /   0.289489  0.762222  0.578977 ->   0.2427001482
    6:   0.707107  0.000000  0.707107 /   0.731423  0.422287  0.535439 ->   0.4973696742
    7:   0.707107  0.707107  0.000000 /   0.616798  0.787122  0.000000 ->   0.2438967665

 END OF EFFECTIVE MASSES SECTION

 ---- first-order wavefunction calculations are completed ----

 Total localisation tensor (bohr^2) in cartesian coordinates
  WARNING : still subject to testing - especially symmetries.
      direction              matrix element
   alpha     beta       real part   imaginary part
     1        1       3.8678846534    0.0000000000
     1        2       1.0940021103    0.0000000000
     1        3       2.6797487371    0.0000000000
     2        1       1.0940021103    0.0000000000
     2        2       3.0943052432    0.0000000000
     2        3       1.8948672386    0.0000000000
     3        1       2.6797487371    0.0000000000
     3        2       1.8948672386    0.0000000000
     3        3       6.9621890051    0.0000000000

 respfn : d/dk was computed, but no 2DTE, so no DDB output.

== END DATASET(S) ==============================================================

 -outvars: echo values of variables after computation  --------
            acell      1.0000000000E+00  1.0000000000E+00  1.0000000000E+00 Bohr
              amu      4.00780000E+01  1.27600000E+02
             ecut      4.00000000E+01 Hartree
           etotal     -4.8554069953E+01
            fcart      0.0000000000E+00  0.0000000000E+00  0.0000000000E+00
                       0.0000000000E+00  0.0000000000E+00  0.0000000000E+00
-          fftalg         512
           irdden           1
           irdwfk           1
           istwfk        1    1
              ixc     -116133
              kpt      0.00000000E+00  0.00000000E+00  0.00000000E+00
                       5.00000000E-01  4.93038066E-32  5.00000000E-01
           kptopt           0
P           mkmem           2
P          mkqmem           2
P          mk1mem           2
            natom           2
            nband          22
           nbdbuf           4
            ngfft          48      48      48
             nkpt           2
            nstep         100
             nsym          48
           ntypat           2
              occ      2.000000  2.000000  2.000000  2.000000  2.000000  2.000000
                       2.000000  2.000000  2.000000  2.000000  2.000000  2.000000
                       2.000000  0.000000  0.000000  0.000000  0.000000  0.000000
                       0.000000  0.000000  0.000000  0.000000
        optdriver           1
            prtwf          -1
            rfdir           1       1       1
           rfelfd           2
            rprim      7.2803793178E+00  0.0000000000E+00  4.2033289589E+00
                       2.4267931059E+00  6.8640074470E+00  4.2033289589E+00
                       0.0000000000E+00  0.0000000000E+00  8.4066579179E+00
          spgroup         225
           strten      0.0000000000E+00  0.0000000000E+00  0.0000000000E+00
                       0.0000000000E+00  0.0000000000E+00  0.0000000000E+00
           symrel      1  0  0   0  1  0   0  0  1      -1  0  0   0 -1  0   0  0 -1
                       0 -1  1   0 -1  0   1 -1  0       0  1 -1   0  1  0  -1  1  0
                      -1  0  0  -1  0  1  -1  1  0       1  0  0   1  0 -1   1 -1  0
                       0  1 -1   1  0 -1   0  0 -1       0 -1  1  -1  0  1   0  0  1
                      -1  0  0  -1  1  0  -1  0  1       1  0  0   1 -1  0   1  0 -1
                       0 -1  1   1 -1  0   0 -1  0       0  1 -1  -1  1  0   0  1  0
                       1  0  0   0  0  1   0  1  0      -1  0  0   0  0 -1   0 -1  0
                       0  1 -1   0  0 -1   1  0 -1       0 -1  1   0  0  1  -1  0  1
                      -1  0  1  -1  1  0  -1  0  0       1  0 -1   1 -1  0   1  0  0
                       0 -1  0   1 -1  0   0 -1  1       0  1  0  -1  1  0   0  1 -1
                       1  0 -1   0  0 -1   0  1 -1      -1  0  1   0  0  1   0 -1  1
                       0  1  0   0  0  1   1  0  0       0 -1  0   0  0 -1  -1  0  0
                       1  0 -1   0  1 -1   0  0 -1      -1  0  1   0 -1  1   0  0  1
                       0 -1  0   0 -1  1   1 -1  0       0  1  0   0  1 -1  -1  1  0
                      -1  0  1  -1  0  0  -1  1  0       1  0 -1   1  0  0   1 -1  0
                       0  1  0   1  0  0   0  0  1       0 -1  0  -1  0  0   0  0 -1
                       0  0 -1   0  1 -1   1  0 -1       0  0  1   0 -1  1  -1  0  1
                       1 -1  0   0 -1  1   0 -1  0      -1  1  0   0  1 -1   0  1  0
                       0  0  1   1  0  0   0  1  0       0  0 -1  -1  0  0   0 -1  0
                      -1  1  0  -1  0  0  -1  0  1       1 -1  0   1  0  0   1  0 -1
                       0  0  1   0  1  0   1  0  0       0  0 -1   0 -1  0  -1  0  0
                       1 -1  0   0 -1  0   0 -1  1      -1  1  0   0  1  0   0  1 -1
                       0  0 -1   1  0 -1   0  1 -1       0  0  1  -1  0  1   0 -1  1
                      -1  1  0  -1  0  1  -1  0  0       1 -1  0   1  0 -1   1  0  0
           tolwfr      1.00000000E-20
            typat      1  2
           useylm           1
              wtk        0.50000    0.50000
           xangst      0.0000000000E+00  0.0000000000E+00  0.0000000000E+00
                       2.5684072032E+00  1.8161381503E+00  4.4486117705E+00
            xcart      0.0000000000E+00  0.0000000000E+00  0.0000000000E+00
                       4.8535862118E+00  3.4320037235E+00  8.4066579179E+00
             xred      0.0000000000E+00  0.0000000000E+00  0.0000000000E+00
                       5.0000000000E-01  5.0000000000E-01  5.0000000000E-01
            znucl       20.00000   52.00000

- Timing analysis has been suppressed with timopt=0

 Suggested references for the acknowledgment of ABINIT usage.

 Calculation completed.
.Delivered  14 WARNINGs and   9 COMMENTs to log file.