.Version 9.5.1 of ABINIT

 ABINIT is a project of the Universite Catholique de Louvain,
 Corning Inc. and other collaborators, see ~abinit/doc/developers/contributors.txt .
 acknowledgments of the ABINIT effort.

.Starting date : Wed 19 May 2021.
- ( at 01h20 )

- input  file    -> /scratch/users/j/a/jabreu/flow_simple_8atoms/flow/w416/t1/run.abi
- output file    -> /scratch/users/j/a/jabreu/flow_simple_8atoms/flow/w416/t1/run.abo
- root for input  files -> /scratch/users/j/a/jabreu/flow_simple_8atoms/flow/w416/t1/indata/in
- root for output files -> /scratch/users/j/a/jabreu/flow_simple_8atoms/flow/w416/t1/outdata/out

 Symmetries : space group Fm -3 m (#225); Bravais cF (face-center cubic)
     intxc =       0      iscf =       7    lmnmax =      18     lnmax =       6
     mgfft =      64  mpssoang =       3    mqgrid =    3001     natom =       8
  nloc_mem =       1    nspden =       1   nspinor =       1    nsppol =       1
      nsym =      48    n1xccc =    2501    ntypat =       3    occopt =       1
   xclevel =       2
-    mband =          37        mffmem =           1         mkmem =           1
-   mkqmem =           1        mk1mem =           1           mpw =       11311
      nfft =      262144          nkpt =           1
  Rough estimation (10% accuracy) of disk space for files :

------------- Echo of variables that govern the present computation ------------
-
- outvars: echo of selected default values
-   iomode0 =  0 , fftalg0 =512 , wfoptalg0 =  0
-
- outvars: echo of global parameters not present in the input file
-  max_nthreads =    0
-
 -outvars: echo values of preprocessed input variables --------
            acell      1.0000000000E+00  1.0000000000E+00  1.0000000000E+00 Bohr
              amu      2.29897680E+01  3.09737620E+01  1.89984032E+01
             ecut      4.40000000E+01 Hartree
-          fftalg         512
           irdden           1
           irdwfk           1
           istwfk        1
              ixc     -116133
           kptopt           0
P           mkmem           1
P          mkqmem           1
P          mk1mem           1
            natom           8
            nband          37
           nbdbuf           4
            ngfft          64      64      64
             nkpt           1
            nstep        2000
             nsym          48
           ntypat           3
              occ      2.000000  2.000000  2.000000  2.000000  2.000000  2.000000
                       2.000000  2.000000  2.000000  2.000000  2.000000  2.000000
                       2.000000  2.000000  2.000000  2.000000  2.000000  2.000000
                       2.000000  2.000000  2.000000  2.000000  2.000000  2.000000
                       2.000000  2.000000  2.000000  2.000000  0.000000  0.000000
                       0.000000  0.000000  0.000000  0.000000  0.000000  0.000000
                       0.000000
        optdriver           1
            prtwf          -1
            rfdir           1       1       1
           rfelfd           2
            rprim      9.0785950869E+00  0.0000000000E+00  5.2415293173E+00
                       3.0261983623E+00  8.5593815328E+00  5.2415293173E+00
                       0.0000000000E+00  0.0000000000E+00  1.0483058635E+01
          spgroup         225
           symrel      1  0  0   0  1  0   0  0  1      -1  0  0   0 -1  0   0  0 -1
                       0 -1  1   0 -1  0   1 -1  0       0  1 -1   0  1  0  -1  1  0
                      -1  0  0  -1  0  1  -1  1  0       1  0  0   1  0 -1   1 -1  0
                       0  1 -1   1  0 -1   0  0 -1       0 -1  1  -1  0  1   0  0  1
                      -1  0  0  -1  1  0  -1  0  1       1  0  0   1 -1  0   1  0 -1
                       0 -1  1   1 -1  0   0 -1  0       0  1 -1  -1  1  0   0  1  0
                       1  0  0   0  0  1   0  1  0      -1  0  0   0  0 -1   0 -1  0
                       0  1 -1   0  0 -1   1  0 -1       0 -1  1   0  0  1  -1  0  1
                      -1  0  1  -1  1  0  -1  0  0       1  0 -1   1 -1  0   1  0  0
                       0 -1  0   1 -1  0   0 -1  1       0  1  0  -1  1  0   0  1 -1
                       1  0 -1   0  0 -1   0  1 -1      -1  0  1   0  0  1   0 -1  1
                       0  1  0   0  0  1   1  0  0       0 -1  0   0  0 -1  -1  0  0
                       1  0 -1   0  1 -1   0  0 -1      -1  0  1   0 -1  1   0  0  1
                       0 -1  0   0 -1  1   1 -1  0       0  1  0   0  1 -1  -1  1  0
                      -1  0  1  -1  0  0  -1  1  0       1  0 -1   1  0  0   1 -1  0
                       0  1  0   1  0  0   0  0  1       0 -1  0  -1  0  0   0  0 -1
                       0  0 -1   0  1 -1   1  0 -1       0  0  1   0 -1  1  -1  0  1
                       1 -1  0   0 -1  1   0 -1  0      -1  1  0   0  1 -1   0  1  0
                       0  0  1   1  0  0   0  1  0       0  0 -1  -1  0  0   0 -1  0
                      -1  1  0  -1  0  0  -1  0  1       1 -1  0   1  0  0   1  0 -1
                       0  0  1   0  1  0   1  0  0       0  0 -1   0 -1  0  -1  0  0
                       1 -1  0   0 -1  0   0 -1  1      -1  1  0   0  1  0   0  1 -1
                       0  0 -1   1  0 -1   0  1 -1       0  0  1  -1  0  1   0 -1  1
                      -1  1  0  -1  0  1  -1  0  0       1 -1  0   1  0 -1   1  0  0
           tolwfr      1.00000000E-20
            typat      1  2  3  3  3  3  3  3
           useylm           1
           xangst      0.0000000000E+00  0.0000000000E+00  0.0000000000E+00
                       3.2027904040E+00  2.2647148134E+00  5.5473957057E+00
                       3.8641634196E+00  1.3293921249E+00  6.6929273716E+00
                       4.5255364353E+00  3.2000375019E+00  5.5473957057E+00
                       2.5414173884E+00  3.2000375019E+00  4.4018640399E+00
                       2.5414173884E+00  3.2000375019E+00  6.6929273716E+00
                       3.8641634196E+00  1.3293921249E+00  4.4018640399E+00
                       1.8800443727E+00  1.3293921249E+00  5.5473957057E+00
            xcart      0.0000000000E+00  0.0000000000E+00  0.0000000000E+00
                       6.0523967246E+00  4.2796907664E+00  1.0483058635E+01
                       7.3022105958E+00  2.5121870393E+00  1.2647799760E+01
                       8.5520244671E+00  6.0471944935E+00  1.0483058635E+01
                       4.8025828534E+00  6.0471944935E+00  8.3183175096E+00
                       4.8025828534E+00  6.0471944935E+00  1.2647799760E+01
                       7.3022105958E+00  2.5121870393E+00  8.3183175096E+00
                       3.5527689821E+00  2.5121870393E+00  1.0483058635E+01
             xred      0.0000000000E+00  0.0000000000E+00  0.0000000000E+00
                       5.0000000000E-01  5.0000000000E-01  5.0000000000E-01
                       7.0649900000E-01  2.9350100000E-01  7.0649900000E-01
                       7.0649900000E-01  7.0649900000E-01  2.9350100000E-01
                       2.9350100000E-01  7.0649900000E-01  2.9350100000E-01
                       2.9350100000E-01  7.0649900000E-01  7.0649900000E-01
                       7.0649900000E-01  2.9350100000E-01  2.9350100000E-01
                       2.9350100000E-01  2.9350100000E-01  7.0649900000E-01
            znucl       11.00000   15.00000    9.00000

 chkinp: Checking input parameters for consistency.

== DATASET  1 ==================================================================
-   mpi_nproc: 1, omp_nthreads: -1 (-1 if OMP is not activated)

--- !DatasetInfo
iteration_state: {dtset: 1, }
dimensions: {natom: 8, nkpt: 1, mband: 37, nsppol: 1, nspinor: 1, nspden: 1, mpw: 11311, }
cutoff_energies: {ecut:  44.0, pawecutdg:  -1.0, }
electrons: {nelect:   5.60000000E+01, charge:   0.00000000E+00, occopt:   1.00000000E+00, tsmear:   1.00000000E-02, }
meta: {optdriver: 1, rfelfd: 2, }
...

 Real(R)+Recip(G) space primitive vectors, cartesian coordinates (Bohr,Bohr^-1):
 R(1)=  9.0785951  0.0000000  5.2415293  G(1)=  0.1101492 -0.0389436  0.0000000
 R(2)=  3.0261984  8.5593815  5.2415293  G(2)=  0.0000000  0.1168309  0.0000000
 R(3)=  0.0000000  0.0000000 10.4830586  G(3)= -0.0550746 -0.0389436  0.0953920
 Unit cell volume ucvol=  8.1460871E+02 bohr^3
 Angles (23,13,12)=  6.00000000E+01  6.00000000E+01  6.00000000E+01 degrees

 getcut: wavevector=  0.0000  0.0000  0.0000  ngfft=  64  64  64
         ecut(hartree)=     44.000   => boxcut(ratio)=   2.04456

--- Pseudopotential description ------------------------------------------------
- pspini: atom type   1  psp file is /scratch/users/j/a/jabreu/pseudos/PBEsol/Na.psp8
- pspatm: opening atomic psp file    /scratch/users/j/a/jabreu/pseudos/PBEsol/Na.psp8
- Na    ONCVPSP-3.3.0  r_core=   1.20708   1.55069
- 11.00000   9.00000    180112                znucl, zion, pspdat
    8 -116133    1    4       400   0.00000   pspcod,pspxc,lmax,lloc,mmax,r2well
    3.99000000000000    0.00000000000000    0.00000000000000   rchrg,fchrg,qchrg
     nproj     2     2
     extension_switch     1
  pspatm : epsatm=    9.32878306
         --- l  ekb(1:nproj) -->
             0    2.657905   -0.678300
             1   -6.761319   -2.404728
 pspatm: atomic psp has been read  and splines computed

- pspini: atom type   2  psp file is /scratch/users/j/a/jabreu/pseudos/PBEsol/P.psp8
- pspatm: opening atomic psp file    /scratch/users/j/a/jabreu/pseudos/PBEsol/P.psp8
- P     ONCVPSP-3.3.0  r_core=   1.46089   1.55067   1.70594
- 15.00000   5.00000    180112                znucl, zion, pspdat
    8 -116133    2    4       600   0.00000   pspcod,pspxc,lmax,lloc,mmax,r2well
    5.99000000000000    5.00000000000000    0.00000000000000   rchrg,fchrg,qchrg
     nproj     2     2     2
     extension_switch     1
  pspatm : epsatm=    7.31221086
         --- l  ekb(1:nproj) -->
             0    6.742364    1.063650
             1    3.449117    0.910422
             2   -3.077645   -0.799176
 pspatm: atomic psp has been read  and splines computed

- pspini: atom type   3  psp file is /scratch/users/j/a/jabreu/pseudos/PBEsol/F.psp8
- pspatm: opening atomic psp file    /scratch/users/j/a/jabreu/pseudos/PBEsol/F.psp8
- F     ONCVPSP-3.3.0  r_core=   1.30942   1.45782   1.60379
-  9.00000   7.00000    180112                znucl, zion, pspdat
    8 -116133    2    4       600   0.00000   pspcod,pspxc,lmax,lloc,mmax,r2well
    5.99000000000000    2.50000000000000    0.00000000000000   rchrg,fchrg,qchrg
     nproj     2     2     1
     extension_switch     1
  pspatm : epsatm=    4.89824824
         --- l  ekb(1:nproj) -->
             0    6.506434    1.065875
             1   -3.978753   -1.295852
             2   -2.394754
 pspatm: atomic psp has been read  and splines computed

   2.57770707E+03                                ecore*ucvol(ha*bohr**3)

-inwffil : will read wavefunctions from disk file /scratch/users/j/a/jabreu/flow_simple_8atoms/flow/w416/t1/indata/in_WFK

 ==>  initialize data related to q vector <==

 The list of irreducible perturbations for this q vector is:
    1)    idir= 1    ipert=   9
    2)    idir= 2    ipert=   9
    3)    idir= 3    ipert=   9

[...]
 4,5,6: 1st-order hamiltonian combined with 1st and 0th-order wfs
     kin1=  -6.29224933E+01  Hartree=   0.00000000E+00     xc=   0.00000000E+00
 7,8,9: eventually, occupation + non-local contributions
    edocc=   5.06606764E+00     enl0=  -7.96959043E-01   enl1=  -3.77007168E+00
 1-9 gives the relaxation energy (to be shifted if some occ is /=2.0)
   erelax=  -3.33462825E+01
  No Ewald or frozen-wf contrib.: the relaxation energy is the total one
 2DEtotal=   -0.3334628250E+02 Ha. Also 2DEtotal=   -0.907398493500E+03 eV
    (  non-var. 2DEtotal :   -3.3346282503E+01 Ha)

 Perturbation wavevector (in red.coord.)   0.000000  0.000000  0.000000
 Perturbation : derivative vs k along direction   2
 The set of symmetries contains only one element for this perturbation.
 symkpt : not enough symmetry to change the number of k points.

[...]

 Perturbation wavevector (in red.coord.)   0.000000  0.000000  0.000000
 Perturbation : derivative vs k along direction   3
 The set of symmetries contains only one element for this perturbation.
 symkpt : not enough symmetry to change the number of k points.

-inwffil : will read wavefunctions from disk file /scratch/users/j/a/jabreu/flow_simple_8atoms/flow/w416/t1/indata/in_WFK

 Initialisation of the first-order wave-functions :
  ireadwf=   0

--- !BeginCycle
iteration_state: {dtset: 1, }
solver: {iscf: 7, nstep: 2000, nline: 4, wfoptalg: 0, }
tolerances: {tolwfr: 1.00E-20, }
...

     iter   2DEtotal(Ha)        deltaE(Ha) residm    vres2
-ETOT  1  -33.327642040116     -3.333E+01 2.606E-01 0.000E+00
 ETOT  2  -33.346263051282     -1.862E-02 2.397E-03 0.000E+00
 ETOT  3  -33.346282464762     -1.941E-05 1.909E-04 0.000E+00
 ETOT  4  -33.346282502898     -3.814E-08 1.031E-05 0.000E+00
 ETOT  5  -33.346282502997     -9.865E-11 1.130E-06 0.000E+00
 ETOT  6  -33.346282502997     -3.624E-13 6.479E-08 0.000E+00
 ETOT  7  -33.346282502997      0.000E+00 7.862E-09 0.000E+00
 ETOT  8  -33.346282502997      2.842E-14 5.390E-10 0.000E+00
 ETOT  9  -33.346282502997     -7.105E-15 5.658E-11 0.000E+00
 ETOT 10  -33.346282502997      0.000E+00 4.841E-12 0.000E+00
 ETOT 11  -33.346282502997      0.000E+00 4.130E-13 0.000E+00
 ETOT 12  -33.346282502997     -7.105E-15 4.578E-14 0.000E+00
 ETOT 13  -33.346282502997      7.105E-15 3.040E-15 0.000E+00
 ETOT 14  -33.346282502997      0.000E+00 4.485E-16 0.000E+00
 ETOT 15  -33.346282502997      0.000E+00 2.546E-17 0.000E+00
 ETOT 16  -33.346282502997      0.000E+00 4.491E-18 0.000E+00
 ETOT 17  -33.346282502997      7.105E-15 2.554E-19 0.000E+00
 ETOT 18  -33.346282502997      1.421E-14 4.555E-20 0.000E+00
 ETOT 19  -33.346282502997     -7.105E-15 9.514E-21 0.000E+00

 At SCF step   19   max residual=  9.51E-21 < tolwfr=  1.00E-20 =>converged.

 ----iterations are completed or convergence reached----

 dfpt_looppert: DFPT cycle converged with prtwf=-1. Will skip output of the 1st-order WFK file.
 dfpt_looppert : ek2=    6.0352183693E+01
          f-sum rule ratio=    1.0425885109E+00
 prteigrs : about to open file /scratch/users/j/a/jabreu/flow_simple_8atoms/flow/w416/t1/tmpdata/tmp_1WF1_EIG
 Expectation of eigenvalue derivatives (hartree) for nkpt=   1  k points:
  (in case of degenerate eigenvalues, averaged derivative)
 kpt#   1, nband= 37, wtk=  1.00000, kpt=  0.0000  0.0000  0.0000 (reduced coord)
   0.00000    0.00000    0.00000    0.00000    0.00000   -0.00000   -0.00000    0.00000
   0.00000    0.00000    0.00000   -0.00000   -0.00000   -0.00000   -0.00000   -0.00000
  -0.00000    0.00000    0.00000    0.00000    0.00000    0.00000   -0.00000   -0.00000
  -0.00000   -0.00000   -0.00000   -0.00000   -0.00000   -0.00000    0.00000   -0.00000
  -0.00000   -0.00000   -0.00000   -0.00000   -0.00000

 Eight components of 2nd-order total energy (hartree) are
 1,2,3: 0th-order hamiltonian combined with 1st-order wavefunctions
     kin0=   4.28027546E+01 eigvalue=   4.22551988E+00  local=  -1.79511006E+01
 4,5,6: 1st-order hamiltonian combined with 1st and 0th-order wfs
     kin1=  -6.29224933E+01  Hartree=   0.00000000E+00     xc=   0.00000000E+00
 7,8,9: eventually, occupation + non-local contributions
    edocc=   5.06606765E+00     enl0=  -7.96959047E-01   enl1=  -3.77007168E+00
 1-9 gives the relaxation energy (to be shifted if some occ is /=2.0)
   erelax=  -3.33462825E+01
  No Ewald or frozen-wf contrib.: the relaxation energy is the total one
 2DEtotal=   -0.3334628250E+02 Ha. Also 2DEtotal=   -0.907398493493E+03 eV
    (  non-var. 2DEtotal :   -3.3346282503E+01 Ha)

 CALCULATION OF EFFECTIVE MASSES
 NOTE : Additional infos (eff. mass eigenvalues, eigenvectors and, if degenerate, average mass) are available in stdout.

 COMMENTS:
 - At k-point ( 0.000, 0.000, 0.000), bands    26 through    28
   are DEGENERATE (effective mass tensor is therefore not defined).
   See Section IIIB Eqs. (67)-(70) and Appendix E of PRB 93 205147 (2016).
 - Angular average effective mass for Frohlich model is to be averaged over degenerate bands. See later.
 - Associated theta integrals calculated with ntheta=   1000 points.

 K-point ( 0.000, 0.000, 0.000) | band =    26
 Transport equivalent effective mass tensor:
             -4.7226856499             -0.0000015003              0.0000000111
             -0.0000015003             -4.7226841294              0.0000000079
              0.0000000111              0.0000000079             -4.7226771156
 Transport equivalent effective mass tensor eigenvalues:
             -4.7226865716             -4.7226832078             -4.7226771156
 Angular average effective mass 1/(<1/m>)=  -4.4650162736
 Angular average effective mass for Frohlich model (<m**0.5>)**2=  -4.4749046884
 Effective masses along directions: (cart. coord. / red. coord. -> eff. mass)
    1:   1.000000  0.000000  0.000000 /   0.948683  0.316228  0.000000 ->  -4.7634299603
    2:   0.000000  1.000000  0.000000 /   0.000000  1.000000  0.000000 ->  -5.4117951417
    3:   0.000000  0.000000  1.000000 /   0.408248  0.408248  0.816497 ->  -4.2537995174
    4:   0.577350  0.577350  0.577350 /   0.585539  0.688047  0.428644 ->  -4.5961836771
    5:   0.000000  0.707107  0.707107 /   0.289489  0.762222  0.578977 ->  -4.2827815794
    6:   0.707107  0.000000  0.707107 /   0.731423  0.422287  0.535439 ->  -4.4104793105
    7:   0.707107  0.707107  0.000000 /   0.616798  0.787122  0.000000 ->  -4.2932031023

[...]

 K-point ( 0.000, 0.000, 0.000) | band =    28
 Transport equivalent effective mass tensor:
           -592.9849399991              0.0000003012              0.0000007489
              0.0000003012           -592.9849402811              0.0000006232
              0.0000007489              0.0000006232           -592.9849392498
 Transport equivalent effective mass tensor eigenvalues:
           -592.9849405857           -592.9849404264           -592.9849385179
 Angular average effective mass 1/(<1/m>)= -17.1874508828
 Angular average effective mass for Frohlich model (<m**0.5>)**2= -23.5196115707
 Effective masses along directions: (cart. coord. / red. coord. -> eff. mass)
    1:   1.000000  0.000000  0.000000 /   0.948683  0.316228  0.000000 -> -14.5693351983
    2:   0.000000  1.000000  0.000000 /   0.000000  1.000000  0.000000 ->  -9.5527818241
    3:   0.000000  0.000000  1.000000 /   0.408248  0.408248  0.816497 -> -12.5738148431
    4:   0.577350  0.577350  0.577350 /   0.585539  0.688047  0.428644 -> -14.0376403561
    5:   0.000000  0.707107  0.707107 /   0.289489  0.762222  0.578977 -> -25.8617414694
    6:   0.707107  0.000000  0.707107 /   0.731423  0.422287  0.535439 -> -13.5881896840
    7:   0.707107  0.707107  0.000000 /   0.616798  0.787122  0.000000 -> **************

 Angular average effective mass for Frohlich model, averaged over degenerate bands.
 Value of     (<<m**0.5>>)**2 =     9.520743E+00
 Absolute Value of <<m**0.5>> =     3.085570E+00

 K-point ( 0.000, 0.000, 0.000) | band =    29
 Effective mass tensor:
              0.6657153831             -0.0000000002             -0.0000000005
             -0.0000000002              0.6657153832             -0.0000000004
             -0.0000000005             -0.0000000004              0.6657153825
 Effective mass tensor eigenvalues:
              0.6657153820              0.6657153834              0.6657153834
 Angular average effective mass 1/(<1/m>)=   0.6657153829
 Angular average effective mass for Frohlich model (<m**0.5>)**2=   0.6657153829
 Effective masses along directions: (cart. coord. / red. coord. -> eff. mass)
    1:   1.000000  0.000000  0.000000 /   0.948683  0.316228  0.000000 ->   0.6657153831
    2:   0.000000  1.000000  0.000000 /   0.000000  1.000000  0.000000 ->   0.6657153832
    3:   0.000000  0.000000  1.000000 /   0.408248  0.408248  0.816497 ->   0.6657153825
    4:   0.577350  0.577350  0.577350 /   0.585539  0.688047  0.428644 ->   0.6657153822
    5:   0.000000  0.707107  0.707107 /   0.289489  0.762222  0.578977 ->   0.6657153825
    6:   0.707107  0.000000  0.707107 /   0.731423  0.422287  0.535439 ->   0.6657153823
    7:   0.707107  0.707107  0.000000 /   0.616798  0.787122  0.000000 ->   0.6657153829

 END OF EFFECTIVE MASSES SECTION

 ---- first-order wavefunction calculations are completed ----

 Total localisation tensor (bohr^2) in cartesian coordinates
  WARNING : still subject to testing - especially symmetries.
      direction              matrix element
   alpha     beta       real part   imaginary part
     1        1       0.5277205794    0.0000000000
     1        2       0.1492619201    0.0000000000
     1        3       0.3656155423    0.0000000000
     2        1       0.1492619201    0.0000000000
     2        2       0.4221764635    0.0000000000
     2        3       0.2585292293    0.0000000000
     3        1       0.3656155423    0.0000000000
     3        2       0.2585292293    0.0000000000
     3        3       0.9498970429    0.0000000000

 respfn : d/dk was computed, but no 2DTE, so no DDB output.

== END DATASET(S) ==============================================================

 -outvars: echo values of variables after computation  --------
            acell      1.0000000000E+00  1.0000000000E+00  1.0000000000E+00 Bohr
              amu      2.29897680E+01  3.09737620E+01  1.89984032E+01
             ecut      4.40000000E+01 Hartree
           etotal     -3.3346282503E+01
            fcart      0.0000000000E+00  0.0000000000E+00  0.0000000000E+00
                       0.0000000000E+00  0.0000000000E+00  0.0000000000E+00
                       0.0000000000E+00  0.0000000000E+00  0.0000000000E+00
                       0.0000000000E+00  0.0000000000E+00  0.0000000000E+00
                       0.0000000000E+00  0.0000000000E+00  0.0000000000E+00
                       0.0000000000E+00  0.0000000000E+00  0.0000000000E+00
                       0.0000000000E+00  0.0000000000E+00  0.0000000000E+00
                       0.0000000000E+00  0.0000000000E+00  0.0000000000E+00
-          fftalg         512
           irdden           1
           irdwfk           1
           istwfk        1
              ixc     -116133
           kptopt           0
P           mkmem           1
P          mkqmem           1
P          mk1mem           1
            natom           8
            nband          37
           nbdbuf           4
            ngfft          64      64      64
             nkpt           1
            nstep        2000
             nsym          48
           ntypat           3
              occ      2.000000  2.000000  2.000000  2.000000  2.000000  2.000000
                       2.000000  2.000000  2.000000  2.000000  2.000000  2.000000
                       2.000000  2.000000  2.000000  2.000000  2.000000  2.000000
                       2.000000  2.000000  2.000000  2.000000  2.000000  2.000000
                       2.000000  2.000000  2.000000  2.000000  0.000000  0.000000
                       0.000000  0.000000  0.000000  0.000000  0.000000  0.000000
                       0.000000
        optdriver           1
            prtwf          -1
            rfdir           1       1       1
           rfelfd           2
            rprim      9.0785950869E+00  0.0000000000E+00  5.2415293173E+00
                       3.0261983623E+00  8.5593815328E+00  5.2415293173E+00
                       0.0000000000E+00  0.0000000000E+00  1.0483058635E+01
          spgroup         225
           strten      0.0000000000E+00  0.0000000000E+00  0.0000000000E+00
                       0.0000000000E+00  0.0000000000E+00  0.0000000000E+00
           symrel      1  0  0   0  1  0   0  0  1      -1  0  0   0 -1  0   0  0 -1
                       0 -1  1   0 -1  0   1 -1  0       0  1 -1   0  1  0  -1  1  0
                      -1  0  0  -1  0  1  -1  1  0       1  0  0   1  0 -1   1 -1  0
                       0  1 -1   1  0 -1   0  0 -1       0 -1  1  -1  0  1   0  0  1
                      -1  0  0  -1  1  0  -1  0  1       1  0  0   1 -1  0   1  0 -1
                       0 -1  1   1 -1  0   0 -1  0       0  1 -1  -1  1  0   0  1  0
                       1  0  0   0  0  1   0  1  0      -1  0  0   0  0 -1   0 -1  0
                       0  1 -1   0  0 -1   1  0 -1       0 -1  1   0  0  1  -1  0  1
                      -1  0  1  -1  1  0  -1  0  0       1  0 -1   1 -1  0   1  0  0
                       0 -1  0   1 -1  0   0 -1  1       0  1  0  -1  1  0   0  1 -1
                       1  0 -1   0  0 -1   0  1 -1      -1  0  1   0  0  1   0 -1  1
                       0  1  0   0  0  1   1  0  0       0 -1  0   0  0 -1  -1  0  0
                       1  0 -1   0  1 -1   0  0 -1      -1  0  1   0 -1  1   0  0  1
                       0 -1  0   0 -1  1   1 -1  0       0  1  0   0  1 -1  -1  1  0
                      -1  0  1  -1  0  0  -1  1  0       1  0 -1   1  0  0   1 -1  0
                       0  1  0   1  0  0   0  0  1       0 -1  0  -1  0  0   0  0 -1
                       0  0 -1   0  1 -1   1  0 -1       0  0  1   0 -1  1  -1  0  1
                       1 -1  0   0 -1  1   0 -1  0      -1  1  0   0  1 -1   0  1  0
                       0  0  1   1  0  0   0  1  0       0  0 -1  -1  0  0   0 -1  0
                      -1  1  0  -1  0  0  -1  0  1       1 -1  0   1  0  0   1  0 -1
                       0  0  1   0  1  0   1  0  0       0  0 -1   0 -1  0  -1  0  0
                       1 -1  0   0 -1  0   0 -1  1      -1  1  0   0  1  0   0  1 -1
                       0  0 -1   1  0 -1   0  1 -1       0  0  1  -1  0  1   0 -1  1
                      -1  1  0  -1  0  1  -1  0  0       1 -1  0   1  0 -1   1  0  0
           tolwfr      1.00000000E-20
            typat      1  2  3  3  3  3  3  3
           useylm           1
           xangst      0.0000000000E+00  0.0000000000E+00  0.0000000000E+00
                       3.2027904040E+00  2.2647148134E+00  5.5473957057E+00
                       3.8641634196E+00  1.3293921249E+00  6.6929273716E+00
                       4.5255364353E+00  3.2000375019E+00  5.5473957057E+00
                       2.5414173884E+00  3.2000375019E+00  4.4018640399E+00
                       2.5414173884E+00  3.2000375019E+00  6.6929273716E+00
                       3.8641634196E+00  1.3293921249E+00  4.4018640399E+00
                       1.8800443727E+00  1.3293921249E+00  5.5473957057E+00
            xcart      0.0000000000E+00  0.0000000000E+00  0.0000000000E+00
                       6.0523967246E+00  4.2796907664E+00  1.0483058635E+01
                       7.3022105958E+00  2.5121870393E+00  1.2647799760E+01
                       8.5520244671E+00  6.0471944935E+00  1.0483058635E+01
                       4.8025828534E+00  6.0471944935E+00  8.3183175096E+00
                       4.8025828534E+00  6.0471944935E+00  1.2647799760E+01
                       7.3022105958E+00  2.5121870393E+00  8.3183175096E+00
                       3.5527689821E+00  2.5121870393E+00  1.0483058635E+01
             xred      0.0000000000E+00  0.0000000000E+00  0.0000000000E+00
                       5.0000000000E-01  5.0000000000E-01  5.0000000000E-01
                       7.0649900000E-01  2.9350100000E-01  7.0649900000E-01
                       7.0649900000E-01  7.0649900000E-01  2.9350100000E-01
                       2.9350100000E-01  7.0649900000E-01  2.9350100000E-01
                       2.9350100000E-01  7.0649900000E-01  7.0649900000E-01
                       7.0649900000E-01  2.9350100000E-01  2.9350100000E-01
                       2.9350100000E-01  2.9350100000E-01  7.0649900000E-01
            znucl       11.00000   15.00000    9.00000

- Timing analysis has been suppressed with timopt=0

 Suggested references for the acknowledgment of ABINIT usage.

 Calculation completed.
.Delivered   6 WARNINGs and   5 COMMENTs to log file.