.Version 9.5.1 of ABINIT

 ABINIT is a project of the Universite Catholique de Louvain,
 Corning Inc. and other collaborators, see ~abinit/doc/developers/contributors.txt .
 acknowledgments of the ABINIT effort.

.Starting date : Wed 19 May 2021.
- ( at 01h42 )

- input  file    -> /scratch/users/j/a/jabreu/flow_simple_8atoms/flow/w466/t1/run.abi
- output file    -> /scratch/users/j/a/jabreu/flow_simple_8atoms/flow/w466/t1/run.abo
- root for input  files -> /scratch/users/j/a/jabreu/flow_simple_8atoms/flow/w466/t1/indata/in
- root for output files -> /scratch/users/j/a/jabreu/flow_simple_8atoms/flow/w466/t1/outdata/out

 Symmetries : space group I-4 2 m (#121); Bravais tI (body-center tetrag.)
     intxc =       0      iscf =       7    lmnmax =      18     lnmax =       6
     mgfft =      64  mpssoang =       3    mqgrid =    3001     natom =       8
  nloc_mem =       1    nspden =       1   nspinor =       1    nsppol =       1
      nsym =       8    n1xccc =    2501    ntypat =       4    occopt =       1
   xclevel =       2
-    mband =          52        mffmem =           1         mkmem =           2
-   mkqmem =           2        mk1mem =           2           mpw =       11351
      nfft =      262144          nkpt =           2
  Rough estimation (10% accuracy) of disk space for files :

------------- Echo of variables that govern the present computation ------------
-
- outvars: echo of selected default values
-   iomode0 =  0 , fftalg0 =512 , wfoptalg0 =  0
-
- outvars: echo of global parameters not present in the input file
-  max_nthreads =    0
-
 -outvars: echo values of preprocessed input variables --------
            acell      1.0000000000E+00  1.0000000000E+00  1.0000000000E+00 Bohr
              amu      3.90983000E+01  1.07868200E+02  7.49215900E+01
                       1.59994000E+01
             ecut      4.40000000E+01 Hartree
-          fftalg         512
           irdden           1
           irdwfk           1
           istwfk        0    1
              ixc     -116133
              kpt      5.00000000E-01  5.00000000E-01 -5.00000000E-01
                       0.00000000E+00  0.00000000E+00  0.00000000E+00
           kptopt           0
P           mkmem           2
P          mkqmem           2
P          mk1mem           2
            natom           8
            nband          52
           nbdbuf           4
            ngfft          64      64      64
             nkpt           2
            nstep        2000
             nsym           8
           ntypat           4
              occ      2.000000  2.000000  2.000000  2.000000  2.000000  2.000000
                       2.000000  2.000000  2.000000  2.000000  2.000000  2.000000
                       2.000000  2.000000  2.000000  2.000000  2.000000  2.000000
                       2.000000  2.000000  2.000000  2.000000  2.000000  2.000000
                       2.000000  2.000000  2.000000  2.000000  2.000000  2.000000
                       2.000000  2.000000  2.000000  2.000000  2.000000  2.000000
                       2.000000  2.000000  2.000000  2.000000  2.000000  2.000000
                       2.000000  0.000000  0.000000  0.000000  0.000000  0.000000
                       0.000000  0.000000  0.000000  0.000000
        optdriver           1
            prtwf          -1
            rfdir           1       1       1
           rfelfd           2
            rprim      9.3378205638E+00  0.0000000000E+00 -4.1885044472E+00
                      -3.9142116423E+00  8.4778440715E+00 -4.1885044472E+00
                       0.0000000000E+00  0.0000000000E+00  1.0234181080E+01
          spgroup         121
           symrel      1  0  0   0  1  0   0  0  1      -1 -1 -1   0  0  1   0  1  0
                       0  1  0   1  0  0  -1 -1 -1       0  0  1  -1 -1 -1   1  0  0
                       0  1  0   1  0  0   0  0  1      -1 -1 -1   0  0  1   1  0  0
                       1  0  0   0  1  0  -1 -1 -1       0  0  1  -1 -1 -1   0  1  0
           tolwfr      1.00000000E-20
            typat      1  2  2  3  4  4  4  4
           useylm           1
              wtk        0.50000    0.50000
           xangst      1.4350251148E+00  2.2431409303E+00 -2.2164610915E+00
                       3.1881934675E+00  1.1215704652E+00  4.9138659663E-01
                      -3.1814323796E-01  3.3647113955E+00  4.9138659663E-01
                       0.0000000000E+00  0.0000000000E+00  0.0000000000E+00
                       3.3502305461E+00  1.2697074922E-01 -1.5917803469E+00
                       2.7888220680E+00  4.3593111114E+00 -7.2465960198E-01
                       8.9011450815E-01  1.3913709700E+00  4.5807130592E-01
                      -1.2890666630E+00  3.0949108906E+00 -1.5917803469E+00
            xcart      2.7118044607E+00  4.2389220357E+00 -4.1885044472E+00
                       6.0248125123E+00  2.1194610179E+00  9.2858609300E-01
                      -6.0120359078E-01  6.3583830536E+00  9.2858609300E-01
                       0.0000000000E+00  0.0000000000E+00  0.0000000000E+00
                       6.3310182141E+00  2.3993994291E-01 -3.0080289193E+00
                       5.2701099418E+00  8.2379041286E+00 -1.3694081873E+00
                       1.6820726473E+00  2.6293100825E+00  8.6562931753E-01
                      -2.4359829602E+00  5.8485339890E+00 -3.0080289193E+00
             xred      5.0000000000E-01  5.0000000000E-01 -2.7755575616E-17
                       7.5000000000E-01  2.5000000000E-01  5.0000000000E-01
                       2.5000000000E-01  7.5000000000E-01  5.0000000000E-01
                       0.0000000000E+00  0.0000000000E+00  0.0000000000E+00
                       6.8986100000E-01  2.8302000000E-02 -5.5511151231E-17
                       9.7169800000E-01  9.7169800000E-01  6.6155900000E-01
                       3.1013900000E-01  3.1013900000E-01  3.3844100000E-01
                       2.8302000000E-02  6.8986100000E-01  0.0000000000E+00
            znucl       19.00000   47.00000   33.00000    8.00000

 chkinp: Checking input parameters for consistency.

== DATASET  1 ==================================================================
-   mpi_nproc: 1, omp_nthreads: -1 (-1 if OMP is not activated)

--- !DatasetInfo
iteration_state: {dtset: 1, }
dimensions: {natom: 8, nkpt: 2, mband: 52, nsppol: 1, nspinor: 1, nspden: 1, mpw: 11351, }
cutoff_energies: {ecut:  44.0, pawecutdg:  -1.0, }
electrons: {nelect:   8.60000000E+01, charge:   0.00000000E+00, occopt:   1.00000000E+00, tsmear:   1.00000000E-02, }
meta: {optdriver: 1, rfelfd: 2, }
...

 Real(R)+Recip(G) space primitive vectors, cartesian coordinates (Bohr,Bohr^-1):
 R(1)=  9.3378206  0.0000000 -4.1885044  G(1)=  0.1070914  0.0494440  0.0000000
 R(2)= -3.9142116  8.4778441 -4.1885044  G(2)=  0.0000000  0.1179545  0.0000000
 R(3)=  0.0000000  0.0000000 10.2341811  G(3)=  0.0438289  0.0685105  0.0977118
 Unit cell volume ucvol=  8.1018472E+02 bohr^3
 Angles (23,13,12)=  1.14158747E+02  1.14158747E+02  1.00455255E+02 degrees

 getcut: wavevector=  0.0000  0.0000  0.0000  ngfft=  64  64  64
         ecut(hartree)=     44.000   => boxcut(ratio)=   2.09432

--- Pseudopotential description ------------------------------------------------
- pspini: atom type   1  psp file is /scratch/users/j/a/jabreu/pseudos/PBEsol/K.psp8
- pspatm: opening atomic psp file    /scratch/users/j/a/jabreu/pseudos/PBEsol/K.psp8
- K     ONCVPSP-3.3.0  r_core=   1.36296   1.46408   1.61068
- 19.00000   9.00000    180112                znucl, zion, pspdat
    8 -116133    2    4       400   0.00000   pspcod,pspxc,lmax,lloc,mmax,r2well
    3.99000000000000    5.00000000000000    0.00000000000000   rchrg,fchrg,qchrg
     nproj     2     2     2
     extension_switch     1
  pspatm : epsatm=    8.32487830
         --- l  ekb(1:nproj) -->
             0   10.921326    0.816676
             1    4.431000    0.560368
             2   -3.384038   -1.043186
 pspatm: atomic psp has been read  and splines computed

- pspini: atom type   2  psp file is /scratch/users/j/a/jabreu/pseudos/PBEsol/Ag.psp8
- pspatm: opening atomic psp file    /scratch/users/j/a/jabreu/pseudos/PBEsol/Ag.psp8
- Ag    ONCVPSP-3.3.0  r_core=   1.41384   1.46535   1.61207
- 47.00000  19.00000    180112                znucl, zion, pspdat
    8 -116133    2    4       600   0.00000   pspcod,pspxc,lmax,lloc,mmax,r2well
    5.99000000000000    7.00000000000000    0.00000000000000   rchrg,fchrg,qchrg
     nproj     2     2     2
     extension_switch     1
  pspatm : epsatm=   27.64581383
         --- l  ekb(1:nproj) -->
             0    9.559407   -0.398585
             1    3.418858   -0.136622
             2   -1.644397   -0.401551
 pspatm: atomic psp has been read  and splines computed

[...]

- pspini: atom type   4  psp file is /scratch/users/j/a/jabreu/pseudos/PBEsol/O.psp8
- pspatm: opening atomic psp file    /scratch/users/j/a/jabreu/pseudos/PBEsol/O.psp8
- O     ONCVPSP-3.3.0  r_core=   1.35509   1.45563   1.26150
-  8.00000   6.00000    180112                znucl, zion, pspdat
    8 -116133    2    4       600   0.00000   pspcod,pspxc,lmax,lloc,mmax,r2well
    5.99000000000000    4.00000000000000    0.00000000000000   rchrg,fchrg,qchrg
     nproj     2     2     1
     extension_switch     1
  pspatm : epsatm=    6.22910522
         --- l  ekb(1:nproj) -->
             0    6.050032    0.820363
             1   -4.739617   -1.153841
             2   -1.335834
 pspatm: atomic psp has been read  and splines computed

   1.00899053E+04                                ecore*ucvol(ha*bohr**3)

-inwffil : will read wavefunctions from disk file /scratch/users/j/a/jabreu/flow_simple_8atoms/flow/w466/t1/indata/in_WFK

 ==>  initialize data related to q vector <==

 The list of irreducible perturbations for this q vector is:
    1)    idir= 1    ipert=   9
    2)    idir= 2    ipert=   9
    3)    idir= 3    ipert=   9

 Perturbation wavevector (in red.coord.)   0.000000  0.000000  0.000000
 Perturbation : derivative vs k along direction   1

 dfpt_looppert : COMMENT -
  In a d/dk calculation, iscf is set to -3 automatically.
 The set of symmetries contains only one element for this perturbation.
 symkpt : not enough symmetry to change the number of k points.

[...]

 Initialisation of the first-order wave-functions :
  ireadwf=   0

--- !BeginCycle
iteration_state: {dtset: 1, }
solver: {iscf: 7, nstep: 2000, nline: 4, wfoptalg: 0, }
tolerances: {tolwfr: 1.00E-20, }
...

     iter   2DEtotal(Ha)        deltaE(Ha) residm    vres2
-ETOT  1  -62.029266644663     -6.203E+01 7.514E-02 0.000E+00
 ETOT  2  -62.164674279455     -1.354E-01 9.630E-03 0.000E+00
 ETOT  3  -62.166414265943     -1.740E-03 6.818E-04 0.000E+00
 ETOT  4  -62.166462048304     -4.778E-05 3.697E-04 0.000E+00
 ETOT  5  -62.166463746041     -1.698E-06 3.162E-05 0.000E+00
 ETOT  6  -62.166463815915     -6.987E-08 1.949E-05 0.000E+00
 ETOT  7  -62.166463819063     -3.149E-09 1.744E-06 0.000E+00
 ETOT  8  -62.166463819215     -1.518E-10 1.079E-06 0.000E+00
 ETOT  9  -62.166463819223     -7.709E-12 1.010E-07 0.000E+00
 ETOT 10  -62.166463819223     -4.192E-13 6.150E-08 0.000E+00
[...]
 ETOT 14  -62.166463819224      7.105E-15 2.114E-10 0.000E+00
 ETOT 15  -62.166463819224      0.000E+00 2.148E-11 0.000E+00
 ETOT 16  -62.166463819224     -7.105E-15 1.262E-11 0.000E+00
 ETOT 17  -62.166463819224     -7.105E-15 1.295E-12 0.000E+00
 ETOT 18  -62.166463819224      0.000E+00 7.588E-13 0.000E+00
 ETOT 19  -62.166463819224     -1.421E-14 7.835E-14 0.000E+00
 ETOT 20  -62.166463819224      7.105E-15 4.588E-14 0.000E+00
 ETOT 21  -62.166463819224      0.000E+00 4.751E-15 0.000E+00
 ETOT 22  -62.166463819224      0.000E+00 2.784E-15 0.000E+00
 ETOT 23  -62.166463819224      1.421E-14 2.886E-16 0.000E+00
 ETOT 24  -62.166463819224     -1.421E-14 1.695E-16 0.000E+00
 ETOT 25  -62.166463819224      7.105E-15 1.756E-17 0.000E+00
 ETOT 26  -62.166463819224     -7.105E-15 1.035E-17 0.000E+00
 ETOT 27  -62.166463819224      7.105E-15 1.070E-18 0.000E+00
 ETOT 28  -62.166463819224     -7.105E-15 6.331E-19 0.000E+00
 ETOT 29  -62.166463819224      0.000E+00 6.529E-20 0.000E+00
 ETOT 30  -62.166463819224     -7.105E-15 3.880E-20 0.000E+00
 ETOT 31  -62.166463819224      7.105E-15 9.999E-21 0.000E+00

 At SCF step   31   max residual=  1.00E-20 < tolwfr=  1.00E-20 =>converged.

 ----iterations are completed or convergence reached----

 dfpt_looppert: DFPT cycle converged with prtwf=-1. Will skip output of the 1st-order WFK file.
 dfpt_looppert : ek2=    9.4475094393E+01
          f-sum rule ratio=    1.0354411876E+00
 prteigrs : about to open file /scratch/users/j/a/jabreu/flow_simple_8atoms/flow/w466/t1/tmpdata/tmp_1WF1_EIG
 Expectation of eigenvalue derivatives (hartree) for nkpt=   2  k points:
  (in case of degenerate eigenvalues, averaged derivative)
 kpt#   1, nband= 52, wtk=  0.50000, kpt=  0.5000  0.5000 -0.5000 (reduced coord)
   0.00000    0.00000   -0.00000   -0.00000    0.00000    0.00000   -0.00000   -0.00000
   0.00000    0.00000    0.00000   -0.00000    0.00000   -0.00000   -0.00000    0.00000
  -0.00000   -0.00000   -0.00000   -0.00000    0.00000    0.00000   -0.00000   -0.00000
   0.00000    0.00000    0.00000    0.00000   -0.00000   -0.00000    0.00000    0.00000
  -0.00000   -0.00000   -0.00000   -0.00000   -0.00000   -0.00000    0.00000    0.00000
  -0.00000   -0.00000   -0.00000   -0.00000   -0.00000   -0.00000   -0.00000    0.00000
   0.00000   -0.00000    0.00000    0.00116
 prteigrs : prtvol=0 or 1, do not print more k-points.

 Eight components of 2nd-order total energy (hartree) are
 1,2,3: 0th-order hamiltonian combined with 1st-order wavefunctions
     kin0=   8.67441924E+01 eigvalue=   2.91713224E+00  local=  -3.77639962E+01
 4,5,6: 1st-order hamiltonian combined with 1st and 0th-order wfs
     kin1=  -9.78234039E+01  Hartree=   0.00000000E+00     xc=   0.00000000E+00
 7,8,9: eventually, occupation + non-local contributions
    edocc=   8.52902358E+00     enl0=   1.74011175E+00   enl1=  -2.65095237E+01
 1-9 gives the relaxation energy (to be shifted if some occ is /=2.0)
   erelax=  -6.21664638E+01
  No Ewald or frozen-wf contrib.: the relaxation energy is the total one
 2DEtotal=   -0.6216646382E+02 Ha. Also 2DEtotal=   -0.169163551020E+04 eV
    (  non-var. 2DEtotal :   -6.2166463819E+01 Ha)

 Perturbation wavevector (in red.coord.)   0.000000  0.000000  0.000000
 Perturbation : derivative vs k along direction   2
 The set of symmetries contains only one element for this perturbation.
 symkpt : not enough symmetry to change the number of k points.

[...]

 Perturbation wavevector (in red.coord.)   0.000000  0.000000  0.000000
 Perturbation : derivative vs k along direction   3
 The set of symmetries contains only one element for this perturbation.
 symkpt : not enough symmetry to change the number of k points.

-inwffil : will read wavefunctions from disk file /scratch/users/j/a/jabreu/flow_simple_8atoms/flow/w466/t1/indata/in_WFK

 Initialisation of the first-order wave-functions :
  ireadwf=   0

--- !BeginCycle
iteration_state: {dtset: 1, }
solver: {iscf: 7, nstep: 2000, nline: 4, wfoptalg: 0, }
tolerances: {tolwfr: 1.00E-20, }
...

     iter   2DEtotal(Ha)        deltaE(Ha) residm    vres2
-ETOT  1  -71.905028236451     -7.191E+01 1.818E-01 0.000E+00
 ETOT  2  -72.025555697847     -1.205E-01 1.152E-02 0.000E+00
 ETOT  3  -72.027236074753     -1.680E-03 1.072E-03 0.000E+00
 ETOT  4  -72.027284461985     -4.839E-05 1.248E-04 0.000E+00
 ETOT  5  -72.027286173431     -1.711E-06 1.266E-05 0.000E+00
 ETOT  6  -72.027286239459     -6.603E-08 1.877E-06 0.000E+00
 ETOT  7  -72.027286242179     -2.720E-09 1.802E-07 0.000E+00
 ETOT  8  -72.027286242296     -1.177E-10 3.207E-08 0.000E+00
 ETOT  9  -72.027286242302     -5.329E-12 2.976E-09 0.000E+00
 ETOT 10  -72.027286242302     -2.984E-13 5.861E-10 0.000E+00
 ETOT 11  -72.027286242302     -2.842E-14 5.320E-11 0.000E+00
 ETOT 12  -72.027286242302      4.263E-14 1.110E-11 0.000E+00
 ETOT 13  -72.027286242302      1.421E-14 9.873E-13 0.000E+00
 ETOT 14  -72.027286242302     -2.842E-14 2.148E-13 0.000E+00
 ETOT 15  -72.027286242302     -2.842E-14 1.867E-14 0.000E+00
 ETOT 16  -72.027286242302      0.000E+00 4.214E-15 0.000E+00
 ETOT 17  -72.027286242302      2.842E-14 4.133E-16 0.000E+00
 ETOT 18  -72.027286242302     -1.421E-14 1.200E-16 0.000E+00
 ETOT 19  -72.027286242302      1.421E-14 1.536E-17 0.000E+00
 ETOT 20  -72.027286242302      0.000E+00 4.478E-18 0.000E+00
 ETOT 21  -72.027286242302      0.000E+00 6.600E-19 0.000E+00
 ETOT 22  -72.027286242302      0.000E+00 2.672E-19 0.000E+00
 ETOT 23  -72.027286242302     -1.421E-14 5.612E-20 0.000E+00
 ETOT 24  -72.027286242302     -1.421E-14 2.290E-20 0.000E+00
 ETOT 25  -72.027286242302      1.421E-14 9.981E-21 0.000E+00

 At SCF step   25   max residual=  9.98E-21 < tolwfr=  1.00E-20 =>converged.

 ----iterations are completed or convergence reached----

 dfpt_looppert: DFPT cycle converged with prtwf=-1. Will skip output of the 1st-order WFK file.
 dfpt_looppert : ek2=    1.0974637206E+02
          f-sum rule ratio=    1.0312493707E+00
 prteigrs : about to open file /scratch/users/j/a/jabreu/flow_simple_8atoms/flow/w466/t1/tmpdata/tmp_1WF1_EIG
 Expectation of eigenvalue derivatives (hartree) for nkpt=   2  k points:
  (in case of degenerate eigenvalues, averaged derivative)
 kpt#   1, nband= 52, wtk=  0.50000, kpt=  0.5000  0.5000 -0.5000 (reduced coord)
   0.00000    0.00000    0.00000   -0.00000    0.00000    0.00000   -0.00000   -0.00000
   0.00000    0.00000    0.00000   -0.00000    0.00000   -0.00000   -0.00000   -0.00000
  -0.00000   -0.00000   -0.00000   -0.00000    0.00000   -0.00000   -0.00000   -0.00000
   0.00000    0.00000    0.00000   -0.00000   -0.00000   -0.00000   -0.00000    0.00000
  -0.00000   -0.00000   -0.00000   -0.00000   -0.00000   -0.00000   -0.00000   -0.00000
  -0.00000   -0.00000   -0.00000   -0.00000    0.00000   -0.00000    0.00000   -0.00000
  -0.00000   -0.00000    0.00000    0.00156
 prteigrs : prtvol=0 or 1, do not print more k-points.

 Eight components of 2nd-order total energy (hartree) are
 1,2,3: 0th-order hamiltonian combined with 1st-order wavefunctions
     kin0=   1.01366123E+02 eigvalue=   3.28549274E+00  local=  -4.43366583E+01
 4,5,6: 1st-order hamiltonian combined with 1st and 0th-order wfs
     kin1=  -1.13175877E+02  Hartree=   0.00000000E+00     xc=   0.00000000E+00
 7,8,9: eventually, occupation + non-local contributions
    edocc=   9.77173632E+00     enl0=   1.94059201E+00   enl1=  -3.08786954E+01
 1-9 gives the relaxation energy (to be shifted if some occ is /=2.0)
   erelax=  -7.20272862E+01
  No Ewald or frozen-wf contrib.: the relaxation energy is the total one
 2DEtotal=   -0.7202728624E+02 Ha. Also 2DEtotal=   -0.195996213433E+04 eV
    (  non-var. 2DEtotal :   -7.2027286242E+01 Ha)

 CALCULATION OF EFFECTIVE MASSES
 NOTE : Additional infos (eff. mass eigenvalues, eigenvectors and, if degenerate, average mass) are available in stdout.

 K-point ( 0.500, 0.500,-0.500) | band =    43
 Effective mass tensor:
             -1.0804658423             -0.3660692399              0.3616813044
             -0.3660692399             -1.4184044768              0.5653615630
              0.3616813044              0.5653615630             -1.4049559707
 Effective mass tensor eigenvalues:
             -2.2112692914             -0.8463172804             -0.8462397181
 Angular average effective mass 1/(<1/m>)=  -1.0655236033
 Angular average effective mass for Frohlich model (<m**0.5>)**2=  -1.1198504127
 Effective masses along directions: (cart. coord. / red. coord. -> eff. mass)
    1:   1.000000  0.000000  0.000000 /   0.922252 -0.386588  0.000000 ->  -0.9465209240
    2:   0.000000  1.000000  0.000000 /   0.000000  1.000000  0.000000 ->  -1.1416452686
    3:   0.000000  0.000000  1.000000 /  -0.354214 -0.354214  0.865485 ->  -1.1323904083
    4:   0.577350  0.577350  0.577350 /   0.449222  0.032726  0.892821 ->  -0.8784849313
    5:   0.000000  0.707107  0.707107 /  -0.353136  0.361638  0.862852 ->  -0.8462938578
    6:   0.707107  0.000000  0.707107 /   0.366959 -0.577430  0.729326 ->  -0.8598115590
    7:   0.707107  0.707107  0.000000 /   0.898442  0.439092  0.000000 ->  -1.2977312667

 K-point ( 0.000, 0.000, 0.000) | band =    44
 Effective mass tensor:
              0.2750824572              0.0020443344             -0.0020200133
              0.0020443344              0.2769701662             -0.0031575584
             -0.0020200133             -0.0031575584              0.2768945889
 Effective mass tensor eigenvalues:
              0.2737745930              0.2737746127              0.2813980066
 Angular average effective mass 1/(<1/m>)=   0.2762694243
 Angular average effective mass for Frohlich model (<m**0.5>)**2=   0.2762832507
 Effective masses along directions: (cart. coord. / red. coord. -> eff. mass)
    1:   1.000000  0.000000  0.000000 /   0.922252 -0.386588  0.000000 ->   0.2750529676
    2:   0.000000  1.000000  0.000000 /   0.000000  1.000000  0.000000 ->   0.2769193058
    3:   0.000000  0.000000  1.000000 /  -0.354214 -0.354214  0.865485 ->   0.2768440976
    4:   0.577350  0.577350  0.577350 /   0.449222  0.032726  0.892821 ->   0.2742153674
    5:   0.000000  0.707107  0.707107 /  -0.353136  0.361638  0.862852 ->   0.2737748130
    6:   0.707107  0.000000  0.707107 /   0.366959 -0.577430  0.729326 ->   0.2739633868
    7:   0.707107  0.707107  0.000000 /   0.898442  0.439092  0.000000 ->   0.2780190604

 END OF EFFECTIVE MASSES SECTION

 ---- first-order wavefunction calculations are completed ----

 Total localisation tensor (bohr^2) in cartesian coordinates
  WARNING : still subject to testing - especially symmetries.
      direction              matrix element
   alpha     beta       real part   imaginary part
     1        1       1.1357359155    0.0000000000
     1        2      -0.3676366909    0.0000000000
     1        3      -0.2516691752    0.0000000000
     2        1      -0.3676366909    0.0000000000
     2        2       0.7962692938    0.0000000000
     2        3      -0.3933992475    0.0000000000
     3        1      -0.2516691752    0.0000000000
     3        2      -0.3933992475    0.0000000000
     3        3       1.6276357784    0.0000000000

 respfn : d/dk was computed, but no 2DTE, so no DDB output.

== END DATASET(S) ==============================================================

 -outvars: echo values of variables after computation  --------
            acell      1.0000000000E+00  1.0000000000E+00  1.0000000000E+00 Bohr
              amu      3.90983000E+01  1.07868200E+02  7.49215900E+01
                       1.59994000E+01
             ecut      4.40000000E+01 Hartree
           etotal     -7.2027286242E+01
            fcart      0.0000000000E+00  0.0000000000E+00  0.0000000000E+00
                       0.0000000000E+00  0.0000000000E+00  0.0000000000E+00
                       0.0000000000E+00  0.0000000000E+00  0.0000000000E+00
                       0.0000000000E+00  0.0000000000E+00  0.0000000000E+00
                       0.0000000000E+00  0.0000000000E+00  0.0000000000E+00
                       0.0000000000E+00  0.0000000000E+00  0.0000000000E+00
                       0.0000000000E+00  0.0000000000E+00  0.0000000000E+00
                       0.0000000000E+00  0.0000000000E+00  0.0000000000E+00
-          fftalg         512
           irdden           1
           irdwfk           1
           istwfk        0    1
              ixc     -116133
              kpt      5.00000000E-01  5.00000000E-01 -5.00000000E-01
                       0.00000000E+00  0.00000000E+00  0.00000000E+00
           kptopt           0
P           mkmem           2
P          mkqmem           2
P          mk1mem           2
            natom           8
            nband          52
           nbdbuf           4
            ngfft          64      64      64
             nkpt           2
            nstep        2000
             nsym           8
           ntypat           4
              occ      2.000000  2.000000  2.000000  2.000000  2.000000  2.000000
                       2.000000  2.000000  2.000000  2.000000  2.000000  2.000000
                       2.000000  2.000000  2.000000  2.000000  2.000000  2.000000
                       2.000000  2.000000  2.000000  2.000000  2.000000  2.000000
                       2.000000  2.000000  2.000000  2.000000  2.000000  2.000000
                       2.000000  2.000000  2.000000  2.000000  2.000000  2.000000
                       2.000000  2.000000  2.000000  2.000000  2.000000  2.000000
                       2.000000  0.000000  0.000000  0.000000  0.000000  0.000000
                       0.000000  0.000000  0.000000  0.000000
        optdriver           1
            prtwf          -1
            rfdir           1       1       1
           rfelfd           2
            rprim      9.3378205638E+00  0.0000000000E+00 -4.1885044472E+00
                      -3.9142116423E+00  8.4778440715E+00 -4.1885044472E+00
                       0.0000000000E+00  0.0000000000E+00  1.0234181080E+01
          spgroup         121
           strten      0.0000000000E+00  0.0000000000E+00  0.0000000000E+00
                       0.0000000000E+00  0.0000000000E+00  0.0000000000E+00
           symrel      1  0  0   0  1  0   0  0  1      -1 -1 -1   0  0  1   0  1  0
                       0  1  0   1  0  0  -1 -1 -1       0  0  1  -1 -1 -1   1  0  0
                       0  1  0   1  0  0   0  0  1      -1 -1 -1   0  0  1   1  0  0
                       1  0  0   0  1  0  -1 -1 -1       0  0  1  -1 -1 -1   0  1  0
           tolwfr      1.00000000E-20
            typat      1  2  2  3  4  4  4  4
           useylm           1
              wtk        0.50000    0.50000
           xangst      1.4350251148E+00  2.2431409303E+00 -2.2164610915E+00
                       3.1881934675E+00  1.1215704652E+00  4.9138659663E-01
                      -3.1814323796E-01  3.3647113955E+00  4.9138659663E-01
                       0.0000000000E+00  0.0000000000E+00  0.0000000000E+00
                       3.3502305461E+00  1.2697074922E-01 -1.5917803469E+00
                       2.7888220680E+00  4.3593111114E+00 -7.2465960198E-01
                       8.9011450815E-01  1.3913709700E+00  4.5807130592E-01
                      -1.2890666630E+00  3.0949108906E+00 -1.5917803469E+00
            xcart      2.7118044607E+00  4.2389220357E+00 -4.1885044472E+00
                       6.0248125123E+00  2.1194610179E+00  9.2858609300E-01
                      -6.0120359078E-01  6.3583830536E+00  9.2858609300E-01
                       0.0000000000E+00  0.0000000000E+00  0.0000000000E+00
                       6.3310182141E+00  2.3993994291E-01 -3.0080289193E+00
                       5.2701099418E+00  8.2379041286E+00 -1.3694081873E+00
                       1.6820726473E+00  2.6293100825E+00  8.6562931753E-01
                      -2.4359829602E+00  5.8485339890E+00 -3.0080289193E+00
             xred      5.0000000000E-01  5.0000000000E-01 -2.7755575616E-17
                       7.5000000000E-01  2.5000000000E-01  5.0000000000E-01
                       2.5000000000E-01  7.5000000000E-01  5.0000000000E-01
                       0.0000000000E+00  0.0000000000E+00  0.0000000000E+00
                       6.8986100000E-01  2.8302000000E-02 -5.5511151231E-17
                       9.7169800000E-01  9.7169800000E-01  6.6155900000E-01
                       3.1013900000E-01  3.1013900000E-01  3.3844100000E-01
                       2.8302000000E-02  6.8986100000E-01  0.0000000000E+00
            znucl       19.00000   47.00000   33.00000    8.00000

- Timing analysis has been suppressed with timopt=0

 Suggested references for the acknowledgment of ABINIT usage.

 Calculation completed.
.Delivered  14 WARNINGs and   9 COMMENTs to log file.