.Version 9.5.2 of ABINIT

 ABINIT is a project of the Universite Catholique de Louvain,
 Corning Inc. and other collaborators, see ~abinit/doc/developers/contributors.txt .
 acknowledgments of the ABINIT effort.

.Starting date : Wed 26 May 2021.
- ( at 02h08 )

- input  file    -> /scratch/users/j/a/jabreu/flow_simple_11atoms/flow/w215/t1/run.abi
- output file    -> /scratch/users/j/a/jabreu/flow_simple_11atoms/flow/w215/t1/run.abo
- root for input  files -> /scratch/users/j/a/jabreu/flow_simple_11atoms/flow/w215/t1/indata/in
- root for output files -> /scratch/users/j/a/jabreu/flow_simple_11atoms/flow/w215/t1/outdata/out

 Symmetries : space group Cm c 2_1 (# 36); Bravais oC (1-face-center ortho.)
     intxc =       0      iscf =       7    lmnmax =      18     lnmax =       6
     mgfft =      60  mpssoang =       3    mqgrid =    3001     natom =      12
  nloc_mem =       1    nspden =       1   nspinor =       1    nsppol =       1
      nsym =       4    n1xccc =    2501    ntypat =       4    occopt =       1
   xclevel =       2
-    mband =          37        mffmem =           1         mkmem =           2
-   mkqmem =           2        mk1mem =           2           mpw =       10797
      nfft =      194400          nkpt =           2
  Rough estimation (10% accuracy) of disk space for files :

------------- Echo of variables that govern the present computation ------------
-
- outvars: echo of selected default values
-   iomode0 =  0 , fftalg0 =512 , wfoptalg0 =  0
-
- outvars: echo of global parameters not present in the input file
-  max_nthreads =    0
-
 -outvars: echo values of preprocessed input variables --------
            acell      1.0000000000E+00  1.0000000000E+00  1.0000000000E+00 Bohr
              amu      6.94100000E+00  3.09737620E+01  1.40067400E+01
                       1.59994000E+01
             ecut      4.40000000E+01 Hartree
-          fftalg         512
           irdden           1
           irdwfk           1
           istwfk        0    1
              ixc     -116133
              kpt      0.00000000E+00  0.00000000E+00  3.09523810E-01
                       0.00000000E+00  0.00000000E+00  0.00000000E+00
           kptopt           0
P           mkmem           2
P          mkqmem           2
P          mk1mem           2
            natom          12
            nband          37
           nbdbuf           4
            ngfft          60      60      54
             nkpt           2
            nstep        2000
             nsym           4
           ntypat           4
              occ      2.000000  2.000000  2.000000  2.000000  2.000000  2.000000
                       2.000000  2.000000  2.000000  2.000000  2.000000  2.000000
                       2.000000  2.000000  2.000000  2.000000  2.000000  2.000000
                       2.000000  2.000000  2.000000  2.000000  2.000000  2.000000
                       2.000000  2.000000  2.000000  2.000000  0.000000  0.000000
                       0.000000  0.000000  0.000000  0.000000  0.000000  0.000000
                       0.000000
        optdriver           1
            prtwf          -1
            rfdir           1       1       1
           rfelfd           2
            rprim      9.9237491559E+00  0.0000000000E+00  0.0000000000E+00
                      -4.6937595756E+00  8.7435358040E+00  0.0000000000E+00
                       0.0000000000E+00  0.0000000000E+00  8.8899743093E+00
          spgroup          36
           symrel      1  0  0   0  1  0   0  0  1       0  1  0   1  0  0   0  0  1
                      -1  0  0   0 -1  0   0  0  1       0 -1  0  -1  0  0   0  0  1
            tnons      0.0000000  0.0000000  0.0000000     0.0000000  0.0000000  0.0000000
                       0.0000000  0.0000000  0.5000000     0.0000000  0.0000000  0.5000000
           tolwfr      1.00000000E-20
            typat      1  1  1  1  2  2  3  3  4  4  4  4
           useylm           1
              wtk        0.50000    0.50000
           xangst     -7.6046237625E-01  4.5928399148E+00  2.3444424988E+00
                       4.4063072444E+00  1.5023108787E+00  2.3444424988E+00
                       3.5280536633E+00  3.4039955203E-02  4.6966283935E+00
                      -1.6387159573E+00  3.1245689912E+00  4.6966283935E+00
                       1.8145352487E+00  3.0335536373E+00  2.3555871555E+00
                       9.5305603839E-01  1.5933262327E+00  3.4012608038E-03
                       1.0639977027E+00  1.7787993391E+00  3.0841720320E+00
                       1.7035935843E+00  2.8480805308E+00  7.3198613732E-01
                       3.3184738389E+00  3.0872300707E+00  2.7425828920E+00
                       1.1504914242E+00  4.3840195725E+00  2.7425828920E+00
                      -5.5088255189E-01  1.5396497993E+00  3.9039699732E-01
                       1.6170998628E+00  2.4286029749E-01  3.9039699732E-01
            xcart     -1.4370656255E+00  8.6792096111E+00  4.4303542569E+00
                       8.3267139492E+00  2.8389561273E+00  4.4303542569E+00
                       6.6670552058E+00  6.4326192910E-02  8.8753414116E+00
                      -3.0967243689E+00  5.9045796767E+00  8.8753414116E+00
                       3.4289746785E+00  5.7325855839E+00  4.4514146061E+00
                       1.8010149018E+00  3.0109502201E+00  6.4274514256E-03
                       2.0106642642E+00  3.3614435963E+00  5.8282404873E+00
                       3.2193253161E+00  5.3820922077E+00  1.3832533326E+00
                       6.2710067348E+00  5.8340193428E+00  5.1827305627E+00
                       2.1741137100E+00  8.2845963532E+00  5.1827305627E+00
                      -1.0410171545E+00  2.9095164612E+00  7.3774340803E-01
                       3.0558758703E+00  4.5893945082E-01  7.3774340803E-01
             xred      3.2469200000E-01  9.9264300000E-01  4.9835400000E-01
                       9.9264300000E-01  3.2469200000E-01  4.9835400000E-01
                       6.7530800000E-01  7.3570000000E-03  9.9835400000E-01
                       7.3570000000E-03  6.7530800000E-01  9.9835400000E-01
                       6.5563700000E-01  6.5563700000E-01  5.0072300000E-01
                       3.4436300000E-01  3.4436300000E-01  7.2300000000E-04
                       3.8444900000E-01  3.8444900000E-01  6.5559700000E-01
                       6.1555100000E-01  6.1555100000E-01  1.5559700000E-01
                       9.4751100000E-01  6.6723800000E-01  5.8298600000E-01
                       6.6723800000E-01  9.4751100000E-01  5.8298600000E-01
                       5.2489000000E-02  3.3276200000E-01  8.2986000000E-02
                       3.3276200000E-01  5.2489000000E-02  8.2986000000E-02
            znucl        3.00000   15.00000    7.00000    8.00000

 chkinp: Checking input parameters for consistency.

== DATASET  1 ==================================================================
-   mpi_nproc: 1, omp_nthreads: -1 (-1 if OMP is not activated)

--- !DatasetInfo
iteration_state: {dtset: 1, }
dimensions: {natom: 12, nkpt: 2, mband: 37, nsppol: 1, nspinor: 1, nspden: 1, mpw: 10797, }
cutoff_energies: {ecut:  44.0, pawecutdg:  -1.0, }
electrons: {nelect:   5.60000000E+01, charge:   0.00000000E+00, occopt:   1.00000000E+00, tsmear:   1.00000000E-02, }
meta: {optdriver: 1, rfelfd: 2, }
...

 Real(R)+Recip(G) space primitive vectors, cartesian coordinates (Bohr,Bohr^-1):
 R(1)=  9.9237492  0.0000000  0.0000000  G(1)=  0.1007684  0.0540951  0.0000000
 R(2)= -4.6937596  8.7435358  0.0000000  G(2)=  0.0000000  0.1143702  0.0000000
 R(3)=  0.0000000  0.0000000  8.8899743  G(3)=  0.0000000  0.0000000  0.1124863
 Unit cell volume ucvol=  7.7137112E+02 bohr^3
 Angles (23,13,12)=  9.00000000E+01  9.00000000E+01  1.18228071E+02 degrees

 getcut: wavevector=  0.0000  0.0000  0.0000  ngfft=  60  60  54
         ecut(hartree)=     44.000   => boxcut(ratio)=   2.02486

--- Pseudopotential description ------------------------------------------------
- pspini: atom type   1  psp file is /scratch/users/j/a/jabreu/pseudos/PBEsol/Li.psp8
- pspatm: opening atomic psp file    /scratch/users/j/a/jabreu/pseudos/PBEsol/Li.psp8
- Li    ONCVPSP-3.3.0  r_core=   1.40824   1.10935
-  3.00000   3.00000    180112                znucl, zion, pspdat
    8 -116133    1    4       400   0.00000   pspcod,pspxc,lmax,lloc,mmax,r2well
    3.99000000000000    0.00000000000000    0.00000000000000   rchrg,fchrg,qchrg
     nproj     2     2
     extension_switch     1
  pspatm : epsatm=    2.60859637
         --- l  ekb(1:nproj) -->
             0   -4.855856   -1.482423
             1   -2.171544   -0.427615
 pspatm: atomic psp has been read  and splines computed

- pspini: atom type   2  psp file is /scratch/users/j/a/jabreu/pseudos/PBEsol/P.psp8
- pspatm: opening atomic psp file    /scratch/users/j/a/jabreu/pseudos/PBEsol/P.psp8
- P     ONCVPSP-3.3.0  r_core=   1.46089   1.55067   1.70594
- 15.00000   5.00000    180112                znucl, zion, pspdat
    8 -116133    2    4       600   0.00000   pspcod,pspxc,lmax,lloc,mmax,r2well
    5.99000000000000    5.00000000000000    0.00000000000000   rchrg,fchrg,qchrg
     nproj     2     2     2
     extension_switch     1
  pspatm : epsatm=    7.31221086
         --- l  ekb(1:nproj) -->
             0    6.742364    1.063650
             1    3.449117    0.910422
             2   -3.077645   -0.799176
 pspatm: atomic psp has been read  and splines computed

[...]

- pspini: atom type   4  psp file is /scratch/users/j/a/jabreu/pseudos/PBEsol/O.psp8
- pspatm: opening atomic psp file    /scratch/users/j/a/jabreu/pseudos/PBEsol/O.psp8
- O     ONCVPSP-3.3.0  r_core=   1.35509   1.45563   1.26150
-  8.00000   6.00000    180112                znucl, zion, pspdat
    8 -116133    2    4       600   0.00000   pspcod,pspxc,lmax,lloc,mmax,r2well
    5.99000000000000    4.00000000000000    0.00000000000000   rchrg,fchrg,qchrg
     nproj     2     2     1
     extension_switch     1
  pspatm : epsatm=    6.22910522
         --- l  ekb(1:nproj) -->
             0    6.050032    0.820363
             1   -4.739617   -1.153841
             2   -1.335834
 pspatm: atomic psp has been read  and splines computed

   3.38830273E+03                                ecore*ucvol(ha*bohr**3)

 ==>  initialize data related to q vector <==

 The list of irreducible perturbations for this q vector is:
    1)    idir= 1    ipert=  13
    2)    idir= 2    ipert=  13
    3)    idir= 3    ipert=  13

 Perturbation wavevector (in red.coord.)   0.000000  0.000000  0.000000
 Perturbation : derivative vs k along direction   1

 dfpt_looppert : COMMENT -
  In a d/dk calculation, iscf is set to -3 automatically.
 The set of symmetries contains only one element for this perturbation.
 symkpt : not enough symmetry to change the number of k points.

 Initialisation of the first-order wave-functions :
  ireadwf=   0

--- !BeginCycle
iteration_state: {dtset: 1, }
solver: {iscf: 7, nstep: 2000, nline: 4, wfoptalg: 0, }
tolerances: {tolwfr: 1.00E-20, }
...

     iter   2DEtotal(Ha)        deltaE(Ha) residm    vres2
-ETOT  1  -30.027001385397     -3.003E+01 1.134E-01 0.000E+00
[...]
 ETOT 21  -30.056988417809      0.000E+00 5.336E-18 0.000E+00
 ETOT 22  -30.056988417809      3.553E-15 1.270E-18 0.000E+00
 ETOT 23  -30.056988417809     -3.553E-15 1.606E-19 0.000E+00
 ETOT 24  -30.056988417809     -3.553E-15 3.829E-20 0.000E+00
 ETOT 25  -30.056988417809      3.553E-15 9.852E-21 0.000E+00

 At SCF step   25   max residual=  9.85E-21 < tolwfr=  1.00E-20 =>converged.

 ----iterations are completed or convergence reached----

 dfpt_looppert: DFPT cycle converged with prtwf=-1. Will skip output of the 1st-order WFK file.
 dfpt_looppert : ek2=    5.7836709118E+01
          f-sum rule ratio=    1.0229344740E+00
 prteigrs : about to open file /scratch/users/j/a/jabreu/flow_simple_11atoms/flow/w215/t1/tmpdata/tmp_1WF1_EIG
 Expectation of eigenvalue derivatives (hartree) for nkpt=   2  k points:
  (in case of degenerate eigenvalues, averaged derivative)
 kpt#   1, nband= 37, wtk=  0.50000, kpt=  0.0000  0.0000  0.3095 (reduced coord)
  -0.00000    0.00000   -0.00000   -0.00000    0.00000    0.00000   -0.00000    0.00000
   0.00000   -0.00000    0.00000   -0.00000    0.00000   -0.00000   -0.00000   -0.00000
  -0.00000    0.00000   -0.00000    0.00000   -0.00000    0.00000   -0.00000   -0.00000
  -0.00000   -0.00000   -0.00000    0.00000   -0.00000    0.00000    0.00000   -0.00000
  -0.00000   -0.00000    0.00000   -0.00000   -0.00214
 prteigrs : prtvol=0 or 1, do not print more k-points.

 Eight components of 2nd-order total energy (hartree) are
 1,2,3: 0th-order hamiltonian combined with 1st-order wavefunctions
     kin0=   4.10261203E+01 eigvalue=   2.08740373E+00  local=  -1.70037381E+01
 4,5,6: 1st-order hamiltonian combined with 1st and 0th-order wfs
     kin1=  -5.91631636E+01  Hartree=   0.00000000E+00     xc=   0.00000000E+00
 7,8,9: eventually, occupation + non-local contributions
    edocc=   6.23488333E+00     enl0=  -2.28768088E+00   enl1=  -9.50813216E-01
 1-9 gives the relaxation energy (to be shifted if some occ is /=2.0)
   erelax=  -3.00569884E+01
  No Ewald or frozen-wf contrib.: the relaxation energy is the total one
 2DEtotal=   -0.3005698842E+02 Ha. Also 2DEtotal=   -0.817892249513E+03 eV
    (  non-var. 2DEtotal :   -3.0056988418E+01 Ha)

 Perturbation wavevector (in red.coord.)   0.000000  0.000000  0.000000
 Perturbation : derivative vs k along direction   2
 The set of symmetries contains only one element for this perturbation.
 symkpt : not enough symmetry to change the number of k points.

[...]

 Perturbation wavevector (in red.coord.)   0.000000  0.000000  0.000000
 Perturbation : derivative vs k along direction   3
 The set of symmetries contains only one element for this perturbation.
 symkpt : not enough symmetry to change the number of k points.

 Initialisation of the first-order wave-functions :
  ireadwf=   0

--- !BeginCycle
iteration_state: {dtset: 1, }
solver: {iscf: 7, nstep: 2000, nline: 4, wfoptalg: 0, }
tolerances: {tolwfr: 1.00E-20, }
...

     iter   2DEtotal(Ha)        deltaE(Ha) residm    vres2
-ETOT  1  -28.544771640473     -2.854E+01 1.455E-01 0.000E+00
 ETOT  2  -28.562688190331     -1.792E-02 2.051E-02 0.000E+00
 ETOT  3  -28.562747996800     -5.981E-05 1.790E-03 0.000E+00
 ETOT  4  -28.562748423098     -4.263E-07 4.648E-04 0.000E+00
 ETOT  5  -28.562748427071     -3.973E-09 6.479E-05 0.000E+00
 ETOT  6  -28.562748427113     -4.221E-11 1.548E-05 0.000E+00
 ETOT  7  -28.562748427114     -4.903E-13 2.331E-06 0.000E+00
 ETOT  8  -28.562748427114     -3.197E-14 5.483E-07 0.000E+00
 ETOT  9  -28.562748427114      1.421E-14 8.541E-08 0.000E+00
 ETOT 10  -28.562748427114      0.000E+00 1.988E-08 0.000E+00
 ETOT 11  -28.562748427114      0.000E+00 3.162E-09 0.000E+00
 ETOT 12  -28.562748427114      0.000E+00 7.296E-10 0.000E+00
 ETOT 13  -28.562748427114      1.066E-14 1.179E-10 0.000E+00
 ETOT 14  -28.562748427114      3.553E-15 2.710E-11 0.000E+00
 ETOT 15  -28.562748427114     -7.105E-15 4.439E-12 0.000E+00
 ETOT 16  -28.562748427114     -1.066E-14 1.029E-12 0.000E+00
 ETOT 17  -28.562748427114      0.000E+00 1.705E-13 0.000E+00
 ETOT 18  -28.562748427114      3.553E-15 3.909E-14 0.000E+00
 ETOT 19  -28.562748427114      0.000E+00 6.626E-15 0.000E+00
 ETOT 20  -28.562748427114      7.105E-15 1.506E-15 0.000E+00
 ETOT 21  -28.562748427114     -7.105E-15 2.589E-16 0.000E+00
 ETOT 22  -28.562748427114      0.000E+00 5.857E-17 0.000E+00
 ETOT 23  -28.562748427114      3.553E-15 1.014E-17 0.000E+00
 ETOT 24  -28.562748427114     -3.553E-15 2.286E-18 0.000E+00
 ETOT 25  -28.562748427114      7.105E-15 3.976E-19 0.000E+00
 ETOT 26  -28.562748427114     -7.105E-15 8.937E-20 0.000E+00
 ETOT 27  -28.562748427114      1.421E-14 1.561E-20 0.000E+00
 ETOT 28  -28.562748427114      7.105E-15 9.712E-21 0.000E+00

 At SCF step   28   max residual=  9.71E-21 < tolwfr=  1.00E-20 =>converged.

 ----iterations are completed or convergence reached----

 dfpt_looppert: DFPT cycle converged with prtwf=-1. Will skip output of the 1st-order WFK file.
 dfpt_looppert : ek2=    5.5946992768E+01
          f-sum rule ratio=    9.9857342228E-01
 prteigrs : about to open file /scratch/users/j/a/jabreu/flow_simple_11atoms/flow/w215/t1/tmpdata/tmp_1WF1_EIG
 Expectation of eigenvalue derivatives (hartree) for nkpt=   2  k points:
  (in case of degenerate eigenvalues, averaged derivative)
 kpt#   1, nband= 37, wtk=  0.50000, kpt=  0.0000  0.0000  0.3095 (reduced coord)
   0.00135   -0.00133    0.00012   -0.00010    0.03577   -0.03227    0.00077   -0.00180
   0.04762   -0.10213    0.13689   -0.12784    0.08006    0.05671    0.06275   -0.06303
  -0.00737    0.07134   -0.00347   -0.02052    0.00846   -0.20140   -0.00973   -0.01201
   0.06098   -0.00647    0.06432    0.00033    0.06579   -0.09105    0.20793   -0.01510
  -0.00282   -0.07853   -0.03843   -0.19286   -0.09203
 prteigrs : prtvol=0 or 1, do not print more k-points.

 Eight components of 2nd-order total energy (hartree) are
 1,2,3: 0th-order hamiltonian combined with 1st-order wavefunctions
     kin0=   3.57312685E+01 eigvalue=   2.10339002E+00  local=  -1.40281098E+01
 4,5,6: 1st-order hamiltonian combined with 1st and 0th-order wfs
     kin1=  -5.58671800E+01  Hartree=   0.00000000E+00     xc=   0.00000000E+00
 7,8,9: eventually, occupation + non-local contributions
    edocc=   7.10528150E+00     enl0=  -2.34908187E+00   enl1=  -1.25831682E+00
 1-9 gives the relaxation energy (to be shifted if some occ is /=2.0)
   erelax=  -2.85627484E+01
  No Ewald or frozen-wf contrib.: the relaxation energy is the total one
 2DEtotal=   -0.2856274843E+02 Ha. Also 2DEtotal=   -0.777231911547E+03 eV
    (  non-var. 2DEtotal :   -2.8562748427E+01 Ha)

 CALCULATION OF EFFECTIVE MASSES
 NOTE : Additional infos (eff. mass eigenvalues, eigenvectors and, if degenerate, average mass) are available in stdout.

 K-point ( 0.000, 0.000, 0.310) | band =    28
 Effective mass tensor:
             -6.5690230154             -1.1594100810             -0.0047293153
             -1.1594100810             -7.8132915439             -0.0109048983
             -0.0047293153             -0.0109048983             -4.0697609867
 Effective mass tensor eigenvalues:
             -8.5069707783             -5.8753764008             -4.0697283669
 Angular average effective mass 1/(<1/m>)=  -5.6235677878
 Angular average effective mass for Frohlich model (<m**0.5>)**2=  -5.7758673052
 Effective masses along directions: (cart. coord. / red. coord. -> eff. mass)
    1:   1.000000  0.000000  0.000000 /   0.903983 -0.427568  0.000000 ->  -6.3969764060
    2:   0.000000  1.000000  0.000000 /   0.000000  1.000000  0.000000 ->  -7.6086347148
    3:   0.000000  0.000000  1.000000 /   0.000000  0.000000  1.000000 ->  -4.0697442538
    4:   0.577350  0.577350  0.577350 /   0.712643  0.290822  0.638406 ->  -6.1704722528
    5:   0.000000  0.707107  0.707107 /   0.000000  0.701210  0.712954 ->  -5.3121570640
    6:   0.707107  0.000000  0.707107 /   0.702517 -0.332278  0.629334 ->  -4.9775941902
    7:   0.707107  0.707107  0.000000 /   0.925872  0.377838  0.000000 ->  -8.2863707516

 K-point ( 0.000, 0.000, 0.000) | band =    29
 Effective mass tensor:
              0.5764556671              0.0117560539              0.0000015665
              0.0117560539              0.5890777226             -0.0000008175
              0.0000015665             -0.0000008175              0.6165103324
 Effective mass tensor eigenvalues:
              0.5694237613              0.5961096284              0.6165103325
 Angular average effective mass 1/(<1/m>)=   0.5933851841
 Angular average effective mass for Frohlich model (<m**0.5>)**2=   0.5935745139
 Effective masses along directions: (cart. coord. / red. coord. -> eff. mass)
    1:   1.000000  0.000000  0.000000 /   0.903983 -0.427568  0.000000 ->   0.5762210549
    2:   0.000000  1.000000  0.000000 /   0.000000  1.000000  0.000000 ->   0.5888379734
    3:   0.000000  0.000000  1.000000 /   0.000000  0.000000  1.000000 ->   0.6165103324
    4:   0.577350  0.577350  0.577350 /   0.712643  0.290822  0.638406 ->   0.6016284667
    5:   0.000000  0.707107  0.707107 /   0.000000  0.701210  0.712954 ->   0.6023556532
    6:   0.707107  0.000000  0.707107 /   0.702517 -0.332278  0.629334 ->   0.5956868088
    7:   0.707107  0.707107  0.000000 /   0.925872  0.377838  0.000000 ->   0.5944529969

 END OF EFFECTIVE MASSES SECTION

 ---- first-order wavefunction calculations are completed ----

 Total localisation tensor (bohr^2) in cartesian coordinates
  WARNING : still subject to testing - especially symmetries.
      direction              matrix element
   alpha     beta       real part   imaginary part
     1        1       1.0240597785    0.0000000000
     1        2      -0.3487397398    0.0000000000
     1        3       0.0000000000    0.0000000000
     2        1      -0.3487397398    0.0000000000
     2        2       0.6496324220    0.0000000000
     2        3       0.0000000000    0.0000000000
     3        1       0.0000000000    0.0000000000
     3        2       0.0000000000    0.0000000000
     3        3       0.6370634680    0.0000000000

 respfn : d/dk was computed, but no 2DTE, so no DDB output.

== END DATASET(S) ==============================================================

 -outvars: echo values of variables after computation  --------
            acell      1.0000000000E+00  1.0000000000E+00  1.0000000000E+00 Bohr
              amu      6.94100000E+00  3.09737620E+01  1.40067400E+01
                       1.59994000E+01
             ecut      4.40000000E+01 Hartree
           etotal     -2.8562748427E+01
            fcart      0.0000000000E+00  0.0000000000E+00  0.0000000000E+00
                       0.0000000000E+00  0.0000000000E+00  0.0000000000E+00
                       0.0000000000E+00  0.0000000000E+00  0.0000000000E+00
                       0.0000000000E+00  0.0000000000E+00  0.0000000000E+00
                       0.0000000000E+00  0.0000000000E+00  0.0000000000E+00
                       0.0000000000E+00  0.0000000000E+00  0.0000000000E+00
                       0.0000000000E+00  0.0000000000E+00  0.0000000000E+00
                       0.0000000000E+00  0.0000000000E+00  0.0000000000E+00
                       0.0000000000E+00  0.0000000000E+00  0.0000000000E+00
                       0.0000000000E+00  0.0000000000E+00  0.0000000000E+00
                       0.0000000000E+00  0.0000000000E+00  0.0000000000E+00
                       0.0000000000E+00  0.0000000000E+00  0.0000000000E+00
-          fftalg         512
           irdden           1
           irdwfk           1
           istwfk        0    1
              ixc     -116133
              kpt      0.00000000E+00  0.00000000E+00  3.09523810E-01
                       0.00000000E+00  0.00000000E+00  0.00000000E+00
           kptopt           0
P           mkmem           2
P          mkqmem           2
P          mk1mem           2
            natom          12
            nband          37
           nbdbuf           4
            ngfft          60      60      54
             nkpt           2
            nstep        2000
             nsym           4
           ntypat           4
              occ      2.000000  2.000000  2.000000  2.000000  2.000000  2.000000
                       2.000000  2.000000  2.000000  2.000000  2.000000  2.000000
                       2.000000  2.000000  2.000000  2.000000  2.000000  2.000000
                       2.000000  2.000000  2.000000  2.000000  2.000000  2.000000
                       2.000000  2.000000  2.000000  2.000000  0.000000  0.000000
                       0.000000  0.000000  0.000000  0.000000  0.000000  0.000000
                       0.000000
        optdriver           1
            prtwf          -1
            rfdir           1       1       1
           rfelfd           2
            rprim      9.9237491559E+00  0.0000000000E+00  0.0000000000E+00
                      -4.6937595756E+00  8.7435358040E+00  0.0000000000E+00
                       0.0000000000E+00  0.0000000000E+00  8.8899743093E+00
          spgroup          36
           strten      0.0000000000E+00  0.0000000000E+00  0.0000000000E+00
                       0.0000000000E+00  0.0000000000E+00  0.0000000000E+00
           symrel      1  0  0   0  1  0   0  0  1       0  1  0   1  0  0   0  0  1
                      -1  0  0   0 -1  0   0  0  1       0 -1  0  -1  0  0   0  0  1
            tnons      0.0000000  0.0000000  0.0000000     0.0000000  0.0000000  0.0000000
                       0.0000000  0.0000000  0.5000000     0.0000000  0.0000000  0.5000000
           tolwfr      1.00000000E-20
            typat      1  1  1  1  2  2  3  3  4  4  4  4
           useylm           1
              wtk        0.50000    0.50000
           xangst     -7.6046237625E-01  4.5928399148E+00  2.3444424988E+00
                       4.4063072444E+00  1.5023108787E+00  2.3444424988E+00
                       3.5280536633E+00  3.4039955203E-02  4.6966283935E+00
                      -1.6387159573E+00  3.1245689912E+00  4.6966283935E+00
                       1.8145352487E+00  3.0335536373E+00  2.3555871555E+00
                       9.5305603839E-01  1.5933262327E+00  3.4012608038E-03
                       1.0639977027E+00  1.7787993391E+00  3.0841720320E+00
                       1.7035935843E+00  2.8480805308E+00  7.3198613732E-01
                       3.3184738389E+00  3.0872300707E+00  2.7425828920E+00
                       1.1504914242E+00  4.3840195725E+00  2.7425828920E+00
                      -5.5088255189E-01  1.5396497993E+00  3.9039699732E-01
                       1.6170998628E+00  2.4286029749E-01  3.9039699732E-01
            xcart     -1.4370656255E+00  8.6792096111E+00  4.4303542569E+00
                       8.3267139492E+00  2.8389561273E+00  4.4303542569E+00
                       6.6670552058E+00  6.4326192910E-02  8.8753414116E+00
                      -3.0967243689E+00  5.9045796767E+00  8.8753414116E+00
                       3.4289746785E+00  5.7325855839E+00  4.4514146061E+00
                       1.8010149018E+00  3.0109502201E+00  6.4274514256E-03
                       2.0106642642E+00  3.3614435963E+00  5.8282404873E+00
                       3.2193253161E+00  5.3820922077E+00  1.3832533326E+00
                       6.2710067348E+00  5.8340193428E+00  5.1827305627E+00
                       2.1741137100E+00  8.2845963532E+00  5.1827305627E+00
                      -1.0410171545E+00  2.9095164612E+00  7.3774340803E-01
                       3.0558758703E+00  4.5893945082E-01  7.3774340803E-01
             xred      3.2469200000E-01  9.9264300000E-01  4.9835400000E-01
                       9.9264300000E-01  3.2469200000E-01  4.9835400000E-01
                       6.7530800000E-01  7.3570000000E-03  9.9835400000E-01
                       7.3570000000E-03  6.7530800000E-01  9.9835400000E-01
                       6.5563700000E-01  6.5563700000E-01  5.0072300000E-01
                       3.4436300000E-01  3.4436300000E-01  7.2300000000E-04
                       3.8444900000E-01  3.8444900000E-01  6.5559700000E-01
                       6.1555100000E-01  6.1555100000E-01  1.5559700000E-01
                       9.4751100000E-01  6.6723800000E-01  5.8298600000E-01
                       6.6723800000E-01  9.4751100000E-01  5.8298600000E-01
                       5.2489000000E-02  3.3276200000E-01  8.2986000000E-02
                       3.3276200000E-01  5.2489000000E-02  8.2986000000E-02
            znucl        3.00000   15.00000    7.00000    8.00000

- Timing analysis has been suppressed with timopt=0

 Suggested references for the acknowledgment of ABINIT usage.

 Calculation completed.
.Delivered   2 WARNINGs and   5 COMMENTs to log file.