.Version 9.5.1 of ABINIT

 ABINIT is a project of the Universite Catholique de Louvain,
 Corning Inc. and other collaborators, see ~abinit/doc/developers/contributors.txt .
 acknowledgments of the ABINIT effort.

.Starting date : Tue 11 May 2021.
- ( at 21h12 )

- input  file    -> /scratch/users/j/a/jabreu/flow_simple_8atoms/flow/w270/t1/run.abi
- output file    -> /scratch/users/j/a/jabreu/flow_simple_8atoms/flow/w270/t1/run.abo
- root for input  files -> /scratch/users/j/a/jabreu/flow_simple_8atoms/flow/w270/t1/indata/in
- root for output files -> /scratch/users/j/a/jabreu/flow_simple_8atoms/flow/w270/t1/outdata/out

 Symmetries : space group I-4 2 d (#122); Bravais tI (body-center tetrag.)
     intxc =       0      iscf =       7    lmnmax =      18     lnmax =       6
     mgfft =      60  mpssoang =       3    mqgrid =    3001     natom =       8
  nloc_mem =       1    nspden =       1   nspinor =       1    nsppol =       1
      nsym =       8    n1xccc =    2501    ntypat =       3    occopt =       1
   xclevel =       2
-    mband =          27        mffmem =           1         mkmem =           1
-   mkqmem =           1        mk1mem =           1           mpw =        6227
      nfft =      216000          nkpt =           1
  Rough estimation (10% accuracy) of disk space for files :

------------- Echo of variables that govern the present computation ------------
-
- outvars: echo of selected default values
-   iomode0 =  0 , fftalg0 =512 , wfoptalg0 =  0
-
- outvars: echo of global parameters not present in the input file
-  max_nthreads =    0
-
 -outvars: echo values of preprocessed input variables --------
            acell      1.0000000000E+00  1.0000000000E+00  1.0000000000E+00 Bohr
              amu      9.01218200E+00  2.80855000E+01  1.40067400E+01
             ecut      4.40000000E+01 Hartree
-          fftalg         512
           irdden           1
           irdwfk           1
           istwfk        1
              ixc     -116133
           kptopt           0
P           mkmem           1
P          mkqmem           1
P          mk1mem           1
            natom           8
            nband          27
           nbdbuf           4
            ngfft          60      60      60
             nkpt           1
            nstep        2000
             nsym           8
           ntypat           3
              occ      2.000000  2.000000  2.000000  2.000000  2.000000  2.000000
                       2.000000  2.000000  2.000000  2.000000  2.000000  2.000000
                       2.000000  2.000000  2.000000  2.000000  2.000000  2.000000
                       0.000000  0.000000  0.000000  0.000000  0.000000  0.000000
                       0.000000  0.000000  0.000000
        optdriver           1
            prtwf          -1
            rfdir           1       1       1
           rfelfd           2
            rprim      6.9874341436E+00  0.0000000000E+00 -6.2740451470E+00
                      -1.3902687032E+00  6.8477287361E+00 -6.2740451470E+00
                       0.0000000000E+00  0.0000000000E+00  9.3908401337E+00
          spgroup         122
           symrel      1  0  0   0  1  0   0  0  1      -1 -1 -1   0  0  1   0  1  0
                       0  1  0   1  0  0  -1 -1 -1       0  0  1  -1 -1 -1   1  0  0
                       0  1  0   1  0  0   0  0  1      -1 -1 -1   0  0  1   1  0  0
                       1  0  0   0  1  0  -1 -1 -1       0  0  1  -1 -1 -1   0  1  0
            tnons      0.0000000  0.0000000  0.0000000    -0.2500000  0.2500000  0.5000000
                       0.0000000  0.0000000  0.0000000    -0.2500000  0.2500000  0.5000000
                      -0.2500000  0.2500000  0.5000000     0.0000000  0.0000000  0.0000000
                      -0.2500000  0.2500000  0.5000000     0.0000000  0.0000000  0.0000000
           tolwfr      1.00000000E-20
            typat      1  1  2  2  3  3  3  3
           useylm           1
           xangst      2.5892685436E+00  9.0591549444E-01 -8.3537241332E-01
                       0.0000000000E+00  0.0000000000E+00  0.0000000000E+00
                       3.7262384017E-01  2.7177464833E+00 -8.3537241332E-01
                       1.4809461919E+00  1.8118309889E+00 -3.3200816975E+00
                       1.8363554004E+00  2.2647887361E+00 -1.6720066785E+00
                       3.8506388746E-01  4.5295774722E-01  1.6613027006E+00
                       7.4581053917E-01  3.1561733460E+00  8.1270260559E-01
                       2.9565549405E+00  1.3734041262E+00 -4.1434882810E+00
            xcart      4.8930084319E+00  1.7119321840E+00 -1.5786250802E+00
                       0.0000000000E+00  0.0000000000E+00  0.0000000000E+00
                       7.0415700850E-01  5.1357965521E+00 -1.5786250802E+00
                       2.7985827202E+00  3.4238643681E+00 -6.2740451470E+00
                       3.4702087893E+00  4.2798304601E+00 -3.1596347148E+00
                       7.2766529097E-01  8.5596609201E-01  3.1394071280E+00
                       1.4093776660E+00  5.9643032519E+00  1.5357853521E+00
                       5.5870791345E+00  2.5953576683E+00 -7.8300580859E+00
             xred      7.5000000000E-01  2.5000000000E-01  5.0000000000E-01
                       0.0000000000E+00  0.0000000000E+00  0.0000000000E+00
                       2.5000000000E-01  7.5000000000E-01  5.0000000000E-01
                       5.0000000000E-01  5.0000000000E-01  0.0000000000E+00
                       6.2099000000E-01  6.2500000000E-01  4.9599000000E-01
                       1.2901000000E-01  1.2500000000E-01  5.0401000000E-01
                       3.7500000000E-01  8.7099000000E-01  9.9599000000E-01
                       8.7500000000E-01  3.7901000000E-01  4.0100000000E-03
            znucl        4.00000   14.00000    7.00000

 chkinp: Checking input parameters for consistency.

== DATASET  1 ==================================================================
-   mpi_nproc: 1, omp_nthreads: -1 (-1 if OMP is not activated)

--- !DatasetInfo
iteration_state: {dtset: 1, }
dimensions: {natom: 8, nkpt: 1, mband: 27, nsppol: 1, nspinor: 1, nspden: 1, mpw: 6227, }
cutoff_energies: {ecut:  44.0, pawecutdg:  -1.0, }
electrons: {nelect:   3.60000000E+01, charge:   0.00000000E+00, occopt:   1.00000000E+00, tsmear:   1.00000000E-02, }
meta: {optdriver: 1, rfelfd: 2, }
...

 Real(R)+Recip(G) space primitive vectors, cartesian coordinates (Bohr,Bohr^-1):
 R(1)=  6.9874341  0.0000000 -6.2740451  G(1)=  0.1431141  0.0290559  0.0000000
 R(2)= -1.3902687  6.8477287 -6.2740451  G(2)=  0.0000000  0.1460338  0.0000000
 R(3)=  0.0000000  0.0000000  9.3908401  G(3)=  0.0956149  0.1169779  0.1064867
 Unit cell volume ucvol=  4.4933342E+02 bohr^3
 Angles (23,13,12)=  1.31920795E+02  1.31920795E+02  7.03541521E+01 degrees

 getcut: wavevector=  0.0000  0.0000  0.0000  ngfft=  60  60  60
         ecut(hartree)=     44.000   => boxcut(ratio)=   2.13972

--- Pseudopotential description ------------------------------------------------
- pspini: atom type   1  psp file is /scratch/users/j/a/jabreu/pseudos/PBEsol/Be.psp8
- pspatm: opening atomic psp file    /scratch/users/j/a/jabreu/pseudos/PBEsol/Be.psp8
- Be    ONCVPSP-3.3.0  r_core=   1.35684   1.10780
-  4.00000   4.00000    180112                znucl, zion, pspdat
    8 -116133    1    4       400   0.00000   pspcod,pspxc,lmax,lloc,mmax,r2well
    3.99000000000000    0.00000000000000    0.00000000000000   rchrg,fchrg,qchrg
     nproj     2     2
     extension_switch     1
  pspatm : epsatm=    3.86293307
         --- l  ekb(1:nproj) -->
             0   -7.966826   -2.672546
             1   -3.431835   -0.651830
 pspatm: atomic psp has been read  and splines computed

- pspini: atom type   2  psp file is /scratch/users/j/a/jabreu/pseudos/PBEsol/Si.psp8
- pspatm: opening atomic psp file    /scratch/users/j/a/jabreu/pseudos/PBEsol/Si.psp8
- Si    ONCVPSP-3.3.0  r_core=   1.60303   1.72197   1.91712
- 14.00000   4.00000    180112                znucl, zion, pspdat
    8 -116133    2    4       600   0.00000   pspcod,pspxc,lmax,lloc,mmax,r2well
    5.99000000000000    4.00000000000000    0.00000000000000   rchrg,fchrg,qchrg
     nproj     2     2     2
     extension_switch     1
  pspatm : epsatm=    7.86468782
         --- l  ekb(1:nproj) -->
             0    5.384426    0.843824
             1    2.663259    0.615854
             2   -2.267219   -0.458043
 pspatm: atomic psp has been read  and splines computed

- pspini: atom type   3  psp file is /scratch/users/j/a/jabreu/pseudos/PBEsol/N.psp8
- pspatm: opening atomic psp file    /scratch/users/j/a/jabreu/pseudos/PBEsol/N.psp8
- N     ONCVPSP-3.3.0  r_core=   1.20551   1.35824
-  7.00000   5.00000    180112                znucl, zion, pspdat
    8 -116133    1    4       600   0.00000   pspcod,pspxc,lmax,lloc,mmax,r2well
    5.99000000000000    4.00000000000000    0.00000000000000   rchrg,fchrg,qchrg
     nproj     2     2
     extension_switch     1
  pspatm : epsatm=    5.26508895
         --- l  ekb(1:nproj) -->
             0    7.464189    0.625868
             1   -4.309714   -1.012941
 pspatm: atomic psp has been read  and splines computed

   1.60256151E+03                                ecore*ucvol(ha*bohr**3)

-inwffil : will read wavefunctions from disk file /scratch/users/j/a/jabreu/flow_simple_8atoms/flow/w270/t1/indata/in_WFK

 ==>  initialize data related to q vector <==

 The list of irreducible perturbations for this q vector is:
    1)    idir= 1    ipert=   9
    2)    idir= 2    ipert=   9
    3)    idir= 3    ipert=   9

 Perturbation wavevector (in red.coord.)   0.000000  0.000000  0.000000
 Perturbation : derivative vs k along direction   1

 dfpt_looppert : COMMENT -
  In a d/dk calculation, iscf is set to -3 automatically.
 The set of symmetries contains only one element for this perturbation.
 symkpt : not enough symmetry to change the number of k points.

[...]

 Initialisation of the first-order wave-functions :
  ireadwf=   0

--- !BeginCycle
iteration_state: {dtset: 1, }
solver: {iscf: 7, nstep: 2000, nline: 4, wfoptalg: 0, }
tolerances: {tolwfr: 1.00E-20, }
...

     iter   2DEtotal(Ha)        deltaE(Ha) residm    vres2
-ETOT  1  -35.592625538307     -3.559E+01 1.008E-01 0.000E+00
 ETOT  2  -35.605089739278     -1.246E-02 1.706E-03 0.000E+00
 ETOT  3  -35.605115091612     -2.535E-05 5.799E-05 0.000E+00
 ETOT  4  -35.605115194233     -1.026E-07 1.555E-06 0.000E+00
 ETOT  5  -35.605115194785     -5.521E-10 7.262E-08 0.000E+00
 ETOT  6  -35.605115194789     -3.716E-12 2.360E-09 0.000E+00
 ETOT  7  -35.605115194789     -4.263E-14 1.094E-10 0.000E+00
 ETOT  8  -35.605115194789      2.842E-14 4.073E-12 0.000E+00
 ETOT  9  -35.605115194789     -2.842E-14 2.717E-13 0.000E+00
 ETOT 10  -35.605115194789      4.263E-14 1.045E-14 0.000E+00
 ETOT 11  -35.605115194789      0.000E+00 7.243E-16 0.000E+00
 ETOT 12  -35.605115194789     -7.105E-15 2.852E-17 0.000E+00
 ETOT 13  -35.605115194789     -7.105E-15 2.004E-18 0.000E+00
 ETOT 14  -35.605115194789      1.421E-14 8.109E-20 0.000E+00
 ETOT 15  -35.605115194789      0.000E+00 8.399E-21 0.000E+00

 At SCF step   15   max residual=  8.40E-21 < tolwfr=  1.00E-20 =>converged.

 ----iterations are completed or convergence reached----

 dfpt_looppert: DFPT cycle converged with prtwf=-1. Will skip output of the 1st-order WFK file.
 dfpt_looppert : ek2=    6.0617655770E+01
          f-sum rule ratio=    1.1708692939E+00
 prteigrs : about to open file /scratch/users/j/a/jabreu/flow_simple_8atoms/flow/w270/t1/tmpdata/tmp_1WF1_EIG
 Expectation of eigenvalue derivatives (hartree) for nkpt=   1  k points:
  (in case of degenerate eigenvalues, averaged derivative)
 kpt#   1, nband= 27, wtk=  1.00000, kpt=  0.0000  0.0000  0.0000 (reduced coord)
   0.00000   -0.00000    0.00000    0.00000    0.00000    0.00000    0.00000    0.00000
  -0.00000   -0.00000   -0.00000   -0.00000    0.00000    0.00000    0.00000    0.00000
   0.00000    0.00000   -0.00000    0.00000   -0.00000   -0.00000    0.00000    0.00000
   0.00000    0.00000    0.08149

 Eight components of 2nd-order total energy (hartree) are
 1,2,3: 0th-order hamiltonian combined with 1st-order wavefunctions
     kin0=   2.96891058E+01 eigvalue=   8.64731293E-01  local=  -1.07385545E+01
 4,5,6: 1st-order hamiltonian combined with 1st and 0th-order wfs
     kin1=  -7.09753518E+01  Hartree=   0.00000000E+00     xc=   0.00000000E+00
 7,8,9: eventually, occupation + non-local contributions
    edocc=   1.80962812E+01     enl0=  -2.30644854E+00   enl1=  -2.34878579E-01
 1-9 gives the relaxation energy (to be shifted if some occ is /=2.0)
   erelax=  -3.56051152E+01
  No Ewald or frozen-wf contrib.: the relaxation energy is the total one
 2DEtotal=   -0.3560511519E+02 Ha. Also 2DEtotal=   -0.968864456945E+03 eV
    (  non-var. 2DEtotal :   -3.5605115195E+01 Ha)

 Perturbation wavevector (in red.coord.)   0.000000  0.000000  0.000000
 Perturbation : derivative vs k along direction   2
 The set of symmetries contains only one element for this perturbation.
 symkpt : not enough symmetry to change the number of k points.

[...]

 Perturbation wavevector (in red.coord.)   0.000000  0.000000  0.000000
 Perturbation : derivative vs k along direction   3
 The set of symmetries contains only one element for this perturbation.
 symkpt : not enough symmetry to change the number of k points.

-inwffil : will read wavefunctions from disk file /scratch/users/j/a/jabreu/flow_simple_8atoms/flow/w270/t1/indata/in_WFK

 Initialisation of the first-order wave-functions :
  ireadwf=   0

--- !BeginCycle
iteration_state: {dtset: 1, }
solver: {iscf: 7, nstep: 2000, nline: 4, wfoptalg: 0, }
tolerances: {tolwfr: 1.00E-20, }
...

     iter   2DEtotal(Ha)        deltaE(Ha) residm    vres2
-ETOT  1  -58.900337502188     -5.890E+01 8.234E-02 0.000E+00
 ETOT  2  -58.920183623773     -1.985E-02 2.686E-03 0.000E+00
 ETOT  3  -58.920223418761     -3.979E-05 6.173E-05 0.000E+00
 ETOT  4  -58.920223603225     -1.845E-07 2.706E-06 0.000E+00
 ETOT  5  -58.920223604388     -1.163E-09 9.466E-08 0.000E+00
 ETOT  6  -58.920223604397     -8.612E-12 4.699E-09 0.000E+00
 ETOT  7  -58.920223604397     -6.395E-14 1.660E-10 0.000E+00
 ETOT  8  -58.920223604397      1.421E-14 8.732E-12 0.000E+00
 ETOT  9  -58.920223604397      2.132E-14 3.029E-13 0.000E+00
 ETOT 10  -58.920223604397     -1.421E-14 1.655E-14 0.000E+00
 ETOT 11  -58.920223604397     -1.421E-14 6.820E-16 0.000E+00
 ETOT 12  -58.920223604397      1.421E-14 3.492E-17 0.000E+00
 ETOT 13  -58.920223604397      0.000E+00 2.269E-18 0.000E+00
 ETOT 14  -58.920223604397     -7.105E-15 1.337E-19 0.000E+00
 ETOT 15  -58.920223604397      7.105E-15 9.539E-21 0.000E+00

 At SCF step   15   max residual=  9.54E-21 < tolwfr=  1.00E-20 =>converged.

 ----iterations are completed or convergence reached----

 dfpt_looppert: DFPT cycle converged with prtwf=-1. Will skip output of the 1st-order WFK file.
 dfpt_looppert : ek2=    9.7113487204E+01
          f-sum rule ratio=    1.2133603221E+00
 prteigrs : about to open file /scratch/users/j/a/jabreu/flow_simple_8atoms/flow/w270/t1/tmpdata/tmp_1WF1_EIG
 Expectation of eigenvalue derivatives (hartree) for nkpt=   1  k points:
  (in case of degenerate eigenvalues, averaged derivative)
 kpt#   1, nband= 27, wtk=  1.00000, kpt=  0.0000  0.0000  0.0000 (reduced coord)
   0.00000   -0.00000    0.00000   -0.00000    0.00000    0.00000    0.00000   -0.00000
  -0.00000   -0.00000    0.00000    0.00000   -0.00000    0.00000    0.00000    0.00000
   0.00000    0.00000    0.00000   -0.00000   -0.00000   -0.00000   -0.00000   -0.00000
  -0.00000   -0.00000    0.13116

 Eight components of 2nd-order total energy (hartree) are
 1,2,3: 0th-order hamiltonian combined with 1st-order wavefunctions
     kin0=   4.70431375E+01 eigvalue=   1.57280550E+00  local=  -1.69963227E+01
 4,5,6: 1st-order hamiltonian combined with 1st and 0th-order wfs
     kin1=  -1.17833652E+02  Hartree=   0.00000000E+00     xc=   0.00000000E+00
 7,8,9: eventually, occupation + non-local contributions
    edocc=   3.11601157E+01     enl0=  -3.85951242E+00   enl1=  -6.79509238E-03
 1-9 gives the relaxation energy (to be shifted if some occ is /=2.0)
   erelax=  -5.89202236E+01
  No Ewald or frozen-wf contrib.: the relaxation energy is the total one
 2DEtotal=   -0.5892022360E+02 Ha. Also 2DEtotal=   -0.160330082162E+04 eV
    (  non-var. 2DEtotal :   -5.8920223604E+01 Ha)

 CALCULATION OF EFFECTIVE MASSES
 NOTE : Additional infos (eff. mass eigenvalues, eigenvectors and, if degenerate, average mass) are available in stdout.

 K-point ( 0.000, 0.000, 0.000) | band =    18
 Effective mass tensor:
             -0.9320005119              0.0995721795             -0.1820317149
              0.0995721795             -0.8920536526             -0.2229610838
             -0.1820317149             -0.2229610838             -0.6049638104
 Effective mass tensor eigenvalues:
             -1.0137743137             -1.0131491075             -0.4020945538
 Angular average effective mass 1/(<1/m>)=  -0.6725836663
 Angular average effective mass for Frohlich model (<m**0.5>)**2=  -0.7167492163
 Effective masses along directions: (cart. coord. / red. coord. -> eff. mass)
    1:   1.000000  0.000000  0.000000 /   0.980775 -0.195142  0.000000 ->  -0.8429316861
    2:   0.000000  1.000000  0.000000 /   0.000000  1.000000  0.000000 ->  -0.7782176714
    3:   0.000000  0.000000  1.000000 /  -0.485624 -0.485624  0.726870 ->  -0.5027428806
    4:   0.577350  0.577350  0.577350 /   0.075465 -0.086382  0.993400 ->  -1.0132723226
    5:   0.000000  0.707107  0.707107 /  -0.554811  0.050731  0.830428 ->  -0.9174357269
    6:   0.707107  0.000000  0.707107 /   0.058752 -0.631201  0.773391 ->  -0.8765986168
    7:   0.707107  0.707107  0.000000 /   0.788105  0.615541  0.000000 ->  -0.6757713238

 K-point ( 0.000, 0.000, 0.000) | band =    19
 Effective mass tensor:
              0.3311926941              0.0469300075             -0.0859981219
              0.0469300075              0.3502494553             -0.1052117208
             -0.0859981219             -0.1052117208              0.4856276032
 Effective mass tensor eigenvalues:
              0.2928321916              0.2928337863              0.5814037747
 Angular average effective mass 1/(<1/m>)=   0.3508851272
 Angular average effective mass for Frohlich model (<m**0.5>)**2=   0.3605471202
 Effective masses along directions: (cart. coord. / red. coord. -> eff. mass)
    1:   1.000000  0.000000  0.000000 /   0.980775 -0.195142  0.000000 ->   0.3135180546
    2:   0.000000  1.000000  0.000000 /   0.000000  1.000000  0.000000 ->   0.3249207554
    3:   0.000000  0.000000  1.000000 /  -0.485624 -0.485624  0.726870 ->   0.4381114574
    4:   0.577350  0.577350  0.577350 /   0.075465 -0.086382  0.993400 ->   0.2928345372
    5:   0.000000  0.707107  0.707107 /  -0.554811  0.050731  0.830428 ->   0.3032078890
    6:   0.707107  0.000000  0.707107 /   0.058752 -0.631201  0.773391 ->   0.3085291326
    7:   0.707107  0.707107  0.000000 /   0.788105  0.615541  0.000000 ->   0.3498953112

 END OF EFFECTIVE MASSES SECTION

 ---- first-order wavefunction calculations are completed ----

 Total localisation tensor (bohr^2) in cartesian coordinates
  WARNING : still subject to testing - especially symmetries.
      direction              matrix element
   alpha     beta       real part   imaginary part
     1        1       1.2617002613    0.0000000000
     1        2      -0.2366334029    0.0000000000
     1        3      -0.8729389920    0.0000000000
     2        1      -0.2366334029    0.0000000000
     2        2       1.1655310583    0.0000000000
     2        3      -1.0678861213    0.0000000000
     3        1      -0.8729389920    0.0000000000
     3        2      -1.0678861213    0.0000000000
     3        3       5.7045247795    0.0000000000

 respfn : d/dk was computed, but no 2DTE, so no DDB output.

== END DATASET(S) ==============================================================

 -outvars: echo values of variables after computation  --------
            acell      1.0000000000E+00  1.0000000000E+00  1.0000000000E+00 Bohr
              amu      9.01218200E+00  2.80855000E+01  1.40067400E+01
             ecut      4.40000000E+01 Hartree
           etotal     -5.8920223604E+01
            fcart      0.0000000000E+00  0.0000000000E+00  0.0000000000E+00
                       0.0000000000E+00  0.0000000000E+00  0.0000000000E+00
                       0.0000000000E+00  0.0000000000E+00  0.0000000000E+00
                       0.0000000000E+00  0.0000000000E+00  0.0000000000E+00
                       0.0000000000E+00  0.0000000000E+00  0.0000000000E+00
                       0.0000000000E+00  0.0000000000E+00  0.0000000000E+00
                       0.0000000000E+00  0.0000000000E+00  0.0000000000E+00
                       0.0000000000E+00  0.0000000000E+00  0.0000000000E+00
-          fftalg         512
           irdden           1
           irdwfk           1
           istwfk        1
              ixc     -116133
           kptopt           0
P           mkmem           1
P          mkqmem           1
P          mk1mem           1
            natom           8
            nband          27
           nbdbuf           4
            ngfft          60      60      60
             nkpt           1
            nstep        2000
             nsym           8
           ntypat           3
              occ      2.000000  2.000000  2.000000  2.000000  2.000000  2.000000
                       2.000000  2.000000  2.000000  2.000000  2.000000  2.000000
                       2.000000  2.000000  2.000000  2.000000  2.000000  2.000000
                       0.000000  0.000000  0.000000  0.000000  0.000000  0.000000
                       0.000000  0.000000  0.000000
        optdriver           1
            prtwf          -1
            rfdir           1       1       1
           rfelfd           2
            rprim      6.9874341436E+00  0.0000000000E+00 -6.2740451470E+00
                      -1.3902687032E+00  6.8477287361E+00 -6.2740451470E+00
                       0.0000000000E+00  0.0000000000E+00  9.3908401337E+00
          spgroup         122
           strten      0.0000000000E+00  0.0000000000E+00  0.0000000000E+00
                       0.0000000000E+00  0.0000000000E+00  0.0000000000E+00
           symrel      1  0  0   0  1  0   0  0  1      -1 -1 -1   0  0  1   0  1  0
                       0  1  0   1  0  0  -1 -1 -1       0  0  1  -1 -1 -1   1  0  0
                       0  1  0   1  0  0   0  0  1      -1 -1 -1   0  0  1   1  0  0
                       1  0  0   0  1  0  -1 -1 -1       0  0  1  -1 -1 -1   0  1  0
            tnons      0.0000000  0.0000000  0.0000000    -0.2500000  0.2500000  0.5000000
                       0.0000000  0.0000000  0.0000000    -0.2500000  0.2500000  0.5000000
                      -0.2500000  0.2500000  0.5000000     0.0000000  0.0000000  0.0000000
                      -0.2500000  0.2500000  0.5000000     0.0000000  0.0000000  0.0000000
           tolwfr      1.00000000E-20
            typat      1  1  2  2  3  3  3  3
           useylm           1
           xangst      2.5892685436E+00  9.0591549444E-01 -8.3537241332E-01
                       0.0000000000E+00  0.0000000000E+00  0.0000000000E+00
                       3.7262384017E-01  2.7177464833E+00 -8.3537241332E-01
                       1.4809461919E+00  1.8118309889E+00 -3.3200816975E+00
                       1.8363554004E+00  2.2647887361E+00 -1.6720066785E+00
                       3.8506388746E-01  4.5295774722E-01  1.6613027006E+00
                       7.4581053917E-01  3.1561733460E+00  8.1270260559E-01
                       2.9565549405E+00  1.3734041262E+00 -4.1434882810E+00
            xcart      4.8930084319E+00  1.7119321840E+00 -1.5786250802E+00
                       0.0000000000E+00  0.0000000000E+00  0.0000000000E+00
                       7.0415700850E-01  5.1357965521E+00 -1.5786250802E+00
                       2.7985827202E+00  3.4238643681E+00 -6.2740451470E+00
                       3.4702087893E+00  4.2798304601E+00 -3.1596347148E+00
                       7.2766529097E-01  8.5596609201E-01  3.1394071280E+00
                       1.4093776660E+00  5.9643032519E+00  1.5357853521E+00
                       5.5870791345E+00  2.5953576683E+00 -7.8300580859E+00
             xred      7.5000000000E-01  2.5000000000E-01  5.0000000000E-01
                       0.0000000000E+00  0.0000000000E+00  0.0000000000E+00
                       2.5000000000E-01  7.5000000000E-01  5.0000000000E-01
                       5.0000000000E-01  5.0000000000E-01  0.0000000000E+00
                       6.2099000000E-01  6.2500000000E-01  4.9599000000E-01
                       1.2901000000E-01  1.2500000000E-01  5.0401000000E-01
                       3.7500000000E-01  8.7099000000E-01  9.9599000000E-01
                       8.7500000000E-01  3.7901000000E-01  4.0100000000E-03
            znucl        4.00000   14.00000    7.00000

- Timing analysis has been suppressed with timopt=0

 Suggested references for the acknowledgment of ABINIT usage.

 Calculation completed.
.Delivered   6 WARNINGs and   5 COMMENTs to log file.