.Version 9.5.1 of ABINIT

 ABINIT is a project of the Universite Catholique de Louvain,
 Corning Inc. and other collaborators, see ~abinit/doc/developers/contributors.txt .
 acknowledgments of the ABINIT effort.

.Starting date : Tue 27 Apr 2021.
- ( at 18h38 )

- input  file    -> /scratch/users/j/a/jabreu/flow_simple_4atoms/flow/w220/t1/run.abi
- output file    -> /scratch/users/j/a/jabreu/flow_simple_4atoms/flow/w220/t1/run.abo
- root for input  files -> /scratch/users/j/a/jabreu/flow_simple_4atoms/flow/w220/t1/indata/in
- root for output files -> /scratch/users/j/a/jabreu/flow_simple_4atoms/flow/w220/t1/outdata/out

 Symmetries : space group R-3 m (#166); Bravais hR (rhombohedral)
     intxc =       0      iscf =       7    lmnmax =      18     lnmax =       6
     mgfft =      80  mpssoang =       3    mqgrid =    3001     natom =       4
  nloc_mem =       1    nspden =       1   nspinor =       1    nsppol =       1
      nsym =      12    n1xccc =    2501    ntypat =       3    occopt =       1
   xclevel =       2
-    mband =          25        mffmem =           1         mkmem =           2
-   mkqmem =           2        mk1mem =           2           mpw =        6277
      nfft =      512000          nkpt =           2
  Rough estimation (10% accuracy) of disk space for files :

------------- Echo of variables that govern the present computation ------------
-
- outvars: echo of selected default values
-   iomode0 =  0 , fftalg0 =512 , wfoptalg0 =  0
-
- outvars: echo of global parameters not present in the input file
-  max_nthreads =    0
-
 -outvars: echo values of preprocessed input variables --------
            acell      1.0000000000E+00  1.0000000000E+00  1.0000000000E+00 Bohr
              amu      8.54678000E+01  8.89058500E+01  1.59994000E+01
             ecut      4.40000000E+01 Hartree
-          fftalg         512
           irdden           1
           irdwfk           1
           istwfk        1    1
              ixc     -116133
              kpt      0.00000000E+00  0.00000000E+00  0.00000000E+00
                       5.00000000E-01  5.00000000E-01  0.00000000E+00
           kptopt           0
P           mkmem           2
P          mkqmem           2
P          mk1mem           2
            natom           4
            nband          25
           nbdbuf           4
            ngfft          80      80      80
             nkpt           2
            nstep         100
             nsym          12
           ntypat           3
              occ      2.000000  2.000000  2.000000  2.000000  2.000000  2.000000
                       2.000000  2.000000  2.000000  2.000000  2.000000  2.000000
                       2.000000  2.000000  2.000000  2.000000  0.000000  0.000000
                       0.000000  0.000000  0.000000  0.000000  0.000000  0.000000
                       0.000000
        optdriver           1
            prtwf          -1
            rfdir           1       1       1
           rfelfd           2
            rprim      6.3199851177E+00  0.0000000000E+00  1.1065807571E+01
                       2.9373397415E+00  5.5959134313E+00  1.1065807571E+01
                       0.0000000000E+00  0.0000000000E+00  1.2743402571E+01
          spgroup         166
           symrel      1  0  0   0  1  0   0  0  1      -1  0  0   0 -1  0   0  0 -1
                       0  1  0   1  0  0   0  0  1       0 -1  0  -1  0  0   0  0 -1
                       0  0  1   1  0  0   0  1  0       0  0 -1  -1  0  0   0 -1  0
                       1  0  0   0  0  1   0  1  0      -1  0  0   0  0 -1   0 -1  0
                       0  1  0   0  0  1   1  0  0       0 -1  0   0  0 -1  -1  0  0
                       0  0  1   0  1  0   1  0  0       0  0 -1   0 -1  0  -1  0  0
           tolwfr      1.00000000E-20
            typat      1  2  3  3
           useylm           1
              wtk        0.50000    0.50000
           xangst      0.0000000000E+00  0.0000000000E+00  0.0000000000E+00
                       2.4493826640E+00  1.4806149245E+00  9.2275322616E+00
                       3.7941182404E+00  2.2934873243E+00  1.4293539749E+01
                       1.1046470876E+00  6.6774252482E-01  4.1615247746E+00
            xcart      0.0000000000E+00  0.0000000000E+00  0.0000000000E+00
                       4.6286624296E+00  2.7979567156E+00  1.7437508857E+01
                       7.1698443901E+00  4.3340629321E+00  2.7010875594E+01
                       2.0874804691E+00  1.2618504992E+00  7.8641421193E+00
             xred      0.0000000000E+00  0.0000000000E+00  0.0000000000E+00
                       5.0000000000E-01  5.0000000000E-01  5.0000000000E-01
                       7.7450500000E-01  7.7450500000E-01  7.7450500000E-01
                       2.2549500000E-01  2.2549500000E-01  2.2549500000E-01
            znucl       37.00000   39.00000    8.00000

 chkinp: Checking input parameters for consistency.

== DATASET  1 ==================================================================
-   mpi_nproc: 1, omp_nthreads: -1 (-1 if OMP is not activated)

--- !DatasetInfo
iteration_state: {dtset: 1, }
dimensions: {natom: 4, nkpt: 2, mband: 25, nsppol: 1, nspinor: 1, nspden: 1, mpw: 6277, }
cutoff_energies: {ecut:  44.0, pawecutdg:  -1.0, }
electrons: {nelect:   3.20000000E+01, charge:   0.00000000E+00, occopt:   1.00000000E+00, tsmear:   1.00000000E-02, }
meta: {optdriver: 1, rfelfd: 2, }
...

 Real(R)+Recip(G) space primitive vectors, cartesian coordinates (Bohr,Bohr^-1):
 R(1)=  6.3199851  0.0000000 11.0658076  G(1)=  0.1582282 -0.0830553  0.0000000
 R(2)=  2.9373397  5.5959134 11.0658076  G(2)=  0.0000000  0.1787018  0.0000000
 R(3)=  0.0000000  0.0000000 12.7434026  G(3)= -0.1373984 -0.0830553  0.0784720
 Unit cell volume ucvol=  4.5068432E+02 bohr^3
 Angles (23,13,12)=  2.97318683E+01  2.97318683E+01  2.97318683E+01 degrees

 getcut: wavevector=  0.0000  0.0000  0.0000  ngfft=  80  80  80
         ecut(hartree)=     44.000   => boxcut(ratio)=   2.10265

--- Pseudopotential description ------------------------------------------------
- pspini: atom type   1  psp file is /scratch/users/j/a/jabreu/pseudos/PBEsol/Rb.psp8
- pspatm: opening atomic psp file    /scratch/users/j/a/jabreu/pseudos/PBEsol/Rb.psp8
- Rb    ONCVPSP-3.3.0  r_core=   1.71227   1.75361   1.90633
- 37.00000   9.00000    180112                znucl, zion, pspdat
    8 -116133    2    4       600   0.00000   pspcod,pspxc,lmax,lloc,mmax,r2well
    5.99000000000000    7.00000000000000    0.00000000000000   rchrg,fchrg,qchrg
     nproj     2     2     2
     extension_switch     1
  pspatm : epsatm=   34.48400912
         --- l  ekb(1:nproj) -->
             0    8.196957   -0.477221
             1    3.231347   -0.378736
             2   -1.047201    0.996637
 pspatm: atomic psp has been read  and splines computed

- pspini: atom type   2  psp file is /scratch/users/j/a/jabreu/pseudos/PBEsol/Y.psp8
- pspatm: opening atomic psp file    /scratch/users/j/a/jabreu/pseudos/PBEsol/Y.psp8
- Y     ONCVPSP-3.3.0  r_core=   1.60520   1.51226   1.56736
- 39.00000  11.00000    180112                znucl, zion, pspdat
    8 -116133    2    4       600   0.00000   pspcod,pspxc,lmax,lloc,mmax,r2well
    5.99000000000000    4.00000000000000    0.00000000000000   rchrg,fchrg,qchrg
     nproj     2     2     2
     extension_switch     1
  pspatm : epsatm=   18.54790046
         --- l  ekb(1:nproj) -->
             0   10.130768    0.866504
             1    5.598307    0.427135
             2    1.217602    0.315447
 pspatm: atomic psp has been read  and splines computed

- pspini: atom type   3  psp file is /scratch/users/j/a/jabreu/pseudos/PBEsol/O.psp8
- pspatm: opening atomic psp file    /scratch/users/j/a/jabreu/pseudos/PBEsol/O.psp8
- O     ONCVPSP-3.3.0  r_core=   1.35509   1.45563   1.26150
-  8.00000   6.00000    180112                znucl, zion, pspdat
    8 -116133    2    4       600   0.00000   pspcod,pspxc,lmax,lloc,mmax,r2well
    5.99000000000000    4.00000000000000    0.00000000000000   rchrg,fchrg,qchrg
     nproj     2     2     1
     extension_switch     1
  pspatm : epsatm=    6.22910522
         --- l  ekb(1:nproj) -->
             0    6.050032    0.820363
             1   -4.739617   -1.153841
             2   -1.335834
 pspatm: atomic psp has been read  and splines computed

   2.09568384E+03                                ecore*ucvol(ha*bohr**3)

-inwffil : will read wavefunctions from disk file /scratch/users/j/a/jabreu/flow_simple_4atoms/flow/w220/t1/indata/in_WFK

 ==>  initialize data related to q vector <==

 The list of irreducible perturbations for this q vector is:
    1)    idir= 1    ipert=   5
    2)    idir= 2    ipert=   5
    3)    idir= 3    ipert=   5

 Perturbation wavevector (in red.coord.)   0.000000  0.000000  0.000000
 Perturbation : derivative vs k along direction   1

 dfpt_looppert : COMMENT -
  In a d/dk calculation, iscf is set to -3 automatically.
 The set of symmetries contains only one element for this perturbation.
 symkpt : not enough symmetry to change the number of k points.

[...]

 Initialisation of the first-order wave-functions :
  ireadwf=   0

--- !BeginCycle
iteration_state: {dtset: 1, }
solver: {iscf: 7, nstep: 100, nline: 4, wfoptalg: 0, }
tolerances: {tolwfr: 1.00E-20, }
...

     iter   2DEtotal(Ha)        deltaE(Ha) residm    vres2
-ETOT  1  -45.072309927385     -4.507E+01 7.137E-02 0.000E+00
 ETOT  2  -45.127384817500     -5.507E-02 2.919E-03 0.000E+00
 ETOT  3  -45.128203301367     -8.185E-04 2.528E-05 0.000E+00
 ETOT  4  -45.128222546840     -1.925E-05 1.584E-06 0.000E+00
 ETOT  5  -45.128223064404     -5.176E-07 1.945E-08 0.000E+00
 ETOT  6  -45.128223078876     -1.447E-08 1.320E-09 0.000E+00
 ETOT  7  -45.128223079292     -4.163E-10 8.468E-11 0.000E+00
 ETOT  8  -45.128223079304     -1.207E-11 1.296E-11 0.000E+00
 ETOT  9  -45.128223079304     -3.340E-13 1.436E-12 0.000E+00
 ETOT 10  -45.128223079304     -1.421E-14 2.330E-13 0.000E+00
 ETOT 11  -45.128223079304      1.421E-14 2.539E-14 0.000E+00
 ETOT 12  -45.128223079305     -4.263E-14 4.213E-15 0.000E+00
 ETOT 13  -45.128223079305      7.105E-15 4.506E-16 0.000E+00
 ETOT 14  -45.128223079305      0.000E+00 7.652E-17 0.000E+00
 ETOT 15  -45.128223079305     -2.132E-14 8.053E-18 0.000E+00
 ETOT 16  -45.128223079305      7.105E-15 1.393E-18 0.000E+00
 ETOT 17  -45.128223079305     -7.105E-15 1.444E-19 0.000E+00
 ETOT 18  -45.128223079305      7.105E-15 2.540E-20 0.000E+00
 ETOT 19  -45.128223079305      0.000E+00 9.942E-21 0.000E+00

 At SCF step   19   max residual=  9.94E-21 < tolwfr=  1.00E-20 =>converged.

 ----iterations are completed or convergence reached----

 dfpt_looppert: DFPT cycle converged with prtwf=-1. Will skip output of the 1st-order WFK file.
 dfpt_looppert : ek2=    8.0685916417E+01
          f-sum rule ratio=    1.1159086299E+00
 prteigrs : about to open file /scratch/users/j/a/jabreu/flow_simple_4atoms/flow/w220/t1/tmpdata/tmp_1WF1_EIG
 Expectation of eigenvalue derivatives (hartree) for nkpt=   2  k points:
  (in case of degenerate eigenvalues, averaged derivative)
 kpt#   1, nband= 25, wtk=  0.50000, kpt=  0.0000  0.0000  0.0000 (reduced coord)
   0.00000    0.00000   -0.00000    0.00000    0.00000    0.00000    0.00000   -0.00000
  -0.00000   -0.00000    0.00000   -0.00000   -0.00000    0.00000   -0.00000   -0.00000
   0.00000   -0.00000    0.00000    0.00000   -0.00000   -0.00000   -0.00000   -0.00000
   0.00000
 prteigrs : prtvol=0 or 1, do not print more k-points.

 Eight components of 2nd-order total energy (hartree) are
 1,2,3: 0th-order hamiltonian combined with 1st-order wavefunctions
     kin0=   3.98842905E+01 eigvalue=   5.40660813E-01  local=  -1.73840866E+01
 4,5,6: 1st-order hamiltonian combined with 1st and 0th-order wfs
     kin1=  -9.00381104E+01  Hartree=   0.00000000E+00     xc=   0.00000000E+00
 7,8,9: eventually, occupation + non-local contributions
    edocc=   2.28510126E+01     enl0=  -7.63654255E-01   enl1=  -2.18335719E-01
 1-9 gives the relaxation energy (to be shifted if some occ is /=2.0)
   erelax=  -4.51282231E+01
  No Ewald or frozen-wf contrib.: the relaxation energy is the total one
 2DEtotal=   -0.4512822308E+02 Ha. Also 2DEtotal=   -0.122800140113E+04 eV
    (  non-var. 2DEtotal :   -4.5128223079E+01 Ha)

 Perturbation wavevector (in red.coord.)   0.000000  0.000000  0.000000
 Perturbation : derivative vs k along direction   2
 The set of symmetries contains only one element for this perturbation.
 symkpt : not enough symmetry to change the number of k points.

[...]

 Perturbation wavevector (in red.coord.)   0.000000  0.000000  0.000000
 Perturbation : derivative vs k along direction   3
 The set of symmetries contains only one element for this perturbation.
 symkpt : not enough symmetry to change the number of k points.

-inwffil : will read wavefunctions from disk file /scratch/users/j/a/jabreu/flow_simple_4atoms/flow/w220/t1/indata/in_WFK

 Initialisation of the first-order wave-functions :
  ireadwf=   0

--- !BeginCycle
iteration_state: {dtset: 1, }
solver: {iscf: 7, nstep: 100, nline: 4, wfoptalg: 0, }
tolerances: {tolwfr: 1.00E-20, }
...

     iter   2DEtotal(Ha)        deltaE(Ha) residm    vres2
-ETOT  1  -42.963007251248     -4.296E+01 1.205E-01 0.000E+00
 ETOT  2  -43.021819835332     -5.881E-02 2.893E-03 0.000E+00
 ETOT  3  -43.022683102641     -8.633E-04 2.386E-05 0.000E+00
 ETOT  4  -43.022702608944     -1.951E-05 1.527E-06 0.000E+00
 ETOT  5  -43.022703116401     -5.075E-07 1.798E-08 0.000E+00
 ETOT  6  -43.022703130260     -1.386E-08 1.248E-09 0.000E+00
 ETOT  7  -43.022703130651     -3.915E-10 1.678E-11 0.000E+00
 ETOT  8  -43.022703130663     -1.124E-11 2.419E-12 0.000E+00
 ETOT  9  -43.022703130663     -3.268E-13 1.909E-13 0.000E+00
 ETOT 10  -43.022703130663      3.553E-14 2.785E-14 0.000E+00
 ETOT 11  -43.022703130663     -7.816E-14 2.220E-15 0.000E+00
 ETOT 12  -43.022703130663      1.421E-14 3.252E-16 0.000E+00
 ETOT 13  -43.022703130663     -1.421E-14 2.586E-17 0.000E+00
 ETOT 14  -43.022703130663      1.421E-14 3.831E-18 0.000E+00
 ETOT 15  -43.022703130663     -7.105E-15 3.016E-19 0.000E+00
 ETOT 16  -43.022703130663     -7.105E-15 4.549E-20 0.000E+00
 ETOT 17  -43.022703130663      1.421E-14 9.714E-21 0.000E+00

 At SCF step   17   max residual=  9.71E-21 < tolwfr=  1.00E-20 =>converged.

 ----iterations are completed or convergence reached----

 dfpt_looppert: DFPT cycle converged with prtwf=-1. Will skip output of the 1st-order WFK file.
 dfpt_looppert : ek2=    8.0685916419E+01
          f-sum rule ratio=    1.0604505313E+00
 prteigrs : about to open file /scratch/users/j/a/jabreu/flow_simple_4atoms/flow/w220/t1/tmpdata/tmp_1WF1_EIG
 Expectation of eigenvalue derivatives (hartree) for nkpt=   2  k points:
  (in case of degenerate eigenvalues, averaged derivative)
 kpt#   1, nband= 25, wtk=  0.50000, kpt=  0.0000  0.0000  0.0000 (reduced coord)
  -0.00000    0.00000    0.00000    0.00000    0.00000   -0.00000    0.00000    0.00000
   0.00000    0.00000    0.00000   -0.00000   -0.00000   -0.00000    0.00000    0.00000
   0.00000    0.00000   -0.00000   -0.00000    0.00000    0.00000    0.00000   -0.00000
   0.00000
 prteigrs : prtvol=0 or 1, do not print more k-points.

 Eight components of 2nd-order total energy (hartree) are
 1,2,3: 0th-order hamiltonian combined with 1st-order wavefunctions
     kin0=   4.28474652E+01 eigvalue=   5.20921873E-01  local=  -1.91621263E+01
 4,5,6: 1st-order hamiltonian combined with 1st and 0th-order wfs
     kin1=  -8.55634229E+01  Hartree=   0.00000000E+00     xc=   0.00000000E+00
 7,8,9: eventually, occupation + non-local contributions
    edocc=   1.91476039E+01     enl0=  -3.31161484E-01   enl1=  -4.81983329E-01
 1-9 gives the relaxation energy (to be shifted if some occ is /=2.0)
   erelax=  -4.30227031E+01
  No Ewald or frozen-wf contrib.: the relaxation energy is the total one
 2DEtotal=   -0.4302270313E+02 Ha. Also 2DEtotal=   -0.117070728958E+04 eV
    (  non-var. 2DEtotal :   -4.3022703131E+01 Ha)

 CALCULATION OF EFFECTIVE MASSES
 NOTE : Additional infos (eff. mass eigenvalues, eigenvectors and, if degenerate, average mass) are available in stdout.

 COMMENTS:
 - At k-point ( 0.000, 0.000, 0.000), bands    15 through    16
   are DEGENERATE (effective mass tensor is therefore not defined).
   See Section IIIB Eqs. (67)-(70) and Appendix E of PRB 93 205147 (2016).
 - Angular average effective mass for Frohlich model is to be averaged over degenerate bands. See later.
 - Associated theta integrals calculated with ntheta=   1000 points.

 K-point ( 0.000, 0.000, 0.000) | band =    15
 Transport equivalent effective mass tensor:
             -0.7433864100             -0.1560421950             -0.9724898023
             -0.1560421950             -0.5795748208             -0.5878588106
             -0.9724898023             -0.5878588106             -4.1488980569
 Transport equivalent effective mass tensor eigenvalues:
             -4.5013645140             -0.4852488553             -0.4852459184
 Angular average effective mass 1/(<1/m>)=  -0.6410765706
 Angular average effective mass for Frohlich model (<m**0.5>)**2=  -0.7709993473
 Effective masses along directions: (cart. coord. / red. coord. -> eff. mass)
    1:   1.000000  0.000000  0.000000 /   0.906841  0.421473  0.000000 ->  -0.4765976806
    2:   0.000000  1.000000  0.000000 /   0.000000  1.000000  0.000000 ->  -0.4528958401
    3:   0.000000  0.000000  1.000000 /   0.548311  0.548311  0.631436 ->  -2.1054867751
    4:   0.577350  0.577350  0.577350 /   0.596755  0.672724  0.437408 ->  -1.0683911924
    5:   0.000000  0.707107  0.707107 /   0.466592  0.702545  0.537328 ->  -0.9218291362
    6:   0.707107  0.000000  0.707107 /   0.676358  0.544763  0.495755 ->  -1.1710420863
    7:   0.707107  0.707107  0.000000 /   0.595170  0.803600  0.000000 ->  -0.4995453793

 K-point ( 0.000, 0.000, 0.000) | band =    16
 Transport equivalent effective mass tensor:
             -3.1392322882             -0.2187511949             -1.3633033710
             -0.2187511949             -2.9095760527             -0.8240913778
             -1.3633033710             -0.8240913778             -7.9133129022
 Transport equivalent effective mass tensor eigenvalues:
             -8.4074216677             -2.7773537953             -2.7773457801
 Angular average effective mass 1/(<1/m>)=  -2.4116227194
 Angular average effective mass for Frohlich model (<m**0.5>)**2=  -2.5896779571
 Effective masses along directions: (cart. coord. / red. coord. -> eff. mass)
    1:   1.000000  0.000000  0.000000 /   0.906841  0.421473  0.000000 ->  -2.0442974744
    2:   0.000000  1.000000  0.000000 /   0.000000  1.000000  0.000000 ->  -2.1174542108
    3:   0.000000  0.000000  1.000000 /   0.548311  0.548311  0.631436 ->  -5.5247239638
    4:   0.577350  0.577350  0.577350 /   0.596755  0.672724  0.437408 ->  -2.5668159444
    5:   0.000000  0.707107  0.707107 /   0.466592  0.702545  0.537328 ->  -4.0013229580
    6:   0.707107  0.000000  0.707107 /   0.676358  0.544763  0.495755 ->  -4.6257781651
    7:   0.707107  0.707107  0.000000 /   0.595170  0.803600  0.000000 ->  -1.8399049704

 Angular average effective mass for Frohlich model, averaged over degenerate bands.
 Value of     (<<m**0.5>>)**2 =     1.546682E+00
 Absolute Value of <<m**0.5>> =     1.243657E+00

 K-point ( 0.500, 0.500, 0.000) | band =    17
 Effective mass tensor:
              0.6761136863              0.1552210452             -0.2861498929
              0.1552210452              0.5131600903             -0.1729733074
             -0.2861498929             -0.1729733074              0.9447377771
 Effective mass tensor eigenvalues:
              0.4193313223              0.5117393670              1.2029408644
 Angular average effective mass 1/(<1/m>)=   0.5802522837
 Angular average effective mass for Frohlich model (<m**0.5>)**2=   0.6111994147
 Effective masses along directions: (cart. coord. / red. coord. -> eff. mass)
    1:   1.000000  0.000000  0.000000 /   0.906841  0.421473  0.000000 ->   0.5674814867
    2:   0.000000  1.000000  0.000000 /   0.000000  1.000000  0.000000 ->   0.4635513509
    3:   0.000000  0.000000  1.000000 /   0.548311  0.548311  0.631436 ->   0.7995301377
    4:   0.577350  0.577350  0.577350 /   0.596755  0.672724  0.437408 ->   0.5076884814
    5:   0.000000  0.707107  0.707107 /   0.466592  0.702545  0.537328 ->   0.5037825696
    6:   0.707107  0.000000  0.707107 /   0.676358  0.544763  0.495755 ->   0.5072820173
    7:   0.707107  0.707107  0.000000 /   0.595170  0.803600  0.000000 ->   0.6315616125

 END OF EFFECTIVE MASSES SECTION

 ---- first-order wavefunction calculations are completed ----

 Total localisation tensor (bohr^2) in cartesian coordinates
  WARNING : still subject to testing - especially symmetries.
      direction              matrix element
   alpha     beta       real part   imaginary part
     1        1       1.5251941918    0.0000000000
     1        2       0.5161556835    0.0000000000
     1        3       3.2168002392    0.0000000000
     2        1       0.5161556835    0.0000000000
     2        2       0.9833259943    0.0000000000
     2        3       1.9445076065    0.0000000000
     3        1       3.2168002392    0.0000000000
     3        2       1.9445076065    0.0000000000
     3        3      12.2631471580    0.0000000000

 respfn : d/dk was computed, but no 2DTE, so no DDB output.

== END DATASET(S) ==============================================================

 -outvars: echo values of variables after computation  --------
            acell      1.0000000000E+00  1.0000000000E+00  1.0000000000E+00 Bohr
              amu      8.54678000E+01  8.89058500E+01  1.59994000E+01
             ecut      4.40000000E+01 Hartree
           etotal     -4.3022703131E+01
            fcart      0.0000000000E+00  0.0000000000E+00  0.0000000000E+00
                       0.0000000000E+00  0.0000000000E+00  0.0000000000E+00
                       0.0000000000E+00  0.0000000000E+00  0.0000000000E+00
                       0.0000000000E+00  0.0000000000E+00  0.0000000000E+00
-          fftalg         512
           irdden           1
           irdwfk           1
           istwfk        1    1
              ixc     -116133
              kpt      0.00000000E+00  0.00000000E+00  0.00000000E+00
                       5.00000000E-01  5.00000000E-01  0.00000000E+00
           kptopt           0
P           mkmem           2
P          mkqmem           2
P          mk1mem           2
            natom           4
            nband          25
           nbdbuf           4
            ngfft          80      80      80
             nkpt           2
            nstep         100
             nsym          12
           ntypat           3
              occ      2.000000  2.000000  2.000000  2.000000  2.000000  2.000000
                       2.000000  2.000000  2.000000  2.000000  2.000000  2.000000
                       2.000000  2.000000  2.000000  2.000000  0.000000  0.000000
                       0.000000  0.000000  0.000000  0.000000  0.000000  0.000000
                       0.000000
        optdriver           1
            prtwf          -1
            rfdir           1       1       1
           rfelfd           2
            rprim      6.3199851177E+00  0.0000000000E+00  1.1065807571E+01
                       2.9373397415E+00  5.5959134313E+00  1.1065807571E+01
                       0.0000000000E+00  0.0000000000E+00  1.2743402571E+01
          spgroup         166
           strten      0.0000000000E+00  0.0000000000E+00  0.0000000000E+00
                       0.0000000000E+00  0.0000000000E+00  0.0000000000E+00
           symrel      1  0  0   0  1  0   0  0  1      -1  0  0   0 -1  0   0  0 -1
                       0  1  0   1  0  0   0  0  1       0 -1  0  -1  0  0   0  0 -1
                       0  0  1   1  0  0   0  1  0       0  0 -1  -1  0  0   0 -1  0
                       1  0  0   0  0  1   0  1  0      -1  0  0   0  0 -1   0 -1  0
                       0  1  0   0  0  1   1  0  0       0 -1  0   0  0 -1  -1  0  0
                       0  0  1   0  1  0   1  0  0       0  0 -1   0 -1  0  -1  0  0
           tolwfr      1.00000000E-20
            typat      1  2  3  3
           useylm           1
              wtk        0.50000    0.50000
           xangst      0.0000000000E+00  0.0000000000E+00  0.0000000000E+00
                       2.4493826640E+00  1.4806149245E+00  9.2275322616E+00
                       3.7941182404E+00  2.2934873243E+00  1.4293539749E+01
                       1.1046470876E+00  6.6774252482E-01  4.1615247746E+00
            xcart      0.0000000000E+00  0.0000000000E+00  0.0000000000E+00
                       4.6286624296E+00  2.7979567156E+00  1.7437508857E+01
                       7.1698443901E+00  4.3340629321E+00  2.7010875594E+01
                       2.0874804691E+00  1.2618504992E+00  7.8641421193E+00
             xred      0.0000000000E+00  0.0000000000E+00  0.0000000000E+00
                       5.0000000000E-01  5.0000000000E-01  5.0000000000E-01
                       7.7450500000E-01  7.7450500000E-01  7.7450500000E-01
                       2.2549500000E-01  2.2549500000E-01  2.2549500000E-01
            znucl       37.00000   39.00000    8.00000

- Timing analysis has been suppressed with timopt=0

 Suggested references for the acknowledgment of ABINIT usage.

 Calculation completed.
.Delivered  14 WARNINGs and   9 COMMENTs to log file.