.Version 9.5.2 of ABINIT

 ABINIT is a project of the Universite Catholique de Louvain,
 Corning Inc. and other collaborators, see ~abinit/doc/developers/contributors.txt .
 acknowledgments of the ABINIT effort.

.Starting date : Wed 26 May 2021.
- ( at 02h57 )

- input  file    -> /scratch/users/j/a/jabreu/flow_simple_11atoms/flow/w275/t1/run.abi
- output file    -> /scratch/users/j/a/jabreu/flow_simple_11atoms/flow/w275/t1/run.abo
- root for input  files -> /scratch/users/j/a/jabreu/flow_simple_11atoms/flow/w275/t1/indata/in
- root for output files -> /scratch/users/j/a/jabreu/flow_simple_11atoms/flow/w275/t1/outdata/out

 Symmetries : space group P2_1/c (# 14); Bravais mP (primitive monocl.)
     intxc =       0      iscf =       7    lmnmax =      18     lnmax =       6
     mgfft =      72  mpssoang =       3    mqgrid =    3261     natom =      12
  nloc_mem =       1    nspden =       1   nspinor =       1    nsppol =       1
      nsym =       4    n1xccc =    2501    ntypat =       2    occopt =       1
   xclevel =       2
-    mband =          63        mffmem =           1         mkmem =           2
-   mkqmem =           2        mk1mem =           2           mpw =       16749
      nfft =      373248          nkpt =           2
  Rough estimation (10% accuracy) of disk space for files :

------------- Echo of variables that govern the present computation ------------
-
- outvars: echo of selected default values
-   iomode0 =  0 , fftalg0 =512 , wfoptalg0 =  0
-
- outvars: echo of global parameters not present in the input file
-  max_nthreads =    0
-
 -outvars: echo values of preprocessed input variables --------
            acell      1.0000000000E+00  1.0000000000E+00  1.0000000000E+00 Bohr
              amu      3.09737620E+01  1.02905500E+02
             ecut      4.40000000E+01 Hartree
-          fftalg         512
           irdden           1
           irdwfk           1
           istwfk        1    1
              ixc     -116133
              kpt      0.00000000E+00  5.00000000E-01  0.00000000E+00
                       0.00000000E+00  0.00000000E+00  0.00000000E+00
           kptopt           0
P           mkmem           2
P          mkqmem           2
P          mk1mem           2
            natom          12
            nband          63
           nbdbuf           4
            ngfft          72      72      72
             nkpt           2
            nstep        2000
             nsym           4
           ntypat           2
              occ      2.000000  2.000000  2.000000  2.000000  2.000000  2.000000
                       2.000000  2.000000  2.000000  2.000000  2.000000  2.000000
                       2.000000  2.000000  2.000000  2.000000  2.000000  2.000000
                       2.000000  2.000000  2.000000  2.000000  2.000000  2.000000
                       2.000000  2.000000  2.000000  2.000000  2.000000  2.000000
                       2.000000  2.000000  2.000000  2.000000  2.000000  2.000000
                       2.000000  2.000000  2.000000  2.000000  2.000000  2.000000
                       2.000000  2.000000  2.000000  2.000000  2.000000  2.000000
                       2.000000  2.000000  2.000000  2.000000  2.000000  2.000000
                       0.000000  0.000000  0.000000  0.000000  0.000000  0.000000
                       0.000000  0.000000  0.000000
        optdriver           1
            prtwf          -1
            rfdir           1       1       1
           rfelfd           2
            rprim      1.0918819822E+01  0.0000000000E+00  0.0000000000E+00
                       0.0000000000E+00  9.9775245394E+00  4.1613983385E+00
                       0.0000000000E+00  0.0000000000E+00  1.1011547625E+01
          spgroup          14
           symrel      1  0  0   0  1  0   0  0  1      -1  0  0   0 -1  0   0  0 -1
                       1  0  0   0 -1  0   0  0 -1      -1  0  0   0  1  0   0  0  1
            tnons      0.0000000  0.0000000  0.0000000     0.0000000  0.0000000  0.0000000
                       0.5000000  0.0000000  0.5000000     0.5000000  0.0000000  0.5000000
           tolwfr      1.00000000E-20
            typat      1  1  1  1  1  1  1  1  2  2  2  2
           useylm           1
              wtk        0.50000    0.50000
           xangst      5.0738788829E+00  4.4348551365E+00  6.9170749861E+00
                       2.1848835855E+00  8.4502344792E-01  4.0256322223E+00
                       7.0411171187E-01  8.4502344792E-01  1.1121022050E+00
                       3.5931070093E+00  4.4348551365E+00  4.0035449688E+00
                       2.1740556311E+00  3.5140759906E+00  2.5668214189E+00
                       5.0630509285E+00  1.7658025938E+00  2.5488257550E+00
                       3.6039349636E+00  1.7658025938E+00  5.4623557722E+00
                       7.1493966624E-01  3.5140759906E+00  5.4803514361E+00
                       2.8832346408E+00  3.8441687198E+00  6.2143669226E+00
                       5.7722299381E+00  1.4357098645E+00  4.7283402858E+00
                       2.8947559540E+00  1.4357098645E+00  1.8148102685E+00
                       5.7606566230E-03  3.8441687198E+00  3.3008369053E+00
            xcart      9.5882415201E+00  8.3806616470E+00  1.3071377364E+01
                       4.1288316089E+00  1.5968628924E+00  7.6073424118E+00
                       1.3305783024E+00  1.5968628924E+00  2.1015685993E+00
                       6.7899882136E+00  8.3806616470E+00  7.5656035518E+00
                       4.1083697405E+00  6.6406412324E+00  4.8505895137E+00
                       9.5677796518E+00  3.3368833070E+00  4.8165826373E+00
                       6.8104500820E+00  3.3368833070E+00  1.0322356450E+01
                       1.3510401707E+00  6.6406412324E+00  1.0356363326E+01
                       5.4485238479E+00  7.2644260891E+00  1.1743451573E+01
                       1.0907933759E+01  2.7130984503E+00  8.9352682032E+00
                       5.4702959746E+00  2.7130984503E+00  3.4294943907E+00
                       1.0886063363E-02  7.2644260891E+00  6.2376777604E+00
             xred      8.7813900000E-01  8.3995400000E-01  8.6963200000E-01
                       3.7813900000E-01  1.6004600000E-01  6.3036800000E-01
                       1.2186100000E-01  1.6004600000E-01  1.3036800000E-01
                       6.2186100000E-01  8.3995400000E-01  3.6963200000E-01
                       3.7626500000E-01  6.6556000000E-01  1.8897700000E-01
                       8.7626500000E-01  3.3444000000E-01  3.1102300000E-01
                       6.2373500000E-01  3.3444000000E-01  8.1102300000E-01
                       1.2373500000E-01  6.6556000000E-01  6.8897700000E-01
                       4.9900300000E-01  7.2807900000E-01  7.9131700000E-01
                       9.9900300000E-01  2.7192100000E-01  7.0868300000E-01
                       5.0099700000E-01  2.7192100000E-01  2.0868300000E-01
                       9.9700000000E-04  7.2807900000E-01  2.9131700000E-01
            znucl       15.00000   45.00000

 chkinp: Checking input parameters for consistency.

== DATASET  1 ==================================================================
-   mpi_nproc: 1, omp_nthreads: -1 (-1 if OMP is not activated)

--- !DatasetInfo
iteration_state: {dtset: 1, }
dimensions: {natom: 12, nkpt: 2, mband: 63, nsppol: 1, nspinor: 1, nspden: 1, mpw: 16749, }
cutoff_energies: {ecut:  44.0, pawecutdg:  -1.0, }
electrons: {nelect:   1.08000000E+02, charge:   0.00000000E+00, occopt:   1.00000000E+00, tsmear:   1.00000000E-02, }
meta: {optdriver: 1, rfelfd: 2, }
...

 Real(R)+Recip(G) space primitive vectors, cartesian coordinates (Bohr,Bohr^-1):
 R(1)= 10.9188198  0.0000000  0.0000000  G(1)=  0.0915850  0.0000000  0.0000000
 R(2)=  0.0000000  9.9775245  4.1613983  G(2)=  0.0000000  0.1002253  0.0000000
 R(3)=  0.0000000  0.0000000 11.0115476  G(3)=  0.0000000 -0.0378764  0.0908138
 Unit cell volume ucvol=  1.1996288E+03 bohr^3
 Angles (23,13,12)=  6.73600940E+01  9.00000000E+01  9.00000000E+01 degrees

 getcut: wavevector=  0.0000  0.0000  0.0000  ngfft=  72  72  72
         ecut(hartree)=     44.000   => boxcut(ratio)=   2.18990

--- Pseudopotential description ------------------------------------------------
- pspini: atom type   1  psp file is /scratch/users/j/a/jabreu/pseudos/PBEsol/P.psp8
- pspatm: opening atomic psp file    /scratch/users/j/a/jabreu/pseudos/PBEsol/P.psp8
- P     ONCVPSP-3.3.0  r_core=   1.46089   1.55067   1.70594
- 15.00000   5.00000    180112                znucl, zion, pspdat
    8 -116133    2    4       600   0.00000   pspcod,pspxc,lmax,lloc,mmax,r2well
    5.99000000000000    5.00000000000000    0.00000000000000   rchrg,fchrg,qchrg
     nproj     2     2     2
     extension_switch     1
  pspatm : epsatm=    7.31221086
         --- l  ekb(1:nproj) -->
             0    6.742364    1.063650
             1    3.449117    0.910422
             2   -3.077645   -0.799176
 pspatm: atomic psp has been read  and splines computed

- pspini: atom type   2  psp file is /scratch/users/j/a/jabreu/pseudos/PBEsol/Rh.psp8
- pspatm: opening atomic psp file    /scratch/users/j/a/jabreu/pseudos/PBEsol/Rh.psp8
- Rh    ONCVPSP-3.3.0  r_core=   1.40787   1.40787   1.35838
- 45.00000  17.00000    180112                znucl, zion, pspdat
    8 -116133    2    4       600   0.00000   pspcod,pspxc,lmax,lloc,mmax,r2well
    5.99000000000000    7.00000000000000    0.00000000000000   rchrg,fchrg,qchrg
     nproj     2     2     2
     extension_switch     1
  pspatm : epsatm=   21.51201928
         --- l  ekb(1:nproj) -->
             0   16.263264    1.496972
             1    7.329212    1.051636
             2    0.393200    0.129871
 pspatm: atomic psp has been read  and splines computed

   1.56109425E+04                                ecore*ucvol(ha*bohr**3)

 ==>  initialize data related to q vector <==

 The list of irreducible perturbations for this q vector is:
    1)    idir= 1    ipert=  13
    2)    idir= 2    ipert=  13
    3)    idir= 3    ipert=  13

 Perturbation wavevector (in red.coord.)   0.000000  0.000000  0.000000
 Perturbation : derivative vs k along direction   1

 dfpt_looppert : COMMENT -
  In a d/dk calculation, iscf is set to -3 automatically.
 The set of symmetries contains only one element for this perturbation.
 symkpt : not enough symmetry to change the number of k points.

 Initialisation of the first-order wave-functions :
  ireadwf=   0

--- !BeginCycle
iteration_state: {dtset: 1, }
solver: {iscf: 7, nstep: 2000, nline: 4, wfoptalg: 0, }
tolerances: {tolwfr: 1.00E-20, }
...

     iter   2DEtotal(Ha)        deltaE(Ha) residm    vres2
-ETOT  1  -29.888846187752     -2.989E+01 9.168E-02 0.000E+00
 ETOT  2  -30.008858373314     -1.200E-01 1.090E-02 0.000E+00
 ETOT  3  -30.011777440464     -2.919E-03 1.156E-03 0.000E+00
 ETOT  4  -30.011887472680     -1.100E-04 1.281E-04 0.000E+00
 ETOT  5  -30.011892433656     -4.961E-06 5.694E-05 0.000E+00
 ETOT  6  -30.011892686478     -2.528E-07 6.534E-06 0.000E+00
 ETOT  7  -30.011892700222     -1.374E-08 3.277E-06 0.000E+00
 ETOT  8  -30.011892701002     -7.805E-10 3.793E-07 0.000E+00
[...]
  -0.00000   -0.00000   -0.00000   -0.00000   -0.00000   -0.00000   -0.00000   -0.00000
  -0.00000   -0.00000   -0.00000   -0.00000    0.00000   -0.00000    0.00000    0.00000
  -0.00000    0.00000   -0.00000   -0.00000   -0.00000   -0.00000   -0.00000    0.00000
  -0.00000    0.00000    0.00000    0.00000   -0.00000    0.00000    0.00000    0.00000
   0.00000    0.00000   -0.00000   -0.00000    0.00000    0.00000    0.00000    0.00000
   0.00000   -0.00000    0.00000   -0.00000    0.00000   -0.00000    0.00000   -0.00000
  -0.00000    0.00000   -0.00000    0.00000   -0.00000   -0.00000   -0.00000    0.00000
   0.00000   -0.00000   -0.00000   -0.00000   -0.00000    0.00000   -0.00000
 prteigrs : prtvol=0 or 1, do not print more k-points.

 Eight components of 2nd-order total energy (hartree) are
 1,2,3: 0th-order hamiltonian combined with 1st-order wavefunctions
     kin0=   5.46396102E+01 eigvalue=  -6.87529635E+00  local=  -2.87603462E+01
 4,5,6: 1st-order hamiltonian combined with 1st and 0th-order wfs
     kin1=  -6.10232097E+01  Hartree=   0.00000000E+00     xc=   0.00000000E+00
 7,8,9: eventually, occupation + non-local contributions
    edocc=   6.47633780E+00     enl0=   4.53158723E+00   enl1=   9.99424264E-01
 1-9 gives the relaxation energy (to be shifted if some occ is /=2.0)
   erelax=  -3.00118927E+01
  No Ewald or frozen-wf contrib.: the relaxation energy is the total one
 2DEtotal=   -0.3001189270E+02 Ha. Also 2DEtotal=   -0.816665132653E+03 eV
    (  non-var. 2DEtotal :   -3.0011892701E+01 Ha)

 Perturbation wavevector (in red.coord.)   0.000000  0.000000  0.000000
 Perturbation : derivative vs k along direction   2
 The set of symmetries contains only one element for this perturbation.
 symkpt : not enough symmetry to change the number of k points.

[...]

 Perturbation wavevector (in red.coord.)   0.000000  0.000000  0.000000
 Perturbation : derivative vs k along direction   3
 The set of symmetries contains only one element for this perturbation.
 symkpt : not enough symmetry to change the number of k points.

 Initialisation of the first-order wave-functions :
  ireadwf=   0

--- !BeginCycle
iteration_state: {dtset: 1, }
solver: {iscf: 7, nstep: 2000, nline: 4, wfoptalg: 0, }
tolerances: {tolwfr: 1.00E-20, }
...

     iter   2DEtotal(Ha)        deltaE(Ha) residm    vres2
-ETOT  1  -36.043230501252     -3.604E+01 1.564E-01 0.000E+00
 ETOT  2  -36.184088647259     -1.409E-01 8.750E-03 0.000E+00
 ETOT  3  -36.188231549644     -4.143E-03 6.631E-04 0.000E+00
 ETOT  4  -36.188420931306     -1.894E-04 1.222E-04 0.000E+00
 ETOT  5  -36.188431124155     -1.019E-05 1.501E-05 0.000E+00
 ETOT  6  -36.188431709316     -5.852E-07 4.849E-06 0.000E+00
 ETOT  7  -36.188431744338     -3.502E-08 6.633E-07 0.000E+00
 ETOT  8  -36.188431746482     -2.144E-09 2.244E-07 0.000E+00
 ETOT  9  -36.188431746615     -1.338E-10 3.085E-08 0.000E+00
 ETOT 10  -36.188431746624     -8.413E-12 1.063E-08 0.000E+00
 ETOT 11  -36.188431746624     -5.542E-13 1.458E-09 0.000E+00
 ETOT 12  -36.188431746625     -6.395E-14 5.091E-10 0.000E+00
 ETOT 13  -36.188431746624      4.974E-14 6.964E-11 0.000E+00
 ETOT 14  -36.188431746625     -9.237E-14 2.456E-11 0.000E+00
 ETOT 15  -36.188431746625      4.263E-14 3.356E-12 0.000E+00
 ETOT 16  -36.188431746624      3.553E-14 1.193E-12 0.000E+00
 ETOT 17  -36.188431746624      0.000E+00 2.009E-13 0.000E+00
 ETOT 18  -36.188431746624      7.105E-15 5.821E-14 0.000E+00
 ETOT 19  -36.188431746624     -7.105E-15 1.407E-14 0.000E+00
 ETOT 20  -36.188431746624      0.000E+00 2.853E-15 0.000E+00
 ETOT 21  -36.188431746624      2.132E-14 9.922E-16 0.000E+00
 ETOT 22  -36.188431746624     -2.132E-14 1.430E-16 0.000E+00
 ETOT 23  -36.188431746624     -7.105E-15 7.029E-17 0.000E+00
 ETOT 24  -36.188431746624      7.105E-15 1.018E-17 0.000E+00
 ETOT 25  -36.188431746624      0.000E+00 4.999E-18 0.000E+00
 ETOT 26  -36.188431746624      0.000E+00 7.268E-19 0.000E+00
 ETOT 27  -36.188431746624      2.132E-14 3.567E-19 0.000E+00
 ETOT 28  -36.188431746624     -2.842E-14 5.206E-20 0.000E+00
 ETOT 29  -36.188431746624      0.000E+00 2.552E-20 0.000E+00
 ETOT 30  -36.188431746624      0.000E+00 9.974E-21 0.000E+00

 At SCF step   30   max residual=  9.97E-21 < tolwfr=  1.00E-20 =>converged.

 ----iterations are completed or convergence reached----

 dfpt_looppert: DFPT cycle converged with prtwf=-1. Will skip output of the 1st-order WFK file.
 dfpt_looppert : ek2=    8.2559609484E+01
          f-sum rule ratio=    8.9355182577E-01
 prteigrs : about to open file /scratch/users/j/a/jabreu/flow_simple_11atoms/flow/w275/t1/tmpdata/tmp_1WF1_EIG
 Expectation of eigenvalue derivatives (hartree) for nkpt=   2  k points:
  (in case of degenerate eigenvalues, averaged derivative)
 kpt#   1, nband= 63, wtk=  0.50000, kpt=  0.0000  0.5000  0.0000 (reduced coord)
   0.00000    0.00000    0.00000   -0.00000    0.00000   -0.00000   -0.00000   -0.00000
  -0.00000    0.00000    0.00000   -0.00000    0.00000    0.00000    0.00000    0.00000
   0.00000    0.00000   -0.00000    0.00000   -0.00000    0.00000    0.00000   -0.00000
   0.00000    0.00000   -0.00000    0.00000    0.00000    0.00000   -0.00000   -0.00000
   0.00000   -0.00000    0.00000    0.00000   -0.00000    0.00000    0.00000    0.00000
  -0.00000   -0.00000    0.00000    0.00000   -0.00000    0.00000    0.00000    0.00000
  -0.00000    0.00000    0.00000    0.00000   -0.00000    0.00000    0.00000   -0.00000
   0.00000    0.00000    0.00000    0.00000   -0.00000   -0.00000    0.00000
 prteigrs : prtvol=0 or 1, do not print more k-points.

 Eight components of 2nd-order total energy (hartree) are
 1,2,3: 0th-order hamiltonian combined with 1st-order wavefunctions
     kin0=   6.44693622E+01 eigvalue=  -8.37874653E+00  local=  -3.34601908E+01
 4,5,6: 1st-order hamiltonian combined with 1st and 0th-order wfs
     kin1=  -7.37712898E+01  Hartree=   0.00000000E+00     xc=   0.00000000E+00
 7,8,9: eventually, occupation + non-local contributions
    edocc=   8.55365825E+00     enl0=   5.00434868E+00   enl1=   1.39442630E+00
 1-9 gives the relaxation energy (to be shifted if some occ is /=2.0)
   erelax=  -3.61884317E+01
  No Ewald or frozen-wf contrib.: the relaxation energy is the total one
 2DEtotal=   -0.3618843175E+02 Ha. Also 2DEtotal=   -0.984737307549E+03 eV
    (  non-var. 2DEtotal :   -3.6188431746E+01 Ha)

 CALCULATION OF EFFECTIVE MASSES
 NOTE : Additional infos (eff. mass eigenvalues, eigenvectors and, if degenerate, average mass) are available in stdout.

 K-point ( 0.000, 0.500, 0.000) | band =    54
 Effective mass tensor:
             -1.0392764546              0.0000000001              0.0000000001
              0.0000000001             -0.2063791882              0.0502078441
              0.0000000001              0.0502078441             -0.8795809144
 Effective mass tensor eigenvalues:
             -1.0392764546             -0.8833048501             -0.2026552525
 Angular average effective mass 1/(<1/m>)=  -0.4268148842
 Angular average effective mass for Frohlich model (<m**0.5>)**2=  -0.5121976035
 Effective masses along directions: (cart. coord. / red. coord. -> eff. mass)
    1:   1.000000  0.000000  0.000000 /   1.000000  0.000000  0.000000 ->  -1.0392764546
    2:   0.000000  1.000000  0.000000 /   0.000000  1.000000  0.000000 ->  -0.2035132465
    3:   0.000000  0.000000  1.000000 /   0.000000  0.353511  0.935431 ->  -0.8673663707
    4:   0.577350  0.577350  0.577350 /   0.520307  0.673753  0.524726 ->  -0.3952689030
    5:   0.000000  0.707107  0.707107 /   0.000000  0.788957  0.614448 ->  -0.3017700948
    6:   0.707107  0.000000  0.707107 /   0.680050  0.259182  0.685825 ->  -0.9455713829
    7:   0.707107  0.707107  0.000000 /   0.738210  0.674570  0.000000 ->  -0.3403737978

--- !WARNING
src_file: m_efmas.F90
src_line: 0
message: |

    Band(s)    55,
    are not band extrema, but saddle points;
    the transport equivalent formalism breaks down in these conditions.
    The associated tensor(s) will therefore not be printed.
...

 K-point ( 0.000, 0.000, 0.000) | band =    55
 Effective mass tensor:
     *** SADDLE POINT: TRANSPORT EQV. EFF. MASS NOT DEFINED (see WARNING above) ***
 Angular average effective mass 1/(<1/m>)=   2.2904630021
 Angular average effective mass for Frohlich model (<m**0.5>)**2=   4.4101394032
 Effective masses along directions: (cart. coord. / red. coord. -> eff. mass)
    1:   1.000000  0.000000  0.000000 /   1.000000  0.000000  0.000000 ->   1.9904582415
    2:   0.000000  1.000000  0.000000 /   0.000000  1.000000  0.000000 ->   1.6209976202
    3:   0.000000  0.000000  1.000000 /   0.000000  0.353511  0.935431 ->   5.2499522015
    4:   0.577350  0.577350  0.577350 /   0.520307  0.673753  0.524726 ->   1.4837256852
    5:   0.000000  0.707107  0.707107 /   0.000000  0.788957  0.614448 ->   1.3161920191
    6:   0.707107  0.000000  0.707107 /   0.680050  0.259182  0.685825 ->   2.8865190468
    7:   0.707107  0.707107  0.000000 /   0.738210  0.674570  0.000000 ->   1.7868234815

 END OF EFFECTIVE MASSES SECTION

 ---- first-order wavefunction calculations are completed ----

 Total localisation tensor (bohr^2) in cartesian coordinates
  WARNING : still subject to testing - especially symmetries.
      direction              matrix element
   alpha     beta       real part   imaginary part
     1        1       0.8791575123    0.0000000000
     1        2       0.0000000000    0.0000000000
     1        3       0.0000000000    0.0000000000
     2        1       0.0000000000    0.0000000000
     2        2       1.5215951609    0.0000000000
     2        3       0.6346227012    0.0000000000
     3        1       0.0000000000    0.0000000000
     3        2       0.6346227012    0.0000000000
     3        3       1.5180674512    0.0000000000

 respfn : d/dk was computed, but no 2DTE, so no DDB output.

== END DATASET(S) ==============================================================

 -outvars: echo values of variables after computation  --------
            acell      1.0000000000E+00  1.0000000000E+00  1.0000000000E+00 Bohr
              amu      3.09737620E+01  1.02905500E+02
             ecut      4.40000000E+01 Hartree
           etotal     -3.6188431747E+01
            fcart      0.0000000000E+00  0.0000000000E+00  0.0000000000E+00
                       0.0000000000E+00  0.0000000000E+00  0.0000000000E+00
                       0.0000000000E+00  0.0000000000E+00  0.0000000000E+00
                       0.0000000000E+00  0.0000000000E+00  0.0000000000E+00
                       0.0000000000E+00  0.0000000000E+00  0.0000000000E+00
                       0.0000000000E+00  0.0000000000E+00  0.0000000000E+00
                       0.0000000000E+00  0.0000000000E+00  0.0000000000E+00
                       0.0000000000E+00  0.0000000000E+00  0.0000000000E+00
                       0.0000000000E+00  0.0000000000E+00  0.0000000000E+00
                       0.0000000000E+00  0.0000000000E+00  0.0000000000E+00
                       0.0000000000E+00  0.0000000000E+00  0.0000000000E+00
                       0.0000000000E+00  0.0000000000E+00  0.0000000000E+00
-          fftalg         512
           irdden           1
           irdwfk           1
           istwfk        1    1
              ixc     -116133
              kpt      0.00000000E+00  5.00000000E-01  0.00000000E+00
                       0.00000000E+00  0.00000000E+00  0.00000000E+00
           kptopt           0
P           mkmem           2
P          mkqmem           2
P          mk1mem           2
            natom          12
            nband          63
           nbdbuf           4
            ngfft          72      72      72
             nkpt           2
            nstep        2000
             nsym           4
           ntypat           2
              occ      2.000000  2.000000  2.000000  2.000000  2.000000  2.000000
                       2.000000  2.000000  2.000000  2.000000  2.000000  2.000000
                       2.000000  2.000000  2.000000  2.000000  2.000000  2.000000
                       2.000000  2.000000  2.000000  2.000000  2.000000  2.000000
                       2.000000  2.000000  2.000000  2.000000  2.000000  2.000000
                       2.000000  2.000000  2.000000  2.000000  2.000000  2.000000
                       2.000000  2.000000  2.000000  2.000000  2.000000  2.000000
                       2.000000  2.000000  2.000000  2.000000  2.000000  2.000000
                       2.000000  2.000000  2.000000  2.000000  2.000000  2.000000
                       0.000000  0.000000  0.000000  0.000000  0.000000  0.000000
                       0.000000  0.000000  0.000000
        optdriver           1
            prtwf          -1
            rfdir           1       1       1
           rfelfd           2
            rprim      1.0918819822E+01  0.0000000000E+00  0.0000000000E+00
                       0.0000000000E+00  9.9775245394E+00  4.1613983385E+00
                       0.0000000000E+00  0.0000000000E+00  1.1011547625E+01
          spgroup          14
           strten      0.0000000000E+00  0.0000000000E+00  0.0000000000E+00
                       0.0000000000E+00  0.0000000000E+00  0.0000000000E+00
           symrel      1  0  0   0  1  0   0  0  1      -1  0  0   0 -1  0   0  0 -1
                       1  0  0   0 -1  0   0  0 -1      -1  0  0   0  1  0   0  0  1
            tnons      0.0000000  0.0000000  0.0000000     0.0000000  0.0000000  0.0000000
                       0.5000000  0.0000000  0.5000000     0.5000000  0.0000000  0.5000000
           tolwfr      1.00000000E-20
            typat      1  1  1  1  1  1  1  1  2  2  2  2
           useylm           1
              wtk        0.50000    0.50000
           xangst      5.0738788829E+00  4.4348551365E+00  6.9170749861E+00
                       2.1848835855E+00  8.4502344792E-01  4.0256322223E+00
                       7.0411171187E-01  8.4502344792E-01  1.1121022050E+00
                       3.5931070093E+00  4.4348551365E+00  4.0035449688E+00
                       2.1740556311E+00  3.5140759906E+00  2.5668214189E+00
                       5.0630509285E+00  1.7658025938E+00  2.5488257550E+00
                       3.6039349636E+00  1.7658025938E+00  5.4623557722E+00
                       7.1493966624E-01  3.5140759906E+00  5.4803514361E+00
                       2.8832346408E+00  3.8441687198E+00  6.2143669226E+00
                       5.7722299381E+00  1.4357098645E+00  4.7283402858E+00
                       2.8947559540E+00  1.4357098645E+00  1.8148102685E+00
                       5.7606566230E-03  3.8441687198E+00  3.3008369053E+00
            xcart      9.5882415201E+00  8.3806616470E+00  1.3071377364E+01
                       4.1288316089E+00  1.5968628924E+00  7.6073424118E+00
                       1.3305783024E+00  1.5968628924E+00  2.1015685993E+00
                       6.7899882136E+00  8.3806616470E+00  7.5656035518E+00
                       4.1083697405E+00  6.6406412324E+00  4.8505895137E+00
                       9.5677796518E+00  3.3368833070E+00  4.8165826373E+00
                       6.8104500820E+00  3.3368833070E+00  1.0322356450E+01
                       1.3510401707E+00  6.6406412324E+00  1.0356363326E+01
                       5.4485238479E+00  7.2644260891E+00  1.1743451573E+01
                       1.0907933759E+01  2.7130984503E+00  8.9352682032E+00
                       5.4702959746E+00  2.7130984503E+00  3.4294943907E+00
                       1.0886063363E-02  7.2644260891E+00  6.2376777604E+00
             xred      8.7813900000E-01  8.3995400000E-01  8.6963200000E-01
                       3.7813900000E-01  1.6004600000E-01  6.3036800000E-01
                       1.2186100000E-01  1.6004600000E-01  1.3036800000E-01
                       6.2186100000E-01  8.3995400000E-01  3.6963200000E-01
                       3.7626500000E-01  6.6556000000E-01  1.8897700000E-01
                       8.7626500000E-01  3.3444000000E-01  3.1102300000E-01
                       6.2373500000E-01  3.3444000000E-01  8.1102300000E-01
                       1.2373500000E-01  6.6556000000E-01  6.8897700000E-01
                       4.9900300000E-01  7.2807900000E-01  7.9131700000E-01
                       9.9900300000E-01  2.7192100000E-01  7.0868300000E-01
                       5.0099700000E-01  2.7192100000E-01  2.0868300000E-01
                       9.9700000000E-04  7.2807900000E-01  2.9131700000E-01
            znucl       15.00000   45.00000

- Timing analysis has been suppressed with timopt=0

 Suggested references for the acknowledgment of ABINIT usage.

 Calculation completed.
.Delivered   3 WARNINGs and   5 COMMENTs to log file.