.Version 9.5.1 of ABINIT

 ABINIT is a project of the Universite Catholique de Louvain,
 Corning Inc. and other collaborators, see ~abinit/doc/developers/contributors.txt .
 acknowledgments of the ABINIT effort.

.Starting date : Sun 25 Apr 2021.
- ( at 17h26 )

- input  file    -> /scratch/users/j/a/jabreu/flow_simple2/flow/w230/t1/run.abi
- output file    -> /scratch/users/j/a/jabreu/flow_simple2/flow/w230/t1/run.abo
- root for input  files -> /scratch/users/j/a/jabreu/flow_simple2/flow/w230/t1/indata/in
- root for output files -> /scratch/users/j/a/jabreu/flow_simple2/flow/w230/t1/outdata/out

 Symmetries : space group F-4 3 m (#216); Bravais cF (face-center cubic)
     intxc =       0      iscf =       7    lmnmax =      18     lnmax =       6
     mgfft =      45  mpssoang =       3    mqgrid =    3001     natom =       2
  nloc_mem =       1    nspden =       1   nspinor =       1    nsppol =       1
      nsym =      24    n1xccc =    2501    ntypat =       2    occopt =       1
   xclevel =       2
-    mband =          19        mffmem =           1         mkmem =           2
-   mkqmem =           2        mk1mem =           2           mpw =        3218
      nfft =       91125          nkpt =           2
  Rough estimation (10% accuracy) of disk space for files :

------------- Echo of variables that govern the present computation ------------
-
- outvars: echo of selected default values
-   iomode0 =  0 , fftalg0 =512 , wfoptalg0 =  0
-
- outvars: echo of global parameters not present in the input file
-  max_nthreads =    0
-
 -outvars: echo values of preprocessed input variables --------
            acell      1.0000000000E+00  1.0000000000E+00  1.0000000000E+00 Bohr
              amu      9.01218200E+00  7.89600000E+01
             ecut      4.40000000E+01 Hartree
-          fftalg         512
           irdden           1
           irdwfk           1
           istwfk        1    1
              ixc     -116133
              kpt      0.00000000E+00  0.00000000E+00  0.00000000E+00
                       5.00000000E-01  2.46519033E-32  5.00000000E-01
           kptopt           0
P           mkmem           2
P          mkqmem           2
P          mk1mem           2
            natom           2
            nband          19
           nbdbuf           4
            ngfft          45      45      45
             nkpt           2
            nstep         100
             nsym          24
           ntypat           2
              occ      2.000000  2.000000  2.000000  2.000000  2.000000  2.000000
                       2.000000  2.000000  2.000000  2.000000  0.000000  0.000000
                       0.000000  0.000000  0.000000  0.000000  0.000000  0.000000
                       0.000000
        optdriver           1
            prtwf          -1
            rfdir           1       1       1
           rfelfd           2
            rprim      5.9370261591E+00  0.0000000000E+00  3.4277436511E+00
                       1.9790087197E+00  5.5974819429E+00  3.4277436511E+00
                       0.0000000000E+00  0.0000000000E+00  6.8554873023E+00
          spgroup         216
           symrel      1  0  0   0  1  0   0  0  1       0 -1  1   0 -1  0   1 -1  0
                      -1  0  0  -1  0  1  -1  1  0       0  1 -1   1  0 -1   0  0 -1
                      -1  0  0  -1  1  0  -1  0  1       0 -1  1   1 -1  0   0 -1  0
                       1  0  0   0  0  1   0  1  0       0  1 -1   0  0 -1   1  0 -1
                      -1  0  1  -1  1  0  -1  0  0       0 -1  0   1 -1  0   0 -1  1
                       1  0 -1   0  0 -1   0  1 -1       0  1  0   0  0  1   1  0  0
                       1  0 -1   0  1 -1   0  0 -1       0 -1  0   0 -1  1   1 -1  0
                      -1  0  1  -1  0  0  -1  1  0       0  1  0   1  0  0   0  0  1
                       0  0 -1   0  1 -1   1  0 -1       1 -1  0   0 -1  1   0 -1  0
                       0  0  1   1  0  0   0  1  0      -1  1  0  -1  0  0  -1  0  1
                       0  0  1   0  1  0   1  0  0       1 -1  0   0 -1  0   0 -1  1
                       0  0 -1   1  0 -1   0  1 -1      -1  1  0  -1  0  1  -1  0  0
           tolwfr      1.00000000E-20
            typat      1  2
           useylm           1
              wtk        0.50000    0.50000
           xangst      0.0000000000E+00  0.0000000000E+00  0.0000000000E+00
                       3.1417389302E+00  2.2215449023E+00  5.4416514512E+00
            xcart      0.0000000000E+00  0.0000000000E+00  0.0000000000E+00
                       5.9370261591E+00  4.1981114572E+00  1.0283230953E+01
             xred      0.0000000000E+00  0.0000000000E+00  0.0000000000E+00
                       7.5000000000E-01  7.5000000000E-01  7.5000000000E-01
            znucl        4.00000   34.00000

 chkinp: Checking input parameters for consistency.

== DATASET  1 ==================================================================
-   mpi_nproc: 1, omp_nthreads: -1 (-1 if OMP is not activated)

--- !DatasetInfo
iteration_state: {dtset: 1, }
dimensions: {natom: 2, nkpt: 2, mband: 19, nsppol: 1, nspinor: 1, nspden: 1, mpw: 3218, }
cutoff_energies: {ecut:  44.0, pawecutdg:  -1.0, }
electrons: {nelect:   2.00000000E+01, charge:   0.00000000E+00, occopt:   1.00000000E+00, tsmear:   1.00000000E-02, }
meta: {optdriver: 1, rfelfd: 2, }
...

 Real(R)+Recip(G) space primitive vectors, cartesian coordinates (Bohr,Bohr^-1):
 R(1)=  5.9370262  0.0000000  3.4277437  G(1)=  0.1684345 -0.0595506  0.0000000
 R(2)=  1.9790087  5.5974819  3.4277437  G(2)=  0.0000000  0.1786518  0.0000000
 R(3)=  0.0000000  0.0000000  6.8554873  G(3)= -0.0842172 -0.0595506  0.1458686
 Unit cell volume ucvol=  2.2782427E+02 bohr^3
 Angles (23,13,12)=  6.00000000E+01  6.00000000E+01  6.00000000E+01 degrees

 getcut: wavevector=  0.0000  0.0000  0.0000  ngfft=  45  45  45
         ecut(hartree)=     44.000   => boxcut(ratio)=   2.14943

--- Pseudopotential description ------------------------------------------------
- pspini: atom type   1  psp file is /scratch/users/j/a/jabreu/pseudos/PBEsol/Be.psp8
- pspatm: opening atomic psp file    /scratch/users/j/a/jabreu/pseudos/PBEsol/Be.psp8
- Be    ONCVPSP-3.3.0  r_core=   1.35684   1.10780
-  4.00000   4.00000    180112                znucl, zion, pspdat
    8 -116133    1    4       400   0.00000   pspcod,pspxc,lmax,lloc,mmax,r2well
    3.99000000000000    0.00000000000000    0.00000000000000   rchrg,fchrg,qchrg
     nproj     2     2
     extension_switch     1
  pspatm : epsatm=    3.86293307
         --- l  ekb(1:nproj) -->
             0   -7.966826   -2.672546
             1   -3.431835   -0.651830
 pspatm: atomic psp has been read  and splines computed

- pspini: atom type   2  psp file is /scratch/users/j/a/jabreu/pseudos/PBEsol/Se.psp8
- pspatm: opening atomic psp file    /scratch/users/j/a/jabreu/pseudos/PBEsol/Se.psp8
- Se    ONCVPSP-3.3.0  r_core=   1.81943   1.50330   1.90835
- 34.00000  16.00000    180112                znucl, zion, pspdat
    8 -116133    2    4       600   0.00000   pspcod,pspxc,lmax,lloc,mmax,r2well
    5.99000000000000    5.00000000000000    0.00000000000000   rchrg,fchrg,qchrg
     nproj     2     2     2
     extension_switch     1
  pspatm : epsatm=   29.17862020
         --- l  ekb(1:nproj) -->
             0    8.973804    1.019550
             1    6.849857    1.297308
             2   -9.203962   -3.731027
 pspatm: atomic psp has been read  and splines computed

   6.60831065E+02                                ecore*ucvol(ha*bohr**3)

-inwffil : will read wavefunctions from disk file /scratch/users/j/a/jabreu/flow_simple2/flow/w230/t1/indata/in_WFK

 ==>  initialize data related to q vector <==

 The list of irreducible perturbations for this q vector is:
    1)    idir= 1    ipert=   3
    2)    idir= 2    ipert=   3
    3)    idir= 3    ipert=   3

 Perturbation wavevector (in red.coord.)   0.000000  0.000000  0.000000
 Perturbation : derivative vs k along direction   1

 dfpt_looppert : COMMENT -
  In a d/dk calculation, iscf is set to -3 automatically.
 The set of symmetries contains only one element for this perturbation.
 symkpt : not enough symmetry to change the number of k points.

[...]

 Initialisation of the first-order wave-functions :
  ireadwf=   0

--- !BeginCycle
iteration_state: {dtset: 1, }
solver: {iscf: 7, nstep: 100, nline: 4, wfoptalg: 0, }
tolerances: {tolwfr: 1.00E-20, }
...

     iter   2DEtotal(Ha)        deltaE(Ha) residm    vres2
-ETOT  1  -68.316544646443     -6.832E+01 8.415E-02 0.000E+00
 ETOT  2  -68.333368999739     -1.682E-02 9.974E-05 0.000E+00
 ETOT  3  -68.333371498011     -2.498E-06 2.526E-06 0.000E+00
 ETOT  4  -68.333371499278     -1.268E-09 3.124E-08 0.000E+00
 ETOT  5  -68.333371499280     -1.421E-12 5.846E-10 0.000E+00
 ETOT  6  -68.333371499280     -1.279E-13 9.007E-12 0.000E+00
 ETOT  7  -68.333371499280      5.684E-14 1.959E-13 0.000E+00
 ETOT  8  -68.333371499280      1.421E-14 3.492E-15 0.000E+00
 ETOT  9  -68.333371499280     -1.421E-14 7.715E-17 0.000E+00
 ETOT 10  -68.333371499280      0.000E+00 1.512E-18 0.000E+00
 ETOT 11  -68.333371499280      0.000E+00 3.430E-20 0.000E+00
 ETOT 12  -68.333371499280      2.842E-14 9.448E-21 0.000E+00

 At SCF step   12   max residual=  9.45E-21 < tolwfr=  1.00E-20 =>converged.

 ----iterations are completed or convergence reached----

 dfpt_looppert: DFPT cycle converged with prtwf=-1. Will skip output of the 1st-order WFK file.
 dfpt_looppert : ek2=    5.0400439728E+01
          f-sum rule ratio=    1.4241930812E+00
 prteigrs : about to open file /scratch/users/j/a/jabreu/flow_simple2/flow/w230/t1/tmpdata/tmp_1WF1_EIG
 Expectation of eigenvalue derivatives (hartree) for nkpt=   2  k points:
  (in case of degenerate eigenvalues, averaged derivative)
 kpt#   1, nband= 19, wtk=  0.50000, kpt=  0.0000  0.0000  0.0000 (reduced coord)
  -0.00000    0.00000    0.00000    0.00000    0.00000    0.00000   -0.00000   -0.00000
  -0.00000   -0.00000    0.00000   -0.00000   -0.00000   -0.00000   -0.00000   -0.00000
  -0.00000    0.00000    0.00000
 prteigrs : prtvol=0 or 1, do not print more k-points.

 Eight components of 2nd-order total energy (hartree) are
 1,2,3: 0th-order hamiltonian combined with 1st-order wavefunctions
     kin0=   4.99373929E+01 eigvalue=   1.04311169E+01  local=  -1.86343518E+01
 4,5,6: 1st-order hamiltonian combined with 1st and 0th-order wfs
     kin1=  -7.17799576E+01  Hartree=   0.00000000E+00     xc=   0.00000000E+00
 7,8,9: eventually, occupation + non-local contributions
    edocc=   2.16151009E+01     enl0=   4.98411264E+00   enl1=  -6.48867854E+01
 1-9 gives the relaxation energy (to be shifted if some occ is /=2.0)
   erelax=  -6.83333715E+01
  No Ewald or frozen-wf contrib.: the relaxation energy is the total one
 2DEtotal=   -0.6833337150E+02 Ha. Also 2DEtotal=   -0.185944560231E+04 eV
    (  non-var. 2DEtotal :   -6.8333371499E+01 Ha)

 Perturbation wavevector (in red.coord.)   0.000000  0.000000  0.000000
 Perturbation : derivative vs k along direction   2
 The set of symmetries contains only one element for this perturbation.
 symkpt : not enough symmetry to change the number of k points.

[...]

 Perturbation wavevector (in red.coord.)   0.000000  0.000000  0.000000
 Perturbation : derivative vs k along direction   3
 The set of symmetries contains only one element for this perturbation.
 symkpt : not enough symmetry to change the number of k points.

-inwffil : will read wavefunctions from disk file /scratch/users/j/a/jabreu/flow_simple2/flow/w230/t1/indata/in_WFK

 Initialisation of the first-order wave-functions :
  ireadwf=   0

--- !BeginCycle
iteration_state: {dtset: 1, }
solver: {iscf: 7, nstep: 100, nline: 4, wfoptalg: 0, }
tolerances: {tolwfr: 1.00E-20, }
...

     iter   2DEtotal(Ha)        deltaE(Ha) residm    vres2
-ETOT  1  -68.316468807622     -6.832E+01 8.399E-02 0.000E+00
 ETOT  2  -68.333368900802     -1.690E-02 9.974E-05 0.000E+00
 ETOT  3  -68.333371492597     -2.592E-06 1.954E-06 0.000E+00
 ETOT  4  -68.333371493926     -1.328E-09 2.041E-08 0.000E+00
 ETOT  5  -68.333371493927     -1.549E-12 3.259E-10 0.000E+00
 ETOT  6  -68.333371493927      1.421E-14 4.564E-12 0.000E+00
 ETOT  7  -68.333371493928     -5.684E-14 8.243E-14 0.000E+00
 ETOT  8  -68.333371493927      4.263E-14 1.349E-15 0.000E+00
 ETOT  9  -68.333371493927     -1.421E-14 2.656E-17 0.000E+00
 ETOT 10  -68.333371493927      0.000E+00 4.259E-19 0.000E+00
 ETOT 11  -68.333371493927      0.000E+00 1.025E-20 0.000E+00
 ETOT 12  -68.333371493927     -1.421E-14 9.378E-21 0.000E+00

 At SCF step   12   max residual=  9.38E-21 < tolwfr=  1.00E-20 =>converged.

 ----iterations are completed or convergence reached----

 dfpt_looppert: DFPT cycle converged with prtwf=-1. Will skip output of the 1st-order WFK file.
 dfpt_looppert : ek2=    5.0400439727E+01
          f-sum rule ratio=    1.4241930813E+00
 prteigrs : about to open file /scratch/users/j/a/jabreu/flow_simple2/flow/w230/t1/tmpdata/tmp_1WF1_EIG
 Expectation of eigenvalue derivatives (hartree) for nkpt=   2  k points:
  (in case of degenerate eigenvalues, averaged derivative)
 kpt#   1, nband= 19, wtk=  0.50000, kpt=  0.0000  0.0000  0.0000 (reduced coord)
   0.00000   -0.00000   -0.00000   -0.00000   -0.00000   -0.00000    0.00000    0.00000
   0.00000    0.00000   -0.00000    0.00000    0.00000    0.00000    0.00000    0.00000
   0.00000    0.00000    0.00000
 prteigrs : prtvol=0 or 1, do not print more k-points.

 Eight components of 2nd-order total energy (hartree) are
 1,2,3: 0th-order hamiltonian combined with 1st-order wavefunctions
     kin0=   4.99537404E+01 eigvalue=   1.04328151E+01  local=  -1.86417007E+01
 4,5,6: 1st-order hamiltonian combined with 1st and 0th-order wfs
     kin1=  -7.17799576E+01  Hartree=   0.00000000E+00     xc=   0.00000000E+00
 7,8,9: eventually, occupation + non-local contributions
    edocc=   2.16045672E+01     enl0=   4.98394958E+00   enl1=  -6.48867854E+01
 1-9 gives the relaxation energy (to be shifted if some occ is /=2.0)
   erelax=  -6.83333715E+01
  No Ewald or frozen-wf contrib.: the relaxation energy is the total one
 2DEtotal=   -0.6833337149E+02 Ha. Also 2DEtotal=   -0.185944560217E+04 eV
    (  non-var. 2DEtotal :   -6.8333371494E+01 Ha)

 CALCULATION OF EFFECTIVE MASSES
 NOTE : Additional infos (eff. mass eigenvalues, eigenvectors and, if degenerate, average mass) are available in stdout.

 COMMENTS:
 - At k-point ( 0.000, 0.000, 0.000), bands     8 through    10
   are DEGENERATE (effective mass tensor is therefore not defined).
   See Section IIIB Eqs. (67)-(70) and Appendix E of PRB 93 205147 (2016).
 - Angular average effective mass for Frohlich model is to be averaged over degenerate bands. See later.
 - Associated theta integrals calculated with ntheta=   1000 points.

 K-point ( 0.000, 0.000, 0.000) | band =     8
 Transport equivalent effective mass tensor:
             -0.1933426519             -0.0000000000              0.0000000000
             -0.0000000000             -0.1933426518             -0.0000000000
              0.0000000000             -0.0000000000             -0.1933426518
 Transport equivalent effective mass tensor eigenvalues:
             -0.1933426519             -0.1933426519             -0.1933426518
 Angular average effective mass 1/(<1/m>)=  -0.1693460191
 Angular average effective mass for Frohlich model (<m**0.5>)**2=  -0.1708034363
 Effective masses along directions: (cart. coord. / red. coord. -> eff. mass)
    1:   1.000000  0.000000  0.000000 /   0.948683  0.316228  0.000000 ->  -0.1586271678
    2:   0.000000  1.000000  0.000000 /   0.000000  1.000000  0.000000 ->  -0.1473793783
    3:   0.000000  0.000000  1.000000 /   0.408248  0.408248  0.816497 ->  -0.1623752821
    4:   0.577350  0.577350  0.577350 /   0.585539  0.688047  0.428644 ->  -0.1587555008
    5:   0.000000  0.707107  0.707107 /   0.289489  0.762222  0.578977 ->  -0.1792061141
    6:   0.707107  0.000000  0.707107 /   0.731423  0.422287  0.535439 ->  -0.1604242593
    7:   0.707107  0.707107  0.000000 /   0.616798  0.787122  0.000000 ->  -0.2161581221

[...]

 K-point ( 0.000, 0.000, 0.000) | band =    10
 Transport equivalent effective mass tensor:
            -11.5396781594              0.0000128269             -0.0000000015
              0.0000128269            -11.5396743188             -0.0000000006
             -0.0000000015             -0.0000000006            -11.5396592834
 Transport equivalent effective mass tensor eigenvalues:
            -11.5396892089            -11.5396632693            -11.5396592834
 Angular average effective mass 1/(<1/m>)=  -1.1922077273
 Angular average effective mass for Frohlich model (<m**0.5>)**2=  -1.4347008465
 Effective masses along directions: (cart. coord. / red. coord. -> eff. mass)
    1:   1.000000  0.000000  0.000000 /   0.948683  0.316228  0.000000 ->  -1.3129488131
    2:   0.000000  1.000000  0.000000 /   0.000000  1.000000  0.000000 ->  -1.1023391208
    3:   0.000000  0.000000  1.000000 /   0.408248  0.408248  0.816497 ->  -3.5647459790
    4:   0.577350  0.577350  0.577350 /   0.585539  0.688047  0.428644 ->  -1.5679301950
    5:   0.000000  0.707107  0.707107 /   0.289489  0.762222  0.578977 ->  -1.0963632570
    6:   0.707107  0.000000  0.707107 /   0.731423  0.422287  0.535439 ->  -2.1309656747
    7:   0.707107  0.707107  0.000000 /   0.616798  0.787122  0.000000 ->  -0.5357300687

 Angular average effective mass for Frohlich model, averaged over degenerate bands.
 Value of     (<<m**0.5>>)**2 =     6.157935E-01
 Absolute Value of <<m**0.5>> =     7.847251E-01

 K-point ( 0.500, 0.000, 0.500) | band =    11
 Effective mass tensor:
              0.3569625812             -0.1359278035              0.1664768802
             -0.1359278035              0.4530780528             -0.2354338619
              0.1664768802             -0.2354338619              0.5491935243
 Effective mass tensor eigenvalues:
              0.2608471095              0.2608471096              0.8375399392
 Angular average effective mass 1/(<1/m>)=   0.3385507929
 Angular average effective mass for Frohlich model (<m**0.5>)**2=   0.3628924594
 Effective masses along directions: (cart. coord. / red. coord. -> eff. mass)
    1:   1.000000  0.000000  0.000000 /   0.948683  0.316228  0.000000 ->   0.2946623450
    2:   0.000000  1.000000  0.000000 /   0.000000  1.000000  0.000000 ->   0.3385507929
    3:   0.000000  0.000000  1.000000 /   0.408248  0.408248  0.816497 ->   0.3978012532
    4:   0.577350  0.577350  0.577350 /   0.585539  0.688047  0.428644 ->   0.2794093782
    5:   0.000000  0.707107  0.707107 /   0.289489  0.762222  0.578977 ->   0.2623679305
    6:   0.707107  0.000000  0.707107 /   0.731423  0.422287  0.535439 ->   0.4562556793
    7:   0.707107  0.707107  0.000000 /   0.616798  0.787122  0.000000 ->   0.2634406269

 END OF EFFECTIVE MASSES SECTION

 ---- first-order wavefunction calculations are completed ----

 Total localisation tensor (bohr^2) in cartesian coordinates
  WARNING : still subject to testing - especially symmetries.
      direction              matrix element
   alpha     beta       real part   imaginary part
     1        1       2.6694712699    0.0000000000
     1        2       0.7550405012    0.0000000000
     1        3       1.8494639501    0.0000000000
     2        1       0.7550405012    0.0000000000
     2        2       2.1355770338    0.0000000000
     2        3       1.3077685098    0.0000000000
     3        1       1.8494639501    0.0000000000
     3        2       1.3077685098    0.0000000000
     3        3       4.8050482888    0.0000000000

 respfn : d/dk was computed, but no 2DTE, so no DDB output.

== END DATASET(S) ==============================================================

 -outvars: echo values of variables after computation  --------
            acell      1.0000000000E+00  1.0000000000E+00  1.0000000000E+00 Bohr
              amu      9.01218200E+00  7.89600000E+01
             ecut      4.40000000E+01 Hartree
           etotal     -6.8333371494E+01
            fcart      0.0000000000E+00  0.0000000000E+00  0.0000000000E+00
                       0.0000000000E+00  0.0000000000E+00  0.0000000000E+00
-          fftalg         512
           irdden           1
           irdwfk           1
           istwfk        1    1
              ixc     -116133
              kpt      0.00000000E+00  0.00000000E+00  0.00000000E+00
                       5.00000000E-01  2.46519033E-32  5.00000000E-01
           kptopt           0
P           mkmem           2
P          mkqmem           2
P          mk1mem           2
            natom           2
            nband          19
           nbdbuf           4
            ngfft          45      45      45
             nkpt           2
            nstep         100
             nsym          24
           ntypat           2
              occ      2.000000  2.000000  2.000000  2.000000  2.000000  2.000000
                       2.000000  2.000000  2.000000  2.000000  0.000000  0.000000
                       0.000000  0.000000  0.000000  0.000000  0.000000  0.000000
                       0.000000
        optdriver           1
            prtwf          -1
            rfdir           1       1       1
           rfelfd           2
            rprim      5.9370261591E+00  0.0000000000E+00  3.4277436511E+00
                       1.9790087197E+00  5.5974819429E+00  3.4277436511E+00
                       0.0000000000E+00  0.0000000000E+00  6.8554873023E+00
          spgroup         216
           strten      0.0000000000E+00  0.0000000000E+00  0.0000000000E+00
                       0.0000000000E+00  0.0000000000E+00  0.0000000000E+00
           symrel      1  0  0   0  1  0   0  0  1       0 -1  1   0 -1  0   1 -1  0
                      -1  0  0  -1  0  1  -1  1  0       0  1 -1   1  0 -1   0  0 -1
                      -1  0  0  -1  1  0  -1  0  1       0 -1  1   1 -1  0   0 -1  0
                       1  0  0   0  0  1   0  1  0       0  1 -1   0  0 -1   1  0 -1
                      -1  0  1  -1  1  0  -1  0  0       0 -1  0   1 -1  0   0 -1  1
                       1  0 -1   0  0 -1   0  1 -1       0  1  0   0  0  1   1  0  0
                       1  0 -1   0  1 -1   0  0 -1       0 -1  0   0 -1  1   1 -1  0
                      -1  0  1  -1  0  0  -1  1  0       0  1  0   1  0  0   0  0  1
                       0  0 -1   0  1 -1   1  0 -1       1 -1  0   0 -1  1   0 -1  0
                       0  0  1   1  0  0   0  1  0      -1  1  0  -1  0  0  -1  0  1
                       0  0  1   0  1  0   1  0  0       1 -1  0   0 -1  0   0 -1  1
                       0  0 -1   1  0 -1   0  1 -1      -1  1  0  -1  0  1  -1  0  0
           tolwfr      1.00000000E-20
            typat      1  2
           useylm           1
              wtk        0.50000    0.50000
           xangst      0.0000000000E+00  0.0000000000E+00  0.0000000000E+00
                       3.1417389302E+00  2.2215449023E+00  5.4416514512E+00
            xcart      0.0000000000E+00  0.0000000000E+00  0.0000000000E+00
                       5.9370261591E+00  4.1981114572E+00  1.0283230953E+01
             xred      0.0000000000E+00  0.0000000000E+00  0.0000000000E+00
                       7.5000000000E-01  7.5000000000E-01  7.5000000000E-01
            znucl        4.00000   34.00000

- Timing analysis has been suppressed with timopt=0

 Suggested references for the acknowledgment of ABINIT usage.

 Calculation completed.
.Delivered  14 WARNINGs and   9 COMMENTs to log file.