.Version 9.5.1 of ABINIT

 ABINIT is a project of the Universite Catholique de Louvain,
 Corning Inc. and other collaborators, see ~abinit/doc/developers/contributors.txt .
 acknowledgments of the ABINIT effort.

.Starting date : Wed  5 May 2021.
- ( at 19h59 )

- input  file    -> /scratch/users/j/a/jabreu/flow_simple_7atoms/flow/w170/t1/run.abi
- output file    -> /scratch/users/j/a/jabreu/flow_simple_7atoms/flow/w170/t1/run.abo
- root for input  files -> /scratch/users/j/a/jabreu/flow_simple_7atoms/flow/w170/t1/indata/in
- root for output files -> /scratch/users/j/a/jabreu/flow_simple_7atoms/flow/w170/t1/outdata/out

 Symmetries : space group I-4 (# 82); Bravais tI (body-center tetrag.)
     intxc =       0      iscf =       7    lmnmax =      18     lnmax =       6
     mgfft =      72  mpssoang =       3    mqgrid =    3001     natom =       7
  nloc_mem =       1    nspden =       1   nspinor =       1    nsppol =       1
      nsym =       4    n1xccc =    2501    ntypat =       4    occopt =       1
   xclevel =       2
-    mband =          35        mffmem =           1         mkmem =           2
-   mkqmem =           2        mk1mem =           2           mpw =       12774
      nfft =      373248          nkpt =           2
  Rough estimation (10% accuracy) of disk space for files :

------------- Echo of variables that govern the present computation ------------
-
- outvars: echo of selected default values
-   iomode0 =  0 , fftalg0 =512 , wfoptalg0 =  0
-
- outvars: echo of global parameters not present in the input file
-  max_nthreads =    0
-
 -outvars: echo values of preprocessed input variables --------
            acell      1.0000000000E+00  1.0000000000E+00  1.0000000000E+00 Bohr
              amu      6.94100000E+00  6.53900000E+01  3.09737620E+01
                       3.20660000E+01
             ecut      4.20000000E+01 Hartree
-          fftalg         512
           irdden           1
           irdwfk           1
           istwfk        1    0
              ixc     -116133
              kpt      8.32667268E-17  1.38777878E-16  5.00000000E-01
                       5.00000000E-01  5.00000000E-01 -5.00000000E-01
           kptopt           0
P           mkmem           2
P          mkqmem           2
P          mk1mem           2
            natom           7
            nband          35
           nbdbuf           4
            ngfft          72      72      72
             nkpt           2
            nstep        2000
             nsym           4
           ntypat           4
              occ      2.000000  2.000000  2.000000  2.000000  2.000000  2.000000
                       2.000000  2.000000  2.000000  2.000000  2.000000  2.000000
                       2.000000  2.000000  2.000000  2.000000  2.000000  2.000000
                       2.000000  2.000000  2.000000  2.000000  2.000000  2.000000
                       2.000000  2.000000  0.000000  0.000000  0.000000  0.000000
                       0.000000  0.000000  0.000000  0.000000  0.000000
        optdriver           1
            prtwf          -1
            rfdir           1       1       1
           rfelfd           2
            rprim      9.5126166544E+00  0.0000000000E+00 -6.2027711666E+00
                      -2.7918992952E+00  9.0936886871E+00 -6.2027711666E+00
                       0.0000000000E+00  0.0000000000E+00  1.1356242590E+01
          spgroup          82
           symrel      1  0  0   0  1  0   0  0  1       0  1  0   1  0  0  -1 -1 -1
                      -1 -1 -1   0  0  1   1  0  0       0  0  1  -1 -1 -1   0  1  0
           tolwfr      1.00000000E-20
            typat      1  2  3  4  4  4  4
           useylm           1
              wtk        0.50000    0.50000
           xangst      3.4060425767E+00  1.2030431988E+00 -2.7763275459E-01
                       1.5040787512E-01  3.6091295964E+00 -2.7763275459E-01
                       1.7782252259E+00  2.4060863976E+00 -3.2823651315E+00
                       2.7794019031E+00  7.6054225551E-01  3.4415877473E+00
                       1.3570121892E+00  1.9319586517E+00  7.7301518168E-01
                       3.0151510730E+00  3.9839413141E+00 -2.8339770711E+00
                      -3.8664261559E-02  2.9479033691E+00 -2.4911568763E+00
            xcart      6.4364876670E+00  2.2734221718E+00 -5.2464987170E-01
                       2.8422969220E-01  6.8202665153E+00 -5.2464987170E-01
                       3.3603586796E+00  4.5468443436E+00 -6.2027711666E+00
                       5.2523084101E+00  1.4372165754E+00  6.5036583047E+00
                       2.5643813965E+00  3.6508727517E+00  1.4607869899E+00
                       5.6978097773E+00  7.5285580132E+00 -5.3554405312E+00
                      -7.3064865477E-02  5.5707300339E+00 -4.7076042503E+00
             xred      7.5000000000E-01  2.5000000000E-01  5.0000000000E-01
                       2.5000000000E-01  7.5000000000E-01  5.0000000000E-01
                       5.0000000000E-01  5.0000000000E-01 -1.1102230246E-16
                       5.9852675000E-01  1.5804550000E-01  9.8593375000E-01
                       3.8740700000E-01  4.0147325000E-01  5.5951875000E-01
                       8.4195450000E-01  8.2788825000E-01  4.4048125000E-01
                       1.7211175000E-01  6.1259300000E-01  1.4066250000E-02
            znucl        3.00000   30.00000   15.00000   16.00000

 chkinp: Checking input parameters for consistency.

== DATASET  1 ==================================================================
-   mpi_nproc: 1, omp_nthreads: -1 (-1 if OMP is not activated)

--- !DatasetInfo
iteration_state: {dtset: 1, }
dimensions: {natom: 7, nkpt: 2, mband: 35, nsppol: 1, nspinor: 1, nspden: 1, mpw: 12774, }
cutoff_energies: {ecut:  42.0, pawecutdg:  -1.0, }
electrons: {nelect:   5.20000000E+01, charge:   0.00000000E+00, occopt:   1.00000000E+00, tsmear:   1.00000000E-02, }
meta: {optdriver: 1, rfelfd: 2, }
...

 Real(R)+Recip(G) space primitive vectors, cartesian coordinates (Bohr,Bohr^-1):
 R(1)=  9.5126167  0.0000000 -6.2027712  G(1)=  0.1051235  0.0322745  0.0000000
 R(2)= -2.7918993  9.0936887 -6.2027712  G(2)=  0.0000000  0.1099664  0.0000000
 R(3)=  0.0000000  0.0000000 11.3562426  G(3)=  0.0574184  0.0776919  0.0880573
 Unit cell volume ucvol=  9.8236920E+02 bohr^3
 Angles (23,13,12)=  1.23106654E+02  1.23106654E+02  8.46983941E+01 degrees

 getcut: wavevector=  0.0000  0.0000  0.0000  ngfft=  72  72  72
         ecut(hartree)=     42.000   => boxcut(ratio)=   2.17363

--- Pseudopotential description ------------------------------------------------
- pspini: atom type   1  psp file is /scratch/users/j/a/jabreu/pseudos/PBEsol/Li.psp8
- pspatm: opening atomic psp file    /scratch/users/j/a/jabreu/pseudos/PBEsol/Li.psp8
- Li    ONCVPSP-3.3.0  r_core=   1.40824   1.10935
-  3.00000   3.00000    180112                znucl, zion, pspdat
    8 -116133    1    4       400   0.00000   pspcod,pspxc,lmax,lloc,mmax,r2well
    3.99000000000000    0.00000000000000    0.00000000000000   rchrg,fchrg,qchrg
     nproj     2     2
     extension_switch     1
  pspatm : epsatm=    2.60859637
         --- l  ekb(1:nproj) -->
             0   -4.855856   -1.482423
             1   -2.171544   -0.427615
 pspatm: atomic psp has been read  and splines computed

- pspini: atom type   2  psp file is /scratch/users/j/a/jabreu/pseudos/PBEsol/Zn.psp8
- pspatm: opening atomic psp file    /scratch/users/j/a/jabreu/pseudos/PBEsol/Zn.psp8
- Zn    ONCVPSP-3.3.0  r_core=   1.35823   1.66358   1.85211
- 30.00000  20.00000    180112                znucl, zion, pspdat
    8 -116133    2    4       600   0.00000   pspcod,pspxc,lmax,lloc,mmax,r2well
    5.99000000000000    2.50000000000000    0.00000000000000   rchrg,fchrg,qchrg
     nproj     2     2     2
     extension_switch     1
  pspatm : epsatm=   26.57343589
         --- l  ekb(1:nproj) -->
             0    2.830835   -1.519107
             1   -4.626739   -1.324150
             2   -6.948510   -2.555500
 pspatm: atomic psp has been read  and splines computed

[...]

- pspini: atom type   4  psp file is /scratch/users/j/a/jabreu/pseudos/PBEsol/S.psp8
- pspatm: opening atomic psp file    /scratch/users/j/a/jabreu/pseudos/PBEsol/S.psp8
- S     ONCVPSP-3.3.0  r_core=   1.45376   1.45376   1.61851
- 16.00000   6.00000    180112                znucl, zion, pspdat
    8 -116133    2    4       600   0.00000   pspcod,pspxc,lmax,lloc,mmax,r2well
    5.99000000000000    6.00000000000000    0.00000000000000   rchrg,fchrg,qchrg
     nproj     2     2     2
     extension_switch     1
  pspatm : epsatm=    8.71840985
         --- l  ekb(1:nproj) -->
             0    6.834532    0.579453
             1    3.282851    0.896984
             2   -3.496974   -0.974265
 pspatm: atomic psp has been read  and splines computed

   3.71112989E+03                                ecore*ucvol(ha*bohr**3)

-inwffil : will read wavefunctions from disk file /scratch/users/j/a/jabreu/flow_simple_7atoms/flow/w170/t1/indata/in_WFK

 ==>  initialize data related to q vector <==

 The list of irreducible perturbations for this q vector is:
    1)    idir= 1    ipert=   8
    2)    idir= 2    ipert=   8
    3)    idir= 3    ipert=   8

 Perturbation wavevector (in red.coord.)   0.000000  0.000000  0.000000
 Perturbation : derivative vs k along direction   1

 dfpt_looppert : COMMENT -
  In a d/dk calculation, iscf is set to -3 automatically.
 The set of symmetries contains only one element for this perturbation.
 symkpt : not enough symmetry to change the number of k points.

[...]

 Initialisation of the first-order wave-functions :
  ireadwf=   0

--- !BeginCycle
iteration_state: {dtset: 1, }
solver: {iscf: 7, nstep: 2000, nline: 4, wfoptalg: 0, }
tolerances: {tolwfr: 1.00E-20, }
...

     iter   2DEtotal(Ha)        deltaE(Ha) residm    vres2
-ETOT  1  -27.241994162894     -2.724E+01 5.917E-02 0.000E+00
 ETOT  2  -27.269662428133     -2.767E-02 2.094E-03 0.000E+00
 ETOT  3  -27.269818326813     -1.559E-04 9.203E-05 0.000E+00
 ETOT  4  -27.269820086661     -1.760E-06 3.055E-06 0.000E+00
 ETOT  5  -27.269820113741     -2.708E-08 2.422E-07 0.000E+00
 ETOT  6  -27.269820114223     -4.817E-10 9.702E-09 0.000E+00
 ETOT  7  -27.269820114232     -9.223E-12 7.977E-10 0.000E+00
 ETOT  8  -27.269820114232     -1.528E-13 3.320E-11 0.000E+00
 ETOT  9  -27.269820114232     -3.197E-14 2.774E-12 0.000E+00
 ETOT 10  -27.269820114232      2.487E-14 1.166E-13 0.000E+00
 ETOT 11  -27.269820114232     -1.776E-14 9.898E-15 0.000E+00
 ETOT 12  -27.269820114232      1.776E-14 4.156E-16 0.000E+00
 ETOT 13  -27.269820114232      0.000E+00 3.582E-17 0.000E+00
 ETOT 14  -27.269820114232      3.553E-15 1.495E-18 0.000E+00
 ETOT 15  -27.269820114232      0.000E+00 1.308E-19 0.000E+00
 ETOT 16  -27.269820114232     -3.553E-15 9.472E-21 0.000E+00

 At SCF step   16   max residual=  9.47E-21 < tolwfr=  1.00E-20 =>converged.

 ----iterations are completed or convergence reached----

 dfpt_looppert: DFPT cycle converged with prtwf=-1. Will skip output of the 1st-order WFK file.
 dfpt_looppert : ek2=    4.9649274985E+01
          f-sum rule ratio=    1.0341043871E+00
 prteigrs : about to open file /scratch/users/j/a/jabreu/flow_simple_7atoms/flow/w170/t1/tmpdata/tmp_1WF1_EIG
 Expectation of eigenvalue derivatives (hartree) for nkpt=   2  k points:
  (in case of degenerate eigenvalues, averaged derivative)
 kpt#   1, nband= 35, wtk=  0.50000, kpt=  0.0000  0.0000  0.5000 (reduced coord)
   0.00000   -0.00000   -0.00000    0.00000   -0.00000   -0.00000    0.00000    0.00000
   0.00000    0.00000    0.00000    0.00000    0.00000    0.00000   -0.00000    0.00000
  -0.00000   -0.00000   -0.00000    0.00000   -0.00000    0.00000    0.00000   -0.00000
   0.00000    0.00000    0.00000   -0.00000    0.00000   -0.00000    0.00000    0.00000
  -0.00000    0.00000    0.00045
 prteigrs : prtvol=0 or 1, do not print more k-points.

 Eight components of 2nd-order total energy (hartree) are
 1,2,3: 0th-order hamiltonian combined with 1st-order wavefunctions
     kin0=   2.96762826E+01 eigvalue=   1.03458806E+00  local=  -1.27447412E+01
 4,5,6: 1st-order hamiltonian combined with 1st and 0th-order wfs
     kin1=  -5.13425331E+01  Hartree=   0.00000000E+00     xc=   0.00000000E+00
 7,8,9: eventually, occupation + non-local contributions
    edocc=   9.45567160E+00     enl0=  -1.51980968E-01   enl1=  -3.19710715E+00
 1-9 gives the relaxation energy (to be shifted if some occ is /=2.0)
   erelax=  -2.72698201E+01
  No Ewald or frozen-wf contrib.: the relaxation energy is the total one
 2DEtotal=   -0.2726982011E+02 Ha. Also 2DEtotal=   -0.742049542922E+03 eV
    (  non-var. 2DEtotal :   -2.7269820114E+01 Ha)

 Perturbation wavevector (in red.coord.)   0.000000  0.000000  0.000000
 Perturbation : derivative vs k along direction   2
 The set of symmetries contains only one element for this perturbation.
 symkpt : not enough symmetry to change the number of k points.

[...]

 Perturbation wavevector (in red.coord.)   0.000000  0.000000  0.000000
 Perturbation : derivative vs k along direction   3
 The set of symmetries contains only one element for this perturbation.
 symkpt : not enough symmetry to change the number of k points.

-inwffil : will read wavefunctions from disk file /scratch/users/j/a/jabreu/flow_simple_7atoms/flow/w170/t1/indata/in_WFK

 Initialisation of the first-order wave-functions :
  ireadwf=   0

--- !BeginCycle
iteration_state: {dtset: 1, }
solver: {iscf: 7, nstep: 2000, nline: 4, wfoptalg: 0, }
tolerances: {tolwfr: 1.00E-20, }
...

     iter   2DEtotal(Ha)        deltaE(Ha) residm    vres2
-ETOT  1  -39.063475728087     -3.906E+01 7.521E-02 0.000E+00
 ETOT  2  -39.102617029134     -3.914E-02 1.083E-03 0.000E+00
 ETOT  3  -39.102839588112     -2.226E-04 2.959E-05 0.000E+00
 ETOT  4  -39.102842001597     -2.413E-06 8.124E-07 0.000E+00
 ETOT  5  -39.102842037507     -3.591E-08 5.826E-08 0.000E+00
 ETOT  6  -39.102842038120     -6.125E-10 1.814E-09 0.000E+00
 ETOT  7  -39.102842038131     -1.110E-11 1.296E-10 0.000E+00
 ETOT  8  -39.102842038131     -2.416E-13 4.073E-12 0.000E+00
 ETOT  9  -39.102842038131     -7.105E-15 2.969E-13 0.000E+00
 ETOT 10  -39.102842038131     -4.974E-14 9.478E-15 0.000E+00
 ETOT 11  -39.102842038131      4.263E-14 6.967E-16 0.000E+00
 ETOT 12  -39.102842038131      7.105E-15 2.257E-17 0.000E+00
 ETOT 13  -39.102842038131     -7.105E-15 1.663E-18 0.000E+00
 ETOT 14  -39.102842038131      0.000E+00 5.451E-20 0.000E+00
 ETOT 15  -39.102842038131      7.105E-15 9.799E-21 0.000E+00

 At SCF step   15   max residual=  9.80E-21 < tolwfr=  1.00E-20 =>converged.

 ----iterations are completed or convergence reached----

 dfpt_looppert: DFPT cycle converged with prtwf=-1. Will skip output of the 1st-order WFK file.
 dfpt_looppert : ek2=    7.0154986062E+01
          f-sum rule ratio=    1.0516249967E+00
 prteigrs : about to open file /scratch/users/j/a/jabreu/flow_simple_7atoms/flow/w170/t1/tmpdata/tmp_1WF1_EIG
 Expectation of eigenvalue derivatives (hartree) for nkpt=   2  k points:
  (in case of degenerate eigenvalues, averaged derivative)
 kpt#   1, nband= 35, wtk=  0.50000, kpt=  0.0000  0.0000  0.5000 (reduced coord)
   0.00000   -0.00000   -0.00000   -0.00000    0.00000   -0.00000    0.00000   -0.00000
   0.00000    0.00000   -0.00000    0.00000    0.00000    0.00000    0.00000   -0.00000
   0.00000   -0.00000   -0.00000   -0.00000   -0.00000    0.00000    0.00000   -0.00000
   0.00000    0.00000    0.00000    0.00000    0.00000   -0.00000    0.00000    0.00000
  -0.00000    0.00000    0.00020
 prteigrs : prtvol=0 or 1, do not print more k-points.

 Eight components of 2nd-order total energy (hartree) are
 1,2,3: 0th-order hamiltonian combined with 1st-order wavefunctions
     kin0=   4.12429029E+01 eigvalue=   1.50571842E+00  local=  -1.75939839E+01
 4,5,6: 1st-order hamiltonian combined with 1st and 0th-order wfs
     kin1=  -7.37767370E+01  Hartree=   0.00000000E+00     xc=   0.00000000E+00
 7,8,9: eventually, occupation + non-local contributions
    edocc=   1.42540017E+01     enl0=  -3.05797069E-01   enl1=  -4.42894709E+00
 1-9 gives the relaxation energy (to be shifted if some occ is /=2.0)
   erelax=  -3.91028420E+01
  No Ewald or frozen-wf contrib.: the relaxation energy is the total one
 2DEtotal=   -0.3910284204E+02 Ha. Also 2DEtotal=   -0.106404244472E+04 eV
    (  non-var. 2DEtotal :   -3.9102842038E+01 Ha)

 CALCULATION OF EFFECTIVE MASSES
 NOTE : Additional infos (eff. mass eigenvalues, eigenvectors and, if degenerate, average mass) are available in stdout.

 K-point ( 0.000, 0.000, 0.500) | band =    26
 Effective mass tensor:
             -1.3516982214              0.1500973661             -0.0323001105
              0.1500973661             -0.8314909026              0.2698348134
             -0.0323001105              0.2698348134             -0.9084243445
 Effective mass tensor eigenvalues:
             -1.4169797421             -1.0887487924             -0.5858849339
 Angular average effective mass 1/(<1/m>)=  -0.9006218702
 Angular average effective mass for Frohlich model (<m**0.5>)**2=  -0.9406640012
 Effective masses along directions: (cart. coord. / red. coord. -> eff. mass)
    1:   1.000000  0.000000  0.000000 /   0.959527 -0.281616  0.000000 ->  -1.3242752215
    2:   0.000000  1.000000  0.000000 /   0.000000  1.000000  0.000000 ->  -0.7367231317
    3:   0.000000  0.000000  1.000000 /  -0.432259 -0.432259  0.791394 ->  -0.8206544685
    4:   0.577350  0.577350  0.577350 /   0.279804  0.008371  0.960021 ->  -0.6756794430
    5:   0.000000  0.707107  0.707107 /  -0.467823  0.218037  0.856505 ->  -0.5930792224
    6:   0.707107  0.000000  0.707107 /   0.222733 -0.605289  0.764209 ->  -0.9980734351
    7:   0.707107  0.707107  0.000000 /   0.833663  0.552274  0.000000 ->  -0.8351024938

 K-point ( 0.500, 0.500,-0.500) | band =    27
 Effective mass tensor:
              1.7414145010             -0.2553915900              0.3485828012
             -0.2553915900              1.5844343626              0.4712721184
              0.3485828012              0.4712721184              1.2867825678
 Effective mass tensor eigenvalues:
              0.7525565200              1.9298138359              1.9302610756
 Angular average effective mass 1/(<1/m>)=   1.2684704188
 Angular average effective mass for Frohlich model (<m**0.5>)**2=   1.3551251873
 Effective masses along directions: (cart. coord. / red. coord. -> eff. mass)
    1:   1.000000  0.000000  0.000000 /   0.959527 -0.281616  0.000000 ->   1.5430548828
    2:   0.000000  1.000000  0.000000 /   0.000000  1.000000  0.000000 ->   1.3227437687
    3:   0.000000  0.000000  1.000000 /  -0.432259 -0.432259  0.791394 ->   1.0406002949
    4:   0.577350  0.577350  0.577350 /   0.279804  0.008371  0.960021 ->   1.8894240897
    5:   0.000000  0.707107  0.707107 /  -0.467823  0.218037  0.856505 ->   1.8727203897
    6:   0.707107  0.000000  0.707107 /   0.222733 -0.605289  0.764209 ->   1.7712591765
    7:   0.707107  0.707107  0.000000 /   0.833663  0.552274  0.000000 ->   1.1391251952

 END OF EFFECTIVE MASSES SECTION

 ---- first-order wavefunction calculations are completed ----

 Total localisation tensor (bohr^2) in cartesian coordinates
  WARNING : still subject to testing - especially symmetries.
      direction              matrix element
   alpha     beta       real part   imaginary part
     1        1       1.2996390199    0.0000000000
     1        2      -0.3369479085    0.0000000000
     1        3      -0.5501541266    0.0000000000
     2        1      -0.3369479085    0.0000000000
     2        2       1.0974963851    0.0000000000
     2        3      -0.7485981945    0.0000000000
     3        1      -0.5501541266    0.0000000000
     3        2      -0.7485981945    0.0000000000
     3        3       3.5560369518    0.0000000000

 respfn : d/dk was computed, but no 2DTE, so no DDB output.

== END DATASET(S) ==============================================================

 -outvars: echo values of variables after computation  --------
            acell      1.0000000000E+00  1.0000000000E+00  1.0000000000E+00 Bohr
              amu      6.94100000E+00  6.53900000E+01  3.09737620E+01
                       3.20660000E+01
             ecut      4.20000000E+01 Hartree
           etotal     -3.9102842038E+01
            fcart      0.0000000000E+00  0.0000000000E+00  0.0000000000E+00
                       0.0000000000E+00  0.0000000000E+00  0.0000000000E+00
                       0.0000000000E+00  0.0000000000E+00  0.0000000000E+00
                       0.0000000000E+00  0.0000000000E+00  0.0000000000E+00
                       0.0000000000E+00  0.0000000000E+00  0.0000000000E+00
                       0.0000000000E+00  0.0000000000E+00  0.0000000000E+00
                       0.0000000000E+00  0.0000000000E+00  0.0000000000E+00
-          fftalg         512
           irdden           1
           irdwfk           1
           istwfk        1    0
              ixc     -116133
              kpt      8.32667268E-17  1.38777878E-16  5.00000000E-01
                       5.00000000E-01  5.00000000E-01 -5.00000000E-01
           kptopt           0
P           mkmem           2
P          mkqmem           2
P          mk1mem           2
            natom           7
            nband          35
           nbdbuf           4
            ngfft          72      72      72
             nkpt           2
            nstep        2000
             nsym           4
           ntypat           4
              occ      2.000000  2.000000  2.000000  2.000000  2.000000  2.000000
                       2.000000  2.000000  2.000000  2.000000  2.000000  2.000000
                       2.000000  2.000000  2.000000  2.000000  2.000000  2.000000
                       2.000000  2.000000  2.000000  2.000000  2.000000  2.000000
                       2.000000  2.000000  0.000000  0.000000  0.000000  0.000000
                       0.000000  0.000000  0.000000  0.000000  0.000000
        optdriver           1
            prtwf          -1
            rfdir           1       1       1
           rfelfd           2
            rprim      9.5126166544E+00  0.0000000000E+00 -6.2027711666E+00
                      -2.7918992952E+00  9.0936886871E+00 -6.2027711666E+00
                       0.0000000000E+00  0.0000000000E+00  1.1356242590E+01
          spgroup          82
           strten      0.0000000000E+00  0.0000000000E+00  0.0000000000E+00
                       0.0000000000E+00  0.0000000000E+00  0.0000000000E+00
           symrel      1  0  0   0  1  0   0  0  1       0  1  0   1  0  0  -1 -1 -1
                      -1 -1 -1   0  0  1   1  0  0       0  0  1  -1 -1 -1   0  1  0
           tolwfr      1.00000000E-20
            typat      1  2  3  4  4  4  4
           useylm           1
              wtk        0.50000    0.50000
           xangst      3.4060425767E+00  1.2030431988E+00 -2.7763275459E-01
                       1.5040787512E-01  3.6091295964E+00 -2.7763275459E-01
                       1.7782252259E+00  2.4060863976E+00 -3.2823651315E+00
                       2.7794019031E+00  7.6054225551E-01  3.4415877473E+00
                       1.3570121892E+00  1.9319586517E+00  7.7301518168E-01
                       3.0151510730E+00  3.9839413141E+00 -2.8339770711E+00
                      -3.8664261559E-02  2.9479033691E+00 -2.4911568763E+00
            xcart      6.4364876670E+00  2.2734221718E+00 -5.2464987170E-01
                       2.8422969220E-01  6.8202665153E+00 -5.2464987170E-01
                       3.3603586796E+00  4.5468443436E+00 -6.2027711666E+00
                       5.2523084101E+00  1.4372165754E+00  6.5036583047E+00
                       2.5643813965E+00  3.6508727517E+00  1.4607869899E+00
                       5.6978097773E+00  7.5285580132E+00 -5.3554405312E+00
                      -7.3064865477E-02  5.5707300339E+00 -4.7076042503E+00
             xred      7.5000000000E-01  2.5000000000E-01  5.0000000000E-01
                       2.5000000000E-01  7.5000000000E-01  5.0000000000E-01
                       5.0000000000E-01  5.0000000000E-01 -1.1102230246E-16
                       5.9852675000E-01  1.5804550000E-01  9.8593375000E-01
                       3.8740700000E-01  4.0147325000E-01  5.5951875000E-01
                       8.4195450000E-01  8.2788825000E-01  4.4048125000E-01
                       1.7211175000E-01  6.1259300000E-01  1.4066250000E-02
            znucl        3.00000   30.00000   15.00000   16.00000

- Timing analysis has been suppressed with timopt=0

 Suggested references for the acknowledgment of ABINIT usage.

 Calculation completed.
.Delivered  14 WARNINGs and   9 COMMENTs to log file.