.Version 9.5.1 of ABINIT

 ABINIT is a project of the Universite Catholique de Louvain,
 Corning Inc. and other collaborators, see ~abinit/doc/developers/contributors.txt .
 acknowledgments of the ABINIT effort.

.Starting date : Tue 11 May 2021.
- ( at 21h10 )

- input  file    -> /scratch/users/j/a/jabreu/flow_simple_8atoms/flow/w263/t1/run.abi
- output file    -> /scratch/users/j/a/jabreu/flow_simple_8atoms/flow/w263/t1/run.abo
- root for input  files -> /scratch/users/j/a/jabreu/flow_simple_8atoms/flow/w263/t1/indata/in
- root for output files -> /scratch/users/j/a/jabreu/flow_simple_8atoms/flow/w263/t1/outdata/out

 Symmetries : space group I-4 2 d (#122); Bravais tI (body-center tetrag.)
     intxc =       0      iscf =       7    lmnmax =      18     lnmax =       6
     mgfft =      80  mpssoang =       3    mqgrid =    3001     natom =       8
  nloc_mem =       1    nspden =       1   nspinor =       1    nsppol =       1
      nsym =       8    n1xccc =    2501    ntypat =       3    occopt =       1
   xclevel =       2
-    mband =          63        mffmem =           1         mkmem =           1
-   mkqmem =           1        mk1mem =           1           mpw =       17499
      nfft =      512000          nkpt =           1
  Rough estimation (10% accuracy) of disk space for files :

------------- Echo of variables that govern the present computation ------------
-
- outvars: echo of selected default values
-   iomode0 =  0 , fftalg0 =512 , wfoptalg0 =  0
-
- outvars: echo of global parameters not present in the input file
-  max_nthreads =    0
-
 -outvars: echo values of preprocessed input variables --------
            acell      1.0000000000E+00  1.0000000000E+00  1.0000000000E+00 Bohr
              amu      2.69815390E+01  1.07868200E+02  7.89600000E+01
             ecut      4.30000000E+01 Hartree
-          fftalg         512
           irdden           1
           irdwfk           1
           istwfk        1
              ixc     -116133
           kptopt           0
P           mkmem           1
P          mkqmem           1
P          mk1mem           1
            natom           8
            nband          63
           nbdbuf           4
            ngfft          80      80      80
             nkpt           1
            nstep        2000
             nsym           8
           ntypat           3
              occ      2.000000  2.000000  2.000000  2.000000  2.000000  2.000000
                       2.000000  2.000000  2.000000  2.000000  2.000000  2.000000
                       2.000000  2.000000  2.000000  2.000000  2.000000  2.000000
                       2.000000  2.000000  2.000000  2.000000  2.000000  2.000000
                       2.000000  2.000000  2.000000  2.000000  2.000000  2.000000
                       2.000000  2.000000  2.000000  2.000000  2.000000  2.000000
                       2.000000  2.000000  2.000000  2.000000  2.000000  2.000000
                       2.000000  2.000000  2.000000  2.000000  2.000000  2.000000
                       2.000000  2.000000  2.000000  2.000000  2.000000  2.000000
                       0.000000  0.000000  0.000000  0.000000  0.000000  0.000000
                       0.000000  0.000000  0.000000
        optdriver           1
            prtwf          -1
            rfdir           1       1       1
           rfelfd           2
            rprim      1.0092458206E+01  0.0000000000E+00 -8.3101951526E+00
                      -2.2481451852E+00  9.8388798075E+00 -8.3101951526E+00
                       0.0000000000E+00  0.0000000000E+00  1.3073525007E+01
          spgroup         122
           symrel      1  0  0   0  1  0   0  0  1      -1 -1 -1   0  0  1   0  1  0
                       0  1  0   1  0  0  -1 -1 -1       0  0  1  -1 -1 -1   1  0  0
                       0  1  0   1  0  0   0  0  1      -1 -1 -1   0  0  1   1  0  0
                       1  0  0   0  1  0  -1 -1 -1       0  0  1  -1 -1 -1   0  1  0
            tnons      0.0000000  0.0000000  0.0000000    -0.2500000  0.2500000  0.5000000
                       0.0000000 -0.0000000  0.0000000    -0.2500000  0.2500000  0.5000000
                      -0.2500000  0.2500000  0.5000000     0.0000000 -0.0000000  0.0000000
                      -0.2500000  0.2500000  0.5000000    -0.0000000 -0.0000000 -0.0000000
           tolwfr      1.00000000E-20
            typat      1  1  2  2  3  3  3  3
           useylm           1
           xangst      4.4292432011E-01  3.9048832141E+00 -9.3846013882E-01
                       2.0755158338E+00  2.6032554761E+00 -4.3975658737E+00
                       0.0000000000E+00  0.0000000000E+00  0.0000000000E+00
                       3.7081073475E+00  1.3016277380E+00 -9.3846013882E-01
                       2.4343767730E+00  3.2540693451E+00 -2.1133751906E+00
                       9.9744808702E-01  4.3996996020E+00  1.3457305443E+00
                       6.7889697774E-01  6.5081386902E-01  2.4352378498E+00
                       4.1913414975E+00  2.1084390882E+00 -5.4214337588E+00
            xcart      8.3700566260E-01  7.3791598556E+00 -1.7734326490E+00
                       3.9221565104E+00  4.9194399037E+00 -8.3101951526E+00
                       0.0000000000E+00  0.0000000000E+00  0.0000000000E+00
                       7.0073073582E+00  2.4597199519E+00 -1.7734326490E+00
                       4.6003054052E+00  6.1492998797E+00 -3.9937003263E+00
                       1.8849037162E+00  8.3142273148E+00  2.5430621773E+00
                       1.2829293604E+00  1.2298599759E+00  4.6019326046E+00
                       7.9204875598E+00  3.9843724446E+00 -1.0245025052E+01
             xred      2.5000000000E-01  7.5000000000E-01  5.0000000000E-01
                       5.0000000000E-01  5.0000000000E-01  2.7755575616E-17
                       0.0000000000E+00  0.0000000000E+00  0.0000000000E+00
                       7.5000000000E-01  2.5000000000E-01  5.0000000000E-01
                       5.9503800000E-01  6.2500000000E-01  4.7003800000E-01
                       3.7500000000E-01  8.4503800000E-01  9.7003800000E-01
                       1.5496200000E-01  1.2500000000E-01  5.2996200000E-01
                       8.7500000000E-01  4.0496200000E-01  2.9962000000E-02
            znucl       13.00000   47.00000   34.00000

 chkinp: Checking input parameters for consistency.

== DATASET  1 ==================================================================
-   mpi_nproc: 1, omp_nthreads: -1 (-1 if OMP is not activated)

--- !DatasetInfo
iteration_state: {dtset: 1, }
dimensions: {natom: 8, nkpt: 1, mband: 63, nsppol: 1, nspinor: 1, nspden: 1, mpw: 17499, }
cutoff_energies: {ecut:  43.0, pawecutdg:  -1.0, }
electrons: {nelect:   1.08000000E+02, charge:   0.00000000E+00, occopt:   1.00000000E+00, tsmear:   1.00000000E-02, }
meta: {optdriver: 1, rfelfd: 2, }
...

 Real(R)+Recip(G) space primitive vectors, cartesian coordinates (Bohr,Bohr^-1):
 R(1)= 10.0924582  0.0000000 -8.3101952  G(1)=  0.0990839  0.0226403  0.0000000
 R(2)= -2.2481452  9.8388798 -8.3101952  G(2)=  0.0000000  0.1016376  0.0000000
 R(3)=  0.0000000  0.0000000 13.0735250  G(3)=  0.0629827  0.0789973  0.0764905
 Unit cell volume ucvol=  1.2981812E+03 bohr^3
 Angles (23,13,12)=  1.29468261E+02  1.29468261E+02  7.42582791E+01 degrees

 getcut: wavevector=  0.0000  0.0000  0.0000  ngfft=  80  80  80
         ecut(hartree)=     43.000   => boxcut(ratio)=   2.07345

--- Pseudopotential description ------------------------------------------------
- pspini: atom type   1  psp file is /scratch/users/j/a/jabreu/pseudos/PBEsol/Al.psp8
- pspatm: opening atomic psp file    /scratch/users/j/a/jabreu/pseudos/PBEsol/Al.psp8
- Al    ONCVPSP-3.3.0  r_core=   1.76802   1.76802   1.70587
- 13.00000   3.00000    180112                znucl, zion, pspdat
    8 -116133    2    4       600   0.00000   pspcod,pspxc,lmax,lloc,mmax,r2well
    5.99000000000000    5.00000000000000    0.00000000000000   rchrg,fchrg,qchrg
     nproj     2     2     2
     extension_switch     1
  pspatm : epsatm=    0.68509324
         --- l  ekb(1:nproj) -->
             0    5.834965    0.726662
             1    6.225605    0.924840
             2   -2.432733   -0.548689
 pspatm: atomic psp has been read  and splines computed

- pspini: atom type   2  psp file is /scratch/users/j/a/jabreu/pseudos/PBEsol/Ag.psp8
- pspatm: opening atomic psp file    /scratch/users/j/a/jabreu/pseudos/PBEsol/Ag.psp8
- Ag    ONCVPSP-3.3.0  r_core=   1.41384   1.46535   1.61207
- 47.00000  19.00000    180112                znucl, zion, pspdat
    8 -116133    2    4       600   0.00000   pspcod,pspxc,lmax,lloc,mmax,r2well
    5.99000000000000    7.00000000000000    0.00000000000000   rchrg,fchrg,qchrg
     nproj     2     2     2
     extension_switch     1
  pspatm : epsatm=   27.64581383
         --- l  ekb(1:nproj) -->
             0    9.559407   -0.398585
             1    3.418858   -0.136622
             2   -1.644397   -0.401551
 pspatm: atomic psp has been read  and splines computed

- pspini: atom type   3  psp file is /scratch/users/j/a/jabreu/pseudos/PBEsol/Se.psp8
- pspatm: opening atomic psp file    /scratch/users/j/a/jabreu/pseudos/PBEsol/Se.psp8
- Se    ONCVPSP-3.3.0  r_core=   1.81943   1.50330   1.90835
- 34.00000  16.00000    180112                znucl, zion, pspdat
    8 -116133    2    4       600   0.00000   pspcod,pspxc,lmax,lloc,mmax,r2well
    5.99000000000000    5.00000000000000    0.00000000000000   rchrg,fchrg,qchrg
     nproj     2     2     2
     extension_switch     1
  pspatm : epsatm=   29.17862020
         --- l  ekb(1:nproj) -->
             0    8.973804    1.019550
             1    6.849857    1.297308
             2   -9.203962   -3.731027
 pspatm: atomic psp has been read  and splines computed

   1.87246399E+04                                ecore*ucvol(ha*bohr**3)

-inwffil : will read wavefunctions from disk file /scratch/users/j/a/jabreu/flow_simple_8atoms/flow/w263/t1/indata/in_WFK

 ==>  initialize data related to q vector <==

 The list of irreducible perturbations for this q vector is:
    1)    idir= 1    ipert=   9
    2)    idir= 2    ipert=   9
    3)    idir= 3    ipert=   9

 Perturbation wavevector (in red.coord.)   0.000000  0.000000  0.000000
 Perturbation : derivative vs k along direction   1

 dfpt_looppert : COMMENT -
  In a d/dk calculation, iscf is set to -3 automatically.
 The set of symmetries contains only one element for this perturbation.
 symkpt : not enough symmetry to change the number of k points.

[...]

 Initialisation of the first-order wave-functions :
  ireadwf=   0

--- !BeginCycle
iteration_state: {dtset: 1, }
solver: {iscf: 7, nstep: 2000, nline: 4, wfoptalg: 0, }
tolerances: {tolwfr: 1.00E-20, }
...

     iter   2DEtotal(Ha)        deltaE(Ha) residm    vres2
-ETOT  1  -91.562506970029     -9.156E+01 1.044E-01 0.000E+00
 ETOT  2  -91.677832961601     -1.153E-01 2.145E-02 0.000E+00
 ETOT  3  -91.678689787740     -8.568E-04 1.788E-03 0.000E+00
 ETOT  4  -91.678707018206     -1.723E-05 7.579E-04 0.000E+00
 ETOT  5  -91.678707432451     -4.142E-07 7.030E-05 0.000E+00
[...]
 ETOT 21  -91.678707443783      0.000E+00 1.458E-15 0.000E+00
 ETOT 22  -91.678707443783      0.000E+00 7.086E-16 0.000E+00
 ETOT 23  -91.678707443783     -2.842E-14 6.866E-17 0.000E+00
 ETOT 24  -91.678707443783      4.263E-14 3.324E-17 0.000E+00
 ETOT 25  -91.678707443783     -2.842E-14 3.237E-18 0.000E+00
 ETOT 26  -91.678707443783      1.421E-14 1.563E-18 0.000E+00
 ETOT 27  -91.678707443783      0.000E+00 1.527E-19 0.000E+00
 ETOT 28  -91.678707443783      0.000E+00 7.360E-20 0.000E+00
 ETOT 29  -91.678707443783     -1.421E-14 9.327E-21 0.000E+00

 At SCF step   29   max residual=  9.33E-21 < tolwfr=  1.00E-20 =>converged.

 ----iterations are completed or convergence reached----

 dfpt_looppert: DFPT cycle converged with prtwf=-1. Will skip output of the 1st-order WFK file.
 dfpt_looppert : ek2=    8.8089100924E+01
          f-sum rule ratio=    1.1329393514E+00
 prteigrs : about to open file /scratch/users/j/a/jabreu/flow_simple_8atoms/flow/w263/t1/tmpdata/tmp_1WF1_EIG
 Expectation of eigenvalue derivatives (hartree) for nkpt=   1  k points:
  (in case of degenerate eigenvalues, averaged derivative)
 kpt#   1, nband= 63, wtk=  1.00000, kpt=  0.0000  0.0000  0.0000 (reduced coord)
  -0.00000    0.00000    0.00000   -0.00000    0.00000    0.00000   -0.00000   -0.00000
  -0.00000    0.00000   -0.00000   -0.00000   -0.00000   -0.00000    0.00000    0.00000
   0.00000   -0.00000    0.00000    0.00000   -0.00000    0.00000    0.00000    0.00000
   0.00000    0.00000    0.00000    0.00000   -0.00000   -0.00000   -0.00000    0.00000
   0.00000    0.00000    0.00000    0.00000    0.00000    0.00000    0.00000   -0.00000
  -0.00000   -0.00000    0.00000    0.00000   -0.00000   -0.00000   -0.00000    0.00000
  -0.00000   -0.00000   -0.00000   -0.00000   -0.00000   -0.00000    0.00000    0.00000
  -0.00000    0.00000    0.00000    0.00000    0.00000    0.00000   -0.00000

 Eight components of 2nd-order total energy (hartree) are
 1,2,3: 0th-order hamiltonian combined with 1st-order wavefunctions
     kin0=   1.00413465E+02 eigvalue=   1.20095881E+01  local=  -4.37061344E+01
 4,5,6: 1st-order hamiltonian combined with 1st and 0th-order wfs
     kin1=  -9.97996089E+01  Hartree=   0.00000000E+00     xc=   0.00000000E+00
 7,8,9: eventually, occupation + non-local contributions
    edocc=   1.48672233E+01     enl0=   8.09456570E+00   enl1=  -8.35578060E+01
 1-9 gives the relaxation energy (to be shifted if some occ is /=2.0)
   erelax=  -9.16787074E+01
  No Ewald or frozen-wf contrib.: the relaxation energy is the total one
 2DEtotal=   -0.9167870744E+02 Ha. Also 2DEtotal=   -0.249470450004E+04 eV
    (  non-var. 2DEtotal :   -9.1678707443E+01 Ha)

 Perturbation wavevector (in red.coord.)   0.000000  0.000000  0.000000
 Perturbation : derivative vs k along direction   2
 The set of symmetries contains only one element for this perturbation.
 symkpt : not enough symmetry to change the number of k points.

[...]

 Perturbation wavevector (in red.coord.)   0.000000  0.000000  0.000000
 Perturbation : derivative vs k along direction   3
 The set of symmetries contains only one element for this perturbation.
 symkpt : not enough symmetry to change the number of k points.

-inwffil : will read wavefunctions from disk file /scratch/users/j/a/jabreu/flow_simple_8atoms/flow/w263/t1/indata/in_WFK

 Initialisation of the first-order wave-functions :
  ireadwf=   0

--- !BeginCycle
iteration_state: {dtset: 1, }
solver: {iscf: 7, nstep: 2000, nline: 4, wfoptalg: 0, }
tolerances: {tolwfr: 1.00E-20, }
...

     iter   2DEtotal(Ha)        deltaE(Ha) residm    vres2
-ETOT  1  -142.76220700084     -1.428E+02 3.700E-01 0.000E+00
 ETOT  2  -142.93007168893     -1.679E-01 2.906E-02 0.000E+00
 ETOT  3  -142.93117249953     -1.101E-03 4.993E-03 0.000E+00
 ETOT  4  -142.93119203985     -1.954E-05 4.559E-04 0.000E+00
 ETOT  5  -142.93119245512     -4.153E-07 1.354E-04 0.000E+00
 ETOT  6  -142.93119246484     -9.718E-09 1.188E-05 0.000E+00
 ETOT  7  -142.93119246508     -2.443E-10 4.013E-06 0.000E+00
 ETOT  8  -142.93119246509     -6.281E-12 3.759E-07 0.000E+00
 ETOT  9  -142.93119246509     -2.274E-13 1.356E-07 0.000E+00
 ETOT 10  -142.93119246509      0.000E+00 1.277E-08 0.000E+00
 ETOT 11  -142.93119246509     -5.684E-14 4.176E-09 0.000E+00
 ETOT 12  -142.93119246509      0.000E+00 4.421E-10 0.000E+00
 ETOT 13  -142.93119246509     -5.684E-14 1.431E-10 0.000E+00
 ETOT 14  -142.93119246509      0.000E+00 1.554E-11 0.000E+00
 ETOT 15  -142.93119246509      0.000E+00 4.933E-12 0.000E+00
 ETOT 16  -142.93119246509      0.000E+00 5.513E-13 0.000E+00
 ETOT 17  -142.93119246509     -2.842E-14 1.727E-13 0.000E+00
 ETOT 18  -142.93119246509      0.000E+00 1.974E-14 0.000E+00
 ETOT 19  -142.93119246509      0.000E+00 6.103E-15 0.000E+00
 ETOT 20  -142.93119246509      0.000E+00 7.127E-16 0.000E+00
 ETOT 21  -142.93119246509      0.000E+00 2.180E-16 0.000E+00
 ETOT 22  -142.93119246509      2.842E-14 2.590E-17 0.000E+00
 ETOT 23  -142.93119246509      2.842E-14 7.852E-18 0.000E+00
 ETOT 24  -142.93119246509      0.000E+00 9.459E-19 0.000E+00
 ETOT 25  -142.93119246509      0.000E+00 2.849E-19 0.000E+00
 ETOT 26  -142.93119246509      0.000E+00 3.470E-20 0.000E+00
 ETOT 27  -142.93119246509      2.842E-14 9.979E-21 0.000E+00

 At SCF step   27   max residual=  9.98E-21 < tolwfr=  1.00E-20 =>converged.

 ----iterations are completed or convergence reached----

 dfpt_looppert: DFPT cycle converged with prtwf=-1. Will skip output of the 1st-order WFK file.
 dfpt_looppert : ek2=    1.3693363252E+02
          f-sum rule ratio=    1.1393073738E+00
 prteigrs : about to open file /scratch/users/j/a/jabreu/flow_simple_8atoms/flow/w263/t1/tmpdata/tmp_1WF1_EIG
 Expectation of eigenvalue derivatives (hartree) for nkpt=   1  k points:
  (in case of degenerate eigenvalues, averaged derivative)
 kpt#   1, nband= 63, wtk=  1.00000, kpt=  0.0000  0.0000  0.0000 (reduced coord)
  -0.00000   -0.00000    0.00000   -0.00000    0.00000    0.00000   -0.00000   -0.00000
  -0.00000    0.00000    0.00000    0.00000   -0.00000   -0.00000   -0.00000   -0.00000
  -0.00000   -0.00000    0.00000    0.00000   -0.00000    0.00000    0.00000    0.00000
  -0.00000   -0.00000   -0.00000   -0.00000    0.00000   -0.00000   -0.00000   -0.00000
   0.00000   -0.00000    0.00000    0.00000   -0.00000   -0.00000   -0.00000   -0.00000
  -0.00000   -0.00000   -0.00000   -0.00000   -0.00000   -0.00000   -0.00000   -0.00000
  -0.00000   -0.00000   -0.00000   -0.00000   -0.00000   -0.00000   -0.00000    0.00000
  -0.00000    0.00000    0.00000    0.00000    0.00000    0.00000   -0.00000

 Eight components of 2nd-order total energy (hartree) are
 1,2,3: 0th-order hamiltonian combined with 1st-order wavefunctions
     kin0=   1.55791099E+02 eigvalue=   1.85861781E+01  local=  -6.76833916E+01
 4,5,6: 1st-order hamiltonian combined with 1st and 0th-order wfs
     kin1=  -1.56009497E+02  Hartree=   0.00000000E+00     xc=   0.00000000E+00
 7,8,9: eventually, occupation + non-local contributions
    edocc=   2.37433637E+01     enl0=   1.24939436E+01   enl1=  -1.29852888E+02
 1-9 gives the relaxation energy (to be shifted if some occ is /=2.0)
   erelax=  -1.42931192E+02
  No Ewald or frozen-wf contrib.: the relaxation energy is the total one
 2DEtotal=   -0.1429311925E+03 Ha. Also 2DEtotal=   -0.388935554374E+04 eV
    (  non-var. 2DEtotal :   -1.4293119246E+02 Ha)

 CALCULATION OF EFFECTIVE MASSES
 NOTE : Additional infos (eff. mass eigenvalues, eigenvectors and, if degenerate, average mass) are available in stdout.

 K-point ( 0.000, 0.000, 0.000) | band =    54
 Effective mass tensor:
             -0.9290568423              0.1641888184             -0.2773570053
              0.1641888184             -0.8540238591             -0.3478803340
             -0.2773570053             -0.3478803340             -0.4723017479
 Effective mass tensor eigenvalues:
             -1.0599608252             -1.0599608176             -0.1354608066
 Angular average effective mass 1/(<1/m>)=  -0.3236570205
 Angular average effective mass for Frohlich model (<m**0.5>)**2=  -0.4426336780
 Effective masses along directions: (cart. coord. / red. coord. -> eff. mass)
    1:   1.000000  0.000000  0.000000 /   0.976077 -0.217426  0.000000 ->  -0.5390470390
    2:   0.000000  1.000000  0.000000 /   0.000000  1.000000  0.000000 ->  -0.4205743559
    3:   0.000000  0.000000  1.000000 /  -0.472723 -0.472723  0.743684 ->  -0.1985606423
    4:   0.577350  0.577350  0.577350 /   0.134876 -0.054447  0.989365 ->  -1.0537300386
    5:   0.000000  0.707107  0.707107 /  -0.533854  0.098204  0.839855 ->  -0.7787413049
    6:   0.707107  0.000000  0.707107 /   0.105466 -0.624795  0.773633 ->  -0.6605006484
    7:   0.707107  0.707107  0.000000 /   0.799186  0.601084  0.000000 ->  -0.3067556536

 K-point ( 0.000, 0.000, 0.000) | band =    55
 Effective mass tensor:
              0.1219531849             -0.0027897378              0.0047125826
             -0.0027897378              0.1206782967              0.0059108470
              0.0047125826              0.0059108470              0.1141924431
 Effective mass tensor eigenvalues:
              0.1084691669              0.1241773788              0.1241773791
 Angular average effective mass 1/(<1/m>)=   0.1184590712
 Angular average effective mass for Frohlich model (<m**0.5>)**2=   0.1186069129
 Effective masses along directions: (cart. coord. / red. coord. -> eff. mass)
    1:   1.000000  0.000000  0.000000 /   0.976077 -0.217426  0.000000 ->   0.1216822466
    2:   0.000000  1.000000  0.000000 /   0.000000  1.000000  0.000000 ->   0.1202967533
    3:   0.000000  0.000000  1.000000 /  -0.472723 -0.472723  0.743684 ->   0.1137100069
    4:   0.577350  0.577350  0.577350 /   0.134876 -0.054447  0.989365 ->   0.1241618005
    5:   0.000000  0.707107  0.707107 /  -0.533854  0.098204  0.839855 ->   0.1232330860
    6:   0.707107  0.000000  0.707107 /   0.105466 -0.624795  0.773633 ->   0.1226040046
    7:   0.707107  0.707107  0.000000 /   0.799186  0.601084  0.000000 ->   0.1180279773

 END OF EFFECTIVE MASSES SECTION

 ---- first-order wavefunction calculations are completed ----

 Total localisation tensor (bohr^2) in cartesian coordinates
  WARNING : still subject to testing - especially symmetries.
      direction              matrix element
   alpha     beta       real part   imaginary part
     1        1       2.3753728497    0.0000000000
     1        2      -0.4914460788    0.0000000000
     1        3      -1.4483449286    0.0000000000
     2        1      -0.4914460788    0.0000000000
     2        2       2.1507858714    0.0000000000
     2        3      -1.8166143578    0.0000000000
     3        1      -1.4483449286    0.0000000000
     3        2      -1.8166143578    0.0000000000
     3        3       8.7678389241    0.0000000000

 respfn : d/dk was computed, but no 2DTE, so no DDB output.

== END DATASET(S) ==============================================================

 -outvars: echo values of variables after computation  --------
            acell      1.0000000000E+00  1.0000000000E+00  1.0000000000E+00 Bohr
              amu      2.69815390E+01  1.07868200E+02  7.89600000E+01
             ecut      4.30000000E+01 Hartree
           etotal     -1.4293119247E+02
            fcart      0.0000000000E+00  0.0000000000E+00  0.0000000000E+00
                       0.0000000000E+00  0.0000000000E+00  0.0000000000E+00
                       0.0000000000E+00  0.0000000000E+00  0.0000000000E+00
                       0.0000000000E+00  0.0000000000E+00  0.0000000000E+00
                       0.0000000000E+00  0.0000000000E+00  0.0000000000E+00
                       0.0000000000E+00  0.0000000000E+00  0.0000000000E+00
                       0.0000000000E+00  0.0000000000E+00  0.0000000000E+00
                       0.0000000000E+00  0.0000000000E+00  0.0000000000E+00
-          fftalg         512
           irdden           1
           irdwfk           1
           istwfk        1
              ixc     -116133
           kptopt           0
P           mkmem           1
P          mkqmem           1
P          mk1mem           1
            natom           8
            nband          63
           nbdbuf           4
            ngfft          80      80      80
             nkpt           1
            nstep        2000
             nsym           8
           ntypat           3
              occ      2.000000  2.000000  2.000000  2.000000  2.000000  2.000000
                       2.000000  2.000000  2.000000  2.000000  2.000000  2.000000
                       2.000000  2.000000  2.000000  2.000000  2.000000  2.000000
                       2.000000  2.000000  2.000000  2.000000  2.000000  2.000000
                       2.000000  2.000000  2.000000  2.000000  2.000000  2.000000
                       2.000000  2.000000  2.000000  2.000000  2.000000  2.000000
                       2.000000  2.000000  2.000000  2.000000  2.000000  2.000000
                       2.000000  2.000000  2.000000  2.000000  2.000000  2.000000
                       2.000000  2.000000  2.000000  2.000000  2.000000  2.000000
                       0.000000  0.000000  0.000000  0.000000  0.000000  0.000000
                       0.000000  0.000000  0.000000
        optdriver           1
            prtwf          -1
            rfdir           1       1       1
           rfelfd           2
            rprim      1.0092458206E+01  0.0000000000E+00 -8.3101951526E+00
                      -2.2481451852E+00  9.8388798075E+00 -8.3101951526E+00
                       0.0000000000E+00  0.0000000000E+00  1.3073525007E+01
          spgroup         122
           strten      0.0000000000E+00  0.0000000000E+00  0.0000000000E+00
                       0.0000000000E+00  0.0000000000E+00  0.0000000000E+00
           symrel      1  0  0   0  1  0   0  0  1      -1 -1 -1   0  0  1   0  1  0
                       0  1  0   1  0  0  -1 -1 -1       0  0  1  -1 -1 -1   1  0  0
                       0  1  0   1  0  0   0  0  1      -1 -1 -1   0  0  1   1  0  0
                       1  0  0   0  1  0  -1 -1 -1       0  0  1  -1 -1 -1   0  1  0
            tnons      0.0000000  0.0000000  0.0000000    -0.2500000  0.2500000  0.5000000
                       0.0000000 -0.0000000  0.0000000    -0.2500000  0.2500000  0.5000000
                      -0.2500000  0.2500000  0.5000000     0.0000000 -0.0000000  0.0000000
                      -0.2500000  0.2500000  0.5000000    -0.0000000 -0.0000000 -0.0000000
           tolwfr      1.00000000E-20
            typat      1  1  2  2  3  3  3  3
           useylm           1
           xangst      4.4292432011E-01  3.9048832141E+00 -9.3846013882E-01
                       2.0755158338E+00  2.6032554761E+00 -4.3975658737E+00
                       0.0000000000E+00  0.0000000000E+00  0.0000000000E+00
                       3.7081073475E+00  1.3016277380E+00 -9.3846013882E-01
                       2.4343767730E+00  3.2540693451E+00 -2.1133751906E+00
                       9.9744808702E-01  4.3996996020E+00  1.3457305443E+00
                       6.7889697774E-01  6.5081386902E-01  2.4352378498E+00
                       4.1913414975E+00  2.1084390882E+00 -5.4214337588E+00
            xcart      8.3700566260E-01  7.3791598556E+00 -1.7734326490E+00
                       3.9221565104E+00  4.9194399037E+00 -8.3101951526E+00
                       0.0000000000E+00  0.0000000000E+00  0.0000000000E+00
                       7.0073073582E+00  2.4597199519E+00 -1.7734326490E+00
                       4.6003054052E+00  6.1492998797E+00 -3.9937003263E+00
                       1.8849037162E+00  8.3142273148E+00  2.5430621773E+00
                       1.2829293604E+00  1.2298599759E+00  4.6019326046E+00
                       7.9204875598E+00  3.9843724446E+00 -1.0245025052E+01
             xred      2.5000000000E-01  7.5000000000E-01  5.0000000000E-01
                       5.0000000000E-01  5.0000000000E-01  2.7755575616E-17
                       0.0000000000E+00  0.0000000000E+00  0.0000000000E+00
                       7.5000000000E-01  2.5000000000E-01  5.0000000000E-01
                       5.9503800000E-01  6.2500000000E-01  4.7003800000E-01
                       3.7500000000E-01  8.4503800000E-01  9.7003800000E-01
                       1.5496200000E-01  1.2500000000E-01  5.2996200000E-01
                       8.7500000000E-01  4.0496200000E-01  2.9962000000E-02
            znucl       13.00000   47.00000   34.00000

- Timing analysis has been suppressed with timopt=0

 Suggested references for the acknowledgment of ABINIT usage.

 Calculation completed.
.Delivered   6 WARNINGs and   5 COMMENTs to log file.