.Version 9.5.2 of ABINIT

 ABINIT is a project of the Universite Catholique de Louvain,
 Corning Inc. and other collaborators, see ~abinit/doc/developers/contributors.txt .
 acknowledgments of the ABINIT effort.

.Starting date : Mon 31 May 2021.
- ( at 21h54 )

- input  file    -> /scratch/users/j/a/jabreu/flow_simple_11atoms/flow/w311/t1/run.abi
- output file    -> /scratch/users/j/a/jabreu/flow_simple_11atoms/flow/w311/t1/run.abo
- root for input  files -> /scratch/users/j/a/jabreu/flow_simple_11atoms/flow/w311/t1/indata/in
- root for output files -> /scratch/users/j/a/jabreu/flow_simple_11atoms/flow/w311/t1/outdata/out

 Symmetries : space group Pn m a (# 62); Bravais oP (primitive ortho.)
     intxc =       0      iscf =       7    lmnmax =      18     lnmax =       6
     mgfft =      96  mpssoang =       3    mqgrid =    4705     natom =      12
  nloc_mem =       1    nspden =       1   nspinor =       1    nsppol =       1
      nsym =       8    n1xccc =    2501    ntypat =       2    occopt =       1
   xclevel =       2
-    mband =          57        mffmem =           1         mkmem =           1
-   mkqmem =           1        mk1mem =           1           mpw =       24585
      nfft =      414720          nkpt =           1
  Rough estimation (10% accuracy) of disk space for files :

------------- Echo of variables that govern the present computation ------------
-
- outvars: echo of selected default values
-   iomode0 =  0 , fftalg0 =512 , wfoptalg0 =  0
-
- outvars: echo of global parameters not present in the input file
-  max_nthreads =    0
-
 -outvars: echo values of preprocessed input variables --------
            acell      1.0000000000E+00  1.0000000000E+00  1.0000000000E+00 Bohr
              amu      8.76200000E+01  2.80855000E+01
             ecut      3.40000000E+01 Hartree
-          fftalg         512
           irdden           1
           irdwfk           1
           istwfk        1
              ixc     -116133
           kptopt           0
P           mkmem           1
P          mkqmem           1
P          mk1mem           1
            natom          12
            nband          57
           nbdbuf           4
            ngfft          54      80      96
             nkpt           1
            nstep        2000
             nsym           8
           ntypat           2
              occ      2.000000  2.000000  2.000000  2.000000  2.000000  2.000000
                       2.000000  2.000000  2.000000  2.000000  2.000000  2.000000
                       2.000000  2.000000  2.000000  2.000000  2.000000  2.000000
                       2.000000  2.000000  2.000000  2.000000  2.000000  2.000000
                       2.000000  2.000000  2.000000  2.000000  2.000000  2.000000
                       2.000000  2.000000  2.000000  2.000000  2.000000  2.000000
                       2.000000  2.000000  2.000000  2.000000  2.000000  2.000000
                       2.000000  2.000000  2.000000  2.000000  2.000000  2.000000
                       0.000000  0.000000  0.000000  0.000000  0.000000  0.000000
                       0.000000  0.000000  0.000000
        optdriver           1
            prtwf          -1
            rfdir           1       1       1
           rfelfd           2
            rprim      9.5992698199E+00  0.0000000000E+00  0.0000000000E+00
                       0.0000000000E+00  1.5051537757E+01  0.0000000000E+00
                       0.0000000000E+00  0.0000000000E+00  1.7923744248E+01
          spgroup          62
           symrel      1  0  0   0  1  0   0  0  1      -1  0  0   0 -1  0   0  0 -1
                      -1  0  0   0  1  0   0  0 -1       1  0  0   0 -1  0   0  0  1
                      -1  0  0   0 -1  0   0  0  1       1  0  0   0  1  0   0  0 -1
                       1  0  0   0 -1  0   0  0 -1      -1  0  0   0  1  0   0  0  1
            tnons      0.0000000  0.0000000  0.0000000    -0.0000000 -0.0000000 -0.0000000
                       0.5000000  0.5000000  0.5000000     0.5000000  0.5000000  0.5000000
                      -0.0000000  0.5000000  0.5000000     0.0000000  0.5000000  0.5000000
                       0.5000000 -0.0000000 -0.0000000     0.5000000  0.0000000  0.0000000
           tolwfr      1.00000000E-20
            typat      1  1  1  1  1  1  1  1  2  2  2  2
           useylm           1
           xangst      3.8097861058E+00  7.8122908026E+00  1.6694261513E+00
                       1.2699287019E+00  1.5263993261E-01  7.8154107972E+00
                       3.8097861058E+00  3.8298254350E+00  3.0729923230E+00
                       1.2699287019E+00  4.1351053002E+00  6.4118446256E+00
                       1.2699287019E+00  5.1983757638E+00  7.3706667927E-01
                       3.8097861058E+00  2.7665549714E+00  8.7477702693E+00
                       1.2699287019E+00  1.2159103962E+00  4.0053517950E+00
                       3.8097861058E+00  6.7490203390E+00  5.4794851535E+00
                       1.2699287019E+00  2.0082696706E+00  9.7639756999E-01
                       3.8097861058E+00  5.9566610645E+00  8.5084393785E+00
                       1.2699287019E+00  5.9907350382E+00  3.7660209043E+00
                       3.8097861058E+00  1.9741956970E+00  5.7188160443E+00
            xcart      7.1994523649E+00  1.4763090087E+01  3.1547582251E+00
                       2.3998174550E+00  2.8844766957E-01  1.4768986023E+01
                       7.1994523649E+00  7.2373212089E+00  5.8071138988E+00
                       2.3998174550E+00  7.8142165480E+00  1.2116630349E+01
                       2.3998174550E+00  9.8235065293E+00  1.3928541655E+00
                       7.1994523649E+00  5.2280312276E+00  1.6530890082E+01
                       2.3998174550E+00  2.2977376509E+00  7.5690179584E+00
                       7.1994523649E+00  1.2753800106E+01  1.0354726289E+01
                       2.3998174550E+00  3.7950796785E+00  1.8451240041E+00
                       7.1994523649E+00  1.1256458078E+01  1.6078620244E+01
                       2.3998174550E+00  1.1320848557E+01  7.1167481198E+00
                       7.1994523649E+00  3.7306892000E+00  1.0806996128E+01
             xred      7.5000000000E-01  9.8083600000E-01  1.7601000000E-01
                       2.5000000000E-01  1.9164000000E-02  8.2399000000E-01
                       7.5000000000E-01  4.8083600000E-01  3.2399000000E-01
                       2.5000000000E-01  5.1916400000E-01  6.7601000000E-01
                       2.5000000000E-01  6.5265800000E-01  7.7710000000E-02
                       7.5000000000E-01  3.4734200000E-01  9.2229000000E-01
                       2.5000000000E-01  1.5265800000E-01  4.2229000000E-01
                       7.5000000000E-01  8.4734200000E-01  5.7771000000E-01
                       2.5000000000E-01  2.5213900000E-01  1.0294300000E-01
                       7.5000000000E-01  7.4786100000E-01  8.9705700000E-01
                       2.5000000000E-01  7.5213900000E-01  3.9705700000E-01
                       7.5000000000E-01  2.4786100000E-01  6.0294300000E-01
            znucl       38.00000   14.00000

 chkinp: Checking input parameters for consistency.

== DATASET  1 ==================================================================
-   mpi_nproc: 1, omp_nthreads: -1 (-1 if OMP is not activated)

--- !DatasetInfo
iteration_state: {dtset: 1, }
dimensions: {natom: 12, nkpt: 1, mband: 57, nsppol: 1, nspinor: 1, nspden: 1, mpw: 24585, }
cutoff_energies: {ecut:  34.0, pawecutdg:  -1.0, }
electrons: {nelect:   9.60000000E+01, charge:   0.00000000E+00, occopt:   1.00000000E+00, tsmear:   1.00000000E-02, }
meta: {optdriver: 1, rfelfd: 2, }
...

 Real(R)+Recip(G) space primitive vectors, cartesian coordinates (Bohr,Bohr^-1):
 R(1)=  9.5992698  0.0000000  0.0000000  G(1)=  0.1041746  0.0000000  0.0000000
 R(2)=  0.0000000 15.0515378  0.0000000  G(2)=  0.0000000  0.0664384  0.0000000
 R(3)=  0.0000000  0.0000000 17.9237442  G(3)=  0.0000000  0.0000000  0.0557919
 Unit cell volume ucvol=  2.5896902E+03 bohr^3
 Angles (23,13,12)=  9.00000000E+01  9.00000000E+01  9.00000000E+01 degrees

 getcut: wavevector=  0.0000  0.0000  0.0000  ngfft=  54  80  96
         ecut(hartree)=     34.000   => boxcut(ratio)=   2.02490

--- Pseudopotential description ------------------------------------------------
- pspini: atom type   1  psp file is /scratch/users/j/a/jabreu/pseudos/PBEsol/Sr.psp8
- pspatm: opening atomic psp file    /scratch/users/j/a/jabreu/pseudos/PBEsol/Sr.psp8
- Sr    ONCVPSP-3.3.0  r_core=   1.66721   1.31335   1.51547
- 38.00000  10.00000    180112                znucl, zion, pspdat
    8 -116133    2    4       600   0.00000   pspcod,pspxc,lmax,lloc,mmax,r2well
    5.99000000000000    6.00000000000000    0.00000000000000   rchrg,fchrg,qchrg
     nproj     2     2     2
     extension_switch     1
  pspatm : epsatm=   12.46450977
         --- l  ekb(1:nproj) -->
             0   10.029206    1.044171
             1    7.472414    1.670829
             2    4.142950    0.968140
 pspatm: atomic psp has been read  and splines computed

- pspini: atom type   2  psp file is /scratch/users/j/a/jabreu/pseudos/PBEsol/Si.psp8
- pspatm: opening atomic psp file    /scratch/users/j/a/jabreu/pseudos/PBEsol/Si.psp8
- Si    ONCVPSP-3.3.0  r_core=   1.60303   1.72197   1.91712
- 14.00000   4.00000    180112                znucl, zion, pspdat
    8 -116133    2    4       600   0.00000   pspcod,pspxc,lmax,lloc,mmax,r2well
    5.99000000000000    4.00000000000000    0.00000000000000   rchrg,fchrg,qchrg
     nproj     2     2     2
     extension_switch     1
  pspatm : epsatm=    7.86468782
         --- l  ekb(1:nproj) -->
             0    5.384426    0.843824
             1    2.663259    0.615854
             2   -2.267219   -0.458043
 pspatm: atomic psp has been read  and splines computed

   1.25927836E+04                                ecore*ucvol(ha*bohr**3)

 ==>  initialize data related to q vector <==

 The list of irreducible perturbations for this q vector is:
    1)    idir= 1    ipert=  13
    2)    idir= 2    ipert=  13
    3)    idir= 3    ipert=  13

 Perturbation wavevector (in red.coord.)   0.000000  0.000000  0.000000
 Perturbation : derivative vs k along direction   1

 dfpt_looppert : COMMENT -
  In a d/dk calculation, iscf is set to -3 automatically.
 The set of symmetries contains only one element for this perturbation.
 symkpt : not enough symmetry to change the number of k points.

 Initialisation of the first-order wave-functions :
  ireadwf=   0

--- !BeginCycle
iteration_state: {dtset: 1, }
solver: {iscf: 7, nstep: 2000, nline: 4, wfoptalg: 0, }
tolerances: {tolwfr: 1.00E-20, }
...

     iter   2DEtotal(Ha)        deltaE(Ha) residm    vres2
-ETOT  1  -58.361784057151     -5.836E+01 9.311E-02 0.000E+00
 ETOT  2  -58.465113208625     -1.033E-01 1.630E-02 0.000E+00
 ETOT  3  -58.466939905662     -1.827E-03 1.911E-03 0.000E+00
 ETOT  4  -58.466991691252     -5.179E-05 3.558E-04 0.000E+00
 ETOT  5  -58.466993407641     -1.716E-06 5.125E-05 0.000E+00
 ETOT  6  -58.466993469923     -6.228E-08 1.120E-05 0.000E+00
[...]
 dfpt_looppert: DFPT cycle converged with prtwf=-1. Will skip output of the 1st-order WFK file.
 dfpt_looppert : ek2=    8.2259216209E+01
          f-sum rule ratio=    1.4296754647E+00
 prteigrs : about to open file /scratch/users/j/a/jabreu/flow_simple_11atoms/flow/w311/t1/tmpdata/tmp_1WF1_EIG
 Expectation of eigenvalue derivatives (hartree) for nkpt=   1  k points:
  (in case of degenerate eigenvalues, averaged derivative)
 kpt#   1, nband= 57, wtk=  1.00000, kpt=  0.0000  0.0000  0.0000 (reduced coord)
   0.00000    0.00000    0.00000    0.00000   -0.00000    0.00000    0.00000    0.00000
  -0.00000   -0.00000   -0.00000    0.00000    0.00000    0.00000    0.00000   -0.00000
   0.00000    0.00000   -0.00000   -0.00000   -0.00000   -0.00000    0.00000    0.00000
   0.00000    0.00000    0.00000   -0.00000    0.00000    0.00000   -0.00000    0.00000
   0.00000    0.00000   -0.00000    0.00000    0.00000   -0.00000    0.00000    0.00000
  -0.00000   -0.00000   -0.00000   -0.00000    0.00000    0.00000   -0.00000   -0.00000
   0.00000    0.00000    0.00000    0.00000    0.00000    0.00000    0.00000   -0.00000
   0.00236

 Eight components of 2nd-order total energy (hartree) are
 1,2,3: 0th-order hamiltonian combined with 1st-order wavefunctions
     kin0=   8.52256708E+01 eigvalue=  -3.99528800E+00  local=  -6.25068425E+01
 4,5,6: 1st-order hamiltonian combined with 1st and 0th-order wfs
     kin1=  -1.17603983E+02  Hartree=   0.00000000E+00     xc=   0.00000000E+00
 7,8,9: eventually, occupation + non-local contributions
    edocc=   2.44896227E+01     enl0=   1.52538305E+01   enl1=   6.69996213E-01
 1-9 gives the relaxation energy (to be shifted if some occ is /=2.0)
   erelax=  -5.84669935E+01
  No Ewald or frozen-wf contrib.: the relaxation energy is the total one
 2DEtotal=   -0.5846699347E+02 Ha. Also 2DEtotal=   -0.159096780252E+04 eV
    (  non-var. 2DEtotal :   -5.8466993472E+01 Ha)

 Perturbation wavevector (in red.coord.)   0.000000  0.000000  0.000000
 Perturbation : derivative vs k along direction   2
 The set of symmetries contains only one element for this perturbation.
 symkpt : not enough symmetry to change the number of k points.

[...]

 Perturbation wavevector (in red.coord.)   0.000000  0.000000  0.000000
 Perturbation : derivative vs k along direction   3
 The set of symmetries contains only one element for this perturbation.
 symkpt : not enough symmetry to change the number of k points.

 Initialisation of the first-order wave-functions :
  ireadwf=   0

--- !BeginCycle
iteration_state: {dtset: 1, }
solver: {iscf: 7, nstep: 2000, nline: 4, wfoptalg: 0, }
tolerances: {tolwfr: 1.00E-20, }
...

     iter   2DEtotal(Ha)        deltaE(Ha) residm    vres2
-ETOT  1  -12.719484829742     -1.272E+01 8.041E-03 0.000E+00
 ETOT  2  -12.736605232854     -1.712E-02 9.725E-04 0.000E+00
 ETOT  3  -12.736846326436     -2.411E-04 5.928E-05 0.000E+00
 ETOT  4  -12.736852665858     -6.339E-06 1.099E-05 0.000E+00
 ETOT  5  -12.736852866767     -2.009E-07 1.246E-06 0.000E+00
 ETOT  6  -12.736852873775     -7.009E-09 2.339E-07 0.000E+00
 ETOT  7  -12.736852874035     -2.591E-10 2.746E-08 0.000E+00
 ETOT  8  -12.736852874044     -9.900E-12 5.261E-09 0.000E+00
 ETOT  9  -12.736852874045     -4.370E-13 6.124E-10 0.000E+00
 ETOT 10  -12.736852874045     -2.487E-14 1.203E-10 0.000E+00
 ETOT 11  -12.736852874045      7.105E-15 1.384E-11 0.000E+00
 ETOT 12  -12.736852874045     -7.105E-15 2.778E-12 0.000E+00
 ETOT 13  -12.736852874045      5.329E-15 3.150E-13 0.000E+00
 ETOT 14  -12.736852874045      2.487E-14 8.514E-14 0.000E+00
 ETOT 15  -12.736852874045      0.000E+00 1.263E-14 0.000E+00
 ETOT 16  -12.736852874045      1.776E-15 4.482E-15 0.000E+00
 ETOT 17  -12.736852874045      0.000E+00 6.678E-16 0.000E+00
 ETOT 18  -12.736852874045     -3.553E-15 2.378E-16 0.000E+00
 ETOT 19  -12.736852874045      5.329E-15 3.556E-17 0.000E+00
 ETOT 20  -12.736852874045     -1.776E-15 1.267E-17 0.000E+00
 ETOT 21  -12.736852874045     -1.776E-15 1.902E-18 0.000E+00
 ETOT 22  -12.736852874045     -1.776E-15 6.780E-19 0.000E+00
 ETOT 23  -12.736852874045      1.776E-15 1.021E-19 0.000E+00
 ETOT 24  -12.736852874045      0.000E+00 3.635E-20 0.000E+00
 ETOT 25  -12.736852874045      1.776E-15 9.890E-21 0.000E+00

 At SCF step   25   max residual=  9.89E-21 < tolwfr=  1.00E-20 =>converged.

 ----iterations are completed or convergence reached----

 dfpt_looppert: DFPT cycle converged with prtwf=-1. Will skip output of the 1st-order WFK file.
 dfpt_looppert : ek2=    2.3594103960E+01
          f-sum rule ratio=    1.0760287274E+00
 prteigrs : about to open file /scratch/users/j/a/jabreu/flow_simple_11atoms/flow/w311/t1/tmpdata/tmp_1WF1_EIG
 Expectation of eigenvalue derivatives (hartree) for nkpt=   1  k points:
  (in case of degenerate eigenvalues, averaged derivative)
 kpt#   1, nband= 57, wtk=  1.00000, kpt=  0.0000  0.0000  0.0000 (reduced coord)
   0.00000   -0.00000    0.00000    0.00000    0.00000   -0.00000   -0.00000   -0.00000
   0.00000   -0.00000    0.00000    0.00000   -0.00000   -0.00000    0.00000   -0.00000
   0.00000   -0.00000    0.00000    0.00000    0.00000    0.00000    0.00000   -0.00000
  -0.00000    0.00000    0.00000    0.00000   -0.00000    0.00000   -0.00000   -0.00000
   0.00000    0.00000   -0.00000   -0.00000   -0.00000   -0.00000    0.00000   -0.00000
   0.00000   -0.00000    0.00000   -0.00000    0.00000   -0.00000   -0.00000   -0.00000
   0.00000   -0.00000    0.00000    0.00000    0.00000    0.00000   -0.00000   -0.00000
   0.00001

 Eight components of 2nd-order total energy (hartree) are
 1,2,3: 0th-order hamiltonian combined with 1st-order wavefunctions
     kin0=   2.10810947E+01 eigvalue=   5.92600967E-01  local=  -1.56798035E+01
 4,5,6: 1st-order hamiltonian combined with 1st and 0th-order wfs
     kin1=  -2.53879337E+01  Hartree=   0.00000000E+00     xc=   0.00000000E+00
 7,8,9: eventually, occupation + non-local contributions
    edocc=   3.50604596E+00     enl0=   3.23691475E+00   enl1=  -8.57720892E-02
 1-9 gives the relaxation energy (to be shifted if some occ is /=2.0)
   erelax=  -1.27368529E+01
  No Ewald or frozen-wf contrib.: the relaxation energy is the total one
 2DEtotal=   -0.1273685287E+02 Ha. Also 2DEtotal=   -0.346587392724E+03 eV
    (  non-var. 2DEtotal :   -1.2736852874E+01 Ha)

 CALCULATION OF EFFECTIVE MASSES
 NOTE : Additional infos (eff. mass eigenvalues, eigenvectors and, if degenerate, average mass) are available in stdout.

 K-point ( 0.000, 0.000, 0.000) | band =    48
 Effective mass tensor:
             -0.0587786909              0.0000000019             -0.0000026012
              0.0000000019             -2.3363414303             -0.0000092846
             -0.0000026012             -0.0000092846             -1.6385240793
 Effective mass tensor eigenvalues:
             -2.3363414304             -1.6385240792             -0.0587786909
 Angular average effective mass 1/(<1/m>)=  -0.1661930792
 Angular average effective mass for Frohlich model (<m**0.5>)**2=  -0.3591787097
 Effective masses along directions: (cart. coord. / red. coord. -> eff. mass)
    1:   1.000000  0.000000  0.000000 /   1.000000  0.000000  0.000000 ->  -0.0587786909
    2:   0.000000  1.000000  0.000000 /   0.000000  1.000000  0.000000 ->  -2.3363414302
    3:   0.000000  0.000000  1.000000 /   0.000000  0.000000  1.000000 ->  -1.6385240791
    4:   0.577350  0.577350  0.577350 /   0.379458  0.594985  0.708523 ->  -0.1661936209
    5:   0.000000  0.707107  0.707107 /   0.000000  0.643082  0.765798 ->  -1.9261882271
    6:   0.707107  0.000000  0.707107 /   0.472117  0.000000  0.881536 ->  -0.1134866416
    7:   0.707107  0.707107  0.000000 /   0.537713  0.843128  0.000000 ->  -0.1146724035

 K-point ( 0.000, 0.000, 0.000) | band =    49
 Effective mass tensor:
              0.0569821326              0.0000000020              0.0000000009
              0.0000000020              0.4042328298              0.0000000543
              0.0000000009              0.0000000543              0.6131681631
 Effective mass tensor eigenvalues:
              0.0569821326              0.4042328298              0.6131681631
 Angular average effective mass 1/(<1/m>)=   0.1385421708
 Angular average effective mass for Frohlich model (<m**0.5>)**2=   0.1954496535
 Effective masses along directions: (cart. coord. / red. coord. -> eff. mass)
    1:   1.000000  0.000000  0.000000 /   1.000000  0.000000  0.000000 ->   0.0569821326
    2:   0.000000  1.000000  0.000000 /   0.000000  1.000000  0.000000 ->   0.4042328298
    3:   0.000000  0.000000  1.000000 /   0.000000  0.000000  1.000000 ->   0.6131681631
    4:   0.577350  0.577350  0.577350 /   0.379458  0.594985  0.708523 ->   0.1385421750
    5:   0.000000  0.707107  0.707107 /   0.000000  0.643082  0.765798 ->   0.4872468769
    6:   0.707107  0.000000  0.707107 /   0.472117  0.000000  0.881536 ->   0.1042740110
    7:   0.707107  0.707107  0.000000 /   0.537713  0.843128  0.000000 ->   0.0998842222

 END OF EFFECTIVE MASSES SECTION

 ---- first-order wavefunction calculations are completed ----

 Total localisation tensor (bohr^2) in cartesian coordinates
  WARNING : still subject to testing - especially symmetries.
      direction              matrix element
   alpha     beta       real part   imaginary part
     1        1      21.7039393275    0.0000000000
     1        2       0.0000000000    0.0000000000
     1        3       0.0000000000    0.0000000000
     2        1       0.0000000000    0.0000000000
     2        2       4.0864086310    0.0000000000
     2        3       0.0000000000    0.0000000000
     3        1       0.0000000000    0.0000000000
     3        2       0.0000000000    0.0000000000
     3        3       2.4892631977    0.0000000000

 respfn : d/dk was computed, but no 2DTE, so no DDB output.

== END DATASET(S) ==============================================================

 -outvars: echo values of variables after computation  --------
            acell      1.0000000000E+00  1.0000000000E+00  1.0000000000E+00 Bohr
              amu      8.76200000E+01  2.80855000E+01
             ecut      3.40000000E+01 Hartree
           etotal     -1.2736852874E+01
            fcart      0.0000000000E+00  0.0000000000E+00  0.0000000000E+00
                       0.0000000000E+00  0.0000000000E+00  0.0000000000E+00
                       0.0000000000E+00  0.0000000000E+00  0.0000000000E+00
                       0.0000000000E+00  0.0000000000E+00  0.0000000000E+00
                       0.0000000000E+00  0.0000000000E+00  0.0000000000E+00
                       0.0000000000E+00  0.0000000000E+00  0.0000000000E+00
                       0.0000000000E+00  0.0000000000E+00  0.0000000000E+00
                       0.0000000000E+00  0.0000000000E+00  0.0000000000E+00
                       0.0000000000E+00  0.0000000000E+00  0.0000000000E+00
                       0.0000000000E+00  0.0000000000E+00  0.0000000000E+00
                       0.0000000000E+00  0.0000000000E+00  0.0000000000E+00
                       0.0000000000E+00  0.0000000000E+00  0.0000000000E+00
-          fftalg         512
           irdden           1
           irdwfk           1
           istwfk        1
              ixc     -116133
           kptopt           0
P           mkmem           1
P          mkqmem           1
P          mk1mem           1
            natom          12
            nband          57
           nbdbuf           4
            ngfft          54      80      96
             nkpt           1
            nstep        2000
             nsym           8
           ntypat           2
              occ      2.000000  2.000000  2.000000  2.000000  2.000000  2.000000
                       2.000000  2.000000  2.000000  2.000000  2.000000  2.000000
                       2.000000  2.000000  2.000000  2.000000  2.000000  2.000000
                       2.000000  2.000000  2.000000  2.000000  2.000000  2.000000
                       2.000000  2.000000  2.000000  2.000000  2.000000  2.000000
                       2.000000  2.000000  2.000000  2.000000  2.000000  2.000000
                       2.000000  2.000000  2.000000  2.000000  2.000000  2.000000
                       2.000000  2.000000  2.000000  2.000000  2.000000  2.000000
                       0.000000  0.000000  0.000000  0.000000  0.000000  0.000000
                       0.000000  0.000000  0.000000
        optdriver           1
            prtwf          -1
            rfdir           1       1       1
           rfelfd           2
            rprim      9.5992698199E+00  0.0000000000E+00  0.0000000000E+00
                       0.0000000000E+00  1.5051537757E+01  0.0000000000E+00
                       0.0000000000E+00  0.0000000000E+00  1.7923744248E+01
          spgroup          62
           strten      0.0000000000E+00  0.0000000000E+00  0.0000000000E+00
                       0.0000000000E+00  0.0000000000E+00  0.0000000000E+00
           symrel      1  0  0   0  1  0   0  0  1      -1  0  0   0 -1  0   0  0 -1
                      -1  0  0   0  1  0   0  0 -1       1  0  0   0 -1  0   0  0  1
                      -1  0  0   0 -1  0   0  0  1       1  0  0   0  1  0   0  0 -1
                       1  0  0   0 -1  0   0  0 -1      -1  0  0   0  1  0   0  0  1
            tnons      0.0000000  0.0000000  0.0000000    -0.0000000 -0.0000000 -0.0000000
                       0.5000000  0.5000000  0.5000000     0.5000000  0.5000000  0.5000000
                      -0.0000000  0.5000000  0.5000000     0.0000000  0.5000000  0.5000000
                       0.5000000 -0.0000000 -0.0000000     0.5000000  0.0000000  0.0000000
           tolwfr      1.00000000E-20
            typat      1  1  1  1  1  1  1  1  2  2  2  2
           useylm           1
           xangst      3.8097861058E+00  7.8122908026E+00  1.6694261513E+00
                       1.2699287019E+00  1.5263993261E-01  7.8154107972E+00
                       3.8097861058E+00  3.8298254350E+00  3.0729923230E+00
                       1.2699287019E+00  4.1351053002E+00  6.4118446256E+00
                       1.2699287019E+00  5.1983757638E+00  7.3706667927E-01
                       3.8097861058E+00  2.7665549714E+00  8.7477702693E+00
                       1.2699287019E+00  1.2159103962E+00  4.0053517950E+00
                       3.8097861058E+00  6.7490203390E+00  5.4794851535E+00
                       1.2699287019E+00  2.0082696706E+00  9.7639756999E-01
                       3.8097861058E+00  5.9566610645E+00  8.5084393785E+00
                       1.2699287019E+00  5.9907350382E+00  3.7660209043E+00
                       3.8097861058E+00  1.9741956970E+00  5.7188160443E+00
            xcart      7.1994523649E+00  1.4763090087E+01  3.1547582251E+00
                       2.3998174550E+00  2.8844766957E-01  1.4768986023E+01
                       7.1994523649E+00  7.2373212089E+00  5.8071138988E+00
                       2.3998174550E+00  7.8142165480E+00  1.2116630349E+01
                       2.3998174550E+00  9.8235065293E+00  1.3928541655E+00
                       7.1994523649E+00  5.2280312276E+00  1.6530890082E+01
                       2.3998174550E+00  2.2977376509E+00  7.5690179584E+00
                       7.1994523649E+00  1.2753800106E+01  1.0354726289E+01
                       2.3998174550E+00  3.7950796785E+00  1.8451240041E+00
                       7.1994523649E+00  1.1256458078E+01  1.6078620244E+01
                       2.3998174550E+00  1.1320848557E+01  7.1167481198E+00
                       7.1994523649E+00  3.7306892000E+00  1.0806996128E+01
             xred      7.5000000000E-01  9.8083600000E-01  1.7601000000E-01
                       2.5000000000E-01  1.9164000000E-02  8.2399000000E-01
                       7.5000000000E-01  4.8083600000E-01  3.2399000000E-01
                       2.5000000000E-01  5.1916400000E-01  6.7601000000E-01
                       2.5000000000E-01  6.5265800000E-01  7.7710000000E-02
                       7.5000000000E-01  3.4734200000E-01  9.2229000000E-01
                       2.5000000000E-01  1.5265800000E-01  4.2229000000E-01
                       7.5000000000E-01  8.4734200000E-01  5.7771000000E-01
                       2.5000000000E-01  2.5213900000E-01  1.0294300000E-01
                       7.5000000000E-01  7.4786100000E-01  8.9705700000E-01
                       2.5000000000E-01  7.5213900000E-01  3.9705700000E-01
                       7.5000000000E-01  2.4786100000E-01  6.0294300000E-01
            znucl       38.00000   14.00000

- Timing analysis has been suppressed with timopt=0

 Suggested references for the acknowledgment of ABINIT usage.

 Calculation completed.
.Delivered   2 WARNINGs and   5 COMMENTs to log file.