.Version 9.5.1 of ABINIT

 ABINIT is a project of the Universite Catholique de Louvain,
 Corning Inc. and other collaborators, see ~abinit/doc/developers/contributors.txt .
 acknowledgments of the ABINIT effort.

.Starting date : Sun 25 Apr 2021.
- ( at 17h16 )

- input  file    -> /scratch/users/j/a/jabreu/flow_simple2/flow/w163/t1/run.abi
- output file    -> /scratch/users/j/a/jabreu/flow_simple2/flow/w163/t1/run.abo
- root for input  files -> /scratch/users/j/a/jabreu/flow_simple2/flow/w163/t1/indata/in
- root for output files -> /scratch/users/j/a/jabreu/flow_simple2/flow/w163/t1/outdata/out

 Symmetries : space group F-4 3 m (#216); Bravais cF (face-center cubic)
     intxc =       0      iscf =       7    lmnmax =      18     lnmax =       6
     mgfft =      54  mpssoang =       3    mqgrid =    3001     natom =       2
  nloc_mem =       1    nspden =       1   nspinor =       1    nsppol =       1
      nsym =      24    n1xccc =    2501    ntypat =       2    occopt =       1
   xclevel =       2
-    mband =          22        mffmem =           1         mkmem =           2
-   mkqmem =           2        mk1mem =           2           mpw =        6251
      nfft =      157464          nkpt =           2
  Rough estimation (10% accuracy) of disk space for files :

------------- Echo of variables that govern the present computation ------------
-
- outvars: echo of selected default values
-   iomode0 =  0 , fftalg0 =512 , wfoptalg0 =  0
-
- outvars: echo of global parameters not present in the input file
-  max_nthreads =    0
-
 -outvars: echo values of preprocessed input variables --------
            acell      1.0000000000E+00  1.0000000000E+00  1.0000000000E+00 Bohr
              amu      4.00780000E+01  7.89600000E+01
             ecut      4.30000000E+01 Hartree
-          fftalg         512
           irdden           1
           irdwfk           1
           istwfk        0    1
              ixc     -116133
              kpt      2.85714286E-01  2.85714286E-01  5.71428571E-01
                       0.00000000E+00  0.00000000E+00  0.00000000E+00
           kptopt           0
P           mkmem           2
P          mkqmem           2
P          mk1mem           2
            natom           2
            nband          22
           nbdbuf           4
            ngfft          54      54      54
             nkpt           2
            nstep         100
             nsym          24
           ntypat           2
              occ      2.000000  2.000000  2.000000  2.000000  2.000000  2.000000
                       2.000000  2.000000  2.000000  2.000000  2.000000  2.000000
                       2.000000  0.000000  0.000000  0.000000  0.000000  0.000000
                       0.000000  0.000000  0.000000  0.000000
        optdriver           1
            prtwf          -1
            rfdir           1       1       1
           rfelfd           2
            rprim      7.5220391887E+00  0.0000000000E+00  4.3428513505E+00
                       2.5073463962E+00  7.0918465582E+00  4.3428513505E+00
                       0.0000000000E+00  0.0000000000E+00  8.6857027009E+00
          spgroup         216
           symrel      1  0  0   0  1  0   0  0  1       0 -1  1   0 -1  0   1 -1  0
                      -1  0  0  -1  0  1  -1  1  0       0  1 -1   1  0 -1   0  0 -1
                      -1  0  0  -1  1  0  -1  0  1       0 -1  1   1 -1  0   0 -1  0
                       1  0  0   0  0  1   0  1  0       0  1 -1   0  0 -1   1  0 -1
                      -1  0  1  -1  1  0  -1  0  0       0 -1  0   1 -1  0   0 -1  1
                       1  0 -1   0  0 -1   0  1 -1       0  1  0   0  0  1   1  0  0
                       1  0 -1   0  1 -1   0  0 -1       0 -1  0   0 -1  1   1 -1  0
                      -1  0  1  -1  0  0  -1  1  0       0  1  0   1  0  0   0  0  1
                       0  0 -1   0  1 -1   1  0 -1       1 -1  0   0 -1  1   0 -1  0
                       0  0  1   1  0  0   0  1  0      -1  1  0  -1  0  0  -1  0  1
                       0  0  1   0  1  0   1  0  0       1 -1  0   0 -1  0   0 -1  1
                       0  0 -1   1  0 -1   0  1 -1      -1  1  0  -1  0  1  -1  0  0
           tolwfr      1.00000000E-20
            typat      1  2
           useylm           1
              wtk        0.50000    0.50000
           xangst      0.0000000000E+00  0.0000000000E+00  0.0000000000E+00
                       3.9804917008E+00  2.8146326741E+00  6.8944138649E+00
            xcart      0.0000000000E+00  0.0000000000E+00  0.0000000000E+00
                       7.5220391887E+00  5.3188849187E+00  1.3028554051E+01
             xred      0.0000000000E+00  0.0000000000E+00  0.0000000000E+00
                       7.5000000000E-01  7.5000000000E-01  7.5000000000E-01
            znucl       20.00000   34.00000

 chkinp: Checking input parameters for consistency.

== DATASET  1 ==================================================================
-   mpi_nproc: 1, omp_nthreads: -1 (-1 if OMP is not activated)

--- !DatasetInfo
iteration_state: {dtset: 1, }
dimensions: {natom: 2, nkpt: 2, mband: 22, nsppol: 1, nspinor: 1, nspden: 1, mpw: 6251, }
cutoff_energies: {ecut:  43.0, pawecutdg:  -1.0, }
electrons: {nelect:   2.60000000E+01, charge:   0.00000000E+00, occopt:   1.00000000E+00, tsmear:   1.00000000E-02, }
meta: {optdriver: 1, rfelfd: 2, }
...

 Real(R)+Recip(G) space primitive vectors, cartesian coordinates (Bohr,Bohr^-1):
 R(1)=  7.5220392  0.0000000  4.3428514  G(1)=  0.1329427 -0.0470023  0.0000000
 R(2)=  2.5073464  7.0918466  4.3428514  G(2)=  0.0000000  0.1410070  0.0000000
 R(3)=  0.0000000  0.0000000  8.6857027  G(3)= -0.0664713 -0.0470023  0.1151317
 Unit cell volume ucvol=  4.6334009E+02 bohr^3
 Angles (23,13,12)=  6.00000000E+01  6.00000000E+01  6.00000000E+01 degrees

 getcut: wavevector=  0.0000  0.0000  0.0000  ngfft=  54  54  54
         ecut(hartree)=     43.000   => boxcut(ratio)=   2.10687

--- Pseudopotential description ------------------------------------------------
- pspini: atom type   1  psp file is /scratch/users/j/a/jabreu/pseudos/PBEsol/Ca.psp8
- pspatm: opening atomic psp file    /scratch/users/j/a/jabreu/pseudos/PBEsol/Ca.psp8
- Ca    ONCVPSP-3.3.0  r_core=   1.45885   1.45885   1.85192
- 20.00000  10.00000    180112                znucl, zion, pspdat
    8 -116133    2    4       400   0.00000   pspcod,pspxc,lmax,lloc,mmax,r2well
    3.99000000000000    6.00000000000000    0.00000000000000   rchrg,fchrg,qchrg
     nproj     2     2     2
     extension_switch     1
  pspatm : epsatm=   12.46045226
         --- l  ekb(1:nproj) -->
             0   10.054847    0.973777
             1    2.998958    0.458102
             2   -3.447298   -1.091650
 pspatm: atomic psp has been read  and splines computed

- pspini: atom type   2  psp file is /scratch/users/j/a/jabreu/pseudos/PBEsol/Se.psp8
- pspatm: opening atomic psp file    /scratch/users/j/a/jabreu/pseudos/PBEsol/Se.psp8
- Se    ONCVPSP-3.3.0  r_core=   1.81943   1.50330   1.90835
- 34.00000  16.00000    180112                znucl, zion, pspdat
    8 -116133    2    4       600   0.00000   pspcod,pspxc,lmax,lloc,mmax,r2well
    5.99000000000000    5.00000000000000    0.00000000000000   rchrg,fchrg,qchrg
     nproj     2     2     2
     extension_switch     1
  pspatm : epsatm=   29.17862020
         --- l  ekb(1:nproj) -->
             0    8.973804    1.019550
             1    6.849857    1.297308
             2   -9.203962   -3.731027
 pspatm: atomic psp has been read  and splines computed

   1.08261588E+03                                ecore*ucvol(ha*bohr**3)

-inwffil : will read wavefunctions from disk file /scratch/users/j/a/jabreu/flow_simple2/flow/w163/t1/indata/in_WFK

 ==>  initialize data related to q vector <==

 The list of irreducible perturbations for this q vector is:
    1)    idir= 1    ipert=   3
    2)    idir= 2    ipert=   3
    3)    idir= 3    ipert=   3

 Perturbation wavevector (in red.coord.)   0.000000  0.000000  0.000000
 Perturbation : derivative vs k along direction   1

 dfpt_looppert : COMMENT -
  In a d/dk calculation, iscf is set to -3 automatically.
 The set of symmetries contains only one element for this perturbation.
 symkpt : not enough symmetry to change the number of k points.

[...]

 Initialisation of the first-order wave-functions :
  ireadwf=   0

--- !BeginCycle
iteration_state: {dtset: 1, }
solver: {iscf: 7, nstep: 100, nline: 4, wfoptalg: 0, }
tolerances: {tolwfr: 1.00E-20, }
...

     iter   2DEtotal(Ha)        deltaE(Ha) residm    vres2
-ETOT  1  -40.313454268735     -4.031E+01 8.524E-02 0.000E+00
 ETOT  2  -40.336269838989     -2.282E-02 3.474E-03 0.000E+00
 ETOT  3  -40.336287497903     -1.766E-05 1.155E-04 0.000E+00
 ETOT  4  -40.336287555020     -5.712E-08 6.674E-06 0.000E+00
 ETOT  5  -40.336287555272     -2.516E-10 3.893E-07 0.000E+00
 ETOT  6  -40.336287555273     -1.194E-12 2.240E-08 0.000E+00
 ETOT  7  -40.336287555273      0.000E+00 1.592E-09 0.000E+00
 ETOT  8  -40.336287555273     -1.421E-14 9.339E-11 0.000E+00
 ETOT  9  -40.336287555273     -1.421E-14 7.025E-12 0.000E+00
 ETOT 10  -40.336287555273      7.105E-15 4.218E-13 0.000E+00
 ETOT 11  -40.336287555273     -7.105E-15 3.259E-14 0.000E+00
 ETOT 12  -40.336287555273      7.105E-15 1.979E-15 0.000E+00
 ETOT 13  -40.336287555273      1.421E-14 1.596E-16 0.000E+00
 ETOT 14  -40.336287555273     -2.842E-14 9.520E-18 0.000E+00
 ETOT 15  -40.336287555273      2.132E-14 7.951E-19 0.000E+00
 ETOT 16  -40.336287555273      1.421E-14 4.666E-20 0.000E+00
 ETOT 17  -40.336287555273     -1.421E-14 9.763E-21 0.000E+00

 At SCF step   17   max residual=  9.76E-21 < tolwfr=  1.00E-20 =>converged.

 ----iterations are completed or convergence reached----

 dfpt_looppert: DFPT cycle converged with prtwf=-1. Will skip output of the 1st-order WFK file.
 dfpt_looppert : ek2=    4.0817313718E+01
          f-sum rule ratio=    1.0507150222E+00
 prteigrs : about to open file /scratch/users/j/a/jabreu/flow_simple2/flow/w163/t1/tmpdata/tmp_1WF1_EIG
 Expectation of eigenvalue derivatives (hartree) for nkpt=   2  k points:
  (in case of degenerate eigenvalues, averaged derivative)
 kpt#   1, nband= 22, wtk=  0.50000, kpt=  0.2857  0.2857  0.5714 (reduced coord)
   0.00000   -0.00000    0.00000    0.00000   -0.00000    0.00000    0.00000   -0.00000
  -0.00000    0.00000    0.00000   -0.00000   -0.00000   -0.00000    0.00000   -0.00000
  -0.00000    0.00000   -0.00000   -0.00000    0.00000    0.00000
 prteigrs : prtvol=0 or 1, do not print more k-points.

 Eight components of 2nd-order total energy (hartree) are
 1,2,3: 0th-order hamiltonian combined with 1st-order wavefunctions
     kin0=   3.48299556E+01 eigvalue=   6.51155337E+00  local=  -1.45591191E+01
 4,5,6: 1st-order hamiltonian combined with 1st and 0th-order wfs
     kin1=  -4.28873647E+01  Hartree=   0.00000000E+00     xc=   0.00000000E+00
 7,8,9: eventually, occupation + non-local contributions
    edocc=   9.85476835E+00     enl0=   3.69912938E+00   enl1=  -3.77852104E+01
 1-9 gives the relaxation energy (to be shifted if some occ is /=2.0)
   erelax=  -4.03362876E+01
  No Ewald or frozen-wf contrib.: the relaxation energy is the total one
 2DEtotal=   -0.4033628756E+02 Ha. Also 2DEtotal=   -0.109760620415E+04 eV
    (  non-var. 2DEtotal :   -4.0336287555E+01 Ha)

 Perturbation wavevector (in red.coord.)   0.000000  0.000000  0.000000
 Perturbation : derivative vs k along direction   2
 The set of symmetries contains only one element for this perturbation.
 symkpt : not enough symmetry to change the number of k points.

[...]

 Perturbation wavevector (in red.coord.)   0.000000  0.000000  0.000000
 Perturbation : derivative vs k along direction   3
 The set of symmetries contains only one element for this perturbation.
 symkpt : not enough symmetry to change the number of k points.

-inwffil : will read wavefunctions from disk file /scratch/users/j/a/jabreu/flow_simple2/flow/w163/t1/indata/in_WFK

 Initialisation of the first-order wave-functions :
  ireadwf=   0

--- !BeginCycle
iteration_state: {dtset: 1, }
solver: {iscf: 7, nstep: 100, nline: 4, wfoptalg: 0, }
tolerances: {tolwfr: 1.00E-20, }
...

     iter   2DEtotal(Ha)        deltaE(Ha) residm    vres2
-ETOT  1  -40.038654680368     -4.004E+01 1.931E-01 0.000E+00
 ETOT  2  -40.060076487001     -2.142E-02 2.825E-03 0.000E+00
 ETOT  3  -40.060090674565     -1.419E-05 1.136E-04 0.000E+00
 ETOT  4  -40.060090718597     -4.403E-08 5.813E-06 0.000E+00
 ETOT  5  -40.060090718786     -1.899E-10 3.611E-07 0.000E+00
 ETOT  6  -40.060090718787     -8.882E-13 2.225E-08 0.000E+00
 ETOT  7  -40.060090718787     -1.421E-14 1.510E-09 0.000E+00
 ETOT  8  -40.060090718787     -7.105E-15 9.252E-11 0.000E+00
 ETOT  9  -40.060090718787      1.421E-14 6.919E-12 0.000E+00
 ETOT 10  -40.060090718787      2.842E-14 4.176E-13 0.000E+00
 ETOT 11  -40.060090718787     -7.105E-15 3.297E-14 0.000E+00
 ETOT 12  -40.060090718787      7.105E-15 1.957E-15 0.000E+00
 ETOT 13  -40.060090718787     -1.421E-14 1.609E-16 0.000E+00
 ETOT 14  -40.060090718787      7.105E-15 9.402E-18 0.000E+00
 ETOT 15  -40.060090718787     -7.105E-15 7.981E-19 0.000E+00
 ETOT 16  -40.060090718787      0.000E+00 4.600E-20 0.000E+00
 ETOT 17  -40.060090718787      0.000E+00 9.886E-21 0.000E+00

 At SCF step   17   max residual=  9.89E-21 < tolwfr=  1.00E-20 =>converged.

 ----iterations are completed or convergence reached----

 dfpt_looppert: DFPT cycle converged with prtwf=-1. Will skip output of the 1st-order WFK file.
 dfpt_looppert : ek2=    4.0817313719E+01
          f-sum rule ratio=    1.0403506226E+00
 prteigrs : about to open file /scratch/users/j/a/jabreu/flow_simple2/flow/w163/t1/tmpdata/tmp_1WF1_EIG
 Expectation of eigenvalue derivatives (hartree) for nkpt=   2  k points:
  (in case of degenerate eigenvalues, averaged derivative)
 kpt#   1, nband= 22, wtk=  0.50000, kpt=  0.2857  0.2857  0.5714 (reduced coord)
  -0.00001    0.00000    0.00000   -0.00000    0.00000    0.00014   -0.00131   -0.00154
  -0.00095    0.01627    0.05021   -0.08618   -0.00076   -0.16013    0.07267   -0.04583
   0.00154   -0.08633    0.27000    0.04242    0.10340    0.05175
 prteigrs : prtvol=0 or 1, do not print more k-points.

 Eight components of 2nd-order total energy (hartree) are
 1,2,3: 0th-order hamiltonian combined with 1st-order wavefunctions
     kin0=   3.51272594E+01 eigvalue=   6.50126553E+00  local=  -1.47253000E+01
 4,5,6: 1st-order hamiltonian combined with 1st and 0th-order wfs
     kin1=  -4.24643177E+01  Hartree=   0.00000000E+00     xc=   0.00000000E+00
 7,8,9: eventually, occupation + non-local contributions
    edocc=   9.42444990E+00     enl0=   3.73241597E+00   enl1=  -3.76558637E+01
 1-9 gives the relaxation energy (to be shifted if some occ is /=2.0)
   erelax=  -4.00600907E+01
  No Ewald or frozen-wf contrib.: the relaxation energy is the total one
 2DEtotal=   -0.4006009072E+02 Ha. Also 2DEtotal=   -0.109009050602E+04 eV
    (  non-var. 2DEtotal :   -4.0060090719E+01 Ha)

 CALCULATION OF EFFECTIVE MASSES
 NOTE : Additional infos (eff. mass eigenvalues, eigenvectors and, if degenerate, average mass) are available in stdout.

 K-point ( 0.286, 0.286, 0.571) | band =    13
 Effective mass tensor:
            -11.9472487142             -6.4750468927              0.0000000200
             -6.4750468927             -7.3686990272             -0.0000000500
              0.0000000200             -0.0000000500            -12.6987745654
 Effective mass tensor eigenvalues:
            -16.5257982403            -12.6987745654             -2.7901495011
 Angular average effective mass 1/(<1/m>)=  -6.0281764294
 Angular average effective mass for Frohlich model (<m**0.5>)**2=  -7.3981945668
 Effective masses along directions: (cart. coord. / red. coord. -> eff. mass)
    1:   1.000000  0.000000  0.000000 /   0.948683  0.316228  0.000000 ->  -6.2574746974
    2:   0.000000  1.000000  0.000000 /   0.000000  1.000000  0.000000 ->  -3.8594197558
    3:   0.000000  0.000000  1.000000 /   0.408248  0.408248  0.816497 -> -12.6987745654
    4:   0.577350  0.577350  0.577350 /   0.585539  0.688047  0.428644 -> -13.8371661084
    5:   0.000000  0.707107  0.707107 /   0.289489  0.762222  0.578977 ->  -5.9197157422
    6:   0.707107  0.000000  0.707107 /   0.731423  0.422287  0.535439 ->  -8.3837534412
    7:   0.707107  0.707107  0.000000 /   0.616798  0.787122  0.000000 -> -14.4864924750

 K-point ( 0.000, 0.000, 0.000) | band =    14
 Effective mass tensor:
              0.3011763124              0.0000000000             -0.0000000000
              0.0000000000              0.3011763124             -0.0000000000
             -0.0000000000             -0.0000000000              0.3011763124
 Effective mass tensor eigenvalues:
              0.3011763124              0.3011763124              0.3011763124
 Angular average effective mass 1/(<1/m>)=   0.3011763124
 Angular average effective mass for Frohlich model (<m**0.5>)**2=   0.3011763124
 Effective masses along directions: (cart. coord. / red. coord. -> eff. mass)
    1:   1.000000  0.000000  0.000000 /   0.948683  0.316228  0.000000 ->   0.3011763124
    2:   0.000000  1.000000  0.000000 /   0.000000  1.000000  0.000000 ->   0.3011763124
    3:   0.000000  0.000000  1.000000 /   0.408248  0.408248  0.816497 ->   0.3011763124
    4:   0.577350  0.577350  0.577350 /   0.585539  0.688047  0.428644 ->   0.3011763124
    5:   0.000000  0.707107  0.707107 /   0.289489  0.762222  0.578977 ->   0.3011763124
    6:   0.707107  0.000000  0.707107 /   0.731423  0.422287  0.535439 ->   0.3011763124
    7:   0.707107  0.707107  0.000000 /   0.616798  0.787122  0.000000 ->   0.3011763124

 END OF EFFECTIVE MASSES SECTION

 ---- first-order wavefunction calculations are completed ----

 Total localisation tensor (bohr^2) in cartesian coordinates
  WARNING : still subject to testing - especially symmetries.
      direction              matrix element
   alpha     beta       real part   imaginary part
     1        1       1.3016265439    0.0000000000
     1        2       0.3681555823    0.0000000000
     1        3       0.9017933226    0.0000000000
     2        1       0.3681555823    0.0000000000
     2        2       1.0413012351    0.0000000000
     2        3       0.6376641737    0.0000000000
     3        1       0.9017933226    0.0000000000
     3        2       0.6376641737    0.0000000000
     3        3       2.2783384103    0.0000000000

 respfn : d/dk was computed, but no 2DTE, so no DDB output.

== END DATASET(S) ==============================================================

 -outvars: echo values of variables after computation  --------
            acell      1.0000000000E+00  1.0000000000E+00  1.0000000000E+00 Bohr
              amu      4.00780000E+01  7.89600000E+01
             ecut      4.30000000E+01 Hartree
           etotal     -4.0060090719E+01
            fcart      0.0000000000E+00  0.0000000000E+00  0.0000000000E+00
                       0.0000000000E+00  0.0000000000E+00  0.0000000000E+00
-          fftalg         512
           irdden           1
           irdwfk           1
           istwfk        0    1
              ixc     -116133
              kpt      2.85714286E-01  2.85714286E-01  5.71428571E-01
                       0.00000000E+00  0.00000000E+00  0.00000000E+00
           kptopt           0
P           mkmem           2
P          mkqmem           2
P          mk1mem           2
            natom           2
            nband          22
           nbdbuf           4
            ngfft          54      54      54
             nkpt           2
            nstep         100
             nsym          24
           ntypat           2
              occ      2.000000  2.000000  2.000000  2.000000  2.000000  2.000000
                       2.000000  2.000000  2.000000  2.000000  2.000000  2.000000
                       2.000000  0.000000  0.000000  0.000000  0.000000  0.000000
                       0.000000  0.000000  0.000000  0.000000
        optdriver           1
            prtwf          -1
            rfdir           1       1       1
           rfelfd           2
            rprim      7.5220391887E+00  0.0000000000E+00  4.3428513505E+00
                       2.5073463962E+00  7.0918465582E+00  4.3428513505E+00
                       0.0000000000E+00  0.0000000000E+00  8.6857027009E+00
          spgroup         216
           strten      0.0000000000E+00  0.0000000000E+00  0.0000000000E+00
                       0.0000000000E+00  0.0000000000E+00  0.0000000000E+00
           symrel      1  0  0   0  1  0   0  0  1       0 -1  1   0 -1  0   1 -1  0
                      -1  0  0  -1  0  1  -1  1  0       0  1 -1   1  0 -1   0  0 -1
                      -1  0  0  -1  1  0  -1  0  1       0 -1  1   1 -1  0   0 -1  0
                       1  0  0   0  0  1   0  1  0       0  1 -1   0  0 -1   1  0 -1
                      -1  0  1  -1  1  0  -1  0  0       0 -1  0   1 -1  0   0 -1  1
                       1  0 -1   0  0 -1   0  1 -1       0  1  0   0  0  1   1  0  0
                       1  0 -1   0  1 -1   0  0 -1       0 -1  0   0 -1  1   1 -1  0
                      -1  0  1  -1  0  0  -1  1  0       0  1  0   1  0  0   0  0  1
                       0  0 -1   0  1 -1   1  0 -1       1 -1  0   0 -1  1   0 -1  0
                       0  0  1   1  0  0   0  1  0      -1  1  0  -1  0  0  -1  0  1
                       0  0  1   0  1  0   1  0  0       1 -1  0   0 -1  0   0 -1  1
                       0  0 -1   1  0 -1   0  1 -1      -1  1  0  -1  0  1  -1  0  0
           tolwfr      1.00000000E-20
            typat      1  2
           useylm           1
              wtk        0.50000    0.50000
           xangst      0.0000000000E+00  0.0000000000E+00  0.0000000000E+00
                       3.9804917008E+00  2.8146326741E+00  6.8944138649E+00
            xcart      0.0000000000E+00  0.0000000000E+00  0.0000000000E+00
                       7.5220391887E+00  5.3188849187E+00  1.3028554051E+01
             xred      0.0000000000E+00  0.0000000000E+00  0.0000000000E+00
                       7.5000000000E-01  7.5000000000E-01  7.5000000000E-01
            znucl       20.00000   34.00000

- Timing analysis has been suppressed with timopt=0

 Suggested references for the acknowledgment of ABINIT usage.

 Calculation completed.
.Delivered  14 WARNINGs and   9 COMMENTs to log file.