.Version 9.5.1 of ABINIT

 ABINIT is a project of the Universite Catholique de Louvain,
 Corning Inc. and other collaborators, see ~abinit/doc/developers/contributors.txt .
 acknowledgments of the ABINIT effort.

.Starting date : Sun 25 Apr 2021.
- ( at 17h13 )

- input  file    -> /scratch/users/j/a/jabreu/flow_simple2/flow/w143/t1/run.abi
- output file    -> /scratch/users/j/a/jabreu/flow_simple2/flow/w143/t1/run.abo
- root for input  files -> /scratch/users/j/a/jabreu/flow_simple2/flow/w143/t1/indata/in
- root for output files -> /scratch/users/j/a/jabreu/flow_simple2/flow/w143/t1/outdata/out

 Symmetries : space group Fm -3 m (#225); Bravais cF (face-center cubic)
     intxc =       0      iscf =       7    lmnmax =      18     lnmax =       6
     mgfft =      48  mpssoang =       3    mqgrid =    3001     natom =       2
  nloc_mem =       1    nspden =       1   nspinor =       1    nsppol =       1
      nsym =      48    n1xccc =    2501    ntypat =       2    occopt =       1
   xclevel =       2
-    mband =          22        mffmem =           1         mkmem =           2
-   mkqmem =           2        mk1mem =           2           mpw =        4547
      nfft =      110592          nkpt =           2
  Rough estimation (10% accuracy) of disk space for files :

------------- Echo of variables that govern the present computation ------------
-
- outvars: echo of selected default values
-   iomode0 =  0 , fftalg0 =512 , wfoptalg0 =  0
-
- outvars: echo of global parameters not present in the input file
-  max_nthreads =    0
-
 -outvars: echo values of preprocessed input variables --------
            acell      1.0000000000E+00  1.0000000000E+00  1.0000000000E+00 Bohr
              amu      2.43050000E+01  1.27600000E+02
             ecut      4.20000000E+01 Hartree
-          fftalg         512
           irdden           1
           irdwfk           1
           istwfk        0    1
              ixc     -116133
              kpt      6.52173913E-02  6.52173913E-02  1.30434783E-01
                       5.00000000E-01  6.16297582E-33  5.00000000E-01
           kptopt           0
P           mkmem           2
P          mkqmem           2
P          mk1mem           2
            natom           2
            nband          22
           nbdbuf           4
            ngfft          48      48      48
             nkpt           2
            nstep         100
             nsym          48
           ntypat           2
              occ      2.000000  2.000000  2.000000  2.000000  2.000000  2.000000
                       2.000000  2.000000  2.000000  2.000000  2.000000  2.000000
                       2.000000  0.000000  0.000000  0.000000  0.000000  0.000000
                       0.000000  0.000000  0.000000  0.000000
        optdriver           1
            prtwf          -1
            rfdir           1       1       1
           rfelfd           2
            rprim      6.8364422716E+00  0.0000000000E+00  3.9470217858E+00
                       2.2788140905E+00  6.4454595860E+00  3.9470217858E+00
                       0.0000000000E+00  0.0000000000E+00  7.8940435717E+00
          spgroup         225
           symrel      1  0  0   0  1  0   0  0  1      -1  0  0   0 -1  0   0  0 -1
                       0 -1  1   0 -1  0   1 -1  0       0  1 -1   0  1  0  -1  1  0
                      -1  0  0  -1  0  1  -1  1  0       1  0  0   1  0 -1   1 -1  0
                       0  1 -1   1  0 -1   0  0 -1       0 -1  1  -1  0  1   0  0  1
                      -1  0  0  -1  1  0  -1  0  1       1  0  0   1 -1  0   1  0 -1
                       0 -1  1   1 -1  0   0 -1  0       0  1 -1  -1  1  0   0  1  0
                       1  0  0   0  0  1   0  1  0      -1  0  0   0  0 -1   0 -1  0
                       0  1 -1   0  0 -1   1  0 -1       0 -1  1   0  0  1  -1  0  1
                      -1  0  1  -1  1  0  -1  0  0       1  0 -1   1 -1  0   1  0  0
                       0 -1  0   1 -1  0   0 -1  1       0  1  0  -1  1  0   0  1 -1
                       1  0 -1   0  0 -1   0  1 -1      -1  0  1   0  0  1   0 -1  1
                       0  1  0   0  0  1   1  0  0       0 -1  0   0  0 -1  -1  0  0
                       1  0 -1   0  1 -1   0  0 -1      -1  0  1   0 -1  1   0  0  1
                       0 -1  0   0 -1  1   1 -1  0       0  1  0   0  1 -1  -1  1  0
                      -1  0  1  -1  0  0  -1  1  0       1  0 -1   1  0  0   1 -1  0
                       0  1  0   1  0  0   0  0  1       0 -1  0  -1  0  0   0  0 -1
                       0  0 -1   0  1 -1   1  0 -1       0  0  1   0 -1  1  -1  0  1
                       1 -1  0   0 -1  1   0 -1  0      -1  1  0   0  1 -1   0  1  0
                       0  0  1   1  0  0   0  1  0       0  0 -1  -1  0  0   0 -1  0
                      -1  1  0  -1  0  0  -1  0  1       1 -1  0   1  0  0   1  0 -1
                       0  0  1   0  1  0   1  0  0       0  0 -1   0 -1  0  -1  0  0
                       1 -1  0   0 -1  0   0 -1  1      -1  1  0   0  1  0   0  1 -1
                       0  0 -1   1  0 -1   0  1 -1       0  0  1  -1  0  1   0 -1  1
                      -1  1  0  -1  0  1  -1  0  0       1 -1  0   1  0 -1   1  0  0
           tolwfr      1.00000000E-20
            typat      1  2
           useylm           1
              wtk        0.50000    0.50000
           xangst      0.0000000000E+00  0.0000000000E+00  0.0000000000E+00
                       2.4117929586E+00  1.7053951559E+00  4.1773479417E+00
            xcart      0.0000000000E+00  0.0000000000E+00  0.0000000000E+00
                       4.5576281810E+00  3.2227297930E+00  7.8940435717E+00
             xred      0.0000000000E+00  0.0000000000E+00  0.0000000000E+00
                       5.0000000000E-01  5.0000000000E-01  5.0000000000E-01
            znucl       12.00000   52.00000

 chkinp: Checking input parameters for consistency.

== DATASET  1 ==================================================================
-   mpi_nproc: 1, omp_nthreads: -1 (-1 if OMP is not activated)

--- !DatasetInfo
iteration_state: {dtset: 1, }
dimensions: {natom: 2, nkpt: 2, mband: 22, nsppol: 1, nspinor: 1, nspden: 1, mpw: 4547, }
cutoff_energies: {ecut:  42.0, pawecutdg:  -1.0, }
electrons: {nelect:   2.60000000E+01, charge:   0.00000000E+00, occopt:   1.00000000E+00, tsmear:   1.00000000E-02, }
meta: {optdriver: 1, rfelfd: 2, }
...

 Real(R)+Recip(G) space primitive vectors, cartesian coordinates (Bohr,Bohr^-1):
 R(1)=  6.8364423  0.0000000  3.9470218  G(1)=  0.1462749 -0.0517160  0.0000000
 R(2)=  2.2788141  6.4454596  3.9470218  G(2)=  0.0000000  0.1551480  0.0000000
 R(3)=  0.0000000  0.0000000  7.8940436  G(3)= -0.0731375 -0.0517160  0.1266778
 Unit cell volume ucvol=  3.4784323E+02 bohr^3
 Angles (23,13,12)=  6.00000000E+01  6.00000000E+01  6.00000000E+01 degrees

 getcut: wavevector=  0.0000  0.0000  0.0000  ngfft=  48  48  48
         ecut(hartree)=     42.000   => boxcut(ratio)=   2.08426

--- Pseudopotential description ------------------------------------------------
- pspini: atom type   1  psp file is /scratch/users/j/a/jabreu/pseudos/PBEsol/Mg.psp8
- pspatm: opening atomic psp file    /scratch/users/j/a/jabreu/pseudos/PBEsol/Mg.psp8
- Mg    ONCVPSP-3.3.0  r_core=   1.16056   1.56380
- 12.00000  10.00000    180112                znucl, zion, pspdat
    8 -116133    1    4       400   0.00000   pspcod,pspxc,lmax,lloc,mmax,r2well
    3.99000000000000    0.00000000000000    0.00000000000000   rchrg,fchrg,qchrg
     nproj     2     2
     extension_switch     1
  pspatm : epsatm=    9.18164846
         --- l  ekb(1:nproj) -->
             0    2.230603   -0.826587
             1   -6.503151   -2.501445
 pspatm: atomic psp has been read  and splines computed

- pspini: atom type   2  psp file is /scratch/users/j/a/jabreu/pseudos/PBEsol/Te.psp8
- pspatm: opening atomic psp file    /scratch/users/j/a/jabreu/pseudos/PBEsol/Te.psp8
- Te    ONCVPSP-3.3.0  r_core=   2.26547   1.91704   1.80604
- 52.00000  16.00000    180112                znucl, zion, pspdat
    8 -116133    2    4       600   0.00000   pspcod,pspxc,lmax,lloc,mmax,r2well
    5.99000000000000    5.00000000000000    0.00000000000000   rchrg,fchrg,qchrg
     nproj     2     2     2
     extension_switch     1
  pspatm : epsatm=   36.82679836
         --- l  ekb(1:nproj) -->
             0    6.345999    0.785432
             1    5.709019    1.070069
             2   -6.035173   -1.870937
 pspatm: atomic psp has been read  and splines computed

   1.19621962E+03                                ecore*ucvol(ha*bohr**3)

-inwffil : will read wavefunctions from disk file /scratch/users/j/a/jabreu/flow_simple2/flow/w143/t1/indata/in_WFK

 ==>  initialize data related to q vector <==

 The list of irreducible perturbations for this q vector is:
    1)    idir= 1    ipert=   3
    2)    idir= 2    ipert=   3
    3)    idir= 3    ipert=   3

 Perturbation wavevector (in red.coord.)   0.000000  0.000000  0.000000
 Perturbation : derivative vs k along direction   1

 dfpt_looppert : COMMENT -
  In a d/dk calculation, iscf is set to -3 automatically.
 The set of symmetries contains only one element for this perturbation.
 symkpt : not enough symmetry to change the number of k points.

[...]

 Initialisation of the first-order wave-functions :
  ireadwf=   0

--- !BeginCycle
iteration_state: {dtset: 1, }
solver: {iscf: 7, nstep: 100, nline: 4, wfoptalg: 0, }
tolerances: {tolwfr: 1.00E-20, }
...

     iter   2DEtotal(Ha)        deltaE(Ha) residm    vres2
-ETOT  1  -55.569636116366     -5.557E+01 7.956E-02 0.000E+00
 ETOT  2  -55.581246905730     -1.161E-02 3.423E-04 0.000E+00
 ETOT  3  -55.581249974309     -3.069E-06 1.234E-05 0.000E+00
 ETOT  4  -55.581249974825     -5.155E-10 6.972E-08 0.000E+00
 ETOT  5  -55.581249974825     -2.913E-13 5.301E-09 0.000E+00
 ETOT  6  -55.581249974825      6.395E-14 3.153E-11 0.000E+00
 ETOT  7  -55.581249974825     -1.421E-14 2.447E-12 0.000E+00
 ETOT  8  -55.581249974825      0.000E+00 1.540E-14 0.000E+00
 ETOT  9  -55.581249974825      0.000E+00 1.174E-15 0.000E+00
 ETOT 10  -55.581249974825      0.000E+00 7.666E-18 0.000E+00
 ETOT 11  -55.581249974825      1.421E-14 5.725E-19 0.000E+00
 ETOT 12  -55.581249974825     -2.132E-14 9.953E-21 0.000E+00

 At SCF step   12   max residual=  9.95E-21 < tolwfr=  1.00E-20 =>converged.

 ----iterations are completed or convergence reached----

 dfpt_looppert: DFPT cycle converged with prtwf=-1. Will skip output of the 1st-order WFK file.
 dfpt_looppert : ek2=    4.9414601917E+01
          f-sum rule ratio=    1.3321564172E+00
 prteigrs : about to open file /scratch/users/j/a/jabreu/flow_simple2/flow/w143/t1/tmpdata/tmp_1WF1_EIG
 Expectation of eigenvalue derivatives (hartree) for nkpt=   2  k points:
  (in case of degenerate eigenvalues, averaged derivative)
 kpt#   1, nband= 22, wtk=  0.50000, kpt=  0.0652  0.0652  0.1304 (reduced coord)
  -0.00000    0.00000   -0.00000   -0.00000    0.00000   -0.00000   -0.00000    0.00000
  -0.00000    0.00000    0.00000   -0.00000   -0.00000   -0.00000   -0.00000    0.00000
  -0.00000    0.00000   -0.00000   -0.00000   -0.00001    0.00000
 prteigrs : prtvol=0 or 1, do not print more k-points.

 Eight components of 2nd-order total energy (hartree) are
 1,2,3: 0th-order hamiltonian combined with 1st-order wavefunctions
     kin0=   4.48548976E+01 eigvalue=   9.60488740E+00  local=  -2.14725876E+01
 4,5,6: 1st-order hamiltonian combined with 1st and 0th-order wfs
     kin1=  -6.58279790E+01  Hartree=   0.00000000E+00     xc=   0.00000000E+00
 7,8,9: eventually, occupation + non-local contributions
    edocc=   1.70778510E+01     enl0=   5.51620156E+00   enl1=  -4.53345209E+01
 1-9 gives the relaxation energy (to be shifted if some occ is /=2.0)
   erelax=  -5.55812500E+01
  No Ewald or frozen-wf contrib.: the relaxation energy is the total one
 2DEtotal=   -0.5558124997E+02 Ha. Also 2DEtotal=   -0.151244272848E+04 eV
    (  non-var. 2DEtotal :   -5.5581249975E+01 Ha)

 Perturbation wavevector (in red.coord.)   0.000000  0.000000  0.000000
 Perturbation : derivative vs k along direction   2
 The set of symmetries contains only one element for this perturbation.
 symkpt : not enough symmetry to change the number of k points.

[...]

 Perturbation wavevector (in red.coord.)   0.000000  0.000000  0.000000
 Perturbation : derivative vs k along direction   3
 The set of symmetries contains only one element for this perturbation.
 symkpt : not enough symmetry to change the number of k points.

-inwffil : will read wavefunctions from disk file /scratch/users/j/a/jabreu/flow_simple2/flow/w143/t1/indata/in_WFK

 Initialisation of the first-order wave-functions :
  ireadwf=   0

--- !BeginCycle
iteration_state: {dtset: 1, }
solver: {iscf: 7, nstep: 100, nline: 4, wfoptalg: 0, }
tolerances: {tolwfr: 1.00E-20, }
...

     iter   2DEtotal(Ha)        deltaE(Ha) residm    vres2
-ETOT  1  -52.187837761080     -5.219E+01 7.941E-02 0.000E+00
 ETOT  2  -52.198664101327     -1.083E-02 3.420E-04 0.000E+00
 ETOT  3  -52.198668390957     -4.290E-06 1.231E-05 0.000E+00
 ETOT  4  -52.198668391689     -7.323E-10 6.960E-08 0.000E+00
 ETOT  5  -52.198668391690     -5.400E-13 5.287E-09 0.000E+00
 ETOT  6  -52.198668391690     -3.553E-14 3.146E-11 0.000E+00
 ETOT  7  -52.198668391690      2.132E-14 2.439E-12 0.000E+00
 ETOT  8  -52.198668391690     -1.421E-14 1.536E-14 0.000E+00
 ETOT  9  -52.198668391690      7.105E-15 1.169E-15 0.000E+00
 ETOT 10  -52.198668391690      0.000E+00 7.638E-18 0.000E+00
 ETOT 11  -52.198668391690      0.000E+00 5.698E-19 0.000E+00
 ETOT 12  -52.198668391690      0.000E+00 9.978E-21 0.000E+00

 At SCF step   12   max residual=  9.98E-21 < tolwfr=  1.00E-20 =>converged.

 ----iterations are completed or convergence reached----

 dfpt_looppert: DFPT cycle converged with prtwf=-1. Will skip output of the 1st-order WFK file.
 dfpt_looppert : ek2=    4.9414601916E+01
          f-sum rule ratio=    1.2050663055E+00
 prteigrs : about to open file /scratch/users/j/a/jabreu/flow_simple2/flow/w143/t1/tmpdata/tmp_1WF1_EIG
 Expectation of eigenvalue derivatives (hartree) for nkpt=   2  k points:
  (in case of degenerate eigenvalues, averaged derivative)
 kpt#   1, nband= 22, wtk=  0.50000, kpt=  0.0652  0.0652  0.1304 (reduced coord)
   0.00000   -0.00007   -0.00002   -0.00002    0.00002    0.00004    0.00003    0.00008
   0.00013    0.05413   -0.38291   -0.13379    0.00011    0.30971   -0.10285    0.07766
   0.06095   -0.40431   -0.10749    0.07233    0.24316    0.47545
 prteigrs : prtvol=0 or 1, do not print more k-points.

 Eight components of 2nd-order total energy (hartree) are
 1,2,3: 0th-order hamiltonian combined with 1st-order wavefunctions
     kin0=   4.50065970E+01 eigvalue=   9.54001469E+00  local=  -2.14761003E+01
 4,5,6: 1st-order hamiltonian combined with 1st and 0th-order wfs
     kin1=  -5.95478718E+01  Hartree=   0.00000000E+00     xc=   0.00000000E+00
 7,8,9: eventually, occupation + non-local contributions
    edocc=   1.37265690E+01     enl0=   5.40158807E+00   enl1=  -4.48494650E+01
 1-9 gives the relaxation energy (to be shifted if some occ is /=2.0)
   erelax=  -5.21986684E+01
  No Ewald or frozen-wf contrib.: the relaxation energy is the total one
 2DEtotal=   -0.5219866839E+02 Ha. Also 2DEtotal=   -0.142039800259E+04 eV
    (  non-var. 2DEtotal :   -5.2198668392E+01 Ha)

 CALCULATION OF EFFECTIVE MASSES
 NOTE : Additional infos (eff. mass eigenvalues, eigenvectors and, if degenerate, average mass) are available in stdout.

 K-point ( 0.065, 0.065, 0.130) | band =    13
 Effective mass tensor:
             -0.4966179685             -0.2195386946             -0.0000002414
             -0.2195386946             -0.3413806384              0.0000003419
             -0.0000002414              0.0000003419             -7.4382656816
 Effective mass tensor eigenvalues:
             -7.4382656816             -0.6518552581             -0.1861433489
 Angular average effective mass 1/(<1/m>)=  -0.4260923865
 Angular average effective mass for Frohlich model (<m**0.5>)**2=  -0.6343907438
 Effective masses along directions: (cart. coord. / red. coord. -> eff. mass)
    1:   1.000000  0.000000  0.000000 /   0.948683  0.316228  0.000000 ->  -0.3554346880
    2:   0.000000  1.000000  0.000000 /   0.000000  1.000000  0.000000 ->  -0.2443297029
    3:   0.000000  0.000000  1.000000 /   0.408248  0.408248  0.816497 ->  -7.4382656816
    4:   0.577350  0.577350  0.577350 /   0.585539  0.688047  0.428644 ->  -0.8766516728
    5:   0.000000  0.707107  0.707107 /   0.289489  0.762222  0.578977 ->  -0.4731185078
    6:   0.707107  0.000000  0.707107 /   0.731423  0.422287  0.535439 ->  -0.6784499864
    7:   0.707107  0.707107  0.000000 /   0.616798  0.787122  0.000000 ->  -0.6083332514

 K-point ( 0.500, 0.000, 0.500) | band =    14
 Effective mass tensor:
              0.2152966496             -0.0679785638              0.0832563971
             -0.0679785638              0.2633647539             -0.1177423262
              0.0832563971             -0.1177423262              0.3114328533
 Effective mass tensor eigenvalues:
              0.1672285451              0.1672285465              0.4556371652
 Angular average effective mass 1/(<1/m>)=   0.2119480872
 Angular average effective mass for Frohlich model (<m**0.5>)**2=   0.2236113276
 Effective masses along directions: (cart. coord. / red. coord. -> eff. mass)
    1:   1.000000  0.000000  0.000000 /   0.948683  0.316228  0.000000 ->   0.1869512380
    2:   0.000000  1.000000  0.000000 /   0.000000  1.000000  0.000000 ->   0.2119480883
    3:   0.000000  0.000000  1.000000 /   0.408248  0.408248  0.816497 ->   0.2446612120
    4:   0.577350  0.577350  0.577350 /   0.585539  0.688047  0.428644 ->   0.1781057715
    5:   0.000000  0.707107  0.707107 /   0.289489  0.762222  0.578977 ->   0.1681244220
    6:   0.707107  0.000000  0.707107 /   0.731423  0.422287  0.535439 ->   0.2758263909
    7:   0.707107  0.707107  0.000000 /   0.616798  0.787122  0.000000 ->   0.1687558144

 END OF EFFECTIVE MASSES SECTION

 ---- first-order wavefunction calculations are completed ----

 Total localisation tensor (bohr^2) in cartesian coordinates
  WARNING : still subject to testing - especially symmetries.
      direction              matrix element
   alpha     beta       real part   imaginary part
     1        1       3.1535811699    0.0000000000
     1        2       0.8919695978    0.0000000000
     1        3       2.1848660008    0.0000000000
     2        1       0.8919695978    0.0000000000
     2        2       2.5228710049    0.0000000000
     2        3       1.5449366622    0.0000000000
     3        1       2.1848660008    0.0000000000
     3        2       1.5449366622    0.0000000000
     3        3       4.7361170495    0.0000000000

 respfn : d/dk was computed, but no 2DTE, so no DDB output.

== END DATASET(S) ==============================================================

 -outvars: echo values of variables after computation  --------
            acell      1.0000000000E+00  1.0000000000E+00  1.0000000000E+00 Bohr
              amu      2.43050000E+01  1.27600000E+02
             ecut      4.20000000E+01 Hartree
           etotal     -5.2198668392E+01
            fcart      0.0000000000E+00  0.0000000000E+00  0.0000000000E+00
                       0.0000000000E+00  0.0000000000E+00  0.0000000000E+00
-          fftalg         512
           irdden           1
           irdwfk           1
           istwfk        0    1
              ixc     -116133
              kpt      6.52173913E-02  6.52173913E-02  1.30434783E-01
                       5.00000000E-01  6.16297582E-33  5.00000000E-01
           kptopt           0
P           mkmem           2
P          mkqmem           2
P          mk1mem           2
            natom           2
            nband          22
           nbdbuf           4
            ngfft          48      48      48
             nkpt           2
            nstep         100
             nsym          48
           ntypat           2
              occ      2.000000  2.000000  2.000000  2.000000  2.000000  2.000000
                       2.000000  2.000000  2.000000  2.000000  2.000000  2.000000
                       2.000000  0.000000  0.000000  0.000000  0.000000  0.000000
                       0.000000  0.000000  0.000000  0.000000
        optdriver           1
            prtwf          -1
            rfdir           1       1       1
           rfelfd           2
            rprim      6.8364422716E+00  0.0000000000E+00  3.9470217858E+00
                       2.2788140905E+00  6.4454595860E+00  3.9470217858E+00
                       0.0000000000E+00  0.0000000000E+00  7.8940435717E+00
          spgroup         225
           strten      0.0000000000E+00  0.0000000000E+00  0.0000000000E+00
                       0.0000000000E+00  0.0000000000E+00  0.0000000000E+00
           symrel      1  0  0   0  1  0   0  0  1      -1  0  0   0 -1  0   0  0 -1
                       0 -1  1   0 -1  0   1 -1  0       0  1 -1   0  1  0  -1  1  0
                      -1  0  0  -1  0  1  -1  1  0       1  0  0   1  0 -1   1 -1  0
                       0  1 -1   1  0 -1   0  0 -1       0 -1  1  -1  0  1   0  0  1
                      -1  0  0  -1  1  0  -1  0  1       1  0  0   1 -1  0   1  0 -1
                       0 -1  1   1 -1  0   0 -1  0       0  1 -1  -1  1  0   0  1  0
                       1  0  0   0  0  1   0  1  0      -1  0  0   0  0 -1   0 -1  0
                       0  1 -1   0  0 -1   1  0 -1       0 -1  1   0  0  1  -1  0  1
                      -1  0  1  -1  1  0  -1  0  0       1  0 -1   1 -1  0   1  0  0
                       0 -1  0   1 -1  0   0 -1  1       0  1  0  -1  1  0   0  1 -1
                       1  0 -1   0  0 -1   0  1 -1      -1  0  1   0  0  1   0 -1  1
                       0  1  0   0  0  1   1  0  0       0 -1  0   0  0 -1  -1  0  0
                       1  0 -1   0  1 -1   0  0 -1      -1  0  1   0 -1  1   0  0  1
                       0 -1  0   0 -1  1   1 -1  0       0  1  0   0  1 -1  -1  1  0
                      -1  0  1  -1  0  0  -1  1  0       1  0 -1   1  0  0   1 -1  0
                       0  1  0   1  0  0   0  0  1       0 -1  0  -1  0  0   0  0 -1
                       0  0 -1   0  1 -1   1  0 -1       0  0  1   0 -1  1  -1  0  1
                       1 -1  0   0 -1  1   0 -1  0      -1  1  0   0  1 -1   0  1  0
                       0  0  1   1  0  0   0  1  0       0  0 -1  -1  0  0   0 -1  0
                      -1  1  0  -1  0  0  -1  0  1       1 -1  0   1  0  0   1  0 -1
                       0  0  1   0  1  0   1  0  0       0  0 -1   0 -1  0  -1  0  0
                       1 -1  0   0 -1  0   0 -1  1      -1  1  0   0  1  0   0  1 -1
                       0  0 -1   1  0 -1   0  1 -1       0  0  1  -1  0  1   0 -1  1
                      -1  1  0  -1  0  1  -1  0  0       1 -1  0   1  0 -1   1  0  0
           tolwfr      1.00000000E-20
            typat      1  2
           useylm           1
              wtk        0.50000    0.50000
           xangst      0.0000000000E+00  0.0000000000E+00  0.0000000000E+00
                       2.4117929586E+00  1.7053951559E+00  4.1773479417E+00
            xcart      0.0000000000E+00  0.0000000000E+00  0.0000000000E+00
                       4.5576281810E+00  3.2227297930E+00  7.8940435717E+00
             xred      0.0000000000E+00  0.0000000000E+00  0.0000000000E+00
                       5.0000000000E-01  5.0000000000E-01  5.0000000000E-01
            znucl       12.00000   52.00000

- Timing analysis has been suppressed with timopt=0

 Suggested references for the acknowledgment of ABINIT usage.

 Calculation completed.
.Delivered  14 WARNINGs and   9 COMMENTs to log file.