.Version 9.5.1 of ABINIT

 ABINIT is a project of the Universite Catholique de Louvain,
 Corning Inc. and other collaborators, see ~abinit/doc/developers/contributors.txt .
 acknowledgments of the ABINIT effort.

.Starting date : Sun 25 Apr 2021.
- ( at 18h03 )

- input  file    -> /scratch/users/j/a/jabreu/flow_simple2/flow/w245/t1/run.abi
- output file    -> /scratch/users/j/a/jabreu/flow_simple2/flow/w245/t1/run.abo
- root for input  files -> /scratch/users/j/a/jabreu/flow_simple2/flow/w245/t1/indata/in
- root for output files -> /scratch/users/j/a/jabreu/flow_simple2/flow/w245/t1/outdata/out

 Symmetries : space group F-4 3 m (#216); Bravais cF (face-center cubic)
     intxc =       0      iscf =       7    lmnmax =      18     lnmax =       6
     mgfft =      40  mpssoang =       3    mqgrid =    3001     natom =       2
  nloc_mem =       1    nspden =       1   nspinor =       1    nsppol =       1
      nsym =      24    n1xccc =    2501    ntypat =       2    occopt =       1
   xclevel =       2
-    mband =          18        mffmem =           1         mkmem =           2
-   mkqmem =           2        mk1mem =           2           mpw =        2421
      nfft =       64000          nkpt =           2
  Rough estimation (10% accuracy) of disk space for files :

------------- Echo of variables that govern the present computation ------------
-
- outvars: echo of selected default values
-   iomode0 =  0 , fftalg0 =512 , wfoptalg0 =  0
-
- outvars: echo of global parameters not present in the input file
-  max_nthreads =    0
-
 -outvars: echo values of preprocessed input variables --------
            acell      1.0000000000E+00  1.0000000000E+00  1.0000000000E+00 Bohr
              amu      1.08110000E+01  7.49215900E+01
             ecut      4.20000000E+01 Hartree
-          fftalg         512
           irdden           1
           irdwfk           1
           istwfk        1    0
              ixc     -116133
              kpt      0.00000000E+00  0.00000000E+00  0.00000000E+00
                       4.07407407E-01  1.23259516E-32  4.07407407E-01
           kptopt           0
P           mkmem           2
P          mkqmem           2
P          mk1mem           2
            natom           2
            nband          18
           nbdbuf           4
            ngfft          40      40      40
             nkpt           2
            nstep         100
             nsym          24
           ntypat           2
              occ      2.000000  2.000000  2.000000  2.000000  2.000000  2.000000
                       2.000000  2.000000  2.000000  0.000000  0.000000  0.000000
                       0.000000  0.000000  0.000000  0.000000  0.000000  0.000000
        optdriver           1
            prtwf          -1
            rfdir           1       1       1
           rfelfd           2
            rprim      5.5185299011E+00  0.0000000000E+00  3.1861247239E+00
                       1.8395099670E+00  5.2029198870E+00  3.1861247239E+00
                       0.0000000000E+00  0.0000000000E+00  6.3722494479E+00
          spgroup         216
           symrel      1  0  0   0  1  0   0  0  1       0 -1  1   0 -1  0   1 -1  0
                      -1  0  0  -1  0  1  -1  1  0       0  1 -1   1  0 -1   0  0 -1
                      -1  0  0  -1  1  0  -1  0  1       0 -1  1   1 -1  0   0 -1  0
                       1  0  0   0  0  1   0  1  0       0  1 -1   0  0 -1   1  0 -1
                      -1  0  1  -1  1  0  -1  0  0       0 -1  0   1 -1  0   0 -1  1
                       1  0 -1   0  0 -1   0  1 -1       0  1  0   0  0  1   1  0  0
                       1  0 -1   0  1 -1   0  0 -1       0 -1  0   0 -1  1   1 -1  0
                      -1  0  1  -1  0  0  -1  1  0       0  1  0   1  0  0   0  0  1
                       0  0 -1   0  1 -1   1  0 -1       1 -1  0   0 -1  1   0 -1  0
                       0  0  1   1  0  0   0  1  0      -1  1  0  -1  0  0  -1  0  1
                       0  0  1   0  1  0   1  0  0       1 -1  0   0 -1  0   0 -1  1
                       0  0 -1   1  0 -1   0  1 -1      -1  1  0  -1  0  1  -1  0  0
           tolwfr      1.00000000E-20
            typat      1  2
           useylm           1
              wtk        0.50000    0.50000
           xangst      9.7342674952E-01  6.8831665558E-01  1.6860245876E+00
                       0.0000000000E+00  0.0000000000E+00  0.0000000000E+00
            xcart      1.8395099670E+00  1.3007299718E+00  3.1861247239E+00
                       0.0000000000E+00  0.0000000000E+00  0.0000000000E+00
             xred      2.5000000000E-01  2.5000000000E-01  2.5000000000E-01
                       0.0000000000E+00  0.0000000000E+00  0.0000000000E+00
            znucl        5.00000   33.00000

 chkinp: Checking input parameters for consistency.

== DATASET  1 ==================================================================
-   mpi_nproc: 1, omp_nthreads: -1 (-1 if OMP is not activated)

--- !DatasetInfo
iteration_state: {dtset: 1, }
dimensions: {natom: 2, nkpt: 2, mband: 18, nsppol: 1, nspinor: 1, nspden: 1, mpw: 2421, }
cutoff_energies: {ecut:  42.0, pawecutdg:  -1.0, }
electrons: {nelect:   1.80000000E+01, charge:   0.00000000E+00, occopt:   1.00000000E+00, tsmear:   1.00000000E-02, }
meta: {optdriver: 1, rfelfd: 2, }
...

 Real(R)+Recip(G) space primitive vectors, cartesian coordinates (Bohr,Bohr^-1):
 R(1)=  5.5185299  0.0000000  3.1861247  G(1)=  0.1812077 -0.0640666  0.0000000
 R(2)=  1.8395100  5.2029199  3.1861247  G(2)=  0.0000000  0.1921998  0.0000000
 R(3)=  0.0000000  0.0000000  6.3722494  G(3)= -0.0906038 -0.0640666  0.1569305
 Unit cell volume ucvol=  1.8296301E+02 bohr^3
 Angles (23,13,12)=  6.00000000E+01  6.00000000E+01  6.00000000E+01 degrees

 getcut: wavevector=  0.0000  0.0000  0.0000  ngfft=  40  40  40
         ecut(hartree)=     42.000   => boxcut(ratio)=   2.15168

--- Pseudopotential description ------------------------------------------------
- pspini: atom type   1  psp file is /scratch/users/j/a/jabreu/pseudos/PBEsol/B.psp8
- pspatm: opening atomic psp file    /scratch/users/j/a/jabreu/pseudos/PBEsol/B.psp8
- B     ONCVPSP-3.3.0  r_core=   1.20849   1.20849
-  5.00000   3.00000    180112                znucl, zion, pspdat
    8 -116133    1    4       600   0.00000   pspcod,pspxc,lmax,lloc,mmax,r2well
    5.99000000000000    2.90000000000000    0.00000000000000   rchrg,fchrg,qchrg
     nproj     2     2
     extension_switch     1
  pspatm : epsatm=    3.20154566
         --- l  ekb(1:nproj) -->
             0    8.466603    1.247630
             1   -3.609180   -0.822621
 pspatm: atomic psp has been read  and splines computed

- pspini: atom type   2  psp file is /scratch/users/j/a/jabreu/pseudos/PBEsol/As.psp8
- pspatm: opening atomic psp file    /scratch/users/j/a/jabreu/pseudos/PBEsol/As.psp8
- As    ONCVPSP-3.3.0  r_core=   1.76603   1.70395   1.80867
- 33.00000  15.00000    180112                znucl, zion, pspdat
    8 -116133    2    4       600   0.00000   pspcod,pspxc,lmax,lloc,mmax,r2well
    5.99000000000000    5.00000000000000    0.00000000000000   rchrg,fchrg,qchrg
     nproj     2     2     2
     extension_switch     1
  pspatm : epsatm=   28.79155382
         --- l  ekb(1:nproj) -->
             0    8.270760    0.868950
             1    4.919053    0.756587
             2  -10.048665   -4.076802
 pspatm: atomic psp has been read  and splines computed

   5.75875791E+02                                ecore*ucvol(ha*bohr**3)

-inwffil : will read wavefunctions from disk file /scratch/users/j/a/jabreu/flow_simple2/flow/w245/t1/indata/in_WFK

 ==>  initialize data related to q vector <==

 The list of irreducible perturbations for this q vector is:
    1)    idir= 1    ipert=   3
    2)    idir= 2    ipert=   3
    3)    idir= 3    ipert=   3

 Perturbation wavevector (in red.coord.)   0.000000  0.000000  0.000000
 Perturbation : derivative vs k along direction   1

 dfpt_looppert : COMMENT -
  In a d/dk calculation, iscf is set to -3 automatically.
 The set of symmetries contains only one element for this perturbation.
 symkpt : not enough symmetry to change the number of k points.

[...]

 Initialisation of the first-order wave-functions :
  ireadwf=   0

--- !BeginCycle
iteration_state: {dtset: 1, }
solver: {iscf: 7, nstep: 100, nline: 4, wfoptalg: 0, }
tolerances: {tolwfr: 1.00E-20, }
...

     iter   2DEtotal(Ha)        deltaE(Ha) residm    vres2
-ETOT  1  -80.979954903292     -8.098E+01 8.761E-02 0.000E+00
 ETOT  2  -81.002991946795     -2.304E-02 1.076E-03 0.000E+00
 ETOT  3  -81.003013397402     -2.145E-05 6.449E-06 0.000E+00
 ETOT  4  -81.003013473987     -7.659E-08 1.670E-07 0.000E+00
 ETOT  5  -81.003013474454     -4.665E-10 9.065E-10 0.000E+00
 ETOT  6  -81.003013474457     -3.439E-12 4.198E-11 0.000E+00
 ETOT  7  -81.003013474457     -4.263E-14 2.334E-13 0.000E+00
 ETOT  8  -81.003013474457     -5.684E-14 1.070E-14 0.000E+00
 ETOT  9  -81.003013474457      1.279E-13 6.065E-17 0.000E+00
 ETOT 10  -81.003013474457     -2.842E-14 2.758E-18 0.000E+00
 ETOT 11  -81.003013474457     -4.263E-14 1.580E-20 0.000E+00
 ETOT 12  -81.003013474457      0.000E+00 9.849E-21 0.000E+00

 At SCF step   12   max residual=  9.85E-21 < tolwfr=  1.00E-20 =>converged.

 ----iterations are completed or convergence reached----

 dfpt_looppert: DFPT cycle converged with prtwf=-1. Will skip output of the 1st-order WFK file.
 dfpt_looppert : ek2=    5.2501046452E+01
          f-sum rule ratio=    1.7879049357E+00
 prteigrs : about to open file /scratch/users/j/a/jabreu/flow_simple2/flow/w245/t1/tmpdata/tmp_1WF1_EIG
 Expectation of eigenvalue derivatives (hartree) for nkpt=   2  k points:
  (in case of degenerate eigenvalues, averaged derivative)
 kpt#   1, nband= 18, wtk=  0.50000, kpt=  0.0000  0.0000  0.0000 (reduced coord)
  -0.00000   -0.00000   -0.00000    0.00000    0.00000   -0.00000    0.00000    0.00000
   0.00000   -0.00000   -0.00000   -0.00000    0.00000    0.00000    0.00000   -0.00075
  -0.00000   -0.00000
 prteigrs : prtvol=0 or 1, do not print more k-points.

 Eight components of 2nd-order total energy (hartree) are
 1,2,3: 0th-order hamiltonian combined with 1st-order wavefunctions
     kin0=   5.39966823E+01 eigvalue=   7.17598984E+00  local=  -1.79654046E+01
 4,5,6: 1st-order hamiltonian combined with 1st and 0th-order wfs
     kin1=  -9.38668801E+01  Hartree=   0.00000000E+00     xc=   0.00000000E+00
 7,8,9: eventually, occupation + non-local contributions
    edocc=   3.27597618E+01     enl0=   5.03598415E+00   enl1=  -6.81391469E+01
 1-9 gives the relaxation energy (to be shifted if some occ is /=2.0)
   erelax=  -8.10030135E+01
  No Ewald or frozen-wf contrib.: the relaxation energy is the total one
 2DEtotal=   -0.8100301347E+02 Ha. Also 2DEtotal=   -0.220420409347E+04 eV
    (  non-var. 2DEtotal :   -8.1003013474E+01 Ha)

 Perturbation wavevector (in red.coord.)   0.000000  0.000000  0.000000
 Perturbation : derivative vs k along direction   2
 The set of symmetries contains only one element for this perturbation.
 symkpt : not enough symmetry to change the number of k points.

[...]

 Perturbation wavevector (in red.coord.)   0.000000  0.000000  0.000000
 Perturbation : derivative vs k along direction   3
 The set of symmetries contains only one element for this perturbation.
 symkpt : not enough symmetry to change the number of k points.

-inwffil : will read wavefunctions from disk file /scratch/users/j/a/jabreu/flow_simple2/flow/w245/t1/indata/in_WFK

 Initialisation of the first-order wave-functions :
  ireadwf=   0

--- !BeginCycle
iteration_state: {dtset: 1, }
solver: {iscf: 7, nstep: 100, nline: 4, wfoptalg: 0, }
tolerances: {tolwfr: 1.00E-20, }
...

     iter   2DEtotal(Ha)        deltaE(Ha) residm    vres2
-ETOT  1  -80.978746137570     -8.098E+01 9.481E-02 0.000E+00
 ETOT  2  -81.002975401105     -2.423E-02 1.076E-03 0.000E+00
 ETOT  3  -81.003000439784     -2.504E-05 6.449E-06 0.000E+00
 ETOT  4  -81.003000537172     -9.739E-08 1.670E-07 0.000E+00
 ETOT  5  -81.003000537807     -6.347E-10 9.065E-10 0.000E+00
 ETOT  6  -81.003000537812     -4.945E-12 4.198E-11 0.000E+00
 ETOT  7  -81.003000537812     -2.842E-14 2.334E-13 0.000E+00
 ETOT  8  -81.003000537812      8.527E-14 1.070E-14 0.000E+00
 ETOT  9  -81.003000537812     -2.842E-14 6.065E-17 0.000E+00
 ETOT 10  -81.003000537812      1.421E-14 2.758E-18 0.000E+00
 ETOT 11  -81.003000537812      1.421E-14 1.580E-20 0.000E+00
 ETOT 12  -81.003000537812      0.000E+00 9.987E-21 0.000E+00

 At SCF step   12   max residual=  9.99E-21 < tolwfr=  1.00E-20 =>converged.

 ----iterations are completed or convergence reached----

 dfpt_looppert: DFPT cycle converged with prtwf=-1. Will skip output of the 1st-order WFK file.
 dfpt_looppert : ek2=    5.2501046451E+01
          f-sum rule ratio=    1.7879045659E+00
 prteigrs : about to open file /scratch/users/j/a/jabreu/flow_simple2/flow/w245/t1/tmpdata/tmp_1WF1_EIG
 Expectation of eigenvalue derivatives (hartree) for nkpt=   2  k points:
  (in case of degenerate eigenvalues, averaged derivative)
 kpt#   1, nband= 18, wtk=  0.50000, kpt=  0.0000  0.0000  0.0000 (reduced coord)
  -0.00000   -0.00000   -0.00000    0.00000    0.00000   -0.00000   -0.00000   -0.00000
  -0.00000    0.00000    0.00000    0.00000    0.00000   -0.00000   -0.00000   -0.00040
   0.00000    0.00000
 prteigrs : prtvol=0 or 1, do not print more k-points.

 Eight components of 2nd-order total energy (hartree) are
 1,2,3: 0th-order hamiltonian combined with 1st-order wavefunctions
     kin0=   5.40185845E+01 eigvalue=   7.19397421E+00  local=  -1.79952678E+01
 4,5,6: 1st-order hamiltonian combined with 1st and 0th-order wfs
     kin1=  -9.38668607E+01  Hartree=   0.00000000E+00     xc=   0.00000000E+00
 7,8,9: eventually, occupation + non-local contributions
    edocc=   3.27283494E+01     enl0=   5.05736024E+00   enl1=  -6.81391404E+01
 1-9 gives the relaxation energy (to be shifted if some occ is /=2.0)
   erelax=  -8.10030005E+01
  No Ewald or frozen-wf contrib.: the relaxation energy is the total one
 2DEtotal=   -0.8100300054E+02 Ha. Also 2DEtotal=   -0.220420374145E+04 eV
    (  non-var. 2DEtotal :   -8.1003000538E+01 Ha)

 CALCULATION OF EFFECTIVE MASSES
 NOTE : Additional infos (eff. mass eigenvalues, eigenvectors and, if degenerate, average mass) are available in stdout.

 COMMENTS:
 - At k-point ( 0.000, 0.000, 0.000), bands     7 through     9
   are DEGENERATE (effective mass tensor is therefore not defined).
   See Section IIIB Eqs. (67)-(70) and Appendix E of PRB 93 205147 (2016).
 - Angular average effective mass for Frohlich model is to be averaged over degenerate bands. See later.
 - Associated theta integrals calculated with ntheta=   1000 points.

 K-point ( 0.000, 0.000, 0.000) | band =     7
 Transport equivalent effective mass tensor:
             -0.1639609134             -0.0000000544              0.0000001158
             -0.0000000544             -0.1639610283             -0.0000001312
              0.0000001158             -0.0000001312             -0.1639608926
 Transport equivalent effective mass tensor eigenvalues:
             -0.1639611095             -0.1639609987             -0.1639607261
 Angular average effective mass 1/(<1/m>)=  -0.1250524190
 Angular average effective mass for Frohlich model (<m**0.5>)**2=  -0.1269843764
 Effective masses along directions: (cart. coord. / red. coord. -> eff. mass)
    1:   1.000000  0.000000  0.000000 /   0.948683  0.316228  0.000000 ->  -0.1141646863
    2:   0.000000  1.000000  0.000000 /   0.000000  1.000000  0.000000 ->  -0.1045197393
    3:   0.000000  0.000000  1.000000 /   0.408248  0.408248  0.816497 ->  -0.1206276398
    4:   0.577350  0.577350  0.577350 /   0.585539  0.688047  0.428644 ->  -0.1146540761
    5:   0.000000  0.707107  0.707107 /   0.289489  0.762222  0.578977 ->  -0.1345754644
    6:   0.707107  0.000000  0.707107 /   0.731423  0.422287  0.535439 ->  -0.1170495458
    7:   0.707107  0.707107  0.000000 /   0.616798  0.787122  0.000000 ->  -0.1737113206

[...]

 K-point ( 0.000, 0.000, 0.000) | band =     9
 Transport equivalent effective mass tensor:
             -5.5194943527              0.0000093723             -0.0000032307
              0.0000093723             -5.5194742152              0.0000005538
             -0.0000032307              0.0000005538             -5.5194815542
 Transport equivalent effective mass tensor eigenvalues:
             -5.5194986429             -5.5194809927             -5.5194704866
 Angular average effective mass 1/(<1/m>)=  -0.6862826325
 Angular average effective mass for Frohlich model (<m**0.5>)**2=  -0.8066755091
 Effective masses along directions: (cart. coord. / red. coord. -> eff. mass)
    1:   1.000000  0.000000  0.000000 /   0.948683  0.316228  0.000000 ->  -0.7496772365
    2:   0.000000  1.000000  0.000000 /   0.000000  1.000000  0.000000 ->  -0.5545716055
    3:   0.000000  0.000000  1.000000 /   0.408248  0.408248  0.816497 ->  -1.9025636641
    4:   0.577350  0.577350  0.577350 /   0.585539  0.688047  0.428644 ->  -0.8780199606
    5:   0.000000  0.707107  0.707107 /   0.289489  0.762222  0.578977 ->  -0.6639759059
    6:   0.707107  0.000000  0.707107 /   0.731423  0.422287  0.535439 ->  -1.1743148718
    7:   0.707107  0.707107  0.000000 /   0.616798  0.787122  0.000000 ->  -0.3156062522

 Angular average effective mass for Frohlich model, averaged over degenerate bands.
 Value of     (<<m**0.5>>)**2 =     3.518832E-01
 Absolute Value of <<m**0.5>> =     5.931974E-01

 K-point ( 0.407, 0.000, 0.407) | band =    10
 Effective mass tensor:
              0.3568053511             -0.2046480502              0.2506416499
             -0.2046480502              0.5015133759             -0.3544608209
              0.2506416499             -0.3544608209              0.6462214007
 Effective mass tensor eigenvalues:
              0.2120973273              0.2120973278              1.0803454726
 Angular average effective mass 1/(<1/m>)=   0.2897077546
 Angular average effective mass for Frohlich model (<m**0.5>)**2=   0.3261942081
 Effective masses along directions: (cart. coord. / red. coord. -> eff. mass)
    1:   1.000000  0.000000  0.000000 /   0.948683  0.316228  0.000000 ->   0.2449008295
    2:   0.000000  1.000000  0.000000 /   0.000000  1.000000  0.000000 ->   0.2897077547
    3:   0.000000  0.000000  1.000000 /   0.408248  0.408248  0.816497 ->   0.3545818630
    4:   0.577350  0.577350  0.577350 /   0.585539  0.688047  0.428644 ->   0.2299260595
    5:   0.000000  0.707107  0.707107 /   0.289489  0.762222  0.578977 ->   0.2135420788
    6:   0.707107  0.000000  0.707107 /   0.731423  0.422287  0.535439 ->   0.4241043355
    7:   0.707107  0.707107  0.000000 /   0.616798  0.787122  0.000000 ->   0.2145628163

 END OF EFFECTIVE MASSES SECTION

 ---- first-order wavefunction calculations are completed ----

 Total localisation tensor (bohr^2) in cartesian coordinates
  WARNING : still subject to testing - especially symmetries.
      direction              matrix element
   alpha     beta       real part   imaginary part
     1        1       4.9647273973    0.0000000000
     1        2       1.4042365111    0.0000000000
     1        3       3.4396638543    0.0000000000
     2        1       1.4042365111    0.0000000000
     2        2       3.9717806377    0.0000000000
     2        3       2.4322089832    0.0000000000
     3        1       3.4396638543    0.0000000000
     3        2       2.4322089832    0.0000000000
     3        3       8.9365081599    0.0000000000

 respfn : d/dk was computed, but no 2DTE, so no DDB output.

== END DATASET(S) ==============================================================

 -outvars: echo values of variables after computation  --------
            acell      1.0000000000E+00  1.0000000000E+00  1.0000000000E+00 Bohr
              amu      1.08110000E+01  7.49215900E+01
             ecut      4.20000000E+01 Hartree
           etotal     -8.1003000538E+01
            fcart      0.0000000000E+00  0.0000000000E+00  0.0000000000E+00
                       0.0000000000E+00  0.0000000000E+00  0.0000000000E+00
-          fftalg         512
           irdden           1
           irdwfk           1
           istwfk        1    0
              ixc     -116133
              kpt      0.00000000E+00  0.00000000E+00  0.00000000E+00
                       4.07407407E-01  1.23259516E-32  4.07407407E-01
           kptopt           0
P           mkmem           2
P          mkqmem           2
P          mk1mem           2
            natom           2
            nband          18
           nbdbuf           4
            ngfft          40      40      40
             nkpt           2
            nstep         100
             nsym          24
           ntypat           2
              occ      2.000000  2.000000  2.000000  2.000000  2.000000  2.000000
                       2.000000  2.000000  2.000000  0.000000  0.000000  0.000000
                       0.000000  0.000000  0.000000  0.000000  0.000000  0.000000
        optdriver           1
            prtwf          -1
            rfdir           1       1       1
           rfelfd           2
            rprim      5.5185299011E+00  0.0000000000E+00  3.1861247239E+00
                       1.8395099670E+00  5.2029198870E+00  3.1861247239E+00
                       0.0000000000E+00  0.0000000000E+00  6.3722494479E+00
          spgroup         216
           strten      0.0000000000E+00  0.0000000000E+00  0.0000000000E+00
                       0.0000000000E+00  0.0000000000E+00  0.0000000000E+00
           symrel      1  0  0   0  1  0   0  0  1       0 -1  1   0 -1  0   1 -1  0
                      -1  0  0  -1  0  1  -1  1  0       0  1 -1   1  0 -1   0  0 -1
                      -1  0  0  -1  1  0  -1  0  1       0 -1  1   1 -1  0   0 -1  0
                       1  0  0   0  0  1   0  1  0       0  1 -1   0  0 -1   1  0 -1
                      -1  0  1  -1  1  0  -1  0  0       0 -1  0   1 -1  0   0 -1  1
                       1  0 -1   0  0 -1   0  1 -1       0  1  0   0  0  1   1  0  0
                       1  0 -1   0  1 -1   0  0 -1       0 -1  0   0 -1  1   1 -1  0
                      -1  0  1  -1  0  0  -1  1  0       0  1  0   1  0  0   0  0  1
                       0  0 -1   0  1 -1   1  0 -1       1 -1  0   0 -1  1   0 -1  0
                       0  0  1   1  0  0   0  1  0      -1  1  0  -1  0  0  -1  0  1
                       0  0  1   0  1  0   1  0  0       1 -1  0   0 -1  0   0 -1  1
                       0  0 -1   1  0 -1   0  1 -1      -1  1  0  -1  0  1  -1  0  0
           tolwfr      1.00000000E-20
            typat      1  2
           useylm           1
              wtk        0.50000    0.50000
           xangst      9.7342674952E-01  6.8831665558E-01  1.6860245876E+00
                       0.0000000000E+00  0.0000000000E+00  0.0000000000E+00
            xcart      1.8395099670E+00  1.3007299718E+00  3.1861247239E+00
                       0.0000000000E+00  0.0000000000E+00  0.0000000000E+00
             xred      2.5000000000E-01  2.5000000000E-01  2.5000000000E-01
                       0.0000000000E+00  0.0000000000E+00  0.0000000000E+00
            znucl        5.00000   33.00000

- Timing analysis has been suppressed with timopt=0

 Suggested references for the acknowledgment of ABINIT usage.

 Calculation completed.
.Delivered  14 WARNINGs and   9 COMMENTs to log file.