.Version 9.5.1 of ABINIT

 ABINIT is a project of the Universite Catholique de Louvain,
 Corning Inc. and other collaborators, see ~abinit/doc/developers/contributors.txt .
 acknowledgments of the ABINIT effort.

.Starting date : Mon 26 Apr 2021.
- ( at 00h47 )

- input  file    -> /scratch/users/j/a/jabreu/flow_simple/flow/w109/t1/run.abi
- output file    -> /scratch/users/j/a/jabreu/flow_simple/flow/w109/t1/run.abo
- root for input  files -> /scratch/users/j/a/jabreu/flow_simple/flow/w109/t1/indata/in
- root for output files -> /scratch/users/j/a/jabreu/flow_simple/flow/w109/t1/outdata/out

 Symmetries : space group Fm -3 m (#225); Bravais cF (face-center cubic)
     intxc =       0      iscf =       7    lmnmax =      18     lnmax =       6
     mgfft =      60  mpssoang =       3    mqgrid =    3001     natom =       3
  nloc_mem =       1    nspden =       1   nspinor =       1    nsppol =       1
      nsym =      48    n1xccc =    2501    ntypat =       2    occopt =       1
   xclevel =       2
-    mband =          26        mffmem =           1         mkmem =           1
-   mkqmem =           1        mk1mem =           1           mpw =        7391
      nfft =      216000          nkpt =           1
  Rough estimation (10% accuracy) of disk space for files :

------------- Echo of variables that govern the present computation ------------
-
- outvars: echo of selected default values
-   iomode0 =  0 , fftalg0 =512 , wfoptalg0 =  0
-
- outvars: echo of global parameters not present in the input file
-  max_nthreads =    0
-
 -outvars: echo values of preprocessed input variables --------
            acell      1.0000000000E+00  1.0000000000E+00  1.0000000000E+00 Bohr
              amu      2.29897680E+01  7.89600000E+01
             ecut      4.40000000E+01 Hartree
-          fftalg         512
           irdden           1
           irdwfk           1
           istwfk        1
              ixc     -116133
           kptopt           0
P           mkmem           1
P          mkqmem           1
P          mk1mem           1
            natom           3
            nband          26
           nbdbuf           4
            ngfft          60      60      60
             nkpt           1
            nstep         100
             nsym          48
           ntypat           2
              occ      2.000000  2.000000  2.000000  2.000000  2.000000  2.000000
                       2.000000  2.000000  2.000000  2.000000  2.000000  2.000000
                       2.000000  2.000000  2.000000  2.000000  2.000000  0.000000
                       0.000000  0.000000  0.000000  0.000000  0.000000  0.000000
                       0.000000  0.000000
        optdriver           1
            prtwf          -1
            rfdir           1       1       1
           rfelfd           2
            rprim      7.8383983094E+00  0.0000000000E+00  4.5255013739E+00
                       2.6127994365E+00  7.3901127976E+00  4.5255013739E+00
                       0.0000000000E+00  0.0000000000E+00  9.0510027479E+00
          spgroup         225
           symrel      1  0  0   0  1  0   0  0  1      -1  0  0   0 -1  0   0  0 -1
                       0 -1  1   0 -1  0   1 -1  0       0  1 -1   0  1  0  -1  1  0
                      -1  0  0  -1  0  1  -1  1  0       1  0  0   1  0 -1   1 -1  0
                       0  1 -1   1  0 -1   0  0 -1       0 -1  1  -1  0  1   0  0  1
                      -1  0  0  -1  1  0  -1  0  1       1  0  0   1 -1  0   1  0 -1
                       0 -1  1   1 -1  0   0 -1  0       0  1 -1  -1  1  0   0  1  0
                       1  0  0   0  0  1   0  1  0      -1  0  0   0  0 -1   0 -1  0
                       0  1 -1   0  0 -1   1  0 -1       0 -1  1   0  0  1  -1  0  1
                      -1  0  1  -1  1  0  -1  0  0       1  0 -1   1 -1  0   1  0  0
                       0 -1  0   1 -1  0   0 -1  1       0  1  0  -1  1  0   0  1 -1
                       1  0 -1   0  0 -1   0  1 -1      -1  0  1   0  0  1   0 -1  1
                       0  1  0   0  0  1   1  0  0       0 -1  0   0  0 -1  -1  0  0
                       1  0 -1   0  1 -1   0  0 -1      -1  0  1   0 -1  1   0  0  1
                       0 -1  0   0 -1  1   1 -1  0       0  1  0   0  1 -1  -1  1  0
                      -1  0  1  -1  0  0  -1  1  0       1  0 -1   1  0  0   1 -1  0
                       0  1  0   1  0  0   0  0  1       0 -1  0  -1  0  0   0  0 -1
                       0  0 -1   0  1 -1   1  0 -1       0  0  1   0 -1  1  -1  0  1
                       1 -1  0   0 -1  1   0 -1  0      -1  1  0   0  1 -1   0  1  0
                       0  0  1   1  0  0   0  1  0       0  0 -1  -1  0  0   0 -1  0
                      -1  1  0  -1  0  0  -1  0  1       1 -1  0   1  0  0   1  0 -1
                       0  0  1   0  1  0   1  0  0       0  0 -1   0 -1  0  -1  0  0
                       1 -1  0   0 -1  0   0 -1  1      -1  1  0   0  1  0   0  1 -1
                       0  0 -1   1  0 -1   0  1 -1       0  0  1  -1  0  1   0 -1  1
                      -1  1  0  -1  0  1  -1  0  0       1 -1  0   1  0 -1   1  0  0
           tolwfr      1.00000000E-20
            typat      1  1  2
           useylm           1
           xangst      1.3826339124E+00  9.7766981535E-01  2.3947921845E+00
                       4.1479017372E+00  2.9330094460E+00  7.1843765536E+00
                       0.0000000000E+00  0.0000000000E+00  0.0000000000E+00
            xcart      2.6127994365E+00  1.8475281994E+00  4.5255013739E+00
                       7.8383983094E+00  5.5425845982E+00  1.3576504122E+01
                       0.0000000000E+00  0.0000000000E+00  0.0000000000E+00
             xred      2.5000000000E-01  2.5000000000E-01  2.5000000000E-01
                       7.5000000000E-01  7.5000000000E-01  7.5000000000E-01
                       0.0000000000E+00  0.0000000000E+00  0.0000000000E+00
            znucl       11.00000   34.00000

 chkinp: Checking input parameters for consistency.

== DATASET  1 ==================================================================
-   mpi_nproc: 1, omp_nthreads: -1 (-1 if OMP is not activated)

--- !DatasetInfo
iteration_state: {dtset: 1, }
dimensions: {natom: 3, nkpt: 1, mband: 26, nsppol: 1, nspinor: 1, nspden: 1, mpw: 7391, }
cutoff_energies: {ecut:  44.0, pawecutdg:  -1.0, }
electrons: {nelect:   3.40000000E+01, charge:   0.00000000E+00, occopt:   1.00000000E+00, tsmear:   1.00000000E-02, }
meta: {optdriver: 1, rfelfd: 2, }
...

 Real(R)+Recip(G) space primitive vectors, cartesian coordinates (Bohr,Bohr^-1):
 R(1)=  7.8383983  0.0000000  4.5255014  G(1)=  0.1275771 -0.0451053  0.0000000
 R(2)=  2.6127994  7.3901128  4.5255014  G(2)=  0.0000000  0.1353159  0.0000000
 R(3)=  0.0000000  0.0000000  9.0510027  G(3)= -0.0637885 -0.0451053  0.1104850
 Unit cell volume ucvol=  5.2429425E+02 bohr^3
 Angles (23,13,12)=  6.00000000E+01  6.00000000E+01  6.00000000E+01 degrees

 getcut: wavevector=  0.0000  0.0000  0.0000  ngfft=  60  60  60
         ecut(hartree)=     44.000   => boxcut(ratio)=   2.22005

 getcut : COMMENT -
  Note that boxcut > 2.2 ; recall that boxcut=Gcut(box)/Gcut(sphere) = 2
  is sufficient for exact treatment of convolution.
  Such a large boxcut is a waste : you could raise ecut
  e.g. ecut=   54.214926 Hartrees makes boxcut=2

--- Pseudopotential description ------------------------------------------------
- pspini: atom type   1  psp file is /scratch/users/j/a/jabreu/pseudos/PBEsol/Na.psp8
- pspatm: opening atomic psp file    /scratch/users/j/a/jabreu/pseudos/PBEsol/Na.psp8
- Na    ONCVPSP-3.3.0  r_core=   1.20708   1.55069
- 11.00000   9.00000    180112                znucl, zion, pspdat
    8 -116133    1    4       400   0.00000   pspcod,pspxc,lmax,lloc,mmax,r2well
    3.99000000000000    0.00000000000000    0.00000000000000   rchrg,fchrg,qchrg
     nproj     2     2
     extension_switch     1
  pspatm : epsatm=    9.32878306
         --- l  ekb(1:nproj) -->
             0    2.657905   -0.678300
             1   -6.761319   -2.404728
 pspatm: atomic psp has been read  and splines computed

- pspini: atom type   2  psp file is /scratch/users/j/a/jabreu/pseudos/PBEsol/Se.psp8
- pspatm: opening atomic psp file    /scratch/users/j/a/jabreu/pseudos/PBEsol/Se.psp8
- Se    ONCVPSP-3.3.0  r_core=   1.81943   1.50330   1.90835
- 34.00000  16.00000    180112                znucl, zion, pspdat
    8 -116133    2    4       600   0.00000   pspcod,pspxc,lmax,lloc,mmax,r2well
    5.99000000000000    5.00000000000000    0.00000000000000   rchrg,fchrg,qchrg
     nproj     2     2     2
     extension_switch     1
  pspatm : epsatm=   29.17862020
         --- l  ekb(1:nproj) -->
             0    8.973804    1.019550
             1    6.849857    1.297308
             2   -9.203962   -3.731027
 pspatm: atomic psp has been read  and splines computed

   1.62643033E+03                                ecore*ucvol(ha*bohr**3)

-inwffil : will read wavefunctions from disk file /scratch/users/j/a/jabreu/flow_simple/flow/w109/t1/indata/in_WFK

 ==>  initialize data related to q vector <==

 The list of irreducible perturbations for this q vector is:
    1)    idir= 1    ipert=   4
    2)    idir= 2    ipert=   4
    3)    idir= 3    ipert=   4

 Perturbation wavevector (in red.coord.)   0.000000  0.000000  0.000000
 Perturbation : derivative vs k along direction   1

 dfpt_looppert : COMMENT -
  In a d/dk calculation, iscf is set to -3 automatically.
 The set of symmetries contains only one element for this perturbation.
 symkpt : not enough symmetry to change the number of k points.

[...]

 Initialisation of the first-order wave-functions :
  ireadwf=   0

--- !BeginCycle
iteration_state: {dtset: 1, }
solver: {iscf: 7, nstep: 100, nline: 4, wfoptalg: 0, }
tolerances: {tolwfr: 1.00E-20, }
...

     iter   2DEtotal(Ha)        deltaE(Ha) residm    vres2
-ETOT  1  -50.855521299466     -5.086E+01 5.856E-02 0.000E+00
 ETOT  2  -50.876715012264     -2.119E-02 1.819E-05 0.000E+00
 ETOT  3  -50.876718842591     -3.830E-06 4.580E-09 0.000E+00
 ETOT  4  -50.876718844411     -1.820E-09 6.251E-12 0.000E+00
 ETOT  5  -50.876718844413     -1.471E-12 1.955E-14 0.000E+00
 ETOT  6  -50.876718844412      9.948E-14 8.221E-17 0.000E+00
 ETOT  7  -50.876718844413     -6.395E-14 4.198E-19 0.000E+00
 ETOT  8  -50.876718844413      2.132E-14 9.779E-21 0.000E+00

 At SCF step    8   max residual=  9.78E-21 < tolwfr=  1.00E-20 =>converged.

 ----iterations are completed or convergence reached----

 dfpt_looppert: DFPT cycle converged with prtwf=-1. Will skip output of the 1st-order WFK file.
 dfpt_looppert : ek2=    4.9154865826E+01
          f-sum rule ratio=    1.2300942758E+00
 prteigrs : about to open file /scratch/users/j/a/jabreu/flow_simple/flow/w109/t1/tmpdata/tmp_1WF1_EIG
 Expectation of eigenvalue derivatives (hartree) for nkpt=   1  k points:
  (in case of degenerate eigenvalues, averaged derivative)
 kpt#   1, nband= 26, wtk=  1.00000, kpt=  0.0000  0.0000  0.0000 (reduced coord)
   0.00000   -0.00000    0.00000    0.00000    0.00000    0.00000    0.00000    0.00000
   0.00000    0.00000   -0.00000   -0.00000   -0.00000    0.00000   -0.00000   -0.00000
  -0.00000    0.00000   -0.00000   -0.00000   -0.00000    0.00000    0.00000   -0.00000
  -0.00000   -0.00000

 Eight components of 2nd-order total energy (hartree) are
 1,2,3: 0th-order hamiltonian combined with 1st-order wavefunctions
     kin0=   4.52363881E+01 eigvalue=   8.97299452E+00  local=  -1.76740123E+01
 4,5,6: 1st-order hamiltonian combined with 1st and 0th-order wfs
     kin1=  -6.04651191E+01  Hartree=   0.00000000E+00     xc=   0.00000000E+00
 7,8,9: eventually, occupation + non-local contributions
    edocc=   1.09611038E+01     enl0=   3.38024466E+00   enl1=  -4.12883186E+01
 1-9 gives the relaxation energy (to be shifted if some occ is /=2.0)
   erelax=  -5.08767188E+01
  No Ewald or frozen-wf contrib.: the relaxation energy is the total one
 2DEtotal=   -0.5087671884E+02 Ha. Also 2DEtotal=   -0.138442592601E+04 eV
    (  non-var. 2DEtotal :   -5.0876718844E+01 Ha)

 Perturbation wavevector (in red.coord.)   0.000000  0.000000  0.000000
 Perturbation : derivative vs k along direction   2
 The set of symmetries contains only one element for this perturbation.
 symkpt : not enough symmetry to change the number of k points.

[...]

 Perturbation wavevector (in red.coord.)   0.000000  0.000000  0.000000
 Perturbation : derivative vs k along direction   3
 The set of symmetries contains only one element for this perturbation.
 symkpt : not enough symmetry to change the number of k points.

-inwffil : will read wavefunctions from disk file /scratch/users/j/a/jabreu/flow_simple/flow/w109/t1/indata/in_WFK

 Initialisation of the first-order wave-functions :
  ireadwf=   0

--- !BeginCycle
iteration_state: {dtset: 1, }
solver: {iscf: 7, nstep: 100, nline: 4, wfoptalg: 0, }
tolerances: {tolwfr: 1.00E-20, }
...

     iter   2DEtotal(Ha)        deltaE(Ha) residm    vres2
-ETOT  1  -50.855419377830     -5.086E+01 5.755E-02 0.000E+00
 ETOT  2  -50.876714993267     -2.130E-02 1.783E-05 0.000E+00
 ETOT  3  -50.876718842864     -3.850E-06 4.580E-09 0.000E+00
 ETOT  4  -50.876718844693     -1.830E-09 6.420E-12 0.000E+00
 ETOT  5  -50.876718844695     -1.485E-12 1.251E-14 0.000E+00
 ETOT  6  -50.876718844695      5.684E-14 7.433E-17 0.000E+00
 ETOT  7  -50.876718844695     -1.421E-14 1.869E-19 0.000E+00
 ETOT  8  -50.876718844695     -1.421E-14 9.857E-21 0.000E+00

 At SCF step    8   max residual=  9.86E-21 < tolwfr=  1.00E-20 =>converged.

 ----iterations are completed or convergence reached----

 dfpt_looppert: DFPT cycle converged with prtwf=-1. Will skip output of the 1st-order WFK file.
 dfpt_looppert : ek2=    4.9154865826E+01
          f-sum rule ratio=    1.2300942758E+00
 prteigrs : about to open file /scratch/users/j/a/jabreu/flow_simple/flow/w109/t1/tmpdata/tmp_1WF1_EIG
 Expectation of eigenvalue derivatives (hartree) for nkpt=   1  k points:
  (in case of degenerate eigenvalues, averaged derivative)
 kpt#   1, nband= 26, wtk=  1.00000, kpt=  0.0000  0.0000  0.0000 (reduced coord)
   0.00000   -0.00000   -0.00000   -0.00000   -0.00000   -0.00000   -0.00000    0.00000
   0.00000    0.00000    0.00000    0.00000    0.00000    0.00000   -0.00000   -0.00000
  -0.00000   -0.00000   -0.00000   -0.00000   -0.00000    0.00000    0.00000    0.00000
   0.00000    0.00000

 Eight components of 2nd-order total energy (hartree) are
 1,2,3: 0th-order hamiltonian combined with 1st-order wavefunctions
     kin0=   4.52363881E+01 eigvalue=   8.97299449E+00  local=  -1.76740122E+01
 4,5,6: 1st-order hamiltonian combined with 1st and 0th-order wfs
     kin1=  -6.04651191E+01  Hartree=   0.00000000E+00     xc=   0.00000000E+00
 7,8,9: eventually, occupation + non-local contributions
    edocc=   1.09611038E+01     enl0=   3.38024467E+00   enl1=  -4.12883186E+01
 1-9 gives the relaxation energy (to be shifted if some occ is /=2.0)
   erelax=  -5.08767188E+01
  No Ewald or frozen-wf contrib.: the relaxation energy is the total one
 2DEtotal=   -0.5087671884E+02 Ha. Also 2DEtotal=   -0.138442592602E+04 eV
    (  non-var. 2DEtotal :   -5.0876718845E+01 Ha)

 CALCULATION OF EFFECTIVE MASSES
 NOTE : Additional infos (eff. mass eigenvalues, eigenvectors and, if degenerate, average mass) are available in stdout.

 COMMENTS:
 - At k-point ( 0.000, 0.000, 0.000), bands    15 through    17
   are DEGENERATE (effective mass tensor is therefore not defined).
   See Section IIIB Eqs. (67)-(70) and Appendix E of PRB 93 205147 (2016).
 - Angular average effective mass for Frohlich model is to be averaged over degenerate bands. See later.
 - Associated theta integrals calculated with ntheta=   1000 points.

 K-point ( 0.000, 0.000, 0.000) | band =    15
 Transport equivalent effective mass tensor:
             -0.2863778092             -0.0000000000             -0.0000000000
             -0.0000000000             -0.2863778093             -0.0000000000
             -0.0000000000             -0.0000000000             -0.2863778093
 Transport equivalent effective mass tensor eigenvalues:
             -0.2863778093             -0.2863778092             -0.2863778092
 Angular average effective mass 1/(<1/m>)=  -0.2807552953
 Angular average effective mass for Frohlich model (<m**0.5>)**2=  -0.2811384548
 Effective masses along directions: (cart. coord. / red. coord. -> eff. mass)
    1:   1.000000  0.000000  0.000000 /   0.948683  0.316228  0.000000 ->  -0.2737680923
    2:   0.000000  1.000000  0.000000 /   0.000000  1.000000  0.000000 ->  -0.2640989691
    3:   0.000000  0.000000  1.000000 /   0.408248  0.408248  0.816497 ->  -0.2746898392
    4:   0.577350  0.577350  0.577350 /   0.585539  0.688047  0.428644 ->  -0.2735612117
    5:   0.000000  0.707107  0.707107 /   0.289489  0.762222  0.578977 ->  -0.2879207056
    6:   0.707107  0.000000  0.707107 /   0.731423  0.422287  0.535439 ->  -0.2742265267
    7:   0.707107  0.707107  0.000000 /   0.616798  0.787122  0.000000 ->  -0.3068966655

[...]

 K-point ( 0.000, 0.000, 0.000) | band =    17
 Transport equivalent effective mass tensor:
           -221.0366311419              0.0001698911             -0.0000000066
              0.0001698911           -221.0365650428             -0.0000000068
             -0.0000000066             -0.0000000068           -221.0363008180
 Transport equivalent effective mass tensor eigenvalues:
           -221.0367711683           -221.0364250165           -221.0363008180
 Angular average effective mass 1/(<1/m>)=  -5.6484780863
 Angular average effective mass for Frohlich model (<m**0.5>)**2=  -7.8064343841
 Effective masses along directions: (cart. coord. / red. coord. -> eff. mass)
    1:   1.000000  0.000000  0.000000 /   0.948683  0.316228  0.000000 ->  -6.1425348106
    2:   0.000000  1.000000  0.000000 /   0.000000  1.000000  0.000000 ->  -5.7124479734
    3:   0.000000  0.000000  1.000000 /   0.408248  0.408248  0.816497 -> -34.4037994734
    4:   0.577350  0.577350  0.577350 /   0.585539  0.688047  0.428644 ->  -7.8985777780
    5:   0.000000  0.707107  0.707107 /   0.289489  0.762222  0.578977 ->  -4.8146099971
    6:   0.707107  0.000000  0.707107 /   0.731423  0.422287  0.535439 -> -12.4260955853
    7:   0.707107  0.707107  0.000000 /   0.616798  0.787122  0.000000 ->  -2.3605264847

 Angular average effective mass for Frohlich model, averaged over degenerate bands.
 Value of     (<<m**0.5>>)**2 =     2.704279E+00
 Absolute Value of <<m**0.5>> =     1.644469E+00

 K-point ( 0.000, 0.000, 0.000) | band =    18
 Effective mass tensor:
              0.2246719342              0.0000000000             -0.0000000000
              0.0000000000              0.2246719342              0.0000000000
             -0.0000000000              0.0000000000              0.2246719343
 Effective mass tensor eigenvalues:
              0.2246719342              0.2246719342              0.2246719343
 Angular average effective mass 1/(<1/m>)=   0.2246719342
 Angular average effective mass for Frohlich model (<m**0.5>)**2=   0.2246719342
 Effective masses along directions: (cart. coord. / red. coord. -> eff. mass)
    1:   1.000000  0.000000  0.000000 /   0.948683  0.316228  0.000000 ->   0.2246719342
    2:   0.000000  1.000000  0.000000 /   0.000000  1.000000  0.000000 ->   0.2246719342
    3:   0.000000  0.000000  1.000000 /   0.408248  0.408248  0.816497 ->   0.2246719343
    4:   0.577350  0.577350  0.577350 /   0.585539  0.688047  0.428644 ->   0.2246719342
    5:   0.000000  0.707107  0.707107 /   0.289489  0.762222  0.578977 ->   0.2246719343
    6:   0.707107  0.000000  0.707107 /   0.731423  0.422287  0.535439 ->   0.2246719342
    7:   0.707107  0.707107  0.000000 /   0.616798  0.787122  0.000000 ->   0.2246719342

 END OF EFFECTIVE MASSES SECTION

 ---- first-order wavefunction calculations are completed ----

 Total localisation tensor (bohr^2) in cartesian coordinates
  WARNING : still subject to testing - especially symmetries.
      direction              matrix element
   alpha     beta       real part   imaginary part
     1        1       2.4683543968    0.0000000000
     1        2       0.6981560529    0.0000000000
     1        3       1.7101260905    0.0000000000
     2        1       0.6981560529    0.0000000000
     2        2       1.9746835174    0.0000000000
     2        3       1.2092417553    0.0000000000
     3        1       1.7101260905    0.0000000000
     3        2       1.2092417553    0.0000000000
     3        3       4.4430379141    0.0000000000

 respfn : d/dk was computed, but no 2DTE, so no DDB output.

== END DATASET(S) ==============================================================

 -outvars: echo values of variables after computation  --------
            acell      1.0000000000E+00  1.0000000000E+00  1.0000000000E+00 Bohr
              amu      2.29897680E+01  7.89600000E+01
             ecut      4.40000000E+01 Hartree
           etotal     -5.0876718845E+01
            fcart      0.0000000000E+00  0.0000000000E+00  0.0000000000E+00
                       0.0000000000E+00  0.0000000000E+00  0.0000000000E+00
                       0.0000000000E+00  0.0000000000E+00  0.0000000000E+00
-          fftalg         512
           irdden           1
           irdwfk           1
           istwfk        1
              ixc     -116133
           kptopt           0
P           mkmem           1
P          mkqmem           1
P          mk1mem           1
            natom           3
            nband          26
           nbdbuf           4
            ngfft          60      60      60
             nkpt           1
            nstep         100
             nsym          48
           ntypat           2
              occ      2.000000  2.000000  2.000000  2.000000  2.000000  2.000000
                       2.000000  2.000000  2.000000  2.000000  2.000000  2.000000
                       2.000000  2.000000  2.000000  2.000000  2.000000  0.000000
                       0.000000  0.000000  0.000000  0.000000  0.000000  0.000000
                       0.000000  0.000000
        optdriver           1
            prtwf          -1
            rfdir           1       1       1
           rfelfd           2
            rprim      7.8383983094E+00  0.0000000000E+00  4.5255013739E+00
                       2.6127994365E+00  7.3901127976E+00  4.5255013739E+00
                       0.0000000000E+00  0.0000000000E+00  9.0510027479E+00
          spgroup         225
           strten      0.0000000000E+00  0.0000000000E+00  0.0000000000E+00
                       0.0000000000E+00  0.0000000000E+00  0.0000000000E+00
           symrel      1  0  0   0  1  0   0  0  1      -1  0  0   0 -1  0   0  0 -1
                       0 -1  1   0 -1  0   1 -1  0       0  1 -1   0  1  0  -1  1  0
                      -1  0  0  -1  0  1  -1  1  0       1  0  0   1  0 -1   1 -1  0
                       0  1 -1   1  0 -1   0  0 -1       0 -1  1  -1  0  1   0  0  1
                      -1  0  0  -1  1  0  -1  0  1       1  0  0   1 -1  0   1  0 -1
                       0 -1  1   1 -1  0   0 -1  0       0  1 -1  -1  1  0   0  1  0
                       1  0  0   0  0  1   0  1  0      -1  0  0   0  0 -1   0 -1  0
                       0  1 -1   0  0 -1   1  0 -1       0 -1  1   0  0  1  -1  0  1
                      -1  0  1  -1  1  0  -1  0  0       1  0 -1   1 -1  0   1  0  0
                       0 -1  0   1 -1  0   0 -1  1       0  1  0  -1  1  0   0  1 -1
                       1  0 -1   0  0 -1   0  1 -1      -1  0  1   0  0  1   0 -1  1
                       0  1  0   0  0  1   1  0  0       0 -1  0   0  0 -1  -1  0  0
                       1  0 -1   0  1 -1   0  0 -1      -1  0  1   0 -1  1   0  0  1
                       0 -1  0   0 -1  1   1 -1  0       0  1  0   0  1 -1  -1  1  0
                      -1  0  1  -1  0  0  -1  1  0       1  0 -1   1  0  0   1 -1  0
                       0  1  0   1  0  0   0  0  1       0 -1  0  -1  0  0   0  0 -1
                       0  0 -1   0  1 -1   1  0 -1       0  0  1   0 -1  1  -1  0  1
                       1 -1  0   0 -1  1   0 -1  0      -1  1  0   0  1 -1   0  1  0
                       0  0  1   1  0  0   0  1  0       0  0 -1  -1  0  0   0 -1  0
                      -1  1  0  -1  0  0  -1  0  1       1 -1  0   1  0  0   1  0 -1
                       0  0  1   0  1  0   1  0  0       0  0 -1   0 -1  0  -1  0  0
                       1 -1  0   0 -1  0   0 -1  1      -1  1  0   0  1  0   0  1 -1
                       0  0 -1   1  0 -1   0  1 -1       0  0  1  -1  0  1   0 -1  1
                      -1  1  0  -1  0  1  -1  0  0       1 -1  0   1  0 -1   1  0  0
           tolwfr      1.00000000E-20
            typat      1  1  2
           useylm           1
           xangst      1.3826339124E+00  9.7766981535E-01  2.3947921845E+00
                       4.1479017372E+00  2.9330094460E+00  7.1843765536E+00
                       0.0000000000E+00  0.0000000000E+00  0.0000000000E+00
            xcart      2.6127994365E+00  1.8475281994E+00  4.5255013739E+00
                       7.8383983094E+00  5.5425845982E+00  1.3576504122E+01
                       0.0000000000E+00  0.0000000000E+00  0.0000000000E+00
             xred      2.5000000000E-01  2.5000000000E-01  2.5000000000E-01
                       7.5000000000E-01  7.5000000000E-01  7.5000000000E-01
                       0.0000000000E+00  0.0000000000E+00  0.0000000000E+00
            znucl       11.00000   34.00000

- Timing analysis has been suppressed with timopt=0

 Suggested references for the acknowledgment of ABINIT usage.

 Calculation completed.
.Delivered   6 WARNINGs and  11 COMMENTs to log file.