.Version 9.5.1 of ABINIT

 ABINIT is a project of the Universite Catholique de Louvain,
 Corning Inc. and other collaborators, see ~abinit/doc/developers/contributors.txt .
 acknowledgments of the ABINIT effort.

.Starting date : Tue  4 May 2021.
- ( at 19h31 )

- input  file    -> /scratch/users/j/a/jabreu/flow_simple_6atoms/flow/w207/t1/run.abi
- output file    -> /scratch/users/j/a/jabreu/flow_simple_6atoms/flow/w207/t1/run.abo
- root for input  files -> /scratch/users/j/a/jabreu/flow_simple_6atoms/flow/w207/t1/indata/in
- root for output files -> /scratch/users/j/a/jabreu/flow_simple_6atoms/flow/w207/t1/outdata/out

 Symmetries : space group P4/n m m (#129); Bravais tP (primitive tetrag.)
     intxc =       0      iscf =       7    lmnmax =      18     lnmax =       6
     mgfft =      64  mpssoang =       3    mqgrid =    3058     natom =       6
  nloc_mem =       1    nspden =       1   nspinor =       1    nsppol =       1
      nsym =      16    n1xccc =    2501    ntypat =       3    occopt =       1
   xclevel =       2
-    mband =          33        mffmem =           1         mkmem =           2
-   mkqmem =           2        mk1mem =           2           mpw =        7403
      nfft =      129600          nkpt =           2
  Rough estimation (10% accuracy) of disk space for files :

------------- Echo of variables that govern the present computation ------------
-
- outvars: echo of selected default values
-   iomode0 =  0 , fftalg0 =512 , wfoptalg0 =  0
-
- outvars: echo of global parameters not present in the input file
-  max_nthreads =    0
-
 -outvars: echo values of preprocessed input variables --------
            acell      1.0000000000E+00  1.0000000000E+00  1.0000000000E+00 Bohr
              amu      8.89058500E+01  1.59994000E+01  1.89984032E+01
             ecut      4.40000000E+01 Hartree
-          fftalg         512
           irdden           1
           irdwfk           1
           istwfk        0    1
              ixc     -116133
              kpt      2.42857143E-01  2.42857143E-01  5.00000000E-01
                       0.00000000E+00  0.00000000E+00  0.00000000E+00
           kptopt           0
P           mkmem           2
P          mkqmem           2
P          mk1mem           2
            natom           6
            nband          33
           nbdbuf           4
            ngfft          45      45      64
             nkpt           2
            nstep        1000
             nsym          16
           ntypat           3
              occ      2.000000  2.000000  2.000000  2.000000  2.000000  2.000000
                       2.000000  2.000000  2.000000  2.000000  2.000000  2.000000
                       2.000000  2.000000  2.000000  2.000000  2.000000  2.000000
                       2.000000  2.000000  2.000000  2.000000  2.000000  2.000000
                       0.000000  0.000000  0.000000  0.000000  0.000000  0.000000
                       0.000000  0.000000  0.000000
        optdriver           1
            prtwf          -1
            rfdir           1       1       1
           rfelfd           2
            rprim      7.1974863458E+00  0.0000000000E+00  0.0000000000E+00
                       0.0000000000E+00  7.1974863458E+00  0.0000000000E+00
                       0.0000000000E+00  0.0000000000E+00  1.0239814392E+01
          spgroup         129
           symrel      1  0  0   0  1  0   0  0  1      -1  0  0   0 -1  0   0  0 -1
                      -1  0  0   0  1  0   0  0 -1       1  0  0   0 -1  0   0  0  1
                      -1  0  0   0 -1  0   0  0  1       1  0  0   0  1  0   0  0 -1
                       1  0  0   0 -1  0   0  0 -1      -1  0  0   0  1  0   0  0  1
                       0  1  0   1  0  0   0  0  1       0 -1  0  -1  0  0   0  0 -1
                       0 -1  0   1  0  0   0  0 -1       0  1  0  -1  0  0   0  0  1
                       0 -1  0  -1  0  0   0  0  1       0  1  0   1  0  0   0  0 -1
                       0  1  0  -1  0  0   0  0 -1       0 -1  0   1  0  0   0  0  1
            tnons      0.0000000  0.0000000  0.0000000     0.5000000  0.5000000  0.0000000
                       0.5000000  0.5000000  0.0000000     0.0000000  0.0000000  0.0000000
                      -0.0000000  0.0000000  0.0000000     0.5000000  0.5000000  0.0000000
                       0.5000000  0.5000000  0.0000000    -0.0000000  0.0000000  0.0000000
                       0.5000000  0.5000000  0.0000000     0.0000000 -0.0000000  0.0000000
                       0.0000000 -0.0000000  0.0000000     0.5000000  0.5000000  0.0000000
                       0.5000000  0.5000000  0.0000000     0.0000000  0.0000000  0.0000000
                       0.0000000  0.0000000  0.0000000     0.5000000  0.5000000  0.0000000
           tolwfr      1.00000000E-20
            typat      1  1  2  2  3  3
           useylm           1
              wtk        0.50000    0.50000
           xangst      1.9043728667E+00  0.0000000000E+00  3.8549005751E+00
                       0.0000000000E+00  1.9043728667E+00  1.5637758212E+00
                       0.0000000000E+00  0.0000000000E+00  2.7093381982E+00
                       1.9043728667E+00  1.9043728667E+00  2.7093381982E+00
                       1.9043728667E+00  1.9043728667E+00  0.0000000000E+00
                       0.0000000000E+00  0.0000000000E+00  0.0000000000E+00
            xcart      3.5987431729E+00  0.0000000000E+00  7.2847063565E+00
                       0.0000000000E+00  3.5987431729E+00  2.9551080353E+00
                       0.0000000000E+00  0.0000000000E+00  5.1199071959E+00
                       3.5987431729E+00  3.5987431729E+00  5.1199071959E+00
                       3.5987431729E+00  3.5987431729E+00  0.0000000000E+00
                       0.0000000000E+00  0.0000000000E+00  0.0000000000E+00
             xred      5.0000000000E-01  0.0000000000E+00  7.1141000000E-01
                       0.0000000000E+00  5.0000000000E-01  2.8859000000E-01
                       0.0000000000E+00  0.0000000000E+00  5.0000000000E-01
                       5.0000000000E-01  5.0000000000E-01  5.0000000000E-01
                       5.0000000000E-01  5.0000000000E-01  0.0000000000E+00
                       0.0000000000E+00  0.0000000000E+00  0.0000000000E+00
            znucl       39.00000    8.00000    9.00000

 chkinp: Checking input parameters for consistency.

== DATASET  1 ==================================================================
-   mpi_nproc: 1, omp_nthreads: -1 (-1 if OMP is not activated)

--- !DatasetInfo
iteration_state: {dtset: 1, }
dimensions: {natom: 6, nkpt: 2, mband: 33, nsppol: 1, nspinor: 1, nspden: 1, mpw: 7403, }
cutoff_energies: {ecut:  44.0, pawecutdg:  -1.0, }
electrons: {nelect:   4.80000000E+01, charge:   0.00000000E+00, occopt:   1.00000000E+00, tsmear:   1.00000000E-02, }
meta: {optdriver: 1, rfelfd: 2, }
...

 Real(R)+Recip(G) space primitive vectors, cartesian coordinates (Bohr,Bohr^-1):
 R(1)=  7.1974863  0.0000000  0.0000000  G(1)=  0.1389374  0.0000000  0.0000000
 R(2)=  0.0000000  7.1974863  0.0000000  G(2)=  0.0000000  0.1389374  0.0000000
 R(3)=  0.0000000  0.0000000 10.2398144  G(3)=  0.0000000  0.0000000  0.0976580
 Unit cell volume ucvol=  5.3046140E+02 bohr^3
 Angles (23,13,12)=  9.00000000E+01  9.00000000E+01  9.00000000E+01 degrees

 getcut: wavevector=  0.0000  0.0000  0.0000  ngfft=  45  45  64
         ecut(hartree)=     44.000   => boxcut(ratio)=   2.04729

--- Pseudopotential description ------------------------------------------------
- pspini: atom type   1  psp file is /scratch/users/j/a/jabreu/pseudos/PBEsol/Y.psp8
- pspatm: opening atomic psp file    /scratch/users/j/a/jabreu/pseudos/PBEsol/Y.psp8
- Y     ONCVPSP-3.3.0  r_core=   1.60520   1.51226   1.56736
- 39.00000  11.00000    180112                znucl, zion, pspdat
    8 -116133    2    4       600   0.00000   pspcod,pspxc,lmax,lloc,mmax,r2well
    5.99000000000000    4.00000000000000    0.00000000000000   rchrg,fchrg,qchrg
     nproj     2     2     2
     extension_switch     1
  pspatm : epsatm=   18.54790046
         --- l  ekb(1:nproj) -->
             0   10.130768    0.866504
             1    5.598307    0.427135
             2    1.217602    0.315447
 pspatm: atomic psp has been read  and splines computed

- pspini: atom type   2  psp file is /scratch/users/j/a/jabreu/pseudos/PBEsol/O.psp8
- pspatm: opening atomic psp file    /scratch/users/j/a/jabreu/pseudos/PBEsol/O.psp8
- O     ONCVPSP-3.3.0  r_core=   1.35509   1.45563   1.26150
-  8.00000   6.00000    180112                znucl, zion, pspdat
    8 -116133    2    4       600   0.00000   pspcod,pspxc,lmax,lloc,mmax,r2well
    5.99000000000000    4.00000000000000    0.00000000000000   rchrg,fchrg,qchrg
     nproj     2     2     1
     extension_switch     1
  pspatm : epsatm=    6.22910522
         --- l  ekb(1:nproj) -->
             0    6.050032    0.820363
             1   -4.739617   -1.153841
             2   -1.335834
 pspatm: atomic psp has been read  and splines computed

- pspini: atom type   3  psp file is /scratch/users/j/a/jabreu/pseudos/PBEsol/F.psp8
- pspatm: opening atomic psp file    /scratch/users/j/a/jabreu/pseudos/PBEsol/F.psp8
- F     ONCVPSP-3.3.0  r_core=   1.30942   1.45782   1.60379
-  9.00000   7.00000    180112                znucl, zion, pspdat
    8 -116133    2    4       600   0.00000   pspcod,pspxc,lmax,lloc,mmax,r2well
    5.99000000000000    2.50000000000000    0.00000000000000   rchrg,fchrg,qchrg
     nproj     2     2     1
     extension_switch     1
  pspatm : epsatm=    4.89824824
         --- l  ekb(1:nproj) -->
             0    6.506434    1.065875
             1   -3.978753   -1.295852
             2   -2.394754
 pspatm: atomic psp has been read  and splines computed

   2.84882438E+03                                ecore*ucvol(ha*bohr**3)

-inwffil : will read wavefunctions from disk file /scratch/users/j/a/jabreu/flow_simple_6atoms/flow/w207/t1/indata/in_WFK

 ==>  initialize data related to q vector <==

 The list of irreducible perturbations for this q vector is:
    1)    idir= 1    ipert=   7
    2)    idir= 2    ipert=   7
    3)    idir= 3    ipert=   7

 Perturbation wavevector (in red.coord.)   0.000000  0.000000  0.000000
 Perturbation : derivative vs k along direction   1

 dfpt_looppert : COMMENT -
  In a d/dk calculation, iscf is set to -3 automatically.
 The set of symmetries contains only one element for this perturbation.
 symkpt : not enough symmetry to change the number of k points.

[...]

 Initialisation of the first-order wave-functions :
  ireadwf=   0

--- !BeginCycle
iteration_state: {dtset: 1, }
solver: {iscf: 7, nstep: 1000, nline: 4, wfoptalg: 0, }
tolerances: {tolwfr: 1.00E-20, }
...

     iter   2DEtotal(Ha)        deltaE(Ha) residm    vres2
-ETOT  1  -37.640824276506     -3.764E+01 1.543E-01 0.000E+00
 ETOT  2  -37.685034208502     -4.421E-02 3.212E-02 0.000E+00
 ETOT  3  -37.685424170296     -3.900E-04 1.070E-03 0.000E+00
 ETOT  4  -37.685429248371     -5.078E-06 2.305E-04 0.000E+00
 ETOT  5  -37.685429325553     -7.718E-08 1.129E-05 0.000E+00
[...]
 ETOT 10  -37.685429326818      4.974E-14 2.085E-09 0.000E+00
 ETOT 11  -37.685429326818     -1.421E-14 1.911E-10 0.000E+00
 ETOT 12  -37.685429326818     -2.132E-14 7.849E-11 0.000E+00
 ETOT 13  -37.685429326818      7.105E-15 7.597E-12 0.000E+00
 ETOT 14  -37.685429326818      0.000E+00 3.155E-12 0.000E+00
 ETOT 15  -37.685429326818      0.000E+00 3.109E-13 0.000E+00
 ETOT 16  -37.685429326818      0.000E+00 1.298E-13 0.000E+00
 ETOT 17  -37.685429326818      0.000E+00 1.290E-14 0.000E+00
 ETOT 18  -37.685429326818      7.105E-15 5.417E-15 0.000E+00
 ETOT 19  -37.685429326818      0.000E+00 5.413E-16 0.000E+00
 ETOT 20  -37.685429326818     -7.105E-15 2.284E-16 0.000E+00
 ETOT 21  -37.685429326818      0.000E+00 2.289E-17 0.000E+00
 ETOT 22  -37.685429326818     -7.105E-15 9.706E-18 0.000E+00
 ETOT 23  -37.685429326818      7.105E-15 9.745E-19 0.000E+00
 ETOT 24  -37.685429326818     -7.105E-15 4.153E-19 0.000E+00
 ETOT 25  -37.685429326818      0.000E+00 4.172E-20 0.000E+00
 ETOT 26  -37.685429326818      0.000E+00 1.787E-20 0.000E+00
 ETOT 27  -37.685429326818     -7.105E-15 9.971E-21 0.000E+00

 At SCF step   27   max residual=  9.97E-21 < tolwfr=  1.00E-20 =>converged.

 ----iterations are completed or convergence reached----

 dfpt_looppert: DFPT cycle converged with prtwf=-1. Will skip output of the 1st-order WFK file.
 dfpt_looppert : ek2=    7.3159254350E+01
          f-sum rule ratio=    1.0130149093E+00
 prteigrs : about to open file /scratch/users/j/a/jabreu/flow_simple_6atoms/flow/w207/t1/tmpdata/tmp_1WF1_EIG
 Expectation of eigenvalue derivatives (hartree) for nkpt=   2  k points:
  (in case of degenerate eigenvalues, averaged derivative)
 kpt#   1, nband= 33, wtk=  0.50000, kpt=  0.2429  0.2429  0.5000 (reduced coord)
   0.00401    0.00021    0.01799   -0.03668   -0.01115   -0.05313   -0.01306    0.00854
   0.01706   -0.01882    0.05492    0.04016   -0.01052    0.00848   -0.10624    0.00128
   0.11084    0.02578   -0.03196    0.11168    0.05970   -0.15358    0.10484    0.00018
  -0.09579   -0.04148    0.07562    0.03952    0.03066    0.04411   -0.14392   -0.03568
  -0.00036
 prteigrs : prtvol=0 or 1, do not print more k-points.

 Eight components of 2nd-order total energy (hartree) are
 1,2,3: 0th-order hamiltonian combined with 1st-order wavefunctions
     kin0=   4.53741555E+01 eigvalue=  -4.61116203E-01  local=  -1.99421824E+01
 4,5,6: 1st-order hamiltonian combined with 1st and 0th-order wfs
     kin1=  -7.41114154E+01  Hartree=   0.00000000E+00     xc=   0.00000000E+00
 7,8,9: eventually, occupation + non-local contributions
    edocc=   1.20617870E+01     enl0=   6.52785413E-01   enl1=  -1.25944324E+00
 1-9 gives the relaxation energy (to be shifted if some occ is /=2.0)
   erelax=  -3.76854293E+01
  No Ewald or frozen-wf contrib.: the relaxation energy is the total one
 2DEtotal=   -0.3768542933E+02 Ha. Also 2DEtotal=   -0.102547268334E+04 eV
    (  non-var. 2DEtotal :   -3.7685429327E+01 Ha)

 Perturbation wavevector (in red.coord.)   0.000000  0.000000  0.000000
 Perturbation : derivative vs k along direction   2
 The set of symmetries contains only one element for this perturbation.
 symkpt : not enough symmetry to change the number of k points.

[...]

 Perturbation wavevector (in red.coord.)   0.000000  0.000000  0.000000
 Perturbation : derivative vs k along direction   3
 The set of symmetries contains only one element for this perturbation.
 symkpt : not enough symmetry to change the number of k points.

-inwffil : will read wavefunctions from disk file /scratch/users/j/a/jabreu/flow_simple_6atoms/flow/w207/t1/indata/in_WFK

 Initialisation of the first-order wave-functions :
  ireadwf=   0

--- !BeginCycle
iteration_state: {dtset: 1, }
solver: {iscf: 7, nstep: 1000, nline: 4, wfoptalg: 0, }
tolerances: {tolwfr: 1.00E-20, }
...

     iter   2DEtotal(Ha)        deltaE(Ha) residm    vres2
-ETOT  1  -18.752457061680     -1.875E+01 1.177E-01 0.000E+00
 ETOT  2  -18.764294897926     -1.184E-02 1.375E-02 0.000E+00
 ETOT  3  -18.764334211916     -3.931E-05 1.588E-03 0.000E+00
 ETOT  4  -18.764334569370     -3.575E-07 3.175E-04 0.000E+00
 ETOT  5  -18.764334573932     -4.562E-09 5.607E-05 0.000E+00
 ETOT  6  -18.764334574000     -6.800E-11 1.161E-05 0.000E+00
 ETOT  7  -18.764334574001     -1.144E-12 2.426E-06 0.000E+00
 ETOT  8  -18.764334574001     -2.487E-14 4.749E-07 0.000E+00
 ETOT  9  -18.764334574001      3.553E-15 1.073E-07 0.000E+00
 ETOT 10  -18.764334574001     -3.553E-15 2.019E-08 0.000E+00
 ETOT 11  -18.764334574001      0.000E+00 4.784E-09 0.000E+00
 ETOT 12  -18.764334574001      0.000E+00 8.759E-10 0.000E+00
 ETOT 13  -18.764334574001      0.000E+00 2.143E-10 0.000E+00
 ETOT 14  -18.764334574001      0.000E+00 3.850E-11 0.000E+00
 ETOT 15  -18.764334574001      7.105E-15 9.638E-12 0.000E+00
 ETOT 16  -18.764334574001      0.000E+00 1.707E-12 0.000E+00
 ETOT 17  -18.764334574001     -1.066E-14 4.352E-13 0.000E+00
 ETOT 18  -18.764334574001      7.105E-15 7.620E-14 0.000E+00
 ETOT 19  -18.764334574001      0.000E+00 1.971E-14 0.000E+00
 ETOT 20  -18.764334574001      0.000E+00 3.419E-15 0.000E+00
 ETOT 21  -18.764334574001      0.000E+00 8.947E-16 0.000E+00
 ETOT 22  -18.764334574001     -7.105E-15 1.540E-16 0.000E+00
 ETOT 23  -18.764334574001      0.000E+00 4.069E-17 0.000E+00
 ETOT 24  -18.764334574001      0.000E+00 6.954E-18 0.000E+00
 ETOT 25  -18.764334574001      0.000E+00 1.853E-18 0.000E+00
 ETOT 26  -18.764334574001      0.000E+00 3.148E-19 0.000E+00
 ETOT 27  -18.764334574001      0.000E+00 8.445E-20 0.000E+00
 ETOT 28  -18.764334574001      3.553E-15 1.427E-20 0.000E+00
 ETOT 29  -18.764334574001      3.553E-15 9.568E-21 0.000E+00

 At SCF step   29   max residual=  9.57E-21 < tolwfr=  1.00E-20 =>converged.

 ----iterations are completed or convergence reached----

 dfpt_looppert: DFPT cycle converged with prtwf=-1. Will skip output of the 1st-order WFK file.
 dfpt_looppert : ek2=    3.6144881103E+01
          f-sum rule ratio=    1.0210483290E+00
 prteigrs : about to open file /scratch/users/j/a/jabreu/flow_simple_6atoms/flow/w207/t1/tmpdata/tmp_1WF1_EIG
 Expectation of eigenvalue derivatives (hartree) for nkpt=   2  k points:
  (in case of degenerate eigenvalues, averaged derivative)
 kpt#   1, nband= 33, wtk=  0.50000, kpt=  0.2429  0.2429  0.5000 (reduced coord)
   0.00000   -0.00000    0.00000   -0.00000    0.00000    0.00000    0.00000   -0.00000
   0.00000   -0.00000    0.00000   -0.00000   -0.00000   -0.00000    0.00000    0.00000
   0.00000   -0.00000   -0.00000    0.00000    0.00000   -0.00000   -0.00000    0.00000
   0.00000   -0.00000   -0.00000   -0.00000    0.00000    0.00000    0.00000    0.00000
   0.00058
 prteigrs : prtvol=0 or 1, do not print more k-points.

 Eight components of 2nd-order total energy (hartree) are
 1,2,3: 0th-order hamiltonian combined with 1st-order wavefunctions
     kin0=   2.01197812E+01 eigvalue=  -4.77263659E-02  local=  -8.15968660E+00
 4,5,6: 1st-order hamiltonian combined with 1st and 0th-order wfs
     kin1=  -3.69056705E+01  Hartree=   0.00000000E+00     xc=   0.00000000E+00
 7,8,9: eventually, occupation + non-local contributions
    edocc=   6.91180728E+00     enl0=  -5.98409433E-02   enl1=  -6.22998696E-01
 1-9 gives the relaxation energy (to be shifted if some occ is /=2.0)
   erelax=  -1.87643346E+01
  No Ewald or frozen-wf contrib.: the relaxation energy is the total one
 2DEtotal=   -0.1876433457E+02 Ha. Also 2DEtotal=   -0.510603510971E+03 eV
    (  non-var. 2DEtotal :   -1.8764334574E+01 Ha)

 CALCULATION OF EFFECTIVE MASSES
 NOTE : Additional infos (eff. mass eigenvalues, eigenvectors and, if degenerate, average mass) are available in stdout.

 K-point ( 0.243, 0.243, 0.500) | band =    24
 Effective mass tensor:
             -1.8627572787             -1.1044614455              0.0012986572
             -1.1044614455             -1.8627364520              0.0019060918
              0.0012986572              0.0019060918            -10.2437924794
 Effective mass tensor eigenvalues:
            -10.2437932046             -2.9672076051             -0.7582854003
 Angular average effective mass 1/(<1/m>)=  -1.7109596434
 Angular average effective mass for Frohlich model (<m**0.5>)**2=  -2.2894872897
 Effective masses along directions: (cart. coord. / red. coord. -> eff. mass)
    1:   1.000000  0.000000  0.000000 /   1.000000  0.000000  0.000000 ->  -1.2078954015
    2:   0.000000  1.000000  0.000000 /   0.000000  1.000000  0.000000 ->  -1.2078817732
    3:   0.000000  0.000000  1.000000 /   0.000000  0.000000  1.000000 -> -10.2437905055
    4:   0.577350  0.577350  0.577350 /   0.498503  0.498503  0.709217 ->  -3.8866883208
    5:   0.000000  0.707107  0.707107 /   0.000000  0.575049  0.818119 ->  -2.1605286937
    6:   0.707107  0.000000  0.707107 /   0.575049  0.000000  0.818119 ->  -2.1609155987
    7:   0.707107  0.707107  0.000000 /   0.707107  0.707107  0.000000 ->  -2.9672078093

 K-point ( 0.000, 0.000, 0.000) | band =    25
 Effective mass tensor:
              0.4701788164              0.0000000047             -0.0000000136
              0.0000000047              0.4701788241              0.0000000055
             -0.0000000136              0.0000000055              0.6792572918
 Effective mass tensor eigenvalues:
              0.4701788142              0.4701788263              0.6792572918
 Angular average effective mass 1/(<1/m>)=   0.5239353816
 Angular average effective mass for Frohlich model (<m**0.5>)**2=   0.5283553543
 Effective masses along directions: (cart. coord. / red. coord. -> eff. mass)
    1:   1.000000  0.000000  0.000000 /   1.000000  0.000000  0.000000 ->   0.4701788164
    2:   0.000000  1.000000  0.000000 /   0.000000  1.000000  0.000000 ->   0.4701788241
    3:   0.000000  0.000000  1.000000 /   0.000000  0.000000  1.000000 ->   0.6792572918
    4:   0.577350  0.577350  0.577350 /   0.498503  0.498503  0.709217 ->   0.5239353808
    5:   0.000000  0.707107  0.707107 /   0.000000  0.575049  0.818119 ->   0.5557027369
    6:   0.707107  0.000000  0.707107 /   0.575049  0.000000  0.818119 ->   0.5557027131
    7:   0.707107  0.707107  0.000000 /   0.707107  0.707107  0.000000 ->   0.4701788249

 END OF EFFECTIVE MASSES SECTION

 ---- first-order wavefunction calculations are completed ----

 Total localisation tensor (bohr^2) in cartesian coordinates
  WARNING : still subject to testing - especially symmetries.
      direction              matrix element
   alpha     beta       real part   imaginary part
     1        1       0.6373849156    0.0000000000
     1        2       0.0000000000    0.0000000000
     1        3       0.0000000000    0.0000000000
     2        1       0.0000000000    0.0000000000
     2        2       0.6373754658    0.0000000000
     2        3       0.0000000000    0.0000000000
     3        1       0.0000000000    0.0000000000
     3        2       0.0000000000    0.0000000000
     3        3       0.6298553190    0.0000000000

 respfn : d/dk was computed, but no 2DTE, so no DDB output.

== END DATASET(S) ==============================================================

 -outvars: echo values of variables after computation  --------
            acell      1.0000000000E+00  1.0000000000E+00  1.0000000000E+00 Bohr
              amu      8.89058500E+01  1.59994000E+01  1.89984032E+01
             ecut      4.40000000E+01 Hartree
           etotal     -1.8764334574E+01
            fcart      0.0000000000E+00  0.0000000000E+00  0.0000000000E+00
                       0.0000000000E+00  0.0000000000E+00  0.0000000000E+00
                       0.0000000000E+00  0.0000000000E+00  0.0000000000E+00
                       0.0000000000E+00  0.0000000000E+00  0.0000000000E+00
                       0.0000000000E+00  0.0000000000E+00  0.0000000000E+00
                       0.0000000000E+00  0.0000000000E+00  0.0000000000E+00
-          fftalg         512
           irdden           1
           irdwfk           1
           istwfk        0    1
              ixc     -116133
              kpt      2.42857143E-01  2.42857143E-01  5.00000000E-01
                       0.00000000E+00  0.00000000E+00  0.00000000E+00
           kptopt           0
P           mkmem           2
P          mkqmem           2
P          mk1mem           2
            natom           6
            nband          33
           nbdbuf           4
            ngfft          45      45      64
             nkpt           2
            nstep        1000
             nsym          16
           ntypat           3
              occ      2.000000  2.000000  2.000000  2.000000  2.000000  2.000000
                       2.000000  2.000000  2.000000  2.000000  2.000000  2.000000
                       2.000000  2.000000  2.000000  2.000000  2.000000  2.000000
                       2.000000  2.000000  2.000000  2.000000  2.000000  2.000000
                       0.000000  0.000000  0.000000  0.000000  0.000000  0.000000
                       0.000000  0.000000  0.000000
        optdriver           1
            prtwf          -1
            rfdir           1       1       1
           rfelfd           2
            rprim      7.1974863458E+00  0.0000000000E+00  0.0000000000E+00
                       0.0000000000E+00  7.1974863458E+00  0.0000000000E+00
                       0.0000000000E+00  0.0000000000E+00  1.0239814392E+01
          spgroup         129
           strten      0.0000000000E+00  0.0000000000E+00  0.0000000000E+00
                       0.0000000000E+00  0.0000000000E+00  0.0000000000E+00
           symrel      1  0  0   0  1  0   0  0  1      -1  0  0   0 -1  0   0  0 -1
                      -1  0  0   0  1  0   0  0 -1       1  0  0   0 -1  0   0  0  1
                      -1  0  0   0 -1  0   0  0  1       1  0  0   0  1  0   0  0 -1
                       1  0  0   0 -1  0   0  0 -1      -1  0  0   0  1  0   0  0  1
                       0  1  0   1  0  0   0  0  1       0 -1  0  -1  0  0   0  0 -1
                       0 -1  0   1  0  0   0  0 -1       0  1  0  -1  0  0   0  0  1
                       0 -1  0  -1  0  0   0  0  1       0  1  0   1  0  0   0  0 -1
                       0  1  0  -1  0  0   0  0 -1       0 -1  0   1  0  0   0  0  1
            tnons      0.0000000  0.0000000  0.0000000     0.5000000  0.5000000  0.0000000
                       0.5000000  0.5000000  0.0000000     0.0000000  0.0000000  0.0000000
                      -0.0000000  0.0000000  0.0000000     0.5000000  0.5000000  0.0000000
                       0.5000000  0.5000000  0.0000000    -0.0000000  0.0000000  0.0000000
                       0.5000000  0.5000000  0.0000000     0.0000000 -0.0000000  0.0000000
                       0.0000000 -0.0000000  0.0000000     0.5000000  0.5000000  0.0000000
                       0.5000000  0.5000000  0.0000000     0.0000000  0.0000000  0.0000000
                       0.0000000  0.0000000  0.0000000     0.5000000  0.5000000  0.0000000
           tolwfr      1.00000000E-20
            typat      1  1  2  2  3  3
           useylm           1
              wtk        0.50000    0.50000
           xangst      1.9043728667E+00  0.0000000000E+00  3.8549005751E+00
                       0.0000000000E+00  1.9043728667E+00  1.5637758212E+00
                       0.0000000000E+00  0.0000000000E+00  2.7093381982E+00
                       1.9043728667E+00  1.9043728667E+00  2.7093381982E+00
                       1.9043728667E+00  1.9043728667E+00  0.0000000000E+00
                       0.0000000000E+00  0.0000000000E+00  0.0000000000E+00
            xcart      3.5987431729E+00  0.0000000000E+00  7.2847063565E+00
                       0.0000000000E+00  3.5987431729E+00  2.9551080353E+00
                       0.0000000000E+00  0.0000000000E+00  5.1199071959E+00
                       3.5987431729E+00  3.5987431729E+00  5.1199071959E+00
                       3.5987431729E+00  3.5987431729E+00  0.0000000000E+00
                       0.0000000000E+00  0.0000000000E+00  0.0000000000E+00
             xred      5.0000000000E-01  0.0000000000E+00  7.1141000000E-01
                       0.0000000000E+00  5.0000000000E-01  2.8859000000E-01
                       0.0000000000E+00  0.0000000000E+00  5.0000000000E-01
                       5.0000000000E-01  5.0000000000E-01  5.0000000000E-01
                       5.0000000000E-01  5.0000000000E-01  0.0000000000E+00
                       0.0000000000E+00  0.0000000000E+00  0.0000000000E+00
            znucl       39.00000    8.00000    9.00000

- Timing analysis has been suppressed with timopt=0

 Suggested references for the acknowledgment of ABINIT usage.

 Calculation completed.
.Delivered  14 WARNINGs and   9 COMMENTs to log file.