.Version 9.5.1 of ABINIT

 ABINIT is a project of the Universite Catholique de Louvain,
 Corning Inc. and other collaborators, see ~abinit/doc/developers/contributors.txt .
 acknowledgments of the ABINIT effort.

.Starting date : Tue 27 Apr 2021.
- ( at 18h30 )

- input  file    -> /scratch/users/j/a/jabreu/flow_simple_4atoms/flow/w178/t1/run.abi
- output file    -> /scratch/users/j/a/jabreu/flow_simple_4atoms/flow/w178/t1/run.abo
- root for input  files -> /scratch/users/j/a/jabreu/flow_simple_4atoms/flow/w178/t1/indata/in
- root for output files -> /scratch/users/j/a/jabreu/flow_simple_4atoms/flow/w178/t1/outdata/out

 Symmetries : space group P-3 m 1 (#164); Bravais hP (primitive hexag.)
     intxc =       0      iscf =       7    lmnmax =      18     lnmax =       6
     mgfft =      75  mpssoang =       3    mqgrid =    3604     natom =       4
  nloc_mem =       1    nspden =       1   nspinor =       1    nsppol =       1
      nsym =      12    n1xccc =    2501    ntypat =       3    occopt =       1
   xclevel =       2
-    mband =          40        mffmem =           1         mkmem =           2
-   mkqmem =           2        mk1mem =           2           mpw =        7584
      nfft =      151875          nkpt =           2
  Rough estimation (10% accuracy) of disk space for files :

------------- Echo of variables that govern the present computation ------------
-
- outvars: echo of selected default values
-   iomode0 =  0 , fftalg0 =512 , wfoptalg0 =  0
-
- outvars: echo of global parameters not present in the input file
-  max_nthreads =    0
-
 -outvars: echo values of preprocessed input variables --------
            acell      1.0000000000E+00  1.0000000000E+00  1.0000000000E+00 Bohr
              amu      4.49559100E+01  1.07868200E+02  7.89600000E+01
             ecut      4.30000000E+01 Hartree
-          fftalg         512
           irdden           1
           irdwfk           1
           istwfk        1    1
              ixc     -116133
              kpt      0.00000000E+00  0.00000000E+00  5.00000000E-01
                       5.00000000E-01  0.00000000E+00  5.00000000E-01
           kptopt           0
P           mkmem           2
P          mkqmem           2
P          mk1mem           2
            natom           4
            nband          40
           nbdbuf           4
            ngfft          45      45      75
             nkpt           2
            nstep         100
             nsym          12
           ntypat           3
              occ      2.000000  2.000000  2.000000  2.000000  2.000000  2.000000
                       2.000000  2.000000  2.000000  2.000000  2.000000  2.000000
                       2.000000  2.000000  2.000000  2.000000  2.000000  2.000000
                       2.000000  2.000000  2.000000  2.000000  2.000000  2.000000
                       2.000000  2.000000  2.000000  2.000000  2.000000  2.000000
                       2.000000  0.000000  0.000000  0.000000  0.000000  0.000000
                       0.000000  0.000000  0.000000  0.000000
        optdriver           1
            prtwf          -1
            rfdir           1       1       1
           rfelfd           2
            rprim      7.2812997813E+00  0.0000000000E+00  0.0000000000E+00
                      -3.6406498906E+00  6.3057905831E+00  0.0000000000E+00
                       0.0000000000E+00  0.0000000000E+00  1.2208821198E+01
          spgroup         164
           symrel      1  0  0   0  1  0   0  0  1      -1  0  0   0 -1  0   0  0 -1
                      -1  0  0   1  1  0   0  0  1       1  0  0  -1 -1  0   0  0 -1
                       0  1  0  -1 -1  0   0  0  1       0 -1  0   1  1  0   0  0 -1
                       0 -1  0  -1  0  0   0  0  1       0  1  0   1  0  0   0  0 -1
                      -1 -1  0   1  0  0   0  0  1       1  1  0  -1  0  0   0  0 -1
                       1  1  0   0 -1  0   0  0  1      -1 -1  0   0  1  0   0  0 -1
           tolwfr      1.00000000E-20
            typat      1  2  3  3
           useylm           1
              wtk        0.50000    0.50000
           xangst      0.0000000000E+00  0.0000000000E+00  0.0000000000E+00
                       0.0000000000E+00  0.0000000000E+00  3.2303149609E+00
                       1.9265489466E+00  1.1122935529E+00  4.9267600870E+00
                       1.7638771742E-11  2.2245871058E+00  1.5338698348E+00
            xcart      0.0000000000E+00  0.0000000000E+00  0.0000000000E+00
                       0.0000000000E+00  0.0000000000E+00  6.1044105991E+00
                       3.6406498907E+00  2.1019301944E+00  9.3102272869E+00
                       3.3332447913E-11  4.2038603887E+00  2.8985939112E+00
             xred      0.0000000000E+00  0.0000000000E+00  0.0000000000E+00
                       0.0000000000E+00  0.0000000000E+00  5.0000000000E-01
                       6.6666666667E-01  3.3333333333E-01  7.6258200000E-01
                       3.3333333333E-01  6.6666666667E-01  2.3741800000E-01
            znucl       21.00000   47.00000   34.00000

 chkinp: Checking input parameters for consistency.

== DATASET  1 ==================================================================
-   mpi_nproc: 1, omp_nthreads: -1 (-1 if OMP is not activated)

--- !DatasetInfo
iteration_state: {dtset: 1, }
dimensions: {natom: 4, nkpt: 2, mband: 40, nsppol: 1, nspinor: 1, nspden: 1, mpw: 7584, }
cutoff_energies: {ecut:  43.0, pawecutdg:  -1.0, }
electrons: {nelect:   6.20000000E+01, charge:   0.00000000E+00, occopt:   1.00000000E+00, tsmear:   1.00000000E-02, }
meta: {optdriver: 1, rfelfd: 2, }
...

 Real(R)+Recip(G) space primitive vectors, cartesian coordinates (Bohr,Bohr^-1):
 R(1)=  7.2812998  0.0000000  0.0000000  G(1)=  0.1373381  0.0792922  0.0000000
 R(2)= -3.6406499  6.3057906  0.0000000  G(2)=  0.0000000  0.1585844  0.0000000
 R(3)=  0.0000000  0.0000000 12.2088212  G(3)=  0.0000000  0.0000000  0.0819080
 Unit cell volume ucvol=  5.6056011E+02 bohr^3
 Angles (23,13,12)=  9.00000000E+01  9.00000000E+01  1.20000000E+02 degrees

 getcut: wavevector=  0.0000  0.0000  0.0000  ngfft=  45  45  75
         ecut(hartree)=     43.000   => boxcut(ratio)=   2.04713

--- Pseudopotential description ------------------------------------------------
- pspini: atom type   1  psp file is /scratch/users/j/a/jabreu/pseudos/PBEsol/Sc.psp8
- pspatm: opening atomic psp file    /scratch/users/j/a/jabreu/pseudos/PBEsol/Sc.psp8
- Sc    ONCVPSP-3.3.0  r_core=   1.35663   1.35663   1.66161
- 21.00000  11.00000    180112                znucl, zion, pspdat
    8 -116133    2    4       600   0.00000   pspcod,pspxc,lmax,lloc,mmax,r2well
    5.99000000000000    5.00000000000000    0.00000000000000   rchrg,fchrg,qchrg
     nproj     2     2     2
     extension_switch     1
  pspatm : epsatm=   13.58981094
         --- l  ekb(1:nproj) -->
             0   10.810997    0.948773
             1    2.871172    0.364831
             2   -4.789751   -1.321945
 pspatm: atomic psp has been read  and splines computed

- pspini: atom type   2  psp file is /scratch/users/j/a/jabreu/pseudos/PBEsol/Ag.psp8
- pspatm: opening atomic psp file    /scratch/users/j/a/jabreu/pseudos/PBEsol/Ag.psp8
- Ag    ONCVPSP-3.3.0  r_core=   1.41384   1.46535   1.61207
- 47.00000  19.00000    180112                znucl, zion, pspdat
    8 -116133    2    4       600   0.00000   pspcod,pspxc,lmax,lloc,mmax,r2well
    5.99000000000000    7.00000000000000    0.00000000000000   rchrg,fchrg,qchrg
     nproj     2     2     2
     extension_switch     1
  pspatm : epsatm=   27.64581383
         --- l  ekb(1:nproj) -->
             0    9.559407   -0.398585
             1    3.418858   -0.136622
             2   -1.644397   -0.401551
 pspatm: atomic psp has been read  and splines computed

- pspini: atom type   3  psp file is /scratch/users/j/a/jabreu/pseudos/PBEsol/Se.psp8
- pspatm: opening atomic psp file    /scratch/users/j/a/jabreu/pseudos/PBEsol/Se.psp8
- Se    ONCVPSP-3.3.0  r_core=   1.81943   1.50330   1.90835
- 34.00000  16.00000    180112                znucl, zion, pspdat
    8 -116133    2    4       600   0.00000   pspcod,pspxc,lmax,lloc,mmax,r2well
    5.99000000000000    5.00000000000000    0.00000000000000   rchrg,fchrg,qchrg
     nproj     2     2     2
     extension_switch     1
  pspatm : epsatm=   29.17862020
         --- l  ekb(1:nproj) -->
             0    8.973804    1.019550
             1    6.849857    1.297308
             2   -9.203962   -3.731027
 pspatm: atomic psp has been read  and splines computed

   6.17475764E+03                                ecore*ucvol(ha*bohr**3)

-inwffil : will read wavefunctions from disk file /scratch/users/j/a/jabreu/flow_simple_4atoms/flow/w178/t1/indata/in_WFK

 ==>  initialize data related to q vector <==

 The list of irreducible perturbations for this q vector is:
    1)    idir= 1    ipert=   5
    2)    idir= 2    ipert=   5
    3)    idir= 3    ipert=   5

 Perturbation wavevector (in red.coord.)   0.000000  0.000000  0.000000
 Perturbation : derivative vs k along direction   1

 dfpt_looppert : COMMENT -
  In a d/dk calculation, iscf is set to -3 automatically.
 The set of symmetries contains only one element for this perturbation.
 symkpt : not enough symmetry to change the number of k points.

[...]

 Initialisation of the first-order wave-functions :
  ireadwf=   0

--- !BeginCycle
iteration_state: {dtset: 1, }
solver: {iscf: 7, nstep: 100, nline: 4, wfoptalg: 0, }
tolerances: {tolwfr: 1.00E-20, }
...

     iter   2DEtotal(Ha)        deltaE(Ha) residm    vres2
-ETOT  1  -120.62664457785     -1.206E+02 3.239E-01 0.000E+00
 ETOT  2  -120.74804153617     -1.214E-01 9.739E-03 0.000E+00
 ETOT  3  -120.74873311681     -6.916E-04 9.083E-04 0.000E+00
 ETOT  4  -120.74874342376     -1.031E-05 4.217E-05 0.000E+00
 ETOT  5  -120.74874360840     -1.846E-07 5.241E-06 0.000E+00
 ETOT  6  -120.74874361207     -3.679E-09 2.707E-07 0.000E+00
 ETOT  7  -120.74874361215     -7.989E-11 3.647E-08 0.000E+00
 ETOT  8  -120.74874361216     -2.018E-12 2.093E-09 0.000E+00
 ETOT  9  -120.74874361216     -5.684E-14 3.444E-10 0.000E+00
 ETOT 10  -120.74874361216      1.137E-13 2.060E-11 0.000E+00
 ETOT 11  -120.74874361216     -2.842E-14 3.809E-12 0.000E+00
 ETOT 12  -120.74874361216      5.684E-14 2.146E-13 0.000E+00
 ETOT 13  -120.74874361216     -8.527E-14 4.031E-14 0.000E+00
 ETOT 14  -120.74874361216      5.684E-14 2.286E-15 0.000E+00
 ETOT 15  -120.74874361216     -2.842E-14 4.375E-16 0.000E+00
 ETOT 16  -120.74874361216      2.842E-14 2.484E-17 0.000E+00
 ETOT 17  -120.74874361216      1.421E-14 4.852E-18 0.000E+00
 ETOT 18  -120.74874361216     -4.263E-14 2.746E-19 0.000E+00
 ETOT 19  -120.74874361216      2.842E-14 5.487E-20 0.000E+00
 ETOT 20  -120.74874361216     -2.842E-14 9.918E-21 0.000E+00

 At SCF step   20   max residual=  9.92E-21 < tolwfr=  1.00E-20 =>converged.

 ----iterations are completed or convergence reached----

 dfpt_looppert: DFPT cycle converged with prtwf=-1. Will skip output of the 1st-order WFK file.
 dfpt_looppert : ek2=    1.2311255221E+02
          f-sum rule ratio=    1.1491424500E+00
 prteigrs : about to open file /scratch/users/j/a/jabreu/flow_simple_4atoms/flow/w178/t1/tmpdata/tmp_1WF1_EIG
 Expectation of eigenvalue derivatives (hartree) for nkpt=   2  k points:
  (in case of degenerate eigenvalues, averaged derivative)
 kpt#   1, nband= 40, wtk=  0.50000, kpt=  0.0000  0.0000  0.5000 (reduced coord)
   0.00000    0.00000   -0.00000   -0.00000    0.00000   -0.00000   -0.00000    0.00000
   0.00000    0.00000    0.00000   -0.00000   -0.00000    0.00000    0.00000    0.00000
   0.00000    0.00000    0.00000   -0.00000    0.00000    0.00000    0.00000    0.00000
  -0.00000   -0.00000   -0.00000    0.00000    0.00000   -0.00000   -0.00000    0.00000
   0.00000    0.00000   -0.00000   -0.00000    0.00000    0.00000   -0.00000   -0.00064
 prteigrs : prtvol=0 or 1, do not print more k-points.

 Eight components of 2nd-order total energy (hartree) are
 1,2,3: 0th-order hamiltonian combined with 1st-order wavefunctions
     kin0=   1.30166992E+02 eigvalue=   1.15343501E+01  local=  -5.43957914E+01
 4,5,6: 1st-order hamiltonian combined with 1st and 0th-order wfs
     kin1=  -1.41473860E+02  Hartree=   0.00000000E+00     xc=   0.00000000E+00
 7,8,9: eventually, occupation + non-local contributions
    edocc=   2.53709794E+01     enl0=   8.07221394E+00   enl1=  -1.00023627E+02
 1-9 gives the relaxation energy (to be shifted if some occ is /=2.0)
   erelax=  -1.20748744E+02
  No Ewald or frozen-wf contrib.: the relaxation energy is the total one
 2DEtotal=   -0.1207487436E+03 Ha. Also 2DEtotal=   -0.328574041304E+04 eV
    (  non-var. 2DEtotal :   -1.2074874361E+02 Ha)

 Perturbation wavevector (in red.coord.)   0.000000  0.000000  0.000000
 Perturbation : derivative vs k along direction   2
 The set of symmetries contains only one element for this perturbation.
 symkpt : not enough symmetry to change the number of k points.

[...]

 Perturbation wavevector (in red.coord.)   0.000000  0.000000  0.000000
 Perturbation : derivative vs k along direction   3
 The set of symmetries contains only one element for this perturbation.
 symkpt : not enough symmetry to change the number of k points.

-inwffil : will read wavefunctions from disk file /scratch/users/j/a/jabreu/flow_simple_4atoms/flow/w178/t1/indata/in_WFK

 Initialisation of the first-order wave-functions :
  ireadwf=   0

--- !BeginCycle
iteration_state: {dtset: 1, }
solver: {iscf: 7, nstep: 100, nline: 4, wfoptalg: 0, }
tolerances: {tolwfr: 1.00E-20, }
...

     iter   2DEtotal(Ha)        deltaE(Ha) residm    vres2
-ETOT  1  -30.864420111775     -3.086E+01 4.143E-02 0.000E+00
 ETOT  2  -30.886992904746     -2.257E-02 1.353E-03 0.000E+00
 ETOT  3  -30.887068884514     -7.598E-05 9.911E-05 0.000E+00
 ETOT  4  -30.887070183971     -1.299E-06 5.208E-06 0.000E+00
 ETOT  5  -30.887070214336     -3.037E-08 4.426E-07 0.000E+00
 ETOT  6  -30.887070215142     -8.058E-10 4.303E-08 0.000E+00
 ETOT  7  -30.887070215165     -2.273E-11 3.175E-09 0.000E+00
 ETOT  8  -30.887070215165     -6.999E-13 3.761E-10 0.000E+00
 ETOT  9  -30.887070215165     -1.421E-14 2.674E-11 0.000E+00
 ETOT 10  -30.887070215165     -3.553E-15 3.592E-12 0.000E+00
 ETOT 11  -30.887070215165     -1.066E-14 3.178E-13 0.000E+00
 ETOT 12  -30.887070215165     -7.105E-15 4.257E-14 0.000E+00
 ETOT 13  -30.887070215165      2.842E-14 3.763E-15 0.000E+00
 ETOT 14  -30.887070215165     -1.421E-14 5.152E-16 0.000E+00
 ETOT 15  -30.887070215165     -3.553E-15 4.550E-17 0.000E+00
 ETOT 16  -30.887070215165      3.553E-15 6.285E-18 0.000E+00
 ETOT 17  -30.887070215165      3.553E-15 5.555E-19 0.000E+00
 ETOT 18  -30.887070215165      3.553E-15 7.707E-20 0.000E+00
 ETOT 19  -30.887070215165     -7.105E-15 9.532E-21 0.000E+00

 At SCF step   19   max residual=  9.53E-21 < tolwfr=  1.00E-20 =>converged.

 ----iterations are completed or convergence reached----

 dfpt_looppert: DFPT cycle converged with prtwf=-1. Will skip output of the 1st-order WFK file.
 dfpt_looppert : ek2=    3.2842329583E+01
          f-sum rule ratio=    1.0735870371E+00
 prteigrs : about to open file /scratch/users/j/a/jabreu/flow_simple_4atoms/flow/w178/t1/tmpdata/tmp_1WF1_EIG
 Expectation of eigenvalue derivatives (hartree) for nkpt=   2  k points:
  (in case of degenerate eigenvalues, averaged derivative)
 kpt#   1, nband= 40, wtk=  0.50000, kpt=  0.0000  0.0000  0.5000 (reduced coord)
   0.00000   -0.00000   -0.00000   -0.00000    0.00000   -0.00000   -0.00000   -0.00000
  -0.00000    0.00000    0.00000   -0.00000   -0.00000    0.00000    0.00000   -0.00000
  -0.00000   -0.00000   -0.00000   -0.00000   -0.00000    0.00000    0.00000   -0.00000
  -0.00000   -0.00000    0.00000    0.00000    0.00000   -0.00000   -0.00000    0.00000
   0.00000    0.00000    0.00000    0.00000   -0.00000    0.00000   -0.00000    0.09707
 prteigrs : prtvol=0 or 1, do not print more k-points.

 Eight components of 2nd-order total energy (hartree) are
 1,2,3: 0th-order hamiltonian combined with 1st-order wavefunctions
     kin0=   3.37149547E+01 eigvalue=   3.30471142E+00  local=  -1.42290388E+01
 4,5,6: 1st-order hamiltonian combined with 1st and 0th-order wfs
     kin1=  -3.52590993E+01  Hartree=   0.00000000E+00     xc=   0.00000000E+00
 7,8,9: eventually, occupation + non-local contributions
    edocc=   5.80864181E+00     enl0=   2.28780115E+00   enl1=  -2.65150411E+01
 1-9 gives the relaxation energy (to be shifted if some occ is /=2.0)
   erelax=  -3.08870702E+01
  No Ewald or frozen-wf contrib.: the relaxation energy is the total one
 2DEtotal=   -0.3088707022E+02 Ha. Also 2DEtotal=   -0.840479923936E+03 eV
    (  non-var. 2DEtotal :   -3.0887070215E+01 Ha)

 CALCULATION OF EFFECTIVE MASSES
 NOTE : Additional infos (eff. mass eigenvalues, eigenvectors and, if degenerate, average mass) are available in stdout.

 COMMENTS:
 - At k-point ( 0.000, 0.000, 0.500), bands    30 through    31
   are DEGENERATE (effective mass tensor is therefore not defined).
   See Section IIIB Eqs. (67)-(70) and Appendix E of PRB 93 205147 (2016).
 - Angular average effective mass for Frohlich model is to be averaged over degenerate bands. See later.
 - Associated theta integrals calculated with ntheta=   1000 points.

 K-point ( 0.000, 0.000, 0.500) | band =    30
 Transport equivalent effective mass tensor:
             -0.1373204512             -0.0000017341              0.0000216900
             -0.0000017341             -0.1373218244             -0.0000019567
              0.0000216900             -0.0000019567             -0.4794476025
 Transport equivalent effective mass tensor eigenvalues:
             -0.4794476039             -0.1373230025             -0.1373192717
 Angular average effective mass 1/(<1/m>)=  -0.1603965742
 Angular average effective mass for Frohlich model (<m**0.5>)**2=  -0.1735463061
 Effective masses along directions: (cart. coord. / red. coord. -> eff. mass)
    1:   1.000000  0.000000  0.000000 /   0.894427 -0.447214  0.000000 ->  -0.1234070829
    2:   0.000000  1.000000  0.000000 /   0.000000  1.000000  0.000000 ->  -0.1234076448
    3:   0.000000  0.000000  1.000000 /   0.000000  0.000000  1.000000 ->  -0.4928335256
    4:   0.577350  0.577350  0.577350 /   0.503447  0.184274  0.844147 ->  -0.1445259059
    5:   0.000000  0.707107  0.707107 /   0.000000  0.458899  0.888488 ->  -0.2524010007
    6:   0.707107  0.000000  0.707107 /   0.496203 -0.248102  0.832002 ->  -0.1831694583
    7:   0.707107  0.707107  0.000000 /   0.939071  0.343724  0.000000 ->  -0.1234083098

 K-point ( 0.000, 0.000, 0.500) | band =    31
 Transport equivalent effective mass tensor:
             -0.6250557966             -0.0000023656              0.0000564060
             -0.0000023656             -0.6250555527             -0.0000074509
              0.0000564060             -0.0000074509             -1.2408315430
 Transport equivalent effective mass tensor eigenvalues:
             -1.2408315482             -0.6250580413             -0.6250533028
 Angular average effective mass 1/(<1/m>)=  -0.4329039543
 Angular average effective mass for Frohlich model (<m**0.5>)**2=  -0.4587785187
 Effective masses along directions: (cart. coord. / red. coord. -> eff. mass)
    1:   1.000000  0.000000  0.000000 /   0.894427 -0.447214  0.000000 ->  -0.3724970233
    2:   0.000000  1.000000  0.000000 /   0.000000  1.000000  0.000000 ->  -0.3724970256
    3:   0.000000  0.000000  1.000000 /   0.000000  0.000000  1.000000 ->  -0.4928916318
    4:   0.577350  0.577350  0.577350 /   0.503447  0.184274  0.844147 ->  -0.6151559366
    5:   0.000000  0.707107  0.707107 /   0.000000  0.458899  0.888488 ->  -0.2889440194
    6:   0.707107  0.000000  0.707107 /   0.496203 -0.248102  0.832002 ->  -0.5092010476
    7:   0.707107  0.707107  0.000000 /   0.939071  0.343724  0.000000 ->  -0.3724859525

 Angular average effective mass for Frohlich model, averaged over degenerate bands.
 Value of     (<<m**0.5>>)**2 =     2.991657E-01
 Absolute Value of <<m**0.5>> =     5.469604E-01

 K-point ( 0.500, 0.000, 0.500) | band =    32
 Effective mass tensor:
              0.8335136349              0.3322359863             -0.4009355561
              0.3322359863              0.4498805626             -0.2314802511
             -0.4009355561             -0.2314802511              0.6567027002
 Effective mass tensor eigenvalues:
              0.2580640265              0.3427153420              1.3393175292
 Angular average effective mass 1/(<1/m>)=   0.3979028008
 Angular average effective mass for Frohlich model (<m**0.5>)**2=   0.4447543932
 Effective masses along directions: (cart. coord. / red. coord. -> eff. mass)
    1:   1.000000  0.000000  0.000000 /   0.894427 -0.447214  0.000000 ->   0.4897676373
    2:   0.000000  1.000000  0.000000 /   0.000000  1.000000  0.000000 ->   0.3063788298
    3:   0.000000  0.000000  1.000000 /   0.000000  0.000000  1.000000 ->   0.4476652283
    4:   0.577350  0.577350  0.577350 /   0.503447  0.184274  0.844147 ->   0.3668242747
    5:   0.000000  0.707107  0.707107 /   0.000000  0.458899  0.888488 ->   0.3073913728
    6:   0.707107  0.000000  0.707107 /   0.496203 -0.248102  0.832002 ->   0.3320838797
    7:   0.707107  0.707107  0.000000 /   0.939071  0.343724  0.000000 ->   0.6271766356

 END OF EFFECTIVE MASSES SECTION

 ---- first-order wavefunction calculations are completed ----

 Total localisation tensor (bohr^2) in cartesian coordinates
  WARNING : still subject to testing - especially symmetries.
      direction              matrix element
   alpha     beta       real part   imaginary part
     1        1       3.9972605486    0.0000000000
     1        2      -1.5060761995    0.0000000000
     1        3       0.0000000000    0.0000000000
     2        1      -1.5060761995    0.0000000000
     2        2       2.6086004977    0.0000000000
     2        3       0.0000000000    0.0000000000
     3        1       0.0000000000    0.0000000000
     3        2       0.0000000000    0.0000000000
     3        3       1.6929918665    0.0000000000

 respfn : d/dk was computed, but no 2DTE, so no DDB output.

== END DATASET(S) ==============================================================

 -outvars: echo values of variables after computation  --------
            acell      1.0000000000E+00  1.0000000000E+00  1.0000000000E+00 Bohr
              amu      4.49559100E+01  1.07868200E+02  7.89600000E+01
             ecut      4.30000000E+01 Hartree
           etotal     -3.0887070215E+01
            fcart      0.0000000000E+00  0.0000000000E+00  0.0000000000E+00
                       0.0000000000E+00  0.0000000000E+00  0.0000000000E+00
                       0.0000000000E+00  0.0000000000E+00  0.0000000000E+00
                       0.0000000000E+00  0.0000000000E+00  0.0000000000E+00
-          fftalg         512
           irdden           1
           irdwfk           1
           istwfk        1    1
              ixc     -116133
              kpt      0.00000000E+00  0.00000000E+00  5.00000000E-01
                       5.00000000E-01  0.00000000E+00  5.00000000E-01
           kptopt           0
P           mkmem           2
P          mkqmem           2
P          mk1mem           2
            natom           4
            nband          40
           nbdbuf           4
            ngfft          45      45      75
             nkpt           2
            nstep         100
             nsym          12
           ntypat           3
              occ      2.000000  2.000000  2.000000  2.000000  2.000000  2.000000
                       2.000000  2.000000  2.000000  2.000000  2.000000  2.000000
                       2.000000  2.000000  2.000000  2.000000  2.000000  2.000000
                       2.000000  2.000000  2.000000  2.000000  2.000000  2.000000
                       2.000000  2.000000  2.000000  2.000000  2.000000  2.000000
                       2.000000  0.000000  0.000000  0.000000  0.000000  0.000000
                       0.000000  0.000000  0.000000  0.000000
        optdriver           1
            prtwf          -1
            rfdir           1       1       1
           rfelfd           2
            rprim      7.2812997813E+00  0.0000000000E+00  0.0000000000E+00
                      -3.6406498906E+00  6.3057905831E+00  0.0000000000E+00
                       0.0000000000E+00  0.0000000000E+00  1.2208821198E+01
          spgroup         164
           strten      0.0000000000E+00  0.0000000000E+00  0.0000000000E+00
                       0.0000000000E+00  0.0000000000E+00  0.0000000000E+00
           symrel      1  0  0   0  1  0   0  0  1      -1  0  0   0 -1  0   0  0 -1
                      -1  0  0   1  1  0   0  0  1       1  0  0  -1 -1  0   0  0 -1
                       0  1  0  -1 -1  0   0  0  1       0 -1  0   1  1  0   0  0 -1
                       0 -1  0  -1  0  0   0  0  1       0  1  0   1  0  0   0  0 -1
                      -1 -1  0   1  0  0   0  0  1       1  1  0  -1  0  0   0  0 -1
                       1  1  0   0 -1  0   0  0  1      -1 -1  0   0  1  0   0  0 -1
           tolwfr      1.00000000E-20
            typat      1  2  3  3
           useylm           1
              wtk        0.50000    0.50000
           xangst      0.0000000000E+00  0.0000000000E+00  0.0000000000E+00
                       0.0000000000E+00  0.0000000000E+00  3.2303149609E+00
                       1.9265489466E+00  1.1122935529E+00  4.9267600870E+00
                       1.7638771742E-11  2.2245871058E+00  1.5338698348E+00
            xcart      0.0000000000E+00  0.0000000000E+00  0.0000000000E+00
                       0.0000000000E+00  0.0000000000E+00  6.1044105991E+00
                       3.6406498907E+00  2.1019301944E+00  9.3102272869E+00
                       3.3332447913E-11  4.2038603887E+00  2.8985939112E+00
             xred      0.0000000000E+00  0.0000000000E+00  0.0000000000E+00
                       0.0000000000E+00  0.0000000000E+00  5.0000000000E-01
                       6.6666666667E-01  3.3333333333E-01  7.6258200000E-01
                       3.3333333333E-01  6.6666666667E-01  2.3741800000E-01
            znucl       21.00000   47.00000   34.00000

- Timing analysis has been suppressed with timopt=0

 Suggested references for the acknowledgment of ABINIT usage.

 Calculation completed.
.Delivered  14 WARNINGs and   9 COMMENTs to log file.