.Version 9.5.1 of ABINIT

 ABINIT is a project of the Universite Catholique de Louvain,
 Corning Inc. and other collaborators, see ~abinit/doc/developers/contributors.txt .
 acknowledgments of the ABINIT effort.

.Starting date : Tue  4 May 2021.
- ( at 19h14 )

- input  file    -> /scratch/users/j/a/jabreu/flow_simple_6atoms/flow/w160/t1/run.abi
- output file    -> /scratch/users/j/a/jabreu/flow_simple_6atoms/flow/w160/t1/run.abo
- root for input  files -> /scratch/users/j/a/jabreu/flow_simple_6atoms/flow/w160/t1/indata/in
- root for output files -> /scratch/users/j/a/jabreu/flow_simple_6atoms/flow/w160/t1/outdata/out

 Symmetries : space group P6_3/m m c (#194); Bravais hP (primitive hexag.)
     intxc =       0      iscf =       7    lmnmax =      18     lnmax =       6
     mgfft =     100  mpssoang =       3    mqgrid =    4943     natom =       6
  nloc_mem =       1    nspden =       1   nspinor =       1    nsppol =       1
      nsym =      24    n1xccc =    2501    ntypat =       3    occopt =       1
   xclevel =       2
-    mband =          37        mffmem =           1         mkmem =           2
-   mkqmem =           2        mk1mem =           2           mpw =       16303
      nfft =      291600          nkpt =           2
  Rough estimation (10% accuracy) of disk space for files :

------------- Echo of variables that govern the present computation ------------
-
- outvars: echo of selected default values
-   iomode0 =  0 , fftalg0 =512 , wfoptalg0 =  0
-
- outvars: echo of global parameters not present in the input file
-  max_nthreads =    0
-
 -outvars: echo values of preprocessed input variables --------
            acell      1.0000000000E+00  1.0000000000E+00  1.0000000000E+00 Bohr
              amu      1.37327000E+02  6.94100000E+00  1.21753000E+02
             ecut      4.20000000E+01 Hartree
-          fftalg         512
           irdden           1
           irdwfk           1
           istwfk        1    1
              ixc     -116133
              kpt      0.00000000E+00  0.00000000E+00  0.00000000E+00
                       5.00000000E-01  0.00000000E+00  0.00000000E+00
           kptopt           0
P           mkmem           2
P          mkqmem           2
P          mk1mem           2
            natom           6
            nband          37
           nbdbuf           4
            ngfft          54      54     100
             nkpt           2
            nstep        1000
             nsym          24
           ntypat           3
              occ      2.000000  2.000000  2.000000  2.000000  2.000000  2.000000
                       2.000000  2.000000  2.000000  2.000000  2.000000  2.000000
                       2.000000  2.000000  2.000000  2.000000  2.000000  2.000000
                       2.000000  2.000000  2.000000  2.000000  2.000000  2.000000
                       2.000000  2.000000  2.000000  2.000000  0.000000  0.000000
                       0.000000  0.000000  0.000000  0.000000  0.000000  0.000000
                       0.000000
        optdriver           1
            prtwf          -1
            rfdir           1       1       1
           rfelfd           2
            rprim      9.2226654501E+00  0.0000000000E+00  0.0000000000E+00
                      -4.6113327251E+00  7.9870625704E+00  0.0000000000E+00
                       0.0000000000E+00  0.0000000000E+00  1.6942754554E+01
          spgroup         194
           symrel      1  0  0   0  1  0   0  0  1      -1  0  0   0 -1  0   0  0 -1
                       0  1  0   1  0  0   0  0  1       0 -1  0  -1  0  0   0  0 -1
                       1  1  0  -1  0  0   0  0  1      -1 -1  0   1  0  0   0  0 -1
                      -1  0  0   1  1  0   0  0  1       1  0  0  -1 -1  0   0  0 -1
                       0  1  0  -1 -1  0   0  0  1       0 -1  0   1  1  0   0  0 -1
                      -1 -1  0   0  1  0   0  0  1       1  1  0   0 -1  0   0  0 -1
                      -1  0  0   0 -1  0   0  0  1       1  0  0   0  1  0   0  0 -1
                       0 -1  0  -1  0  0   0  0  1       0  1  0   1  0  0   0  0 -1
                      -1 -1  0   1  0  0   0  0  1       1  1  0  -1  0  0   0  0 -1
                       1  0  0  -1 -1  0   0  0  1      -1  0  0   1  1  0   0  0 -1
                       0 -1  0   1  1  0   0  0  1       0  1  0  -1 -1  0   0  0 -1
                       1  1  0   0 -1  0   0  0  1      -1 -1  0   0  1  0   0  0 -1
            tnons      0.0000000  0.0000000  0.0000000     0.0000000  0.0000000  0.0000000
                       0.0000000  0.0000000  0.5000000     0.0000000  0.0000000  0.5000000
                       0.0000000  0.0000000  0.5000000     0.0000000  0.0000000  0.5000000
                       0.0000000  0.0000000  0.0000000     0.0000000  0.0000000  0.0000000
                       0.0000000  0.0000000  0.0000000     0.0000000  0.0000000  0.0000000
                       0.0000000  0.0000000  0.5000000     0.0000000  0.0000000  0.5000000
                       0.0000000  0.0000000  0.5000000     0.0000000  0.0000000  0.5000000
                       0.0000000  0.0000000  0.0000000     0.0000000  0.0000000  0.0000000
                       0.0000000  0.0000000  0.0000000     0.0000000  0.0000000  0.0000000
                       0.0000000  0.0000000  0.5000000     0.0000000  0.0000000  0.5000000
                       0.0000000  0.0000000  0.5000000     0.0000000  0.0000000  0.5000000
                       0.0000000  0.0000000  0.0000000     0.0000000  0.0000000  0.0000000
           tolwfr      1.00000000E-20
            typat      1  1  2  2  3  3
           useylm           1
              wtk        0.50000    0.50000
           xangst      0.0000000000E+00  0.0000000000E+00  4.4828597804E+00
                       0.0000000000E+00  0.0000000000E+00 -4.9769741444E-16
                      -1.7639006744E-11  2.8177143172E+00  6.7242896706E+00
                       2.4402121793E+00  1.4088571586E+00  2.2414298902E+00
                      -1.7639006744E-11  2.8177143172E+00  2.2414298902E+00
                       2.4402121793E+00  1.4088571586E+00  6.7242896706E+00
            xcart      0.0000000000E+00  0.0000000000E+00  8.4713772771E+00
                       0.0000000000E+00  0.0000000000E+00 -9.4051181033E-16
                      -3.3332892002E-11  5.3247083803E+00  1.2707065916E+01
                       4.6113327250E+00  2.6623541901E+00  4.2356886385E+00
                      -3.3332892002E-11  5.3247083803E+00  4.2356886385E+00
                       4.6113327250E+00  2.6623541901E+00  1.2707065916E+01
             xred      0.0000000000E+00  0.0000000000E+00  5.0000000000E-01
                       0.0000000000E+00  0.0000000000E+00 -5.5511151231E-17
                       3.3333333333E-01  6.6666666667E-01  7.5000000000E-01
                       6.6666666667E-01  3.3333333333E-01  2.5000000000E-01
                       3.3333333333E-01  6.6666666667E-01  2.5000000000E-01
                       6.6666666667E-01  3.3333333333E-01  7.5000000000E-01
            znucl       56.00000    3.00000   51.00000

 chkinp: Checking input parameters for consistency.

== DATASET  1 ==================================================================
-   mpi_nproc: 1, omp_nthreads: -1 (-1 if OMP is not activated)

--- !DatasetInfo
iteration_state: {dtset: 1, }
dimensions: {natom: 6, nkpt: 2, mband: 37, nsppol: 1, nspinor: 1, nspden: 1, mpw: 16303, }
cutoff_energies: {ecut:  42.0, pawecutdg:  -1.0, }
electrons: {nelect:   5.60000000E+01, charge:   0.00000000E+00, occopt:   1.00000000E+00, tsmear:   1.00000000E-02, }
meta: {optdriver: 1, rfelfd: 2, }
...

 Real(R)+Recip(G) space primitive vectors, cartesian coordinates (Bohr,Bohr^-1):
 R(1)=  9.2226655  0.0000000  0.0000000  G(1)=  0.1084285  0.0626012  0.0000000
 R(2)= -4.6113327  7.9870626  0.0000000  G(2)=  0.0000000  0.1252025  0.0000000
 R(3)=  0.0000000  0.0000000 16.9427546  G(3)=  0.0000000  0.0000000  0.0590223
 Unit cell volume ucvol=  1.2480373E+03 bohr^3
 Angles (23,13,12)=  9.00000000E+01  9.00000000E+01  1.20000000E+02 degrees

 getcut: wavevector=  0.0000  0.0000  0.0000  ngfft=  54  54 100
         ecut(hartree)=     42.000   => boxcut(ratio)=   2.00746

--- Pseudopotential description ------------------------------------------------
- pspini: atom type   1  psp file is /scratch/users/j/a/jabreu/pseudos/PBEsol/Ba.psp8
- pspatm: opening atomic psp file    /scratch/users/j/a/jabreu/pseudos/PBEsol/Ba.psp8
- Ba    ONCVPSP-3.3.0  r_core=   2.15444   1.91218   2.15444
- 56.00000  10.00000    180112                znucl, zion, pspdat
    8 -116133    2    4       600   0.00000   pspcod,pspxc,lmax,lloc,mmax,r2well
    5.99000000000000    5.00000000000000    0.00000000000000   rchrg,fchrg,qchrg
     nproj     2     2     2
     extension_switch     1
  pspatm : epsatm=   26.37418029
         --- l  ekb(1:nproj) -->
             0    6.652372    0.677024
             1    5.027722    0.408462
             2    2.543237    0.416854
 pspatm: atomic psp has been read  and splines computed

- pspini: atom type   2  psp file is /scratch/users/j/a/jabreu/pseudos/PBEsol/Li.psp8
- pspatm: opening atomic psp file    /scratch/users/j/a/jabreu/pseudos/PBEsol/Li.psp8
- Li    ONCVPSP-3.3.0  r_core=   1.40824   1.10935
-  3.00000   3.00000    180112                znucl, zion, pspdat
    8 -116133    1    4       400   0.00000   pspcod,pspxc,lmax,lloc,mmax,r2well
    3.99000000000000    0.00000000000000    0.00000000000000   rchrg,fchrg,qchrg
     nproj     2     2
     extension_switch     1
  pspatm : epsatm=    2.60859637
         --- l  ekb(1:nproj) -->
             0   -4.855856   -1.482423
             1   -2.171544   -0.427615
 pspatm: atomic psp has been read  and splines computed

- pspini: atom type   3  psp file is /scratch/users/j/a/jabreu/pseudos/PBEsol/Sb.psp8
- pspatm: opening atomic psp file    /scratch/users/j/a/jabreu/pseudos/PBEsol/Sb.psp8
- Sb    ONCVPSP-3.3.0  r_core=   1.81962   2.12485   1.81962
- 51.00000  15.00000    180112                znucl, zion, pspdat
    8 -116133    2    4       600   0.00000   pspcod,pspxc,lmax,lloc,mmax,r2well
    5.99000000000000    5.00000000000000    0.00000000000000   rchrg,fchrg,qchrg
     nproj     2     2     2
     extension_switch     1
  pspatm : epsatm=   26.35641246
         --- l  ekb(1:nproj) -->
             0    9.727814    1.485032
             1    5.505335    0.704623
             2   -4.710637   -1.436443
 pspatm: atomic psp has been read  and splines computed

   6.19798918E+03                                ecore*ucvol(ha*bohr**3)

-inwffil : will read wavefunctions from disk file /scratch/users/j/a/jabreu/flow_simple_6atoms/flow/w160/t1/indata/in_WFK

 ==>  initialize data related to q vector <==

 The list of irreducible perturbations for this q vector is:
    1)    idir= 1    ipert=   7
    2)    idir= 2    ipert=   7
    3)    idir= 3    ipert=   7

 Perturbation wavevector (in red.coord.)   0.000000  0.000000  0.000000
 Perturbation : derivative vs k along direction   1

 dfpt_looppert : COMMENT -
  In a d/dk calculation, iscf is set to -3 automatically.
[...]
 ETOT 15  -65.460328091449      1.421E-14 2.802E-12 0.000E+00
 ETOT 16  -65.460328091449      0.000E+00 2.822E-13 0.000E+00
 ETOT 17  -65.460328091449      0.000E+00 1.177E-13 0.000E+00
 ETOT 18  -65.460328091449      0.000E+00 1.177E-14 0.000E+00
 ETOT 19  -65.460328091449      0.000E+00 4.960E-15 0.000E+00
 ETOT 20  -65.460328091449      0.000E+00 4.949E-16 0.000E+00
 ETOT 21  -65.460328091449     -1.421E-14 2.095E-16 0.000E+00
 ETOT 22  -65.460328091449      0.000E+00 2.088E-17 0.000E+00
 ETOT 23  -65.460328091449      0.000E+00 8.853E-18 0.000E+00
 ETOT 24  -65.460328091449      1.421E-14 8.822E-19 0.000E+00
 ETOT 25  -65.460328091449      0.000E+00 3.743E-19 0.000E+00
 ETOT 26  -65.460328091449      1.421E-14 3.730E-20 0.000E+00
 ETOT 27  -65.460328091449      0.000E+00 1.583E-20 0.000E+00
 ETOT 28  -65.460328091449     -1.421E-14 9.887E-21 0.000E+00

 At SCF step   28   max residual=  9.89E-21 < tolwfr=  1.00E-20 =>converged.

 ----iterations are completed or convergence reached----

 dfpt_looppert: DFPT cycle converged with prtwf=-1. Will skip output of the 1st-order WFK file.
 dfpt_looppert : ek2=    6.9311226820E+01
          f-sum rule ratio=    1.2005666340E+00
 prteigrs : about to open file /scratch/users/j/a/jabreu/flow_simple_6atoms/flow/w160/t1/tmpdata/tmp_1WF1_EIG
 Expectation of eigenvalue derivatives (hartree) for nkpt=   2  k points:
  (in case of degenerate eigenvalues, averaged derivative)
 kpt#   1, nband= 37, wtk=  0.50000, kpt=  0.0000  0.0000  0.0000 (reduced coord)
  -0.00000   -0.00000    0.00000    0.00000   -0.00000   -0.00000   -0.00000   -0.00000
  -0.00000   -0.00000    0.00000    0.00000   -0.00000   -0.00000   -0.00000   -0.00000
  -0.00000    0.00000   -0.00000   -0.00000    0.00000    0.00000   -0.00000    0.00000
   0.00000    0.00000    0.00000    0.00000    0.00000   -0.00000   -0.00000    0.00000
   0.00000    0.00000    0.00000    0.00202    0.00115
 prteigrs : prtvol=0 or 1, do not print more k-points.

 Eight components of 2nd-order total energy (hartree) are
 1,2,3: 0th-order hamiltonian combined with 1st-order wavefunctions
     kin0=   6.96843024E+01 eigvalue=   7.78412567E+00  local=  -4.33760927E+01
 4,5,6: 1st-order hamiltonian combined with 1st and 0th-order wfs
     kin1=  -8.32127463E+01  Hartree=   0.00000000E+00     xc=   0.00000000E+00
 7,8,9: eventually, occupation + non-local contributions
    edocc=   1.85419256E+01     enl0=   1.28260672E+01   enl1=  -4.77079099E+01
 1-9 gives the relaxation energy (to be shifted if some occ is /=2.0)
   erelax=  -6.54603281E+01
  No Ewald or frozen-wf contrib.: the relaxation energy is the total one
 2DEtotal=   -0.6546032809E+02 Ha. Also 2DEtotal=   -0.178126611530E+04 eV
    (  non-var. 2DEtotal :   -6.5460328091E+01 Ha)

 Perturbation wavevector (in red.coord.)   0.000000  0.000000  0.000000
 Perturbation : derivative vs k along direction   2
 The set of symmetries contains only one element for this perturbation.
 symkpt : not enough symmetry to change the number of k points.

[...]

 Perturbation wavevector (in red.coord.)   0.000000  0.000000  0.000000
 Perturbation : derivative vs k along direction   3
 The set of symmetries contains only one element for this perturbation.
 symkpt : not enough symmetry to change the number of k points.

-inwffil : will read wavefunctions from disk file /scratch/users/j/a/jabreu/flow_simple_6atoms/flow/w160/t1/indata/in_WFK

 Initialisation of the first-order wave-functions :
  ireadwf=   0

--- !BeginCycle
iteration_state: {dtset: 1, }
solver: {iscf: 7, nstep: 1000, nline: 4, wfoptalg: 0, }
tolerances: {tolwfr: 1.00E-20, }
...

     iter   2DEtotal(Ha)        deltaE(Ha) residm    vres2
-ETOT  1  -14.914471530708     -1.491E+01 3.067E-02 0.000E+00
 ETOT  2  -14.920587891972     -6.116E-03 7.767E-04 0.000E+00
 ETOT  3  -14.920591268038     -3.376E-06 2.217E-05 0.000E+00
 ETOT  4  -14.920591275250     -7.212E-09 6.874E-07 0.000E+00
 ETOT  5  -14.920591275294     -4.422E-11 3.041E-08 0.000E+00
 ETOT  6  -14.920591275295     -3.659E-13 3.082E-09 0.000E+00
 ETOT  7  -14.920591275295      1.954E-14 3.670E-10 0.000E+00
 ETOT  8  -14.920591275295     -2.309E-14 4.173E-11 0.000E+00
 ETOT  9  -14.920591275295      0.000E+00 5.535E-12 0.000E+00
 ETOT 10  -14.920591275295      1.243E-14 6.266E-13 0.000E+00
 ETOT 11  -14.920591275295     -3.553E-15 8.635E-14 0.000E+00
 ETOT 12  -14.920591275295     -1.776E-15 9.633E-15 0.000E+00
 ETOT 13  -14.920591275295      0.000E+00 1.352E-15 0.000E+00
 ETOT 14  -14.920591275295      0.000E+00 1.492E-16 0.000E+00
 ETOT 15  -14.920591275295      0.000E+00 2.116E-17 0.000E+00
 ETOT 16  -14.920591275295      0.000E+00 2.318E-18 0.000E+00
 ETOT 17  -14.920591275295      0.000E+00 3.311E-19 0.000E+00
 ETOT 18  -14.920591275295      0.000E+00 3.607E-20 0.000E+00
 ETOT 19  -14.920591275295      0.000E+00 9.890E-21 0.000E+00

 At SCF step   19   max residual=  9.89E-21 < tolwfr=  1.00E-20 =>converged.

 ----iterations are completed or convergence reached----

 dfpt_looppert: DFPT cycle converged with prtwf=-1. Will skip output of the 1st-order WFK file.
 dfpt_looppert : ek2=    1.5403156240E+01
          f-sum rule ratio=    1.2471494816E+00
 prteigrs : about to open file /scratch/users/j/a/jabreu/flow_simple_6atoms/flow/w160/t1/tmpdata/tmp_1WF1_EIG
 Expectation of eigenvalue derivatives (hartree) for nkpt=   2  k points:
  (in case of degenerate eigenvalues, averaged derivative)
 kpt#   1, nband= 37, wtk=  0.50000, kpt=  0.0000  0.0000  0.0000 (reduced coord)
  -0.00000   -0.00000   -0.00000    0.00000   -0.00000   -0.00000   -0.00000   -0.00000
  -0.00000   -0.00000   -0.00000   -0.00000    0.00000    0.00000    0.00000   -0.00000
  -0.00000   -0.00000    0.00000    0.00000   -0.00000   -0.00000    0.00000   -0.00000
  -0.00000   -0.00000   -0.00000    0.00000    0.00000   -0.00000   -0.00000   -0.00000
   0.00000    0.00000   -0.00000    0.01270   -0.05653
 prteigrs : prtvol=0 or 1, do not print more k-points.

 Eight components of 2nd-order total energy (hartree) are
 1,2,3: 0th-order hamiltonian combined with 1st-order wavefunctions
     kin0=   1.42953275E+01 eigvalue=   2.09727261E+00  local=  -8.75799485E+00
 4,5,6: 1st-order hamiltonian combined with 1st and 0th-order wfs
     kin1=  -1.92100383E+01  Hartree=   0.00000000E+00     xc=   0.00000000E+00
 7,8,9: eventually, occupation + non-local contributions
    edocc=   4.67690713E+00     enl0=   2.60907884E+00   enl1=  -1.06311442E+01
 1-9 gives the relaxation energy (to be shifted if some occ is /=2.0)
   erelax=  -1.49205913E+01
  No Ewald or frozen-wf contrib.: the relaxation energy is the total one
 2DEtotal=   -0.1492059128E+02 Ha. Also 2DEtotal=   -0.406009936610E+03 eV
    (  non-var. 2DEtotal :   -1.4920591275E+01 Ha)

 CALCULATION OF EFFECTIVE MASSES
 NOTE : Additional infos (eff. mass eigenvalues, eigenvectors and, if degenerate, average mass) are available in stdout.

 K-point ( 0.000, 0.000, 0.000) | band =    28
 Effective mass tensor:
             -0.5151308595              0.0000455123              0.0000051858
              0.0000455123             -0.5166805121              0.0000035296
              0.0000051858              0.0000035296             -0.0706217735
 Effective mass tensor eigenvalues:
             -0.5166818476             -0.5151295240             -0.0706217734
 Angular average effective mass 1/(<1/m>)=  -0.1663282322
 Angular average effective mass for Frohlich model (<m**0.5>)**2=  -0.2231161005
 Effective masses along directions: (cart. coord. / red. coord. -> eff. mass)
    1:   1.000000  0.000000  0.000000 /   0.894427 -0.447214  0.000000 ->  -0.5151308551
    2:   0.000000  1.000000  0.000000 /   0.000000  1.000000  0.000000 ->  -0.5166805079
    3:   0.000000  0.000000  1.000000 /   0.000000  0.000000  1.000000 ->  -0.0706217734
    4:   0.577350  0.577350  0.577350 /   0.470943  0.172377  0.865158 ->  -0.1663206653
    5:   0.000000  0.707107  0.707107 /   0.000000  0.426409  0.904531 ->  -0.1242578355
    6:   0.707107  0.000000  0.707107 /   0.464998 -0.232499  0.854237 ->  -0.1242121967
    7:   0.707107  0.707107  0.000000 /   0.939071  0.343724  0.000000 ->  -0.5158590094

 K-point ( 0.500, 0.000, 0.000) | band =    29
 Effective mass tensor:
              0.8340151933              0.3986897631              0.0000000012
              0.3986897631              0.3736479094              0.0000000006
              0.0000000012              0.0000000006              0.7133993678
 Effective mass tensor eigenvalues:
              0.1434642673              0.7133993678              1.0641988354
 Angular average effective mass 1/(<1/m>)=   0.3221722064
 Angular average effective mass for Frohlich model (<m**0.5>)**2=   0.4113189206
 Effective masses along directions: (cart. coord. / red. coord. -> eff. mass)
    1:   1.000000  0.000000  0.000000 /   0.894427 -0.447214  0.000000 ->   0.4086052734
    2:   0.000000  1.000000  0.000000 /   0.000000  1.000000  0.000000 ->   0.1830596222
    3:   0.000000  0.000000  1.000000 /   0.000000  0.000000  1.000000 ->   0.7133993678
    4:   0.577350  0.577350  0.577350 /   0.470943  0.172377  0.865158 ->   0.7336670301
    5:   0.000000  0.707107  0.707107 /   0.000000  0.426409  0.904531 ->   0.2913565934
    6:   0.707107  0.000000  0.707107 /   0.464998 -0.232499  0.854237 ->   0.5196034550
    7:   0.707107  0.707107  0.000000 /   0.939071  0.343724  0.000000 ->   0.7442389358

 END OF EFFECTIVE MASSES SECTION

 ---- first-order wavefunction calculations are completed ----

 Total localisation tensor (bohr^2) in cartesian coordinates
  WARNING : still subject to testing - especially symmetries.
      direction              matrix element
   alpha     beta       real part   imaginary part
     1        1       5.3431129679    0.0000000000
     1        2      -2.1899551140    0.0000000000
     1        3       0.0000000000    0.0000000000
     2        1      -2.1899551140    0.0000000000
     2        2       3.7931135237    0.0000000000
     2        3       0.0000000000    0.0000000000
     3        1       0.0000000000    0.0000000000
     3        2       0.0000000000    0.0000000000
     3        3       5.5008879921    0.0000000000

 respfn : d/dk was computed, but no 2DTE, so no DDB output.

== END DATASET(S) ==============================================================

 -outvars: echo values of variables after computation  --------
            acell      1.0000000000E+00  1.0000000000E+00  1.0000000000E+00 Bohr
              amu      1.37327000E+02  6.94100000E+00  1.21753000E+02
             ecut      4.20000000E+01 Hartree
           etotal     -1.4920591275E+01
            fcart      0.0000000000E+00  0.0000000000E+00  0.0000000000E+00
                       0.0000000000E+00  0.0000000000E+00  0.0000000000E+00
                       0.0000000000E+00  0.0000000000E+00  0.0000000000E+00
                       0.0000000000E+00  0.0000000000E+00  0.0000000000E+00
                       0.0000000000E+00  0.0000000000E+00  0.0000000000E+00
                       0.0000000000E+00  0.0000000000E+00  0.0000000000E+00
-          fftalg         512
           irdden           1
           irdwfk           1
           istwfk        1    1
              ixc     -116133
              kpt      0.00000000E+00  0.00000000E+00  0.00000000E+00
                       5.00000000E-01  0.00000000E+00  0.00000000E+00
           kptopt           0
P           mkmem           2
P          mkqmem           2
P          mk1mem           2
            natom           6
            nband          37
           nbdbuf           4
            ngfft          54      54     100
             nkpt           2
            nstep        1000
             nsym          24
           ntypat           3
              occ      2.000000  2.000000  2.000000  2.000000  2.000000  2.000000
                       2.000000  2.000000  2.000000  2.000000  2.000000  2.000000
                       2.000000  2.000000  2.000000  2.000000  2.000000  2.000000
                       2.000000  2.000000  2.000000  2.000000  2.000000  2.000000
                       2.000000  2.000000  2.000000  2.000000  0.000000  0.000000
                       0.000000  0.000000  0.000000  0.000000  0.000000  0.000000
                       0.000000
        optdriver           1
            prtwf          -1
            rfdir           1       1       1
           rfelfd           2
            rprim      9.2226654501E+00  0.0000000000E+00  0.0000000000E+00
                      -4.6113327251E+00  7.9870625704E+00  0.0000000000E+00
                       0.0000000000E+00  0.0000000000E+00  1.6942754554E+01
          spgroup         194
           strten      0.0000000000E+00  0.0000000000E+00  0.0000000000E+00
                       0.0000000000E+00  0.0000000000E+00  0.0000000000E+00
           symrel      1  0  0   0  1  0   0  0  1      -1  0  0   0 -1  0   0  0 -1
                       0  1  0   1  0  0   0  0  1       0 -1  0  -1  0  0   0  0 -1
                       1  1  0  -1  0  0   0  0  1      -1 -1  0   1  0  0   0  0 -1
                      -1  0  0   1  1  0   0  0  1       1  0  0  -1 -1  0   0  0 -1
                       0  1  0  -1 -1  0   0  0  1       0 -1  0   1  1  0   0  0 -1
                      -1 -1  0   0  1  0   0  0  1       1  1  0   0 -1  0   0  0 -1
                      -1  0  0   0 -1  0   0  0  1       1  0  0   0  1  0   0  0 -1
                       0 -1  0  -1  0  0   0  0  1       0  1  0   1  0  0   0  0 -1
                      -1 -1  0   1  0  0   0  0  1       1  1  0  -1  0  0   0  0 -1
                       1  0  0  -1 -1  0   0  0  1      -1  0  0   1  1  0   0  0 -1
                       0 -1  0   1  1  0   0  0  1       0  1  0  -1 -1  0   0  0 -1
                       1  1  0   0 -1  0   0  0  1      -1 -1  0   0  1  0   0  0 -1
            tnons      0.0000000  0.0000000  0.0000000     0.0000000  0.0000000  0.0000000
                       0.0000000  0.0000000  0.5000000     0.0000000  0.0000000  0.5000000
                       0.0000000  0.0000000  0.5000000     0.0000000  0.0000000  0.5000000
                       0.0000000  0.0000000  0.0000000     0.0000000  0.0000000  0.0000000
                       0.0000000  0.0000000  0.0000000     0.0000000  0.0000000  0.0000000
                       0.0000000  0.0000000  0.5000000     0.0000000  0.0000000  0.5000000
                       0.0000000  0.0000000  0.5000000     0.0000000  0.0000000  0.5000000
                       0.0000000  0.0000000  0.0000000     0.0000000  0.0000000  0.0000000
                       0.0000000  0.0000000  0.0000000     0.0000000  0.0000000  0.0000000
                       0.0000000  0.0000000  0.5000000     0.0000000  0.0000000  0.5000000
                       0.0000000  0.0000000  0.5000000     0.0000000  0.0000000  0.5000000
                       0.0000000  0.0000000  0.0000000     0.0000000  0.0000000  0.0000000
           tolwfr      1.00000000E-20
            typat      1  1  2  2  3  3
           useylm           1
              wtk        0.50000    0.50000
           xangst      0.0000000000E+00  0.0000000000E+00  4.4828597804E+00
                       0.0000000000E+00  0.0000000000E+00 -4.9769741444E-16
                      -1.7639006744E-11  2.8177143172E+00  6.7242896706E+00
                       2.4402121793E+00  1.4088571586E+00  2.2414298902E+00
                      -1.7639006744E-11  2.8177143172E+00  2.2414298902E+00
                       2.4402121793E+00  1.4088571586E+00  6.7242896706E+00
            xcart      0.0000000000E+00  0.0000000000E+00  8.4713772771E+00
                       0.0000000000E+00  0.0000000000E+00 -9.4051181033E-16
                      -3.3332892002E-11  5.3247083803E+00  1.2707065916E+01
                       4.6113327250E+00  2.6623541901E+00  4.2356886385E+00
                      -3.3332892002E-11  5.3247083803E+00  4.2356886385E+00
                       4.6113327250E+00  2.6623541901E+00  1.2707065916E+01
             xred      0.0000000000E+00  0.0000000000E+00  5.0000000000E-01
                       0.0000000000E+00  0.0000000000E+00 -5.5511151231E-17
                       3.3333333333E-01  6.6666666667E-01  7.5000000000E-01
                       6.6666666667E-01  3.3333333333E-01  2.5000000000E-01
                       3.3333333333E-01  6.6666666667E-01  2.5000000000E-01
                       6.6666666667E-01  3.3333333333E-01  7.5000000000E-01
            znucl       56.00000    3.00000   51.00000

- Timing analysis has been suppressed with timopt=0

 Suggested references for the acknowledgment of ABINIT usage.

 Calculation completed.
.Delivered  14 WARNINGs and   9 COMMENTs to log file.