.Version 9.5.1 of ABINIT

 ABINIT is a project of the Universite Catholique de Louvain,
 Corning Inc. and other collaborators, see ~abinit/doc/developers/contributors.txt .
 acknowledgments of the ABINIT effort.

.Starting date : Tue 27 Apr 2021.
- ( at 18h46 )

- input  file    -> /scratch/users/j/a/jabreu/flow_simple_4atoms/flow/w257/t1/run.abi
- output file    -> /scratch/users/j/a/jabreu/flow_simple_4atoms/flow/w257/t1/run.abo
- root for input  files -> /scratch/users/j/a/jabreu/flow_simple_4atoms/flow/w257/t1/indata/in
- root for output files -> /scratch/users/j/a/jabreu/flow_simple_4atoms/flow/w257/t1/outdata/out

 Symmetries : space group R-3 m (#166); Bravais hR (rhombohedral)
     intxc =       0      iscf =       7    lmnmax =      18     lnmax =       6
     mgfft =      80  mpssoang =       3    mqgrid =    3001     natom =       4
  nloc_mem =       1    nspden =       1   nspinor =       1    nsppol =       1
      nsym =      12    n1xccc =    2501    ntypat =       3    occopt =       1
   xclevel =       2
-    mband =          25        mffmem =           1         mkmem =           1
-   mkqmem =           1        mk1mem =           1           mpw =        7902
      nfft =      512000          nkpt =           1
  Rough estimation (10% accuracy) of disk space for files :

------------- Echo of variables that govern the present computation ------------
-
- outvars: echo of selected default values
-   iomode0 =  0 , fftalg0 =512 , wfoptalg0 =  0
-
- outvars: echo of global parameters not present in the input file
-  max_nthreads =    0
-
 -outvars: echo values of preprocessed input variables --------
            acell      1.0000000000E+00  1.0000000000E+00  1.0000000000E+00 Bohr
              amu      1.37327000E+02  1.40067400E+01  1.89984032E+01
             ecut      4.20000000E+01 Hartree
-          fftalg         512
           irdden           1
           irdwfk           1
           istwfk        1
              ixc     -116133
              kpt      5.00000000E-01  5.00000000E-01  0.00000000E+00
           kptopt           0
P           mkmem           1
P          mkqmem           1
P          mk1mem           1
            natom           4
            nband          25
           nbdbuf           4
            ngfft          80      80      80
             nkpt           1
            nstep         100
             nsym          12
           ntypat           3
              occ      2.000000  2.000000  2.000000  2.000000  2.000000  2.000000
                       2.000000  2.000000  2.000000  2.000000  2.000000  2.000000
                       2.000000  2.000000  2.000000  2.000000  0.000000  0.000000
                       0.000000  0.000000  0.000000  0.000000  0.000000  0.000000
                       0.000000
        optdriver           1
            prtwf          -1
            rfdir           1       1       1
           rfelfd           2
            rprim      7.1796009174E+00  0.0000000000E+00  1.1122946538E+01
                       3.2780170352E+00  6.3875874671E+00  1.1122946538E+01
                       0.0000000000E+00  0.0000000000E+00  1.3238829594E+01
          spgroup         166
           symrel      1  0  0   0  1  0   0  0  1      -1  0  0   0 -1  0   0  0 -1
                       0  1  0   1  0  0   0  0  1       0 -1  0  -1  0  0   0  0 -1
                       0  0  1   1  0  0   0  1  0       0  0 -1  -1  0  0   0 -1  0
                       1  0  0   0  0  1   0  1  0      -1  0  0   0  0 -1   0 -1  0
                       0  1  0   0  0  1   1  0  0       0 -1  0   0  0 -1  -1  0  0
                       0  0  1   0  1  0   1  0  0       0  0 -1   0 -1  0  -1  0  0
           tolwfr      1.00000000E-20
            typat      1  1  2  3
           useylm           1
           xangst      1.3411763508E+00  8.1920005955E-01  4.5508710562E+00
                       4.1927567259E+00  2.5609656459E+00  1.4226835433E+01
                       2.7669665383E+00  1.6900828527E+00  9.3888532447E+00
                       0.0000000000E+00  0.0000000000E+00  0.0000000000E+00
            xcart      2.5344559989E+00  1.5480637606E+00  8.5998999624E+00
                       7.9231619537E+00  4.8395237065E+00  2.6884822706E+01
                       5.2288089763E+00  3.1937937336E+00  1.7742361334E+01
                       0.0000000000E+00  0.0000000000E+00  0.0000000000E+00
             xred      2.4235500000E-01  2.4235500000E-01  2.4235500000E-01
                       7.5764500000E-01  7.5764500000E-01  7.5764500000E-01
                       5.0000000000E-01  5.0000000000E-01  5.0000000000E-01
                       0.0000000000E+00  0.0000000000E+00  0.0000000000E+00
            znucl       56.00000    7.00000    9.00000

 chkinp: Checking input parameters for consistency.

== DATASET  1 ==================================================================
-   mpi_nproc: 1, omp_nthreads: -1 (-1 if OMP is not activated)

--- !DatasetInfo
iteration_state: {dtset: 1, }
dimensions: {natom: 4, nkpt: 1, mband: 25, nsppol: 1, nspinor: 1, nspden: 1, mpw: 7902, }
cutoff_energies: {ecut:  42.0, pawecutdg:  -1.0, }
electrons: {nelect:   3.20000000E+01, charge:   0.00000000E+00, occopt:   1.00000000E+00, tsmear:   1.00000000E-02, }
meta: {optdriver: 1, rfelfd: 2, }
...

 Real(R)+Recip(G) space primitive vectors, cartesian coordinates (Bohr,Bohr^-1):
 R(1)=  7.1796009  0.0000000 11.1229465  G(1)=  0.1392835 -0.0714783  0.0000000
 R(2)=  3.2780170  6.3875875 11.1229465  G(2)=  0.0000000  0.1565536  0.0000000
 R(3)=  0.0000000  0.0000000 13.2388296  G(3)= -0.1170227 -0.0714783  0.0755354
 Unit cell volume ucvol=  6.0713708E+02 bohr^3
 Angles (23,13,12)=  3.28412934E+01  3.28412934E+01  3.28412934E+01 degrees

 getcut: wavevector=  0.0000  0.0000  0.0000  ngfft=  80  80  80
         ecut(hartree)=     42.000   => boxcut(ratio)=   2.07180

--- Pseudopotential description ------------------------------------------------
- pspini: atom type   1  psp file is /scratch/users/j/a/jabreu/pseudos/PBEsol/Ba.psp8
- pspatm: opening atomic psp file    /scratch/users/j/a/jabreu/pseudos/PBEsol/Ba.psp8
- Ba    ONCVPSP-3.3.0  r_core=   2.15444   1.91218   2.15444
- 56.00000  10.00000    180112                znucl, zion, pspdat
    8 -116133    2    4       600   0.00000   pspcod,pspxc,lmax,lloc,mmax,r2well
    5.99000000000000    5.00000000000000    0.00000000000000   rchrg,fchrg,qchrg
     nproj     2     2     2
     extension_switch     1
  pspatm : epsatm=   26.37418029
         --- l  ekb(1:nproj) -->
             0    6.652372    0.677024
             1    5.027722    0.408462
             2    2.543237    0.416854
 pspatm: atomic psp has been read  and splines computed

- pspini: atom type   2  psp file is /scratch/users/j/a/jabreu/pseudos/PBEsol/N.psp8
- pspatm: opening atomic psp file    /scratch/users/j/a/jabreu/pseudos/PBEsol/N.psp8
- N     ONCVPSP-3.3.0  r_core=   1.20551   1.35824
-  7.00000   5.00000    180112                znucl, zion, pspdat
    8 -116133    1    4       600   0.00000   pspcod,pspxc,lmax,lloc,mmax,r2well
    5.99000000000000    4.00000000000000    0.00000000000000   rchrg,fchrg,qchrg
     nproj     2     2
     extension_switch     1
  pspatm : epsatm=    5.26508895
         --- l  ekb(1:nproj) -->
             0    7.464189    0.625868
             1   -4.309714   -1.012941
 pspatm: atomic psp has been read  and splines computed

- pspini: atom type   3  psp file is /scratch/users/j/a/jabreu/pseudos/PBEsol/F.psp8
- pspatm: opening atomic psp file    /scratch/users/j/a/jabreu/pseudos/PBEsol/F.psp8
- F     ONCVPSP-3.3.0  r_core=   1.30942   1.45782   1.60379
-  9.00000   7.00000    180112                znucl, zion, pspdat
    8 -116133    2    4       600   0.00000   pspcod,pspxc,lmax,lloc,mmax,r2well
    5.99000000000000    2.50000000000000    0.00000000000000   rchrg,fchrg,qchrg
     nproj     2     2     1
     extension_switch     1
  pspatm : epsatm=    4.89824824
         --- l  ekb(1:nproj) -->
             0    6.506434    1.065875
             1   -3.978753   -1.295852
             2   -2.394754
 pspatm: atomic psp has been read  and splines computed

   2.01317433E+03                                ecore*ucvol(ha*bohr**3)

-inwffil : will read wavefunctions from disk file /scratch/users/j/a/jabreu/flow_simple_4atoms/flow/w257/t1/indata/in_WFK

 ==>  initialize data related to q vector <==

 The list of irreducible perturbations for this q vector is:
    1)    idir= 1    ipert=   5
    2)    idir= 2    ipert=   5
    3)    idir= 3    ipert=   5

 Perturbation wavevector (in red.coord.)   0.000000  0.000000  0.000000
 Perturbation : derivative vs k along direction   1

 dfpt_looppert : COMMENT -
  In a d/dk calculation, iscf is set to -3 automatically.
 The set of symmetries contains only one element for this perturbation.
 symkpt : not enough symmetry to change the number of k points.

[...]

 Initialisation of the first-order wave-functions :
  ireadwf=   0

--- !BeginCycle
iteration_state: {dtset: 1, }
solver: {iscf: 7, nstep: 100, nline: 4, wfoptalg: 0, }
tolerances: {tolwfr: 1.00E-20, }
...

     iter   2DEtotal(Ha)        deltaE(Ha) residm    vres2
-ETOT  1  -33.777191736609     -3.378E+01 7.800E-02 0.000E+00
 ETOT  2  -33.787310649684     -1.012E-02 3.248E-03 0.000E+00
 ETOT  3  -33.787323809136     -1.316E-05 1.631E-04 0.000E+00
 ETOT  4  -33.787323835371     -2.624E-08 5.576E-06 0.000E+00
 ETOT  5  -33.787323835435     -6.377E-11 3.206E-07 0.000E+00
 ETOT  6  -33.787323835435     -2.203E-13 2.152E-08 0.000E+00
 ETOT  7  -33.787323835435      2.132E-14 9.247E-10 0.000E+00
 ETOT  8  -33.787323835435      7.105E-15 9.183E-11 0.000E+00
 ETOT  9  -33.787323835435     -2.132E-14 4.054E-12 0.000E+00
 ETOT 10  -33.787323835435      0.000E+00 4.118E-13 0.000E+00
 ETOT 11  -33.787323835435      0.000E+00 1.841E-14 0.000E+00
 ETOT 12  -33.787323835435      0.000E+00 1.895E-15 0.000E+00
 ETOT 13  -33.787323835435      7.105E-15 8.514E-17 0.000E+00
 ETOT 14  -33.787323835435     -7.105E-15 8.825E-18 0.000E+00
 ETOT 15  -33.787323835435      1.421E-14 3.971E-19 0.000E+00
 ETOT 16  -33.787323835435     -7.105E-15 4.136E-20 0.000E+00
 ETOT 17  -33.787323835435      0.000E+00 9.236E-21 0.000E+00

 At SCF step   17   max residual=  9.24E-21 < tolwfr=  1.00E-20 =>converged.

 ----iterations are completed or convergence reached----

 dfpt_looppert: DFPT cycle converged with prtwf=-1. Will skip output of the 1st-order WFK file.
 dfpt_looppert : ek2=    6.1924996468E+01
          f-sum rule ratio=    1.0132774757E+00
 prteigrs : about to open file /scratch/users/j/a/jabreu/flow_simple_4atoms/flow/w257/t1/tmpdata/tmp_1WF1_EIG
 Expectation of eigenvalue derivatives (hartree) for nkpt=   1  k points:
  (in case of degenerate eigenvalues, averaged derivative)
 kpt#   1, nband= 25, wtk=  1.00000, kpt=  0.5000  0.5000  0.0000 (reduced coord)
  -0.00000    0.00000   -0.00000   -0.00000   -0.00000    0.00000   -0.00000    0.00000
  -0.00000    0.00000    0.00000   -0.00000    0.00000   -0.00000   -0.00000   -0.00000
   0.00000    0.00000   -0.00000   -0.00000   -0.00000    0.00000   -0.00000   -0.00000
  -0.00270

 Eight components of 2nd-order total energy (hartree) are
 1,2,3: 0th-order hamiltonian combined with 1st-order wavefunctions
     kin0=   3.06538224E+01 eigvalue=  -3.95175899E-01  local=  -1.49067838E+01
 4,5,6: 1st-order hamiltonian combined with 1st and 0th-order wfs
     kin1=  -6.27472041E+01  Hartree=   0.00000000E+00     xc=   0.00000000E+00
 7,8,9: eventually, occupation + non-local contributions
    edocc=   1.53488162E+01     enl0=   3.08664496E+00   enl1=  -4.82744357E+00
 1-9 gives the relaxation energy (to be shifted if some occ is /=2.0)
   erelax=  -3.37873238E+01
  No Ewald or frozen-wf contrib.: the relaxation energy is the total one
 2DEtotal=   -0.3378732384E+02 Ha. Also 2DEtotal=   -0.919399838488E+03 eV
    (  non-var. 2DEtotal :   -3.3787323835E+01 Ha)

 Perturbation wavevector (in red.coord.)   0.000000  0.000000  0.000000
 Perturbation : derivative vs k along direction   2
 The set of symmetries contains only one element for this perturbation.
 symkpt : not enough symmetry to change the number of k points.

[...]

 Perturbation wavevector (in red.coord.)   0.000000  0.000000  0.000000
 Perturbation : derivative vs k along direction   3
 The set of symmetries contains only one element for this perturbation.
 symkpt : not enough symmetry to change the number of k points.

-inwffil : will read wavefunctions from disk file /scratch/users/j/a/jabreu/flow_simple_4atoms/flow/w257/t1/indata/in_WFK

 Initialisation of the first-order wave-functions :
  ireadwf=   0

--- !BeginCycle
iteration_state: {dtset: 1, }
solver: {iscf: 7, nstep: 100, nline: 4, wfoptalg: 0, }
tolerances: {tolwfr: 1.00E-20, }
...

     iter   2DEtotal(Ha)        deltaE(Ha) residm    vres2
-ETOT  1  -31.505838027258     -3.151E+01 5.782E-02 0.000E+00
 ETOT  2  -31.518792320401     -1.295E-02 1.385E-03 0.000E+00
 ETOT  3  -31.518797842850     -5.522E-06 1.870E-05 0.000E+00
 ETOT  4  -31.518797848870     -6.020E-09 3.471E-07 0.000E+00
 ETOT  5  -31.518797848881     -1.157E-11 2.712E-08 0.000E+00
 ETOT  6  -31.518797848881     -1.776E-14 4.157E-10 0.000E+00
 ETOT  7  -31.518797848881      2.842E-14 3.722E-11 0.000E+00
 ETOT  8  -31.518797848881     -7.105E-15 6.884E-13 0.000E+00
 ETOT  9  -31.518797848881      0.000E+00 5.414E-14 0.000E+00
 ETOT 10  -31.518797848881      3.553E-15 1.193E-15 0.000E+00
 ETOT 11  -31.518797848881      7.105E-15 8.058E-17 0.000E+00
 ETOT 12  -31.518797848881      3.553E-15 2.089E-18 0.000E+00
 ETOT 13  -31.518797848881     -2.132E-14 1.216E-19 0.000E+00
 ETOT 14  -31.518797848881      1.421E-14 9.035E-21 0.000E+00

 At SCF step   14   max residual=  9.04E-21 < tolwfr=  1.00E-20 =>converged.

 ----iterations are completed or convergence reached----

 dfpt_looppert: DFPT cycle converged with prtwf=-1. Will skip output of the 1st-order WFK file.
 dfpt_looppert : ek2=    6.1924996467E+01
          f-sum rule ratio=    9.3553803781E-01
 prteigrs : about to open file /scratch/users/j/a/jabreu/flow_simple_4atoms/flow/w257/t1/tmpdata/tmp_1WF1_EIG
 Expectation of eigenvalue derivatives (hartree) for nkpt=   1  k points:
  (in case of degenerate eigenvalues, averaged derivative)
 kpt#   1, nband= 25, wtk=  1.00000, kpt=  0.5000  0.5000  0.0000 (reduced coord)
  -0.00000   -0.00000    0.00000    0.00000   -0.00000   -0.00000    0.00000   -0.00000
   0.00000    0.00000   -0.00000    0.00000   -0.00000   -0.00000    0.00000   -0.00000
  -0.00000    0.00000    0.00000   -0.00000   -0.00000   -0.00000   -0.00000    0.00000
  -0.00034

 Eight components of 2nd-order total energy (hartree) are
 1,2,3: 0th-order hamiltonian combined with 1st-order wavefunctions
     kin0=   3.85964958E+01 eigvalue=  -7.95230693E-01  local=  -2.06359494E+01
 4,5,6: 1st-order hamiltonian combined with 1st and 0th-order wfs
     kin1=  -5.79331897E+01  Hartree=   0.00000000E+00     xc=   0.00000000E+00
 7,8,9: eventually, occupation + non-local contributions
    edocc=   9.07482623E+00     enl0=   5.27865591E+00   enl1=  -5.10440601E+00
 1-9 gives the relaxation energy (to be shifted if some occ is /=2.0)
   erelax=  -3.15187978E+01
  No Ewald or frozen-wf contrib.: the relaxation energy is the total one
 2DEtotal=   -0.3151879785E+02 Ha. Also 2DEtotal=   -0.857670107072E+03 eV
    (  non-var. 2DEtotal :   -3.1518797849E+01 Ha)

 CALCULATION OF EFFECTIVE MASSES
 NOTE : Additional infos (eff. mass eigenvalues, eigenvectors and, if degenerate, average mass) are available in stdout.

 K-point ( 0.500, 0.500, 0.000) | band =    16
 Effective mass tensor:
             -8.4259729399              9.7304085309             -1.1306971846
              9.7304085309            -18.5261190226             -0.7426128171
             -1.1306971846             -0.7426128171             -2.7762348814
 Effective mass tensor eigenvalues:
            -24.4390007096             -4.0029607469             -1.2863653874
 Angular average effective mass 1/(<1/m>)=  -2.8086800346
 Angular average effective mass for Frohlich model (<m**0.5>)**2=  -3.8082657300
 Effective masses along directions: (cart. coord. / red. coord. -> eff. mass)
    1:   1.000000  0.000000  0.000000 /   0.909670  0.415331  0.000000 ->  -2.4732624562
    2:   0.000000  1.000000  0.000000 /   0.000000  1.000000  0.000000 ->  -5.6906482282
    3:   0.000000  0.000000  1.000000 /   0.541004  0.541004  0.643917 ->  -2.0489022379
    4:   0.577350  0.577350  0.577350 /   0.596198  0.677179  0.431250 ->  -3.8035593432
    5:   0.000000  0.707107  0.707107 /   0.451986  0.711549  0.537966 ->  -5.1348809961
    6:   0.707107  0.000000  0.707107 /   0.683217  0.537575  0.494193 ->  -4.4980563228
    7:   0.707107  0.707107  0.000000 /   0.596294  0.802766  0.000000 ->  -1.9555640334

 K-point ( 0.500, 0.500, 0.000) | band =    17
 Effective mass tensor:
              0.6189330658              0.1299055387             -0.3087036588
              0.1299055387              0.4856018121             -0.1885583856
             -0.3087036588             -0.1885583856              0.9255788613
 Effective mass tensor eigenvalues:
              0.4062545807              0.4327615781              1.1910975803
 Angular average effective mass 1/(<1/m>)=   0.5345865312
 Angular average effective mass for Frohlich model (<m**0.5>)**2=   0.5663786235
 Effective masses along directions: (cart. coord. / red. coord. -> eff. mass)
    1:   1.000000  0.000000  0.000000 /   0.909670  0.415331  0.000000 ->   0.5059294451
    2:   0.000000  1.000000  0.000000 /   0.000000  1.000000  0.000000 ->   0.4384844208
    3:   0.000000  0.000000  1.000000 /   0.541004  0.541004  0.643917 ->   0.7381867577
    4:   0.577350  0.577350  0.577350 /   0.596198  0.677179  0.431250 ->   0.4317306006
    5:   0.000000  0.707107  0.707107 /   0.451986  0.711549  0.537966 ->   0.4579945975
    6:   0.707107  0.000000  0.707107 /   0.683217  0.537575  0.494193 ->   0.4415978753
    7:   0.707107  0.707107  0.000000 /   0.596294  0.802766  0.000000 ->   0.5457442270

 END OF EFFECTIVE MASSES SECTION

 ---- first-order wavefunction calculations are completed ----

 Total localisation tensor (bohr^2) in cartesian coordinates
  WARNING : still subject to testing - especially symmetries.
      direction              matrix element
   alpha     beta       real part   imaginary part
     1        1       1.8866149011    0.0000000000
     1        2       0.6340037226    0.0000000000
     1        3       3.5227754790    0.0000000000
     2        1       0.6340037226    0.0000000000
     2        2       1.2354280619    0.0000000000
     2        3       2.1512973959    0.0000000000
     3        1       3.5227754790    0.0000000000
     3        2       2.1512973959    0.0000000000
     3        3      11.3209592483    0.0000000000

 respfn : d/dk was computed, but no 2DTE, so no DDB output.

== END DATASET(S) ==============================================================

 -outvars: echo values of variables after computation  --------
            acell      1.0000000000E+00  1.0000000000E+00  1.0000000000E+00 Bohr
              amu      1.37327000E+02  1.40067400E+01  1.89984032E+01
             ecut      4.20000000E+01 Hartree
           etotal     -3.1518797849E+01
            fcart      0.0000000000E+00  0.0000000000E+00  0.0000000000E+00
                       0.0000000000E+00  0.0000000000E+00  0.0000000000E+00
                       0.0000000000E+00  0.0000000000E+00  0.0000000000E+00
                       0.0000000000E+00  0.0000000000E+00  0.0000000000E+00
-          fftalg         512
           irdden           1
           irdwfk           1
           istwfk        1
              ixc     -116133
              kpt      5.00000000E-01  5.00000000E-01  0.00000000E+00
           kptopt           0
P           mkmem           1
P          mkqmem           1
P          mk1mem           1
            natom           4
            nband          25
           nbdbuf           4
            ngfft          80      80      80
             nkpt           1
            nstep         100
             nsym          12
           ntypat           3
              occ      2.000000  2.000000  2.000000  2.000000  2.000000  2.000000
                       2.000000  2.000000  2.000000  2.000000  2.000000  2.000000
                       2.000000  2.000000  2.000000  2.000000  0.000000  0.000000
                       0.000000  0.000000  0.000000  0.000000  0.000000  0.000000
                       0.000000
        optdriver           1
            prtwf          -1
            rfdir           1       1       1
           rfelfd           2
            rprim      7.1796009174E+00  0.0000000000E+00  1.1122946538E+01
                       3.2780170352E+00  6.3875874671E+00  1.1122946538E+01
                       0.0000000000E+00  0.0000000000E+00  1.3238829594E+01
          spgroup         166
           strten      0.0000000000E+00  0.0000000000E+00  0.0000000000E+00
                       0.0000000000E+00  0.0000000000E+00  0.0000000000E+00
           symrel      1  0  0   0  1  0   0  0  1      -1  0  0   0 -1  0   0  0 -1
                       0  1  0   1  0  0   0  0  1       0 -1  0  -1  0  0   0  0 -1
                       0  0  1   1  0  0   0  1  0       0  0 -1  -1  0  0   0 -1  0
                       1  0  0   0  0  1   0  1  0      -1  0  0   0  0 -1   0 -1  0
                       0  1  0   0  0  1   1  0  0       0 -1  0   0  0 -1  -1  0  0
                       0  0  1   0  1  0   1  0  0       0  0 -1   0 -1  0  -1  0  0
           tolwfr      1.00000000E-20
            typat      1  1  2  3
           useylm           1
           xangst      1.3411763508E+00  8.1920005955E-01  4.5508710562E+00
                       4.1927567259E+00  2.5609656459E+00  1.4226835433E+01
                       2.7669665383E+00  1.6900828527E+00  9.3888532447E+00
                       0.0000000000E+00  0.0000000000E+00  0.0000000000E+00
            xcart      2.5344559989E+00  1.5480637606E+00  8.5998999624E+00
                       7.9231619537E+00  4.8395237065E+00  2.6884822706E+01
                       5.2288089763E+00  3.1937937336E+00  1.7742361334E+01
                       0.0000000000E+00  0.0000000000E+00  0.0000000000E+00
             xred      2.4235500000E-01  2.4235500000E-01  2.4235500000E-01
                       7.5764500000E-01  7.5764500000E-01  7.5764500000E-01
                       5.0000000000E-01  5.0000000000E-01  5.0000000000E-01
                       0.0000000000E+00  0.0000000000E+00  0.0000000000E+00
            znucl       56.00000    7.00000    9.00000

- Timing analysis has been suppressed with timopt=0

 Suggested references for the acknowledgment of ABINIT usage.

 Calculation completed.
.Delivered   6 WARNINGs and   5 COMMENTs to log file.