.Version 9.7.2 of ABINIT

 ABINIT is a project of the Universite Catholique de Louvain,
 Corning Inc. and other collaborators, see ~abinit/doc/developers/contributors.txt .
 acknowledgments of the ABINIT effort.

.Starting date : Wed  1 Dec 2021.
- ( at 21h28 )

- input  file    -> /scratch/users/j/a/jabreu/flow_simple_remain_atoms/flow/w204/t1/run.abi
- output file    -> /scratch/users/j/a/jabreu/flow_simple_remain_atoms/flow/w204/t1/run.abo
- root for input  files -> /scratch/users/j/a/jabreu/flow_simple_remain_atoms/flow/w204/t1/indata/in
- root for output files -> /scratch/users/j/a/jabreu/flow_simple_remain_atoms/flow/w204/t1/outdata/out

 Symmetries : space group P-3 m 1 (#164); Bravais hP (primitive hexag.)
     intxc =       0      iscf =       7    lmnmax =      18     lnmax =       6
     mgfft =      60  mpssoang =       3    mqgrid =    3001     natom =       5
  nloc_mem =       1    nspden =       1   nspinor =       1    nsppol =       1
      nsym =      12    n1xccc =    2501    ntypat =       3    occopt =       1
   xclevel =       2
-    mband =          31        mffmem =           1         mkmem =           1
-   mkqmem =           1        mk1mem =           1           mpw =       10908
      nfft =      216000          nkpt =           1
  Rough estimation (10% accuracy) of disk space for files :

------------- Echo of variables that govern the present computation ------------
-
- outvars: echo of selected default values
-   iomode0 =  0 , fftalg0 =512 , wfoptalg0 =  0
-
- outvars: echo of global parameters not present in the input file
-  max_nthreads =    0
-
 -outvars: echo values of preprocessed input variables --------
            acell      1.0000000000E+00  1.0000000000E+00  1.0000000000E+00 Bohr
              amu      8.54678000E+01  1.06420000E+02  1.20110000E+01
             ecut      4.10000000E+01 Hartree
-          fftalg         512
           irdden           1
           irdwfk           1
           istwfk        1
              ixc     -116133
              kpt      5.00000000E-01  0.00000000E+00  5.00000000E-01
           kptopt           0
P           mkmem           1
P          mkqmem           1
P          mk1mem           1
            natom           5
            nband          31
           nbdbuf           4
            ngfft          60      60      60
             nkpt           1
            nstep        2000
             nsym          12
           ntypat           3
              occ      2.000000  2.000000  2.000000  2.000000  2.000000  2.000000
                       2.000000  2.000000  2.000000  2.000000  2.000000  2.000000
                       2.000000  2.000000  2.000000  2.000000  2.000000  2.000000
                       2.000000  2.000000  2.000000  2.000000  0.000000  0.000000
                       0.000000  0.000000  0.000000  0.000000  0.000000  0.000000
                       0.000000
        optdriver           1
            prtwf          -1
            rfdir           1       1       1
           rfelfd           2
            rprim      1.0077320565E+01  0.0000000000E+00  0.0000000000E+00
                      -5.0386602825E+00  8.7272156114E+00  0.0000000000E+00
                       0.0000000000E+00  0.0000000000E+00  9.9060697097E+00
          spgroup         164
           symrel      1  0  0   0  1  0   0  0  1      -1  0  0   0 -1  0   0  0 -1
                      -1  0  0   1  1  0   0  0  1       1  0  0  -1 -1  0   0  0 -1
                       0  1  0  -1 -1  0   0  0  1       0 -1  0   1  1  0   0  0 -1
                       0 -1  0  -1  0  0   0  0  1       0  1  0   1  0  0   0  0 -1
                      -1 -1  0   1  0  0   0  0  1       1  1  0  -1  0  0   0  0 -1
                       1  1  0   0 -1  0   0  0  1      -1 -1  0   0  1  0   0  0 -1
           tolwfr      1.00000000E-20
            typat      1  1  2  3  3
           useylm           1
           xangst      2.6663441834E+00  1.5394145320E+00  3.7820879430E+00
                       1.7638771742E-11  3.0788290640E+00  1.4599783741E+00
                       0.0000000000E+00  0.0000000000E+00  0.0000000000E+00
                       0.0000000000E+00  0.0000000000E+00  1.9848455062E+00
                       0.0000000000E+00  0.0000000000E+00  3.2572208109E+00
            xcart      5.0386602826E+00  2.9090718705E+00  7.1471104227E+00
                       3.3332447913E-11  5.8181437409E+00  2.7589592870E+00
                       0.0000000000E+00  0.0000000000E+00  0.0000000000E+00
                       0.0000000000E+00  0.0000000000E+00  3.7508144227E+00
                       0.0000000000E+00  0.0000000000E+00  6.1552552870E+00
             xred      6.6666666667E-01  3.3333333333E-01  7.2148800000E-01
                       3.3333333333E-01  6.6666666667E-01  2.7851200000E-01
                       0.0000000000E+00  0.0000000000E+00  0.0000000000E+00
                       0.0000000000E+00  0.0000000000E+00  3.7863800000E-01
                       0.0000000000E+00  0.0000000000E+00  6.2136200000E-01
            znucl       37.00000   46.00000    6.00000

 chkinp: Checking input parameters for consistency.

== DATASET  1 ==================================================================
-   mpi_nproc: 1, omp_nthreads: -1 (-1 if OMP is not activated)

--- !DatasetInfo
iteration_state: {dtset: 1, }
dimensions: {natom: 5, nkpt: 1, mband: 31, nsppol: 1, nspinor: 1, nspden: 1, mpw: 10908, }
cutoff_energies: {ecut:  41.0, pawecutdg:  -1.0, }
electrons: {nelect:   4.40000000E+01, charge:   0.00000000E+00, occopt:   1.00000000E+00, tsmear:   1.00000000E-02, }
meta: {optdriver: 1, rfelfd: 2, }
...

 Real(R)+Recip(G) space primitive vectors, cartesian coordinates (Bohr,Bohr^-1):
 R(1)= 10.0773206  0.0000000  0.0000000  G(1)=  0.0992327  0.0572920  0.0000000
 R(2)= -5.0386603  8.7272156  0.0000000  G(2)=  0.0000000  0.1145841  0.0000000
 R(3)=  0.0000000  0.0000000  9.9060697  G(3)=  0.0000000  0.0000000  0.1009482
 Unit cell volume ucvol=  8.7120861E+02 bohr^3
 Angles (23,13,12)=  9.00000000E+01  9.00000000E+01  1.20000000E+02 degrees

 getcut: wavevector=  0.0000  0.0000  0.0000  ngfft=  60  60  60
         ecut(hartree)=     41.000   => boxcut(ratio)=   2.06561

--- Pseudopotential description ------------------------------------------------
- pspini: atom type   1  psp file is /scratch/users/j/a/jabreu/pseudos/PBEsol/Rb.psp8
- pspatm: opening atomic psp file    /scratch/users/j/a/jabreu/pseudos/PBEsol/Rb.psp8
- Rb    ONCVPSP-3.3.0  r_core=   1.71227   1.75361   1.90633
- 37.00000   9.00000    180112                znucl, zion, pspdat
    8 -116133    2    4       600   0.00000   pspcod,pspxc,lmax,lloc,mmax,r2well
    5.99000000000000    7.00000000000000    0.00000000000000   rchrg,fchrg,qchrg
     nproj     2     2     2
     extension_switch     1
  pspatm : epsatm=   34.48400912
         --- l  ekb(1:nproj) -->
             0    8.196957   -0.477221
             1    3.231347   -0.378736
             2   -1.047201    0.996637
 pspatm: atomic psp has been read  and splines computed

- pspini: atom type   2  psp file is /scratch/users/j/a/jabreu/pseudos/PBEsol/Pd.psp8
- pspatm: opening atomic psp file    /scratch/users/j/a/jabreu/pseudos/PBEsol/Pd.psp8
- Pd    ONCVPSP-3.3.0  r_core=   1.41052   1.46191   1.55175
- 46.00000  18.00000    180112                znucl, zion, pspdat
    8 -116133    2    4       600   0.00000   pspcod,pspxc,lmax,lloc,mmax,r2well
    5.99000000000000    7.00000000000000    0.00000000000000   rchrg,fchrg,qchrg
     nproj     2     2     2
     extension_switch     1
  pspatm : epsatm=   26.17262427
         --- l  ekb(1:nproj) -->
             0    7.952303   -2.096627
             1    3.304793   -0.572651
             2   -1.185452   -0.410427
 pspatm: atomic psp has been read  and splines computed

- pspini: atom type   3  psp file is /scratch/users/j/a/jabreu/pseudos/PBEsol/C.psp8
- pspatm: opening atomic psp file    /scratch/users/j/a/jabreu/pseudos/PBEsol/C.psp8
- C     ONCVPSP-3.3.0  r_core=   1.20440   1.26326
-  6.00000   4.00000    180112                znucl, zion, pspdat
    8 -116133    1    4       600   0.00000   pspcod,pspxc,lmax,lloc,mmax,r2well
    5.99000000000000    4.00000000000000    0.00000000000000   rchrg,fchrg,qchrg
     nproj     2     2
     extension_switch     1
  pspatm : epsatm=    4.34909529
         --- l  ekb(1:nproj) -->
             0    6.468939    0.390031
             1   -4.179695   -0.878453
 pspatm: atomic psp has been read  and splines computed

   4.56890866E+03                                ecore*ucvol(ha*bohr**3)

 ==>  initialize data related to q vector <==

 The list of irreducible perturbations for this q vector is:
    1)    idir= 1    ipert=   6
    2)    idir= 2    ipert=   6
    3)    idir= 3    ipert=   6

 Perturbation wavevector (in red.coord.)   0.000000  0.000000  0.000000
 Perturbation : derivative vs k along direction   1

 dfpt_looppert : COMMENT -
  In a d/dk calculation, iscf is set to -3 automatically.
 The set of symmetries contains only one element for this perturbation.
 symkpt : not enough symmetry to change the number of k points.

 Initialisation of the first-order wave-functions :
  ireadwf=   0

--- !BeginCycle
iteration_state: {dtset: 1, }
solver: {iscf: 7, nstep: 2000, nline: 4, wfoptalg: 0, }
tolerances: {tolwfr: 1.00E-20, }
...

     iter   2DEtotal(Ha)        deltaE(Ha) residm    vres2
-ETOT  1  -24.467964324669     -2.447E+01 3.712E-02 0.000E+00
 ETOT  2  -24.508214168955     -4.025E-02 2.967E-03 0.000E+00
 ETOT  3  -24.508656969996     -4.428E-04 6.585E-05 0.000E+00
 ETOT  4  -24.508666233936     -9.264E-06 6.795E-06 0.000E+00
 ETOT  5  -24.508666458125     -2.242E-07 2.578E-07 0.000E+00
 ETOT  6  -24.508666463908     -5.782E-09 2.906E-08 0.000E+00
 ETOT  7  -24.508666464062     -1.549E-10 1.078E-09 0.000E+00
 ETOT  8  -24.508666464067     -4.242E-12 1.277E-10 0.000E+00
 ETOT  9  -24.508666464067     -8.882E-14 4.575E-12 0.000E+00
 ETOT 10  -24.508666464067     -3.197E-14 5.679E-13 0.000E+00
 ETOT 11  -24.508666464067      0.000E+00 1.975E-14 0.000E+00
 ETOT 12  -24.508666464067      0.000E+00 2.552E-15 0.000E+00
 ETOT 13  -24.508666464067      1.776E-14 8.646E-17 0.000E+00
 ETOT 14  -24.508666464067     -3.553E-15 1.158E-17 0.000E+00
 ETOT 15  -24.508666464067      3.553E-15 3.850E-19 0.000E+00
 ETOT 16  -24.508666464067      0.000E+00 5.339E-20 0.000E+00
 ETOT 17  -24.508666464067     -3.553E-15 9.038E-21 0.000E+00

 At SCF step   17   max residual=  9.04E-21 < tolwfr=  1.00E-20 =>converged.

 ----iterations are completed or convergence reached----

 dfpt_looppert: DFPT cycle converged with prtwf=-1. Will skip output of the 1st-order WFK file.
 dfpt_looppert : ek2=    4.5613247927E+01
          f-sum rule ratio=    1.0544251704E+00
 prteigrs : about to open file /scratch/users/j/a/jabreu/flow_simple_remain_atoms/flow/w204/t1/tmpdata/tmp_1WF1_EIG
 Expectation of eigenvalue derivatives (hartree) for nkpt=   1  k points:
  (in case of degenerate eigenvalues, averaged derivative)
 kpt#   1, nband= 31, wtk=  1.00000, kpt=  0.5000  0.0000  0.5000 (reduced coord)
   0.00000   -0.00000   -0.00000   -0.00000    0.00000   -0.00000    0.00000   -0.00000
  -0.00000   -0.00000   -0.00000   -0.00000    0.00000    0.00000    0.00000    0.00000
   0.00000    0.00000   -0.00000   -0.00000    0.00000   -0.00000   -0.00000   -0.00000
  -0.00000    0.00000   -0.00000   -0.00000   -0.00000    0.00000    0.00000

 Eight components of 2nd-order total energy (hartree) are
 1,2,3: 0th-order hamiltonian combined with 1st-order wavefunctions
     kin0=   3.31379605E+01 eigvalue=   2.13824114E+00  local=  -1.71459301E+01
 4,5,6: 1st-order hamiltonian combined with 1st and 0th-order wfs
     kin1=  -4.80957567E+01  Hartree=   0.00000000E+00     xc=   0.00000000E+00
 7,8,9: eventually, occupation + non-local contributions
    edocc=   6.62912703E+00     enl0=  -2.50732067E-01   enl1=  -9.21576209E-01
 1-9 gives the relaxation energy (to be shifted if some occ is /=2.0)
   erelax=  -2.45086665E+01
  No Ewald or frozen-wf contrib.: the relaxation energy is the total one
 2DEtotal=   -0.2450866646E+02 Ha. Also 2DEtotal=   -0.666914731050E+03 eV
    (  non-var. 2DEtotal :   -2.4508666464E+01 Ha)

 Perturbation wavevector (in red.coord.)   0.000000  0.000000  0.000000
 Perturbation : derivative vs k along direction   2
 The set of symmetries contains only one element for this perturbation.
 symkpt : not enough symmetry to change the number of k points.

[...]

 Perturbation wavevector (in red.coord.)   0.000000  0.000000  0.000000
 Perturbation : derivative vs k along direction   3
 The set of symmetries contains only one element for this perturbation.
 symkpt : not enough symmetry to change the number of k points.

 Initialisation of the first-order wave-functions :
  ireadwf=   0

--- !BeginCycle
iteration_state: {dtset: 1, }
solver: {iscf: 7, nstep: 2000, nline: 4, wfoptalg: 0, }
tolerances: {tolwfr: 1.00E-20, }
...

     iter   2DEtotal(Ha)        deltaE(Ha) residm    vres2
-ETOT  1  -24.949862472449     -2.495E+01 5.195E-02 0.000E+00
 ETOT  2  -24.983297357809     -3.343E-02 8.172E-04 0.000E+00
 ETOT  3  -24.983591285924     -2.939E-04 2.504E-05 0.000E+00
 ETOT  4  -24.983596514133     -5.228E-06 1.038E-06 0.000E+00
 ETOT  5  -24.983596640477     -1.263E-07 2.622E-08 0.000E+00
 ETOT  6  -24.983596643901     -3.424E-09 1.649E-09 0.000E+00
 ETOT  7  -24.983596644001     -1.002E-10 4.350E-11 0.000E+00
 ETOT  8  -24.983596644004     -2.991E-12 2.730E-12 0.000E+00
 ETOT  9  -24.983596644004     -1.137E-13 1.118E-13 0.000E+00
 ETOT 10  -24.983596644004      3.553E-15 4.599E-15 0.000E+00
 ETOT 11  -24.983596644004     -4.974E-14 3.969E-16 0.000E+00
 ETOT 12  -24.983596644004      4.263E-14 1.009E-17 0.000E+00
 ETOT 13  -24.983596644004      2.487E-14 1.422E-18 0.000E+00
 ETOT 14  -24.983596644004     -1.421E-14 3.662E-20 0.000E+00
 ETOT 15  -24.983596644004     -1.421E-14 8.926E-21 0.000E+00

 At SCF step   15   max residual=  8.93E-21 < tolwfr=  1.00E-20 =>converged.

 ----iterations are completed or convergence reached----

 dfpt_looppert: DFPT cycle converged with prtwf=-1. Will skip output of the 1st-order WFK file.
 dfpt_looppert : ek2=    3.5402966100E+01
          f-sum rule ratio=    1.4161243638E+00
 prteigrs : about to open file /scratch/users/j/a/jabreu/flow_simple_remain_atoms/flow/w204/t1/tmpdata/tmp_1WF1_EIG
 Expectation of eigenvalue derivatives (hartree) for nkpt=   1  k points:
  (in case of degenerate eigenvalues, averaged derivative)
 kpt#   1, nband= 31, wtk=  1.00000, kpt=  0.5000  0.0000  0.5000 (reduced coord)
  -0.00000   -0.00000    0.00000   -0.00000    0.00000    0.00000    0.00000   -0.00000
   0.00000   -0.00000    0.00000   -0.00000    0.00000    0.00000    0.00000    0.00000
   0.00000   -0.00000   -0.00000   -0.00000   -0.00000    0.00000   -0.00000   -0.00000
   0.00000    0.00000    0.00000   -0.00000   -0.00000    0.00000   -0.00000

 Eight components of 2nd-order total energy (hartree) are
 1,2,3: 0th-order hamiltonian combined with 1st-order wavefunctions
     kin0=   2.75036646E+01 eigvalue=   1.53833942E+00  local=  -1.64239319E+01
 4,5,6: 1st-order hamiltonian combined with 1st and 0th-order wfs
     kin1=  -5.01350028E+01  Hartree=   0.00000000E+00     xc=   0.00000000E+00
 7,8,9: eventually, occupation + non-local contributions
    edocc=   1.12684426E+01     enl0=   1.09708195E+00   enl1=   1.67809558E-01
 1-9 gives the relaxation energy (to be shifted if some occ is /=2.0)
   erelax=  -2.49835966E+01
  No Ewald or frozen-wf contrib.: the relaxation energy is the total one
 2DEtotal=   -0.2498359664E+02 Ha. Also 2DEtotal=   -0.679838238483E+03 eV
    (  non-var. 2DEtotal :   -2.4983596644E+01 Ha)

 CALCULATION OF EFFECTIVE MASSES
 NOTE : Additional infos (eff. mass eigenvalues, eigenvectors and, if degenerate, average mass) are available in stdout.

 K-point ( 0.500, 0.000, 0.500) | band =    22
 Effective mass tensor:
            -16.9336519758             -6.0763229457              0.7039301822
             -6.0763229457             -9.9174087671              0.4064160173
              0.7039301822              0.4064160173             -0.2200340638
 Effective mass tensor eigenvalues:
            -20.4744608251             -6.4092195366             -0.1874144449
 Angular average effective mass 1/(<1/m>)=  -0.5414542243
 Angular average effective mass for Frohlich model (<m**0.5>)**2=  -1.3955761743
 Effective masses along directions: (cart. coord. / red. coord. -> eff. mass)
    1:   1.000000  0.000000  0.000000 /   0.894427 -0.447214  0.000000 -> -12.1931558558
    2:   0.000000  1.000000  0.000000 /   0.000000  1.000000  0.000000 ->  -7.6130024756
    3:   0.000000  0.000000  1.000000 /   0.000000  0.000000  1.000000 ->  -0.1877135074
    4:   0.577350  0.577350  0.577350 /   0.690020  0.252565  0.678294 ->  -0.4971910537
    5:   0.000000  0.707107  0.707107 /   0.000000  0.661049  0.750342 ->  -0.3527057219
    6:   0.707107  0.000000  0.707107 /   0.671716 -0.335858  0.660301 ->  -0.3462497354
    7:   0.707107  0.707107  0.000000 /   0.939071  0.343724  0.000000 -> -15.6365895467

 K-point ( 0.500, 0.000, 0.500) | band =    23
 Effective mass tensor:
              0.8030144184             -0.0303271928              0.0408650903
             -0.0303271928              0.8380332442              0.0235934709
              0.0408650903              0.0235934709              0.2134488596
 Effective mass tensor eigenvalues:
              0.2095827002              0.7893711649              0.8555426571
 Angular average effective mass 1/(<1/m>)=   0.4162581469
 Angular average effective mass for Frohlich model (<m**0.5>)**2=   0.4793387320
 Effective masses along directions: (cart. coord. / red. coord. -> eff. mass)
    1:   1.000000  0.000000  0.000000 /   0.894427 -0.447214  0.000000 ->   0.7937374450
    2:   0.000000  1.000000  0.000000 /   0.000000  1.000000  0.000000 ->   0.8338985246
    3:   0.000000  0.000000  1.000000 /   0.000000  0.000000  1.000000 ->   0.2106142405
    4:   0.577350  0.577350  0.577350 /   0.690020  0.252565  0.678294 ->   0.4592130866
    5:   0.000000  0.707107  0.707107 /   0.000000  0.661049  0.750342 ->   0.3532333019
    6:   0.707107  0.000000  0.707107 /   0.671716 -0.335858  0.660301 ->   0.3627224307
    7:   0.707107  0.707107  0.000000 /   0.939071  0.343724  0.000000 ->   0.7799878084

 END OF EFFECTIVE MASSES SECTION

 ---- first-order wavefunction calculations are completed ----

 Total localisation tensor (bohr^2) in cartesian coordinates
  WARNING : still subject to testing - especially symmetries.
      direction              matrix element
   alpha     beta       real part   imaginary part
     1        1       1.6624738531    0.0000000000
     1        2      -0.5068882245    0.0000000000
     1        3       0.0000000000    0.0000000000
     2        1      -0.5068882245    0.0000000000
     2        2       0.8779561585    0.0000000000
     2        3       0.0000000000    0.0000000000
     3        1       0.0000000000    0.0000000000
     3        2       0.0000000000    0.0000000000
     3        3       3.4139729149    0.0000000000

 respfn : d/dk was computed, but no 2DTE, so no DDB output.

== END DATASET(S) ==============================================================

 -outvars: echo values of variables after computation  --------
            acell      1.0000000000E+00  1.0000000000E+00  1.0000000000E+00 Bohr
              amu      8.54678000E+01  1.06420000E+02  1.20110000E+01
             ecut      4.10000000E+01 Hartree
           etotal     -2.4983596644E+01
            fcart      0.0000000000E+00  0.0000000000E+00  0.0000000000E+00
                       0.0000000000E+00  0.0000000000E+00  0.0000000000E+00
                       0.0000000000E+00  0.0000000000E+00  0.0000000000E+00
                       0.0000000000E+00  0.0000000000E+00  0.0000000000E+00
                       0.0000000000E+00  0.0000000000E+00  0.0000000000E+00
-          fftalg         512
           irdden           1
           irdwfk           1
           istwfk        1
              ixc     -116133
              kpt      5.00000000E-01  0.00000000E+00  5.00000000E-01
           kptopt           0
P           mkmem           1
P          mkqmem           1
P          mk1mem           1
            natom           5
            nband          31
           nbdbuf           4
            ngfft          60      60      60
             nkpt           1
            nstep        2000
             nsym          12
           ntypat           3
              occ      2.000000  2.000000  2.000000  2.000000  2.000000  2.000000
                       2.000000  2.000000  2.000000  2.000000  2.000000  2.000000
                       2.000000  2.000000  2.000000  2.000000  2.000000  2.000000
                       2.000000  2.000000  2.000000  2.000000  0.000000  0.000000
                       0.000000  0.000000  0.000000  0.000000  0.000000  0.000000
                       0.000000
        optdriver           1
            prtwf          -1
            rfdir           1       1       1
           rfelfd           2
            rprim      1.0077320565E+01  0.0000000000E+00  0.0000000000E+00
                      -5.0386602825E+00  8.7272156114E+00  0.0000000000E+00
                       0.0000000000E+00  0.0000000000E+00  9.9060697097E+00
          spgroup         164
           strten      0.0000000000E+00  0.0000000000E+00  0.0000000000E+00
                       0.0000000000E+00  0.0000000000E+00  0.0000000000E+00
           symrel      1  0  0   0  1  0   0  0  1      -1  0  0   0 -1  0   0  0 -1
                      -1  0  0   1  1  0   0  0  1       1  0  0  -1 -1  0   0  0 -1
                       0  1  0  -1 -1  0   0  0  1       0 -1  0   1  1  0   0  0 -1
                       0 -1  0  -1  0  0   0  0  1       0  1  0   1  0  0   0  0 -1
                      -1 -1  0   1  0  0   0  0  1       1  1  0  -1  0  0   0  0 -1
                       1  1  0   0 -1  0   0  0  1      -1 -1  0   0  1  0   0  0 -1
           tolwfr      1.00000000E-20
            typat      1  1  2  3  3
           useylm           1
           xangst      2.6663441834E+00  1.5394145320E+00  3.7820879430E+00
                       1.7638771742E-11  3.0788290640E+00  1.4599783741E+00
                       0.0000000000E+00  0.0000000000E+00  0.0000000000E+00
                       0.0000000000E+00  0.0000000000E+00  1.9848455062E+00
                       0.0000000000E+00  0.0000000000E+00  3.2572208109E+00
            xcart      5.0386602826E+00  2.9090718705E+00  7.1471104227E+00
                       3.3332447913E-11  5.8181437409E+00  2.7589592870E+00
                       0.0000000000E+00  0.0000000000E+00  0.0000000000E+00
                       0.0000000000E+00  0.0000000000E+00  3.7508144227E+00
                       0.0000000000E+00  0.0000000000E+00  6.1552552870E+00
             xred      6.6666666667E-01  3.3333333333E-01  7.2148800000E-01
                       3.3333333333E-01  6.6666666667E-01  2.7851200000E-01
                       0.0000000000E+00  0.0000000000E+00  0.0000000000E+00
                       0.0000000000E+00  0.0000000000E+00  3.7863800000E-01
                       0.0000000000E+00  0.0000000000E+00  6.2136200000E-01
            znucl       37.00000   46.00000    6.00000

- Timing analysis has been suppressed with timopt=0

 Suggested references for the acknowledgment of ABINIT usage.

 Calculation completed.
.Delivered   2 WARNINGs and   5 COMMENTs to log file.