.Version 9.5.1 of ABINIT

 ABINIT is a project of the Universite Catholique de Louvain,
 Corning Inc. and other collaborators, see ~abinit/doc/developers/contributors.txt .
 acknowledgments of the ABINIT effort.

.Starting date : Tue 11 May 2021.
- ( at 21h10 )

- input  file    -> /scratch/users/j/a/jabreu/flow_simple_8atoms/flow/w262/t1/run.abi
- output file    -> /scratch/users/j/a/jabreu/flow_simple_8atoms/flow/w262/t1/run.abo
- root for input  files -> /scratch/users/j/a/jabreu/flow_simple_8atoms/flow/w262/t1/indata/in
- root for output files -> /scratch/users/j/a/jabreu/flow_simple_8atoms/flow/w262/t1/outdata/out

 Symmetries : space group R-3 (#148); Bravais hR (rhombohedral)
     intxc =       0      iscf =       7    lmnmax =      18     lnmax =       6
     mgfft =      72  mpssoang =       3    mqgrid =    3001     natom =       8
  nloc_mem =       1    nspden =       1   nspinor =       1    nsppol =       1
      nsym =       6    n1xccc =    2501    ntypat =       3    occopt =       1
   xclevel =       2
-    mband =          47        mffmem =           1         mkmem =           2
-   mkqmem =           2        mk1mem =           2           mpw =       14705
      nfft =      373248          nkpt =           2
  Rough estimation (10% accuracy) of disk space for files :

------------- Echo of variables that govern the present computation ------------
-
- outvars: echo of selected default values
-   iomode0 =  0 , fftalg0 =512 , wfoptalg0 =  0
-
- outvars: echo of global parameters not present in the input file
-  max_nthreads =    0
-
 -outvars: echo values of preprocessed input variables --------
            acell      1.0000000000E+00  1.0000000000E+00  1.0000000000E+00 Bohr
              amu      1.12411000E+02  1.18710000E+02  1.89984032E+01
             ecut      5.10000000E+01 Hartree
-          fftalg         512
           irdden           1
           irdwfk           1
           istwfk        1    1
              ixc     -116133
              kpt      5.00000000E-01  5.00000000E-01  0.00000000E+00
                       0.00000000E+00  0.00000000E+00  0.00000000E+00
           kptopt           0
P           mkmem           2
P          mkqmem           2
P          mk1mem           2
            natom           8
            nband          47
           nbdbuf           4
            ngfft          72      72      72
             nkpt           2
            nstep        2000
             nsym           6
           ntypat           3
              occ      2.000000  2.000000  2.000000  2.000000  2.000000  2.000000
                       2.000000  2.000000  2.000000  2.000000  2.000000  2.000000
                       2.000000  2.000000  2.000000  2.000000  2.000000  2.000000
                       2.000000  2.000000  2.000000  2.000000  2.000000  2.000000
                       2.000000  2.000000  2.000000  2.000000  2.000000  2.000000
                       2.000000  2.000000  2.000000  2.000000  2.000000  2.000000
                       2.000000  2.000000  0.000000  0.000000  0.000000  0.000000
                       0.000000  0.000000  0.000000  0.000000  0.000000
        optdriver           1
            prtwf          -1
            rfdir           1       1       1
           rfelfd           2
            rprim      9.0718973923E+00  0.0000000000E+00  6.1913723895E+00
                       3.2703717963E+00  8.4619141222E+00  6.1913723895E+00
                       0.0000000000E+00  0.0000000000E+00  1.0983278853E+01
          spgroup         148
           symrel      1  0  0   0  1  0   0  0  1      -1  0  0   0 -1  0   0  0 -1
                       0  0  1   1  0  0   0  1  0       0  0 -1  -1  0  0   0 -1  0
                       0  1  0   0  0  1   1  0  0       0 -1  0   0  0 -1  -1  0  0
           tolwfr      1.00000000E-20
            typat      1  2  3  3  3  3  3  3
           useylm           1
              wtk        0.50000    0.50000
           xangst      3.2656237784E+00  2.2389260473E+00  6.1823835807E+00
                       0.0000000000E+00  0.0000000000E+00  0.0000000000E+00
                       3.4731097561E+00  1.0467874841E+00  8.0441461546E+00
                       2.6658359136E+00  3.9939574858E+00  7.4032536938E+00
                       1.1431878822E+00  1.6156314250E+00  5.9895770818E+00
                       3.8654116433E+00  4.8389460874E-01  4.9615134676E+00
                       3.0581378008E+00  3.4310646104E+00  4.3206210069E+00
                       5.3880596747E+00  2.8622206696E+00  6.3751900796E+00
            xcart      6.1711345943E+00  4.2309570611E+00  1.1683011816E+01
                       0.0000000000E+00  0.0000000000E+00  0.0000000000E+00
                       6.5632262685E+00  1.9781416643E+00  1.5201233205E+01
                       5.0376997919E+00  7.5474858345E+00  1.3990121974E+01
                       2.1603120158E+00  3.0531009249E+00  1.1318660336E+01
                       7.3045693967E+00  9.1442828770E-01  9.3759016585E+00
                       5.7790429201E+00  6.4837724579E+00  8.1647904270E+00
                       1.0181957173E+01  5.4088131973E+00  1.2047363296E+01
             xred      5.0000000000E-01  5.0000000000E-01  5.0000000000E-01
                       0.0000000000E+00  0.0000000000E+00  0.0000000000E+00
                       6.3919500000E-01  2.3377000000E-01  8.9193600000E-01
                       2.3377000000E-01  8.9193600000E-01  6.3919500000E-01
                       1.0806400000E-01  3.6080500000E-01  7.6623000000E-01
                       7.6623000000E-01  1.0806400000E-01  3.6080500000E-01
                       3.6080500000E-01  7.6623000000E-01  1.0806400000E-01
                       8.9193600000E-01  6.3919500000E-01  2.3377000000E-01
            znucl       48.00000   50.00000    9.00000

 chkinp: Checking input parameters for consistency.

== DATASET  1 ==================================================================
-   mpi_nproc: 1, omp_nthreads: -1 (-1 if OMP is not activated)

--- !DatasetInfo
iteration_state: {dtset: 1, }
dimensions: {natom: 8, nkpt: 2, mband: 47, nsppol: 1, nspinor: 1, nspden: 1, mpw: 14705, }
cutoff_energies: {ecut:  51.0, pawecutdg:  -1.0, }
electrons: {nelect:   7.60000000E+01, charge:   0.00000000E+00, occopt:   1.00000000E+00, tsmear:   1.00000000E-02, }
meta: {optdriver: 1, rfelfd: 2, }
...

 Real(R)+Recip(G) space primitive vectors, cartesian coordinates (Bohr,Bohr^-1):
 R(1)=  9.0718974  0.0000000  6.1913724  G(1)=  0.1102305 -0.0426020  0.0000000
 R(2)=  3.2703718  8.4619141  6.1913724  G(2)=  0.0000000  0.1181766  0.0000000
 R(3)=  0.0000000  0.0000000 10.9832789  G(3)= -0.0621379 -0.0426020  0.0910475
 Unit cell volume ucvol=  8.4313817E+02 bohr^3
 Angles (23,13,12)=  5.56873148E+01  5.56873148E+01  5.56873148E+01 degrees

 getcut: wavevector=  0.0000  0.0000  0.0000  ngfft=  72  72  72
         ecut(hartree)=     51.000   => boxcut(ratio)=   2.03930

--- Pseudopotential description ------------------------------------------------
- pspini: atom type   1  psp file is /scratch/users/j/a/jabreu/pseudos/PBEsol/Cd.psp8
- pspatm: opening atomic psp file    /scratch/users/j/a/jabreu/pseudos/PBEsol/Cd.psp8
- Cd    ONCVPSP-3.3.0  r_core=   1.25838   1.30423   1.35174
- 48.00000  20.00000    180112                znucl, zion, pspdat
    8 -116133    2    4       600   0.00000   pspcod,pspxc,lmax,lloc,mmax,r2well
    5.99000000000000    6.00000000000000    0.00000000000000   rchrg,fchrg,qchrg
     nproj     2     2     2
     extension_switch     1
  pspatm : epsatm=   23.26728021
         --- l  ekb(1:nproj) -->
             0   63.701523    3.700425
             1    8.703569    1.290373
             2    0.983656   -0.721725
 pspatm: atomic psp has been read  and splines computed

- pspini: atom type   2  psp file is /scratch/users/j/a/jabreu/pseudos/PBEsol/Sn.psp8
- pspatm: opening atomic psp file    /scratch/users/j/a/jabreu/pseudos/PBEsol/Sn.psp8
- Sn    ONCVPSP-3.3.0  r_core=   2.27326   2.62311   1.85601
- 50.00000  14.00000    180112                znucl, zion, pspdat
    8 -116133    2    4       600   0.00000   pspcod,pspxc,lmax,lloc,mmax,r2well
    5.99000000000000    6.50000000000000    0.00000000000000   rchrg,fchrg,qchrg
     nproj     2     2     2
     extension_switch     1
  pspatm : epsatm=   32.44586081
         --- l  ekb(1:nproj) -->
             0    5.587869    0.749373
             1    4.197111    0.728791
             2   -5.271877   -1.523486
 pspatm: atomic psp has been read  and splines computed

- pspini: atom type   3  psp file is /scratch/users/j/a/jabreu/pseudos/PBEsol/F.psp8
- pspatm: opening atomic psp file    /scratch/users/j/a/jabreu/pseudos/PBEsol/F.psp8
- F     ONCVPSP-3.3.0  r_core=   1.30942   1.45782   1.60379
-  9.00000   7.00000    180112                znucl, zion, pspdat
    8 -116133    2    4       600   0.00000   pspcod,pspxc,lmax,lloc,mmax,r2well
    5.99000000000000    2.50000000000000    0.00000000000000   rchrg,fchrg,qchrg
     nproj     2     2     1
     extension_switch     1
  pspatm : epsatm=    4.89824824
         --- l  ekb(1:nproj) -->
             0    6.506434    1.065875
             1   -3.978753   -1.295852
             2   -2.394754
 pspatm: atomic psp has been read  and splines computed

   6.46779991E+03                                ecore*ucvol(ha*bohr**3)

-inwffil : will read wavefunctions from disk file /scratch/users/j/a/jabreu/flow_simple_8atoms/flow/w262/t1/indata/in_WFK

 ==>  initialize data related to q vector <==

 The list of irreducible perturbations for this q vector is:
    1)    idir= 1    ipert=   9
    2)    idir= 2    ipert=   9
    3)    idir= 3    ipert=   9

 Perturbation wavevector (in red.coord.)   0.000000  0.000000  0.000000
 Perturbation : derivative vs k along direction   1

 dfpt_looppert : COMMENT -
  In a d/dk calculation, iscf is set to -3 automatically.
 The set of symmetries contains only one element for this perturbation.
 symkpt : not enough symmetry to change the number of k points.

[...]

 Initialisation of the first-order wave-functions :
  ireadwf=   0

--- !BeginCycle
iteration_state: {dtset: 1, }
solver: {iscf: 7, nstep: 2000, nline: 4, wfoptalg: 0, }
tolerances: {tolwfr: 1.00E-20, }
...

     iter   2DEtotal(Ha)        deltaE(Ha) residm    vres2
-ETOT  1  -54.076645204369     -5.408E+01 2.902E-01 0.000E+00
 ETOT  2  -54.162774667069     -8.613E-02 4.812E-02 0.000E+00
 ETOT  3  -54.163283195319     -5.085E-04 2.663E-03 0.000E+00
 ETOT  4  -54.163290071136     -6.876E-06 5.115E-04 0.000E+00
 ETOT  5  -54.163290207367     -1.362E-07 3.574E-05 0.000E+00
 ETOT  6  -54.163290210762     -3.396E-09 8.221E-06 0.000E+00
 ETOT  7  -54.163290210861     -9.811E-11 6.180E-07 0.000E+00
 ETOT  8  -54.163290210864     -3.148E-12 1.493E-07 0.000E+00
 ETOT  9  -54.163290210864     -8.527E-14 1.162E-08 0.000E+00
 ETOT 10  -54.163290210864     -4.263E-14 2.833E-09 0.000E+00
 ETOT 11  -54.163290210864     -2.132E-14 2.257E-10 0.000E+00
 ETOT 12  -54.163290210864      0.000E+00 5.488E-11 0.000E+00
 ETOT 13  -54.163290210864      2.842E-14 4.451E-12 0.000E+00
 ETOT 14  -54.163290210864     -7.105E-15 1.076E-12 0.000E+00
 ETOT 15  -54.163290210864     -2.132E-14 8.855E-14 0.000E+00
 ETOT 16  -54.163290210864      0.000E+00 2.130E-14 0.000E+00
 ETOT 17  -54.163290210864      0.000E+00 1.773E-15 0.000E+00
 ETOT 18  -54.163290210864      0.000E+00 4.242E-16 0.000E+00
 ETOT 19  -54.163290210864      7.105E-15 3.565E-17 0.000E+00
 ETOT 20  -54.163290210864      7.105E-15 8.489E-18 0.000E+00
 ETOT 21  -54.163290210864      0.000E+00 7.196E-19 0.000E+00
 ETOT 22  -54.163290210864      0.000E+00 1.770E-19 0.000E+00
 ETOT 23  -54.163290210864      0.000E+00 1.457E-20 0.000E+00
 ETOT 24  -54.163290210864      7.105E-15 9.998E-21 0.000E+00

 At SCF step   24   max residual=  1.00E-20 < tolwfr=  1.00E-20 =>converged.

 ----iterations are completed or convergence reached----

 dfpt_looppert: DFPT cycle converged with prtwf=-1. Will skip output of the 1st-order WFK file.
 dfpt_looppert : ek2=    8.3804260415E+01
          f-sum rule ratio=    1.0097205998E+00
 prteigrs : about to open file /scratch/users/j/a/jabreu/flow_simple_8atoms/flow/w262/t1/tmpdata/tmp_1WF1_EIG
 Expectation of eigenvalue derivatives (hartree) for nkpt=   2  k points:
  (in case of degenerate eigenvalues, averaged derivative)
 kpt#   1, nband= 47, wtk=  0.50000, kpt=  0.5000  0.5000  0.0000 (reduced coord)
  -0.00000    0.00000   -0.00000   -0.00000    0.00000   -0.00000   -0.00000   -0.00000
   0.00000    0.00000    0.00000   -0.00000   -0.00000   -0.00000    0.00000   -0.00000
  -0.00000    0.00000    0.00000    0.00000    0.00000    0.00000    0.00000   -0.00000
   0.00000    0.00000    0.00000    0.00000   -0.00000    0.00000   -0.00000   -0.00000
  -0.00000    0.00000    0.00000   -0.00000    0.00000    0.00000    0.00000    0.00000
   0.00000   -0.00000   -0.00000    0.00000    0.00091    0.00508   -0.03174
 prteigrs : prtvol=0 or 1, do not print more k-points.

 Eight components of 2nd-order total energy (hartree) are
 1,2,3: 0th-order hamiltonian combined with 1st-order wavefunctions
     kin0=   7.31799728E+01 eigvalue=   5.90250454E+00  local=  -3.40071288E+01
 4,5,6: 1st-order hamiltonian combined with 1st and 0th-order wfs
     kin1=  -8.46188881E+01  Hartree=   0.00000000E+00     xc=   0.00000000E+00
 7,8,9: eventually, occupation + non-local contributions
    edocc=   5.99822719E+00     enl0=   3.08971448E+00   enl1=  -2.37076923E+01
 1-9 gives the relaxation energy (to be shifted if some occ is /=2.0)
   erelax=  -5.41632902E+01
  No Ewald or frozen-wf contrib.: the relaxation energy is the total one
 2DEtotal=   -0.5416329021E+02 Ha. Also 2DEtotal=   -0.147385808105E+04 eV
    (  non-var. 2DEtotal :   -5.4163290211E+01 Ha)

 Perturbation wavevector (in red.coord.)   0.000000  0.000000  0.000000
 Perturbation : derivative vs k along direction   2
 The set of symmetries contains only one element for this perturbation.
 symkpt : not enough symmetry to change the number of k points.

[...]

 Perturbation wavevector (in red.coord.)   0.000000  0.000000  0.000000
 Perturbation : derivative vs k along direction   3
 The set of symmetries contains only one element for this perturbation.
 symkpt : not enough symmetry to change the number of k points.

-inwffil : will read wavefunctions from disk file /scratch/users/j/a/jabreu/flow_simple_8atoms/flow/w262/t1/indata/in_WFK

 Initialisation of the first-order wave-functions :
  ireadwf=   0

--- !BeginCycle
iteration_state: {dtset: 1, }
solver: {iscf: 7, nstep: 2000, nline: 4, wfoptalg: 0, }
tolerances: {tolwfr: 1.00E-20, }
...

     iter   2DEtotal(Ha)        deltaE(Ha) residm    vres2
-ETOT  1  -54.232784405092     -5.423E+01 2.894E-01 0.000E+00
 ETOT  2  -54.318094113354     -8.531E-02 7.947E-02 0.000E+00
 ETOT  3  -54.318611396365     -5.173E-04 2.565E-03 0.000E+00
 ETOT  4  -54.318618237281     -6.841E-06 9.609E-04 0.000E+00
 ETOT  5  -54.318618370155     -1.329E-07 3.838E-05 0.000E+00
 ETOT  6  -54.318618373427     -3.272E-09 1.747E-05 0.000E+00
 ETOT  7  -54.318618373522     -9.425E-11 7.470E-07 0.000E+00
 ETOT  8  -54.318618373525     -2.963E-12 3.692E-07 0.000E+00
 ETOT  9  -54.318618373525     -6.395E-14 1.657E-08 0.000E+00
 ETOT 10  -54.318618373525      0.000E+00 8.343E-09 0.000E+00
 ETOT 11  -54.318618373525     -1.421E-14 3.915E-10 0.000E+00
 ETOT 12  -54.318618373525     -7.105E-15 1.946E-10 0.000E+00
 ETOT 13  -54.318618373525      2.132E-14 9.531E-12 0.000E+00
 ETOT 14  -54.318618373525     -7.105E-15 4.620E-12 0.000E+00
 ETOT 15  -54.318618373525     -7.105E-15 2.357E-13 0.000E+00
 ETOT 16  -54.318618373525      1.421E-14 1.109E-13 0.000E+00
 ETOT 17  -54.318618373525      0.000E+00 5.883E-15 0.000E+00
 ETOT 18  -54.318618373525      0.000E+00 2.679E-15 0.000E+00
 ETOT 19  -54.318618373525      1.421E-14 1.479E-16 0.000E+00
 ETOT 20  -54.318618373525     -2.132E-14 6.510E-17 0.000E+00
 ETOT 21  -54.318618373525     -7.105E-15 3.735E-18 0.000E+00
 ETOT 22  -54.318618373525      0.000E+00 1.587E-18 0.000E+00
 ETOT 23  -54.318618373525      7.105E-15 9.475E-20 0.000E+00
 ETOT 24  -54.318618373525      7.105E-15 1.312E-20 0.000E+00
 ETOT 25  -54.318618373525     -1.421E-14 9.962E-21 0.000E+00

 At SCF step   25   max residual=  9.96E-21 < tolwfr=  1.00E-20 =>converged.

 ----iterations are completed or convergence reached----

 dfpt_looppert: DFPT cycle converged with prtwf=-1. Will skip output of the 1st-order WFK file.
 dfpt_looppert : ek2=    8.3804260414E+01
          f-sum rule ratio=    1.0137558211E+00
 prteigrs : about to open file /scratch/users/j/a/jabreu/flow_simple_8atoms/flow/w262/t1/tmpdata/tmp_1WF1_EIG
 Expectation of eigenvalue derivatives (hartree) for nkpt=   2  k points:
  (in case of degenerate eigenvalues, averaged derivative)
 kpt#   1, nband= 47, wtk=  0.50000, kpt=  0.5000  0.5000  0.0000 (reduced coord)
  -0.00000   -0.00000    0.00000   -0.00000   -0.00000   -0.00000    0.00000    0.00000
  -0.00000   -0.00000   -0.00000   -0.00000    0.00000    0.00000    0.00000   -0.00000
  -0.00000   -0.00000    0.00000   -0.00000   -0.00000    0.00000   -0.00000   -0.00000
   0.00000    0.00000    0.00000    0.00000   -0.00000   -0.00000    0.00000    0.00000
   0.00000   -0.00000   -0.00000   -0.00000    0.00000   -0.00000   -0.00000    0.00000
  -0.00000   -0.00000    0.00000   -0.00000    0.00501   -0.00057    0.00691
 prteigrs : prtvol=0 or 1, do not print more k-points.

 Eight components of 2nd-order total energy (hartree) are
 1,2,3: 0th-order hamiltonian combined with 1st-order wavefunctions
     kin0=   7.33215298E+01 eigvalue=   5.90873956E+00  local=  -3.40788951E+01
 4,5,6: 1st-order hamiltonian combined with 1st and 0th-order wfs
     kin1=  -8.49570568E+01  Hartree=   0.00000000E+00     xc=   0.00000000E+00
 7,8,9: eventually, occupation + non-local contributions
    edocc=   6.10780310E+00     enl0=   3.05944107E+00   enl1=  -2.36801799E+01
 1-9 gives the relaxation energy (to be shifted if some occ is /=2.0)
   erelax=  -5.43186184E+01
  No Ewald or frozen-wf contrib.: the relaxation energy is the total one
 2DEtotal=   -0.5431861837E+02 Ha. Also 2DEtotal=   -0.147808477531E+04 eV
    (  non-var. 2DEtotal :   -5.4318618373E+01 Ha)

 CALCULATION OF EFFECTIVE MASSES
 NOTE : Additional infos (eff. mass eigenvalues, eigenvectors and, if degenerate, average mass) are available in stdout.

 K-point ( 0.500, 0.500, 0.000) | band =    38
 Effective mass tensor:
             -3.8838776421             -0.6616459111             -0.3274567568
             -0.6616459111             -4.9110085787              1.8551539227
             -0.3274567568              1.8551539227             -2.8030904634
 Effective mass tensor eigenvalues:
             -6.0696793852             -3.9705860132             -1.5577112858
 Angular average effective mass 1/(<1/m>)=  -2.8340043505
 Angular average effective mass for Frohlich model (<m**0.5>)**2=  -3.1392495500
 Effective masses along directions: (cart. coord. / red. coord. -> eff. mass)
    1:   1.000000  0.000000  0.000000 /   0.940739  0.339132  0.000000 ->  -3.6361541281
    2:   0.000000  1.000000  0.000000 /   0.000000  1.000000  0.000000 ->  -3.4825982134
    3:   0.000000  0.000000  1.000000 /   0.440783  0.440783  0.781934 ->  -2.0144433772
    4:   0.577350  0.577350  0.577350 /   0.587546  0.689955  0.422791 ->  -2.5603059345
    5:   0.000000  0.707107  0.707107 /   0.320283  0.758023  0.568172 ->  -1.6964170273
    6:   0.707107  0.000000  0.707107 /   0.725078  0.449478  0.521758 ->  -3.2239101490
    7:   0.707107  0.707107  0.000000 /   0.611702  0.791088  0.000000 ->  -4.6405034020

 K-point ( 0.000, 0.000, 0.000) | band =    39
 Effective mass tensor:
              0.5411802367             -0.0083844581             -0.0232142171
             -0.0083844581              0.5476837130             -0.0158605880
             -0.0232142171             -0.0158605880              0.5094872773
 Effective mass tensor eigenvalues:
              0.4914981551              0.5534108051              0.5534422666
 Angular average effective mass 1/(<1/m>)=   0.5311196496
 Angular average effective mass for Frohlich model (<m**0.5>)**2=   0.5316285708
 Effective masses along directions: (cart. coord. / red. coord. -> eff. mass)
    1:   1.000000  0.000000  0.000000 /   0.940739  0.339132  0.000000 ->   0.5399709328
    2:   0.000000  1.000000  0.000000 /   0.000000  1.000000  0.000000 ->   0.5470364078
    3:   0.000000  0.000000  1.000000 /   0.440783  0.440783  0.781934 ->   0.5080109970
    4:   0.577350  0.577350  0.577350 /   0.587546  0.689955  0.422791 ->   0.5002169605
    5:   0.000000  0.707107  0.707107 /   0.320283  0.758023  0.568172 ->   0.5111014965
    6:   0.707107  0.000000  0.707107 /   0.725078  0.449478  0.521758 ->   0.5011154680
    7:   0.707107  0.707107  0.000000 /   0.611702  0.791088  0.000000 ->   0.5345265174

 END OF EFFECTIVE MASSES SECTION

 ---- first-order wavefunction calculations are completed ----

 Total localisation tensor (bohr^2) in cartesian coordinates
  WARNING : still subject to testing - especially symmetries.
      direction              matrix element
   alpha     beta       real part   imaginary part
     1        1       0.5987979883    0.0000000000
     1        2       0.1781673015    0.0000000000
     1        3       0.4920328608    0.0000000000
     2        1       0.1781673015    0.0000000000
     2        2       0.4609984730    0.0000000000
     2        3       0.3373011326    0.0000000000
     3        1       0.4920328608    0.0000000000
     3        2       0.3373011326    0.0000000000
     3        3       1.2795000741    0.0000000000

 respfn : d/dk was computed, but no 2DTE, so no DDB output.

== END DATASET(S) ==============================================================

 -outvars: echo values of variables after computation  --------
            acell      1.0000000000E+00  1.0000000000E+00  1.0000000000E+00 Bohr
              amu      1.12411000E+02  1.18710000E+02  1.89984032E+01
             ecut      5.10000000E+01 Hartree
           etotal     -5.4318618374E+01
            fcart      0.0000000000E+00  0.0000000000E+00  0.0000000000E+00
                       0.0000000000E+00  0.0000000000E+00  0.0000000000E+00
                       0.0000000000E+00  0.0000000000E+00  0.0000000000E+00
                       0.0000000000E+00  0.0000000000E+00  0.0000000000E+00
                       0.0000000000E+00  0.0000000000E+00  0.0000000000E+00
                       0.0000000000E+00  0.0000000000E+00  0.0000000000E+00
                       0.0000000000E+00  0.0000000000E+00  0.0000000000E+00
                       0.0000000000E+00  0.0000000000E+00  0.0000000000E+00
-          fftalg         512
           irdden           1
           irdwfk           1
           istwfk        1    1
              ixc     -116133
              kpt      5.00000000E-01  5.00000000E-01  0.00000000E+00
                       0.00000000E+00  0.00000000E+00  0.00000000E+00
           kptopt           0
P           mkmem           2
P          mkqmem           2
P          mk1mem           2
            natom           8
            nband          47
           nbdbuf           4
            ngfft          72      72      72
             nkpt           2
            nstep        2000
             nsym           6
           ntypat           3
              occ      2.000000  2.000000  2.000000  2.000000  2.000000  2.000000
                       2.000000  2.000000  2.000000  2.000000  2.000000  2.000000
                       2.000000  2.000000  2.000000  2.000000  2.000000  2.000000
                       2.000000  2.000000  2.000000  2.000000  2.000000  2.000000
                       2.000000  2.000000  2.000000  2.000000  2.000000  2.000000
                       2.000000  2.000000  2.000000  2.000000  2.000000  2.000000
                       2.000000  2.000000  0.000000  0.000000  0.000000  0.000000
                       0.000000  0.000000  0.000000  0.000000  0.000000
        optdriver           1
            prtwf          -1
            rfdir           1       1       1
           rfelfd           2
            rprim      9.0718973923E+00  0.0000000000E+00  6.1913723895E+00
                       3.2703717963E+00  8.4619141222E+00  6.1913723895E+00
                       0.0000000000E+00  0.0000000000E+00  1.0983278853E+01
          spgroup         148
           strten      0.0000000000E+00  0.0000000000E+00  0.0000000000E+00
                       0.0000000000E+00  0.0000000000E+00  0.0000000000E+00
           symrel      1  0  0   0  1  0   0  0  1      -1  0  0   0 -1  0   0  0 -1
                       0  0  1   1  0  0   0  1  0       0  0 -1  -1  0  0   0 -1  0
                       0  1  0   0  0  1   1  0  0       0 -1  0   0  0 -1  -1  0  0
           tolwfr      1.00000000E-20
            typat      1  2  3  3  3  3  3  3
           useylm           1
              wtk        0.50000    0.50000
           xangst      3.2656237784E+00  2.2389260473E+00  6.1823835807E+00
                       0.0000000000E+00  0.0000000000E+00  0.0000000000E+00
                       3.4731097561E+00  1.0467874841E+00  8.0441461546E+00
                       2.6658359136E+00  3.9939574858E+00  7.4032536938E+00
                       1.1431878822E+00  1.6156314250E+00  5.9895770818E+00
                       3.8654116433E+00  4.8389460874E-01  4.9615134676E+00
                       3.0581378008E+00  3.4310646104E+00  4.3206210069E+00
                       5.3880596747E+00  2.8622206696E+00  6.3751900796E+00
            xcart      6.1711345943E+00  4.2309570611E+00  1.1683011816E+01
                       0.0000000000E+00  0.0000000000E+00  0.0000000000E+00
                       6.5632262685E+00  1.9781416643E+00  1.5201233205E+01
                       5.0376997919E+00  7.5474858345E+00  1.3990121974E+01
                       2.1603120158E+00  3.0531009249E+00  1.1318660336E+01
                       7.3045693967E+00  9.1442828770E-01  9.3759016585E+00
                       5.7790429201E+00  6.4837724579E+00  8.1647904270E+00
                       1.0181957173E+01  5.4088131973E+00  1.2047363296E+01
             xred      5.0000000000E-01  5.0000000000E-01  5.0000000000E-01
                       0.0000000000E+00  0.0000000000E+00  0.0000000000E+00
                       6.3919500000E-01  2.3377000000E-01  8.9193600000E-01
                       2.3377000000E-01  8.9193600000E-01  6.3919500000E-01
                       1.0806400000E-01  3.6080500000E-01  7.6623000000E-01
                       7.6623000000E-01  1.0806400000E-01  3.6080500000E-01
                       3.6080500000E-01  7.6623000000E-01  1.0806400000E-01
                       8.9193600000E-01  6.3919500000E-01  2.3377000000E-01
            znucl       48.00000   50.00000    9.00000

- Timing analysis has been suppressed with timopt=0

 Suggested references for the acknowledgment of ABINIT usage.

 Calculation completed.
.Delivered  14 WARNINGs and   9 COMMENTs to log file.