.Version 9.7.2 of ABINIT

 ABINIT is a project of the Universite Catholique de Louvain,
 Corning Inc. and other collaborators, see ~abinit/doc/developers/contributors.txt .
 acknowledgments of the ABINIT effort.

.Starting date : Wed  1 Dec 2021.
- ( at 21h16 )

- input  file    -> /scratch/users/j/a/jabreu/flow_simple_remain_atoms/flow/w163/t1/run.abi
- output file    -> /scratch/users/j/a/jabreu/flow_simple_remain_atoms/flow/w163/t1/run.abo
- root for input  files -> /scratch/users/j/a/jabreu/flow_simple_remain_atoms/flow/w163/t1/indata/in
- root for output files -> /scratch/users/j/a/jabreu/flow_simple_remain_atoms/flow/w163/t1/outdata/out

 Symmetries : space group P4 m m (# 99); Bravais tP (primitive tetrag.)
     intxc =       0      iscf =       7    lmnmax =      18     lnmax =       6
     mgfft =      48  mpssoang =       3    mqgrid =    3001     natom =       5
  nloc_mem =       1    nspden =       1   nspinor =       1    nsppol =       1
      nsym =       8    n1xccc =    2501    ntypat =       3    occopt =       1
   xclevel =       2
-    mband =          29        mffmem =           1         mkmem =           2
-   mkqmem =           2        mk1mem =           2           mpw =        5959
      nfft =      110592          nkpt =           2
  Rough estimation (10% accuracy) of disk space for files :

------------- Echo of variables that govern the present computation ------------
-
- outvars: echo of selected default values
-   iomode0 =  0 , fftalg0 =512 , wfoptalg0 =  0
-
- outvars: echo of global parameters not present in the input file
-  max_nthreads =    0
-
 -outvars: echo values of preprocessed input variables --------
            acell      1.0000000000E+00  1.0000000000E+00  1.0000000000E+00 Bohr
              amu      1.37327000E+02  4.78800000E+01  1.59994000E+01
             ecut      4.40000000E+01 Hartree
-          fftalg         512
           irdden           1
           irdwfk           1
           istwfk        1    1
              ixc     -116133
              kpt      5.00000000E-01  5.00000000E-01  5.00000000E-01
                       0.00000000E+00  0.00000000E+00  0.00000000E+00
           kptopt           0
P           mkmem           2
P          mkqmem           2
P          mk1mem           2
            natom           5
            nband          29
           nbdbuf           4
            ngfft          48      48      48
             nkpt           2
            nstep        2000
             nsym           8
           ntypat           3
              occ      2.000000  2.000000  2.000000  2.000000  2.000000  2.000000
                       2.000000  2.000000  2.000000  2.000000  2.000000  2.000000
                       2.000000  2.000000  2.000000  2.000000  2.000000  2.000000
                       2.000000  2.000000  0.000000  0.000000  0.000000  0.000000
                       0.000000  0.000000  0.000000  0.000000  0.000000
        optdriver           1
            prtwf          -1
            rfdir           1       1       1
           rfelfd           2
            rprim      7.4782411042E+00  0.0000000000E+00  0.0000000000E+00
                       0.0000000000E+00  7.4782411042E+00  0.0000000000E+00
                       0.0000000000E+00  0.0000000000E+00  7.6580069332E+00
          spgroup          99
           symrel      1  0  0   0  1  0   0  0  1       1  0  0   0 -1  0   0  0  1
                      -1  0  0   0 -1  0   0  0  1      -1  0  0   0  1  0   0  0  1
                       0  1  0   1  0  0   0  0  1       0  1  0  -1  0  0   0  0  1
                       0 -1  0  -1  0  0   0  0  1       0 -1  0   1  0  0   0  0  1
           tolwfr      1.00000000E-20
            typat      1  2  3  3  3
           useylm           1
              wtk        0.50000    0.50000
           xangst      1.9786573763E+00  1.9786573763E+00  2.3606532551E+00
                       0.0000000000E+00  0.0000000000E+00  3.9898730165E-01
                       0.0000000000E+00  1.9786573763E+00  2.5782045907E-01
                       1.9786573763E+00  0.0000000000E+00  2.5782045907E-01
                       0.0000000000E+00  0.0000000000E+00  2.2360365886E+00
            xcart      3.7391205521E+00  3.7391205521E+00  4.4609881468E+00
                       0.0000000000E+00  0.0000000000E+00  7.5397673062E-01
                       0.0000000000E+00  3.7391205521E+00  4.8721005910E-01
                       3.7391205521E+00  0.0000000000E+00  4.8721005910E-01
                       0.0000000000E+00  0.0000000000E+00  4.2254967756E+00
             xred      5.0000000000E-01  5.0000000000E-01  5.8252600000E-01
                       0.0000000000E+00  0.0000000000E+00  9.8456000000E-02
                       0.0000000000E+00  5.0000000000E-01  6.3621000000E-02
                       5.0000000000E-01  0.0000000000E+00  6.3621000000E-02
                       0.0000000000E+00  0.0000000000E+00  5.5177500000E-01
            znucl       56.00000   22.00000    8.00000

 chkinp: Checking input parameters for consistency.

== DATASET  1 ==================================================================
-   mpi_nproc: 1, omp_nthreads: -1 (-1 if OMP is not activated)

--- !DatasetInfo
iteration_state: {dtset: 1, }
dimensions: {natom: 5, nkpt: 2, mband: 29, nsppol: 1, nspinor: 1, nspden: 1, mpw: 5959, }
cutoff_energies: {ecut:  44.0, pawecutdg:  -1.0, }
electrons: {nelect:   4.00000000E+01, charge:   0.00000000E+00, occopt:   1.00000000E+00, tsmear:   1.00000000E-02, }
meta: {optdriver: 1, rfelfd: 2, }
...

 Real(R)+Recip(G) space primitive vectors, cartesian coordinates (Bohr,Bohr^-1):
 R(1)=  7.4782411  0.0000000  0.0000000  G(1)=  0.1337213  0.0000000  0.0000000
 R(2)=  0.0000000  7.4782411  0.0000000  G(2)=  0.0000000  0.1337213  0.0000000
 R(3)=  0.0000000  0.0000000  7.6580069  G(3)=  0.0000000  0.0000000  0.1305823
 Unit cell volume ucvol=  4.2826707E+02 bohr^3
 Angles (23,13,12)=  9.00000000E+01  9.00000000E+01  9.00000000E+01 degrees

 getcut: wavevector=  0.0000  0.0000  0.0000  ngfft=  48  48  48
         ecut(hartree)=     44.000   => boxcut(ratio)=   2.09910

--- Pseudopotential description ------------------------------------------------
- pspini: atom type   1  psp file is /scratch/users/j/a/jabreu/pseudos/PBEsol/Ba.psp8
- pspatm: opening atomic psp file    /scratch/users/j/a/jabreu/pseudos/PBEsol/Ba.psp8
- Ba    ONCVPSP-3.3.0  r_core=   2.15444   1.91218   2.15444
- 56.00000  10.00000    180112                znucl, zion, pspdat
    8 -116133    2    4       600   0.00000   pspcod,pspxc,lmax,lloc,mmax,r2well
    5.99000000000000    5.00000000000000    0.00000000000000   rchrg,fchrg,qchrg
     nproj     2     2     2
     extension_switch     1
  pspatm : epsatm=   26.37418029
         --- l  ekb(1:nproj) -->
             0    6.652372    0.677024
             1    5.027722    0.408462
             2    2.543237    0.416854
 pspatm: atomic psp has been read  and splines computed

- pspini: atom type   2  psp file is /scratch/users/j/a/jabreu/pseudos/PBEsol/Ti.psp8
- pspatm: opening atomic psp file    /scratch/users/j/a/jabreu/pseudos/PBEsol/Ti.psp8
- Ti    ONCVPSP-3.3.0  r_core=   1.35825   1.31050   1.66360
- 22.00000  12.00000    180112                znucl, zion, pspdat
    8 -116133    2    4       600   0.00000   pspcod,pspxc,lmax,lloc,mmax,r2well
    5.99000000000000    2.50000000000000    0.00000000000000   rchrg,fchrg,qchrg
     nproj     2     2     2
     extension_switch     1
  pspatm : epsatm=   14.76919902
         --- l  ekb(1:nproj) -->
             0   11.321950    1.254474
             1    1.946894   -0.084268
             2   -5.237105   -1.488377
 pspatm: atomic psp has been read  and splines computed

- pspini: atom type   3  psp file is /scratch/users/j/a/jabreu/pseudos/PBEsol/O.psp8
- pspatm: opening atomic psp file    /scratch/users/j/a/jabreu/pseudos/PBEsol/O.psp8
- O     ONCVPSP-3.3.0  r_core=   1.35509   1.45563   1.26150
-  8.00000   6.00000    180112                znucl, zion, pspdat
    8 -116133    2    4       600   0.00000   pspcod,pspxc,lmax,lloc,mmax,r2well
    5.99000000000000    4.00000000000000    0.00000000000000   rchrg,fchrg,qchrg
     nproj     2     2     1
     extension_switch     1
  pspatm : epsatm=    6.22910522
         --- l  ekb(1:nproj) -->
             0    6.050032    0.820363
             1   -4.739617   -1.153841
             2   -1.335834
 pspatm: atomic psp has been read  and splines computed

   2.39322780E+03                                ecore*ucvol(ha*bohr**3)

 ==>  initialize data related to q vector <==

 The list of irreducible perturbations for this q vector is:
    1)    idir= 1    ipert=   6
    2)    idir= 2    ipert=   6
    3)    idir= 3    ipert=   6

 Perturbation wavevector (in red.coord.)   0.000000  0.000000  0.000000
 Perturbation : derivative vs k along direction   1

 dfpt_looppert : COMMENT -
  In a d/dk calculation, iscf is set to -3 automatically.
 The set of symmetries contains only one element for this perturbation.
 symkpt : not enough symmetry to change the number of k points.

 Initialisation of the first-order wave-functions :
  ireadwf=   0

--- !BeginCycle
iteration_state: {dtset: 1, }
solver: {iscf: 7, nstep: 2000, nline: 4, wfoptalg: 0, }
tolerances: {tolwfr: 1.00E-20, }
...

     iter   2DEtotal(Ha)        deltaE(Ha) residm    vres2
-ETOT  1  -35.392406079282     -3.539E+01 3.175E-02 0.000E+00
 ETOT  2  -35.402798247945     -1.039E-02 1.140E-03 0.000E+00
 ETOT  3  -35.402812716269     -1.447E-05 3.862E-05 0.000E+00
 ETOT  4  -35.402812757942     -4.167E-08 1.792E-06 0.000E+00
 ETOT  5  -35.402812758097     -1.559E-10 2.436E-07 0.000E+00
 ETOT  6  -35.402812758098     -6.182E-13 2.723E-08 0.000E+00
 ETOT  7  -35.402812758098     -7.105E-14 4.116E-09 0.000E+00
 ETOT  8  -35.402812758098      3.553E-14 5.790E-10 0.000E+00
 ETOT  9  -35.402812758098      1.421E-14 7.619E-11 0.000E+00
 ETOT 10  -35.402812758098      0.000E+00 1.026E-11 0.000E+00
 ETOT 11  -35.402812758098      7.105E-15 1.376E-12 0.000E+00
 ETOT 12  -35.402812758098      0.000E+00 1.860E-13 0.000E+00
 ETOT 13  -35.402812758098      0.000E+00 2.569E-14 0.000E+00
 ETOT 14  -35.402812758098      0.000E+00 3.538E-15 0.000E+00
 ETOT 15  -35.402812758098     -1.421E-14 5.018E-16 0.000E+00
 ETOT 16  -35.402812758098      1.421E-14 7.063E-17 0.000E+00
 ETOT 17  -35.402812758098      0.000E+00 1.032E-17 0.000E+00
 ETOT 18  -35.402812758098      0.000E+00 1.479E-18 0.000E+00
 ETOT 19  -35.402812758098      0.000E+00 2.221E-19 0.000E+00
 ETOT 20  -35.402812758098      0.000E+00 3.215E-20 0.000E+00
 ETOT 21  -35.402812758098     -1.421E-14 9.748E-21 0.000E+00

 At SCF step   21   max residual=  9.75E-21 < tolwfr=  1.00E-20 =>converged.

 ----iterations are completed or convergence reached----

 dfpt_looppert: DFPT cycle converged with prtwf=-1. Will skip output of the 1st-order WFK file.
 dfpt_looppert : ek2=    5.6474292342E+01
          f-sum rule ratio=    1.2647535475E+00
 prteigrs : about to open file /scratch/users/j/a/jabreu/flow_simple_remain_atoms/flow/w163/t1/tmpdata/tmp_1WF1_EIG
 Expectation of eigenvalue derivatives (hartree) for nkpt=   2  k points:
  (in case of degenerate eigenvalues, averaged derivative)
 kpt#   1, nband= 29, wtk=  0.50000, kpt=  0.5000  0.5000  0.5000 (reduced coord)
   0.00000   -0.00000    0.00000    0.00000    0.00000   -0.00000    0.00000    0.00000
   0.00000    0.00000   -0.00000   -0.00000    0.00000   -0.00000   -0.00000   -0.00000
  -0.00000    0.00000    0.00000   -0.00000    0.00000    0.00000    0.00000    0.00000
   0.00000    0.00000    0.00000   -0.00000    0.00004
 prteigrs : prtvol=0 or 1, do not print more k-points.

 Eight components of 2nd-order total energy (hartree) are
 1,2,3: 0th-order hamiltonian combined with 1st-order wavefunctions
     kin0=   3.71818750E+01 eigvalue=  -2.11381576E+00  local=  -1.59019835E+01
 4,5,6: 1st-order hamiltonian combined with 1st and 0th-order wfs
     kin1=  -7.14260616E+01  Hartree=   0.00000000E+00     xc=   0.00000000E+00
 7,8,9: eventually, occupation + non-local contributions
    edocc=   1.55703552E+01     enl0=   6.66381767E-01   enl1=   6.20436065E-01
 1-9 gives the relaxation energy (to be shifted if some occ is /=2.0)
   erelax=  -3.54028128E+01
  No Ewald or frozen-wf contrib.: the relaxation energy is the total one
 2DEtotal=   -0.3540281276E+02 Ha. Also 2DEtotal=   -0.963359527684E+03 eV
    (  non-var. 2DEtotal :   -3.5402812758E+01 Ha)

 Perturbation wavevector (in red.coord.)   0.000000  0.000000  0.000000
 Perturbation : derivative vs k along direction   2
 The set of symmetries contains only one element for this perturbation.
 symkpt : not enough symmetry to change the number of k points.

[...]

 Perturbation wavevector (in red.coord.)   0.000000  0.000000  0.000000
 Perturbation : derivative vs k along direction   3
 The set of symmetries contains only one element for this perturbation.
 symkpt : not enough symmetry to change the number of k points.

 Initialisation of the first-order wave-functions :
  ireadwf=   0

--- !BeginCycle
iteration_state: {dtset: 1, }
solver: {iscf: 7, nstep: 2000, nline: 4, wfoptalg: 0, }
tolerances: {tolwfr: 1.00E-20, }
...

     iter   2DEtotal(Ha)        deltaE(Ha) residm    vres2
-ETOT  1  -33.731806770715     -3.373E+01 2.826E-02 0.000E+00
 ETOT  2  -33.743006893022     -1.120E-02 1.633E-04 0.000E+00
 ETOT  3  -33.743040976664     -3.408E-05 1.893E-06 0.000E+00
 ETOT  4  -33.743041194100     -2.174E-07 6.251E-08 0.000E+00
 ETOT  5  -33.743041195818     -1.718E-09 1.218E-09 0.000E+00
 ETOT  6  -33.743041195833     -1.511E-11 8.837E-11 0.000E+00
 ETOT  7  -33.743041195833     -1.350E-13 2.422E-12 0.000E+00
 ETOT  8  -33.743041195833      7.105E-15 2.335E-13 0.000E+00
 ETOT  9  -33.743041195833      0.000E+00 6.905E-15 0.000E+00
 ETOT 10  -33.743041195833     -1.421E-14 7.074E-16 0.000E+00
 ETOT 11  -33.743041195833     -2.132E-14 2.581E-17 0.000E+00
 ETOT 12  -33.743041195833      2.842E-14 2.627E-18 0.000E+00
 ETOT 13  -33.743041195833     -1.421E-14 9.666E-20 0.000E+00
 ETOT 14  -33.743041195833     -7.105E-15 9.928E-21 0.000E+00

 At SCF step   14   max residual=  9.93E-21 < tolwfr=  1.00E-20 =>converged.

 ----iterations are completed or convergence reached----

 dfpt_looppert: DFPT cycle converged with prtwf=-1. Will skip output of the 1st-order WFK file.
 dfpt_looppert : ek2=    5.3854030666E+01
          f-sum rule ratio=    1.2629573952E+00
 prteigrs : about to open file /scratch/users/j/a/jabreu/flow_simple_remain_atoms/flow/w163/t1/tmpdata/tmp_1WF1_EIG
 Expectation of eigenvalue derivatives (hartree) for nkpt=   2  k points:
  (in case of degenerate eigenvalues, averaged derivative)
 kpt#   1, nband= 29, wtk=  0.50000, kpt=  0.5000  0.5000  0.5000 (reduced coord)
   0.00000    0.00000    0.00000    0.00000    0.00000    0.00000   -0.00000   -0.00000
  -0.00000   -0.00000   -0.00000    0.00000    0.00000   -0.00000    0.00000   -0.00000
  -0.00000    0.00000    0.00000   -0.00000   -0.00000   -0.00000    0.00000   -0.00000
  -0.00000   -0.00000    0.00000    0.00000    0.00005
 prteigrs : prtvol=0 or 1, do not print more k-points.

 Eight components of 2nd-order total energy (hartree) are
 1,2,3: 0th-order hamiltonian combined with 1st-order wavefunctions
     kin0=   3.21298250E+01 eigvalue=  -1.84241872E+00  local=  -1.30524862E+01
 4,5,6: 1st-order hamiltonian combined with 1st and 0th-order wfs
     kin1=  -6.80153463E+01  Hartree=   0.00000000E+00     xc=   0.00000000E+00
 7,8,9: eventually, occupation + non-local contributions
    edocc=   1.63895788E+01     enl0=   1.18542387E-01   enl1=   5.29263897E-01
 1-9 gives the relaxation energy (to be shifted if some occ is /=2.0)
   erelax=  -3.37430412E+01
  No Ewald or frozen-wf contrib.: the relaxation energy is the total one
 2DEtotal=   -0.3374304120E+02 Ha. Also 2DEtotal=   -0.918194846584E+03 eV
    (  non-var. 2DEtotal :   -3.3743041196E+01 Ha)

 CALCULATION OF EFFECTIVE MASSES
 NOTE : Additional infos (eff. mass eigenvalues, eigenvectors and, if degenerate, average mass) are available in stdout.

 K-point ( 0.500, 0.500, 0.500) | band =    20
 Effective mass tensor:
             -0.7876042319             -0.0000000068              0.0000052736
             -0.0000000068             -0.7876042363             -0.0000039635
              0.0000052736             -0.0000039635            -13.7926798288
 Effective mass tensor eigenvalues:
            -13.7926798288             -0.7876042412             -0.7876042270
 Angular average effective mass 1/(<1/m>)=  -1.1486117285
 Angular average effective mass for Frohlich model (<m**0.5>)**2=  -1.4764539791
 Effective masses along directions: (cart. coord. / red. coord. -> eff. mass)
    1:   1.000000  0.000000  0.000000 /   1.000000  0.000000  0.000000 ->  -0.7876042319
    2:   0.000000  1.000000  0.000000 /   0.000000  1.000000  0.000000 ->  -0.7876042363
    3:   0.000000  0.000000  1.000000 /   0.000000  0.000000  1.000000 -> -13.7926798287
    4:   0.577350  0.577350  0.577350 /   0.572725  0.572725  0.586492 ->  -1.1486116320
    5:   0.000000  0.707107  0.707107 /   0.000000  0.698660  0.715454 ->  -1.4901189744
    6:   0.707107  0.000000  0.707107 /   0.698660  0.000000  0.715454 ->  -1.4901170786
    7:   0.707107  0.707107  0.000000 /   0.707107  0.707107  0.000000 ->  -0.7876042409

 K-point ( 0.000, 0.000, 0.000) | band =    21
 Effective mass tensor:
              0.4017543084             -0.0000025679             -0.0000031241
             -0.0000025679              0.4017545731              0.0000080439
             -0.0000031241              0.0000080439              6.4399907288
 Effective mass tensor eigenvalues:
              0.4017518694              0.4017570121              6.4399907288
 Angular average effective mass 1/(<1/m>)=   0.5844028732
 Angular average effective mass for Frohlich model (<m**0.5>)**2=   0.7447330826
 Effective masses along directions: (cart. coord. / red. coord. -> eff. mass)
    1:   1.000000  0.000000  0.000000 /   1.000000  0.000000  0.000000 ->   0.4017543083
    2:   0.000000  1.000000  0.000000 /   0.000000  1.000000  0.000000 ->   0.4017545731
    3:   0.000000  0.000000  1.000000 /   0.000000  0.000000  1.000000 ->   6.4399907286
    4:   0.577350  0.577350  0.577350 /   0.572725  0.572725  0.586492 ->   0.5843996838
    5:   0.000000  0.707107  0.707107 /   0.000000  0.698660  0.715454 ->   0.7563280115
    6:   0.707107  0.000000  0.707107 /   0.698660  0.000000  0.715454 ->   0.7563250733
    7:   0.707107  0.707107  0.000000 /   0.707107  0.707107  0.000000 ->   0.4017518728

 END OF EFFECTIVE MASSES SECTION

 ---- first-order wavefunction calculations are completed ----

 Total localisation tensor (bohr^2) in cartesian coordinates
  WARNING : still subject to testing - especially symmetries.
      direction              matrix element
   alpha     beta       real part   imaginary part
     1        1       1.3668915967    0.0000000000
     1        2       0.0000000000    0.0000000000
     1        3       0.0000000000    0.0000000000
     2        1       0.0000000000    0.0000000000
     2        2       1.3668969089    0.0000000000
     2        3       0.0000000000    0.0000000000
     3        1       0.0000000000    0.0000000000
     3        2       0.0000000000    0.0000000000
     3        3       1.2902883585    0.0000000000

 respfn : d/dk was computed, but no 2DTE, so no DDB output.

== END DATASET(S) ==============================================================

 -outvars: echo values of variables after computation  --------
            acell      1.0000000000E+00  1.0000000000E+00  1.0000000000E+00 Bohr
              amu      1.37327000E+02  4.78800000E+01  1.59994000E+01
             ecut      4.40000000E+01 Hartree
           etotal     -3.3743041196E+01
            fcart      0.0000000000E+00  0.0000000000E+00  0.0000000000E+00
                       0.0000000000E+00  0.0000000000E+00  0.0000000000E+00
                       0.0000000000E+00  0.0000000000E+00  0.0000000000E+00
                       0.0000000000E+00  0.0000000000E+00  0.0000000000E+00
                       0.0000000000E+00  0.0000000000E+00  0.0000000000E+00
-          fftalg         512
           irdden           1
           irdwfk           1
           istwfk        1    1
              ixc     -116133
              kpt      5.00000000E-01  5.00000000E-01  5.00000000E-01
                       0.00000000E+00  0.00000000E+00  0.00000000E+00
           kptopt           0
P           mkmem           2
P          mkqmem           2
P          mk1mem           2
            natom           5
            nband          29
           nbdbuf           4
            ngfft          48      48      48
             nkpt           2
            nstep        2000
             nsym           8
           ntypat           3
              occ      2.000000  2.000000  2.000000  2.000000  2.000000  2.000000
                       2.000000  2.000000  2.000000  2.000000  2.000000  2.000000
                       2.000000  2.000000  2.000000  2.000000  2.000000  2.000000
                       2.000000  2.000000  0.000000  0.000000  0.000000  0.000000
                       0.000000  0.000000  0.000000  0.000000  0.000000
        optdriver           1
            prtwf          -1
            rfdir           1       1       1
           rfelfd           2
            rprim      7.4782411042E+00  0.0000000000E+00  0.0000000000E+00
                       0.0000000000E+00  7.4782411042E+00  0.0000000000E+00
                       0.0000000000E+00  0.0000000000E+00  7.6580069332E+00
          spgroup          99
           strten      0.0000000000E+00  0.0000000000E+00  0.0000000000E+00
                       0.0000000000E+00  0.0000000000E+00  0.0000000000E+00
           symrel      1  0  0   0  1  0   0  0  1       1  0  0   0 -1  0   0  0  1
                      -1  0  0   0 -1  0   0  0  1      -1  0  0   0  1  0   0  0  1
                       0  1  0   1  0  0   0  0  1       0  1  0  -1  0  0   0  0  1
                       0 -1  0  -1  0  0   0  0  1       0 -1  0   1  0  0   0  0  1
           tolwfr      1.00000000E-20
            typat      1  2  3  3  3
           useylm           1
              wtk        0.50000    0.50000
           xangst      1.9786573763E+00  1.9786573763E+00  2.3606532551E+00
                       0.0000000000E+00  0.0000000000E+00  3.9898730165E-01
                       0.0000000000E+00  1.9786573763E+00  2.5782045907E-01
                       1.9786573763E+00  0.0000000000E+00  2.5782045907E-01
                       0.0000000000E+00  0.0000000000E+00  2.2360365886E+00
            xcart      3.7391205521E+00  3.7391205521E+00  4.4609881468E+00
                       0.0000000000E+00  0.0000000000E+00  7.5397673062E-01
                       0.0000000000E+00  3.7391205521E+00  4.8721005910E-01
                       3.7391205521E+00  0.0000000000E+00  4.8721005910E-01
                       0.0000000000E+00  0.0000000000E+00  4.2254967756E+00
             xred      5.0000000000E-01  5.0000000000E-01  5.8252600000E-01
                       0.0000000000E+00  0.0000000000E+00  9.8456000000E-02
                       0.0000000000E+00  5.0000000000E-01  6.3621000000E-02
                       5.0000000000E-01  0.0000000000E+00  6.3621000000E-02
                       0.0000000000E+00  0.0000000000E+00  5.5177500000E-01
            znucl       56.00000   22.00000    8.00000

- Timing analysis has been suppressed with timopt=0

 Suggested references for the acknowledgment of ABINIT usage.

 Calculation completed.
.Delivered   2 WARNINGs and   5 COMMENTs to log file.