.Version 9.5.2 of ABINIT

 ABINIT is a project of the Universite Catholique de Louvain,
 Corning Inc. and other collaborators, see ~abinit/doc/developers/contributors.txt .
 acknowledgments of the ABINIT effort.

.Starting date : Mon 24 May 2021.
- ( at 23h43 )

- input  file    -> /scratch/users/j/a/jabreu/flow_simple_10atoms/flow/w503/t1/run.abi
- output file    -> /scratch/users/j/a/jabreu/flow_simple_10atoms/flow/w503/t1/run.abo
- root for input  files -> /scratch/users/j/a/jabreu/flow_simple_10atoms/flow/w503/t1/indata/in
- root for output files -> /scratch/users/j/a/jabreu/flow_simple_10atoms/flow/w503/t1/outdata/out

 Symmetries : space group R-3 (#148); Bravais hR (rhombohedral)
     intxc =       0      iscf =       7    lmnmax =      32     lnmax =       8
     mgfft =      80  mpssoang =       4    mqgrid =    3059     natom =      10
  nloc_mem =       1    nspden =       1   nspinor =       1    nsppol =       1
      nsym =       6    n1xccc =    2501    ntypat =       4    occopt =       1
   xclevel =       2
-    mband =          49        mffmem =           1         mkmem =           2
-   mkqmem =           2        mk1mem =           2           mpw =       19217
      nfft =      512000          nkpt =           2
  Rough estimation (10% accuracy) of disk space for files :

------------- Echo of variables that govern the present computation ------------
-
- outvars: echo of selected default values
-   iomode0 =  0 , fftalg0 =512 , wfoptalg0 =  0
-
- outvars: echo of global parameters not present in the input file
-  max_nthreads =    0
-
 -outvars: echo values of preprocessed input variables --------
            acell      1.0000000000E+00  1.0000000000E+00  1.0000000000E+00 Bohr
              amu      1.37327000E+02  1.38905500E+02  1.80947900E+02
                       1.59994000E+01
             ecut      5.20000000E+01 Hartree
-          fftalg         512
           irdden           1
           irdwfk           1
           istwfk        0    1
              ixc     -116133
              kpt      5.76954255E-01  4.23045745E-01  0.00000000E+00
                       0.00000000E+00  0.00000000E+00  0.00000000E+00
           kptopt           0
P           mkmem           2
P          mkqmem           2
P          mk1mem           2
            natom          10
            nband          49
           nbdbuf           4
            ngfft          80      80      80
             nkpt           2
            nstep        2000
             nsym           6
           ntypat           4
              occ      2.000000  2.000000  2.000000  2.000000  2.000000  2.000000
                       2.000000  2.000000  2.000000  2.000000  2.000000  2.000000
                       2.000000  2.000000  2.000000  2.000000  2.000000  2.000000
                       2.000000  2.000000  2.000000  2.000000  2.000000  2.000000
                       2.000000  2.000000  2.000000  2.000000  2.000000  2.000000
                       2.000000  2.000000  2.000000  2.000000  2.000000  2.000000
                       2.000000  2.000000  2.000000  2.000000  0.000000  0.000000
                       0.000000  0.000000  0.000000  0.000000  0.000000  0.000000
                       0.000000
        optdriver           1
            prtwf          -1
            rfdir           1       1       1
           rfelfd           2
            rprim      9.9676228130E+00  0.0000000000E+00  5.5314941955E+00
                       3.2564841710E+00  9.4206589677E+00  5.5314941955E+00
                       0.0000000000E+00  0.0000000000E+00  1.1399602299E+01
          spgroup         148
           symrel      1  0  0   0  1  0   0  0  1      -1  0  0   0 -1  0   0  0 -1
                       0  0  1   1  0  0   0  1  0       0  0 -1  -1  0  0   0 -1  0
                       0  1  0   0  0  1   1  0  0       0 -1  0   0  0 -1  -1  0  0
           tolwfr      1.00000000E-20
            typat      1  1  2  3  4  4  4  4  4  4
           useylm           1
              wtk        0.50000    0.50000
           xangst      5.2275752827E+00  3.7240476068E+00  8.8796078267E+00
                       1.7703207372E+00  1.2611504088E+00  3.0070832124E+00
                       0.0000000000E+00  0.0000000000E+00  0.0000000000E+00
                       3.4989480099E+00  2.4925990078E+00  5.9433455195E+00
                       2.3502540402E+00  3.5962371001E+00  4.7401881341E+00
                       2.1228908709E+00  1.0463731227E+00  5.9434364233E+00
                       4.3804251838E+00  1.6645426618E+00  4.3551316646E+00
                       4.6476419797E+00  1.3889609155E+00  7.1465029050E+00
                       2.6174708361E+00  3.3206553538E+00  7.5315593744E+00
                       4.8750051490E+00  3.9388248929E+00  5.9432546157E+00
            xcart      9.8786856233E+00  7.0374300827E+00  1.6780026960E+01
                       3.3454213607E+00  2.3832288850E+00  5.6825637302E+00
                       0.0000000000E+00  0.0000000000E+00  0.0000000000E+00
                       6.6120534920E+00  4.7103294838E+00  1.1231295345E+01
                       4.4413364787E+00  6.7959032281E+00  8.9576573917E+00
                       4.0116823559E+00  1.9773586347E+00  1.1231467128E+01
                       8.2778039430E+00  3.1455297673E+00  8.2300061188E+00
                       8.7827705053E+00  2.6247557396E+00  1.3504933298E+01
                       4.9463030410E+00  6.2751292004E+00  1.4232584571E+01
                       9.2124246281E+00  7.4433003330E+00  1.1231123562E+01
             xred      7.4702100000E-01  7.4702100000E-01  7.4702100000E-01
                       2.5297900000E-01  2.5297900000E-01  2.5297900000E-01
                       0.0000000000E+00  0.0000000000E+00  0.0000000000E+00
                       5.0000000000E-01  5.0000000000E-01  5.0000000000E-01
                       2.0989600000E-01  7.2138300000E-01  3.3389700000E-01
                       3.3389700000E-01  2.0989600000E-01  7.2138300000E-01
                       7.2138300000E-01  3.3389700000E-01  2.0989600000E-01
                       7.9010400000E-01  2.7861700000E-01  6.6610300000E-01
                       2.7861700000E-01  6.6610300000E-01  7.9010400000E-01
                       6.6610300000E-01  7.9010400000E-01  2.7861700000E-01
            znucl       56.00000   57.00000   73.00000    8.00000

 chkinp: Checking input parameters for consistency.

== DATASET  1 ==================================================================
-   mpi_nproc: 1, omp_nthreads: -1 (-1 if OMP is not activated)

--- !DatasetInfo
iteration_state: {dtset: 1, }
dimensions: {natom: 10, nkpt: 2, mband: 49, nsppol: 1, nspinor: 1, nspden: 1, mpw: 19217, }
cutoff_energies: {ecut:  52.0, pawecutdg:  -1.0, }
electrons: {nelect:   8.00000000E+01, charge:   0.00000000E+00, occopt:   1.00000000E+00, tsmear:   1.00000000E-02, }
meta: {optdriver: 1, rfelfd: 2, }
...

 Real(R)+Recip(G) space primitive vectors, cartesian coordinates (Bohr,Bohr^-1):
 R(1)=  9.9676228  0.0000000  5.5314942  G(1)=  0.1003248 -0.0346798  0.0000000
 R(2)=  3.2564842  9.4206590  5.5314942  G(2)=  0.0000000  0.1061497  0.0000000
 R(3)=  0.0000000  0.0000000 11.3996023  G(3)= -0.0486812 -0.0346798  0.0877224
 Unit cell volume ucvol=  1.0704406E+03 bohr^3
 Angles (23,13,12)=  6.09720829E+01  6.09720829E+01  6.09720829E+01 degrees

 getcut: wavevector=  0.0000  0.0000  0.0000  ngfft=  80  80  80
         ecut(hartree)=     52.000   => boxcut(ratio)=   2.16211

--- Pseudopotential description ------------------------------------------------
- pspini: atom type   1  psp file is /scratch/users/j/a/jabreu/pseudos/PBEsol/Ba.psp8
- pspatm: opening atomic psp file    /scratch/users/j/a/jabreu/pseudos/PBEsol/Ba.psp8
- Ba    ONCVPSP-3.3.0  r_core=   2.15444   1.91218   2.15444
- 56.00000  10.00000    180112                znucl, zion, pspdat
    8 -116133    2    4       600   0.00000   pspcod,pspxc,lmax,lloc,mmax,r2well
    5.99000000000000    5.00000000000000    0.00000000000000   rchrg,fchrg,qchrg
     nproj     2     2     2
     extension_switch     1
  pspatm : epsatm=   26.37418029
         --- l  ekb(1:nproj) -->
             0    6.652372    0.677024
             1    5.027722    0.408462
             2    2.543237    0.416854
 pspatm: atomic psp has been read  and splines computed

- pspini: atom type   2  psp file is /scratch/users/j/a/jabreu/pseudos/PBEsol/La.psp8
- pspatm: opening atomic psp file    /scratch/users/j/a/jabreu/pseudos/PBEsol/La.psp8
- La    ONCVPSP-3.3.0  r_core=   2.11664   1.60878   1.85636   1.66739
- 57.00000  11.00000    180112                znucl, zion, pspdat
    8 -116133    3    4       600   0.00000   pspcod,pspxc,lmax,lloc,mmax,r2well
    5.99000000000000    5.00000000000000    0.00000000000000   rchrg,fchrg,qchrg
     nproj     2     2     2     2
     extension_switch     1
  pspatm : epsatm=   29.08531775
         --- l  ekb(1:nproj) -->
             0    6.695600    0.639047
             1    6.383649    1.151322
             2    3.612966    0.847811
             3  -13.718437   -4.858923
 pspatm: atomic psp has been read  and splines computed

[...]

- pspini: atom type   4  psp file is /scratch/users/j/a/jabreu/pseudos/PBEsol/O.psp8
- pspatm: opening atomic psp file    /scratch/users/j/a/jabreu/pseudos/PBEsol/O.psp8
- O     ONCVPSP-3.3.0  r_core=   1.35509   1.45563   1.26150
-  8.00000   6.00000    180112                znucl, zion, pspdat
    8 -116133    2    4       600   0.00000   pspcod,pspxc,lmax,lloc,mmax,r2well
    5.99000000000000    4.00000000000000    0.00000000000000   rchrg,fchrg,qchrg
     nproj     2     2     1
     extension_switch     1
  pspatm : epsatm=    6.22910522
         --- l  ekb(1:nproj) -->
             0    6.050032    0.820363
             1   -4.739617   -1.153841
             2   -1.335834
 pspatm: atomic psp has been read  and splines computed

   1.12732898E+04                                ecore*ucvol(ha*bohr**3)

 ==>  initialize data related to q vector <==

 The list of irreducible perturbations for this q vector is:
    1)    idir= 1    ipert=  11
    2)    idir= 2    ipert=  11
    3)    idir= 3    ipert=  11

 Perturbation wavevector (in red.coord.)   0.000000  0.000000  0.000000
 Perturbation : derivative vs k along direction   1

 dfpt_looppert : COMMENT -
  In a d/dk calculation, iscf is set to -3 automatically.
 The set of symmetries contains only one element for this perturbation.
 symkpt : not enough symmetry to change the number of k points.

 Initialisation of the first-order wave-functions :
  ireadwf=   0

--- !BeginCycle
iteration_state: {dtset: 1, }
solver: {iscf: 7, nstep: 2000, nline: 4, wfoptalg: 0, }
tolerances: {tolwfr: 1.00E-20, }
...

     iter   2DEtotal(Ha)        deltaE(Ha) residm    vres2
-ETOT  1  -40.243828301059     -4.024E+01 6.337E-02 0.000E+00
 ETOT  2  -40.447165739641     -2.033E-01 3.706E-02 0.000E+00
 ETOT  3  -40.461470410199     -1.430E-02 5.936E-03 0.000E+00
 ETOT  4  -40.464906348252     -3.436E-03 4.551E-03 0.000E+00
 ETOT  5  -40.465885124647     -9.788E-04 2.369E-03 0.000E+00
 ETOT  6  -40.466187690374     -3.026E-04 1.896E-03 0.000E+00
[...]
 Perturbation : derivative vs k along direction   3
 The set of symmetries contains only one element for this perturbation.
 symkpt : not enough symmetry to change the number of k points.

 Initialisation of the first-order wave-functions :
  ireadwf=   0

--- !BeginCycle
iteration_state: {dtset: 1, }
solver: {iscf: 7, nstep: 2000, nline: 4, wfoptalg: 0, }
tolerances: {tolwfr: 1.00E-20, }
...

     iter   2DEtotal(Ha)        deltaE(Ha) residm    vres2
-ETOT  1  -40.768032778137     -4.077E+01 6.252E-02 0.000E+00
 ETOT  2  -40.974801558084     -2.068E-01 2.019E-02 0.000E+00
 ETOT  3  -40.989559085931     -1.476E-02 4.661E-03 0.000E+00
 ETOT  4  -40.993052894218     -3.494E-03 3.007E-03 0.000E+00
 ETOT  5  -40.994044996483     -9.921E-04 1.925E-03 0.000E+00
 ETOT  6  -40.994353251646     -3.083E-04 1.529E-03 0.000E+00
 ETOT  7  -40.994451787989     -9.854E-05 1.129E-03 0.000E+00
 ETOT  8  -40.994484854682     -3.307E-05 9.584E-04 0.000E+00
 ETOT  9  -40.994496304678     -1.145E-05 7.588E-04 0.000E+00
 ETOT 10  -40.994500376021     -4.071E-06 7.047E-04 0.000E+00
 ETOT 11  -40.994501853635     -1.478E-06 5.974E-04 0.000E+00
 ETOT 12  -40.994502399872     -5.462E-07 6.541E-04 0.000E+00
 ETOT 13  -40.994502604998     -2.051E-07 4.962E-04 0.000E+00
 ETOT 14  -40.994502682959     -7.796E-08 5.894E-04 0.000E+00
 ETOT 15  -40.994502712887     -2.993E-08 4.100E-04 0.000E+00
 ETOT 16  -40.994502724468     -1.158E-08 4.813E-04 0.000E+00
 ETOT 17  -40.994502728980     -4.513E-09 3.450E-04 0.000E+00
 ETOT 18  -40.994502730749     -1.769E-09 3.797E-04 0.000E+00
 ETOT 19  -40.994502731447     -6.977E-10 2.934E-04 0.000E+00
 ETOT 20  -40.994502731724     -2.766E-10 2.989E-04 0.000E+00
 ETOT 21  -40.994502731835     -1.109E-10 2.491E-04 0.000E+00
 ETOT 22  -40.994502731879     -4.469E-11 2.359E-04 0.000E+00
 ETOT 23  -40.994502731897     -1.803E-11 2.093E-04 0.000E+00
 ETOT 24  -40.994502731905     -7.404E-12 1.863E-04 0.000E+00
 ETOT 25  -40.994502731908     -2.920E-12 1.736E-04 0.000E+00
 ETOT 26  -40.994502731909     -1.251E-12 1.474E-04 0.000E+00
 ETOT 27  -40.994502731909     -4.832E-13 1.425E-04 0.000E+00
 ETOT 28  -40.994502731910     -2.416E-13 1.170E-04 0.000E+00
 ETOT 29  -40.994502731910     -8.527E-14 1.163E-04 0.000E+00
 ETOT 30  -40.994502731910     -3.553E-14 9.380E-05 0.000E+00
 ETOT 31  -40.994502731910     -2.132E-14 9.460E-05 0.000E+00
 ETOT 32  -40.994502731910     -1.421E-14 8.143E-05 0.000E+00
 ETOT 33  -40.994502731910      2.132E-14 7.831E-05 0.000E+00
 ETOT 34  -40.994502731910     -7.105E-15 7.077E-05 0.000E+00
 ETOT 35  -40.994502731910     -1.421E-14 6.816E-05 0.000E+00
 ETOT 36  -40.994502731910      2.132E-14 6.154E-05 0.000E+00
 ETOT 37  -40.994502731910     -4.974E-14 5.933E-05 0.000E+00
 ETOT 38  -40.994502731910      4.263E-14 5.354E-05 0.000E+00
 ETOT 39  -40.994502731910     -5.684E-14 5.166E-05 0.000E+00
 ETOT 40  -40.994502731910      4.263E-14 4.659E-05 0.000E+00
 ETOT 41  -40.994502731910      2.132E-14 4.497E-05 0.000E+00
 ETOT 42  -40.994502731910      0.000E+00 4.055E-05 0.000E+00
 ETOT 43  -40.994502731910     -2.842E-14 3.916E-05 0.000E+00
 ETOT 44  -40.994502731910      0.000E+00 3.530E-05 0.000E+00
 ETOT 45  -40.994502731910     -2.132E-14 3.409E-05 0.000E+00
 ETOT 46  -40.994502731910      1.421E-14 3.073E-05 0.000E+00
 ETOT 47  -40.994502731910      0.000E+00 2.968E-05 0.000E+00
 ETOT 48  -40.994502731910      1.421E-14 2.675E-05 0.000E+00
 ETOT 49  -40.994502731910      0.000E+00 2.584E-05 0.000E+00
 ETOT 50  -40.994502731910     -1.421E-14 2.328E-05 0.000E+00
 ETOT 51  -40.994502731910      1.421E-14 2.250E-05 0.000E+00
 ETOT 52  -40.994502731910     -7.105E-15 2.027E-05 0.000E+00
 ETOT 53  -40.994502731910      0.000E+00 1.958E-05 0.000E+00
 ETOT 54  -40.994502731910      1.421E-14 1.764E-05 0.000E+00
 ETOT 55  -40.994502731910     -2.132E-14 1.705E-05 0.000E+00
 ETOT 56  -40.994502731910      1.421E-14 1.535E-05 0.000E+00
 ETOT 57  -40.994502731910      0.000E+00 1.484E-05 0.000E+00
 ETOT 58  -40.994502731910      0.000E+00 1.337E-05 0.000E+00
 ETOT 59  -40.994502731910      0.000E+00 1.292E-05 0.000E+00
 ETOT 60  -40.994502731910     -1.421E-14 1.163E-05 0.000E+00
 ETOT 61  -40.994502731910      1.421E-14 1.124E-05 0.000E+00
[...]
 ETOT  568  -40.994502731910      0.000E+00 2.237E-20 0.000E+00
 ETOT  569  -40.994502731910      0.000E+00 2.243E-20 0.000E+00
 ETOT  570  -40.994502731910     -7.105E-15 1.970E-20 0.000E+00
 ETOT  571  -40.994502731910     -7.105E-15 1.975E-20 0.000E+00
 ETOT  572  -40.994502731910      7.105E-15 1.736E-20 0.000E+00
 ETOT  573  -40.994502731910      2.842E-14 1.739E-20 0.000E+00
 ETOT  574  -40.994502731910     -1.421E-14 1.529E-20 0.000E+00
 ETOT  575  -40.994502731910      0.000E+00 1.532E-20 0.000E+00
 ETOT  576  -40.994502731910     -7.105E-15 1.347E-20 0.000E+00
 ETOT  577  -40.994502731910      1.421E-14 1.350E-20 0.000E+00
 ETOT  578  -40.994502731910      1.421E-14 1.187E-20 0.000E+00
 ETOT  579  -40.994502731910      0.000E+00 1.189E-20 0.000E+00
 ETOT  580  -40.994502731910      0.000E+00 1.045E-20 0.000E+00
 ETOT  581  -40.994502731910     -1.421E-14 1.047E-20 0.000E+00
 ETOT  582  -40.994502731910      0.000E+00 9.977E-21 0.000E+00

 At SCF step  582   max residual=  9.98E-21 < tolwfr=  1.00E-20 =>converged.

 ----iterations are completed or convergence reached----

 dfpt_looppert: DFPT cycle converged with prtwf=-1. Will skip output of the 1st-order WFK file.
 dfpt_looppert : ek2=    7.1173308504E+01
          f-sum rule ratio=    1.0913632536E+00
 prteigrs : about to open file /scratch/users/j/a/jabreu/flow_simple_10atoms/flow/w503/t1/tmpdata/tmp_1WF1_EIG
 Expectation of eigenvalue derivatives (hartree) for nkpt=   2  k points:
  (in case of degenerate eigenvalues, averaged derivative)
 kpt#   1, nband= 49, wtk=  0.50000, kpt=  0.5770  0.4230  0.0000 (reduced coord)
  -0.00000   -0.00000   -0.00000    0.00000    0.00000   -0.00000    0.00000   -0.00417
   0.00489    0.02396   -0.02953    0.01155   -0.00735   -0.00609    0.01069   -0.00302
  -0.00058    0.00228    0.00110   -0.00404    0.00254   -0.00225   -0.00664    0.00509
   0.00146   -0.00690   -0.00056    0.00375    0.00676    0.00350    0.00386   -0.00209
   0.03761   -0.02251   -0.04051    0.01766    0.03171   -0.05154    0.00675    0.01303
  -0.00658    0.03157   -0.02563   -0.00051    0.00432   -0.00261    0.00274   -0.01470
   0.01656
 prteigrs : prtvol=0 or 1, do not print more k-points.

 Eight components of 2nd-order total energy (hartree) are
 1,2,3: 0th-order hamiltonian combined with 1st-order wavefunctions
     kin0=   8.66353540E+01 eigvalue=  -2.79136902E+00  local=  -4.74414935E+01
 4,5,6: 1st-order hamiltonian combined with 1st and 0th-order wfs
     kin1=  -7.76759335E+01  Hartree=   0.00000000E+00     xc=   0.00000000E+00
 7,8,9: eventually, occupation + non-local contributions
    edocc=   7.55470313E+00     enl0=  -2.96269183E+00   enl1=  -4.31307192E+00
 1-9 gives the relaxation energy (to be shifted if some occ is /=2.0)
   erelax=  -4.09945027E+01
  No Ewald or frozen-wf contrib.: the relaxation energy is the total one
 2DEtotal=   -0.4099450273E+02 Ha. Also 2DEtotal=   -0.111551714999E+04 eV
    (  non-var. 2DEtotal :   -4.0994502732E+01 Ha)

 CALCULATION OF EFFECTIVE MASSES
 NOTE : Additional infos (eff. mass eigenvalues, eigenvectors and, if degenerate, average mass) are available in stdout.

 K-point ( 0.577, 0.423, 0.000) | band =    40
 Effective mass tensor:
             -4.1269558593             -1.4347418595             -2.0436879927
             -1.4347418595             -2.8302563690              0.1917011077
             -2.0436879927              0.1917011077             -4.2745649666
 Effective mass tensor eigenvalues:
             -6.4674172520             -3.5399279897             -1.2244319532
 Angular average effective mass 1/(<1/m>)=  -2.3926915774
 Angular average effective mass for Frohlich model (<m**0.5>)**2=  -2.7653505701
 Effective masses along directions: (cart. coord. / red. coord. -> eff. mass)
    1:   1.000000  0.000000  0.000000 /   0.950556  0.310553  0.000000 ->  -2.3241464369
    2:   0.000000  1.000000  0.000000 /   0.000000  1.000000  0.000000 ->  -2.0819812690
    3:   0.000000  0.000000  1.000000 /   0.400092  0.400092  0.824532 ->  -2.9134057898
    4:   0.577350  0.577350  0.577350 /   0.585090  0.687374  0.430334 ->  -4.8258568989
    5:   0.000000  0.707107  0.707107 /   0.282236  0.762909  0.581646 ->  -1.8362169792
    6:   0.707107  0.000000  0.707107 /   0.732754  0.415470  0.538940 ->  -5.8615597196
    7:   0.707107  0.707107  0.000000 /   0.618090  0.786107  0.000000 ->  -4.4937019731

 K-point ( 0.000, 0.000, 0.000) | band =    41
 Effective mass tensor:
              0.7951291912             -0.0027761437             -0.0066197524
             -0.0027761437              0.7970496451             -0.0047155964
             -0.0066197524             -0.0047155964              0.7877837641
 Effective mass tensor eigenvalues:
              0.7819084986              0.7990266886              0.7990274132
 Angular average effective mass 1/(<1/m>)=   0.7932381854
 Angular average effective mass for Frohlich model (<m**0.5>)**2=   0.7932630826
 Effective masses along directions: (cart. coord. / red. coord. -> eff. mass)
    1:   1.000000  0.000000  0.000000 /   0.950556  0.310553  0.000000 ->   0.7950636176
    2:   0.000000  1.000000  0.000000 /   0.000000  1.000000  0.000000 ->   0.7970114459
    3:   0.000000  0.000000  1.000000 /   0.400092  0.400092  0.824532 ->   0.7877004787
    4:   0.577350  0.577350  0.577350 /   0.585090  0.687374  0.430334 ->   0.7838751893
    5:   0.000000  0.707107  0.707107 /   0.282236  0.762909  0.581646 ->   0.7876184018
    6:   0.707107  0.000000  0.707107 /   0.732754  0.415470  0.538940 ->   0.7847845308
    7:   0.707107  0.707107  0.000000 /   0.618090  0.786107  0.000000 ->   0.7932305355

 END OF EFFECTIVE MASSES SECTION

 ---- first-order wavefunction calculations are completed ----

 Total localisation tensor (bohr^2) in cartesian coordinates
  WARNING : still subject to testing - especially symmetries.
      direction              matrix element
   alpha     beta       real part   imaginary part
     1        1       1.2046446052    0.0000000000
     1        2       0.3363354973    0.0000000000
     1        3       0.8014782766    0.0000000000
     2        1       0.3363354973    0.0000000000
     2        2       0.9729824721    0.0000000000
     2        3       0.5713025930    0.0000000000
     3        1       0.8014782766    0.0000000000
     3        2       0.5713025930    0.0000000000
     3        3       2.1404667174    0.0000000000

 respfn : d/dk was computed, but no 2DTE, so no DDB output.

== END DATASET(S) ==============================================================

 -outvars: echo values of variables after computation  --------
            acell      1.0000000000E+00  1.0000000000E+00  1.0000000000E+00 Bohr
              amu      1.37327000E+02  1.38905500E+02  1.80947900E+02
                       1.59994000E+01
             ecut      5.20000000E+01 Hartree
           etotal     -4.0994502732E+01
            fcart      0.0000000000E+00  0.0000000000E+00  0.0000000000E+00
                       0.0000000000E+00  0.0000000000E+00  0.0000000000E+00
                       0.0000000000E+00  0.0000000000E+00  0.0000000000E+00
                       0.0000000000E+00  0.0000000000E+00  0.0000000000E+00
                       0.0000000000E+00  0.0000000000E+00  0.0000000000E+00
                       0.0000000000E+00  0.0000000000E+00  0.0000000000E+00
                       0.0000000000E+00  0.0000000000E+00  0.0000000000E+00
                       0.0000000000E+00  0.0000000000E+00  0.0000000000E+00
                       0.0000000000E+00  0.0000000000E+00  0.0000000000E+00
                       0.0000000000E+00  0.0000000000E+00  0.0000000000E+00
-          fftalg         512
           irdden           1
           irdwfk           1
           istwfk        0    1
              ixc     -116133
              kpt      5.76954255E-01  4.23045745E-01  0.00000000E+00
                       0.00000000E+00  0.00000000E+00  0.00000000E+00
           kptopt           0
P           mkmem           2
P          mkqmem           2
P          mk1mem           2
            natom          10
            nband          49
           nbdbuf           4
            ngfft          80      80      80
             nkpt           2
            nstep        2000
             nsym           6
           ntypat           4
              occ      2.000000  2.000000  2.000000  2.000000  2.000000  2.000000
                       2.000000  2.000000  2.000000  2.000000  2.000000  2.000000
                       2.000000  2.000000  2.000000  2.000000  2.000000  2.000000
                       2.000000  2.000000  2.000000  2.000000  2.000000  2.000000
                       2.000000  2.000000  2.000000  2.000000  2.000000  2.000000
                       2.000000  2.000000  2.000000  2.000000  2.000000  2.000000
                       2.000000  2.000000  2.000000  2.000000  0.000000  0.000000
                       0.000000  0.000000  0.000000  0.000000  0.000000  0.000000
                       0.000000
        optdriver           1
            prtwf          -1
            rfdir           1       1       1
           rfelfd           2
            rprim      9.9676228130E+00  0.0000000000E+00  5.5314941955E+00
                       3.2564841710E+00  9.4206589677E+00  5.5314941955E+00
                       0.0000000000E+00  0.0000000000E+00  1.1399602299E+01
          spgroup         148
           strten      0.0000000000E+00  0.0000000000E+00  0.0000000000E+00
                       0.0000000000E+00  0.0000000000E+00  0.0000000000E+00
           symrel      1  0  0   0  1  0   0  0  1      -1  0  0   0 -1  0   0  0 -1
                       0  0  1   1  0  0   0  1  0       0  0 -1  -1  0  0   0 -1  0
                       0  1  0   0  0  1   1  0  0       0 -1  0   0  0 -1  -1  0  0
           tolwfr      1.00000000E-20
            typat      1  1  2  3  4  4  4  4  4  4
           useylm           1
              wtk        0.50000    0.50000
           xangst      5.2275752827E+00  3.7240476068E+00  8.8796078267E+00
                       1.7703207372E+00  1.2611504088E+00  3.0070832124E+00
                       0.0000000000E+00  0.0000000000E+00  0.0000000000E+00
                       3.4989480099E+00  2.4925990078E+00  5.9433455195E+00
                       2.3502540402E+00  3.5962371001E+00  4.7401881341E+00
                       2.1228908709E+00  1.0463731227E+00  5.9434364233E+00
                       4.3804251838E+00  1.6645426618E+00  4.3551316646E+00
                       4.6476419797E+00  1.3889609155E+00  7.1465029050E+00
                       2.6174708361E+00  3.3206553538E+00  7.5315593744E+00
                       4.8750051490E+00  3.9388248929E+00  5.9432546157E+00
            xcart      9.8786856233E+00  7.0374300827E+00  1.6780026960E+01
                       3.3454213607E+00  2.3832288850E+00  5.6825637302E+00
                       0.0000000000E+00  0.0000000000E+00  0.0000000000E+00
                       6.6120534920E+00  4.7103294838E+00  1.1231295345E+01
                       4.4413364787E+00  6.7959032281E+00  8.9576573917E+00
                       4.0116823559E+00  1.9773586347E+00  1.1231467128E+01
                       8.2778039430E+00  3.1455297673E+00  8.2300061188E+00
                       8.7827705053E+00  2.6247557396E+00  1.3504933298E+01
                       4.9463030410E+00  6.2751292004E+00  1.4232584571E+01
                       9.2124246281E+00  7.4433003330E+00  1.1231123562E+01
             xred      7.4702100000E-01  7.4702100000E-01  7.4702100000E-01
                       2.5297900000E-01  2.5297900000E-01  2.5297900000E-01
                       0.0000000000E+00  0.0000000000E+00  0.0000000000E+00
                       5.0000000000E-01  5.0000000000E-01  5.0000000000E-01
                       2.0989600000E-01  7.2138300000E-01  3.3389700000E-01
                       3.3389700000E-01  2.0989600000E-01  7.2138300000E-01
                       7.2138300000E-01  3.3389700000E-01  2.0989600000E-01
                       7.9010400000E-01  2.7861700000E-01  6.6610300000E-01
                       2.7861700000E-01  6.6610300000E-01  7.9010400000E-01
                       6.6610300000E-01  7.9010400000E-01  2.7861700000E-01
            znucl       56.00000   57.00000   73.00000    8.00000

- Timing analysis has been suppressed with timopt=0

 Suggested references for the acknowledgment of ABINIT usage.

 Calculation completed.
.Delivered   2 WARNINGs and   5 COMMENTs to log file.