.Version 9.5.2 of ABINIT

 ABINIT is a project of the Universite Catholique de Louvain,
 Corning Inc. and other collaborators, see ~abinit/doc/developers/contributors.txt .
 acknowledgments of the ABINIT effort.

.Starting date : Mon 31 May 2021.
- ( at 21h56 )

- input  file    -> /scratch/users/j/a/jabreu/flow_simple_11atoms/flow/w320/t1/run.abi
- output file    -> /scratch/users/j/a/jabreu/flow_simple_11atoms/flow/w320/t1/run.abo
- root for input  files -> /scratch/users/j/a/jabreu/flow_simple_11atoms/flow/w320/t1/indata/in
- root for output files -> /scratch/users/j/a/jabreu/flow_simple_11atoms/flow/w320/t1/outdata/out

 Symmetries : space group I4/m m m (#139); Bravais tI (body-center tetrag.)
     intxc =       0      iscf =       7    lmnmax =      25     lnmax =       7
     mgfft =      90  mpssoang =       4    mqgrid =    3937     natom =      12
  nloc_mem =       1    nspden =       1   nspinor =       1    nsppol =       1
      nsym =      16    n1xccc =    2501    ntypat =       3    occopt =       1
   xclevel =       2
-    mband =          77        mffmem =           1         mkmem =           2
-   mkqmem =           2        mk1mem =           2           mpw =       26617
      nfft =      729000          nkpt =           2
  Rough estimation (10% accuracy) of disk space for files :

------------- Echo of variables that govern the present computation ------------
-
- outvars: echo of selected default values
-   iomode0 =  0 , fftalg0 =512 , wfoptalg0 =  0
-
- outvars: echo of global parameters not present in the input file
-  max_nthreads =    0
-
 -outvars: echo values of preprocessed input variables --------
            acell      1.0000000000E+00  1.0000000000E+00  1.0000000000E+00 Bohr
              amu      8.54678000E+01  1.96966540E+02  1.59994000E+01
             ecut      4.40000000E+01 Hartree
-          fftalg         512
           irdden           1
           irdwfk           1
           istwfk        0    1
              ixc     -116133
              kpt     -5.00000000E-01  5.00000000E-01  5.00000000E-01
                       0.00000000E+00  0.00000000E+00  0.00000000E+00
           kptopt           0
P           mkmem           2
P          mkqmem           2
P          mk1mem           2
            natom          12
            nband          77
           nbdbuf           4
            ngfft          90      90      90
             nkpt           2
            nstep        2000
             nsym          16
           ntypat           3
              occ      2.000000  2.000000  2.000000  2.000000  2.000000  2.000000
                       2.000000  2.000000  2.000000  2.000000  2.000000  2.000000
                       2.000000  2.000000  2.000000  2.000000  2.000000  2.000000
                       2.000000  2.000000  2.000000  2.000000  2.000000  2.000000
                       2.000000  2.000000  2.000000  2.000000  2.000000  2.000000
                       2.000000  2.000000  2.000000  2.000000  2.000000  2.000000
                       2.000000  2.000000  2.000000  2.000000  2.000000  2.000000
                       2.000000  2.000000  2.000000  2.000000  2.000000  2.000000
                       2.000000  2.000000  2.000000  2.000000  2.000000  2.000000
                       2.000000  2.000000  2.000000  2.000000  2.000000  2.000000
                       2.000000  2.000000  2.000000  2.000000  2.000000  2.000000
                       2.000000  2.000000  0.000000  0.000000  0.000000  0.000000
                       0.000000  0.000000  0.000000  0.000000  0.000000
        optdriver           1
            prtwf          -1
            rfdir           1       1       1
           rfelfd           2
            rprim      1.4121416932E+01  0.0000000000E+00 -2.1055102659E+00
                      -1.0491711433E+01  9.4518996698E+00 -2.1055102659E+00
                       0.0000000000E+00  0.0000000000E+00  1.4277520430E+01
          spgroup         139
           symrel      1  0  0   0  1  0   0  0  1      -1  0  0   0 -1  0   0  0 -1
                       0  0  1  -1 -1 -1   1  0  0       0  0 -1   1  1  1  -1  0  0
                       0  1  0   1  0  0  -1 -1 -1       0 -1  0  -1  0  0   1  1  1
                      -1 -1 -1   0  0  1   0  1  0       1  1  1   0  0 -1   0 -1  0
                       1  0  0   0  1  0  -1 -1 -1      -1  0  0   0 -1  0   1  1  1
                      -1 -1 -1   0  0  1   1  0  0       1  1  1   0  0 -1  -1  0  0
                       0  1  0   1  0  0   0  0  1       0 -1  0  -1  0  0   0  0 -1
                       0  0  1  -1 -1 -1   0  1  0       0  0 -1   1  1  1   0 -1  0
           tolwfr      1.00000000E-20
            typat      1  1  1  1  2  2  2  2  3  3  3  3
           useylm           1
              wtk        0.50000    0.50000
           xangst     -7.3634358032E-01  4.0294286060E+00  8.5427259346E-01
                      -1.3233404943E+00  2.5008649416E+00  4.4726897232E+00
                       3.2440979182E+00  2.5008649416E+00  8.5427259346E-01
                       2.6571010042E+00  9.7230127717E-01  4.4726897232E+00
                       5.5277916364E+00  7.4689331826E-01 -1.1141880452E+00
                       1.6339364800E+00  4.2548365649E+00  3.4032869965E+00
                       2.8682094383E-01  7.4689331826E-01  1.9236753202E+00
                      -3.6070342126E+00  4.2548365649E+00 -1.1141880452E+00
                      -1.6049981204E+00  1.4459300850E+00  1.8620463935E+00
                       5.3124697923E+00  0.0000000000E+00  4.5791039683E+00
                       2.1602622010E+00  0.0000000000E+00  1.8620463935E+00
                      -3.9469764491E+00  3.5557997981E+00  4.5791039683E+00
            xcart     -1.3914877065E+00  7.6145165373E+00  1.6143412445E+00
                      -2.5007511149E+00  4.7259498349E+00  8.4521586542E+00
                       6.1304566137E+00  4.7259498349E+00  1.6143412445E+00
                       5.0211932053E+00  1.8373831325E+00  8.4521586542E+00
                       1.0446012312E+01  1.4114238220E+00 -2.1055102659E+00
                       3.0876924658E+00  8.0404758478E+00  6.4312803750E+00
                       5.4201303302E-01  1.4114238220E+00  3.6352195237E+00
                      -6.8163068137E+00  8.0404758478E+00 -2.1055102659E+00
                      -3.0330068913E+00  2.7324118679E+00  3.5187577304E+00
                       1.0039112997E+01  0.0000000000E+00  8.6532524342E+00
                       4.0823039351E+00  0.0000000000E+00  3.5187577304E+00
                      -7.4587045417E+00  6.7194878019E+00  8.6532524342E+00
             xred      5.0000000000E-01  8.0560700000E-01  3.0560700000E-01
                       1.9439300000E-01  5.0000000000E-01  6.9439300000E-01
                       8.0560700000E-01  5.0000000000E-01  3.0560700000E-01
                       5.0000000000E-01  1.9439300000E-01  6.9439300000E-01
                       8.5067300000E-01  1.4932700000E-01  1.3877787808E-17
                       8.5067300000E-01  8.5067300000E-01  7.0134600000E-01
                       1.4932700000E-01  1.4932700000E-01  2.9865400000E-01
                       1.4932700000E-01  8.5067300000E-01  1.3877787808E-17
                      -2.7755575616E-17  2.8908600000E-01  2.8908600000E-01
                       7.1091400000E-01  0.0000000000E+00  7.1091400000E-01
                       2.8908600000E-01  0.0000000000E+00  2.8908600000E-01
                       0.0000000000E+00  7.1091400000E-01  7.1091400000E-01
            znucl       37.00000   79.00000    8.00000

 chkinp: Checking input parameters for consistency.

== DATASET  1 ==================================================================
-   mpi_nproc: 1, omp_nthreads: -1 (-1 if OMP is not activated)

--- !DatasetInfo
iteration_state: {dtset: 1, }
dimensions: {natom: 12, nkpt: 2, mband: 77, nsppol: 1, nspinor: 1, nspden: 1, mpw: 26617, }
cutoff_energies: {ecut:  44.0, pawecutdg:  -1.0, }
electrons: {nelect:   1.36000000E+02, charge:   0.00000000E+00, occopt:   1.00000000E+00, tsmear:   1.00000000E-02, }
meta: {optdriver: 1, rfelfd: 2, }
...

 Real(R)+Recip(G) space primitive vectors, cartesian coordinates (Bohr,Bohr^-1):
 R(1)= 14.1214169  0.0000000 -2.1055103  G(1)=  0.0708144  0.0786048  0.0000000
 R(2)=-10.4917114  9.4518997 -2.1055103  G(2)=  0.0000000  0.1057988  0.0000000
 R(3)=  0.0000000  0.0000000 14.2775204  G(3)=  0.0104430  0.0271941  0.0700402
 Unit cell volume ucvol=  1.9056808E+03 bohr^3
 Angles (23,13,12)=  9.84803553E+01  9.84803553E+01  1.34834343E+02 degrees

 getcut: wavevector=  0.0000  0.0000  0.0000  ngfft=  90  90  90
         ecut(hartree)=     44.000   => boxcut(ratio)=   2.11128

--- Pseudopotential description ------------------------------------------------
- pspini: atom type   1  psp file is /scratch/users/j/a/jabreu/pseudos/PBEsol/Rb.psp8
- pspatm: opening atomic psp file    /scratch/users/j/a/jabreu/pseudos/PBEsol/Rb.psp8
- Rb    ONCVPSP-3.3.0  r_core=   1.71227   1.75361   1.90633
- 37.00000   9.00000    180112                znucl, zion, pspdat
    8 -116133    2    4       600   0.00000   pspcod,pspxc,lmax,lloc,mmax,r2well
    5.99000000000000    7.00000000000000    0.00000000000000   rchrg,fchrg,qchrg
     nproj     2     2     2
     extension_switch     1
  pspatm : epsatm=   34.48400912
         --- l  ekb(1:nproj) -->
             0    8.196957   -0.477221
             1    3.231347   -0.378736
             2   -1.047201    0.996637
 pspatm: atomic psp has been read  and splines computed

- pspini: atom type   2  psp file is /scratch/users/j/a/jabreu/pseudos/PBEsol/Au.psp8
- pspatm: opening atomic psp file    /scratch/users/j/a/jabreu/pseudos/PBEsol/Au.psp8
- Au    ONCVPSP-3.3.0  r_core=   1.45604   1.56407   1.56407   1.60183
- 79.00000  19.00000    180112                znucl, zion, pspdat
    8 -116133    3    4       500   0.00000   pspcod,pspxc,lmax,lloc,mmax,r2well
    4.99000000000000    5.00000000000000    0.00000000000000   rchrg,fchrg,qchrg
     nproj     2     2     2     1
     extension_switch     1
  pspatm : epsatm=   32.21965837
         --- l  ekb(1:nproj) -->
             0    9.413866   -0.196587
             1    2.474292   -1.517497
             2    1.503483    0.298081
             3    1.177996
 pspatm: atomic psp has been read  and splines computed

- pspini: atom type   3  psp file is /scratch/users/j/a/jabreu/pseudos/PBEsol/O.psp8
- pspatm: opening atomic psp file    /scratch/users/j/a/jabreu/pseudos/PBEsol/O.psp8
- O     ONCVPSP-3.3.0  r_core=   1.35509   1.45563   1.26150
-  8.00000   6.00000    180112                znucl, zion, pspdat
    8 -116133    2    4       600   0.00000   pspcod,pspxc,lmax,lloc,mmax,r2well
    5.99000000000000    4.00000000000000    0.00000000000000   rchrg,fchrg,qchrg
     nproj     2     2     1
     extension_switch     1
  pspatm : epsatm=    6.22910522
         --- l  ekb(1:nproj) -->
             0    6.050032    0.820363
             1   -4.739617   -1.153841
             2   -1.335834
 pspatm: atomic psp has been read  and splines computed

   3.96754284E+04                                ecore*ucvol(ha*bohr**3)

[...]
     kin1=  -1.26071342E+02  Hartree=   0.00000000E+00     xc=   0.00000000E+00
 7,8,9: eventually, occupation + non-local contributions
    edocc=   8.47927070E+00     enl0=   9.34988865E-01   enl1=  -4.30599512E+00
 1-9 gives the relaxation energy (to be shifted if some occ is /=2.0)
   erelax=  -6.51886684E+01
  No Ewald or frozen-wf contrib.: the relaxation energy is the total one
 2DEtotal=   -0.6518866841E+02 Ha. Also 2DEtotal=   -0.177387387938E+04 eV
    (  non-var. 2DEtotal :   -6.5188668408E+01 Ha)

 Perturbation wavevector (in red.coord.)   0.000000  0.000000  0.000000
 Perturbation : derivative vs k along direction   2
 The set of symmetries contains only one element for this perturbation.
 symkpt : not enough symmetry to change the number of k points.

[...]

 Perturbation wavevector (in red.coord.)   0.000000  0.000000  0.000000
 Perturbation : derivative vs k along direction   3
 The set of symmetries contains only one element for this perturbation.
 symkpt : not enough symmetry to change the number of k points.

 Initialisation of the first-order wave-functions :
  ireadwf=   0

--- !BeginCycle
iteration_state: {dtset: 1, }
solver: {iscf: 7, nstep: 2000, nline: 4, wfoptalg: 0, }
tolerances: {tolwfr: 1.00E-20, }
...

     iter   2DEtotal(Ha)        deltaE(Ha) residm    vres2
-ETOT  1  -32.609939624244     -3.261E+01 8.259E-02 0.000E+00
 ETOT  2  -32.705363775236     -9.542E-02 2.292E-02 0.000E+00
 ETOT  3  -32.707195588606     -1.832E-03 1.277E-03 0.000E+00
 ETOT  4  -32.707255141530     -5.955E-05 5.053E-04 0.000E+00
 ETOT  5  -32.707257502041     -2.361E-06 8.759E-05 0.000E+00
 ETOT  6  -32.707257606577     -1.045E-07 3.409E-05 0.000E+00
 ETOT  7  -32.707257611539     -4.962E-09 6.957E-06 0.000E+00
 ETOT  8  -32.707257611785     -2.468E-10 2.629E-06 0.000E+00
 ETOT  9  -32.707257611798     -1.274E-11 5.764E-07 0.000E+00
 ETOT 10  -32.707257611799     -6.395E-13 2.154E-07 0.000E+00
 ETOT 11  -32.707257611799     -2.842E-14 4.885E-08 0.000E+00
 ETOT 12  -32.707257611799     -1.421E-14 1.825E-08 0.000E+00
 ETOT 13  -32.707257611799      7.105E-15 4.197E-09 0.000E+00
 ETOT 14  -32.707257611799     -1.421E-14 1.571E-09 0.000E+00
 ETOT 15  -32.707257611799      0.000E+00 3.631E-10 0.000E+00
 ETOT 16  -32.707257611799      0.000E+00 1.364E-10 0.000E+00
 ETOT 17  -32.707257611799      1.421E-14 3.154E-11 0.000E+00
 ETOT 18  -32.707257611799     -1.421E-14 1.189E-11 0.000E+00
 ETOT 19  -32.707257611799      0.000E+00 2.746E-12 0.000E+00
 ETOT 20  -32.707257611799      0.000E+00 1.040E-12 0.000E+00
 ETOT 21  -32.707257611799      0.000E+00 2.397E-13 0.000E+00
 ETOT 22  -32.707257611799     -1.421E-14 9.112E-14 0.000E+00
 ETOT 23  -32.707257611799      1.421E-14 2.098E-14 0.000E+00
 ETOT 24  -32.707257611799      0.000E+00 8.001E-15 0.000E+00
 ETOT 25  -32.707257611799      7.105E-15 1.839E-15 0.000E+00
 ETOT 26  -32.707257611799     -7.105E-15 7.040E-16 0.000E+00
 ETOT 27  -32.707257611799      7.105E-15 1.616E-16 0.000E+00
 ETOT 28  -32.707257611799     -7.105E-15 6.204E-17 0.000E+00
 ETOT 29  -32.707257611799      7.105E-15 1.423E-17 0.000E+00
 ETOT 30  -32.707257611799     -7.105E-15 5.476E-18 0.000E+00
 ETOT 31  -32.707257611799      7.105E-15 1.255E-18 0.000E+00
 ETOT 32  -32.707257611799     -7.105E-15 4.839E-19 0.000E+00
 ETOT 33  -32.707257611799      1.421E-14 1.108E-19 0.000E+00
 ETOT 34  -32.707257611799     -7.105E-15 4.280E-20 0.000E+00
 ETOT 35  -32.707257611799      0.000E+00 9.899E-21 0.000E+00

 At SCF step   35   max residual=  9.90E-21 < tolwfr=  1.00E-20 =>converged.

 ----iterations are completed or convergence reached----

 dfpt_looppert: DFPT cycle converged with prtwf=-1. Will skip output of the 1st-order WFK file.
 dfpt_looppert : ek2=    6.1789338263E+01
          f-sum rule ratio=    1.0195073541E+00
 prteigrs : about to open file /scratch/users/j/a/jabreu/flow_simple_11atoms/flow/w320/t1/tmpdata/tmp_1WF1_EIG
 Expectation of eigenvalue derivatives (hartree) for nkpt=   2  k points:
  (in case of degenerate eigenvalues, averaged derivative)
 kpt#   1, nband= 77, wtk=  0.50000, kpt= -0.5000  0.5000  0.5000 (reduced coord)
  -0.00000    0.00000    0.00000    0.00000   -0.00000   -0.00000   -0.00000    0.00000
  -0.00000   -0.00000   -0.00000   -0.00000   -0.00000   -0.00000    0.00000    0.00000
   0.00000    0.00000    0.00000   -0.00000    0.00000    0.00000    0.00000    0.00000
  -0.00000   -0.00000    0.00000    0.00000   -0.00000   -0.00000   -0.00000   -0.00000
  -0.00000   -0.00000   -0.00000    0.00000   -0.00000    0.00000    0.00000    0.00000
   0.00000   -0.00000   -0.00000   -0.00000   -0.00000   -0.00000   -0.00000   -0.00000
  -0.00000    0.00000    0.00000   -0.00000    0.00000    0.00000    0.00000    0.00000
  -0.00000   -0.00000   -0.00000    0.00000   -0.00000   -0.00000    0.00000    0.00000
   0.00000    0.00000    0.00000    0.00000    0.00000   -0.00000    0.00000    0.00000
   0.00000   -0.00000   -0.00000    0.00000    0.00000
 prteigrs : prtvol=0 or 1, do not print more k-points.

 Eight components of 2nd-order total energy (hartree) are
 1,2,3: 0th-order hamiltonian combined with 1st-order wavefunctions
     kin0=   5.54087467E+01 eigvalue=   2.15507875E+00  local=  -2.97497131E+01
 4,5,6: 1st-order hamiltonian combined with 1st and 0th-order wfs
     kin1=  -6.29946848E+01  Hartree=   0.00000000E+00     xc=   0.00000000E+00
 7,8,9: eventually, occupation + non-local contributions
    edocc=   4.74027734E+00     enl0=   1.52867898E-01   enl1=  -2.41983046E+00
 1-9 gives the relaxation energy (to be shifted if some occ is /=2.0)
   erelax=  -3.27072576E+01
  No Ewald or frozen-wf contrib.: the relaxation energy is the total one
 2DEtotal=   -0.3270725761E+02 Ha. Also 2DEtotal=   -0.890009741883E+03 eV
    (  non-var. 2DEtotal :   -3.2707257612E+01 Ha)

 CALCULATION OF EFFECTIVE MASSES
 NOTE : Additional infos (eff. mass eigenvalues, eigenvectors and, if degenerate, average mass) are available in stdout.

 K-point (-0.500, 0.500, 0.500) | band =    68
 Effective mass tensor:
            -10.2625142988              2.7138919600             -1.2090960738
              2.7138919600             -4.2376151237             -3.1485349603
             -1.2090960738             -3.1485349603             -9.9019606009
 Effective mass tensor eigenvalues:
            -11.3046993559            -11.3046992920             -1.7926913756
 Angular average effective mass 1/(<1/m>)=  -4.0830876981
 Angular average effective mass for Frohlich model (<m**0.5>)**2=  -5.2627305704
 Effective masses along directions: (cart. coord. / red. coord. -> eff. mass)
    1:   1.000000  0.000000  0.000000 /   0.802703 -0.596380  0.000000 ->  -7.1487549883
    2:   0.000000  1.000000  0.000000 /   0.000000  1.000000  0.000000 ->  -2.2873984575
    3:   0.000000  0.000000  1.000000 /  -0.144364 -0.144364  0.978937 ->  -6.3421312605
    4:   0.577350  0.577350  0.577350 /   0.634952 -0.166207  0.754461 ->  -5.2399884958
    5:   0.000000  0.707107  0.707107 /  -0.130017  0.453645  0.881647 ->  -7.0390272168
    6:   0.707107  0.000000  0.707107 /   0.533687 -0.559507  0.634137 -> -11.2210384010
    7:   0.707107  0.707107  0.000000 /   0.997300 -0.073435  0.000000 ->  -2.3671675100

 K-point ( 0.000, 0.000, 0.000) | band =    69
 Effective mass tensor:
              0.5490937845              0.8129470771             -0.3621850632
              0.8129470771              2.3538539676             -0.9431445172
             -0.3621850632             -0.9431445172              0.6570977269
 Effective mass tensor eigenvalues:
              0.2369069609              0.2369069666              3.0862315515
 Angular average effective mass 1/(<1/m>)=   0.3422254006
 Angular average effective mass for Frohlich model (<m**0.5>)**2=   0.4270572660
 Effective masses along directions: (cart. coord. / red. coord. -> eff. mass)
    1:   1.000000  0.000000  0.000000 /   0.802703 -0.596380  0.000000 ->   0.2635681184
    2:   0.000000  1.000000  0.000000 /   0.000000  1.000000  0.000000 ->   0.7543190005
    3:   0.000000  0.000000  1.000000 /  -0.144364 -0.144364  0.978937 ->   0.2742455194
    4:   0.577350  0.577350  0.577350 /   0.634952 -0.166207  0.754461 ->   0.2966471661
    5:   0.000000  0.707107  0.707107 /  -0.130017  0.453645  0.881647 ->   0.2648318754
    6:   0.707107  0.000000  0.707107 /   0.533687 -0.559507  0.634137 ->   0.2372146972
    7:   0.707107  0.707107  0.000000 /   0.997300 -0.073435  0.000000 ->   0.6905994273

 END OF EFFECTIVE MASSES SECTION

 ---- first-order wavefunction calculations are completed ----

 Total localisation tensor (bohr^2) in cartesian coordinates
  WARNING : still subject to testing - especially symmetries.
      direction              matrix element
   alpha     beta       real part   imaginary part
     1        1       2.7824365173    0.0000000000
     1        2      -0.8915457959    0.0000000000
     1        3      -0.0687077850    0.0000000000
     2        1      -0.8915457959    0.0000000000
     2        2       0.8031865409    0.0000000000
     2        3      -0.1789182668    0.0000000000
     3        1      -0.0687077850    0.0000000000
     3        2      -0.1789182668    0.0000000000
     3        3       1.1078081300    0.0000000000

 respfn : d/dk was computed, but no 2DTE, so no DDB output.

== END DATASET(S) ==============================================================

 -outvars: echo values of variables after computation  --------
            acell      1.0000000000E+00  1.0000000000E+00  1.0000000000E+00 Bohr
              amu      8.54678000E+01  1.96966540E+02  1.59994000E+01
             ecut      4.40000000E+01 Hartree
           etotal     -3.2707257612E+01
            fcart      0.0000000000E+00  0.0000000000E+00  0.0000000000E+00
                       0.0000000000E+00  0.0000000000E+00  0.0000000000E+00
                       0.0000000000E+00  0.0000000000E+00  0.0000000000E+00
                       0.0000000000E+00  0.0000000000E+00  0.0000000000E+00
                       0.0000000000E+00  0.0000000000E+00  0.0000000000E+00
                       0.0000000000E+00  0.0000000000E+00  0.0000000000E+00
                       0.0000000000E+00  0.0000000000E+00  0.0000000000E+00
                       0.0000000000E+00  0.0000000000E+00  0.0000000000E+00
                       0.0000000000E+00  0.0000000000E+00  0.0000000000E+00
                       0.0000000000E+00  0.0000000000E+00  0.0000000000E+00
                       0.0000000000E+00  0.0000000000E+00  0.0000000000E+00
                       0.0000000000E+00  0.0000000000E+00  0.0000000000E+00
-          fftalg         512
           irdden           1
           irdwfk           1
           istwfk        0    1
              ixc     -116133
              kpt     -5.00000000E-01  5.00000000E-01  5.00000000E-01
                       0.00000000E+00  0.00000000E+00  0.00000000E+00
           kptopt           0
P           mkmem           2
P          mkqmem           2
P          mk1mem           2
            natom          12
            nband          77
           nbdbuf           4
            ngfft          90      90      90
             nkpt           2
            nstep        2000
             nsym          16
           ntypat           3
              occ      2.000000  2.000000  2.000000  2.000000  2.000000  2.000000
                       2.000000  2.000000  2.000000  2.000000  2.000000  2.000000
                       2.000000  2.000000  2.000000  2.000000  2.000000  2.000000
                       2.000000  2.000000  2.000000  2.000000  2.000000  2.000000
                       2.000000  2.000000  2.000000  2.000000  2.000000  2.000000
                       2.000000  2.000000  2.000000  2.000000  2.000000  2.000000
                       2.000000  2.000000  2.000000  2.000000  2.000000  2.000000
                       2.000000  2.000000  2.000000  2.000000  2.000000  2.000000
                       2.000000  2.000000  2.000000  2.000000  2.000000  2.000000
                       2.000000  2.000000  2.000000  2.000000  2.000000  2.000000
                       2.000000  2.000000  2.000000  2.000000  2.000000  2.000000
                       2.000000  2.000000  0.000000  0.000000  0.000000  0.000000
                       0.000000  0.000000  0.000000  0.000000  0.000000
        optdriver           1
            prtwf          -1
            rfdir           1       1       1
           rfelfd           2
            rprim      1.4121416932E+01  0.0000000000E+00 -2.1055102659E+00
                      -1.0491711433E+01  9.4518996698E+00 -2.1055102659E+00
                       0.0000000000E+00  0.0000000000E+00  1.4277520430E+01
          spgroup         139
           strten      0.0000000000E+00  0.0000000000E+00  0.0000000000E+00
                       0.0000000000E+00  0.0000000000E+00  0.0000000000E+00
           symrel      1  0  0   0  1  0   0  0  1      -1  0  0   0 -1  0   0  0 -1
                       0  0  1  -1 -1 -1   1  0  0       0  0 -1   1  1  1  -1  0  0
                       0  1  0   1  0  0  -1 -1 -1       0 -1  0  -1  0  0   1  1  1
                      -1 -1 -1   0  0  1   0  1  0       1  1  1   0  0 -1   0 -1  0
                       1  0  0   0  1  0  -1 -1 -1      -1  0  0   0 -1  0   1  1  1
                      -1 -1 -1   0  0  1   1  0  0       1  1  1   0  0 -1  -1  0  0
                       0  1  0   1  0  0   0  0  1       0 -1  0  -1  0  0   0  0 -1
                       0  0  1  -1 -1 -1   0  1  0       0  0 -1   1  1  1   0 -1  0
           tolwfr      1.00000000E-20
            typat      1  1  1  1  2  2  2  2  3  3  3  3
           useylm           1
              wtk        0.50000    0.50000
           xangst     -7.3634358032E-01  4.0294286060E+00  8.5427259346E-01
                      -1.3233404943E+00  2.5008649416E+00  4.4726897232E+00
                       3.2440979182E+00  2.5008649416E+00  8.5427259346E-01
                       2.6571010042E+00  9.7230127717E-01  4.4726897232E+00
                       5.5277916364E+00  7.4689331826E-01 -1.1141880452E+00
                       1.6339364800E+00  4.2548365649E+00  3.4032869965E+00
                       2.8682094383E-01  7.4689331826E-01  1.9236753202E+00
                      -3.6070342126E+00  4.2548365649E+00 -1.1141880452E+00
                      -1.6049981204E+00  1.4459300850E+00  1.8620463935E+00
                       5.3124697923E+00  0.0000000000E+00  4.5791039683E+00
                       2.1602622010E+00  0.0000000000E+00  1.8620463935E+00
                      -3.9469764491E+00  3.5557997981E+00  4.5791039683E+00
            xcart     -1.3914877065E+00  7.6145165373E+00  1.6143412445E+00
                      -2.5007511149E+00  4.7259498349E+00  8.4521586542E+00
                       6.1304566137E+00  4.7259498349E+00  1.6143412445E+00
                       5.0211932053E+00  1.8373831325E+00  8.4521586542E+00
                       1.0446012312E+01  1.4114238220E+00 -2.1055102659E+00
                       3.0876924658E+00  8.0404758478E+00  6.4312803750E+00
                       5.4201303302E-01  1.4114238220E+00  3.6352195237E+00
                      -6.8163068137E+00  8.0404758478E+00 -2.1055102659E+00
                      -3.0330068913E+00  2.7324118679E+00  3.5187577304E+00
                       1.0039112997E+01  0.0000000000E+00  8.6532524342E+00
                       4.0823039351E+00  0.0000000000E+00  3.5187577304E+00
                      -7.4587045417E+00  6.7194878019E+00  8.6532524342E+00
             xred      5.0000000000E-01  8.0560700000E-01  3.0560700000E-01
                       1.9439300000E-01  5.0000000000E-01  6.9439300000E-01
                       8.0560700000E-01  5.0000000000E-01  3.0560700000E-01
                       5.0000000000E-01  1.9439300000E-01  6.9439300000E-01
                       8.5067300000E-01  1.4932700000E-01  1.3877787808E-17
                       8.5067300000E-01  8.5067300000E-01  7.0134600000E-01
                       1.4932700000E-01  1.4932700000E-01  2.9865400000E-01
                       1.4932700000E-01  8.5067300000E-01  1.3877787808E-17
                      -2.7755575616E-17  2.8908600000E-01  2.8908600000E-01
                       7.1091400000E-01  0.0000000000E+00  7.1091400000E-01
                       2.8908600000E-01  0.0000000000E+00  2.8908600000E-01
                       0.0000000000E+00  7.1091400000E-01  7.1091400000E-01
            znucl       37.00000   79.00000    8.00000

- Timing analysis has been suppressed with timopt=0

 Suggested references for the acknowledgment of ABINIT usage.

 Calculation completed.
.Delivered   2 WARNINGs and   5 COMMENTs to log file.