.Version 9.5.2 of ABINIT

 ABINIT is a project of the Universite Catholique de Louvain,
 Corning Inc. and other collaborators, see ~abinit/doc/developers/contributors.txt .
 acknowledgments of the ABINIT effort.

.Starting date : Mon 24 May 2021.
- ( at 11h18 )

- input  file    -> /scratch/users/j/a/jabreu/flow_simple_10atoms/flow/w313/t1/run.abi
- output file    -> /scratch/users/j/a/jabreu/flow_simple_10atoms/flow/w313/t1/run.abo
- root for input  files -> /scratch/users/j/a/jabreu/flow_simple_10atoms/flow/w313/t1/indata/in
- root for output files -> /scratch/users/j/a/jabreu/flow_simple_10atoms/flow/w313/t1/outdata/out

 Symmetries : space group Fm -3 m (#225); Bravais cF (face-center cubic)
     intxc =       0      iscf =       7    lmnmax =      18     lnmax =       6
     mgfft =      72  mpssoang =       3    mqgrid =    3001     natom =      10
  nloc_mem =       1    nspden =       1   nspinor =       1    nsppol =       1
      nsym =      48    n1xccc =    2501    ntypat =       4    occopt =       1
   xclevel =       2
-    mband =          52        mffmem =           1         mkmem =           1
-   mkqmem =           1        mk1mem =           1           mpw =       14344
      nfft =      373248          nkpt =           1
  Rough estimation (10% accuracy) of disk space for files :

------------- Echo of variables that govern the present computation ------------
-
- outvars: echo of selected default values
-   iomode0 =  0 , fftalg0 =512 , wfoptalg0 =  0
-
- outvars: echo of global parameters not present in the input file
-  max_nthreads =    0
-
 -outvars: echo values of preprocessed input variables --------
            acell      1.0000000000E+00  1.0000000000E+00  1.0000000000E+00 Bohr
              amu      8.54678000E+01  2.29897680E+01  1.02905500E+02
                       1.89984032E+01
             ecut      4.40000000E+01 Hartree
-          fftalg         512
           irdden           1
           irdwfk           1
           istwfk        1
              ixc     -116133
              kpt      5.00000000E-01  0.00000000E+00  5.00000000E-01
           kptopt           0
P           mkmem           1
P          mkqmem           1
P          mk1mem           1
            natom          10
            nband          52
           nbdbuf           4
            ngfft          72      72      72
             nkpt           1
            nstep        2000
             nsym          48
           ntypat           4
              occ      2.000000  2.000000  2.000000  2.000000  2.000000  2.000000
                       2.000000  2.000000  2.000000  2.000000  2.000000  2.000000
                       2.000000  2.000000  2.000000  2.000000  2.000000  2.000000
                       2.000000  2.000000  2.000000  2.000000  2.000000  2.000000
                       2.000000  2.000000  2.000000  2.000000  2.000000  2.000000
                       2.000000  2.000000  2.000000  2.000000  2.000000  2.000000
                       2.000000  2.000000  2.000000  2.000000  2.000000  2.000000
                       2.000000  0.000000  0.000000  0.000000  0.000000  0.000000
                       0.000000  0.000000  0.000000  0.000000
        optdriver           1
            prtwf          -1
            rfdir           1       1       1
           rfelfd           2
            rprim      9.8010903664E+00  0.0000000000E+00  5.6586621614E+00
                       3.2670301221E+00  9.2405566148E+00  5.6586621614E+00
                       0.0000000000E+00  0.0000000000E+00  1.1317324323E+01
          spgroup         225
           symrel      1  0  0   0  1  0   0  0  1      -1  0  0   0 -1  0   0  0 -1
                       0 -1  1   0 -1  0   1 -1  0       0  1 -1   0  1  0  -1  1  0
                      -1  0  0  -1  0  1  -1  1  0       1  0  0   1  0 -1   1 -1  0
                       0  1 -1   1  0 -1   0  0 -1       0 -1  1  -1  0  1   0  0  1
                      -1  0  0  -1  1  0  -1  0  1       1  0  0   1 -1  0   1  0 -1
                       0 -1  1   1 -1  0   0 -1  0       0  1 -1  -1  1  0   0  1  0
                       1  0  0   0  0  1   0  1  0      -1  0  0   0  0 -1   0 -1  0
                       0  1 -1   0  0 -1   1  0 -1       0 -1  1   0  0  1  -1  0  1
                      -1  0  1  -1  1  0  -1  0  0       1  0 -1   1 -1  0   1  0  0
                       0 -1  0   1 -1  0   0 -1  1       0  1  0  -1  1  0   0  1 -1
                       1  0 -1   0  0 -1   0  1 -1      -1  0  1   0  0  1   0 -1  1
                       0  1  0   0  0  1   1  0  0       0 -1  0   0  0 -1  -1  0  0
                       1  0 -1   0  1 -1   0  0 -1      -1  0  1   0 -1  1   0  0  1
                       0 -1  0   0 -1  1   1 -1  0       0  1  0   0  1 -1  -1  1  0
                      -1  0  1  -1  0  0  -1  1  0       1  0 -1   1  0  0   1 -1  0
                       0  1  0   1  0  0   0  0  1       0 -1  0  -1  0  0   0  0 -1
                       0  0 -1   0  1 -1   1  0 -1       0  0  1   0 -1  1  -1  0  1
                       1 -1  0   0 -1  1   0 -1  0      -1  1  0   0  1 -1   0  1  0
                       0  0  1   1  0  0   0  1  0       0  0 -1  -1  0  0   0 -1  0
                      -1  1  0  -1  0  0  -1  0  1       1 -1  0   1  0  0   1  0 -1
                       0  0  1   0  1  0   1  0  0       0  0 -1   0 -1  0  -1  0  0
                       1 -1  0   0 -1  0   0 -1  1      -1  1  0   0  1  0   0  1 -1
                       0  0 -1   1  0 -1   0  1 -1       0  0  1  -1  0  1   0 -1  1
                      -1  1  0  -1  0  1  -1  0  0       1 -1  0   1  0 -1   1  0  0
           tolwfr      1.00000000E-20
            typat      1  1  2  3  4  4  4  4  4  4
           useylm           1
           xangst      5.1865136412E+00  3.6674189664E+00  8.9833051408E+00
                       1.7288378804E+00  1.2224729888E+00  2.9944350469E+00
                       3.4576757608E+00  2.4449459776E+00  5.9888700938E+00
                       0.0000000000E+00  0.0000000000E+00  0.0000000000E+00
                       2.5372286426E+00  3.7466547757E+00  7.5831312683E+00
                       1.6167815243E+00  1.1432371796E+00  5.9888700938E+00
                       5.2985699973E+00  3.7466547757E+00  5.9888700938E+00
                       4.3781228790E+00  1.1432371796E+00  7.5831312683E+00
                       4.3781228790E+00  1.1432371796E+00  4.3946089194E+00
                       2.5372286426E+00  3.7466547757E+00  4.3946089194E+00
            xcart      9.8010903664E+00  6.9304174611E+00  1.6975986484E+01
                       3.2670301221E+00  2.3101391537E+00  5.6586621614E+00
                       6.5340602442E+00  4.6202783074E+00  1.1317324323E+01
                       0.0000000000E+00  0.0000000000E+00  0.0000000000E+00
                       4.7946672710E+00  7.0801514405E+00  1.4330041327E+01
                       3.0552742977E+00  2.1604051743E+00  1.1317324323E+01
                       1.0012846191E+01  7.0801514405E+00  1.1317324323E+01
                       8.2734532175E+00  2.1604051743E+00  1.4330041327E+01
                       8.2734532175E+00  2.1604051743E+00  8.3046073188E+00
                       4.7946672710E+00  7.0801514405E+00  8.3046073188E+00
             xred      7.5000000000E-01  7.5000000000E-01  7.5000000000E-01
                       2.5000000000E-01  2.5000000000E-01  2.5000000000E-01
                       5.0000000000E-01  5.0000000000E-01  5.0000000000E-01
                       0.0000000000E+00  0.0000000000E+00  0.0000000000E+00
                       2.3379600000E-01  7.6620400000E-01  7.6620400000E-01
                       2.3379600000E-01  2.3379600000E-01  7.6620400000E-01
                       7.6620400000E-01  7.6620400000E-01  2.3379600000E-01
                       7.6620400000E-01  2.3379600000E-01  7.6620400000E-01
                       7.6620400000E-01  2.3379600000E-01  2.3379600000E-01
                       2.3379600000E-01  7.6620400000E-01  2.3379600000E-01
            znucl       37.00000   11.00000   45.00000    9.00000

 chkinp: Checking input parameters for consistency.

== DATASET  1 ==================================================================
-   mpi_nproc: 1, omp_nthreads: -1 (-1 if OMP is not activated)

--- !DatasetInfo
iteration_state: {dtset: 1, }
dimensions: {natom: 10, nkpt: 1, mband: 52, nsppol: 1, nspinor: 1, nspden: 1, mpw: 14344, }
cutoff_energies: {ecut:  44.0, pawecutdg:  -1.0, }
electrons: {nelect:   8.60000000E+01, charge:   0.00000000E+00, occopt:   1.00000000E+00, tsmear:   1.00000000E-02, }
meta: {optdriver: 1, rfelfd: 2, }
...

 Real(R)+Recip(G) space primitive vectors, cartesian coordinates (Bohr,Bohr^-1):
 R(1)=  9.8010904  0.0000000  5.6586622  G(1)=  0.1020295 -0.0360729  0.0000000
 R(2)=  3.2670301  9.2405566  5.6586622  G(2)=  0.0000000  0.1082186  0.0000000
 R(3)=  0.0000000  0.0000000 11.3173243  G(3)= -0.0510147 -0.0360729  0.0883601
 Unit cell volume ucvol=  1.0249821E+03 bohr^3
 Angles (23,13,12)=  6.00000000E+01  6.00000000E+01  6.00000000E+01 degrees

 getcut: wavevector=  0.0000  0.0000  0.0000  ngfft=  72  72  72
         ecut(hartree)=     44.000   => boxcut(ratio)=   2.13058

--- Pseudopotential description ------------------------------------------------
- pspini: atom type   1  psp file is /scratch/users/j/a/jabreu/pseudos/PBEsol/Rb.psp8
- pspatm: opening atomic psp file    /scratch/users/j/a/jabreu/pseudos/PBEsol/Rb.psp8
- Rb    ONCVPSP-3.3.0  r_core=   1.71227   1.75361   1.90633
- 37.00000   9.00000    180112                znucl, zion, pspdat
    8 -116133    2    4       600   0.00000   pspcod,pspxc,lmax,lloc,mmax,r2well
    5.99000000000000    7.00000000000000    0.00000000000000   rchrg,fchrg,qchrg
     nproj     2     2     2
     extension_switch     1
  pspatm : epsatm=   34.48400912
         --- l  ekb(1:nproj) -->
             0    8.196957   -0.477221
             1    3.231347   -0.378736
             2   -1.047201    0.996637
 pspatm: atomic psp has been read  and splines computed

- pspini: atom type   2  psp file is /scratch/users/j/a/jabreu/pseudos/PBEsol/Na.psp8
- pspatm: opening atomic psp file    /scratch/users/j/a/jabreu/pseudos/PBEsol/Na.psp8
- Na    ONCVPSP-3.3.0  r_core=   1.20708   1.55069
- 11.00000   9.00000    180112                znucl, zion, pspdat
    8 -116133    1    4       400   0.00000   pspcod,pspxc,lmax,lloc,mmax,r2well
    3.99000000000000    0.00000000000000    0.00000000000000   rchrg,fchrg,qchrg
     nproj     2     2
     extension_switch     1
  pspatm : epsatm=    9.32878306
         --- l  ekb(1:nproj) -->
             0    2.657905   -0.678300
             1   -6.761319   -2.404728
 pspatm: atomic psp has been read  and splines computed

[...]

- pspini: atom type   4  psp file is /scratch/users/j/a/jabreu/pseudos/PBEsol/F.psp8
- pspatm: opening atomic psp file    /scratch/users/j/a/jabreu/pseudos/PBEsol/F.psp8
- F     ONCVPSP-3.3.0  r_core=   1.30942   1.45782   1.60379
-  9.00000   7.00000    180112                znucl, zion, pspdat
    8 -116133    2    4       600   0.00000   pspcod,pspxc,lmax,lloc,mmax,r2well
[...]
solver: {iscf: 7, nstep: 2000, nline: 4, wfoptalg: 0, }
tolerances: {tolwfr: 1.00E-20, }
...

     iter   2DEtotal(Ha)        deltaE(Ha) residm    vres2
-ETOT  1  -41.363206356973     -4.136E+01 6.279E-02 0.000E+00
 ETOT  2  -41.421060021969     -5.785E-02 7.309E-03 0.000E+00
 ETOT  3  -41.421354063082     -2.940E-04 2.158E-04 0.000E+00
 ETOT  4  -41.421357585875     -3.523E-06 3.219E-05 0.000E+00
 ETOT  5  -41.421357655920     -7.005E-08 3.272E-06 0.000E+00
 ETOT  6  -41.421357657578     -1.657E-09 7.013E-07 0.000E+00
 ETOT  7  -41.421357657621     -4.338E-11 5.436E-08 0.000E+00
 ETOT  8  -41.421357657622     -1.236E-12 1.389E-08 0.000E+00
 ETOT  9  -41.421357657622      2.132E-14 1.187E-09 0.000E+00
 ETOT 10  -41.421357657622     -2.842E-14 3.448E-10 0.000E+00
 ETOT 11  -41.421357657622     -2.842E-14 2.992E-11 0.000E+00
 ETOT 12  -41.421357657622      5.684E-14 8.865E-12 0.000E+00
 ETOT 13  -41.421357657622     -1.421E-14 7.690E-13 0.000E+00
 ETOT 14  -41.421357657622      0.000E+00 2.290E-13 0.000E+00
 ETOT 15  -41.421357657622     -7.105E-15 1.984E-14 0.000E+00
 ETOT 16  -41.421357657622      7.105E-15 5.924E-15 0.000E+00
 ETOT 17  -41.421357657622      0.000E+00 5.122E-16 0.000E+00
 ETOT 18  -41.421357657622      7.105E-15 1.533E-16 0.000E+00
 ETOT 19  -41.421357657622      7.105E-15 1.323E-17 0.000E+00
 ETOT 20  -41.421357657622     -7.105E-15 3.965E-18 0.000E+00
 ETOT 21  -41.421357657622      0.000E+00 3.420E-19 0.000E+00
 ETOT 22  -41.421357657622     -2.132E-14 1.026E-19 0.000E+00
 ETOT 23  -41.421357657622      1.421E-14 9.983E-21 0.000E+00

 At SCF step   23   max residual=  9.98E-21 < tolwfr=  1.00E-20 =>converged.

 ----iterations are completed or convergence reached----

 dfpt_looppert: DFPT cycle converged with prtwf=-1. Will skip output of the 1st-order WFK file.
 dfpt_looppert : ek2=    7.9522846884E+01
          f-sum rule ratio=    9.9114241679E-01
 prteigrs : about to open file /scratch/users/j/a/jabreu/flow_simple_10atoms/flow/w313/t1/tmpdata/tmp_1WF1_EIG
 Expectation of eigenvalue derivatives (hartree) for nkpt=   1  k points:
  (in case of degenerate eigenvalues, averaged derivative)
 kpt#   1, nband= 52, wtk=  1.00000, kpt=  0.5000  0.0000  0.5000 (reduced coord)
   0.00000    0.00000   -0.00000    0.00000    0.00000    0.00000    0.00000    0.00000
  -0.00000   -0.00000    0.00000   -0.00000   -0.00000   -0.00000   -0.00000   -0.00000
   0.00000    0.00000   -0.00000   -0.00000   -0.00000   -0.00000   -0.00000   -0.00000
   0.00000    0.00000    0.00000    0.00000   -0.00000   -0.00000    0.00000    0.00000
  -0.00000    0.00000    0.00000   -0.00000   -0.00000   -0.00000   -0.00000    0.00000
  -0.00000   -0.00000   -0.00000    0.00000   -0.00000   -0.00000    0.00000   -0.00000
  -0.00000    0.00000    0.00015    0.00053

 Eight components of 2nd-order total energy (hartree) are
 1,2,3: 0th-order hamiltonian combined with 1st-order wavefunctions
     kin0=   5.87534371E+01 eigvalue=   3.66877630E+00  local=  -2.60518875E+01
 4,5,6: 1st-order hamiltonian combined with 1st and 0th-order wfs
     kin1=  -7.88184667E+01  Hartree=   0.00000000E+00     xc=   0.00000000E+00
 7,8,9: eventually, occupation + non-local contributions
    edocc=   5.31409797E+00     enl0=  -2.63066243E-01   enl1=  -4.02424866E+00
 1-9 gives the relaxation energy (to be shifted if some occ is /=2.0)
   erelax=  -4.14213577E+01
  No Ewald or frozen-wf contrib.: the relaxation energy is the total one
 2DEtotal=   -0.4142135766E+02 Ha. Also 2DEtotal=   -0.112713246322E+04 eV
    (  non-var. 2DEtotal :   -4.1421357657E+01 Ha)

 CALCULATION OF EFFECTIVE MASSES
 NOTE : Additional infos (eff. mass eigenvalues, eigenvectors and, if degenerate, average mass) are available in stdout.

 COMMENTS:
 - At k-point ( 0.500, 0.000, 0.500), bands    42 through    43
   are DEGENERATE (effective mass tensor is therefore not defined).
   See Section IIIB Eqs. (67)-(70) and Appendix E of PRB 93 205147 (2016).
 - Angular average effective mass for Frohlich model is to be averaged over degenerate bands. See later.
 - Associated theta integrals calculated with ntheta=   1000 points.

 K-point ( 0.500, 0.000, 0.500) | band =    42
 Transport equivalent effective mass tensor:
             -5.4025055188              0.3444081121             -0.4204540364
              0.3444081121             -5.6446442017              0.5963424394
             -0.4204540364              0.5963424394             -5.8881755320
 Transport equivalent effective mass tensor eigenvalues:
             -6.6180698520             -5.1598053174             -5.1574500831
 Angular average effective mass 1/(<1/m>)=  -4.8701700193
 Angular average effective mass for Frohlich model (<m**0.5>)**2=  -4.9228438185
 Effective masses along directions: (cart. coord. / red. coord. -> eff. mass)
    1:   1.000000  0.000000  0.000000 /   0.948683  0.316228  0.000000 ->  -4.8604021430
    2:   0.000000  1.000000  0.000000 /   0.000000  1.000000  0.000000 ->  -5.8362548365
    3:   0.000000  0.000000  1.000000 /   0.408248  0.408248  0.816497 ->  -4.5717465192
    4:   0.577350  0.577350  0.577350 /   0.585539  0.688047  0.428644 ->  -5.2052668683
    5:   0.000000  0.707107  0.707107 /   0.289489  0.762222  0.578977 ->  -4.6034795310
    6:   0.707107  0.000000  0.707107 /   0.731423  0.422287  0.535439 ->  -5.0127902688
    7:   0.707107  0.707107  0.000000 /   0.616798  0.787122  0.000000 ->  -3.9771732119

 K-point ( 0.500, 0.000, 0.500) | band =    43
 Transport equivalent effective mass tensor:
          -4996.6255805358           -485.6021662147            594.0289469931
           -485.6021662147          -4653.0010252794           -840.1065423418
            594.0289469931           -840.1065423418          -4309.4123551932
 Transport equivalent effective mass tensor eigenvalues:
          -5339.9180319587          -5338.4654431177          -3280.6554859321
 Angular average effective mass 1/(<1/m>)= -11.5529081347
 Angular average effective mass for Frohlich model (<m**0.5>)**2= -19.8787966357
 Effective masses along directions: (cart. coord. / red. coord. -> eff. mass)
    1:   1.000000  0.000000  0.000000 /   0.948683  0.316228  0.000000 -> -14.6454594319
    2:   0.000000  1.000000  0.000000 /   0.000000  1.000000  0.000000 ->  -8.2959054561
    3:   0.000000  0.000000  1.000000 /   0.408248  0.408248  0.816497 -> -10.9858697142
    4:   0.577350  0.577350  0.577350 /   0.585539  0.688047  0.428644 -> -13.4419069994
    5:   0.000000  0.707107  0.707107 /   0.289489  0.762222  0.578977 -> -25.1003446549
    6:   0.707107  0.000000  0.707107 /   0.731423  0.422287  0.535439 ->  -8.1074234846
    7:   0.707107  0.707107  0.000000 /   0.616798  0.787122  0.000000 -> **************

 Angular average effective mass for Frohlich model, averaged over degenerate bands.
 Value of     (<<m**0.5>>)**2 =     1.114663E+01
 Absolute Value of <<m**0.5>> =     3.338656E+00

 K-point ( 0.500, 0.000, 0.500) | band =    44
 Effective mass tensor:
              2.0305083106              0.1587344417             -0.1943963090
              0.1587344417              1.9181075749              0.2747543695
             -0.1943963090              0.2747543695              1.8058560612
 Effective mass tensor eigenvalues:
              1.4693163742              2.1424084455              2.1427471270
 Angular average effective mass 1/(<1/m>)=   1.8586857944
 Angular average effective mass for Frohlich model (<m**0.5>)**2=   1.8774571106
 Effective masses along directions: (cart. coord. / red. coord. -> eff. mass)
    1:   1.000000  0.000000  0.000000 /   0.948683  0.316228  0.000000 ->   1.9906825637
    2:   0.000000  1.000000  0.000000 /   0.000000  1.000000  0.000000 ->   1.8586587081
    3:   0.000000  0.000000  1.000000 /   0.408248  0.408248  0.816497 ->   1.7431290319
    4:   0.577350  0.577350  0.577350 /   0.585539  0.688047  0.428644 ->   2.0517964297
    5:   0.000000  0.707107  0.707107 /   0.289489  0.762222  0.578977 ->   2.1341693988
    6:   0.707107  0.000000  0.707107 /   0.731423  0.422287  0.535439 ->   1.6673417531
    7:   0.707107  0.707107  0.000000 /   0.616798  0.787122  0.000000 ->   2.1287236254

 END OF EFFECTIVE MASSES SECTION

 ---- first-order wavefunction calculations are completed ----

 Total localisation tensor (bohr^2) in cartesian coordinates
  WARNING : still subject to testing - especially symmetries.
      direction              matrix element
   alpha     beta       real part   imaginary part
     1        1       0.6031699786    0.0000000000
     1        2       0.1706028996    0.0000000000
     1        3       0.4178886916    0.0000000000
     2        1       0.1706028996    0.0000000000
     2        2       0.4825378688    0.0000000000
     2        3       0.2954928900    0.0000000000
     3        1       0.4178886916    0.0000000000
     3        2       0.2954928900    0.0000000000
     3        3       1.0857106432    0.0000000000

 respfn : d/dk was computed, but no 2DTE, so no DDB output.

== END DATASET(S) ==============================================================

 -outvars: echo values of variables after computation  --------
            acell      1.0000000000E+00  1.0000000000E+00  1.0000000000E+00 Bohr
              amu      8.54678000E+01  2.29897680E+01  1.02905500E+02
                       1.89984032E+01
             ecut      4.40000000E+01 Hartree
           etotal     -4.1421357658E+01
            fcart      0.0000000000E+00  0.0000000000E+00  0.0000000000E+00
                       0.0000000000E+00  0.0000000000E+00  0.0000000000E+00
                       0.0000000000E+00  0.0000000000E+00  0.0000000000E+00
                       0.0000000000E+00  0.0000000000E+00  0.0000000000E+00
                       0.0000000000E+00  0.0000000000E+00  0.0000000000E+00
                       0.0000000000E+00  0.0000000000E+00  0.0000000000E+00
                       0.0000000000E+00  0.0000000000E+00  0.0000000000E+00
                       0.0000000000E+00  0.0000000000E+00  0.0000000000E+00
                       0.0000000000E+00  0.0000000000E+00  0.0000000000E+00
                       0.0000000000E+00  0.0000000000E+00  0.0000000000E+00
-          fftalg         512
           irdden           1
           irdwfk           1
           istwfk        1
              ixc     -116133
              kpt      5.00000000E-01  0.00000000E+00  5.00000000E-01
           kptopt           0
P           mkmem           1
P          mkqmem           1
P          mk1mem           1
            natom          10
            nband          52
           nbdbuf           4
            ngfft          72      72      72
             nkpt           1
            nstep        2000
             nsym          48
           ntypat           4
              occ      2.000000  2.000000  2.000000  2.000000  2.000000  2.000000
                       2.000000  2.000000  2.000000  2.000000  2.000000  2.000000
                       2.000000  2.000000  2.000000  2.000000  2.000000  2.000000
                       2.000000  2.000000  2.000000  2.000000  2.000000  2.000000
                       2.000000  2.000000  2.000000  2.000000  2.000000  2.000000
                       2.000000  2.000000  2.000000  2.000000  2.000000  2.000000
                       2.000000  2.000000  2.000000  2.000000  2.000000  2.000000
                       2.000000  0.000000  0.000000  0.000000  0.000000  0.000000
                       0.000000  0.000000  0.000000  0.000000
        optdriver           1
            prtwf          -1
            rfdir           1       1       1
           rfelfd           2
            rprim      9.8010903664E+00  0.0000000000E+00  5.6586621614E+00
                       3.2670301221E+00  9.2405566148E+00  5.6586621614E+00
                       0.0000000000E+00  0.0000000000E+00  1.1317324323E+01
          spgroup         225
           strten      0.0000000000E+00  0.0000000000E+00  0.0000000000E+00
                       0.0000000000E+00  0.0000000000E+00  0.0000000000E+00
           symrel      1  0  0   0  1  0   0  0  1      -1  0  0   0 -1  0   0  0 -1
                       0 -1  1   0 -1  0   1 -1  0       0  1 -1   0  1  0  -1  1  0
                      -1  0  0  -1  0  1  -1  1  0       1  0  0   1  0 -1   1 -1  0
                       0  1 -1   1  0 -1   0  0 -1       0 -1  1  -1  0  1   0  0  1
                      -1  0  0  -1  1  0  -1  0  1       1  0  0   1 -1  0   1  0 -1
                       0 -1  1   1 -1  0   0 -1  0       0  1 -1  -1  1  0   0  1  0
                       1  0  0   0  0  1   0  1  0      -1  0  0   0  0 -1   0 -1  0
                       0  1 -1   0  0 -1   1  0 -1       0 -1  1   0  0  1  -1  0  1
                      -1  0  1  -1  1  0  -1  0  0       1  0 -1   1 -1  0   1  0  0
                       0 -1  0   1 -1  0   0 -1  1       0  1  0  -1  1  0   0  1 -1
                       1  0 -1   0  0 -1   0  1 -1      -1  0  1   0  0  1   0 -1  1
                       0  1  0   0  0  1   1  0  0       0 -1  0   0  0 -1  -1  0  0
                       1  0 -1   0  1 -1   0  0 -1      -1  0  1   0 -1  1   0  0  1
                       0 -1  0   0 -1  1   1 -1  0       0  1  0   0  1 -1  -1  1  0
                      -1  0  1  -1  0  0  -1  1  0       1  0 -1   1  0  0   1 -1  0
                       0  1  0   1  0  0   0  0  1       0 -1  0  -1  0  0   0  0 -1
                       0  0 -1   0  1 -1   1  0 -1       0  0  1   0 -1  1  -1  0  1
                       1 -1  0   0 -1  1   0 -1  0      -1  1  0   0  1 -1   0  1  0
                       0  0  1   1  0  0   0  1  0       0  0 -1  -1  0  0   0 -1  0
                      -1  1  0  -1  0  0  -1  0  1       1 -1  0   1  0  0   1  0 -1
                       0  0  1   0  1  0   1  0  0       0  0 -1   0 -1  0  -1  0  0
                       1 -1  0   0 -1  0   0 -1  1      -1  1  0   0  1  0   0  1 -1
                       0  0 -1   1  0 -1   0  1 -1       0  0  1  -1  0  1   0 -1  1
                      -1  1  0  -1  0  1  -1  0  0       1 -1  0   1  0 -1   1  0  0
           tolwfr      1.00000000E-20
            typat      1  1  2  3  4  4  4  4  4  4
           useylm           1
           xangst      5.1865136412E+00  3.6674189664E+00  8.9833051408E+00
                       1.7288378804E+00  1.2224729888E+00  2.9944350469E+00
                       3.4576757608E+00  2.4449459776E+00  5.9888700938E+00
                       0.0000000000E+00  0.0000000000E+00  0.0000000000E+00
                       2.5372286426E+00  3.7466547757E+00  7.5831312683E+00
                       1.6167815243E+00  1.1432371796E+00  5.9888700938E+00
                       5.2985699973E+00  3.7466547757E+00  5.9888700938E+00
                       4.3781228790E+00  1.1432371796E+00  7.5831312683E+00
                       4.3781228790E+00  1.1432371796E+00  4.3946089194E+00
                       2.5372286426E+00  3.7466547757E+00  4.3946089194E+00
            xcart      9.8010903664E+00  6.9304174611E+00  1.6975986484E+01
                       3.2670301221E+00  2.3101391537E+00  5.6586621614E+00
                       6.5340602442E+00  4.6202783074E+00  1.1317324323E+01
                       0.0000000000E+00  0.0000000000E+00  0.0000000000E+00
                       4.7946672710E+00  7.0801514405E+00  1.4330041327E+01
                       3.0552742977E+00  2.1604051743E+00  1.1317324323E+01
                       1.0012846191E+01  7.0801514405E+00  1.1317324323E+01
                       8.2734532175E+00  2.1604051743E+00  1.4330041327E+01
                       8.2734532175E+00  2.1604051743E+00  8.3046073188E+00
                       4.7946672710E+00  7.0801514405E+00  8.3046073188E+00
             xred      7.5000000000E-01  7.5000000000E-01  7.5000000000E-01
                       2.5000000000E-01  2.5000000000E-01  2.5000000000E-01
                       5.0000000000E-01  5.0000000000E-01  5.0000000000E-01
                       0.0000000000E+00  0.0000000000E+00  0.0000000000E+00
                       2.3379600000E-01  7.6620400000E-01  7.6620400000E-01
                       2.3379600000E-01  2.3379600000E-01  7.6620400000E-01
                       7.6620400000E-01  7.6620400000E-01  2.3379600000E-01
                       7.6620400000E-01  2.3379600000E-01  7.6620400000E-01
                       7.6620400000E-01  2.3379600000E-01  2.3379600000E-01
                       2.3379600000E-01  7.6620400000E-01  2.3379600000E-01
            znucl       37.00000   11.00000   45.00000    9.00000

- Timing analysis has been suppressed with timopt=0

 Suggested references for the acknowledgment of ABINIT usage.

 Calculation completed.
.Delivered   2 WARNINGs and   5 COMMENTs to log file.