.Version 9.5.1 of ABINIT

 ABINIT is a project of the Universite Catholique de Louvain,
 Corning Inc. and other collaborators, see ~abinit/doc/developers/contributors.txt .
 acknowledgments of the ABINIT effort.

.Starting date : Tue 11 May 2021.
- ( at 21h45 )

- input  file    -> /scratch/users/j/a/jabreu/flow_simple_8atoms/flow/w351/t1/run.abi
- output file    -> /scratch/users/j/a/jabreu/flow_simple_8atoms/flow/w351/t1/run.abo
- root for input  files -> /scratch/users/j/a/jabreu/flow_simple_8atoms/flow/w351/t1/indata/in
- root for output files -> /scratch/users/j/a/jabreu/flow_simple_8atoms/flow/w351/t1/outdata/out

 Symmetries : space group C2/c (# 15); Bravais mC (1-face-center monocl.)
     intxc =       0      iscf =       7    lmnmax =      18     lnmax =       6
     mgfft =      72  mpssoang =       3    mqgrid =    3002     natom =       8
  nloc_mem =       1    nspden =       1   nspinor =       1    nsppol =       1
      nsym =       4    n1xccc =    2501    ntypat =       3    occopt =       1
   xclevel =       2
-    mband =          45        mffmem =           1         mkmem =           2
-   mkqmem =           2        mk1mem =           2           mpw =       15634
      nfft =      331776          nkpt =           2
  Rough estimation (10% accuracy) of disk space for files :

------------- Echo of variables that govern the present computation ------------
-
- outvars: echo of selected default values
-   iomode0 =  0 , fftalg0 =512 , wfoptalg0 =  0
-
- outvars: echo of global parameters not present in the input file
-  max_nthreads =    0
-
 -outvars: echo values of preprocessed input variables --------
            acell      1.0000000000E+00  1.0000000000E+00  1.0000000000E+00 Bohr
              amu      8.54678000E+01  1.21753000E+02  1.59994000E+01
             ecut      4.40000000E+01 Hartree
-          fftalg         512
           irdden           1
           irdwfk           1
              ixc     -116133
              kpt      4.09090909E-01 -4.09090909E-01  4.54182146E-17
                       5.00000000E-01 -5.00000000E-01  5.55111512E-17
           kptopt           0
P           mkmem           2
P          mkqmem           2
P          mk1mem           2
            natom           8
            nband          45
           nbdbuf           4
            ngfft          72      72      64
             nkpt           2
            nstep        2000
             nsym           4
           ntypat           3
              occ      2.000000  2.000000  2.000000  2.000000  2.000000  2.000000
                       2.000000  2.000000  2.000000  2.000000  2.000000  2.000000
                       2.000000  2.000000  2.000000  2.000000  2.000000  2.000000
                       2.000000  2.000000  2.000000  2.000000  2.000000  2.000000
                       2.000000  2.000000  2.000000  2.000000  2.000000  2.000000
                       2.000000  2.000000  2.000000  2.000000  2.000000  2.000000
                       0.000000  0.000000  0.000000  0.000000  0.000000  0.000000
                       0.000000  0.000000  0.000000
        optdriver           1
            prtwf          -1
            rfdir           1       1       1
           rfelfd           2
            rprim      1.0485459518E+01  0.0000000000E+00  4.1889023266E+00
                      -2.9789193692E+00  1.0053402443E+01  4.1889023266E+00
                       0.0000000000E+00  0.0000000000E+00  1.0635130395E+01
          spgroup          15
           symrel      1  0  0   0  1  0   0  0  1      -1  0  0   0 -1  0   0  0 -1
                       0 -1  0  -1  0  0   0  0 -1       0  1  0   1  0  0   0  0  1
            tnons      0.0000000  0.0000000  0.0000000     0.0000000  0.0000000  0.0000000
                       0.0000000  0.0000000  0.5000000    -0.0000000  0.0000000  0.5000000
           tolwfr      1.00000000E-20
            typat      1  1  2  2  3  3  3  3
           useylm           1
              wtk        0.50000    0.50000
           xangst      9.7644096746E-01  3.4139280166E+00  6.4375731018E+00
                       2.9958489945E+00  1.9061034252E+00  3.6236387941E+00
                      -9.3272127798E-01  4.8394357615E+00  3.6236387941E+00
                       4.9050112399E+00  4.8059568036E-01  6.4375731018E+00
                       1.0572156385E+00  6.9381190049E-01  5.2296930770E+00
                       3.6074218218E+00  4.1092667661E+00  7.6454531266E+00
                       3.6486814012E-01  1.2107646757E+00  2.4157587693E+00
                       2.9150743234E+00  4.6262195413E+00  4.8315188189E+00
            xcart      1.8452060134E+00  6.4513889888E+00  1.2165250123E+01
                       5.6613341351E+00  3.6020134546E+00  6.8476849254E+00
                      -1.7625877737E+00  9.1452082269E+00  6.8476849254E+00
                       9.2691279222E+00  9.0819421653E-01  1.2165250123E+01
                       1.9978480203E+00  1.3111144797E+00  9.8826876746E+00
                       6.8170392891E+00  7.7653887949E+00  1.4447812571E+01
                       6.8950085944E-01  2.2880136485E+00  4.5651224771E+00
                       5.5086921282E+00  8.7422879637E+00  9.1302473736E+00
             xred      3.5828800000E-01  6.4171200000E-01  7.5000000000E-01
                       6.4171200000E-01  3.5828800000E-01  2.5000000000E-01
                       9.0337000000E-02  9.0966300000E-01  2.5000000000E-01
                       9.0966300000E-01  9.0337000000E-02  7.5000000000E-01
                       2.2758600000E-01  1.3041500000E-01  7.8824200000E-01
                       8.6958500000E-01  7.7241400000E-01  7.1175800000E-01
                       1.3041500000E-01  2.2758600000E-01  2.8824200000E-01
                       7.7241400000E-01  8.6958500000E-01  2.1175800000E-01
            znucl       37.00000   51.00000    8.00000

 chkinp: Checking input parameters for consistency.

== DATASET  1 ==================================================================
-   mpi_nproc: 1, omp_nthreads: -1 (-1 if OMP is not activated)

--- !DatasetInfo
iteration_state: {dtset: 1, }
dimensions: {natom: 8, nkpt: 2, mband: 45, nsppol: 1, nspinor: 1, nspden: 1, mpw: 15634, }
cutoff_energies: {ecut:  44.0, pawecutdg:  -1.0, }
electrons: {nelect:   7.20000000E+01, charge:   0.00000000E+00, occopt:   1.00000000E+00, tsmear:   1.00000000E-02, }
meta: {optdriver: 1, rfelfd: 2, }
...

 Real(R)+Recip(G) space primitive vectors, cartesian coordinates (Bohr,Bohr^-1):
 R(1)= 10.4854595  0.0000000  4.1889023  G(1)=  0.0953702  0.0282591  0.0000000
 R(2)= -2.9789194 10.0534024  4.1889023  G(2)=  0.0000000  0.0994688  0.0000000
 R(3)=  0.0000000  0.0000000 10.6351304  G(3)= -0.0375638 -0.0503087  0.0940280
 Unit cell volume ucvol=  1.1210974E+03 bohr^3
 Angles (23,13,12)=  6.82234738E+01  6.82234738E+01  9.61635692E+01 degrees

 getcut: wavevector=  0.0000  0.0000  0.0000  ngfft=  72  72  64
         ecut(hartree)=     44.000   => boxcut(ratio)=   2.01575

--- Pseudopotential description ------------------------------------------------
- pspini: atom type   1  psp file is /scratch/users/j/a/jabreu/pseudos/PBEsol/Rb.psp8
- pspatm: opening atomic psp file    /scratch/users/j/a/jabreu/pseudos/PBEsol/Rb.psp8
- Rb    ONCVPSP-3.3.0  r_core=   1.71227   1.75361   1.90633
- 37.00000   9.00000    180112                znucl, zion, pspdat
    8 -116133    2    4       600   0.00000   pspcod,pspxc,lmax,lloc,mmax,r2well
    5.99000000000000    7.00000000000000    0.00000000000000   rchrg,fchrg,qchrg
     nproj     2     2     2
     extension_switch     1
  pspatm : epsatm=   34.48400912
         --- l  ekb(1:nproj) -->
             0    8.196957   -0.477221
             1    3.231347   -0.378736
             2   -1.047201    0.996637
 pspatm: atomic psp has been read  and splines computed

- pspini: atom type   2  psp file is /scratch/users/j/a/jabreu/pseudos/PBEsol/Sb.psp8
- pspatm: opening atomic psp file    /scratch/users/j/a/jabreu/pseudos/PBEsol/Sb.psp8
- Sb    ONCVPSP-3.3.0  r_core=   1.81962   2.12485   1.81962
- 51.00000  15.00000    180112                znucl, zion, pspdat
    8 -116133    2    4       600   0.00000   pspcod,pspxc,lmax,lloc,mmax,r2well
    5.99000000000000    5.00000000000000    0.00000000000000   rchrg,fchrg,qchrg
     nproj     2     2     2
     extension_switch     1
  pspatm : epsatm=   26.35641246
         --- l  ekb(1:nproj) -->
             0    9.727814    1.485032
             1    5.505335    0.704623
             2   -4.710637   -1.436443
 pspatm: atomic psp has been read  and splines computed

- pspini: atom type   3  psp file is /scratch/users/j/a/jabreu/pseudos/PBEsol/O.psp8
- pspatm: opening atomic psp file    /scratch/users/j/a/jabreu/pseudos/PBEsol/O.psp8
- O     ONCVPSP-3.3.0  r_core=   1.35509   1.45563   1.26150
-  8.00000   6.00000    180112                znucl, zion, pspdat
    8 -116133    2    4       600   0.00000   pspcod,pspxc,lmax,lloc,mmax,r2well
    5.99000000000000    4.00000000000000    0.00000000000000   rchrg,fchrg,qchrg
     nproj     2     2     1
     extension_switch     1
  pspatm : epsatm=    6.22910522
         --- l  ekb(1:nproj) -->
             0    6.050032    0.820363
             1   -4.739617   -1.153841
             2   -1.335834
 pspatm: atomic psp has been read  and splines computed

   1.05550030E+04                                ecore*ucvol(ha*bohr**3)

-inwffil : will read wavefunctions from disk file /scratch/users/j/a/jabreu/flow_simple_8atoms/flow/w351/t1/indata/in_WFK

 ==>  initialize data related to q vector <==

 The list of irreducible perturbations for this q vector is:
    1)    idir= 1    ipert=   9
    2)    idir= 2    ipert=   9
    3)    idir= 3    ipert=   9

 Perturbation wavevector (in red.coord.)   0.000000  0.000000  0.000000
 Perturbation : derivative vs k along direction   1

 dfpt_looppert : COMMENT -
  In a d/dk calculation, iscf is set to -3 automatically.
 The set of symmetries contains only one element for this perturbation.
 symkpt : not enough symmetry to change the number of k points.

[...]

 Initialisation of the first-order wave-functions :
  ireadwf=   0

--- !BeginCycle
iteration_state: {dtset: 1, }
solver: {iscf: 7, nstep: 2000, nline: 4, wfoptalg: 0, }
tolerances: {tolwfr: 1.00E-20, }
...

     iter   2DEtotal(Ha)        deltaE(Ha) residm    vres2
-ETOT  1  -43.163841866360     -4.316E+01 4.955E-02 0.000E+00
 ETOT  2  -43.239039340545     -7.520E-02 6.647E-03 0.000E+00
 ETOT  3  -43.239893300360     -8.540E-04 3.064E-04 0.000E+00
 ETOT  4  -43.239918888754     -2.559E-05 6.666E-05 0.000E+00
 ETOT  5  -43.239919893935     -1.005E-06 3.776E-06 0.000E+00
 ETOT  6  -43.239919938719     -4.478E-08 1.307E-06 0.000E+00
 ETOT  7  -43.239919940830     -2.111E-09 7.859E-08 0.000E+00
 ETOT  8  -43.239919940934     -1.038E-10 2.758E-08 0.000E+00
 ETOT  9  -43.239919940939     -5.201E-12 1.679E-09 0.000E+00
 ETOT 10  -43.239919940939     -2.558E-13 5.934E-10 0.000E+00
 ETOT 11  -43.239919940939     -1.421E-14 3.634E-11 0.000E+00
 ETOT 12  -43.239919940939     -7.105E-15 1.291E-11 0.000E+00
 ETOT 13  -43.239919940939     -7.105E-15 7.941E-13 0.000E+00
 ETOT 14  -43.239919940939      2.842E-14 2.837E-13 0.000E+00
 ETOT 15  -43.239919940939      0.000E+00 1.748E-14 0.000E+00
 ETOT 16  -43.239919940939      0.000E+00 6.283E-15 0.000E+00
 ETOT 17  -43.239919940939      0.000E+00 3.875E-16 0.000E+00
 ETOT 18  -43.239919940939      0.000E+00 1.401E-16 0.000E+00
 ETOT 19  -43.239919940939      0.000E+00 8.635E-18 0.000E+00
 ETOT 20  -43.239919940939      0.000E+00 3.143E-18 0.000E+00
 ETOT 21  -43.239919940939     -7.105E-15 1.934E-19 0.000E+00
 ETOT 22  -43.239919940939      7.105E-15 7.082E-20 0.000E+00
 ETOT 23  -43.239919940939      0.000E+00 9.876E-21 0.000E+00

 At SCF step   23   max residual=  9.88E-21 < tolwfr=  1.00E-20 =>converged.

 ----iterations are completed or convergence reached----

 dfpt_looppert: DFPT cycle converged with prtwf=-1. Will skip output of the 1st-order WFK file.
 dfpt_looppert : ek2=    5.6246576376E+01
          f-sum rule ratio=    1.0276797766E+00
 prteigrs : about to open file /scratch/users/j/a/jabreu/flow_simple_8atoms/flow/w351/t1/tmpdata/tmp_1WF1_EIG
 Expectation of eigenvalue derivatives (hartree) for nkpt=   2  k points:
  (in case of degenerate eigenvalues, averaged derivative)
 kpt#   1, nband= 45, wtk=  0.50000, kpt=  0.4091 -0.4091  0.0000 (reduced coord)
   0.00002    0.00002   -0.00003    0.00000   -0.00001   -0.00001    0.00004    0.00000
  -0.00001   -0.00001    0.00249   -0.00236   -0.00045   -0.00062   -0.00102    0.00016
   0.00214    0.00915    0.00349   -0.01187    0.00328   -0.00207    0.00194   -0.00566
   0.00155    0.00669   -0.00189    0.00169    0.01833   -0.00413   -0.00487   -0.00384
   0.00108    0.00185    0.01573    0.00034   -0.03835   -0.02327   -0.02116   -0.04763
  -0.00858    0.03174    0.00407   -0.02518    0.07520
 prteigrs : prtvol=0 or 1, do not print more k-points.

 Eight components of 2nd-order total energy (hartree) are
 1,2,3: 0th-order hamiltonian combined with 1st-order wavefunctions
     kin0=   5.50804472E+01 eigvalue=   6.64186871E+00  local=  -2.92900028E+01
 4,5,6: 1st-order hamiltonian combined with 1st and 0th-order wfs
     kin1=  -5.78034690E+01  Hartree=   0.00000000E+00     xc=   0.00000000E+00
 7,8,9: eventually, occupation + non-local contributions
    edocc=   6.74350558E+00     enl0=   4.06410122E+00   enl1=  -2.86763708E+01
 1-9 gives the relaxation energy (to be shifted if some occ is /=2.0)
   erelax=  -4.32399199E+01
  No Ewald or frozen-wf contrib.: the relaxation energy is the total one
 2DEtotal=   -0.4323991994E+02 Ha. Also 2DEtotal=   -0.117661805959E+04 eV
    (  non-var. 2DEtotal :   -4.3239919940E+01 Ha)

 Perturbation wavevector (in red.coord.)   0.000000  0.000000  0.000000
 Perturbation : derivative vs k along direction   2
 The set of symmetries contains only one element for this perturbation.
 symkpt : not enough symmetry to change the number of k points.

[...]

 Perturbation wavevector (in red.coord.)   0.000000  0.000000  0.000000
 Perturbation : derivative vs k along direction   3
 The set of symmetries contains only one element for this perturbation.
 symkpt : not enough symmetry to change the number of k points.

-inwffil : will read wavefunctions from disk file /scratch/users/j/a/jabreu/flow_simple_8atoms/flow/w351/t1/indata/in_WFK

 Initialisation of the first-order wave-functions :
  ireadwf=   0

--- !BeginCycle
iteration_state: {dtset: 1, }
solver: {iscf: 7, nstep: 2000, nline: 4, wfoptalg: 0, }
tolerances: {tolwfr: 1.00E-20, }
...

     iter   2DEtotal(Ha)        deltaE(Ha) residm    vres2
-ETOT  1  -55.628198890681     -5.563E+01 9.135E-02 0.000E+00
 ETOT  2  -55.707080165600     -7.888E-02 3.425E-03 0.000E+00
 ETOT  3  -55.708205209334     -1.125E-03 3.755E-04 0.000E+00
 ETOT  4  -55.708253251775     -4.804E-05 2.969E-05 0.000E+00
 ETOT  5  -55.708255916423     -2.665E-06 4.336E-06 0.000E+00
 ETOT  6  -55.708256077412     -1.610E-07 3.511E-07 0.000E+00
 ETOT  7  -55.708256087580     -1.017E-08 5.686E-08 0.000E+00
 ETOT  8  -55.708256088238     -6.580E-10 4.568E-09 0.000E+00
 ETOT  9  -55.708256088282     -4.341E-11 8.080E-10 0.000E+00
 ETOT 10  -55.708256088285     -2.863E-12 6.308E-11 0.000E+00
 ETOT 11  -55.708256088285     -1.421E-13 1.153E-11 0.000E+00
 ETOT 12  -55.708256088285     -4.974E-14 8.887E-13 0.000E+00
 ETOT 13  -55.708256088285      7.105E-15 1.651E-13 0.000E+00
 ETOT 14  -55.708256088285      2.132E-14 1.262E-14 0.000E+00
 ETOT 15  -55.708256088285      7.105E-15 2.372E-15 0.000E+00
 ETOT 16  -55.708256088285      7.105E-15 1.802E-16 0.000E+00
 ETOT 17  -55.708256088285     -2.842E-14 3.416E-17 0.000E+00
 ETOT 18  -55.708256088285      2.132E-14 3.098E-18 0.000E+00
 ETOT 19  -55.708256088285      0.000E+00 7.939E-19 0.000E+00
 ETOT 20  -55.708256088285      1.421E-14 9.767E-20 0.000E+00
 ETOT 21  -55.708256088285      0.000E+00 2.520E-20 0.000E+00
 ETOT 22  -55.708256088285     -7.105E-15 9.952E-21 0.000E+00

 At SCF step   22   max residual=  9.95E-21 < tolwfr=  1.00E-20 =>converged.

 ----iterations are completed or convergence reached----

 dfpt_looppert: DFPT cycle converged with prtwf=-1. Will skip output of the 1st-order WFK file.
 dfpt_looppert : ek2=    7.2671525108E+01
          f-sum rule ratio=    1.0262511725E+00
 prteigrs : about to open file /scratch/users/j/a/jabreu/flow_simple_8atoms/flow/w351/t1/tmpdata/tmp_1WF1_EIG
 Expectation of eigenvalue derivatives (hartree) for nkpt=   2  k points:
  (in case of degenerate eigenvalues, averaged derivative)
 kpt#   1, nband= 45, wtk=  0.50000, kpt=  0.4091 -0.4091  0.0000 (reduced coord)
   0.00000   -0.00000    0.00000   -0.00000   -0.00000    0.00000    0.00000    0.00000
   0.00000   -0.00000    0.00000   -0.00000   -0.00000    0.00000   -0.00000    0.00000
  -0.00000    0.00000   -0.00000    0.00000   -0.00000    0.00000    0.00000   -0.00000
  -0.00000    0.00000   -0.00000    0.00000    0.00000   -0.00000    0.00000    0.00000
  -0.00000    0.00000    0.00000   -0.00000    0.00000    0.00000   -0.00000    0.00000
   0.00000    0.00000   -0.00007    0.00072   -0.00224
 prteigrs : prtvol=0 or 1, do not print more k-points.

 Eight components of 2nd-order total energy (hartree) are
 1,2,3: 0th-order hamiltonian combined with 1st-order wavefunctions
     kin0=   7.26820964E+01 eigvalue=   8.57929280E+00  local=  -3.91621366E+01
 4,5,6: 1st-order hamiltonian combined with 1st and 0th-order wfs
     kin1=  -7.45792378E+01  Hartree=   0.00000000E+00     xc=   0.00000000E+00
 7,8,9: eventually, occupation + non-local contributions
    edocc=   8.40769234E+00     enl0=   5.20131119E+00   enl1=  -3.68372743E+01
 1-9 gives the relaxation energy (to be shifted if some occ is /=2.0)
   erelax=  -5.57082561E+01
  No Ewald or frozen-wf contrib.: the relaxation energy is the total one
 2DEtotal=   -0.5570825609E+02 Ha. Also 2DEtotal=   -0.151589874059E+04 eV
    (  non-var. 2DEtotal :   -5.5708256088E+01 Ha)

 CALCULATION OF EFFECTIVE MASSES
 NOTE : Additional infos (eff. mass eigenvalues, eigenvectors and, if degenerate, average mass) are available in stdout.

 K-point ( 0.409,-0.409, 0.000) | band =    36
 Effective mass tensor:
             -6.4644884580              0.2122858164              0.7894854544
              0.2122858164             -6.3174512514              1.0523084694
              0.7894854544              1.0523084694             -1.3447897894
 Effective mass tensor eigenvalues:
             -6.6163798272             -6.5011276880             -1.0092219836
 Angular average effective mass 1/(<1/m>)=  -2.3151331363
 Angular average effective mass for Frohlich model (<m**0.5>)**2=  -3.0079607589
 Effective masses along directions: (cart. coord. / red. coord. -> eff. mass)
    1:   1.000000  0.000000  0.000000 /   0.961933 -0.273285  0.000000 ->  -5.8755948954
    2:   0.000000  1.000000  0.000000 /   0.000000  1.000000  0.000000 ->  -5.3791964651
    3:   0.000000  0.000000  1.000000 /   0.344093  0.344093  0.873613 ->  -1.0641412165
    4:   0.577350  0.577350  0.577350 /   0.687713  0.527858  0.498415 ->  -1.5719509623
    5:   0.000000  0.707107  0.707107 /   0.229380  0.779893  0.582368 ->  -1.3824024610
    6:   0.707107  0.000000  0.707107 /   0.807911  0.066617  0.585527 ->  -1.4814851943
    7:   0.707107  0.707107  0.000000 /   0.828966  0.559299  0.000000 ->  -4.9076745598

 K-point ( 0.500,-0.500, 0.000) | band =    37
 Effective mass tensor:
              2.8932007527              3.0086723076             -3.3848873853
              3.0086723076              4.6761562333             -4.5333011448
             -3.3848873853             -4.5333011448              6.0712770458
 Effective mass tensor eigenvalues:
              0.6467107405              0.8233834749             12.1705398164
 Angular average effective mass 1/(<1/m>)=   1.0552408290
 Angular average effective mass for Frohlich model (<m**0.5>)**2=   1.3568821895
 Effective masses along directions: (cart. coord. / red. coord. -> eff. mass)
    1:   1.000000  0.000000  0.000000 /   0.961933 -0.273285  0.000000 ->   0.8266812523
    2:   0.000000  1.000000  0.000000 /   0.000000  1.000000  0.000000 ->   1.0610255137
    3:   0.000000  0.000000  1.000000 /   0.344093  0.344093  0.873613 ->   1.4475709158
    4:   0.577350  0.577350  0.577350 /   0.687713  0.527858  0.498415 ->   0.8518889458
    5:   0.000000  0.707107  0.707107 /   0.229380  0.779893  0.582368 ->   0.7880050558
    6:   0.707107  0.000000  0.707107 /   0.807911  0.066617  0.585527 ->   0.7763895659
    7:   0.707107  0.707107  0.000000 /   0.828966  0.559299  0.000000 ->   1.5994145525

 END OF EFFECTIVE MASSES SECTION

 ---- first-order wavefunction calculations are completed ----

 Total localisation tensor (bohr^2) in cartesian coordinates
  WARNING : still subject to testing - especially symmetries.
      direction              matrix element
   alpha     beta       real part   imaginary part
     1        1       1.0082693714    0.0000000000
     1        2      -0.2541435604    0.0000000000
     1        3       0.2668229888    0.0000000000
     2        1      -0.2541435604    0.0000000000
     2        2       0.8576960887    0.0000000000
     2        3       0.3573720600    0.0000000000
     3        1       0.2668229888    0.0000000000
     3        2       0.3573720600    0.0000000000
     3        3       1.5989348046    0.0000000000

 respfn : d/dk was computed, but no 2DTE, so no DDB output.

== END DATASET(S) ==============================================================

 -outvars: echo values of variables after computation  --------
            acell      1.0000000000E+00  1.0000000000E+00  1.0000000000E+00 Bohr
              amu      8.54678000E+01  1.21753000E+02  1.59994000E+01
             ecut      4.40000000E+01 Hartree
           etotal     -5.5708256088E+01
            fcart      0.0000000000E+00  0.0000000000E+00  0.0000000000E+00
                       0.0000000000E+00  0.0000000000E+00  0.0000000000E+00
                       0.0000000000E+00  0.0000000000E+00  0.0000000000E+00
                       0.0000000000E+00  0.0000000000E+00  0.0000000000E+00
                       0.0000000000E+00  0.0000000000E+00  0.0000000000E+00
                       0.0000000000E+00  0.0000000000E+00  0.0000000000E+00
                       0.0000000000E+00  0.0000000000E+00  0.0000000000E+00
                       0.0000000000E+00  0.0000000000E+00  0.0000000000E+00
-          fftalg         512
           irdden           1
           irdwfk           1
              ixc     -116133
              kpt      4.09090909E-01 -4.09090909E-01  4.54182146E-17
                       5.00000000E-01 -5.00000000E-01  5.55111512E-17
           kptopt           0
P           mkmem           2
P          mkqmem           2
P          mk1mem           2
            natom           8
            nband          45
           nbdbuf           4
            ngfft          72      72      64
             nkpt           2
            nstep        2000
             nsym           4
           ntypat           3
              occ      2.000000  2.000000  2.000000  2.000000  2.000000  2.000000
                       2.000000  2.000000  2.000000  2.000000  2.000000  2.000000
                       2.000000  2.000000  2.000000  2.000000  2.000000  2.000000
                       2.000000  2.000000  2.000000  2.000000  2.000000  2.000000
                       2.000000  2.000000  2.000000  2.000000  2.000000  2.000000
                       2.000000  2.000000  2.000000  2.000000  2.000000  2.000000
                       0.000000  0.000000  0.000000  0.000000  0.000000  0.000000
                       0.000000  0.000000  0.000000
        optdriver           1
            prtwf          -1
            rfdir           1       1       1
           rfelfd           2
            rprim      1.0485459518E+01  0.0000000000E+00  4.1889023266E+00
                      -2.9789193692E+00  1.0053402443E+01  4.1889023266E+00
                       0.0000000000E+00  0.0000000000E+00  1.0635130395E+01
          spgroup          15
           strten      0.0000000000E+00  0.0000000000E+00  0.0000000000E+00
                       0.0000000000E+00  0.0000000000E+00  0.0000000000E+00
           symrel      1  0  0   0  1  0   0  0  1      -1  0  0   0 -1  0   0  0 -1
                       0 -1  0  -1  0  0   0  0 -1       0  1  0   1  0  0   0  0  1
            tnons      0.0000000  0.0000000  0.0000000     0.0000000  0.0000000  0.0000000
                       0.0000000  0.0000000  0.5000000    -0.0000000  0.0000000  0.5000000
           tolwfr      1.00000000E-20
            typat      1  1  2  2  3  3  3  3
           useylm           1
              wtk        0.50000    0.50000
           xangst      9.7644096746E-01  3.4139280166E+00  6.4375731018E+00
                       2.9958489945E+00  1.9061034252E+00  3.6236387941E+00
                      -9.3272127798E-01  4.8394357615E+00  3.6236387941E+00
                       4.9050112399E+00  4.8059568036E-01  6.4375731018E+00
                       1.0572156385E+00  6.9381190049E-01  5.2296930770E+00
                       3.6074218218E+00  4.1092667661E+00  7.6454531266E+00
                       3.6486814012E-01  1.2107646757E+00  2.4157587693E+00
                       2.9150743234E+00  4.6262195413E+00  4.8315188189E+00
            xcart      1.8452060134E+00  6.4513889888E+00  1.2165250123E+01
                       5.6613341351E+00  3.6020134546E+00  6.8476849254E+00
                      -1.7625877737E+00  9.1452082269E+00  6.8476849254E+00
                       9.2691279222E+00  9.0819421653E-01  1.2165250123E+01
                       1.9978480203E+00  1.3111144797E+00  9.8826876746E+00
                       6.8170392891E+00  7.7653887949E+00  1.4447812571E+01
                       6.8950085944E-01  2.2880136485E+00  4.5651224771E+00
                       5.5086921282E+00  8.7422879637E+00  9.1302473736E+00
             xred      3.5828800000E-01  6.4171200000E-01  7.5000000000E-01
                       6.4171200000E-01  3.5828800000E-01  2.5000000000E-01
                       9.0337000000E-02  9.0966300000E-01  2.5000000000E-01
                       9.0966300000E-01  9.0337000000E-02  7.5000000000E-01
                       2.2758600000E-01  1.3041500000E-01  7.8824200000E-01
                       8.6958500000E-01  7.7241400000E-01  7.1175800000E-01
                       1.3041500000E-01  2.2758600000E-01  2.8824200000E-01
                       7.7241400000E-01  8.6958500000E-01  2.1175800000E-01
            znucl       37.00000   51.00000    8.00000

- Timing analysis has been suppressed with timopt=0

 Suggested references for the acknowledgment of ABINIT usage.

 Calculation completed.
.Delivered  14 WARNINGs and   9 COMMENTs to log file.