.Version 9.5.2 of ABINIT

 ABINIT is a project of the Universite Catholique de Louvain,
 Corning Inc. and other collaborators, see ~abinit/doc/developers/contributors.txt .
 acknowledgments of the ABINIT effort.

.Starting date : Mon 24 May 2021.
- ( at 18h17 )

- input  file    -> /scratch/users/j/a/jabreu/flow_simple_10atoms/flow/w399/t1/run.abi
- output file    -> /scratch/users/j/a/jabreu/flow_simple_10atoms/flow/w399/t1/run.abo
- root for input  files -> /scratch/users/j/a/jabreu/flow_simple_10atoms/flow/w399/t1/indata/in
- root for output files -> /scratch/users/j/a/jabreu/flow_simple_10atoms/flow/w399/t1/outdata/out

 Symmetries : space group Fm -3 m (#225); Bravais cF (face-center cubic)
     intxc =       0      iscf =       7    lmnmax =      18     lnmax =       6
     mgfft =      72  mpssoang =       3    mqgrid =    3001     natom =      10
  nloc_mem =       1    nspden =       1   nspinor =       1    nsppol =       1
      nsym =      48    n1xccc =    2501    ntypat =       4    occopt =       1
   xclevel =       2
-    mband =          56        mffmem =           1         mkmem =           2
-   mkqmem =           2        mk1mem =           2           mpw =       14344
      nfft =      373248          nkpt =           2
  Rough estimation (10% accuracy) of disk space for files :

------------- Echo of variables that govern the present computation ------------
-
- outvars: echo of selected default values
-   iomode0 =  0 , fftalg0 =512 , wfoptalg0 =  0
-
- outvars: echo of global parameters not present in the input file
-  max_nthreads =    0
-
 -outvars: echo values of preprocessed input variables --------
            acell      1.0000000000E+00  1.0000000000E+00  1.0000000000E+00 Bohr
              amu      2.29897680E+01  2.04383300E+02  1.02905500E+02
                       1.89984032E+01
             ecut      4.40000000E+01 Hartree
-          fftalg         512
           irdden           1
           irdwfk           1
           istwfk        0    1
              ixc     -116133
              kpt      6.09375000E-01  2.18750000E-01  6.09375000E-01
                       5.00000000E-01  0.00000000E+00  5.00000000E-01
           kptopt           0
P           mkmem           2
P          mkqmem           2
P          mk1mem           2
            natom          10
            nband          56
           nbdbuf           4
            ngfft          72      72      72
             nkpt           2
            nstep        2000
             nsym          48
           ntypat           4
              occ      2.000000  2.000000  2.000000  2.000000  2.000000  2.000000
                       2.000000  2.000000  2.000000  2.000000  2.000000  2.000000
                       2.000000  2.000000  2.000000  2.000000  2.000000  2.000000
                       2.000000  2.000000  2.000000  2.000000  2.000000  2.000000
                       2.000000  2.000000  2.000000  2.000000  2.000000  2.000000
                       2.000000  2.000000  2.000000  2.000000  2.000000  2.000000
                       2.000000  2.000000  2.000000  2.000000  2.000000  2.000000
                       2.000000  2.000000  2.000000  2.000000  2.000000  0.000000
                       0.000000  0.000000  0.000000  0.000000  0.000000  0.000000
                       0.000000  0.000000
        optdriver           1
            prtwf          -1
            rfdir           1       1       1
           rfelfd           2
            rprim      9.7992534035E+00  0.0000000000E+00  5.6576015904E+00
                       3.2664178012E+00  9.2388247096E+00  5.6576015904E+00
                       0.0000000000E+00  0.0000000000E+00  1.1315203181E+01
          spgroup         225
           symrel      1  0  0   0  1  0   0  0  1      -1  0  0   0 -1  0   0  0 -1
                       0 -1  1   0 -1  0   1 -1  0       0  1 -1   0  1  0  -1  1  0
                      -1  0  0  -1  0  1  -1  1  0       1  0  0   1  0 -1   1 -1  0
                       0  1 -1   1  0 -1   0  0 -1       0 -1  1  -1  0  1   0  0  1
                      -1  0  0  -1  1  0  -1  0  1       1  0  0   1 -1  0   1  0 -1
                       0 -1  1   1 -1  0   0 -1  0       0  1 -1  -1  1  0   0  1  0
                       1  0  0   0  0  1   0  1  0      -1  0  0   0  0 -1   0 -1  0
                       0  1 -1   0  0 -1   1  0 -1       0 -1  1   0  0  1  -1  0  1
                      -1  0  1  -1  1  0  -1  0  0       1  0 -1   1 -1  0   1  0  0
                       0 -1  0   1 -1  0   0 -1  1       0  1  0  -1  1  0   0  1 -1
                       1  0 -1   0  0 -1   0  1 -1      -1  0  1   0  0  1   0 -1  1
                       0  1  0   0  0  1   1  0  0       0 -1  0   0  0 -1  -1  0  0
                       1  0 -1   0  1 -1   0  0 -1      -1  0  1   0 -1  1   0  0  1
                       0 -1  0   0 -1  1   1 -1  0       0  1  0   0  1 -1  -1  1  0
                      -1  0  1  -1  0  0  -1  1  0       1  0 -1   1  0  0   1 -1  0
                       0  1  0   1  0  0   0  0  1       0 -1  0  -1  0  0   0  0 -1
                       0  0 -1   0  1 -1   1  0 -1       0  0  1   0 -1  1  -1  0  1
                       1 -1  0   0 -1  1   0 -1  0      -1  1  0   0  1 -1   0  1  0
                       0  0  1   1  0  0   0  1  0       0  0 -1  -1  0  0   0 -1  0
                      -1  1  0  -1  0  0  -1  0  1       1 -1  0   1  0  0   1  0 -1
                       0  0  1   0  1  0   1  0  0       0  0 -1   0 -1  0  -1  0  0
                       1 -1  0   0 -1  0   0 -1  1      -1  1  0   0  1  0   0  1 -1
                       0  0 -1   1  0 -1   0  1 -1       0  0  1  -1  0  1   0 -1  1
                      -1  1  0  -1  0  1  -1  0  0       1 -1  0   1  0 -1   1  0  0
           tolwfr      1.00000000E-20
            typat      1  2  2  3  4  4  4  4  4  4
           useylm           1
              wtk        0.50000    0.50000
           xangst      3.4570277082E+00  2.4444877352E+00  5.9877476338E+00
                       1.7285138541E+00  1.2222438676E+00  2.9938738169E+00
                       5.1855415623E+00  3.6667316029E+00  8.9816214508E+00
                       0.0000000000E+00  0.0000000000E+00  0.0000000000E+00
                       2.5362967765E+00  3.7465979061E+00  4.3929948800E+00
                       2.5362967765E+00  3.7465979061E+00  7.5825003877E+00
                       4.3777586399E+00  1.1423775643E+00  4.3929948800E+00
                       5.2984895716E+00  3.7465979061E+00  5.9877476338E+00
                       4.3777586399E+00  1.1423775643E+00  7.5825003877E+00
                       1.6155658448E+00  1.1423775643E+00  5.9877476338E+00
            xcart      6.5328356023E+00  4.6194123548E+00  1.1315203181E+01
                       3.2664178012E+00  2.3097061774E+00  5.6576015904E+00
                       9.7992534035E+00  6.9291185322E+00  1.6972804771E+01
                       0.0000000000E+00  0.0000000000E+00  0.0000000000E+00
                       4.7929062994E+00  7.0800439727E+00  8.3015572264E+00
                       4.7929062994E+00  7.0800439727E+00  1.4328849135E+01
                       8.2727649053E+00  2.1587807369E+00  8.3015572264E+00
                       1.0012694208E+01  7.0800439727E+00  1.1315203181E+01
                       8.2727649053E+00  2.1587807369E+00  1.4328849135E+01
                       3.0529769964E+00  2.1587807369E+00  1.1315203181E+01
             xred      5.0000000000E-01  5.0000000000E-01  5.0000000000E-01
                       2.5000000000E-01  2.5000000000E-01  2.5000000000E-01
                       7.5000000000E-01  7.5000000000E-01  7.5000000000E-01
                       0.0000000000E+00  0.0000000000E+00  0.0000000000E+00
                       2.3366400000E-01  7.6633600000E-01  2.3366400000E-01
                       2.3366400000E-01  7.6633600000E-01  7.6633600000E-01
                       7.6633600000E-01  2.3366400000E-01  2.3366400000E-01
                       7.6633600000E-01  7.6633600000E-01  2.3366400000E-01
                       7.6633600000E-01  2.3366400000E-01  7.6633600000E-01
                       2.3366400000E-01  2.3366400000E-01  7.6633600000E-01
            znucl       11.00000   81.00000   45.00000    9.00000

 chkinp: Checking input parameters for consistency.

== DATASET  1 ==================================================================
-   mpi_nproc: 1, omp_nthreads: -1 (-1 if OMP is not activated)

--- !DatasetInfo
iteration_state: {dtset: 1, }
dimensions: {natom: 10, nkpt: 2, mband: 56, nsppol: 1, nspinor: 1, nspden: 1, mpw: 14344, }
cutoff_energies: {ecut:  44.0, pawecutdg:  -1.0, }
electrons: {nelect:   9.40000000E+01, charge:   0.00000000E+00, occopt:   1.00000000E+00, tsmear:   1.00000000E-02, }
meta: {optdriver: 1, rfelfd: 2, }
...

 Real(R)+Recip(G) space primitive vectors, cartesian coordinates (Bohr,Bohr^-1):
 R(1)=  9.7992534  0.0000000  5.6576016  G(1)=  0.1020486 -0.0360796  0.0000000
 R(2)=  3.2664178  9.2388247  5.6576016  G(2)=  0.0000000  0.1082389  0.0000000
 R(3)=  0.0000000  0.0000000 11.3152032  G(3)= -0.0510243 -0.0360796  0.0883767
 Unit cell volume ucvol=  1.0244059E+03 bohr^3
 Angles (23,13,12)=  6.00000000E+01  6.00000000E+01  6.00000000E+01 degrees

 getcut: wavevector=  0.0000  0.0000  0.0000  ngfft=  72  72  72
         ecut(hartree)=     44.000   => boxcut(ratio)=   2.13098

--- Pseudopotential description ------------------------------------------------
- pspini: atom type   1  psp file is /scratch/users/j/a/jabreu/pseudos/PBEsol/Na.psp8
- pspatm: opening atomic psp file    /scratch/users/j/a/jabreu/pseudos/PBEsol/Na.psp8
- Na    ONCVPSP-3.3.0  r_core=   1.20708   1.55069
- 11.00000   9.00000    180112                znucl, zion, pspdat
    8 -116133    1    4       400   0.00000   pspcod,pspxc,lmax,lloc,mmax,r2well
    3.99000000000000    0.00000000000000    0.00000000000000   rchrg,fchrg,qchrg
     nproj     2     2
     extension_switch     1
  pspatm : epsatm=    9.32878306
         --- l  ekb(1:nproj) -->
             0    2.657905   -0.678300
             1   -6.761319   -2.404728
 pspatm: atomic psp has been read  and splines computed

- pspini: atom type   2  psp file is /scratch/users/j/a/jabreu/pseudos/PBEsol/Tl.psp8
- pspatm: opening atomic psp file    /scratch/users/j/a/jabreu/pseudos/PBEsol/Tl.psp8
- Tl    ONCVPSP-3.3.0  r_core=   2.10510   2.60929   2.00701
- 81.00000  13.00000    180112                znucl, zion, pspdat
    8 -116133    2    4       600   0.00000   pspcod,pspxc,lmax,lloc,mmax,r2well
    5.99000000000000    7.00000000000000    0.00000000000000   rchrg,fchrg,qchrg
     nproj     2     2     2
     extension_switch     1
  pspatm : epsatm=   37.24354552
         --- l  ekb(1:nproj) -->
             0    6.297242    0.908324
             1    4.393460    0.899003
             2   -2.697741   -0.589563
 pspatm: atomic psp has been read  and splines computed

[...]

- pspini: atom type   4  psp file is /scratch/users/j/a/jabreu/pseudos/PBEsol/F.psp8
- pspatm: opening atomic psp file    /scratch/users/j/a/jabreu/pseudos/PBEsol/F.psp8
- F     ONCVPSP-3.3.0  r_core=   1.30942   1.45782   1.60379
[...]
  -0.00000    0.00000   -0.00000   -0.00000    0.00000    0.00000   -0.00000    0.00000
  -0.00000   -0.00000    0.00000    0.00000   -0.00000    0.00000   -0.00000    0.00000
  -0.00000    0.00000   -0.00000    0.00000    0.00000    0.00000    0.00000   -0.00000
  -0.00000   -0.00000    0.00000    0.00000   -0.00000   -0.00000    0.00000   -0.00000
  -0.00000    0.00000   -0.00000    0.00000    0.00000   -0.00000   -0.00000   -0.00000
   0.00000    0.00000   -0.00000    0.00000   -0.00000    0.00000   -0.00000   -0.00000
   0.00000   -0.00000    0.00000   -0.00000    0.00000    0.00000   -0.00000    0.00001
 prteigrs : prtvol=0 or 1, do not print more k-points.

 Eight components of 2nd-order total energy (hartree) are
 1,2,3: 0th-order hamiltonian combined with 1st-order wavefunctions
     kin0=   7.97753012E+01 eigvalue=   4.21382129E+00  local=  -3.61756186E+01
 4,5,6: 1st-order hamiltonian combined with 1st and 0th-order wfs
     kin1=  -8.89158365E+01  Hartree=   0.00000000E+00     xc=   0.00000000E+00
 7,8,9: eventually, occupation + non-local contributions
    edocc=   8.70825358E+00     enl0=   5.04279024E+00   enl1=  -3.42132591E+01
 1-9 gives the relaxation energy (to be shifted if some occ is /=2.0)
   erelax=  -6.15645478E+01
  No Ewald or frozen-wf contrib.: the relaxation energy is the total one
 2DEtotal=   -0.6156454777E+02 Ha. Also 2DEtotal=   -0.167525654150E+04 eV
    (  non-var. 2DEtotal :   -6.1564547768E+01 Ha)

 Perturbation wavevector (in red.coord.)   0.000000  0.000000  0.000000
 Perturbation : derivative vs k along direction   2
 The set of symmetries contains only one element for this perturbation.
 symkpt : not enough symmetry to change the number of k points.

[...]

 Perturbation wavevector (in red.coord.)   0.000000  0.000000  0.000000
 Perturbation : derivative vs k along direction   3
 The set of symmetries contains only one element for this perturbation.
 symkpt : not enough symmetry to change the number of k points.

 Initialisation of the first-order wave-functions :
  ireadwf=   0

--- !BeginCycle
iteration_state: {dtset: 1, }
solver: {iscf: 7, nstep: 2000, nline: 4, wfoptalg: 0, }
tolerances: {tolwfr: 1.00E-20, }
...

     iter   2DEtotal(Ha)        deltaE(Ha) residm    vres2
-ETOT  1  -61.516601176128     -6.152E+01 1.951E-02 0.000E+00
 ETOT  2  -61.564283755257     -4.768E-02 8.888E-04 0.000E+00
 ETOT  3  -61.564539070022     -2.553E-04 1.927E-05 0.000E+00
 ETOT  4  -61.564541920437     -2.850E-06 1.401E-06 0.000E+00
 ETOT  5  -61.564541960203     -3.977E-08 6.273E-08 0.000E+00
 ETOT  6  -61.564541960877     -6.736E-10 4.863E-09 0.000E+00
 ETOT  7  -61.564541960890     -1.352E-11 2.191E-10 0.000E+00
 ETOT  8  -61.564541960890     -3.482E-13 1.737E-11 0.000E+00
 ETOT  9  -61.564541960890     -4.263E-14 7.809E-13 0.000E+00
 ETOT 10  -61.564541960890      2.842E-14 6.274E-14 0.000E+00
 ETOT 11  -61.564541960890      7.105E-15 2.808E-15 0.000E+00
 ETOT 12  -61.564541960890      1.421E-14 2.280E-16 0.000E+00
 ETOT 13  -61.564541960890      2.132E-14 1.016E-17 0.000E+00
 ETOT 14  -61.564541960890     -2.842E-14 8.312E-19 0.000E+00
 ETOT 15  -61.564541960890      1.421E-14 3.687E-20 0.000E+00
 ETOT 16  -61.564541960890     -7.105E-15 9.975E-21 0.000E+00

 At SCF step   16   max residual=  9.98E-21 < tolwfr=  1.00E-20 =>converged.

 ----iterations are completed or convergence reached----

 dfpt_looppert: DFPT cycle converged with prtwf=-1. Will skip output of the 1st-order WFK file.
 dfpt_looppert : ek2=    8.6952912142E+01
          f-sum rule ratio=    1.0225744543E+00
 prteigrs : about to open file /scratch/users/j/a/jabreu/flow_simple_10atoms/flow/w399/t1/tmpdata/tmp_1WF1_EIG
 Expectation of eigenvalue derivatives (hartree) for nkpt=   2  k points:
  (in case of degenerate eigenvalues, averaged derivative)
 kpt#   1, nband= 56, wtk=  0.50000, kpt=  0.6094  0.2188  0.6094 (reduced coord)
   0.00000   -0.00000   -0.00000    0.00000   -0.00000   -0.00000    0.00000    0.00000
  -0.00000    0.00000   -0.00000   -0.00000    0.00000    0.00000    0.00000   -0.00000
   0.00000   -0.00000    0.00000   -0.00000   -0.00000   -0.00000   -0.00000    0.00000
   0.00000   -0.00000   -0.00000   -0.00000   -0.00000    0.00000    0.00000   -0.00000
   0.00000    0.00000    0.00000   -0.00000   -0.00000   -0.00000    0.00000    0.00000
  -0.00000    0.00000    0.00000    0.00000    0.00000   -0.00000    0.00000    0.00000
  -0.00000   -0.00000   -0.00000    0.00000   -0.00000   -0.00000    0.00000   -0.00001
 prteigrs : prtvol=0 or 1, do not print more k-points.

 Eight components of 2nd-order total energy (hartree) are
 1,2,3: 0th-order hamiltonian combined with 1st-order wavefunctions
     kin0=   7.97753181E+01 eigvalue=   4.21382420E+00  local=  -3.61756350E+01
 4,5,6: 1st-order hamiltonian combined with 1st and 0th-order wfs
     kin1=  -8.89158267E+01  Hartree=   0.00000000E+00     xc=   0.00000000E+00
 7,8,9: eventually, occupation + non-local contributions
    edocc=   8.70823800E+00     enl0=   5.04279664E+00   enl1=  -3.42132572E+01
 1-9 gives the relaxation energy (to be shifted if some occ is /=2.0)
   erelax=  -6.15645420E+01
  No Ewald or frozen-wf contrib.: the relaxation energy is the total one
 2DEtotal=   -0.6156454196E+02 Ha. Also 2DEtotal=   -0.167525638346E+04 eV
    (  non-var. 2DEtotal :   -6.1564541961E+01 Ha)

 CALCULATION OF EFFECTIVE MASSES
 NOTE : Additional infos (eff. mass eigenvalues, eigenvectors and, if degenerate, average mass) are available in stdout.

 K-point ( 0.609, 0.219, 0.609) | band =    47
 Effective mass tensor:
            -21.6609151791             -1.3769985898              7.8963004797
             -1.3769985898             -9.9313582804             -2.3850154776
              7.8963004797             -2.3850154776            -12.5430811653
 Effective mass tensor eigenvalues:
            -26.2198534870            -11.8787668168             -6.0367343210
 Angular average effective mass 1/(<1/m>)= -10.4175586959
 Angular average effective mass for Frohlich model (<m**0.5>)**2= -11.4981108842
 Effective masses along directions: (cart. coord. / red. coord. -> eff. mass)
    1:   1.000000  0.000000  0.000000 /   0.948683  0.316228  0.000000 -> -15.8157313553
    2:   0.000000  1.000000  0.000000 /   0.000000  1.000000  0.000000 ->  -8.9814223787
    3:   0.000000  0.000000  1.000000 /   0.408248  0.408248  0.816497 ->  -8.8178589061
    4:   0.577350  0.577350  0.577350 /   0.585539  0.688047  0.428644 -> -11.1126724243
    5:   0.000000  0.707107  0.707107 /   0.289489  0.762222  0.578977 -> -12.6400056524
    6:   0.707107  0.000000  0.707107 /   0.731423  0.422287  0.535439 ->  -7.5888194648
    7:   0.707107  0.707107  0.000000 /   0.616798  0.787122  0.000000 -> -14.6881674925

 K-point ( 0.500, 0.000, 0.500) | band =    48
 Effective mass tensor:
              1.0114414133              0.1232069209             -0.1508970444
              0.1232069209              0.9243209638              0.2134006465
             -0.1508970444              0.2134006465              0.8372005147
 Effective mass tensor eigenvalues:
              0.5758391672              1.0985618620              1.0985618626
 Angular average effective mass 1/(<1/m>)=   0.8433698973
 Angular average effective mass for Frohlich model (<m**0.5>)**2=   0.8693815759
 Effective masses along directions: (cart. coord. / red. coord. -> eff. mass)
    1:   1.000000  0.000000  0.000000 /   0.948683  0.316228  0.000000 ->   0.9541983136
    2:   0.000000  1.000000  0.000000 /   0.000000  1.000000  0.000000 ->   0.8433698973
    3:   0.000000  0.000000  1.000000 /   0.408248  0.408248  0.816497 ->   0.7556074521
    4:   0.577350  0.577350  0.577350 /   0.585539  0.688047  0.428644 ->   1.0100944751
    5:   0.000000  0.707107  0.707107 /   0.289489  0.762222  0.578977 ->   1.0902304847
    6:   0.707107  0.000000  0.707107 /   0.731423  0.422287  0.535439 ->   0.7021209983
    7:   0.707107  0.707107  0.000000 /   0.616798  0.787122  0.000000 ->   1.0844864328

 END OF EFFECTIVE MASSES SECTION

 ---- first-order wavefunction calculations are completed ----

 Total localisation tensor (bohr^2) in cartesian coordinates
  WARNING : still subject to testing - especially symmetries.
      direction              matrix element
   alpha     beta       real part   imaginary part
     1        1       0.8493413960    0.0000000000
     1        2       0.2459607656    0.0000000000
     1        3       0.5907805457    0.0000000000
     2        1       0.2459607656    0.0000000000
     2        2       0.6956821010    0.0000000000
     2        3       0.4260165426    0.0000000000
     3        1       0.5907805457    0.0000000000
     3        2       0.4260165426    0.0000000000
     3        3       1.5315157880    0.0000000000

 respfn : d/dk was computed, but no 2DTE, so no DDB output.

== END DATASET(S) ==============================================================

 -outvars: echo values of variables after computation  --------
            acell      1.0000000000E+00  1.0000000000E+00  1.0000000000E+00 Bohr
              amu      2.29897680E+01  2.04383300E+02  1.02905500E+02
                       1.89984032E+01
             ecut      4.40000000E+01 Hartree
           etotal     -6.1564541961E+01
            fcart      0.0000000000E+00  0.0000000000E+00  0.0000000000E+00
                       0.0000000000E+00  0.0000000000E+00  0.0000000000E+00
                       0.0000000000E+00  0.0000000000E+00  0.0000000000E+00
                       0.0000000000E+00  0.0000000000E+00  0.0000000000E+00
                       0.0000000000E+00  0.0000000000E+00  0.0000000000E+00
                       0.0000000000E+00  0.0000000000E+00  0.0000000000E+00
                       0.0000000000E+00  0.0000000000E+00  0.0000000000E+00
                       0.0000000000E+00  0.0000000000E+00  0.0000000000E+00
                       0.0000000000E+00  0.0000000000E+00  0.0000000000E+00
                       0.0000000000E+00  0.0000000000E+00  0.0000000000E+00
-          fftalg         512
           irdden           1
           irdwfk           1
           istwfk        0    1
              ixc     -116133
              kpt      6.09375000E-01  2.18750000E-01  6.09375000E-01
                       5.00000000E-01  0.00000000E+00  5.00000000E-01
           kptopt           0
P           mkmem           2
P          mkqmem           2
P          mk1mem           2
            natom          10
            nband          56
           nbdbuf           4
            ngfft          72      72      72
             nkpt           2
            nstep        2000
             nsym          48
           ntypat           4
              occ      2.000000  2.000000  2.000000  2.000000  2.000000  2.000000
                       2.000000  2.000000  2.000000  2.000000  2.000000  2.000000
                       2.000000  2.000000  2.000000  2.000000  2.000000  2.000000
                       2.000000  2.000000  2.000000  2.000000  2.000000  2.000000
                       2.000000  2.000000  2.000000  2.000000  2.000000  2.000000
                       2.000000  2.000000  2.000000  2.000000  2.000000  2.000000
                       2.000000  2.000000  2.000000  2.000000  2.000000  2.000000
                       2.000000  2.000000  2.000000  2.000000  2.000000  0.000000
                       0.000000  0.000000  0.000000  0.000000  0.000000  0.000000
                       0.000000  0.000000
        optdriver           1
            prtwf          -1
            rfdir           1       1       1
           rfelfd           2
            rprim      9.7992534035E+00  0.0000000000E+00  5.6576015904E+00
                       3.2664178012E+00  9.2388247096E+00  5.6576015904E+00
                       0.0000000000E+00  0.0000000000E+00  1.1315203181E+01
          spgroup         225
           strten      0.0000000000E+00  0.0000000000E+00  0.0000000000E+00
                       0.0000000000E+00  0.0000000000E+00  0.0000000000E+00
           symrel      1  0  0   0  1  0   0  0  1      -1  0  0   0 -1  0   0  0 -1
                       0 -1  1   0 -1  0   1 -1  0       0  1 -1   0  1  0  -1  1  0
                      -1  0  0  -1  0  1  -1  1  0       1  0  0   1  0 -1   1 -1  0
                       0  1 -1   1  0 -1   0  0 -1       0 -1  1  -1  0  1   0  0  1
                      -1  0  0  -1  1  0  -1  0  1       1  0  0   1 -1  0   1  0 -1
                       0 -1  1   1 -1  0   0 -1  0       0  1 -1  -1  1  0   0  1  0
                       1  0  0   0  0  1   0  1  0      -1  0  0   0  0 -1   0 -1  0
                       0  1 -1   0  0 -1   1  0 -1       0 -1  1   0  0  1  -1  0  1
                      -1  0  1  -1  1  0  -1  0  0       1  0 -1   1 -1  0   1  0  0
                       0 -1  0   1 -1  0   0 -1  1       0  1  0  -1  1  0   0  1 -1
                       1  0 -1   0  0 -1   0  1 -1      -1  0  1   0  0  1   0 -1  1
                       0  1  0   0  0  1   1  0  0       0 -1  0   0  0 -1  -1  0  0
                       1  0 -1   0  1 -1   0  0 -1      -1  0  1   0 -1  1   0  0  1
                       0 -1  0   0 -1  1   1 -1  0       0  1  0   0  1 -1  -1  1  0
                      -1  0  1  -1  0  0  -1  1  0       1  0 -1   1  0  0   1 -1  0
                       0  1  0   1  0  0   0  0  1       0 -1  0  -1  0  0   0  0 -1
                       0  0 -1   0  1 -1   1  0 -1       0  0  1   0 -1  1  -1  0  1
                       1 -1  0   0 -1  1   0 -1  0      -1  1  0   0  1 -1   0  1  0
                       0  0  1   1  0  0   0  1  0       0  0 -1  -1  0  0   0 -1  0
                      -1  1  0  -1  0  0  -1  0  1       1 -1  0   1  0  0   1  0 -1
                       0  0  1   0  1  0   1  0  0       0  0 -1   0 -1  0  -1  0  0
                       1 -1  0   0 -1  0   0 -1  1      -1  1  0   0  1  0   0  1 -1
                       0  0 -1   1  0 -1   0  1 -1       0  0  1  -1  0  1   0 -1  1
                      -1  1  0  -1  0  1  -1  0  0       1 -1  0   1  0 -1   1  0  0
           tolwfr      1.00000000E-20
            typat      1  2  2  3  4  4  4  4  4  4
           useylm           1
              wtk        0.50000    0.50000
           xangst      3.4570277082E+00  2.4444877352E+00  5.9877476338E+00
                       1.7285138541E+00  1.2222438676E+00  2.9938738169E+00
                       5.1855415623E+00  3.6667316029E+00  8.9816214508E+00
                       0.0000000000E+00  0.0000000000E+00  0.0000000000E+00
                       2.5362967765E+00  3.7465979061E+00  4.3929948800E+00
                       2.5362967765E+00  3.7465979061E+00  7.5825003877E+00
                       4.3777586399E+00  1.1423775643E+00  4.3929948800E+00
                       5.2984895716E+00  3.7465979061E+00  5.9877476338E+00
                       4.3777586399E+00  1.1423775643E+00  7.5825003877E+00
                       1.6155658448E+00  1.1423775643E+00  5.9877476338E+00
            xcart      6.5328356023E+00  4.6194123548E+00  1.1315203181E+01
                       3.2664178012E+00  2.3097061774E+00  5.6576015904E+00
                       9.7992534035E+00  6.9291185322E+00  1.6972804771E+01
                       0.0000000000E+00  0.0000000000E+00  0.0000000000E+00
                       4.7929062994E+00  7.0800439727E+00  8.3015572264E+00
                       4.7929062994E+00  7.0800439727E+00  1.4328849135E+01
                       8.2727649053E+00  2.1587807369E+00  8.3015572264E+00
                       1.0012694208E+01  7.0800439727E+00  1.1315203181E+01
                       8.2727649053E+00  2.1587807369E+00  1.4328849135E+01
                       3.0529769964E+00  2.1587807369E+00  1.1315203181E+01
             xred      5.0000000000E-01  5.0000000000E-01  5.0000000000E-01
                       2.5000000000E-01  2.5000000000E-01  2.5000000000E-01
                       7.5000000000E-01  7.5000000000E-01  7.5000000000E-01
                       0.0000000000E+00  0.0000000000E+00  0.0000000000E+00
                       2.3366400000E-01  7.6633600000E-01  2.3366400000E-01
                       2.3366400000E-01  7.6633600000E-01  7.6633600000E-01
                       7.6633600000E-01  2.3366400000E-01  2.3366400000E-01
                       7.6633600000E-01  7.6633600000E-01  2.3366400000E-01
                       7.6633600000E-01  2.3366400000E-01  7.6633600000E-01
                       2.3366400000E-01  2.3366400000E-01  7.6633600000E-01
            znucl       11.00000   81.00000   45.00000    9.00000

- Timing analysis has been suppressed with timopt=0

 Suggested references for the acknowledgment of ABINIT usage.

 Calculation completed.
.Delivered   2 WARNINGs and   5 COMMENTs to log file.