.Version 9.5.1 of ABINIT

 ABINIT is a project of the Universite Catholique de Louvain,
 Corning Inc. and other collaborators, see ~abinit/doc/developers/contributors.txt .
 acknowledgments of the ABINIT effort.

.Starting date : Tue 11 May 2021.
- ( at 22h11 )

- input  file    -> /scratch/users/j/a/jabreu/flow_simple_8atoms/flow/w393/t1/run.abi
- output file    -> /scratch/users/j/a/jabreu/flow_simple_8atoms/flow/w393/t1/run.abo
- root for input  files -> /scratch/users/j/a/jabreu/flow_simple_8atoms/flow/w393/t1/indata/in
- root for output files -> /scratch/users/j/a/jabreu/flow_simple_8atoms/flow/w393/t1/outdata/out

 Symmetries : space group R-3 m (#166); Bravais hR (rhombohedral)
     intxc =       0      iscf =       7    lmnmax =      18     lnmax =       6
     mgfft =      90  mpssoang =       3    mqgrid =    3001     natom =       8
  nloc_mem =       1    nspden =       1   nspinor =       1    nsppol =       1
      nsym =      12    n1xccc =    2501    ntypat =       3    occopt =       1
   xclevel =       2
-    mband =          66        mffmem =           1         mkmem =           1
-   mkqmem =           1        mk1mem =           1           mpw =       19078
      nfft =      729000          nkpt =           1
  Rough estimation (10% accuracy) of disk space for files :

------------- Echo of variables that govern the present computation ------------
-
- outvars: echo of selected default values
-   iomode0 =  0 , fftalg0 =512 , wfoptalg0 =  0
-
- outvars: echo of global parameters not present in the input file
-  max_nthreads =    0
-
 -outvars: echo values of preprocessed input variables --------
            acell      1.0000000000E+00  1.0000000000E+00  1.0000000000E+00 Bohr
              amu      3.90983000E+01  6.35460000E+01  7.49215900E+01
             ecut      4.60000000E+01 Hartree
-          fftalg         512
           irdden           1
           irdwfk           1
           istwfk        1
              ixc     -116133
              kpt      5.00000000E-01  5.00000000E-01  5.00000000E-01
           kptopt           0
P           mkmem           1
P          mkqmem           1
P          mk1mem           1
            natom           8
            nband          66
           nbdbuf           4
            ngfft          90      90      90
             nkpt           1
            nstep        2000
             nsym          12
           ntypat           3
              occ      2.000000  2.000000  2.000000  2.000000  2.000000  2.000000
                       2.000000  2.000000  2.000000  2.000000  2.000000  2.000000
                       2.000000  2.000000  2.000000  2.000000  2.000000  2.000000
                       2.000000  2.000000  2.000000  2.000000  2.000000  2.000000
                       2.000000  2.000000  2.000000  2.000000  2.000000  2.000000
                       2.000000  2.000000  2.000000  2.000000  2.000000  2.000000
                       2.000000  2.000000  2.000000  2.000000  2.000000  2.000000
                       2.000000  2.000000  2.000000  2.000000  2.000000  2.000000
                       2.000000  2.000000  2.000000  2.000000  2.000000  2.000000
                       2.000000  2.000000  2.000000  0.000000  0.000000  0.000000
                       0.000000  0.000000  0.000000  0.000000  0.000000  0.000000
        optdriver           1
            prtwf          -1
            rfdir           1       1       1
           rfelfd           2
            rprim      9.9312630130E+00  0.0000000000E+00  1.0229285396E+01
                       4.1488048380E+00  9.0231592832E+00  1.0229285396E+01
                       0.0000000000E+00  0.0000000000E+00  1.4257217988E+01
          spgroup         166
           symrel      1  0  0   0  1  0   0  0  1      -1  0  0   0 -1  0   0  0 -1
                       0  1  0   1  0  0   0  0  1       0 -1  0  -1  0  0   0  0 -1
                       0  0  1   1  0  0   0  1  0       0  0 -1  -1  0  0   0 -1  0
                       1  0  0   0  0  1   0  1  0      -1  0  0   0  0 -1   0 -1  0
                       0  1  0   0  0  1   1  0  0       0 -1  0   0  0 -1  -1  0  0
                       0  0  1   0  1  0   1  0  0       0  0 -1   0 -1  0  -1  0  0
           tolwfr      1.00000000E-20
            typat      1  1  1  2  2  2  3  3
           useylm           1
           xangst      6.6368455302E-01  4.2531978532E-01  1.6363793842E+00
                       6.7871664491E+00  4.3495304568E+00  1.6734424817E+01
                       3.7254255011E+00  2.3874251211E+00  9.1854021004E+00
                       1.0977264816E+00  2.3874251211E+00  6.4788497544E+00
                       2.6276990195E+00  0.0000000000E+00  6.4788497544E+00
                       3.7254255011E+00  2.3874251211E+00  5.4131046918E+00
                       5.5737730109E+00  3.5719317703E+00  1.3742684240E+01
                       1.8770779913E+00  1.2029184718E+00  4.6281199607E+00
            xcart      1.2541820438E+00  8.0373791315E-01  3.0923088856E+00
                       1.2825885807E+01  8.2194213700E+00  3.1623479895E+01
                       7.0400339255E+00  4.5115796416E+00  1.7357894390E+01
                       2.0744024190E+00  4.5115796416E+00  1.2243251692E+01
                       4.9656315065E+00  0.0000000000E+00  1.2243251692E+01
                       7.0400339255E+00  4.5115796416E+00  1.0229285396E+01
                       1.0532904517E+01  6.7499728113E+00  2.5969909544E+01
                       3.5471633336E+00  2.2731864719E+00  8.7458792358E+00
             xred      8.9075000000E-02  8.9075000000E-02  8.9075000000E-02
                       9.1092500000E-01  9.1092500000E-01  9.1092500000E-01
                       5.0000000000E-01  5.0000000000E-01  5.0000000000E-01
                      -2.7755575616E-17  5.0000000000E-01  5.0000000000E-01
                       5.0000000000E-01  0.0000000000E+00  5.0000000000E-01
                       5.0000000000E-01  5.0000000000E-01  1.1102230246E-16
                       7.4807200000E-01  7.4807200000E-01  7.4807200000E-01
                       2.5192800000E-01  2.5192800000E-01  2.5192800000E-01
            znucl       19.00000   29.00000   33.00000

 chkinp: Checking input parameters for consistency.

== DATASET  1 ==================================================================
-   mpi_nproc: 1, omp_nthreads: -1 (-1 if OMP is not activated)

--- !DatasetInfo
iteration_state: {dtset: 1, }
dimensions: {natom: 8, nkpt: 1, mband: 66, nsppol: 1, nspinor: 1, nspden: 1, mpw: 19078, }
cutoff_energies: {ecut:  46.0, pawecutdg:  -1.0, }
electrons: {nelect:   1.14000000E+02, charge:   0.00000000E+00, occopt:   1.00000000E+00, tsmear:   1.00000000E-02, }
meta: {optdriver: 1, rfelfd: 2, }
...

 Real(R)+Recip(G) space primitive vectors, cartesian coordinates (Bohr,Bohr^-1):
 R(1)=  9.9312630  0.0000000 10.2292854  G(1)=  0.1006921 -0.0462978  0.0000000
 R(2)=  4.1488048  9.0231593 10.2292854  G(2)=  0.0000000  0.1108259  0.0000000
 R(3)=  0.0000000  0.0000000 14.2572180  G(3)= -0.0722447 -0.0462978  0.0701399
 Unit cell volume ucvol=  1.2776088E+03 bohr^3
 Angles (23,13,12)=  4.41530895E+01  4.41530895E+01  4.41530895E+01 degrees

 getcut: wavevector=  0.0000  0.0000  0.0000  ngfft=  90  90  90
         ecut(hartree)=     46.000   => boxcut(ratio)=   2.06771

--- Pseudopotential description ------------------------------------------------
- pspini: atom type   1  psp file is /scratch/users/j/a/jabreu/pseudos/PBEsol/K.psp8
- pspatm: opening atomic psp file    /scratch/users/j/a/jabreu/pseudos/PBEsol/K.psp8
- K     ONCVPSP-3.3.0  r_core=   1.36296   1.46408   1.61068
- 19.00000   9.00000    180112                znucl, zion, pspdat
    8 -116133    2    4       400   0.00000   pspcod,pspxc,lmax,lloc,mmax,r2well
    3.99000000000000    5.00000000000000    0.00000000000000   rchrg,fchrg,qchrg
     nproj     2     2     2
     extension_switch     1
  pspatm : epsatm=    8.32487830
         --- l  ekb(1:nproj) -->
             0   10.921326    0.816676
             1    4.431000    0.560368
             2   -3.384038   -1.043186
 pspatm: atomic psp has been read  and splines computed

- pspini: atom type   2  psp file is /scratch/users/j/a/jabreu/pseudos/PBEsol/Cu.psp8
- pspatm: opening atomic psp file    /scratch/users/j/a/jabreu/pseudos/PBEsol/Cu.psp8
- Cu    ONCVPSP-3.3.0  r_core=   1.26204   1.45626   1.76249
- 29.00000  19.00000    180112                znucl, zion, pspdat
    8 -116133    2    4       600   0.00000   pspcod,pspxc,lmax,lloc,mmax,r2well
    5.99000000000000    3.50000000000000    0.00000000000000   rchrg,fchrg,qchrg
     nproj     2     2     2
     extension_switch     1
  pspatm : epsatm=   21.63488701
         --- l  ekb(1:nproj) -->
             0    5.008230   -0.401634
             1   -3.496700   -0.765945
             2   -6.895851   -2.521180
 pspatm: atomic psp has been read  and splines computed

- pspini: atom type   3  psp file is /scratch/users/j/a/jabreu/pseudos/PBEsol/As.psp8
- pspatm: opening atomic psp file    /scratch/users/j/a/jabreu/pseudos/PBEsol/As.psp8
- As    ONCVPSP-3.3.0  r_core=   1.76603   1.70395   1.80867
- 33.00000  15.00000    180112                znucl, zion, pspdat
    8 -116133    2    4       600   0.00000   pspcod,pspxc,lmax,lloc,mmax,r2well
    5.99000000000000    5.00000000000000    0.00000000000000   rchrg,fchrg,qchrg
     nproj     2     2     2
     extension_switch     1
  pspatm : epsatm=   28.79155382
         --- l  ekb(1:nproj) -->
             0    8.270760    0.868950
             1    4.919053    0.756587
             2  -10.048665   -4.076802
 pspatm: atomic psp has been read  and splines computed

   1.68107140E+04                                ecore*ucvol(ha*bohr**3)

-inwffil : will read wavefunctions from disk file /scratch/users/j/a/jabreu/flow_simple_8atoms/flow/w393/t1/indata/in_WFK

 ==>  initialize data related to q vector <==

 The list of irreducible perturbations for this q vector is:
    1)    idir= 1    ipert=   9
    2)    idir= 2    ipert=   9
    3)    idir= 3    ipert=   9

 Perturbation wavevector (in red.coord.)   0.000000  0.000000  0.000000
 Perturbation : derivative vs k along direction   1

 dfpt_looppert : COMMENT -
  In a d/dk calculation, iscf is set to -3 automatically.
 The set of symmetries contains only one element for this perturbation.
 symkpt : not enough symmetry to change the number of k points.

[...]

 Initialisation of the first-order wave-functions :
  ireadwf=   0

--- !BeginCycle
iteration_state: {dtset: 1, }
solver: {iscf: 7, nstep: 2000, nline: 4, wfoptalg: 0, }
tolerances: {tolwfr: 1.00E-20, }
...

     iter   2DEtotal(Ha)        deltaE(Ha) residm    vres2
-ETOT  1  -84.047891961064     -8.405E+01 2.695E-01 0.000E+00
 ETOT  2  -84.337473702399     -2.896E-01 2.103E-02 0.000E+00
 ETOT  3  -84.347253729259     -9.780E-03 3.234E-03 0.000E+00
 ETOT  4  -84.347901383806     -6.477E-04 5.152E-04 0.000E+00
 ETOT  5  -84.347955194924     -5.381E-05 1.380E-04 0.000E+00
 ETOT  6  -84.347960100241     -4.905E-06 2.457E-05 0.000E+00
 ETOT  7  -84.347960575552     -4.753E-07 6.939E-06 0.000E+00
[...]
 4,5,6: 1st-order hamiltonian combined with 1st and 0th-order wfs
     kin1=  -1.17658137E+02  Hartree=   0.00000000E+00     xc=   0.00000000E+00
 7,8,9: eventually, occupation + non-local contributions
    edocc=   1.11054656E+01     enl0=   2.66881268E+00   enl1=  -5.10377840E+01
 1-9 gives the relaxation energy (to be shifted if some occ is /=2.0)
   erelax=  -8.43479606E+01
  No Ewald or frozen-wf contrib.: the relaxation energy is the total one
 2DEtotal=   -0.8434796063E+02 Ha. Also 2DEtotal=   -0.229522473449E+04 eV
    (  non-var. 2DEtotal :   -8.4347960629E+01 Ha)

 Perturbation wavevector (in red.coord.)   0.000000  0.000000  0.000000
 Perturbation : derivative vs k along direction   2
 The set of symmetries contains only one element for this perturbation.
 symkpt : not enough symmetry to change the number of k points.

[...]

 Perturbation wavevector (in red.coord.)   0.000000  0.000000  0.000000
 Perturbation : derivative vs k along direction   3
 The set of symmetries contains only one element for this perturbation.
 symkpt : not enough symmetry to change the number of k points.

-inwffil : will read wavefunctions from disk file /scratch/users/j/a/jabreu/flow_simple_8atoms/flow/w393/t1/indata/in_WFK

 Initialisation of the first-order wave-functions :
  ireadwf=   0

--- !BeginCycle
iteration_state: {dtset: 1, }
solver: {iscf: 7, nstep: 2000, nline: 4, wfoptalg: 0, }
tolerances: {tolwfr: 1.00E-20, }
...

     iter   2DEtotal(Ha)        deltaE(Ha) residm    vres2
-ETOT  1  -84.049020117600     -8.405E+01 2.695E-01 0.000E+00
 ETOT  2  -84.337208264842     -2.882E-01 2.103E-02 0.000E+00
 ETOT  3  -84.347225750530     -1.002E-02 3.234E-03 0.000E+00
 ETOT  4  -84.347899115353     -6.734E-04 5.152E-04 0.000E+00
 ETOT  5  -84.347954988221     -5.587E-05 1.380E-04 0.000E+00
 ETOT  6  -84.347960073996     -5.086E-06 2.457E-05 0.000E+00
 ETOT  7  -84.347960566982     -4.930E-07 6.939E-06 0.000E+00
 ETOT  8  -84.347960616967     -4.998E-08 1.264E-06 0.000E+00
 ETOT  9  -84.347960622206     -5.240E-09 3.671E-07 0.000E+00
 ETOT 10  -84.347960622770     -5.639E-10 6.709E-08 0.000E+00
 ETOT 11  -84.347960622832     -6.192E-11 1.976E-08 0.000E+00
 ETOT 12  -84.347960622839     -6.779E-12 3.609E-09 0.000E+00
 ETOT 13  -84.347960622840     -8.242E-13 1.072E-09 0.000E+00
 ETOT 14  -84.347960622840     -5.684E-14 1.958E-10 0.000E+00
 ETOT 15  -84.347960622840     -1.279E-13 5.852E-11 0.000E+00
 ETOT 16  -84.347960622840      1.279E-13 1.068E-11 0.000E+00
 ETOT 17  -84.347960622840     -4.263E-14 3.206E-12 0.000E+00
 ETOT 18  -84.347960622840     -4.263E-14 5.851E-13 0.000E+00
 ETOT 19  -84.347960622840      5.684E-14 1.762E-13 0.000E+00
 ETOT 20  -84.347960622840     -1.421E-14 3.217E-14 0.000E+00
 ETOT 21  -84.347960622840     -2.842E-14 9.705E-15 0.000E+00
 ETOT 22  -84.347960622840      1.421E-14 1.773E-15 0.000E+00
 ETOT 23  -84.347960622840      1.421E-14 5.358E-16 0.000E+00
 ETOT 24  -84.347960622840      0.000E+00 9.797E-17 0.000E+00
 ETOT 25  -84.347960622840     -1.421E-14 2.963E-17 0.000E+00
 ETOT 26  -84.347960622840      0.000E+00 5.423E-18 0.000E+00
 ETOT 27  -84.347960622840      0.000E+00 1.641E-18 0.000E+00
 ETOT 28  -84.347960622840     -1.421E-14 3.006E-19 0.000E+00
 ETOT 29  -84.347960622840     -1.421E-14 9.097E-20 0.000E+00
 ETOT 30  -84.347960622840      0.000E+00 1.669E-20 0.000E+00
 ETOT 31  -84.347960622840      2.842E-14 9.943E-21 0.000E+00

 At SCF step   31   max residual=  9.94E-21 < tolwfr=  1.00E-20 =>converged.

 ----iterations are completed or convergence reached----

 dfpt_looppert: DFPT cycle converged with prtwf=-1. Will skip output of the 1st-order WFK file.
 dfpt_looppert : ek2=    1.1055473194E+02
          f-sum rule ratio=    1.0642523859E+00
 prteigrs : about to open file /scratch/users/j/a/jabreu/flow_simple_8atoms/flow/w393/t1/tmpdata/tmp_1WF1_EIG
 Expectation of eigenvalue derivatives (hartree) for nkpt=   1  k points:
  (in case of degenerate eigenvalues, averaged derivative)
 kpt#   1, nband= 66, wtk=  1.00000, kpt=  0.5000  0.5000  0.5000 (reduced coord)
  -0.00000    0.00000    0.00000   -0.00000   -0.00000   -0.00000   -0.00000   -0.00000
  -0.00000   -0.00000   -0.00000   -0.00000    0.00000    0.00000    0.00000    0.00000
   0.00000   -0.00000    0.00000    0.00000    0.00000    0.00000   -0.00000    0.00000
  -0.00000   -0.00000   -0.00000    0.00000   -0.00000   -0.00000   -0.00000    0.00000
   0.00000    0.00000    0.00000   -0.00000    0.00000   -0.00000   -0.00000   -0.00000
   0.00000    0.00000   -0.00000    0.00000    0.00000    0.00000   -0.00000   -0.00000
   0.00000   -0.00000   -0.00000   -0.00000    0.00000    0.00000    0.00000    0.00000
   0.00000    0.00000    0.00000    0.00000   -0.00000   -0.00000    0.00000    0.00000
  -0.00000   -0.00000

 Eight components of 2nd-order total energy (hartree) are
 1,2,3: 0th-order hamiltonian combined with 1st-order wavefunctions
     kin0=   1.08802974E+02 eigvalue=   7.47133910E+00  local=  -4.57006307E+01
 4,5,6: 1st-order hamiltonian combined with 1st and 0th-order wfs
     kin1=  -1.17658137E+02  Hartree=   0.00000000E+00     xc=   0.00000000E+00
 7,8,9: eventually, occupation + non-local contributions
    edocc=   1.11054656E+01     enl0=   2.66881262E+00   enl1=  -5.10377840E+01
 1-9 gives the relaxation energy (to be shifted if some occ is /=2.0)
   erelax=  -8.43479606E+01
  No Ewald or frozen-wf contrib.: the relaxation energy is the total one
 2DEtotal=   -0.8434796062E+02 Ha. Also 2DEtotal=   -0.229522473432E+04 eV
    (  non-var. 2DEtotal :   -8.4347960622E+01 Ha)

 CALCULATION OF EFFECTIVE MASSES
 NOTE : Additional infos (eff. mass eigenvalues, eigenvectors and, if degenerate, average mass) are available in stdout.

 COMMENTS:
 - At k-point ( 0.500, 0.500, 0.500), bands    56 through    57
   are DEGENERATE (effective mass tensor is therefore not defined).
   See Section IIIB Eqs. (67)-(70) and Appendix E of PRB 93 205147 (2016).
 - Angular average effective mass for Frohlich model is to be averaged over degenerate bands. See later.
 - Associated theta integrals calculated with ntheta=   1000 points.

 K-point ( 0.500, 0.500, 0.500) | band =    56
 Transport equivalent effective mass tensor:
             -0.6565118222             -0.1725205417             -0.6637631032
             -0.1725205417             -0.4978576391             -0.4253659500
             -0.6637631032             -0.4253659500             -2.0238579085
 Transport equivalent effective mass tensor eigenvalues:
             -2.4036287819             -0.3873006023             -0.3872979856
 Angular average effective mass 1/(<1/m>)=  -0.4980856107
 Angular average effective mass for Frohlich model (<m**0.5>)**2=  -0.5730618242
 Effective masses along directions: (cart. coord. / red. coord. -> eff. mass)
    1:   1.000000  0.000000  0.000000 /   0.922721  0.385469  0.000000 ->  -0.3979344421
    2:   0.000000  1.000000  0.000000 /   0.000000  1.000000  0.000000 ->  -0.3646228194
    3:   0.000000  0.000000  1.000000 /   0.503628  0.503628  0.701939 ->  -0.9754774722
    4:   0.577350  0.577350  0.577350 /   0.592615  0.687875  0.419088 ->  -1.0123684584
    5:   0.000000  0.707107  0.707107 /   0.392690  0.739079  0.547318 ->  -0.7454251789
    6:   0.707107  0.000000  0.707107 /   0.705568  0.503197  0.498966 ->  -0.9510837617
    7:   0.707107  0.707107  0.000000 /   0.602027  0.798476  0.000000 ->  -0.4455499313

 K-point ( 0.500, 0.500, 0.500) | band =    57
 Transport equivalent effective mass tensor:
             -2.0034715731             -0.2164472281             -0.8327443143
             -0.2164472281             -1.8044415269             -0.5336646756
             -0.8327443143             -0.5336646756             -3.7189681217
 Transport equivalent effective mass tensor eigenvalues:
             -4.1954173335             -1.6657372034             -1.6657266848
 Angular average effective mass 1/(<1/m>)=  -1.4939154445
 Angular average effective mass for Frohlich model (<m**0.5>)**2=  -1.5799254913
 Effective masses along directions: (cart. coord. / red. coord. -> eff. mass)
    1:   1.000000  0.000000  0.000000 /   0.922721  0.385469  0.000000 ->  -1.4008978021
    2:   0.000000  1.000000  0.000000 /   0.000000  1.000000  0.000000 ->  -1.4271215066
    3:   0.000000  0.000000  1.000000 /   0.503628  0.503628  0.701939 ->  -2.9762634363
    4:   0.577350  0.577350  0.577350 /   0.592615  0.687875  0.419088 ->  -1.8461838589
    5:   0.000000  0.707107  0.707107 /   0.392690  0.739079  0.547318 ->  -2.0820483257
    6:   0.707107  0.000000  0.707107 /   0.705568  0.503197  0.498966 ->  -2.9684499861
    7:   0.707107  0.707107  0.000000 /   0.602027  0.798476  0.000000 ->  -1.1692815408

 Angular average effective mass for Frohlich model, averaged over degenerate bands.
 Value of     (<<m**0.5>>)**2 =     1.014008E+00
 Absolute Value of <<m**0.5>> =     1.006980E+00

 K-point ( 0.500, 0.500, 0.500) | band =    58
 Effective mass tensor:
              0.4214582905              0.1135296123              0.4367949091
              0.1135296123              0.3170575616              0.2799183985
              0.4367949091              0.2799183985              1.3212632369
 Effective mass tensor eigenvalues:
              0.2443025303              0.2443025303              1.5711740283
 Angular average effective mass 1/(<1/m>)=   0.3400189487
 Angular average effective mass for Frohlich model (<m**0.5>)**2=   0.3929364129
 Effective masses along directions: (cart. coord. / red. coord. -> eff. mass)
    1:   1.000000  0.000000  0.000000 /   0.922721  0.385469  0.000000 ->   0.2753491826
    2:   0.000000  1.000000  0.000000 /   0.000000  1.000000  0.000000 ->   0.2561645251
    3:   0.000000  0.000000  1.000000 /   0.503628  0.503628  0.701939 ->   0.7766722868
    4:   0.577350  0.577350  0.577350 /   0.592615  0.687875  0.419088 ->   0.6671005036
    5:   0.000000  0.707107  0.707107 /   0.392690  0.739079  0.547318 ->   0.5357942357
    6:   0.707107  0.000000  0.707107 /   0.705568  0.503197  0.498966 ->   0.7566055360
    7:   0.707107  0.707107  0.000000 /   0.602027  0.798476  0.000000 ->   0.2880205246

 END OF EFFECTIVE MASSES SECTION

 ---- first-order wavefunction calculations are completed ----

 Total localisation tensor (bohr^2) in cartesian coordinates
  WARNING : still subject to testing - especially symmetries.
      direction              matrix element
   alpha     beta       real part   imaginary part
     1        1       1.9774148330    0.0000000000
     1        2       0.6390152845    0.0000000000
     1        3       2.4585534787    0.0000000000
     2        1       0.6390152845    0.0000000000
     2        2       1.3897825811    0.0000000000
     2        3       1.5755548821    0.0000000000
     3        1       2.4585534787    0.0000000000
     3        2       1.5755548821    0.0000000000
     3        3       7.0420768320    0.0000000000

 respfn : d/dk was computed, but no 2DTE, so no DDB output.

== END DATASET(S) ==============================================================

 -outvars: echo values of variables after computation  --------
            acell      1.0000000000E+00  1.0000000000E+00  1.0000000000E+00 Bohr
              amu      3.90983000E+01  6.35460000E+01  7.49215900E+01
             ecut      4.60000000E+01 Hartree
           etotal     -8.4347960623E+01
            fcart      0.0000000000E+00  0.0000000000E+00  0.0000000000E+00
                       0.0000000000E+00  0.0000000000E+00  0.0000000000E+00
                       0.0000000000E+00  0.0000000000E+00  0.0000000000E+00
                       0.0000000000E+00  0.0000000000E+00  0.0000000000E+00
                       0.0000000000E+00  0.0000000000E+00  0.0000000000E+00
                       0.0000000000E+00  0.0000000000E+00  0.0000000000E+00
                       0.0000000000E+00  0.0000000000E+00  0.0000000000E+00
                       0.0000000000E+00  0.0000000000E+00  0.0000000000E+00
-          fftalg         512
           irdden           1
           irdwfk           1
           istwfk        1
              ixc     -116133
              kpt      5.00000000E-01  5.00000000E-01  5.00000000E-01
           kptopt           0
P           mkmem           1
P          mkqmem           1
P          mk1mem           1
            natom           8
            nband          66
           nbdbuf           4
            ngfft          90      90      90
             nkpt           1
            nstep        2000
             nsym          12
           ntypat           3
              occ      2.000000  2.000000  2.000000  2.000000  2.000000  2.000000
                       2.000000  2.000000  2.000000  2.000000  2.000000  2.000000
                       2.000000  2.000000  2.000000  2.000000  2.000000  2.000000
                       2.000000  2.000000  2.000000  2.000000  2.000000  2.000000
                       2.000000  2.000000  2.000000  2.000000  2.000000  2.000000
                       2.000000  2.000000  2.000000  2.000000  2.000000  2.000000
                       2.000000  2.000000  2.000000  2.000000  2.000000  2.000000
                       2.000000  2.000000  2.000000  2.000000  2.000000  2.000000
                       2.000000  2.000000  2.000000  2.000000  2.000000  2.000000
                       2.000000  2.000000  2.000000  0.000000  0.000000  0.000000
                       0.000000  0.000000  0.000000  0.000000  0.000000  0.000000
        optdriver           1
            prtwf          -1
            rfdir           1       1       1
           rfelfd           2
            rprim      9.9312630130E+00  0.0000000000E+00  1.0229285396E+01
                       4.1488048380E+00  9.0231592832E+00  1.0229285396E+01
                       0.0000000000E+00  0.0000000000E+00  1.4257217988E+01
          spgroup         166
           strten      0.0000000000E+00  0.0000000000E+00  0.0000000000E+00
                       0.0000000000E+00  0.0000000000E+00  0.0000000000E+00
           symrel      1  0  0   0  1  0   0  0  1      -1  0  0   0 -1  0   0  0 -1
                       0  1  0   1  0  0   0  0  1       0 -1  0  -1  0  0   0  0 -1
                       0  0  1   1  0  0   0  1  0       0  0 -1  -1  0  0   0 -1  0
                       1  0  0   0  0  1   0  1  0      -1  0  0   0  0 -1   0 -1  0
                       0  1  0   0  0  1   1  0  0       0 -1  0   0  0 -1  -1  0  0
                       0  0  1   0  1  0   1  0  0       0  0 -1   0 -1  0  -1  0  0
           tolwfr      1.00000000E-20
            typat      1  1  1  2  2  2  3  3
           useylm           1
           xangst      6.6368455302E-01  4.2531978532E-01  1.6363793842E+00
                       6.7871664491E+00  4.3495304568E+00  1.6734424817E+01
                       3.7254255011E+00  2.3874251211E+00  9.1854021004E+00
                       1.0977264816E+00  2.3874251211E+00  6.4788497544E+00
                       2.6276990195E+00  0.0000000000E+00  6.4788497544E+00
                       3.7254255011E+00  2.3874251211E+00  5.4131046918E+00
                       5.5737730109E+00  3.5719317703E+00  1.3742684240E+01
                       1.8770779913E+00  1.2029184718E+00  4.6281199607E+00
            xcart      1.2541820438E+00  8.0373791315E-01  3.0923088856E+00
                       1.2825885807E+01  8.2194213700E+00  3.1623479895E+01
                       7.0400339255E+00  4.5115796416E+00  1.7357894390E+01
                       2.0744024190E+00  4.5115796416E+00  1.2243251692E+01
                       4.9656315065E+00  0.0000000000E+00  1.2243251692E+01
                       7.0400339255E+00  4.5115796416E+00  1.0229285396E+01
                       1.0532904517E+01  6.7499728113E+00  2.5969909544E+01
                       3.5471633336E+00  2.2731864719E+00  8.7458792358E+00
             xred      8.9075000000E-02  8.9075000000E-02  8.9075000000E-02
                       9.1092500000E-01  9.1092500000E-01  9.1092500000E-01
                       5.0000000000E-01  5.0000000000E-01  5.0000000000E-01
                      -2.7755575616E-17  5.0000000000E-01  5.0000000000E-01
                       5.0000000000E-01  0.0000000000E+00  5.0000000000E-01
                       5.0000000000E-01  5.0000000000E-01  1.1102230246E-16
                       7.4807200000E-01  7.4807200000E-01  7.4807200000E-01
                       2.5192800000E-01  2.5192800000E-01  2.5192800000E-01
            znucl       19.00000   29.00000   33.00000

- Timing analysis has been suppressed with timopt=0

 Suggested references for the acknowledgment of ABINIT usage.

 Calculation completed.
.Delivered   6 WARNINGs and   5 COMMENTs to log file.