.Version 9.5.1 of ABINIT

 ABINIT is a project of the Universite Catholique de Louvain,
 Corning Inc. and other collaborators, see ~abinit/doc/developers/contributors.txt .
 acknowledgments of the ABINIT effort.

.Starting date : Tue  4 May 2021.
- ( at 19h17 )

- input  file    -> /scratch/users/j/a/jabreu/flow_simple_6atoms/flow/w178/t1/run.abi
- output file    -> /scratch/users/j/a/jabreu/flow_simple_6atoms/flow/w178/t1/run.abo
- root for input  files -> /scratch/users/j/a/jabreu/flow_simple_6atoms/flow/w178/t1/indata/in
- root for output files -> /scratch/users/j/a/jabreu/flow_simple_6atoms/flow/w178/t1/outdata/out

 Symmetries : space group P4/n m m (#129); Bravais tP (primitive tetrag.)
     intxc =       0      iscf =       7    lmnmax =      18     lnmax =       6
     mgfft =      90  mpssoang =       3    mqgrid =    4265     natom =       6
  nloc_mem =       1    nspden =       1   nspinor =       1    nsppol =       1
      nsym =      16    n1xccc =    2501    ntypat =       3    occopt =       1
   xclevel =       2
-    mband =          53        mffmem =           1         mkmem =           1
-   mkqmem =           1        mk1mem =           1           mpw =       13691
      nfft =      225000          nkpt =           1
  Rough estimation (10% accuracy) of disk space for files :

------------- Echo of variables that govern the present computation ------------
-
- outvars: echo of selected default values
-   iomode0 =  0 , fftalg0 =512 , wfoptalg0 =  0
-
- outvars: echo of global parameters not present in the input file
-  max_nthreads =    0
-
 -outvars: echo values of preprocessed input variables --------
            acell      1.0000000000E+00  1.0000000000E+00  1.0000000000E+00 Bohr
              amu      3.90983000E+01  1.07868200E+02  7.89600000E+01
             ecut      4.30000000E+01 Hartree
-          fftalg         512
           irdden           1
           irdwfk           1
           istwfk        1
              ixc     -116133
           kptopt           0
P           mkmem           1
P          mkqmem           1
P          mk1mem           1
            natom           6
            nband          53
           nbdbuf           4
            ngfft          50      50      90
             nkpt           1
            nstep        1000
             nsym          16
           ntypat           3
              occ      2.000000  2.000000  2.000000  2.000000  2.000000  2.000000
                       2.000000  2.000000  2.000000  2.000000  2.000000  2.000000
                       2.000000  2.000000  2.000000  2.000000  2.000000  2.000000
                       2.000000  2.000000  2.000000  2.000000  2.000000  2.000000
                       2.000000  2.000000  2.000000  2.000000  2.000000  2.000000
                       2.000000  2.000000  2.000000  2.000000  2.000000  2.000000
                       2.000000  2.000000  2.000000  2.000000  2.000000  2.000000
                       2.000000  2.000000  0.000000  0.000000  0.000000  0.000000
                       0.000000  0.000000  0.000000  0.000000  0.000000
        optdriver           1
            prtwf          -1
            rfdir           1       1       1
           rfelfd           2
            rprim      8.3825887786E+00  0.0000000000E+00  0.0000000000E+00
                       0.0000000000E+00  8.3825887786E+00  0.0000000000E+00
                       0.0000000000E+00  0.0000000000E+00  1.4447234466E+01
          spgroup         129
           symrel      1  0  0   0  1  0   0  0  1      -1  0  0   0 -1  0   0  0 -1
                      -1  0  0   0  1  0   0  0 -1       1  0  0   0 -1  0   0  0  1
                      -1  0  0   0 -1  0   0  0  1       1  0  0   0  1  0   0  0 -1
                       1  0  0   0 -1  0   0  0 -1      -1  0  0   0  1  0   0  0  1
                       0  1  0   1  0  0   0  0  1       0 -1  0  -1  0  0   0  0 -1
                       0 -1  0   1  0  0   0  0 -1       0  1  0  -1  0  0   0  0  1
                       0 -1  0  -1  0  0   0  0  1       0  1  0   1  0  0   0  0 -1
                       0  1  0  -1  0  0   0  0 -1       0 -1  0   1  0  0   0  0  1
            tnons      0.0000000  0.0000000  0.0000000     0.5000000  0.5000000  0.0000000
                       0.5000000  0.5000000  0.0000000     0.0000000  0.0000000  0.0000000
                       0.0000000  0.0000000  0.0000000     0.5000000  0.5000000  0.0000000
                       0.5000000  0.5000000  0.0000000     0.0000000  0.0000000  0.0000000
                       0.5000000  0.5000000  0.0000000     0.0000000  0.0000000  0.0000000
                       0.0000000  0.0000000  0.0000000     0.5000000  0.5000000  0.0000000
                       0.5000000  0.5000000  0.0000000     0.0000000  0.0000000  0.0000000
                       0.0000000  0.0000000  0.0000000     0.5000000  0.5000000  0.0000000
           tolwfr      1.00000000E-20
            typat      1  1  2  2  3  3
           useylm           1
           xangst      0.0000000000E+00  2.2179374653E+00  2.5856040756E+00
                       2.2179374653E+00  0.0000000000E+00  5.0595431310E+00
                       0.0000000000E+00  0.0000000000E+00  0.0000000000E+00
                       2.2179374653E+00  2.2179374653E+00  0.0000000000E+00
                       2.2179374653E+00  0.0000000000E+00  1.6398076243E+00
                       0.0000000000E+00  2.2179374653E+00  6.0053395822E+00
            xcart      0.0000000000E+00  4.1912943893E+00  4.8860835909E+00
                       4.1912943893E+00  0.0000000000E+00  9.5611508751E+00
                       0.0000000000E+00  0.0000000000E+00  0.0000000000E+00
                       4.1912943893E+00  4.1912943893E+00  0.0000000000E+00
                       4.1912943893E+00  0.0000000000E+00  3.0987873206E+00
                       0.0000000000E+00  4.1912943893E+00  1.1348447145E+01
             xred      0.0000000000E+00  5.0000000000E-01  3.3820200000E-01
                       5.0000000000E-01  0.0000000000E+00  6.6179800000E-01
                       0.0000000000E+00  0.0000000000E+00  0.0000000000E+00
                       5.0000000000E-01  5.0000000000E-01  0.0000000000E+00
                       5.0000000000E-01  0.0000000000E+00  2.1449000000E-01
                       0.0000000000E+00  5.0000000000E-01  7.8551000000E-01
            znucl       19.00000   47.00000   34.00000

 chkinp: Checking input parameters for consistency.

== DATASET  1 ==================================================================
-   mpi_nproc: 1, omp_nthreads: -1 (-1 if OMP is not activated)

--- !DatasetInfo
iteration_state: {dtset: 1, }
dimensions: {natom: 6, nkpt: 1, mband: 53, nsppol: 1, nspinor: 1, nspden: 1, mpw: 13691, }
cutoff_energies: {ecut:  43.0, pawecutdg:  -1.0, }
electrons: {nelect:   8.80000000E+01, charge:   0.00000000E+00, occopt:   1.00000000E+00, tsmear:   1.00000000E-02, }
meta: {optdriver: 1, rfelfd: 2, }
...

 Real(R)+Recip(G) space primitive vectors, cartesian coordinates (Bohr,Bohr^-1):
 R(1)=  8.3825888  0.0000000  0.0000000  G(1)=  0.1192949  0.0000000  0.0000000
 R(2)=  0.0000000  8.3825888  0.0000000  G(2)=  0.0000000  0.1192949  0.0000000
 R(3)=  0.0000000  0.0000000 14.4472345  G(3)=  0.0000000  0.0000000  0.0692174
 Unit cell volume ucvol=  1.0151753E+03 bohr^3
 Angles (23,13,12)=  9.00000000E+01  9.00000000E+01  9.00000000E+01 degrees

 getcut: wavevector=  0.0000  0.0000  0.0000  ngfft=  50  50  90
         ecut(hartree)=     43.000   => boxcut(ratio)=   2.02066

--- Pseudopotential description ------------------------------------------------
- pspini: atom type   1  psp file is /scratch/users/j/a/jabreu/pseudos/PBEsol/K.psp8
- pspatm: opening atomic psp file    /scratch/users/j/a/jabreu/pseudos/PBEsol/K.psp8
- K     ONCVPSP-3.3.0  r_core=   1.36296   1.46408   1.61068
- 19.00000   9.00000    180112                znucl, zion, pspdat
    8 -116133    2    4       400   0.00000   pspcod,pspxc,lmax,lloc,mmax,r2well
    3.99000000000000    5.00000000000000    0.00000000000000   rchrg,fchrg,qchrg
     nproj     2     2     2
     extension_switch     1
  pspatm : epsatm=    8.32487830
         --- l  ekb(1:nproj) -->
             0   10.921326    0.816676
             1    4.431000    0.560368
             2   -3.384038   -1.043186
 pspatm: atomic psp has been read  and splines computed

- pspini: atom type   2  psp file is /scratch/users/j/a/jabreu/pseudos/PBEsol/Ag.psp8
- pspatm: opening atomic psp file    /scratch/users/j/a/jabreu/pseudos/PBEsol/Ag.psp8
- Ag    ONCVPSP-3.3.0  r_core=   1.41384   1.46535   1.61207
- 47.00000  19.00000    180112                znucl, zion, pspdat
    8 -116133    2    4       600   0.00000   pspcod,pspxc,lmax,lloc,mmax,r2well
    5.99000000000000    7.00000000000000    0.00000000000000   rchrg,fchrg,qchrg
     nproj     2     2     2
     extension_switch     1
  pspatm : epsatm=   27.64581383
         --- l  ekb(1:nproj) -->
             0    9.559407   -0.398585
             1    3.418858   -0.136622
             2   -1.644397   -0.401551
 pspatm: atomic psp has been read  and splines computed

- pspini: atom type   3  psp file is /scratch/users/j/a/jabreu/pseudos/PBEsol/Se.psp8
- pspatm: opening atomic psp file    /scratch/users/j/a/jabreu/pseudos/PBEsol/Se.psp8
- Se    ONCVPSP-3.3.0  r_core=   1.81943   1.50330   1.90835
- 34.00000  16.00000    180112                znucl, zion, pspdat
    8 -116133    2    4       600   0.00000   pspcod,pspxc,lmax,lloc,mmax,r2well
    5.99000000000000    5.00000000000000    0.00000000000000   rchrg,fchrg,qchrg
     nproj     2     2     2
     extension_switch     1
  pspatm : epsatm=   29.17862020
         --- l  ekb(1:nproj) -->
             0    8.973804    1.019550
             1    6.849857    1.297308
             2   -9.203962   -3.731027
 pspatm: atomic psp has been read  and splines computed

   1.14662790E+04                                ecore*ucvol(ha*bohr**3)

-inwffil : will read wavefunctions from disk file /scratch/users/j/a/jabreu/flow_simple_6atoms/flow/w178/t1/indata/in_WFK

 ==>  initialize data related to q vector <==

 The list of irreducible perturbations for this q vector is:
    1)    idir= 1    ipert=   7
    2)    idir= 2    ipert=   7
    3)    idir= 3    ipert=   7

 Perturbation wavevector (in red.coord.)   0.000000  0.000000  0.000000
 Perturbation : derivative vs k along direction   1

 dfpt_looppert : COMMENT -
  In a d/dk calculation, iscf is set to -3 automatically.
 The set of symmetries contains only one element for this perturbation.
 symkpt : not enough symmetry to change the number of k points.

[...]

 Initialisation of the first-order wave-functions :
  ireadwf=   0

--- !BeginCycle
iteration_state: {dtset: 1, }
solver: {iscf: 7, nstep: 1000, nline: 4, wfoptalg: 0, }
tolerances: {tolwfr: 1.00E-20, }
...

     iter   2DEtotal(Ha)        deltaE(Ha) residm    vres2
-ETOT  1  -93.614437094034     -9.361E+01 1.704E-01 0.000E+00
 ETOT  2  -93.766606165540     -1.522E-01 5.190E-03 0.000E+00
 ETOT  3  -93.769134811330     -2.529E-03 1.295E-03 0.000E+00
 ETOT  4  -93.769226737279     -9.193E-05 6.463E-05 0.000E+00
[...]
   0.00000    0.00000    0.00000    0.00000   -0.00000   -0.00000   -0.00000    0.00000
  -0.00000    0.00000    0.00000    0.00000    0.00000   -0.00000    0.00000    0.00000
  -0.00000   -0.00000   -0.00000    0.00000   -0.00000    0.00000    0.00000    0.00000
  -0.00000   -0.00000   -0.00000    0.00000    0.00000    0.00000    0.00000    0.00000
   0.00000   -0.00000   -0.00000   -0.00000    0.00000   -0.00000    0.00000   -0.00000
   0.00000    0.00000    0.00000   -0.00000    0.00012

 Eight components of 2nd-order total energy (hartree) are
 1,2,3: 0th-order hamiltonian combined with 1st-order wavefunctions
     kin0=   1.01909430E+02 eigvalue=   8.29848204E+00  local=  -4.71059757E+01
 4,5,6: 1st-order hamiltonian combined with 1st and 0th-order wfs
     kin1=  -1.31009576E+02  Hartree=   0.00000000E+00     xc=   0.00000000E+00
 7,8,9: eventually, occupation + non-local contributions
    edocc=   2.48783731E+01     enl0=   5.78892189E+00   enl1=  -5.65288855E+01
 1-9 gives the relaxation energy (to be shifted if some occ is /=2.0)
   erelax=  -9.37692309E+01
  No Ewald or frozen-wf contrib.: the relaxation energy is the total one
 2DEtotal=   -0.9376923087E+02 Ha. Also 2DEtotal=   -0.255159053543E+04 eV
    (  non-var. 2DEtotal :   -9.3769230868E+01 Ha)

 Perturbation wavevector (in red.coord.)   0.000000  0.000000  0.000000
 Perturbation : derivative vs k along direction   2
 The set of symmetries contains only one element for this perturbation.
 symkpt : not enough symmetry to change the number of k points.

[...]

 Perturbation wavevector (in red.coord.)   0.000000  0.000000  0.000000
 Perturbation : derivative vs k along direction   3
 The set of symmetries contains only one element for this perturbation.
 symkpt : not enough symmetry to change the number of k points.

-inwffil : will read wavefunctions from disk file /scratch/users/j/a/jabreu/flow_simple_6atoms/flow/w178/t1/indata/in_WFK

 Initialisation of the first-order wave-functions :
  ireadwf=   0

--- !BeginCycle
iteration_state: {dtset: 1, }
solver: {iscf: 7, nstep: 1000, nline: 4, wfoptalg: 0, }
tolerances: {tolwfr: 1.00E-20, }
...

     iter   2DEtotal(Ha)        deltaE(Ha) residm    vres2
-ETOT  1  -27.393541409184     -2.739E+01 1.850E-02 0.000E+00
 ETOT  2  -27.433583924341     -4.004E-02 7.923E-04 0.000E+00
 ETOT  3  -27.434074430065     -4.905E-04 9.217E-05 0.000E+00
 ETOT  4  -27.434085636631     -1.121E-05 7.505E-06 0.000E+00
 ETOT  5  -27.434085977302     -3.407E-07 9.618E-07 0.000E+00
 ETOT  6  -27.434085988881     -1.158E-08 9.628E-08 0.000E+00
 ETOT  7  -27.434085989352     -4.715E-10 1.157E-08 0.000E+00
 ETOT  8  -27.434085989373     -2.048E-11 1.805E-09 0.000E+00
 ETOT  9  -27.434085989374     -8.953E-13 1.412E-10 0.000E+00
 ETOT 10  -27.434085989374     -6.750E-14 3.867E-11 0.000E+00
 ETOT 11  -27.434085989374      3.197E-14 2.629E-12 0.000E+00
 ETOT 12  -27.434085989374     -1.421E-14 8.837E-13 0.000E+00
 ETOT 13  -27.434085989374     -3.553E-15 5.992E-14 0.000E+00
 ETOT 14  -27.434085989374     -3.553E-15 2.060E-14 0.000E+00
 ETOT 15  -27.434085989374      2.842E-14 1.385E-15 0.000E+00
 ETOT 16  -27.434085989374     -1.066E-14 4.832E-16 0.000E+00
 ETOT 17  -27.434085989374      3.553E-15 3.219E-17 0.000E+00
 ETOT 18  -27.434085989374      0.000E+00 1.136E-17 0.000E+00
 ETOT 19  -27.434085989374      0.000E+00 7.509E-19 0.000E+00
 ETOT 20  -27.434085989374      0.000E+00 2.673E-19 0.000E+00
 ETOT 21  -27.434085989374      3.553E-15 1.756E-20 0.000E+00
 ETOT 22  -27.434085989374     -1.066E-14 9.960E-21 0.000E+00

 At SCF step   22   max residual=  9.96E-21 < tolwfr=  1.00E-20 =>converged.

 ----iterations are completed or convergence reached----

 dfpt_looppert: DFPT cycle converged with prtwf=-1. Will skip output of the 1st-order WFK file.
 dfpt_looppert : ek2=    3.3289169647E+01
          f-sum rule ratio=    1.0779214790E+00
 prteigrs : about to open file /scratch/users/j/a/jabreu/flow_simple_6atoms/flow/w178/t1/tmpdata/tmp_1WF1_EIG
 Expectation of eigenvalue derivatives (hartree) for nkpt=   1  k points:
  (in case of degenerate eigenvalues, averaged derivative)
 kpt#   1, nband= 53, wtk=  1.00000, kpt=  0.0000  0.0000  0.0000 (reduced coord)
   0.00000   -0.00000   -0.00000   -0.00000    0.00000    0.00000    0.00000    0.00000
   0.00000   -0.00000   -0.00000   -0.00000   -0.00000   -0.00000    0.00000    0.00000
  -0.00000    0.00000    0.00000    0.00000   -0.00000    0.00000   -0.00000   -0.00000
  -0.00000   -0.00000   -0.00000    0.00000    0.00000   -0.00000    0.00000    0.00000
   0.00000    0.00000    0.00000   -0.00000   -0.00000   -0.00000   -0.00000   -0.00000
  -0.00000    0.00000   -0.00000   -0.00000    0.00000   -0.00000    0.00000    0.00000
   0.00000    0.00000   -0.00000    0.00000    0.00002

 Eight components of 2nd-order total energy (hartree) are
 1,2,3: 0th-order hamiltonian combined with 1st-order wavefunctions
     kin0=   3.55932559E+01 eigvalue=   2.89848564E+00  local=  -1.66049073E+01
 4,5,6: 1st-order hamiltonian combined with 1st and 0th-order wfs
     kin1=  -3.58831110E+01  Hartree=   0.00000000E+00     xc=   0.00000000E+00
 7,8,9: eventually, occupation + non-local contributions
    edocc=   3.71128892E+00     enl0=   1.83596287E+00   enl1=  -1.89850610E+01
 1-9 gives the relaxation energy (to be shifted if some occ is /=2.0)
   erelax=  -2.74340860E+01
  No Ewald or frozen-wf contrib.: the relaxation energy is the total one
 2DEtotal=   -0.2743408599E+02 Ha. Also 2DEtotal=   -0.746519444705E+03 eV
    (  non-var. 2DEtotal :   -2.7434085989E+01 Ha)

 CALCULATION OF EFFECTIVE MASSES
 NOTE : Additional infos (eff. mass eigenvalues, eigenvectors and, if degenerate, average mass) are available in stdout.

 COMMENTS:
 - At k-point ( 0.000, 0.000, 0.000), bands    43 through    44
   are DEGENERATE (effective mass tensor is therefore not defined).
   See Section IIIB Eqs. (67)-(70) and Appendix E of PRB 93 205147 (2016).
 - Angular average effective mass for Frohlich model is to be averaged over degenerate bands. See later.
 - Associated theta integrals calculated with ntheta=   1000 points.

 K-point ( 0.000, 0.000, 0.000) | band =    43
 Transport equivalent effective mass tensor:
             -0.0970195220              0.0000013730             -0.0001006043
              0.0000013730             -0.0970195203              0.0000205399
             -0.0001006043              0.0000205399            -11.6624537164
 Transport equivalent effective mass tensor eigenvalues:
            -11.6624537173             -0.0970208935             -0.0970181478
 Angular average effective mass 1/(<1/m>)=  -0.1439087957
 Angular average effective mass for Frohlich model (<m**0.5>)**2=  -0.2127943089
 Effective masses along directions: (cart. coord. / red. coord. -> eff. mass)
    1:   1.000000  0.000000  0.000000 /   1.000000  0.000000  0.000000 ->  -0.0916329121
    2:   0.000000  1.000000  0.000000 /   0.000000  1.000000  0.000000 ->  -0.0916329111
    3:   0.000000  0.000000  1.000000 /   0.000000  0.000000  1.000000 -> -11.5319479954
    4:   0.577350  0.577350  0.577350 /   0.448544  0.448544  0.773057 ->  -0.1521677141
    5:   0.000000  0.707107  0.707107 /   0.000000  0.501861  0.864948 ->  -0.1818210765
    6:   0.707107  0.000000  0.707107 /   0.501861  0.000000  0.864948 ->  -0.1818210724
    7:   0.707107  0.707107  0.000000 /   0.707107  0.707107  0.000000 ->  -0.1018916900

 K-point ( 0.000, 0.000, 0.000) | band =    44
 Transport equivalent effective mass tensor:
             -1.8329474755              0.0000103008             -0.0016521140
              0.0000103008             -1.8328955594              0.0003397721
             -0.0016521140              0.0003397721            -31.5134987036
 Transport equivalent effective mass tensor eigenvalues:
            -31.5134987995             -1.8329493488             -1.8328935903
 Angular average effective mass 1/(<1/m>)=  -1.3689630469
 Angular average effective mass for Frohlich model (<m**0.5>)**2=  -1.8511635915
 Effective masses along directions: (cart. coord. / red. coord. -> eff. mass)
    1:   1.000000  0.000000  0.000000 /   1.000000  0.000000  0.000000 ->  -1.9262047460
    2:   0.000000  1.000000  0.000000 /   0.000000  1.000000  0.000000 ->  -1.9261490389
    3:   0.000000  0.000000  1.000000 /   0.000000  0.000000  1.000000 -> -11.5319519835
    4:   0.577350  0.577350  0.577350 /   0.448544  0.448544  0.773057 ->  -0.9028384566
    5:   0.000000  0.707107  0.707107 /   0.000000  0.501861  0.864948 ->  -3.3005084113
    6:   0.707107  0.000000  0.707107 /   0.501861  0.000000  0.864948 ->  -3.3031777859
    7:   0.707107  0.707107  0.000000 /   0.707107  0.707107  0.000000 ->  -0.6180206136

 Angular average effective mass for Frohlich model, averaged over degenerate bands.
 Value of     (<<m**0.5>>)**2 =     8.298035E-01
 Absolute Value of <<m**0.5>> =     9.109355E-01

 K-point ( 0.000, 0.000, 0.000) | band =    45
 Effective mass tensor:
              0.0914417516             -0.0000000001             -0.0000001972
             -0.0000000001              0.0914417506             -0.0000000945
             -0.0000001972             -0.0000000945              0.1848103041
 Effective mass tensor eigenvalues:
              0.0914417506              0.0914417516              0.1848103041
 Angular average effective mass 1/(<1/m>)=   0.1099593851
 Angular average effective mass for Frohlich model (<m**0.5>)**2=   0.1131347407
 Effective masses along directions: (cart. coord. / red. coord. -> eff. mass)
    1:   1.000000  0.000000  0.000000 /   1.000000  0.000000  0.000000 ->   0.0914417516
    2:   0.000000  1.000000  0.000000 /   0.000000  1.000000  0.000000 ->   0.0914417506
    3:   0.000000  0.000000  1.000000 /   0.000000  0.000000  1.000000 ->   0.1848103041
    4:   0.577350  0.577350  0.577350 /   0.448544  0.448544  0.773057 ->   0.1099592458
    5:   0.000000  0.707107  0.707107 /   0.000000  0.501861  0.864948 ->   0.1223474424
    6:   0.707107  0.000000  0.707107 /   0.501861  0.000000  0.864948 ->   0.1223473523
    7:   0.707107  0.707107  0.000000 /   0.707107  0.707107  0.000000 ->   0.0914417511

 END OF EFFECTIVE MASSES SECTION

 ---- first-order wavefunction calculations are completed ----

 Total localisation tensor (bohr^2) in cartesian coordinates
  WARNING : still subject to testing - especially symmetries.
      direction              matrix element
   alpha     beta       real part   imaginary part
     1        1       8.3691803478    0.0000000000
     1        2       0.0000000000    0.0000000000
     1        3       0.0000000000    0.0000000000
     2        1       0.0000000000    0.0000000000
     2        2       8.3691808338    0.0000000000
     2        3       0.0000000000    0.0000000000
     3        1       0.0000000000    0.0000000000
     3        2       0.0000000000    0.0000000000
     3        3       1.6841879827    0.0000000000

 respfn : d/dk was computed, but no 2DTE, so no DDB output.

== END DATASET(S) ==============================================================

 -outvars: echo values of variables after computation  --------
            acell      1.0000000000E+00  1.0000000000E+00  1.0000000000E+00 Bohr
              amu      3.90983000E+01  1.07868200E+02  7.89600000E+01
             ecut      4.30000000E+01 Hartree
           etotal     -2.7434085989E+01
            fcart      0.0000000000E+00  0.0000000000E+00  0.0000000000E+00
                       0.0000000000E+00  0.0000000000E+00  0.0000000000E+00
                       0.0000000000E+00  0.0000000000E+00  0.0000000000E+00
                       0.0000000000E+00  0.0000000000E+00  0.0000000000E+00
                       0.0000000000E+00  0.0000000000E+00  0.0000000000E+00
                       0.0000000000E+00  0.0000000000E+00  0.0000000000E+00
-          fftalg         512
           irdden           1
           irdwfk           1
           istwfk        1
              ixc     -116133
           kptopt           0
P           mkmem           1
P          mkqmem           1
P          mk1mem           1
            natom           6
            nband          53
           nbdbuf           4
            ngfft          50      50      90
             nkpt           1
            nstep        1000
             nsym          16
           ntypat           3
              occ      2.000000  2.000000  2.000000  2.000000  2.000000  2.000000
                       2.000000  2.000000  2.000000  2.000000  2.000000  2.000000
                       2.000000  2.000000  2.000000  2.000000  2.000000  2.000000
                       2.000000  2.000000  2.000000  2.000000  2.000000  2.000000
                       2.000000  2.000000  2.000000  2.000000  2.000000  2.000000
                       2.000000  2.000000  2.000000  2.000000  2.000000  2.000000
                       2.000000  2.000000  2.000000  2.000000  2.000000  2.000000
                       2.000000  2.000000  0.000000  0.000000  0.000000  0.000000
                       0.000000  0.000000  0.000000  0.000000  0.000000
        optdriver           1
            prtwf          -1
            rfdir           1       1       1
           rfelfd           2
            rprim      8.3825887786E+00  0.0000000000E+00  0.0000000000E+00
                       0.0000000000E+00  8.3825887786E+00  0.0000000000E+00
                       0.0000000000E+00  0.0000000000E+00  1.4447234466E+01
          spgroup         129
           strten      0.0000000000E+00  0.0000000000E+00  0.0000000000E+00
                       0.0000000000E+00  0.0000000000E+00  0.0000000000E+00
           symrel      1  0  0   0  1  0   0  0  1      -1  0  0   0 -1  0   0  0 -1
                      -1  0  0   0  1  0   0  0 -1       1  0  0   0 -1  0   0  0  1
                      -1  0  0   0 -1  0   0  0  1       1  0  0   0  1  0   0  0 -1
                       1  0  0   0 -1  0   0  0 -1      -1  0  0   0  1  0   0  0  1
                       0  1  0   1  0  0   0  0  1       0 -1  0  -1  0  0   0  0 -1
                       0 -1  0   1  0  0   0  0 -1       0  1  0  -1  0  0   0  0  1
                       0 -1  0  -1  0  0   0  0  1       0  1  0   1  0  0   0  0 -1
                       0  1  0  -1  0  0   0  0 -1       0 -1  0   1  0  0   0  0  1
            tnons      0.0000000  0.0000000  0.0000000     0.5000000  0.5000000  0.0000000
                       0.5000000  0.5000000  0.0000000     0.0000000  0.0000000  0.0000000
                       0.0000000  0.0000000  0.0000000     0.5000000  0.5000000  0.0000000
                       0.5000000  0.5000000  0.0000000     0.0000000  0.0000000  0.0000000
                       0.5000000  0.5000000  0.0000000     0.0000000  0.0000000  0.0000000
                       0.0000000  0.0000000  0.0000000     0.5000000  0.5000000  0.0000000
                       0.5000000  0.5000000  0.0000000     0.0000000  0.0000000  0.0000000
                       0.0000000  0.0000000  0.0000000     0.5000000  0.5000000  0.0000000
           tolwfr      1.00000000E-20
            typat      1  1  2  2  3  3
           useylm           1
           xangst      0.0000000000E+00  2.2179374653E+00  2.5856040756E+00
                       2.2179374653E+00  0.0000000000E+00  5.0595431310E+00
                       0.0000000000E+00  0.0000000000E+00  0.0000000000E+00
                       2.2179374653E+00  2.2179374653E+00  0.0000000000E+00
                       2.2179374653E+00  0.0000000000E+00  1.6398076243E+00
                       0.0000000000E+00  2.2179374653E+00  6.0053395822E+00
            xcart      0.0000000000E+00  4.1912943893E+00  4.8860835909E+00
                       4.1912943893E+00  0.0000000000E+00  9.5611508751E+00
                       0.0000000000E+00  0.0000000000E+00  0.0000000000E+00
                       4.1912943893E+00  4.1912943893E+00  0.0000000000E+00
                       4.1912943893E+00  0.0000000000E+00  3.0987873206E+00
                       0.0000000000E+00  4.1912943893E+00  1.1348447145E+01
             xred      0.0000000000E+00  5.0000000000E-01  3.3820200000E-01
                       5.0000000000E-01  0.0000000000E+00  6.6179800000E-01
                       0.0000000000E+00  0.0000000000E+00  0.0000000000E+00
                       5.0000000000E-01  5.0000000000E-01  0.0000000000E+00
                       5.0000000000E-01  0.0000000000E+00  2.1449000000E-01
                       0.0000000000E+00  5.0000000000E-01  7.8551000000E-01
            znucl       19.00000   47.00000   34.00000

- Timing analysis has been suppressed with timopt=0

 Suggested references for the acknowledgment of ABINIT usage.

 Calculation completed.
.Delivered   6 WARNINGs and   5 COMMENTs to log file.