.Version 9.5.2 of ABINIT

 ABINIT is a project of the Universite Catholique de Louvain,
 Corning Inc. and other collaborators, see ~abinit/doc/developers/contributors.txt .
 acknowledgments of the ABINIT effort.

.Starting date : Wed 26 May 2021.
- ( at 03h01 )

- input  file    -> /scratch/users/j/a/jabreu/flow_simple_11atoms/flow/w271/t1/run.abi
- output file    -> /scratch/users/j/a/jabreu/flow_simple_11atoms/flow/w271/t1/run.abo
- root for input  files -> /scratch/users/j/a/jabreu/flow_simple_11atoms/flow/w271/t1/indata/in
- root for output files -> /scratch/users/j/a/jabreu/flow_simple_11atoms/flow/w271/t1/outdata/out

 Symmetries : space group P2_1/c (# 14); Bravais mP (primitive monocl.)
     intxc =       0      iscf =       7    lmnmax =      32     lnmax =       8
     mgfft =      80  mpssoang =       4    mqgrid =    3620     natom =      12
  nloc_mem =       1    nspden =       1   nspinor =       1    nsppol =       1
      nsym =       4    n1xccc =    2501    ntypat =       2    occopt =       1
   xclevel =       2
-    mband =         103        mffmem =           1         mkmem =           2
-   mkqmem =           2        mk1mem =           2           mpw =       23176
      nfft =      450000          nkpt =           2
  Rough estimation (10% accuracy) of disk space for files :

------------- Echo of variables that govern the present computation ------------
-
- outvars: echo of selected default values
-   iomode0 =  0 , fftalg0 =512 , wfoptalg0 =  0
-
- outvars: echo of global parameters not present in the input file
-  max_nthreads =    0
-
 -outvars: echo values of preprocessed input variables --------
            acell      1.0000000000E+00  1.0000000000E+00  1.0000000000E+00 Bohr
              amu      1.21753000E+02  1.92220000E+02
             ecut      4.20000000E+01 Hartree
-          fftalg         512
           irdden           1
           irdwfk           1
              ixc     -116133
              kpt      6.66666667E-02  5.00000000E-01  0.00000000E+00
                       5.00000000E-01  1.29124375E-01  5.55795410E-01
           kptopt           0
P           mkmem           2
P          mkqmem           2
P          mk1mem           2
            natom          12
            nband         103
           nbdbuf           4
            ngfft          75      75      80
             nkpt           2
            nstep        2000
             nsym           4
           ntypat           2
              occ      2.000000  2.000000  2.000000  2.000000  2.000000  2.000000
                       2.000000  2.000000  2.000000  2.000000  2.000000  2.000000
                       2.000000  2.000000  2.000000  2.000000  2.000000  2.000000
                       2.000000  2.000000  2.000000  2.000000  2.000000  2.000000
                       2.000000  2.000000  2.000000  2.000000  2.000000  2.000000
                       2.000000  2.000000  2.000000  2.000000  2.000000  2.000000
                       2.000000  2.000000  2.000000  2.000000  2.000000  2.000000
                       2.000000  2.000000  2.000000  2.000000  2.000000  2.000000
                       2.000000  2.000000  2.000000  2.000000  2.000000  2.000000
                       2.000000  2.000000  2.000000  2.000000  2.000000  2.000000
                       2.000000  2.000000  2.000000  2.000000  2.000000  2.000000
                       2.000000  2.000000  2.000000  2.000000  2.000000  2.000000
                       2.000000  2.000000  2.000000  2.000000  2.000000  2.000000
                       2.000000  2.000000  2.000000  2.000000  2.000000  2.000000
                       2.000000  2.000000  2.000000  2.000000  2.000000  2.000000
                       2.000000  2.000000  2.000000  2.000000  0.000000  0.000000
                       0.000000  0.000000  0.000000  0.000000  0.000000  0.000000
                       0.000000
        optdriver           1
            prtwf          -1
            rfdir           1       1       1
           rfelfd           2
            rprim      1.2407216968E+01  0.0000000000E+00  0.0000000000E+00
                       0.0000000000E+00  1.1307582271E+01  5.3099734493E+00
                       0.0000000000E+00  0.0000000000E+00  1.2699358989E+01
          spgroup          14
           symrel      1  0  0   0  1  0   0  0  1      -1  0  0   0 -1  0   0  0 -1
                       1  0  0   0 -1  0   0  0 -1      -1  0  0   0  1  0   0  0  1
            tnons      0.0000000  0.0000000  0.0000000     0.0000000 -0.0000000 -0.0000000
                       0.5000000 -0.0000000  0.5000000     0.5000000  0.0000000  0.5000000
           tolwfr      1.00000000E-20
            typat      1  1  1  1  1  1  1  1  2  2  2  2
           useylm           1
              wtk        0.50000    0.50000
           xangst      5.6788314566E+00  5.0895742999E+00  8.3025698715E+00
                       2.3960232360E+00  8.9414052214E-01  4.5876640671E+00
                       8.8678498464E-01  8.9414052214E-01  1.2275583968E+00
                       4.1695932053E+00  5.0895742999E+00  4.9424642011E+00
                       2.3784142527E+00  3.9242099360E+00  3.0540836034E+00
                       5.6612224733E+00  2.0595048860E+00  3.1159389945E+00
                       4.1872021886E+00  2.0595048860E+00  6.4760446648E+00
                       9.0439396794E-01  3.9242099360E+00  6.4141892737E+00
                       3.2920920023E+00  4.3532841747E+00  7.3718784881E+00
                       9.2837816480E-03  1.6304306473E+00  5.5183554504E+00
                       3.2735244390E+00  1.6304306473E+00  2.1582497801E+00
                       6.5563326596E+00  4.3532841747E+00  4.0117728178E+00
            xcart      1.0731436208E+01  9.6179015597E+00  1.5689583256E+01
                       4.5278277241E+00  1.6896807112E+00  8.6694286764E+00
                       1.6757807597E+00  1.6896807112E+00  2.3197491820E+00
                       7.8793892435E+00  9.6179015597E+00  9.3399037618E+00
                       4.4945515682E+00  7.4156820670E+00  5.7713815973E+00
                       1.0698160052E+01  3.8919002039E+00  5.8882713464E+00
                       7.9126653994E+00  3.8919002039E+00  1.2237950841E+01
                       1.7090569156E+00  7.4156820670E+00  1.2121061092E+01
                       6.2211522886E+00  8.2265148689E+00  1.3930831427E+01
                       1.7543804792E-02  3.0810674020E+00  1.0428180505E+01
                       6.1860646790E+00  3.0810674020E+00  4.0785010107E+00
                       1.2389673163E+01  8.2265148689E+00  7.5811519330E+00
             xred      8.6493500000E-01  8.5057100000E-01  8.7981400000E-01
                       3.6493500000E-01  1.4942900000E-01  6.2018600000E-01
                       1.3506500000E-01  1.4942900000E-01  1.2018600000E-01
                       6.3506500000E-01  8.5057100000E-01  3.7981400000E-01
                       3.6225300000E-01  6.5581500000E-01  1.8024700000E-01
                       8.6225300000E-01  3.4418500000E-01  3.1975300000E-01
                       6.3774700000E-01  3.4418500000E-01  8.1975300000E-01
                       1.3774700000E-01  6.5581500000E-01  6.8024700000E-01
                       5.0141400000E-01  7.2752200000E-01  7.9277300000E-01
                       1.4140000000E-03  2.7247800000E-01  7.0722700000E-01
                       4.9858600000E-01  2.7247800000E-01  2.0722700000E-01
                       9.9858600000E-01  7.2752200000E-01  2.9277300000E-01
            znucl       51.00000   77.00000

 chkinp: Checking input parameters for consistency.

== DATASET  1 ==================================================================
-   mpi_nproc: 1, omp_nthreads: -1 (-1 if OMP is not activated)

--- !DatasetInfo
iteration_state: {dtset: 1, }
dimensions: {natom: 12, nkpt: 2, mband: 103, nsppol: 1, nspinor: 1, nspden: 1, mpw: 23176, }
cutoff_energies: {ecut:  42.0, pawecutdg:  -1.0, }
electrons: {nelect:   1.88000000E+02, charge:   0.00000000E+00, occopt:   1.00000000E+00, tsmear:   1.00000000E-02, }
meta: {optdriver: 1, rfelfd: 2, }
...

 Real(R)+Recip(G) space primitive vectors, cartesian coordinates (Bohr,Bohr^-1):
 R(1)= 12.4072170  0.0000000  0.0000000  G(1)=  0.0805983  0.0000000  0.0000000
 R(2)=  0.0000000 11.3075823  5.3099734  G(2)=  0.0000000  0.0884362  0.0000000
 R(3)=  0.0000000  0.0000000 12.6993590  G(3)=  0.0000000 -0.0369778  0.0787441
 Unit cell volume ucvol=  1.7816645E+03 bohr^3
 Angles (23,13,12)=  6.48455289E+01  9.00000000E+01  9.00000000E+01 degrees

 getcut: wavevector=  0.0000  0.0000  0.0000  ngfft=  75  75  80
         ecut(hartree)=     42.000   => boxcut(ratio)=   2.03049

--- Pseudopotential description ------------------------------------------------
- pspini: atom type   1  psp file is /scratch/users/j/a/jabreu/pseudos/PBEsol/Sb.psp8
- pspatm: opening atomic psp file    /scratch/users/j/a/jabreu/pseudos/PBEsol/Sb.psp8
- Sb    ONCVPSP-3.3.0  r_core=   1.81962   2.12485   1.81962
- 51.00000  15.00000    180112                znucl, zion, pspdat
    8 -116133    2    4       600   0.00000   pspcod,pspxc,lmax,lloc,mmax,r2well
    5.99000000000000    5.00000000000000    0.00000000000000   rchrg,fchrg,qchrg
     nproj     2     2     2
     extension_switch     1
  pspatm : epsatm=   26.35641246
         --- l  ekb(1:nproj) -->
             0    9.727814    1.485032
             1    5.505335    0.704623
             2   -4.710637   -1.436443
 pspatm: atomic psp has been read  and splines computed

- pspini: atom type   2  psp file is /scratch/users/j/a/jabreu/pseudos/PBEsol/Ir.psp8
- pspatm: opening atomic psp file    /scratch/users/j/a/jabreu/pseudos/PBEsol/Ir.psp8
- Ir    ONCVPSP-3.3.0  r_core=   1.60470   1.60470   1.51179   2.26792
- 77.00000  17.00000    180112                znucl, zion, pspdat
    8 -116133    3    4       500   0.00000   pspcod,pspxc,lmax,lloc,mmax,r2well
    4.99000000000000    5.00000000000000    0.00000000000000   rchrg,fchrg,qchrg
     nproj     2     2     2     2
     extension_switch     1
  pspatm : epsatm=   27.71114778
         --- l  ekb(1:nproj) -->
             0 -318.624865    3.007395
             1    7.556369    1.126503
             2    2.004414    0.149292
             3    1.163764    0.379649
 pspatm: atomic psp has been read  and splines computed

   6.04788275E+04                                ecore*ucvol(ha*bohr**3)

 ==>  initialize data related to q vector <==

 The list of irreducible perturbations for this q vector is:
    1)    idir= 1    ipert=  13
    2)    idir= 2    ipert=  13
    3)    idir= 3    ipert=  13

 Perturbation wavevector (in red.coord.)   0.000000  0.000000  0.000000
 Perturbation : derivative vs k along direction   1

 dfpt_looppert : COMMENT -
  In a d/dk calculation, iscf is set to -3 automatically.
 The set of symmetries contains only one element for this perturbation.
 symkpt : not enough symmetry to change the number of k points.

 Initialisation of the first-order wave-functions :
  ireadwf=   0

--- !BeginCycle
iteration_state: {dtset: 1, }
solver: {iscf: 7, nstep: 2000, nline: 4, wfoptalg: 0, }
[...]
 ETOT 56  -249.41852254105      5.684E-14 1.028E-16 0.000E+00
 ETOT 57  -249.41852254105      0.000E+00 3.539E-17 0.000E+00
 ETOT 58  -249.41852254105     -2.842E-14 3.690E-17 0.000E+00
 ETOT 59  -249.41852254105     -1.421E-13 1.270E-17 0.000E+00
 ETOT 60  -249.41852254105      0.000E+00 1.324E-17 0.000E+00
 ETOT 61  -249.41852254105     -5.684E-14 4.561E-18 0.000E+00
 ETOT 62  -249.41852254105      5.684E-14 4.753E-18 0.000E+00
 ETOT 63  -249.41852254105     -5.684E-14 1.637E-18 0.000E+00
 ETOT 64  -249.41852254105      0.000E+00 1.706E-18 0.000E+00
 ETOT 65  -249.41852254105      0.000E+00 5.878E-19 0.000E+00
 ETOT 66  -249.41852254105      0.000E+00 6.123E-19 0.000E+00
 ETOT 67  -249.41852254105      0.000E+00 2.110E-19 0.000E+00
 ETOT 68  -249.41852254105      2.842E-14 2.198E-19 0.000E+00
 ETOT 69  -249.41852254105     -2.842E-14 7.577E-20 0.000E+00
 ETOT 70  -249.41852254105      0.000E+00 7.890E-20 0.000E+00
 ETOT 71  -249.41852254105      2.842E-14 2.721E-20 0.000E+00
 ETOT 72  -249.41852254105      0.000E+00 2.832E-20 0.000E+00
 ETOT 73  -249.41852254105      0.000E+00 9.994E-21 0.000E+00

 At SCF step   73   max residual=  9.99E-21 < tolwfr=  1.00E-20 =>converged.

 ----iterations are completed or convergence reached----

 dfpt_looppert: DFPT cycle converged with prtwf=-1. Will skip output of the 1st-order WFK file.
 dfpt_looppert : ek2=    1.1233843681E+02
          f-sum rule ratio=    9.5151941675E-01
 prteigrs : about to open file /scratch/users/j/a/jabreu/flow_simple_11atoms/flow/w271/t1/tmpdata/tmp_1WF1_EIG
 Expectation of eigenvalue derivatives (hartree) for nkpt=   2  k points:
  (in case of degenerate eigenvalues, averaged derivative)
 kpt#   1, nband=103, wtk=  0.50000, kpt=  0.0667  0.5000  0.0000 (reduced coord)
  -0.00000    0.00000   -0.00000    0.00000   -0.00000    0.00000    0.00000   -0.00000
   0.00000   -0.00000    0.00000   -0.00000    0.00000   -0.00000   -0.00000    0.00000
   0.00000   -0.00000    0.00000   -0.00000    0.00000   -0.00000    0.00000    0.00000
   0.00000    0.00000   -0.00000    0.00000    0.00000   -0.00000    0.00000    0.00000
  -0.00000    0.00000   -0.00000    0.00000   -0.00000   -0.00000   -0.00000    0.00000
  -0.00000    0.00000   -0.00000    0.00000    0.00000   -0.00000    0.00000    0.00000
  -0.00000    0.00000   -0.00000   -0.00000   -0.00000   -0.00000    0.00000   -0.00000
   0.00000   -0.00000   -0.00000    0.00000   -0.00000    0.00000   -0.00000    0.00000
   0.00000   -0.00000    0.00000   -0.00000   -0.00000    0.00000   -0.00000   -0.00000
   0.00000   -0.00000   -0.00000    0.00000    0.00000    0.00000   -0.00000   -0.00000
  -0.00000    0.00000   -0.00000    0.00000    0.00000   -0.00000   -0.00000    0.00000
  -0.00000    0.00000    0.00000   -0.00000    0.00000   -0.00000    0.00000   -0.00000
   0.00000   -0.00000   -0.00000    0.00000    0.00000   -0.00000   -0.00000
 prteigrs : prtvol=0 or 1, do not print more k-points.

 Eight components of 2nd-order total energy (hartree) are
 1,2,3: 0th-order hamiltonian combined with 1st-order wavefunctions
     kin0=   1.48943458E+02 eigvalue=   1.50044873E+02  local=  -8.45805011E+01
 4,5,6: 1st-order hamiltonian combined with 1st and 0th-order wfs
     kin1=  -1.06892204E+02  Hartree=   0.00000000E+00     xc=   0.00000000E+00
 7,8,9: eventually, occupation + non-local contributions
    edocc=   1.05326759E+01     enl0=   2.44780163E+01   enl1=  -3.91944841E+02
 1-9 gives the relaxation energy (to be shifted if some occ is /=2.0)
   erelax=  -2.49418523E+02
  No Ewald or frozen-wf contrib.: the relaxation energy is the total one
 2DEtotal=   -0.2494185225E+03 Ha. Also 2DEtotal=   -0.678702315866E+04 eV
    (  non-var. 2DEtotal :   -2.4941852254E+02 Ha)

 CALCULATION OF EFFECTIVE MASSES
 NOTE : Additional infos (eff. mass eigenvalues, eigenvectors and, if degenerate, average mass) are available in stdout.

--- !WARNING
src_file: m_efmas.F90
src_line: 0
message: |
    Effective masses calculations require given k-point(s) to be band extrema for given bands, but max abs gradient of band(s) was found to be greater than 1e-5. Abinit will continue anyway.
...

[...]

--- !WARNING
src_file: m_efmas.F90
src_line: 0
message: |
    Effective masses calculations require given k-point(s) to be band extrema for given bands, but max abs gradient of band(s) was found to be greater than 1e-5. Abinit will continue anyway.
...

--- !WARNING
src_file: m_efmas.F90
src_line: 0
message: |

    Band(s)    95,
    are not band extrema, but saddle points;
    the transport equivalent formalism breaks down in these conditions.
    The associated tensor(s) will therefore not be printed.
...

 K-point ( 0.067, 0.500, 0.000) | band =    95
 Effective mass tensor:
     *** SADDLE POINT: TRANSPORT EQV. EFF. MASS NOT DEFINED (see WARNING above) ***
 Angular average effective mass 1/(<1/m>)= -11.4439743070
 Angular average effective mass for Frohlich model (<m**0.5>)**2=  -5.1440037541
 Effective masses along directions: (cart. coord. / red. coord. -> eff. mass)
    1:   1.000000  0.000000  0.000000 /   1.000000  0.000000  0.000000 ->   1.1441164898
    2:   0.000000  1.000000  0.000000 /   0.000000  1.000000  0.000000 ->  -2.0007978347
    3:   0.000000  0.000000  1.000000 /   0.000000  0.385765  0.922597 ->  -1.5713808941
    4:   0.577350  0.577350  0.577350 /   0.510211  0.683349  0.522225 ->  -3.0356036036
    5:   0.000000  0.707107  0.707107 /   0.000000  0.794547  0.607203 ->  -1.0739325131
    6:   0.707107  0.000000  0.707107 /   0.669528  0.286541  0.685293 ->   8.4146626603
    7:   0.707107  0.707107  0.000000 /   0.739101  0.673595  0.000000 ->   5.3445062964

 COMMENTS:
 - At k-point ( 0.500, 0.129, 0.556), bands    95 through    96
   are DEGENERATE (effective mass tensor is therefore not defined).
   See Section IIIB Eqs. (67)-(70) and Appendix E of PRB 93 205147 (2016).
 - Angular average effective mass for Frohlich model is to be averaged over degenerate bands. See later.
 - Associated theta integrals calculated with ntheta=   1000 points.

--- !WARNING
src_file: m_efmas.F90
src_line: 0
message: |

    Band(s)    95,    96,
    are not band extrema, but saddle points;
    the transport equivalent formalism breaks down in these conditions.
    The associated tensor(s) will therefore not be printed.
...

 K-point ( 0.500, 0.129, 0.556) | band =    95
 Transport equivalent effective mass tensor:
     *** SADDLE POINT: TRANSPORT EQV. EFF. MASS NOT DEFINED (see WARNING above) ***
 Angular average effective mass 1/(<1/m>)=  -1.0696943536
 Angular average effective mass for Frohlich model (<m**0.5>)**2=  -2.2680829067
 Effective masses along directions: (cart. coord. / red. coord. -> eff. mass)
    1:   1.000000  0.000000  0.000000 /   1.000000  0.000000  0.000000 ->  22.7106240569
    2:   0.000000  1.000000  0.000000 /   0.000000  1.000000  0.000000 ->   1.5603486400
    3:   0.000000  0.000000  1.000000 /   0.000000  0.385765  0.922597 ->  -0.5668641530
    4:   0.577350  0.577350  0.577350 /   0.510211  0.683349  0.522225 ->  -1.0753426541
    5:   0.000000  0.707107  0.707107 /   0.000000  0.794547  0.607203 ->  -3.9724173987
    6:   0.707107  0.000000  0.707107 /   0.669528  0.286541  0.685293 ->  -0.5107270375
    7:   0.707107  0.707107  0.000000 /   0.739101  0.673595  0.000000 ->  -4.0186233944

 K-point ( 0.500, 0.129, 0.556) | band =    96
 Transport equivalent effective mass tensor:
     *** SADDLE POINT: TRANSPORT EQV. EFF. MASS NOT DEFINED (see WARNING above) ***
 Angular average effective mass 1/(<1/m>)=   4.6424708051
 Angular average effective mass for Frohlich model (<m**0.5>)**2=   2.8038237314
 Effective masses along directions: (cart. coord. / red. coord. -> eff. mass)
    1:   1.000000  0.000000  0.000000 /   1.000000  0.000000  0.000000 ->  22.7100391859
    2:   0.000000  1.000000  0.000000 /   0.000000  1.000000  0.000000 ->   1.5603363771
    3:   0.000000  0.000000  1.000000 /   0.000000  0.385765  0.922597 ->  -0.5668689248
    4:   0.577350  0.577350  0.577350 /   0.510211  0.683349  0.522225 ->   1.6034742146
    5:   0.000000  0.707107  0.707107 /   0.000000  0.794547  0.607203 ->  -3.9724517307
    6:   0.707107  0.000000  0.707107 /   0.669528  0.286541  0.685293 ->   4.2026010564
    7:   0.707107  0.707107  0.000000 /   0.739101  0.673595  0.000000 ->   1.0709449305

 Angular average effective mass for Frohlich model, averaged over degenerate bands.
 Value of     (<<m**0.5>>)**2 =     2.528860E+00
 Absolute Value of <<m**0.5>> =     1.590239E+00

 END OF EFFECTIVE MASSES SECTION

 ---- first-order wavefunction calculations are completed ----

 Total localisation tensor (bohr^2) in cartesian coordinates
  WARNING : still subject to testing - especially symmetries.
      direction              matrix element
   alpha     beta       real part   imaginary part
     1        1       1.5211517109    0.0000000000
     1        2       0.0000000000    0.0000000000
     1        3       0.0000000000    0.0000000000
     2        1       0.0000000000    0.0000000000
     2        2       1.2879078370    0.0000000000
     2        3       0.6047938680    0.0000000000
     3        1       0.0000000000    0.0000000000
     3        2       0.6047938680    0.0000000000
     3        3       1.7764929628    0.0000000000

 respfn : d/dk was computed, but no 2DTE, so no DDB output.

== END DATASET(S) ==============================================================

 -outvars: echo values of variables after computation  --------
            acell      1.0000000000E+00  1.0000000000E+00  1.0000000000E+00 Bohr
              amu      1.21753000E+02  1.92220000E+02
             ecut      4.20000000E+01 Hartree
           etotal     -2.4941852254E+02
            fcart      0.0000000000E+00  0.0000000000E+00  0.0000000000E+00
                       0.0000000000E+00  0.0000000000E+00  0.0000000000E+00
                       0.0000000000E+00  0.0000000000E+00  0.0000000000E+00
                       0.0000000000E+00  0.0000000000E+00  0.0000000000E+00
                       0.0000000000E+00  0.0000000000E+00  0.0000000000E+00
                       0.0000000000E+00  0.0000000000E+00  0.0000000000E+00
                       0.0000000000E+00  0.0000000000E+00  0.0000000000E+00
                       0.0000000000E+00  0.0000000000E+00  0.0000000000E+00
                       0.0000000000E+00  0.0000000000E+00  0.0000000000E+00
                       0.0000000000E+00  0.0000000000E+00  0.0000000000E+00
                       0.0000000000E+00  0.0000000000E+00  0.0000000000E+00
                       0.0000000000E+00  0.0000000000E+00  0.0000000000E+00
-          fftalg         512
           irdden           1
           irdwfk           1
              ixc     -116133
              kpt      6.66666667E-02  5.00000000E-01  0.00000000E+00
                       5.00000000E-01  1.29124375E-01  5.55795410E-01
           kptopt           0
P           mkmem           2
P          mkqmem           2
P          mk1mem           2
            natom          12
            nband         103
           nbdbuf           4
            ngfft          75      75      80
             nkpt           2
            nstep        2000
             nsym           4
           ntypat           2
              occ      2.000000  2.000000  2.000000  2.000000  2.000000  2.000000
                       2.000000  2.000000  2.000000  2.000000  2.000000  2.000000
                       2.000000  2.000000  2.000000  2.000000  2.000000  2.000000
                       2.000000  2.000000  2.000000  2.000000  2.000000  2.000000
                       2.000000  2.000000  2.000000  2.000000  2.000000  2.000000
                       2.000000  2.000000  2.000000  2.000000  2.000000  2.000000
                       2.000000  2.000000  2.000000  2.000000  2.000000  2.000000
                       2.000000  2.000000  2.000000  2.000000  2.000000  2.000000
                       2.000000  2.000000  2.000000  2.000000  2.000000  2.000000
                       2.000000  2.000000  2.000000  2.000000  2.000000  2.000000
                       2.000000  2.000000  2.000000  2.000000  2.000000  2.000000
                       2.000000  2.000000  2.000000  2.000000  2.000000  2.000000
                       2.000000  2.000000  2.000000  2.000000  2.000000  2.000000
                       2.000000  2.000000  2.000000  2.000000  2.000000  2.000000
                       2.000000  2.000000  2.000000  2.000000  2.000000  2.000000
                       2.000000  2.000000  2.000000  2.000000  0.000000  0.000000
                       0.000000  0.000000  0.000000  0.000000  0.000000  0.000000
                       0.000000
        optdriver           1
            prtwf          -1
            rfdir           1       1       1
           rfelfd           2
            rprim      1.2407216968E+01  0.0000000000E+00  0.0000000000E+00
                       0.0000000000E+00  1.1307582271E+01  5.3099734493E+00
                       0.0000000000E+00  0.0000000000E+00  1.2699358989E+01
          spgroup          14
           strten      0.0000000000E+00  0.0000000000E+00  0.0000000000E+00
                       0.0000000000E+00  0.0000000000E+00  0.0000000000E+00
           symrel      1  0  0   0  1  0   0  0  1      -1  0  0   0 -1  0   0  0 -1
                       1  0  0   0 -1  0   0  0 -1      -1  0  0   0  1  0   0  0  1
            tnons      0.0000000  0.0000000  0.0000000     0.0000000 -0.0000000 -0.0000000
                       0.5000000 -0.0000000  0.5000000     0.5000000  0.0000000  0.5000000
           tolwfr      1.00000000E-20
            typat      1  1  1  1  1  1  1  1  2  2  2  2
           useylm           1
              wtk        0.50000    0.50000
           xangst      5.6788314566E+00  5.0895742999E+00  8.3025698715E+00
                       2.3960232360E+00  8.9414052214E-01  4.5876640671E+00
                       8.8678498464E-01  8.9414052214E-01  1.2275583968E+00
                       4.1695932053E+00  5.0895742999E+00  4.9424642011E+00
                       2.3784142527E+00  3.9242099360E+00  3.0540836034E+00
                       5.6612224733E+00  2.0595048860E+00  3.1159389945E+00
                       4.1872021886E+00  2.0595048860E+00  6.4760446648E+00
                       9.0439396794E-01  3.9242099360E+00  6.4141892737E+00
                       3.2920920023E+00  4.3532841747E+00  7.3718784881E+00
                       9.2837816480E-03  1.6304306473E+00  5.5183554504E+00
                       3.2735244390E+00  1.6304306473E+00  2.1582497801E+00
                       6.5563326596E+00  4.3532841747E+00  4.0117728178E+00
            xcart      1.0731436208E+01  9.6179015597E+00  1.5689583256E+01
                       4.5278277241E+00  1.6896807112E+00  8.6694286764E+00
                       1.6757807597E+00  1.6896807112E+00  2.3197491820E+00
                       7.8793892435E+00  9.6179015597E+00  9.3399037618E+00
                       4.4945515682E+00  7.4156820670E+00  5.7713815973E+00
                       1.0698160052E+01  3.8919002039E+00  5.8882713464E+00
                       7.9126653994E+00  3.8919002039E+00  1.2237950841E+01
                       1.7090569156E+00  7.4156820670E+00  1.2121061092E+01
                       6.2211522886E+00  8.2265148689E+00  1.3930831427E+01
                       1.7543804792E-02  3.0810674020E+00  1.0428180505E+01
                       6.1860646790E+00  3.0810674020E+00  4.0785010107E+00
                       1.2389673163E+01  8.2265148689E+00  7.5811519330E+00
             xred      8.6493500000E-01  8.5057100000E-01  8.7981400000E-01
                       3.6493500000E-01  1.4942900000E-01  6.2018600000E-01
                       1.3506500000E-01  1.4942900000E-01  1.2018600000E-01
                       6.3506500000E-01  8.5057100000E-01  3.7981400000E-01
                       3.6225300000E-01  6.5581500000E-01  1.8024700000E-01
                       8.6225300000E-01  3.4418500000E-01  3.1975300000E-01
                       6.3774700000E-01  3.4418500000E-01  8.1975300000E-01
                       1.3774700000E-01  6.5581500000E-01  6.8024700000E-01
                       5.0141400000E-01  7.2752200000E-01  7.9277300000E-01
                       1.4140000000E-03  2.7247800000E-01  7.0722700000E-01
                       4.9858600000E-01  2.7247800000E-01  2.0722700000E-01
                       9.9858600000E-01  7.2752200000E-01  2.9277300000E-01
            znucl       51.00000   77.00000

- Timing analysis has been suppressed with timopt=0

 Suggested references for the acknowledgment of ABINIT usage.

 Calculation completed.
.Delivered  10 WARNINGs and   5 COMMENTs to log file.