.Version 9.5.2 of ABINIT

 ABINIT is a project of the Universite Catholique de Louvain,
 Corning Inc. and other collaborators, see ~abinit/doc/developers/contributors.txt .
 acknowledgments of the ABINIT effort.

.Starting date : Wed 26 May 2021.
- ( at 03h12 )

- input  file    -> /scratch/users/j/a/jabreu/flow_simple_11atoms/flow/w289/t1/run.abi
- output file    -> /scratch/users/j/a/jabreu/flow_simple_11atoms/flow/w289/t1/run.abo
- root for input  files -> /scratch/users/j/a/jabreu/flow_simple_11atoms/flow/w289/t1/indata/in
- root for output files -> /scratch/users/j/a/jabreu/flow_simple_11atoms/flow/w289/t1/outdata/out

 Symmetries : space group C2/m (# 12); Bravais mC (1-face-center monocl.)
     intxc =       0      iscf =       7    lmnmax =      32     lnmax =       8
     mgfft =      75  mpssoang =       4    mqgrid =    3466     natom =      12
  nloc_mem =       1    nspden =       1   nspinor =       1    nsppol =       1
      nsym =       4    n1xccc =    2501    ntypat =       3    occopt =       1
   xclevel =       2
-    mband =          49        mffmem =           1         mkmem =           2
-   mkqmem =           2        mk1mem =           2           mpw =       13242
      nfft =      388800          nkpt =           2
  Rough estimation (10% accuracy) of disk space for files :

------------- Echo of variables that govern the present computation ------------
-
- outvars: echo of selected default values
-   iomode0 =  0 , fftalg0 =512 , wfoptalg0 =  0
-
- outvars: echo of global parameters not present in the input file
-  max_nthreads =    0
-
 -outvars: echo values of preprocessed input variables --------
            acell      1.0000000000E+00  1.0000000000E+00  1.0000000000E+00 Bohr
              amu      1.80947900E+02  2.69815390E+01  1.59994000E+01
             ecut      4.40000000E+01 Hartree
-          fftalg         512
           irdden           1
           irdwfk           1
           istwfk        0    1
              ixc     -116133
              kpt      7.08807170E-01  2.91192830E-01  5.00000000E-01
                       0.00000000E+00  0.00000000E+00  5.00000000E-01
           kptopt           0
P           mkmem           2
P          mkqmem           2
P          mk1mem           2
            natom          12
            nband          49
           nbdbuf           4
            ngfft          72      72      75
             nkpt           2
            nstep        2000
             nsym           4
           ntypat           3
              occ      2.000000  2.000000  2.000000  2.000000  2.000000  2.000000
                       2.000000  2.000000  2.000000  2.000000  2.000000  2.000000
                       2.000000  2.000000  2.000000  2.000000  2.000000  2.000000
                       2.000000  2.000000  2.000000  2.000000  2.000000  2.000000
                       2.000000  2.000000  2.000000  2.000000  2.000000  2.000000
                       2.000000  2.000000  2.000000  2.000000  2.000000  2.000000
                       2.000000  2.000000  2.000000  2.000000  0.000000  0.000000
                       0.000000  0.000000  0.000000  0.000000  0.000000  0.000000
                       0.000000
        optdriver           1
            prtwf          -1
            rfdir           1       1       1
           rfelfd           2
            rprim      1.1488069935E+01  0.0000000000E+00  3.4946809744E+00
                       9.2747730529E+00  6.7789627268E+00  3.4946809744E+00
                       0.0000000000E+00  0.0000000000E+00  1.2184911174E+01
          spgroup          12
           symrel      1  0  0   0  1  0   0  0  1      -1  0  0   0 -1  0   0  0 -1
                       0 -1  0  -1  0  0   0  0 -1       0  1  0   1  0  0   0  0  1
           tolwfr      1.00000000E-20
            typat      1  1  2  2  3  3  3  3  3  3  3  3
           useylm           1
              wtk        0.50000    0.50000
           xangst      1.1615143106E+00  3.7922852004E-01  2.1176896071E+00
                       9.8257089842E+00  3.2080440529E+00  8.0288987206E+00
                       2.2080473294E+00  7.2091623261E-01  5.1242405734E+00
                       8.7791759653E+00  2.8663563403E+00  5.0223477543E+00
                       7.0477433952E+00  2.3010524046E+00  4.2929230144E+00
                       3.9394798996E+00  1.2862201683E+00  5.8536653133E+00
                       6.2901853363E-01  2.0537135480E-01  4.3085129842E+00
                       1.0358204761E+01  3.3819012181E+00  5.8380753435E+00
                       9.4358053911E+00  3.0807425111E+00  3.3362309177E+00
                       1.5514179037E+00  5.0653006184E-01  6.8103574100E+00
                       8.1052965990E+00  2.6463381516E+00  6.8698538224E+00
                       2.8819266958E+00  9.4093442133E-01  3.2767345053E+00
            xcart      2.1949439465E+00  7.1663804466E-01  4.0018533918E+00
                       1.8567899042E+01  6.0623246821E+00  1.5172419731E+01
                       4.1726047411E+00  1.3623342444E+00  9.6834113228E+00
                       1.6590238247E+01  5.4166284824E+00  9.4908617997E+00
                       1.3318304872E+01  4.3483588621E+00  8.1124488068E+00
                       7.4445381162E+00  2.4306038647E+00  1.1061824316E+01
                       1.1886727611E+00  3.8809561611E-01  8.1419095802E+00
                       1.9574170227E+01  6.3908671107E+00  1.1032363542E+01
                       1.7831088032E+01  5.8217596319E+00  6.3045627505E+00
                       2.9317549556E+00  9.5720309495E-01  1.2869710372E+01
                       1.5316790798E+01  5.0008543615E+00  1.2982142297E+01
                       5.4460521901E+00  1.7781083653E+00  6.1921308251E+00
             xred      1.0571500000E-01  1.0571500000E-01  2.6778800000E-01
                       8.9428500000E-01  8.9428500000E-01  7.3221200000E-01
                       2.0096500000E-01  2.0096500000E-01  6.7943000000E-01
                       7.9903500000E-01  7.9903500000E-01  3.2057000000E-01
                       6.4144900000E-01  6.4144900000E-01  2.9783800000E-01
                       3.5855100000E-01  3.5855100000E-01  7.0216200000E-01
                       5.7250000000E-02  5.7250000000E-02  6.3535700000E-01
                       9.4275000000E-01  9.4275000000E-01  3.6464300000E-01
                       8.5879800000E-01  8.5879800000E-01  2.4794000000E-02
                       1.4120200000E-01  1.4120200000E-01  9.7520600000E-01
                       7.3770200000E-01  7.3770200000E-01  6.4227600000E-01
                       2.6229800000E-01  2.6229800000E-01  3.5772400000E-01
            znucl       73.00000   13.00000    8.00000

 chkinp: Checking input parameters for consistency.

== DATASET  1 ==================================================================
-   mpi_nproc: 1, omp_nthreads: -1 (-1 if OMP is not activated)

--- !DatasetInfo
iteration_state: {dtset: 1, }
dimensions: {natom: 12, nkpt: 2, mband: 49, nsppol: 1, nspinor: 1, nspden: 1, mpw: 13242, }
cutoff_energies: {ecut:  44.0, pawecutdg:  -1.0, }
electrons: {nelect:   8.00000000E+01, charge:   0.00000000E+00, occopt:   1.00000000E+00, tsmear:   1.00000000E-02, }
meta: {optdriver: 1, rfelfd: 2, }
...

 Real(R)+Recip(G) space primitive vectors, cartesian coordinates (Bohr,Bohr^-1):
 R(1)= 11.4880699  0.0000000  3.4946810  G(1)=  0.0870468 -0.1190948  0.0000000
 R(2)=  9.2747731  6.7789627  3.4946810  G(2)=  0.0000000  0.1475152  0.0000000
 R(3)=  0.0000000  0.0000000 12.1849112  G(3)= -0.0249654 -0.0081511  0.0820687
 Unit cell volume ucvol=  9.4892674E+02 bohr^3
 Angles (23,13,12)=  7.30801929E+01  7.30801929E+01  3.45473409E+01 degrees

 getcut: wavevector=  0.0000  0.0000  0.0000  ngfft=  72  72  75
         ecut(hartree)=     44.000   => boxcut(ratio)=   2.00843

--- Pseudopotential description ------------------------------------------------
- pspini: atom type   1  psp file is /scratch/users/j/a/jabreu/pseudos/PBEsol/Ta.psp8
- pspatm: opening atomic psp file    /scratch/users/j/a/jabreu/pseudos/PBEsol/Ta.psp8
- Ta    ONCVPSP-3.3.0  r_core=   1.71294   1.71294   1.71294   2.25368
- 73.00000  13.00000    180112                znucl, zion, pspdat
    8 -116133    3    4       600   0.00000   pspcod,pspxc,lmax,lloc,mmax,r2well
    5.99000000000000    5.00000000000000    0.00000000000000   rchrg,fchrg,qchrg
     nproj     2     2     2     2
     extension_switch     1
  pspatm : epsatm=   21.70781236
         --- l  ekb(1:nproj) -->
             0   11.480337    1.447149
             1    5.630373    0.817168
             2    1.844704    0.232364
             3    4.923559    0.251242
 pspatm: atomic psp has been read  and splines computed

- pspini: atom type   2  psp file is /scratch/users/j/a/jabreu/pseudos/PBEsol/Al.psp8
- pspatm: opening atomic psp file    /scratch/users/j/a/jabreu/pseudos/PBEsol/Al.psp8
- Al    ONCVPSP-3.3.0  r_core=   1.76802   1.76802   1.70587
- 13.00000   3.00000    180112                znucl, zion, pspdat
    8 -116133    2    4       600   0.00000   pspcod,pspxc,lmax,lloc,mmax,r2well
    5.99000000000000    5.00000000000000    0.00000000000000   rchrg,fchrg,qchrg
     nproj     2     2     2
     extension_switch     1
  pspatm : epsatm=    0.68509324
         --- l  ekb(1:nproj) -->
             0    5.834965    0.726662
             1    6.225605    0.924840
             2   -2.432733   -0.548689
 pspatm: atomic psp has been read  and splines computed

- pspini: atom type   3  psp file is /scratch/users/j/a/jabreu/pseudos/PBEsol/O.psp8
- pspatm: opening atomic psp file    /scratch/users/j/a/jabreu/pseudos/PBEsol/O.psp8
- O     ONCVPSP-3.3.0  r_core=   1.35509   1.45563   1.26150
-  8.00000   6.00000    180112                znucl, zion, pspdat
    8 -116133    2    4       600   0.00000   pspcod,pspxc,lmax,lloc,mmax,r2well
    5.99000000000000    4.00000000000000    0.00000000000000   rchrg,fchrg,qchrg
     nproj     2     2     1
     extension_switch     1
  pspatm : epsatm=    6.22910522
         --- l  ekb(1:nproj) -->
             0    6.050032    0.820363
             1   -4.739617   -1.153841
             2   -1.335834
 pspatm: atomic psp has been read  and splines computed

   7.56949223E+03                                ecore*ucvol(ha*bohr**3)

 ==>  initialize data related to q vector <==

 The list of irreducible perturbations for this q vector is:
    1)    idir= 1    ipert=  13
    2)    idir= 2    ipert=  13
    3)    idir= 3    ipert=  13

 Perturbation wavevector (in red.coord.)   0.000000  0.000000  0.000000
 Perturbation : derivative vs k along direction   1

 dfpt_looppert : COMMENT -
  In a d/dk calculation, iscf is set to -3 automatically.
 The set of symmetries contains only one element for this perturbation.
 symkpt : not enough symmetry to change the number of k points.

 Initialisation of the first-order wave-functions :
  ireadwf=   0

--- !BeginCycle
iteration_state: {dtset: 1, }
solver: {iscf: 7, nstep: 2000, nline: 4, wfoptalg: 0, }
tolerances: {tolwfr: 1.00E-20, }
...

     iter   2DEtotal(Ha)        deltaE(Ha) residm    vres2
[...]

 dfpt_looppert: DFPT cycle converged with prtwf=-1. Will skip output of the 1st-order WFK file.
 dfpt_looppert : ek2=    1.3745268487E+02
          f-sum rule ratio=    9.9504828774E-01
 prteigrs : about to open file /scratch/users/j/a/jabreu/flow_simple_11atoms/flow/w289/t1/tmpdata/tmp_1WF1_EIG
 Expectation of eigenvalue derivatives (hartree) for nkpt=   2  k points:
  (in case of degenerate eigenvalues, averaged derivative)
 kpt#   1, nband= 49, wtk=  0.50000, kpt=  0.7088  0.2912  0.5000 (reduced coord)
   0.00009    0.00008    0.00068   -0.00826   -0.00797    0.00032    0.00009    0.00027
  -0.01898    0.12265    0.02418    0.00071   -0.01710   -0.00070    0.01790    0.00597
   0.05656    0.03735   -0.07423   -0.15169    0.00329   -0.02494   -0.22409   -0.04547
  -0.05183    0.06108    0.05046   -0.05721    0.02340    0.01229   -0.04626   -0.00180
   0.01081    0.07244    0.01702   -0.01545   -0.01614   -0.02968    0.01094   -0.00186
   0.02494    0.03054    0.05723   -0.05155    0.12199    0.08039   -0.05883   -0.04365
   0.13116
 prteigrs : prtvol=0 or 1, do not print more k-points.

 Eight components of 2nd-order total energy (hartree) are
 1,2,3: 0th-order hamiltonian combined with 1st-order wavefunctions
     kin0=   1.08246959E+02 eigvalue=  -1.40862387E-01  local=  -5.19156805E+01
 4,5,6: 1st-order hamiltonian combined with 1st and 0th-order wfs
     kin1=  -1.36772059E+02  Hartree=   0.00000000E+00     xc=   0.00000000E+00
 7,8,9: eventually, occupation + non-local contributions
    edocc=   1.46310462E+01     enl0=   1.18602848E-01   enl1=  -5.10807060E+00
 1-9 gives the relaxation energy (to be shifted if some occ is /=2.0)
   erelax=  -7.09400647E+01
  No Ewald or frozen-wf contrib.: the relaxation energy is the total one
 2DEtotal=   -0.7094006466E+02 Ha. Also 2DEtotal=   -0.193037733056E+04 eV
    (  non-var. 2DEtotal :   -7.0940064661E+01 Ha)

 Perturbation wavevector (in red.coord.)   0.000000  0.000000  0.000000
 Perturbation : derivative vs k along direction   2
 The set of symmetries contains only one element for this perturbation.
 symkpt : not enough symmetry to change the number of k points.

[...]

 Perturbation wavevector (in red.coord.)   0.000000  0.000000  0.000000
 Perturbation : derivative vs k along direction   3
 The set of symmetries contains only one element for this perturbation.
 symkpt : not enough symmetry to change the number of k points.

 Initialisation of the first-order wave-functions :
  ireadwf=   0

--- !BeginCycle
iteration_state: {dtset: 1, }
solver: {iscf: 7, nstep: 2000, nline: 4, wfoptalg: 0, }
tolerances: {tolwfr: 1.00E-20, }
...

     iter   2DEtotal(Ha)        deltaE(Ha) residm    vres2
-ETOT  1  -23.953598529126     -2.395E+01 3.752E-02 0.000E+00
 ETOT  2  -24.024260323816     -7.066E-02 2.475E-03 0.000E+00
 ETOT  3  -24.025231160134     -9.708E-04 3.775E-04 0.000E+00
 ETOT  4  -24.025251584914     -2.042E-05 6.005E-05 0.000E+00
 ETOT  5  -24.025252127365     -5.425E-07 2.151E-05 0.000E+00
 ETOT  6  -24.025252143839     -1.647E-08 3.844E-06 0.000E+00
 ETOT  7  -24.025252144385     -5.465E-10 1.443E-06 0.000E+00
 ETOT  8  -24.025252144404     -1.915E-11 2.639E-07 0.000E+00
 ETOT  9  -24.025252144405     -6.786E-13 9.927E-08 0.000E+00
 ETOT 10  -24.025252144405     -2.132E-14 1.847E-08 0.000E+00
 ETOT 11  -24.025252144405     -3.553E-15 6.920E-09 0.000E+00
 ETOT 12  -24.025252144405     -3.553E-15 1.307E-09 0.000E+00
 ETOT 13  -24.025252144405      1.421E-14 4.867E-10 0.000E+00
 ETOT 14  -24.025252144405     -3.553E-15 9.299E-11 0.000E+00
 ETOT 15  -24.025252144405     -7.105E-15 3.444E-11 0.000E+00
 ETOT 16  -24.025252144405      3.553E-15 6.648E-12 0.000E+00
 ETOT 17  -24.025252144405      1.066E-14 2.449E-12 0.000E+00
 ETOT 18  -24.025252144405      0.000E+00 4.768E-13 0.000E+00
 ETOT 19  -24.025252144405     -7.105E-15 1.747E-13 0.000E+00
 ETOT 20  -24.025252144405      0.000E+00 3.429E-14 0.000E+00
 ETOT 21  -24.025252144405     -7.105E-15 1.251E-14 0.000E+00
 ETOT 22  -24.025252144405      3.553E-15 2.470E-15 0.000E+00
 ETOT 23  -24.025252144405      1.066E-14 8.971E-16 0.000E+00
 ETOT 24  -24.025252144405      0.000E+00 1.783E-16 0.000E+00
 ETOT 25  -24.025252144405     -1.776E-14 6.450E-17 0.000E+00
 ETOT 26  -24.025252144405      3.553E-15 1.288E-17 0.000E+00
 ETOT 27  -24.025252144405      7.105E-15 4.646E-18 0.000E+00
 ETOT 28  -24.025252144405      1.066E-14 9.322E-19 0.000E+00
 ETOT 29  -24.025252144405     -3.553E-15 3.355E-19 0.000E+00
 ETOT 30  -24.025252144405     -3.553E-15 6.761E-20 0.000E+00
 ETOT 31  -24.025252144405     -7.105E-15 2.432E-20 0.000E+00
 ETOT 32  -24.025252144405     -3.553E-15 9.951E-21 0.000E+00

 At SCF step   32   max residual=  9.95E-21 < tolwfr=  1.00E-20 =>converged.

 ----iterations are completed or convergence reached----

 dfpt_looppert: DFPT cycle converged with prtwf=-1. Will skip output of the 1st-order WFK file.
 dfpt_looppert : ek2=    4.6900257910E+01
          f-sum rule ratio=    9.7990769618E-01
 prteigrs : about to open file /scratch/users/j/a/jabreu/flow_simple_11atoms/flow/w289/t1/tmpdata/tmp_1WF1_EIG
 Expectation of eigenvalue derivatives (hartree) for nkpt=   2  k points:
  (in case of degenerate eigenvalues, averaged derivative)
 kpt#   1, nband= 49, wtk=  0.50000, kpt=  0.7088  0.2912  0.5000 (reduced coord)
  -0.00000   -0.00000    0.00000    0.00000   -0.00000    0.00000    0.00000    0.00000
  -0.00000    0.00000    0.00000    0.00000   -0.00000    0.00000   -0.00000    0.00000
  -0.00000   -0.00000   -0.00000    0.00000   -0.00000    0.00000   -0.00000    0.00000
   0.00000    0.00000    0.00000    0.00000   -0.00000    0.00000   -0.00000    0.00000
  -0.00000   -0.00000   -0.00000    0.00000    0.00000   -0.00000   -0.00000    0.00000
   0.00000   -0.00000    0.00000   -0.00000    0.00000   -0.00000    0.00000    0.00000
   0.00000
 prteigrs : prtvol=0 or 1, do not print more k-points.

 Eight components of 2nd-order total energy (hartree) are
 1,2,3: 0th-order hamiltonian combined with 1st-order wavefunctions
     kin0=   3.81580692E+01 eigvalue=   9.42826520E-02  local=  -1.88620291E+01
 4,5,6: 1st-order hamiltonian combined with 1st and 0th-order wfs
     kin1=  -4.59579237E+01  Hartree=   0.00000000E+00     xc=   0.00000000E+00
 7,8,9: eventually, occupation + non-local contributions
    edocc=   5.01532854E+00     enl0=  -3.80399146E-01   enl1=  -2.09258061E+00
 1-9 gives the relaxation energy (to be shifted if some occ is /=2.0)
   erelax=  -2.40252521E+01
  No Ewald or frozen-wf contrib.: the relaxation energy is the total one
 2DEtotal=   -0.2402525214E+02 Ha. Also 2DEtotal=   -0.653760358435E+03 eV
    (  non-var. 2DEtotal :   -2.4025252144E+01 Ha)

 CALCULATION OF EFFECTIVE MASSES
 NOTE : Additional infos (eff. mass eigenvalues, eigenvectors and, if degenerate, average mass) are available in stdout.

 K-point ( 0.709, 0.291, 0.500) | band =    40
 Effective mass tensor:
             -3.4878118673             -0.3953044737             -0.9976610025
             -0.3953044737             -2.4061231579             -0.3257294024
             -0.9976610025             -0.3257294024             -2.9920617018
 Effective mass tensor eigenvalues:
             -4.3994694222             -2.2770583822             -2.2094689225
 Angular average effective mass 1/(<1/m>)=  -2.6808197784
 Angular average effective mass for Frohlich model (<m**0.5>)**2=  -2.7523813821
 Effective masses along directions: (cart. coord. / red. coord. -> eff. mass)
    1:   1.000000  0.000000  0.000000 /   0.778075  0.628171  0.000000 ->  -3.1204845776
    2:   0.000000  1.000000  0.000000 /   0.000000  1.000000  0.000000 ->  -2.3446121540
    3:   0.000000  0.000000  1.000000 /   0.265774  0.265774  0.926676 ->  -2.6875373212
    4:   0.577350  0.577350  0.577350 /   0.545244  0.711395  0.443426 ->  -3.8998416260
    5:   0.000000  0.707107  0.707107 /   0.214179  0.629642  0.746778 ->  -2.7338139803
    6:   0.707107  0.000000  0.707107 /   0.647148  0.551549  0.526301 ->  -4.1044064420
    7:   0.707107  0.707107  0.000000 /   0.581946  0.813227  0.000000 ->  -2.9874697824

 K-point ( 0.000, 0.000, 0.500) | band =    41
 Effective mass tensor:
              8.8442582483              2.6954054850              7.3600595971
              2.6954054850              1.4687098584              2.4030208800
              7.3600595971              2.4030208800              8.5257683075
 Effective mass tensor eigenvalues:
              0.5886739389              1.3594596114             16.8906028639
 Angular average effective mass 1/(<1/m>)=   1.2031164673
 Angular average effective mass for Frohlich model (<m**0.5>)**2=   1.6529873795
 Effective masses along directions: (cart. coord. / red. coord. -> eff. mass)
    1:   1.000000  0.000000  0.000000 /   0.778075  0.628171  0.000000 ->   2.0033263556
    2:   0.000000  1.000000  0.000000 /   0.000000  1.000000  0.000000 ->   0.6365935607
    3:   0.000000  0.000000  1.000000 /   0.265774  0.265774  0.926676 ->   2.3613119893
    4:   0.577350  0.577350  0.577350 /   0.545244  0.711395  0.443426 ->   3.4889542622
    5:   0.000000  0.707107  0.707107 /   0.214179  0.629642  0.746778 ->   1.1204157862
    6:   0.707107  0.000000  0.707107 /   0.647148  0.551549  0.526301 ->   7.1022411854
    7:   0.707107  0.707107  0.000000 /   0.581946  0.813227  0.000000 ->   1.5543302703

 END OF EFFECTIVE MASSES SECTION

 ---- first-order wavefunction calculations are completed ----

 Total localisation tensor (bohr^2) in cartesian coordinates
  WARNING : still subject to testing - especially symmetries.
      direction              matrix element
   alpha     beta       real part   imaginary part
     1        1       3.0994366881    0.0000000000
     1        2       0.8939196362    0.0000000000
     1        3       1.0316355006    0.0000000000
     2        1       0.8939196362    0.0000000000
     2        2       0.6533688598    0.0000000000
     2        3       0.3368237614    0.0000000000
     3        1       1.0316355006    0.0000000000
     3        2       0.3368237614    0.0000000000
     3        3       1.0988634045    0.0000000000

 respfn : d/dk was computed, but no 2DTE, so no DDB output.

== END DATASET(S) ==============================================================

 -outvars: echo values of variables after computation  --------
            acell      1.0000000000E+00  1.0000000000E+00  1.0000000000E+00 Bohr
              amu      1.80947900E+02  2.69815390E+01  1.59994000E+01
             ecut      4.40000000E+01 Hartree
           etotal     -2.4025252144E+01
            fcart      0.0000000000E+00  0.0000000000E+00  0.0000000000E+00
                       0.0000000000E+00  0.0000000000E+00  0.0000000000E+00
                       0.0000000000E+00  0.0000000000E+00  0.0000000000E+00
                       0.0000000000E+00  0.0000000000E+00  0.0000000000E+00
                       0.0000000000E+00  0.0000000000E+00  0.0000000000E+00
                       0.0000000000E+00  0.0000000000E+00  0.0000000000E+00
                       0.0000000000E+00  0.0000000000E+00  0.0000000000E+00
                       0.0000000000E+00  0.0000000000E+00  0.0000000000E+00
                       0.0000000000E+00  0.0000000000E+00  0.0000000000E+00
                       0.0000000000E+00  0.0000000000E+00  0.0000000000E+00
                       0.0000000000E+00  0.0000000000E+00  0.0000000000E+00
                       0.0000000000E+00  0.0000000000E+00  0.0000000000E+00
-          fftalg         512
           irdden           1
           irdwfk           1
           istwfk        0    1
              ixc     -116133
              kpt      7.08807170E-01  2.91192830E-01  5.00000000E-01
                       0.00000000E+00  0.00000000E+00  5.00000000E-01
           kptopt           0
P           mkmem           2
P          mkqmem           2
P          mk1mem           2
            natom          12
            nband          49
           nbdbuf           4
            ngfft          72      72      75
             nkpt           2
            nstep        2000
             nsym           4
           ntypat           3
              occ      2.000000  2.000000  2.000000  2.000000  2.000000  2.000000
                       2.000000  2.000000  2.000000  2.000000  2.000000  2.000000
                       2.000000  2.000000  2.000000  2.000000  2.000000  2.000000
                       2.000000  2.000000  2.000000  2.000000  2.000000  2.000000
                       2.000000  2.000000  2.000000  2.000000  2.000000  2.000000
                       2.000000  2.000000  2.000000  2.000000  2.000000  2.000000
                       2.000000  2.000000  2.000000  2.000000  0.000000  0.000000
                       0.000000  0.000000  0.000000  0.000000  0.000000  0.000000
                       0.000000
        optdriver           1
            prtwf          -1
            rfdir           1       1       1
           rfelfd           2
            rprim      1.1488069935E+01  0.0000000000E+00  3.4946809744E+00
                       9.2747730529E+00  6.7789627268E+00  3.4946809744E+00
                       0.0000000000E+00  0.0000000000E+00  1.2184911174E+01
          spgroup          12
           strten      0.0000000000E+00  0.0000000000E+00  0.0000000000E+00
                       0.0000000000E+00  0.0000000000E+00  0.0000000000E+00
           symrel      1  0  0   0  1  0   0  0  1      -1  0  0   0 -1  0   0  0 -1
                       0 -1  0  -1  0  0   0  0 -1       0  1  0   1  0  0   0  0  1
           tolwfr      1.00000000E-20
            typat      1  1  2  2  3  3  3  3  3  3  3  3
           useylm           1
              wtk        0.50000    0.50000
           xangst      1.1615143106E+00  3.7922852004E-01  2.1176896071E+00
                       9.8257089842E+00  3.2080440529E+00  8.0288987206E+00
                       2.2080473294E+00  7.2091623261E-01  5.1242405734E+00
                       8.7791759653E+00  2.8663563403E+00  5.0223477543E+00
                       7.0477433952E+00  2.3010524046E+00  4.2929230144E+00
                       3.9394798996E+00  1.2862201683E+00  5.8536653133E+00
                       6.2901853363E-01  2.0537135480E-01  4.3085129842E+00
                       1.0358204761E+01  3.3819012181E+00  5.8380753435E+00
                       9.4358053911E+00  3.0807425111E+00  3.3362309177E+00
                       1.5514179037E+00  5.0653006184E-01  6.8103574100E+00
                       8.1052965990E+00  2.6463381516E+00  6.8698538224E+00
                       2.8819266958E+00  9.4093442133E-01  3.2767345053E+00
            xcart      2.1949439465E+00  7.1663804466E-01  4.0018533918E+00
                       1.8567899042E+01  6.0623246821E+00  1.5172419731E+01
                       4.1726047411E+00  1.3623342444E+00  9.6834113228E+00
                       1.6590238247E+01  5.4166284824E+00  9.4908617997E+00
                       1.3318304872E+01  4.3483588621E+00  8.1124488068E+00
                       7.4445381162E+00  2.4306038647E+00  1.1061824316E+01
                       1.1886727611E+00  3.8809561611E-01  8.1419095802E+00
                       1.9574170227E+01  6.3908671107E+00  1.1032363542E+01
                       1.7831088032E+01  5.8217596319E+00  6.3045627505E+00
                       2.9317549556E+00  9.5720309495E-01  1.2869710372E+01
                       1.5316790798E+01  5.0008543615E+00  1.2982142297E+01
                       5.4460521901E+00  1.7781083653E+00  6.1921308251E+00
             xred      1.0571500000E-01  1.0571500000E-01  2.6778800000E-01
                       8.9428500000E-01  8.9428500000E-01  7.3221200000E-01
                       2.0096500000E-01  2.0096500000E-01  6.7943000000E-01
                       7.9903500000E-01  7.9903500000E-01  3.2057000000E-01
                       6.4144900000E-01  6.4144900000E-01  2.9783800000E-01
                       3.5855100000E-01  3.5855100000E-01  7.0216200000E-01
                       5.7250000000E-02  5.7250000000E-02  6.3535700000E-01
                       9.4275000000E-01  9.4275000000E-01  3.6464300000E-01
                       8.5879800000E-01  8.5879800000E-01  2.4794000000E-02
                       1.4120200000E-01  1.4120200000E-01  9.7520600000E-01
                       7.3770200000E-01  7.3770200000E-01  6.4227600000E-01
                       2.6229800000E-01  2.6229800000E-01  3.5772400000E-01
            znucl       73.00000   13.00000    8.00000

- Timing analysis has been suppressed with timopt=0

 Suggested references for the acknowledgment of ABINIT usage.

 Calculation completed.
.Delivered   2 WARNINGs and   5 COMMENTs to log file.