.Version 9.5.1 of ABINIT

 ABINIT is a project of the Universite Catholique de Louvain,
 Corning Inc. and other collaborators, see ~abinit/doc/developers/contributors.txt .
 acknowledgments of the ABINIT effort.

.Starting date : Tue 27 Apr 2021.
- ( at 18h36 )

- input  file    -> /scratch/users/j/a/jabreu/flow_simple_4atoms/flow/w208/t1/run.abi
- output file    -> /scratch/users/j/a/jabreu/flow_simple_4atoms/flow/w208/t1/run.abo
- root for input  files -> /scratch/users/j/a/jabreu/flow_simple_4atoms/flow/w208/t1/indata/in
- root for output files -> /scratch/users/j/a/jabreu/flow_simple_4atoms/flow/w208/t1/outdata/out

 Symmetries : space group R-3 m (#166); Bravais hR (rhombohedral)
     intxc =       0      iscf =       7    lmnmax =      18     lnmax =       6
     mgfft =      60  mpssoang =       3    mqgrid =    3001     natom =       4
  nloc_mem =       1    nspden =       1   nspinor =       1    nsppol =       1
      nsym =      12    n1xccc =    2501    ntypat =       3    occopt =       1
   xclevel =       2
-    mband =          25        mffmem =           1         mkmem =           2
-   mkqmem =           2        mk1mem =           2           mpw =        3525
      nfft =      216000          nkpt =           2
  Rough estimation (10% accuracy) of disk space for files :

------------- Echo of variables that govern the present computation ------------
-
- outvars: echo of selected default values
-   iomode0 =  0 , fftalg0 =512 , wfoptalg0 =  0
-
- outvars: echo of global parameters not present in the input file
-  max_nthreads =    0
-
 -outvars: echo values of preprocessed input variables --------
            acell      1.0000000000E+00  1.0000000000E+00  1.0000000000E+00 Bohr
              amu      6.94100000E+00  1.02905500E+02  1.59994000E+01
             ecut      4.40000000E+01 Hartree
-          fftalg         512
           irdden           1
           irdwfk           1
              ixc     -116133
              kpt      1.48648649E-01  1.38777878E-17  0.00000000E+00
                       5.90975273E-01  5.90975273E-01  3.18049454E-01
           kptopt           0
P           mkmem           2
P          mkqmem           2
P          mk1mem           2
            natom           4
            nband          25
           nbdbuf           4
            ngfft          60      60      60
             nkpt           2
            nstep         100
             nsym          12
           ntypat           3
              occ      2.000000  2.000000  2.000000  2.000000  2.000000  2.000000
                       2.000000  2.000000  2.000000  2.000000  2.000000  2.000000
                       2.000000  2.000000  2.000000  2.000000  0.000000  0.000000
                       0.000000  0.000000  0.000000  0.000000  0.000000  0.000000
                       0.000000
        optdriver           1
            prtwf          -1
            rfdir           1       1       1
           rfelfd           2
            rprim      5.4776372624E+00  0.0000000000E+00  7.5950766855E+00
                       2.4531048603E+00  4.8976307050E+00  7.5950766855E+00
                       0.0000000000E+00  0.0000000000E+00  9.3642778410E+00
          spgroup         166
           symrel      1  0  0   0  1  0   0  0  1      -1  0  0   0 -1  0   0  0 -1
                       0  1  0   1  0  0   0  0  1       0 -1  0  -1  0  0   0  0 -1
                       0  0  1   1  0  0   0  1  0       0  0 -1  -1  0  0   0 -1  0
                       1  0  0   0  0  1   0  1  0      -1  0  0   0  0 -1   0 -1  0
                       0  1  0   0  0  1   1  0  0       0 -1  0   0  0 -1  -1  0  0
                       0  0  1   0  1  0   1  0  0       0  0 -1   0 -1  0  -1  0  0
           tolwfr      1.00000000E-20
            typat      1  2  3  3
           useylm           1
              wtk        0.50000    0.50000
           xangst      2.0983839893E+00  1.2958572726E+00  6.4968226836E+00
                       0.0000000000E+00  0.0000000000E+00  0.0000000000E+00
                       3.1156511699E+00  1.9240707363E+00  9.6463913652E+00
                       1.0811168086E+00  6.6764380884E-01  3.3472540021E+00
            xcart      3.9653710613E+00  2.4488153525E+00  1.2277215606E+01
                       0.0000000000E+00  0.0000000000E+00  0.0000000000E+00
                       5.8877274367E+00  3.6359667520E+00  1.8229037851E+01
                       2.0430146860E+00  1.2616639530E+00  6.3253933612E+00
             xred      5.0000000000E-01  5.0000000000E-01  5.0000000000E-01
                       0.0000000000E+00  0.0000000000E+00  0.0000000000E+00
                       7.4239300000E-01  7.4239300000E-01  7.4239300000E-01
                       2.5760700000E-01  2.5760700000E-01  2.5760700000E-01
            znucl        3.00000   45.00000    8.00000

 chkinp: Checking input parameters for consistency.

== DATASET  1 ==================================================================
-   mpi_nproc: 1, omp_nthreads: -1 (-1 if OMP is not activated)

--- !DatasetInfo
iteration_state: {dtset: 1, }
dimensions: {natom: 4, nkpt: 2, mband: 25, nsppol: 1, nspinor: 1, nspden: 1, mpw: 3525, }
cutoff_energies: {ecut:  44.0, pawecutdg:  -1.0, }
electrons: {nelect:   3.20000000E+01, charge:   0.00000000E+00, occopt:   1.00000000E+00, tsmear:   1.00000000E-02, }
meta: {optdriver: 1, rfelfd: 2, }
...

 Real(R)+Recip(G) space primitive vectors, cartesian coordinates (Bohr,Bohr^-1):
 R(1)=  5.4776373  0.0000000  7.5950767  G(1)=  0.1825605 -0.0914401  0.0000000
 R(2)=  2.4531049  4.8976307  7.5950767  G(2)=  0.0000000  0.2041804  0.0000000
 R(3)=  0.0000000  0.0000000  9.3642778  G(3)= -0.1480692 -0.0914401  0.1067888
 Unit cell volume ucvol=  2.5121964E+02 bohr^3
 Angles (23,13,12)=  3.57994799E+01  3.57994799E+01  3.57994799E+01 degrees

 getcut: wavevector=  0.0000  0.0000  0.0000  ngfft=  60  60  60
         ecut(hartree)=     44.000   => boxcut(ratio)=   2.14631

--- Pseudopotential description ------------------------------------------------
- pspini: atom type   1  psp file is /scratch/users/j/a/jabreu/pseudos/PBEsol/Li.psp8
- pspatm: opening atomic psp file    /scratch/users/j/a/jabreu/pseudos/PBEsol/Li.psp8
- Li    ONCVPSP-3.3.0  r_core=   1.40824   1.10935
-  3.00000   3.00000    180112                znucl, zion, pspdat
    8 -116133    1    4       400   0.00000   pspcod,pspxc,lmax,lloc,mmax,r2well
    3.99000000000000    0.00000000000000    0.00000000000000   rchrg,fchrg,qchrg
     nproj     2     2
     extension_switch     1
  pspatm : epsatm=    2.60859637
         --- l  ekb(1:nproj) -->
             0   -4.855856   -1.482423
             1   -2.171544   -0.427615
 pspatm: atomic psp has been read  and splines computed

- pspini: atom type   2  psp file is /scratch/users/j/a/jabreu/pseudos/PBEsol/Rh.psp8
- pspatm: opening atomic psp file    /scratch/users/j/a/jabreu/pseudos/PBEsol/Rh.psp8
- Rh    ONCVPSP-3.3.0  r_core=   1.40787   1.40787   1.35838
- 45.00000  17.00000    180112                znucl, zion, pspdat
    8 -116133    2    4       600   0.00000   pspcod,pspxc,lmax,lloc,mmax,r2well
    5.99000000000000    7.00000000000000    0.00000000000000   rchrg,fchrg,qchrg
     nproj     2     2     2
     extension_switch     1
  pspatm : epsatm=   21.51201928
         --- l  ekb(1:nproj) -->
             0   16.263264    1.496972
             1    7.329212    1.051636
             2    0.393200    0.129871
 pspatm: atomic psp has been read  and splines computed

- pspini: atom type   3  psp file is /scratch/users/j/a/jabreu/pseudos/PBEsol/O.psp8
- pspatm: opening atomic psp file    /scratch/users/j/a/jabreu/pseudos/PBEsol/O.psp8
- O     ONCVPSP-3.3.0  r_core=   1.35509   1.45563   1.26150
-  8.00000   6.00000    180112                znucl, zion, pspdat
    8 -116133    2    4       600   0.00000   pspcod,pspxc,lmax,lloc,mmax,r2well
    5.99000000000000    4.00000000000000    0.00000000000000   rchrg,fchrg,qchrg
     nproj     2     2     1
     extension_switch     1
  pspatm : epsatm=    6.22910522
         --- l  ekb(1:nproj) -->
             0    6.050032    0.820363
             1   -4.739617   -1.153841
             2   -1.335834
 pspatm: atomic psp has been read  and splines computed

   1.17052243E+03                                ecore*ucvol(ha*bohr**3)

-inwffil : will read wavefunctions from disk file /scratch/users/j/a/jabreu/flow_simple_4atoms/flow/w208/t1/indata/in_WFK

 ==>  initialize data related to q vector <==

 The list of irreducible perturbations for this q vector is:
    1)    idir= 1    ipert=   5
    2)    idir= 2    ipert=   5
    3)    idir= 3    ipert=   5

 Perturbation wavevector (in red.coord.)   0.000000  0.000000  0.000000
 Perturbation : derivative vs k along direction   1

 dfpt_looppert : COMMENT -
  In a d/dk calculation, iscf is set to -3 automatically.
 The set of symmetries contains only one element for this perturbation.
 symkpt : not enough symmetry to change the number of k points.

[...]

 Initialisation of the first-order wave-functions :
  ireadwf=   0

--- !BeginCycle
iteration_state: {dtset: 1, }
solver: {iscf: 7, nstep: 100, nline: 4, wfoptalg: 0, }
tolerances: {tolwfr: 1.00E-20, }
...

     iter   2DEtotal(Ha)        deltaE(Ha) residm    vres2
-ETOT  1  -54.079747104670     -5.408E+01 7.936E-02 0.000E+00
 ETOT  2  -54.106452285322     -2.671E-02 4.054E-04 0.000E+00
 ETOT  3  -54.106466954850     -1.467E-05 5.240E-07 0.000E+00
 ETOT  4  -54.106466977508     -2.266E-08 1.633E-08 0.000E+00
 ETOT  5  -54.106466977559     -5.152E-11 2.674E-11 0.000E+00
 ETOT  6  -54.106466977560     -9.237E-14 9.878E-13 0.000E+00
 ETOT  7  -54.106466977560     -2.132E-14 1.672E-15 0.000E+00
 ETOT  8  -54.106466977560      2.132E-14 6.299E-17 0.000E+00
 ETOT  9  -54.106466977560      1.421E-14 1.084E-19 0.000E+00
 ETOT 10  -54.106466977560     -1.421E-14 9.961E-21 0.000E+00

 At SCF step   10   max residual=  9.96E-21 < tolwfr=  1.00E-20 =>converged.

 ----iterations are completed or convergence reached----

 dfpt_looppert: DFPT cycle converged with prtwf=-1. Will skip output of the 1st-order WFK file.
 dfpt_looppert : ek2=    1.0533377300E+02
          f-sum rule ratio=    1.0219960475E+00
 prteigrs : about to open file /scratch/users/j/a/jabreu/flow_simple_4atoms/flow/w208/t1/tmpdata/tmp_1WF1_EIG
 Expectation of eigenvalue derivatives (hartree) for nkpt=   2  k points:
  (in case of degenerate eigenvalues, averaged derivative)
 kpt#   1, nband= 25, wtk=  0.50000, kpt=  0.1486  0.0000  0.0000 (reduced coord)
   0.00149   -0.01789   -0.00408    0.00309    0.00165    0.09846   -0.04024    0.11679
   0.04773    0.07686   -0.44937   -0.18780   -0.05468    0.09167    0.20586   -0.00018
  -0.17164   -0.05260    0.39682    0.43684   -0.25158   -0.05524    0.10985   -0.58930
  -0.23788
 prteigrs : prtvol=0 or 1, do not print more k-points.

 Eight components of 2nd-order total energy (hartree) are
 1,2,3: 0th-order hamiltonian combined with 1st-order wavefunctions
     kin0=   5.96876188E+01 eigvalue=  -1.75443459E+00  local=  -2.39771676E+01
 4,5,6: 1st-order hamiltonian combined with 1st and 0th-order wfs
     kin1=  -1.07650700E+02  Hartree=   0.00000000E+00     xc=   0.00000000E+00
 7,8,9: eventually, occupation + non-local contributions
    edocc=   2.07284531E+01     enl0=  -5.78002723E-01   enl1=  -5.62234271E-01
 1-9 gives the relaxation energy (to be shifted if some occ is /=2.0)
   erelax=  -5.41064670E+01
  No Ewald or frozen-wf contrib.: the relaxation energy is the total one
 2DEtotal=   -0.5410646698E+02 Ha. Also 2DEtotal=   -0.147231184223E+04 eV
    (  non-var. 2DEtotal :   -5.4106466977E+01 Ha)

 Perturbation wavevector (in red.coord.)   0.000000  0.000000  0.000000
 Perturbation : derivative vs k along direction   2
 The set of symmetries contains only one element for this perturbation.
 symkpt : not enough symmetry to change the number of k points.

[...]

 Perturbation wavevector (in red.coord.)   0.000000  0.000000  0.000000
 Perturbation : derivative vs k along direction   3
 The set of symmetries contains only one element for this perturbation.
 symkpt : not enough symmetry to change the number of k points.

-inwffil : will read wavefunctions from disk file /scratch/users/j/a/jabreu/flow_simple_4atoms/flow/w208/t1/indata/in_WFK

 Initialisation of the first-order wave-functions :
  ireadwf=   0

--- !BeginCycle
iteration_state: {dtset: 1, }
solver: {iscf: 7, nstep: 100, nline: 4, wfoptalg: 0, }
tolerances: {tolwfr: 1.00E-20, }
...

     iter   2DEtotal(Ha)        deltaE(Ha) residm    vres2
-ETOT  1  -55.312522583255     -5.531E+01 1.194E-01 0.000E+00
 ETOT  2  -55.340928623915     -2.841E-02 2.023E-03 0.000E+00
 ETOT  3  -55.340951324281     -2.270E-05 9.794E-06 0.000E+00
 ETOT  4  -55.340951369029     -4.475E-08 2.320E-07 0.000E+00
 ETOT  5  -55.340951369142     -1.125E-10 1.389E-09 0.000E+00
 ETOT  6  -55.340951369142     -3.268E-13 3.503E-11 0.000E+00
 ETOT  7  -55.340951369142      0.000E+00 2.134E-13 0.000E+00
 ETOT  8  -55.340951369142     -1.421E-14 5.560E-15 0.000E+00
 ETOT  9  -55.340951369142     -7.105E-15 3.358E-17 0.000E+00
 ETOT 10  -55.340951369142      0.000E+00 9.004E-19 0.000E+00
 ETOT 11  -55.340951369142     -1.421E-14 9.923E-21 0.000E+00

 At SCF step   11   max residual=  9.92E-21 < tolwfr=  1.00E-20 =>converged.

 ----iterations are completed or convergence reached----

 dfpt_looppert: DFPT cycle converged with prtwf=-1. Will skip output of the 1st-order WFK file.
 dfpt_looppert : ek2=    1.0533377343E+02
          f-sum rule ratio=    1.0537122725E+00
 prteigrs : about to open file /scratch/users/j/a/jabreu/flow_simple_4atoms/flow/w208/t1/tmpdata/tmp_1WF1_EIG
 Expectation of eigenvalue derivatives (hartree) for nkpt=   2  k points:
  (in case of degenerate eigenvalues, averaged derivative)
 kpt#   1, nband= 25, wtk=  0.50000, kpt=  0.1486  0.0000  0.0000 (reduced coord)
  -0.00075    0.00895    0.00204   -0.00158   -0.00079   -0.04663    0.01657   -0.05929
  -0.01122   -0.03563    0.23041    0.08441    0.00171   -0.04720   -0.10023    0.00230
   0.07494    0.03569   -0.17178   -0.21656    0.10001    0.03744   -0.03811    0.36084
   0.02366
 prteigrs : prtvol=0 or 1, do not print more k-points.

 Eight components of 2nd-order total energy (hartree) are
 1,2,3: 0th-order hamiltonian combined with 1st-order wavefunctions
     kin0=   6.35509614E+01 eigvalue=  -2.42119746E+00  local=  -2.61735756E+01
 4,5,6: 1st-order hamiltonian combined with 1st and 0th-order wfs
     kin1=  -1.10991490E+02  Hartree=   0.00000000E+00     xc=   0.00000000E+00
 7,8,9: eventually, occupation + non-local contributions
    edocc=   2.06840405E+01     enl0=  -2.99277433E-01   enl1=   3.09587034E-01
 1-9 gives the relaxation energy (to be shifted if some occ is /=2.0)
   erelax=  -5.53409514E+01
  No Ewald or frozen-wf contrib.: the relaxation energy is the total one
 2DEtotal=   -0.5534095137E+02 Ha. Also 2DEtotal=   -0.150590387088E+04 eV
    (  non-var. 2DEtotal :   -5.5340951369E+01 Ha)

 CALCULATION OF EFFECTIVE MASSES
 NOTE : Additional infos (eff. mass eigenvalues, eigenvectors and, if degenerate, average mass) are available in stdout.

--- !WARNING
src_file: m_efmas.F90
src_line: 0
message: |

    Band(s)    16,
    are not band extrema, but saddle points;
    the transport equivalent formalism breaks down in these conditions.
    The associated tensor(s) will therefore not be printed.
...

 K-point ( 0.149, 0.000, 0.000) | band =    16
 Effective mass tensor:
     *** SADDLE POINT: TRANSPORT EQV. EFF. MASS NOT DEFINED (see WARNING above) ***
 Angular average effective mass 1/(<1/m>)=  -8.3418406128
 Angular average effective mass for Frohlich model (<m**0.5>)**2= -16.8686096980
 Effective masses along directions: (cart. coord. / red. coord. -> eff. mass)
    1:   1.000000  0.000000  0.000000 /   0.912658  0.408725  0.000000 -> -13.7992613974
    2:   0.000000  1.000000  0.000000 /   0.000000  1.000000  0.000000 ->  -6.5354586015
    3:   0.000000  0.000000  1.000000 /   0.532991  0.532991  0.657146 ->  -7.4541330523
    4:   0.577350  0.577350  0.577350 /   0.595469  0.680789  0.426548 -> -12.1620579811
    5:   0.000000  0.707107  0.707107 /   0.437451  0.719539  0.539352 ->  -5.1164325238
    6:   0.707107  0.000000  0.707107 /   0.689422  0.529916  0.493848 -> **************
    7:   0.707107  0.707107  0.000000 /   0.597525  0.801850  0.000000 ->  -9.4904979124

 K-point ( 0.591, 0.591, 0.318) | band =    17
 Effective mass tensor:
              1.7703052713             -0.8853048062              0.8466908709
             -0.8853048062              2.6571611677              0.5228740498
              0.8466908709              0.5228740498              2.2696588087
 Effective mass tensor eigenvalues:
              0.6224111378              2.8708329493              3.2038811606
 Angular average effective mass 1/(<1/m>)=   1.3232720816
 Angular average effective mass for Frohlich model (<m**0.5>)**2=   1.5990393990
 Effective masses along directions: (cart. coord. / red. coord. -> eff. mass)
    1:   1.000000  0.000000  0.000000 /   0.912658  0.408725  0.000000 ->   0.9943318531
    2:   0.000000  1.000000  0.000000 /   0.000000  1.000000  0.000000 ->   1.7342133794
    3:   0.000000  0.000000  1.000000 /   0.532991  0.532991  0.657146 ->   1.4603300922
    4:   0.577350  0.577350  0.577350 /   0.595469  0.680789  0.426548 ->   1.8858444921
    5:   0.000000  0.707107  0.707107 /   0.437451  0.719539  0.539352 ->   2.9578949918
    6:   0.707107  0.000000  0.707107 /   0.689422  0.529916  0.493848 ->   2.6925875989
    7:   0.707107  0.707107  0.000000 /   0.597525  0.801850  0.000000 ->   0.8200181999

 END OF EFFECTIVE MASSES SECTION

 ---- first-order wavefunction calculations are completed ----

 Total localisation tensor (bohr^2) in cartesian coordinates
  WARNING : still subject to testing - especially symmetries.
      direction              matrix element
   alpha     beta       real part   imaginary part
     1        1       1.0857807389    0.0000000000
     1        2       0.3598891861    0.0000000000
     1        3       1.8136635041    0.0000000000
     2        1       0.3598891861    0.0000000000
     2        2       0.7185197652    0.0000000000
     2        3       1.1142556565    0.0000000000
     3        1       1.8136635041    0.0000000000
     3        2       1.1142556565    0.0000000000
     3        3       6.6015516222    0.0000000000

 respfn : d/dk was computed, but no 2DTE, so no DDB output.

== END DATASET(S) ==============================================================

 -outvars: echo values of variables after computation  --------
            acell      1.0000000000E+00  1.0000000000E+00  1.0000000000E+00 Bohr
              amu      6.94100000E+00  1.02905500E+02  1.59994000E+01
             ecut      4.40000000E+01 Hartree
           etotal     -5.5340951369E+01
            fcart      0.0000000000E+00  0.0000000000E+00  0.0000000000E+00
                       0.0000000000E+00  0.0000000000E+00  0.0000000000E+00
                       0.0000000000E+00  0.0000000000E+00  0.0000000000E+00
                       0.0000000000E+00  0.0000000000E+00  0.0000000000E+00
-          fftalg         512
           irdden           1
           irdwfk           1
              ixc     -116133
              kpt      1.48648649E-01  1.38777878E-17  0.00000000E+00
                       5.90975273E-01  5.90975273E-01  3.18049454E-01
           kptopt           0
P           mkmem           2
P          mkqmem           2
P          mk1mem           2
            natom           4
            nband          25
           nbdbuf           4
            ngfft          60      60      60
             nkpt           2
            nstep         100
             nsym          12
           ntypat           3
              occ      2.000000  2.000000  2.000000  2.000000  2.000000  2.000000
                       2.000000  2.000000  2.000000  2.000000  2.000000  2.000000
                       2.000000  2.000000  2.000000  2.000000  0.000000  0.000000
                       0.000000  0.000000  0.000000  0.000000  0.000000  0.000000
                       0.000000
        optdriver           1
            prtwf          -1
            rfdir           1       1       1
           rfelfd           2
            rprim      5.4776372624E+00  0.0000000000E+00  7.5950766855E+00
                       2.4531048603E+00  4.8976307050E+00  7.5950766855E+00
                       0.0000000000E+00  0.0000000000E+00  9.3642778410E+00
          spgroup         166
           strten      0.0000000000E+00  0.0000000000E+00  0.0000000000E+00
                       0.0000000000E+00  0.0000000000E+00  0.0000000000E+00
           symrel      1  0  0   0  1  0   0  0  1      -1  0  0   0 -1  0   0  0 -1
                       0  1  0   1  0  0   0  0  1       0 -1  0  -1  0  0   0  0 -1
                       0  0  1   1  0  0   0  1  0       0  0 -1  -1  0  0   0 -1  0
                       1  0  0   0  0  1   0  1  0      -1  0  0   0  0 -1   0 -1  0
                       0  1  0   0  0  1   1  0  0       0 -1  0   0  0 -1  -1  0  0
                       0  0  1   0  1  0   1  0  0       0  0 -1   0 -1  0  -1  0  0
           tolwfr      1.00000000E-20
            typat      1  2  3  3
           useylm           1
              wtk        0.50000    0.50000
           xangst      2.0983839893E+00  1.2958572726E+00  6.4968226836E+00
                       0.0000000000E+00  0.0000000000E+00  0.0000000000E+00
                       3.1156511699E+00  1.9240707363E+00  9.6463913652E+00
                       1.0811168086E+00  6.6764380884E-01  3.3472540021E+00
            xcart      3.9653710613E+00  2.4488153525E+00  1.2277215606E+01
                       0.0000000000E+00  0.0000000000E+00  0.0000000000E+00
                       5.8877274367E+00  3.6359667520E+00  1.8229037851E+01
                       2.0430146860E+00  1.2616639530E+00  6.3253933612E+00
             xred      5.0000000000E-01  5.0000000000E-01  5.0000000000E-01
                       0.0000000000E+00  0.0000000000E+00  0.0000000000E+00
                       7.4239300000E-01  7.4239300000E-01  7.4239300000E-01
                       2.5760700000E-01  2.5760700000E-01  2.5760700000E-01
            znucl        3.00000   45.00000    8.00000

- Timing analysis has been suppressed with timopt=0

 Suggested references for the acknowledgment of ABINIT usage.

 Calculation completed.
.Delivered  15 WARNINGs and   9 COMMENTs to log file.