.Version 9.5.2 of ABINIT

 ABINIT is a project of the Universite Catholique de Louvain,
 Corning Inc. and other collaborators, see ~abinit/doc/developers/contributors.txt .
 acknowledgments of the ABINIT effort.

.Starting date : Wed 26 May 2021.
- ( at 03h05 )

- input  file    -> /scratch/users/j/a/jabreu/flow_simple_11atoms/flow/w284/t1/run.abi
- output file    -> /scratch/users/j/a/jabreu/flow_simple_11atoms/flow/w284/t1/run.abo
- root for input  files -> /scratch/users/j/a/jabreu/flow_simple_11atoms/flow/w284/t1/indata/in
- root for output files -> /scratch/users/j/a/jabreu/flow_simple_11atoms/flow/w284/t1/outdata/out

 Symmetries : space group Ib a m (# 72); Bravais oI (body-center ortho.)
     intxc =       0      iscf =       7    lmnmax =      25     lnmax =       7
     mgfft =      75  mpssoang =       4    mqgrid =    3001     natom =      12
  nloc_mem =       1    nspden =       1   nspinor =       1    nsppol =       1
      nsym =       8    n1xccc =    2501    ntypat =       3    occopt =       1
   xclevel =       2
-    mband =          49        mffmem =           1         mkmem =           1
-   mkqmem =           1        mk1mem =           1           mpw =       15024
      nfft =      421875          nkpt =           1
  Rough estimation (10% accuracy) of disk space for files :

------------- Echo of variables that govern the present computation ------------
-
- outvars: echo of selected default values
-   iomode0 =  0 , fftalg0 =512 , wfoptalg0 =  0
-
- outvars: echo of global parameters not present in the input file
-  max_nthreads =    0
-
 -outvars: echo values of preprocessed input variables --------
            acell      1.0000000000E+00  1.0000000000E+00  1.0000000000E+00 Bohr
              amu      6.94100000E+00  1.96966540E+02  3.20660000E+01
             ecut      3.80000000E+01 Hartree
-          fftalg         512
           irdden           1
           irdwfk           1
              ixc     -116133
              kpt      5.00000000E-01  5.00000000E-01 -5.00000000E-01
           kptopt           0
P           mkmem           1
P          mkqmem           1
P          mk1mem           1
            natom          12
            nband          49
           nbdbuf           4
            ngfft          75      75      75
             nkpt           1
            nstep        2000
             nsym           8
           ntypat           3
              occ      2.000000  2.000000  2.000000  2.000000  2.000000  2.000000
                       2.000000  2.000000  2.000000  2.000000  2.000000  2.000000
                       2.000000  2.000000  2.000000  2.000000  2.000000  2.000000
                       2.000000  2.000000  2.000000  2.000000  2.000000  2.000000
                       2.000000  2.000000  2.000000  2.000000  2.000000  2.000000
                       2.000000  2.000000  2.000000  2.000000  2.000000  2.000000
                       2.000000  2.000000  2.000000  2.000000  0.000000  0.000000
                       0.000000  0.000000  0.000000  0.000000  0.000000  0.000000
                       0.000000
        optdriver           1
            prtwf          -1
            rfdir           1       1       1
           rfelfd           2
            rprim      1.0569797118E+01  0.0000000000E+00 -7.9746953390E+00
                      -2.1923784568E+00  9.6104228920E+00 -8.8402276789E+00
                       0.0000000000E+00  0.0000000000E+00  1.3240709078E+01
          spgroup          72
           symrel      1  0  0   0  1  0   0  0  1      -1  0  0   0 -1  0   0  0 -1
                       0  0  1  -1 -1 -1   1  0  0       0  0 -1   1  1  1  -1  0  0
                      -1 -1 -1   0  0  1   0  1  0       1  1  1   0  0 -1   0 -1  0
                       0  1  0   1  0  0  -1 -1 -1       0 -1  0  -1  0  0   1  1  1
            tnons      0.0000000  0.0000000  0.0000000     0.0000000  0.0000000  0.0000000
                       0.0000000  0.0000000  0.0000000     0.0000000  0.0000000  0.0000000
                       0.5000000  0.0000000  0.5000000     0.5000000  0.0000000  0.5000000
                       0.5000000  0.0000000  0.5000000     0.5000000  0.0000000  0.5000000
           tolwfr      1.00000000E-20
            typat      1  1  1  1  1  1  2  2  3  3  3  3
           useylm           1
           xangst      5.1947909440E+00  1.1469744046E+00  8.3181508761E-02
                       2.0349959457E+00  3.9386423548E+00 -5.8124683938E-01
                      -7.6165192149E-01  3.9386423548E+00 -1.9745740646E+00
                       2.3981430768E+00  1.1469744046E+00 -1.3101457165E+00
                       3.6148934449E+00  2.5428083797E+00 -3.7523734000E+00
                       8.1824557765E-01  2.5428083797E+00  1.8609808441E+00
                       2.7966478672E+00  0.0000000000E+00  1.3933272253E+00
                       0.0000000000E+00  0.0000000000E+00  0.0000000000E+00
                       2.6061415849E+00  4.3047584481E+00 -5.2309753031E+00
                       4.1481069300E+00  2.8654093932E+00 -1.3192840239E+00
                       2.8503209255E-01  2.2202073662E+00 -5.7210853195E-01
                       1.8269974376E+00  7.8085831127E-01  3.3395827472E+00
            xcart      9.8167322018E+00  2.1674675061E+00  1.5719027088E-01
                       3.8455850190E+00  7.4429553859E+00 -1.0983973420E+00
                      -1.4393135402E+00  7.4429553859E+00 -3.7314042113E+00
                       4.5318336426E+00  2.1674675061E+00 -2.4758165984E+00
                       6.8311586104E+00  4.8052114460E+00 -7.0909580743E+00
                       1.5462600512E+00  4.8052114460E+00  3.5167441339E+00
                       5.2848985592E+00  0.0000000000E+00  2.6330068692E+00
                       0.0000000000E+00  0.0000000000E+00  0.0000000000E+00
                       4.9248938590E+00  8.1348145351E+00 -9.8851107307E+00
                       7.8387860676E+00  5.4148390117E+00 -2.4930854967E+00
                       5.3863259400E-01  4.1955838803E+00 -1.0811284437E+00
                       3.4525248026E+00  1.4756083569E+00  6.3108967903E+00
             xred      9.7553300000E-01  2.2553300000E-01  7.5000000000E-01
                       5.2446700000E-01  7.7446700000E-01  7.5000000000E-01
                       2.4467000000E-02  7.7446700000E-01  2.5000000000E-01
                       4.7553300000E-01  2.2553300000E-01  2.5000000000E-01
                       7.5000000000E-01  5.0000000000E-01  2.5000000000E-01
                       2.5000000000E-01  5.0000000000E-01  7.5000000000E-01
                       5.0000000000E-01  0.0000000000E+00  5.0000000000E-01
                       0.0000000000E+00  0.0000000000E+00  0.0000000000E+00
                       6.4151175000E-01  8.4645750000E-01  2.0494575000E-01
                       8.5848825000E-01  5.6343400000E-01  7.0494575000E-01
                       1.4151175000E-01  4.3656600000E-01  2.9505425000E-01
                       3.5848825000E-01  1.5354250000E-01  7.9505425000E-01
            znucl        3.00000   79.00000   16.00000

 chkinp: Checking input parameters for consistency.

== DATASET  1 ==================================================================
-   mpi_nproc: 1, omp_nthreads: -1 (-1 if OMP is not activated)

--- !DatasetInfo
iteration_state: {dtset: 1, }
dimensions: {natom: 12, nkpt: 1, mband: 49, nsppol: 1, nspinor: 1, nspden: 1, mpw: 15024, }
cutoff_energies: {ecut:  38.0, pawecutdg:  -1.0, }
electrons: {nelect:   8.00000000E+01, charge:   0.00000000E+00, occopt:   1.00000000E+00, tsmear:   1.00000000E-02, }
meta: {optdriver: 1, rfelfd: 2, }
...

 Real(R)+Recip(G) space primitive vectors, cartesian coordinates (Bohr,Bohr^-1):
 R(1)= 10.5697971  0.0000000 -7.9746953  G(1)=  0.0946092  0.0215827  0.0000000
 R(2)= -2.1923785  9.6104229 -8.8402277  G(2)=  0.0000000  0.1040537  0.0000000
 R(3)=  0.0000000  0.0000000 13.2407091  G(3)=  0.0569818  0.0824710  0.0755247
 Unit cell volume ucvol=  1.3449941E+03 bohr^3
 Angles (23,13,12)=  1.31886346E+02  1.27033805E+02  7.43392274E+01 degrees

 getcut: wavevector=  0.0000  0.0000  0.0000  ngfft=  75  75  75
         ecut(hartree)=     38.000   => boxcut(ratio)=   2.01419

--- Pseudopotential description ------------------------------------------------
- pspini: atom type   1  psp file is /scratch/users/j/a/jabreu/pseudos/PBEsol/Li.psp8
- pspatm: opening atomic psp file    /scratch/users/j/a/jabreu/pseudos/PBEsol/Li.psp8
- Li    ONCVPSP-3.3.0  r_core=   1.40824   1.10935
-  3.00000   3.00000    180112                znucl, zion, pspdat
    8 -116133    1    4       400   0.00000   pspcod,pspxc,lmax,lloc,mmax,r2well
    3.99000000000000    0.00000000000000    0.00000000000000   rchrg,fchrg,qchrg
     nproj     2     2
     extension_switch     1
  pspatm : epsatm=    2.60859637
         --- l  ekb(1:nproj) -->
             0   -4.855856   -1.482423
             1   -2.171544   -0.427615
 pspatm: atomic psp has been read  and splines computed

- pspini: atom type   2  psp file is /scratch/users/j/a/jabreu/pseudos/PBEsol/Au.psp8
- pspatm: opening atomic psp file    /scratch/users/j/a/jabreu/pseudos/PBEsol/Au.psp8
- Au    ONCVPSP-3.3.0  r_core=   1.45604   1.56407   1.56407   1.60183
- 79.00000  19.00000    180112                znucl, zion, pspdat
    8 -116133    3    4       500   0.00000   pspcod,pspxc,lmax,lloc,mmax,r2well
    4.99000000000000    5.00000000000000    0.00000000000000   rchrg,fchrg,qchrg
     nproj     2     2     2     1
     extension_switch     1
  pspatm : epsatm=   32.21965837
         --- l  ekb(1:nproj) -->
             0    9.413866   -0.196587
             1    2.474292   -1.517497
             2    1.503483    0.298081
             3    1.177996
 pspatm: atomic psp has been read  and splines computed

- pspini: atom type   3  psp file is /scratch/users/j/a/jabreu/pseudos/PBEsol/S.psp8
- pspatm: opening atomic psp file    /scratch/users/j/a/jabreu/pseudos/PBEsol/S.psp8
- S     ONCVPSP-3.3.0  r_core=   1.45376   1.45376   1.61851
- 16.00000   6.00000    180112                znucl, zion, pspdat
    8 -116133    2    4       600   0.00000   pspcod,pspxc,lmax,lloc,mmax,r2well
    5.99000000000000    6.00000000000000    0.00000000000000   rchrg,fchrg,qchrg
     nproj     2     2     2
     extension_switch     1
  pspatm : epsatm=    8.71840985
         --- l  ekb(1:nproj) -->
             0    6.834532    0.579453
             1    3.282851    0.896984
             2   -3.496974   -0.974265
 pspatm: atomic psp has been read  and splines computed

   9.19716275E+03                                ecore*ucvol(ha*bohr**3)

 ==>  initialize data related to q vector <==

 The list of irreducible perturbations for this q vector is:
    1)    idir= 1    ipert=  13
    2)    idir= 2    ipert=  13
    3)    idir= 3    ipert=  13

 Perturbation wavevector (in red.coord.)   0.000000  0.000000  0.000000
 Perturbation : derivative vs k along direction   1

 dfpt_looppert : COMMENT -
  In a d/dk calculation, iscf is set to -3 automatically.
 The set of symmetries contains only one element for this perturbation.
[...]
iteration_state: {dtset: 1, }
solver: {iscf: 7, nstep: 2000, nline: 4, wfoptalg: 0, }
tolerances: {tolwfr: 1.00E-20, }
...

     iter   2DEtotal(Ha)        deltaE(Ha) residm    vres2
-ETOT  1  -34.383967935570     -3.438E+01 1.379E-02 0.000E+00
 ETOT  2  -34.409575964515     -2.561E-02 2.441E-04 0.000E+00
 ETOT  3  -34.409675678020     -9.971E-05 9.182E-07 0.000E+00
 ETOT  4  -34.409676466140     -7.881E-07 1.969E-08 0.000E+00
 ETOT  5  -34.409676474251     -8.111E-09 1.300E-10 0.000E+00
 ETOT  6  -34.409676474344     -9.268E-11 2.745E-12 0.000E+00
 ETOT  7  -34.409676474345     -1.052E-12 1.947E-14 0.000E+00
 ETOT  8  -34.409676474345     -3.553E-14 4.228E-16 0.000E+00
 ETOT  9  -34.409676474345      7.105E-15 3.222E-18 0.000E+00
 ETOT 10  -34.409676474345     -3.553E-14 6.937E-20 0.000E+00
 ETOT 11  -34.409676474345      4.263E-14 9.982E-21 0.000E+00

 At SCF step   11   max residual=  9.98E-21 < tolwfr=  1.00E-20 =>converged.

 ----iterations are completed or convergence reached----

 dfpt_looppert: DFPT cycle converged with prtwf=-1. Will skip output of the 1st-order WFK file.
 dfpt_looppert : ek2=    5.9481115272E+01
          f-sum rule ratio=    1.1345336972E+00
 prteigrs : about to open file /scratch/users/j/a/jabreu/flow_simple_11atoms/flow/w284/t1/tmpdata/tmp_1WF1_EIG
 Expectation of eigenvalue derivatives (hartree) for nkpt=   1  k points:
  (in case of degenerate eigenvalues, averaged derivative)
 kpt#   1, nband= 49, wtk=  1.00000, kpt=  0.5000  0.5000 -0.5000 (reduced coord)
   0.00000    0.00000   -0.00000   -0.00000    0.00000    0.00000    0.00000   -0.00000
   0.00000    0.00000   -0.00000    0.00000   -0.00000    0.00000   -0.00000    0.00000
  -0.00000   -0.00000    0.00000    0.00000   -0.00000   -0.00000    0.00000    0.00000
  -0.00000    0.00000    0.00000    0.00000    0.00000   -0.00000   -0.00000    0.00000
   0.00000   -0.00000    0.00000    0.00000   -0.00000    0.00000    0.00000    0.00000
   0.00000    0.00000    0.00000   -0.00000   -0.00000    0.00000    0.00000    0.00000
  -0.00494

 Eight components of 2nd-order total energy (hartree) are
 1,2,3: 0th-order hamiltonian combined with 1st-order wavefunctions
     kin0=   4.23370059E+01 eigvalue=   1.91355065E+00  local=  -2.17522351E+01
 4,5,6: 1st-order hamiltonian combined with 1st and 0th-order wfs
     kin1=  -6.74833296E+01  Hartree=   0.00000000E+00     xc=   0.00000000E+00
 7,8,9: eventually, occupation + non-local contributions
    edocc=   1.08096120E+01     enl0=   1.10174293E+00   enl1=  -1.33602333E+00
 1-9 gives the relaxation energy (to be shifted if some occ is /=2.0)
   erelax=  -3.44096765E+01
  No Ewald or frozen-wf contrib.: the relaxation energy is the total one
 2DEtotal=   -0.3440967647E+02 Ha. Also 2DEtotal=   -0.936334915042E+03 eV
    (  non-var. 2DEtotal :   -3.4409676474E+01 Ha)

 Perturbation wavevector (in red.coord.)   0.000000  0.000000  0.000000
 Perturbation : derivative vs k along direction   2
 The set of symmetries contains only one element for this perturbation.
 symkpt : not enough symmetry to change the number of k points.

[...]

 Perturbation wavevector (in red.coord.)   0.000000  0.000000  0.000000
 Perturbation : derivative vs k along direction   3
 The set of symmetries contains only one element for this perturbation.
 symkpt : not enough symmetry to change the number of k points.

 Initialisation of the first-order wave-functions :
  ireadwf=   0

--- !BeginCycle
iteration_state: {dtset: 1, }
solver: {iscf: 7, nstep: 2000, nline: 4, wfoptalg: 0, }
tolerances: {tolwfr: 1.00E-20, }
...

     iter   2DEtotal(Ha)        deltaE(Ha) residm    vres2
-ETOT  1  -56.353487511195     -5.635E+01 5.539E-02 0.000E+00
 ETOT  2  -56.391732675912     -3.825E-02 5.495E-04 0.000E+00
 ETOT  3  -56.391840304129     -1.076E-04 1.060E-05 0.000E+00
 ETOT  4  -56.391840831141     -5.270E-07 1.661E-07 0.000E+00
 ETOT  5  -56.391840834550     -3.409E-09 4.976E-09 0.000E+00
 ETOT  6  -56.391840834577     -2.607E-11 7.300E-11 0.000E+00
 ETOT  7  -56.391840834577     -1.563E-13 2.374E-12 0.000E+00
 ETOT  8  -56.391840834577      1.350E-13 3.416E-14 0.000E+00
 ETOT  9  -56.391840834577     -1.918E-13 1.173E-15 0.000E+00
 ETOT 10  -56.391840834577      2.132E-14 1.678E-17 0.000E+00
 ETOT 11  -56.391840834577     -1.421E-14 6.046E-19 0.000E+00
 ETOT 12  -56.391840834577      7.105E-15 9.052E-21 0.000E+00

 At SCF step   12   max residual=  9.05E-21 < tolwfr=  1.00E-20 =>converged.

 ----iterations are completed or convergence reached----

 dfpt_looppert: DFPT cycle converged with prtwf=-1. Will skip output of the 1st-order WFK file.
 dfpt_looppert : ek2=    9.9500517554E+01
          f-sum rule ratio=    1.1114034157E+00
 prteigrs : about to open file /scratch/users/j/a/jabreu/flow_simple_11atoms/flow/w284/t1/tmpdata/tmp_1WF1_EIG
 Expectation of eigenvalue derivatives (hartree) for nkpt=   1  k points:
  (in case of degenerate eigenvalues, averaged derivative)
 kpt#   1, nband= 49, wtk=  1.00000, kpt=  0.5000  0.5000 -0.5000 (reduced coord)
   0.00000    0.00000    0.00000   -0.00000    0.00000   -0.00000    0.00000   -0.00000
   0.00000    0.00000   -0.00000    0.00000    0.00000   -0.00000   -0.00000    0.00000
  -0.00000   -0.00000    0.00000   -0.00000   -0.00000    0.00000    0.00000    0.00000
   0.00000   -0.00000    0.00000    0.00000    0.00000    0.00000   -0.00000    0.00000
   0.00000    0.00000   -0.00000    0.00000   -0.00000    0.00000    0.00000   -0.00000
   0.00000    0.00000   -0.00000    0.00000    0.00000    0.00000   -0.00000    0.00000
  -0.00070

 Eight components of 2nd-order total energy (hartree) are
 1,2,3: 0th-order hamiltonian combined with 1st-order wavefunctions
     kin0=   6.95217023E+01 eigvalue=   3.27559823E+00  local=  -3.55643427E+01
 4,5,6: 1st-order hamiltonian combined with 1st and 0th-order wfs
     kin1=  -1.10585215E+02  Hartree=   0.00000000E+00     xc=   0.00000000E+00
 7,8,9: eventually, occupation + non-local contributions
    edocc=   1.76132323E+01     enl0=   1.54565072E+00   enl1=  -2.19846660E+00
 1-9 gives the relaxation energy (to be shifted if some occ is /=2.0)
   erelax=  -5.63918408E+01
  No Ewald or frozen-wf contrib.: the relaxation energy is the total one
 2DEtotal=   -0.5639184083E+02 Ha. Also 2DEtotal=   -0.153450002752E+04 eV
    (  non-var. 2DEtotal :   -5.6391840834E+01 Ha)

 CALCULATION OF EFFECTIVE MASSES
 NOTE : Additional infos (eff. mass eigenvalues, eigenvectors and, if degenerate, average mass) are available in stdout.

 K-point ( 0.500, 0.500,-0.500) | band =    40
 Effective mass tensor:
             -0.3460035026             -0.0201021006              0.3892359086
             -0.0201021006             -1.0622125874              0.0403484211
              0.3892359086              0.0403484211             -0.9333446013
 Effective mass tensor eigenvalues:
             -1.1503286219             -1.0391510692             -0.1520810002
 Angular average effective mass 1/(<1/m>)=  -0.3568419149
 Angular average effective mass for Frohlich model (<m**0.5>)**2=  -0.4765462340
 Effective masses along directions: (cart. coord. / red. coord. -> eff. mass)
    1:   1.000000  0.000000  0.000000 /   0.979159 -0.203096  0.000000 ->  -0.1836689962
    2:   0.000000  1.000000  0.000000 /   0.000000  1.000000  0.000000 ->  -1.0604099183
    3:   0.000000  0.000000  1.000000 /  -0.447860 -0.496468  0.743600 ->  -0.4951780676
    4:   0.577350  0.577350  0.577350 /   0.191275 -0.104824  0.975923 ->  -0.2311132965
    5:   0.000000  0.707107  0.707107 /  -0.515296  0.049767  0.855566 ->  -0.6600626784
    6:   0.707107  0.000000  0.707107 /   0.148896 -0.633004  0.759695 ->  -0.1666147384
    7:   0.707107  0.707107  0.000000 /   0.818533  0.574459  0.000000 ->  -0.3147635760

 K-point ( 0.500, 0.500,-0.500) | band =    41
 Effective mass tensor:
              0.4116906113             -0.0095888106              0.0398688907
             -0.0095888106              0.3626864408              0.0192605170
              0.0398688907              0.0192605170              0.3514980172
 Effective mass tensor eigenvalues:
              0.3206333597              0.3736942616              0.4315474479
 Angular average effective mass 1/(<1/m>)=   0.3698200360
 Angular average effective mass for Frohlich model (<m**0.5>)**2=   0.3714556557
 Effective masses along directions: (cart. coord. / red. coord. -> eff. mass)
    1:   1.000000  0.000000  0.000000 /   0.979159 -0.203096  0.000000 ->   0.4067851541
    2:   0.000000  1.000000  0.000000 /   0.000000  1.000000  0.000000 ->   0.3612906165
    3:   0.000000  0.000000  1.000000 /  -0.447860 -0.496468  0.743600 ->   0.3465125098
    4:   0.577350  0.577350  0.577350 /   0.191275 -0.104824  0.975923 ->   0.4062731994
    5:   0.000000  0.707107  0.707107 /  -0.515296  0.049767  0.855566 ->   0.3750750803
    6:   0.707107  0.000000  0.707107 /   0.148896 -0.633004  0.759695 ->   0.4186062718
    7:   0.707107  0.707107  0.000000 /   0.818533  0.574459  0.000000 ->   0.3713177529

 END OF EFFECTIVE MASSES SECTION

 ---- first-order wavefunction calculations are completed ----

 Total localisation tensor (bohr^2) in cartesian coordinates
  WARNING : still subject to testing - especially symmetries.
      direction              matrix element
   alpha     beta       real part   imaginary part
     1        1       1.8793737377    0.0000000000
     1        2      -0.3031061709    0.0000000000
     1        3      -1.0869649049    0.0000000000
     2        1      -0.3031061709    0.0000000000
     2        2       1.3286841397    0.0000000000
     2        3      -1.2222011914    0.0000000000
     3        1      -1.0869649049    0.0000000000
     3        2      -1.2222011914    0.0000000000
     3        3       6.5306520892    0.0000000000

 respfn : d/dk was computed, but no 2DTE, so no DDB output.

== END DATASET(S) ==============================================================

 -outvars: echo values of variables after computation  --------
            acell      1.0000000000E+00  1.0000000000E+00  1.0000000000E+00 Bohr
              amu      6.94100000E+00  1.96966540E+02  3.20660000E+01
             ecut      3.80000000E+01 Hartree
           etotal     -5.6391840835E+01
            fcart      0.0000000000E+00  0.0000000000E+00  0.0000000000E+00
                       0.0000000000E+00  0.0000000000E+00  0.0000000000E+00
                       0.0000000000E+00  0.0000000000E+00  0.0000000000E+00
                       0.0000000000E+00  0.0000000000E+00  0.0000000000E+00
                       0.0000000000E+00  0.0000000000E+00  0.0000000000E+00
                       0.0000000000E+00  0.0000000000E+00  0.0000000000E+00
                       0.0000000000E+00  0.0000000000E+00  0.0000000000E+00
                       0.0000000000E+00  0.0000000000E+00  0.0000000000E+00
                       0.0000000000E+00  0.0000000000E+00  0.0000000000E+00
                       0.0000000000E+00  0.0000000000E+00  0.0000000000E+00
                       0.0000000000E+00  0.0000000000E+00  0.0000000000E+00
                       0.0000000000E+00  0.0000000000E+00  0.0000000000E+00
-          fftalg         512
           irdden           1
           irdwfk           1
              ixc     -116133
              kpt      5.00000000E-01  5.00000000E-01 -5.00000000E-01
           kptopt           0
P           mkmem           1
P          mkqmem           1
P          mk1mem           1
            natom          12
            nband          49
           nbdbuf           4
            ngfft          75      75      75
             nkpt           1
            nstep        2000
             nsym           8
           ntypat           3
              occ      2.000000  2.000000  2.000000  2.000000  2.000000  2.000000
                       2.000000  2.000000  2.000000  2.000000  2.000000  2.000000
                       2.000000  2.000000  2.000000  2.000000  2.000000  2.000000
                       2.000000  2.000000  2.000000  2.000000  2.000000  2.000000
                       2.000000  2.000000  2.000000  2.000000  2.000000  2.000000
                       2.000000  2.000000  2.000000  2.000000  2.000000  2.000000
                       2.000000  2.000000  2.000000  2.000000  0.000000  0.000000
                       0.000000  0.000000  0.000000  0.000000  0.000000  0.000000
                       0.000000
        optdriver           1
            prtwf          -1
            rfdir           1       1       1
           rfelfd           2
            rprim      1.0569797118E+01  0.0000000000E+00 -7.9746953390E+00
                      -2.1923784568E+00  9.6104228920E+00 -8.8402276789E+00
                       0.0000000000E+00  0.0000000000E+00  1.3240709078E+01
          spgroup          72
           strten      0.0000000000E+00  0.0000000000E+00  0.0000000000E+00
                       0.0000000000E+00  0.0000000000E+00  0.0000000000E+00
           symrel      1  0  0   0  1  0   0  0  1      -1  0  0   0 -1  0   0  0 -1
                       0  0  1  -1 -1 -1   1  0  0       0  0 -1   1  1  1  -1  0  0
                      -1 -1 -1   0  0  1   0  1  0       1  1  1   0  0 -1   0 -1  0
                       0  1  0   1  0  0  -1 -1 -1       0 -1  0  -1  0  0   1  1  1
            tnons      0.0000000  0.0000000  0.0000000     0.0000000  0.0000000  0.0000000
                       0.0000000  0.0000000  0.0000000     0.0000000  0.0000000  0.0000000
                       0.5000000  0.0000000  0.5000000     0.5000000  0.0000000  0.5000000
                       0.5000000  0.0000000  0.5000000     0.5000000  0.0000000  0.5000000
           tolwfr      1.00000000E-20
            typat      1  1  1  1  1  1  2  2  3  3  3  3
           useylm           1
           xangst      5.1947909440E+00  1.1469744046E+00  8.3181508761E-02
                       2.0349959457E+00  3.9386423548E+00 -5.8124683938E-01
                      -7.6165192149E-01  3.9386423548E+00 -1.9745740646E+00
                       2.3981430768E+00  1.1469744046E+00 -1.3101457165E+00
                       3.6148934449E+00  2.5428083797E+00 -3.7523734000E+00
                       8.1824557765E-01  2.5428083797E+00  1.8609808441E+00
                       2.7966478672E+00  0.0000000000E+00  1.3933272253E+00
                       0.0000000000E+00  0.0000000000E+00  0.0000000000E+00
                       2.6061415849E+00  4.3047584481E+00 -5.2309753031E+00
                       4.1481069300E+00  2.8654093932E+00 -1.3192840239E+00
                       2.8503209255E-01  2.2202073662E+00 -5.7210853195E-01
                       1.8269974376E+00  7.8085831127E-01  3.3395827472E+00
            xcart      9.8167322018E+00  2.1674675061E+00  1.5719027088E-01
                       3.8455850190E+00  7.4429553859E+00 -1.0983973420E+00
                      -1.4393135402E+00  7.4429553859E+00 -3.7314042113E+00
                       4.5318336426E+00  2.1674675061E+00 -2.4758165984E+00
                       6.8311586104E+00  4.8052114460E+00 -7.0909580743E+00
                       1.5462600512E+00  4.8052114460E+00  3.5167441339E+00
                       5.2848985592E+00  0.0000000000E+00  2.6330068692E+00
                       0.0000000000E+00  0.0000000000E+00  0.0000000000E+00
                       4.9248938590E+00  8.1348145351E+00 -9.8851107307E+00
                       7.8387860676E+00  5.4148390117E+00 -2.4930854967E+00
                       5.3863259400E-01  4.1955838803E+00 -1.0811284437E+00
                       3.4525248026E+00  1.4756083569E+00  6.3108967903E+00
             xred      9.7553300000E-01  2.2553300000E-01  7.5000000000E-01
                       5.2446700000E-01  7.7446700000E-01  7.5000000000E-01
                       2.4467000000E-02  7.7446700000E-01  2.5000000000E-01
                       4.7553300000E-01  2.2553300000E-01  2.5000000000E-01
                       7.5000000000E-01  5.0000000000E-01  2.5000000000E-01
                       2.5000000000E-01  5.0000000000E-01  7.5000000000E-01
                       5.0000000000E-01  0.0000000000E+00  5.0000000000E-01
                       0.0000000000E+00  0.0000000000E+00  0.0000000000E+00
                       6.4151175000E-01  8.4645750000E-01  2.0494575000E-01
                       8.5848825000E-01  5.6343400000E-01  7.0494575000E-01
                       1.4151175000E-01  4.3656600000E-01  2.9505425000E-01
                       3.5848825000E-01  1.5354250000E-01  7.9505425000E-01
            znucl        3.00000   79.00000   16.00000

- Timing analysis has been suppressed with timopt=0

 Suggested references for the acknowledgment of ABINIT usage.

 Calculation completed.
.Delivered   2 WARNINGs and   5 COMMENTs to log file.