.Version 9.5.2 of ABINIT

 ABINIT is a project of the Universite Catholique de Louvain,
 Corning Inc. and other collaborators, see ~abinit/doc/developers/contributors.txt .
 acknowledgments of the ABINIT effort.

.Starting date : Wed 26 May 2021.
- ( at 03h02 )

- input  file    -> /scratch/users/j/a/jabreu/flow_simple_11atoms/flow/w281/t1/run.abi
- output file    -> /scratch/users/j/a/jabreu/flow_simple_11atoms/flow/w281/t1/run.abo
- root for input  files -> /scratch/users/j/a/jabreu/flow_simple_11atoms/flow/w281/t1/indata/in
- root for output files -> /scratch/users/j/a/jabreu/flow_simple_11atoms/flow/w281/t1/outdata/out

 Symmetries : space group P-6 2 m (#189); Bravais hP (primitive hexag.)
     intxc =       0      iscf =       7    lmnmax =      18     lnmax =       6
     mgfft =      90  mpssoang =       3    mqgrid =    3738     natom =      12
  nloc_mem =       1    nspden =       1   nspinor =       1    nsppol =       1
      nsym =      12    n1xccc =    2501    ntypat =       2    occopt =       1
   xclevel =       2
-    mband =          54        mffmem =           1         mkmem =           2
-   mkqmem =           2        mk1mem =           2           mpw =       24654
      nfft =      486000          nkpt =           2
  Rough estimation (10% accuracy) of disk space for files :

------------- Echo of variables that govern the present computation ------------
-
- outvars: echo of selected default values
-   iomode0 =  0 , fftalg0 =512 , wfoptalg0 =  0
-
- outvars: echo of global parameters not present in the input file
-  max_nthreads =    0
-
 -outvars: echo values of preprocessed input variables --------
            acell      1.0000000000E+00  1.0000000000E+00  1.0000000000E+00 Bohr
              amu      3.90983000E+01  3.20660000E+01
             ecut      3.60000000E+01 Hartree
-          fftalg         512
           irdden           1
           irdwfk           1
           istwfk        1    1
              ixc     -116133
              kpt      0.00000000E+00  0.00000000E+00  0.00000000E+00
                       0.00000000E+00  0.00000000E+00  5.00000000E-01
           kptopt           0
P           mkmem           2
P          mkqmem           2
P          mk1mem           2
            natom          12
            nband          54
           nbdbuf           4
            ngfft          90      90      60
             nkpt           2
            nstep        2000
             nsym          12
           ntypat           2
              occ      2.000000  2.000000  2.000000  2.000000  2.000000  2.000000
                       2.000000  2.000000  2.000000  2.000000  2.000000  2.000000
                       2.000000  2.000000  2.000000  2.000000  2.000000  2.000000
                       2.000000  2.000000  2.000000  2.000000  2.000000  2.000000
                       2.000000  2.000000  2.000000  2.000000  2.000000  2.000000
                       2.000000  2.000000  2.000000  2.000000  2.000000  2.000000
                       2.000000  2.000000  2.000000  2.000000  2.000000  2.000000
                       2.000000  2.000000  2.000000  0.000000  0.000000  0.000000
                       0.000000  0.000000  0.000000  0.000000  0.000000  0.000000
        optdriver           1
            prtwf          -1
            rfdir           1       1       1
           rfelfd           2
            rprim      1.5976947601E+01  0.0000000000E+00  0.0000000000E+00
                      -7.9884738003E+00  1.3836442497E+01  0.0000000000E+00
                       0.0000000000E+00  0.0000000000E+00  1.0804316536E+01
          spgroup         189
           symrel      1  0  0   0  1  0   0  0  1       0  1  0   1  0  0   0  0  1
                      -1 -1  0   1  0  0   0  0 -1       1  0  0  -1 -1  0   0  0 -1
                       0  1  0  -1 -1  0   0  0  1      -1 -1  0   0  1  0   0  0  1
                       1  0  0   0  1  0   0  0 -1       0  1  0   1  0  0   0  0 -1
                      -1 -1  0   1  0  0   0  0  1       1  0  0  -1 -1  0   0  0  1
                       0  1  0  -1 -1  0   0  0 -1      -1 -1  0   0  1  0   0  0 -1
           tolwfr      1.00000000E-20
            typat      1  1  1  1  1  1  2  2  2  2  2  2
           useylm           1
              wtk        0.50000    0.50000
           xangst      1.5036190615E+00  2.6043446098E+00  2.8586990325E+00
                      -2.7236992050E+00  4.7175854076E+00  2.8586990325E+00
                       5.4473984100E+00  5.4193168600E-16  2.8586990325E+00
                       2.9189125352E+00  5.0557048138E+00  6.3475869727E-16
                      -1.3084057313E+00  2.2662252035E+00  6.3475869727E-16
                       2.6168114626E+00  5.4193168600E-16  6.3475869727E-16
                      -1.7638771742E-11  4.8812866783E+00  4.6500913464E+00
                      -1.7638771742E-11  4.8812866783E+00  1.0673067186E+00
                       4.2273182665E+00  2.4406433391E+00  1.0673067186E+00
                       4.2273182665E+00  2.4406433391E+00  4.6500913464E+00
                       4.6932660719E-16  5.4193168600E-16  1.7982760612E+00
                       4.6932660719E-16  5.4193168600E-16  3.9191220038E+00
            xcart      2.8414282345E+00  4.9214980682E+00  5.4021582678E+00
                      -5.1470455658E+00  8.9149444288E+00  5.4021582678E+00
                       1.0294091132E+01  1.0241024693E-15  5.4021582678E+00
                       5.5159452974E+00  9.5538975069E+00  1.1995200983E-15
                      -2.4725285029E+00  4.2825449901E+00  1.1995200983E-15
                       4.9450570057E+00  1.0241024693E-15  1.1995200983E-15
                      -3.3332447913E-11  9.2242949980E+00  8.7873991377E+00
                      -3.3332447913E-11  9.2242949980E+00  2.0169173979E+00
                       7.9884738002E+00  4.6121474990E+00  2.0169173979E+00
                       7.9884738002E+00  4.6121474990E+00  8.7873991377E+00
                       8.8689875446E-16  1.0241024693E-15  3.3982492670E+00
                       8.8689875446E-16  1.0241024693E-15  7.4060672686E+00
             xred      3.5569100000E-01  3.5569100000E-01  5.0000000000E-01
                       9.2518585385E-17  6.4430900000E-01  5.0000000000E-01
                       6.4430900000E-01  7.4014868308E-17  5.0000000000E-01
                       6.9048800000E-01  6.9048800000E-01  1.1102230246E-16
                       9.2518585385E-17  3.0951200000E-01  1.1102230246E-16
                       3.0951200000E-01  7.4014868308E-17  1.1102230246E-16
                       3.3333333333E-01  6.6666666667E-01  8.1332300000E-01
                       3.3333333333E-01  6.6666666667E-01  1.8667700000E-01
                       6.6666666667E-01  3.3333333333E-01  1.8667700000E-01
                       6.6666666667E-01  3.3333333333E-01  8.1332300000E-01
                       9.2518585385E-17  7.4014868308E-17  3.1452700000E-01
                       9.2518585385E-17  7.4014868308E-17  6.8547300000E-01
            znucl       19.00000   16.00000

 chkinp: Checking input parameters for consistency.

== DATASET  1 ==================================================================
-   mpi_nproc: 1, omp_nthreads: -1 (-1 if OMP is not activated)

--- !DatasetInfo
iteration_state: {dtset: 1, }
dimensions: {natom: 12, nkpt: 2, mband: 54, nsppol: 1, nspinor: 1, nspden: 1, mpw: 24654, }
cutoff_energies: {ecut:  36.0, pawecutdg:  -1.0, }
electrons: {nelect:   9.00000000E+01, charge:   0.00000000E+00, occopt:   1.00000000E+00, tsmear:   1.00000000E-02, }
meta: {optdriver: 1, rfelfd: 2, }
...

 Real(R)+Recip(G) space primitive vectors, cartesian coordinates (Bohr,Bohr^-1):
 R(1)= 15.9769476  0.0000000  0.0000000  G(1)=  0.0625902  0.0361365  0.0000000
 R(2)= -7.9884738 13.8364425  0.0000000  G(2)=  0.0000000  0.0722729  0.0000000
 R(3)=  0.0000000  0.0000000 10.8043165  G(3)=  0.0000000  0.0000000  0.0925556
 Unit cell volume ucvol=  2.3884467E+03 bohr^3
 Angles (23,13,12)=  9.00000000E+01  9.00000000E+01  1.20000000E+02 degrees

 getcut: wavevector=  0.0000  0.0000  0.0000  ngfft=  90  90  60
         ecut(hartree)=     36.000   => boxcut(ratio)=   2.05607

--- Pseudopotential description ------------------------------------------------
- pspini: atom type   1  psp file is /scratch/users/j/a/jabreu/pseudos/PBEsol/K.psp8
- pspatm: opening atomic psp file    /scratch/users/j/a/jabreu/pseudos/PBEsol/K.psp8
- K     ONCVPSP-3.3.0  r_core=   1.36296   1.46408   1.61068
- 19.00000   9.00000    180112                znucl, zion, pspdat
    8 -116133    2    4       400   0.00000   pspcod,pspxc,lmax,lloc,mmax,r2well
    3.99000000000000    5.00000000000000    0.00000000000000   rchrg,fchrg,qchrg
     nproj     2     2     2
     extension_switch     1
  pspatm : epsatm=    8.32487830
         --- l  ekb(1:nproj) -->
             0   10.921326    0.816676
             1    4.431000    0.560368
             2   -3.384038   -1.043186
 pspatm: atomic psp has been read  and splines computed

- pspini: atom type   2  psp file is /scratch/users/j/a/jabreu/pseudos/PBEsol/S.psp8
- pspatm: opening atomic psp file    /scratch/users/j/a/jabreu/pseudos/PBEsol/S.psp8
- S     ONCVPSP-3.3.0  r_core=   1.45376   1.45376   1.61851
- 16.00000   6.00000    180112                znucl, zion, pspdat
    8 -116133    2    4       600   0.00000   pspcod,pspxc,lmax,lloc,mmax,r2well
    5.99000000000000    6.00000000000000    0.00000000000000   rchrg,fchrg,qchrg
     nproj     2     2     2
     extension_switch     1
  pspatm : epsatm=    8.71840985
         --- l  ekb(1:nproj) -->
             0    6.834532    0.579453
             1    3.282851    0.896984
             2   -3.496974   -0.974265
 pspatm: atomic psp has been read  and splines computed

   9.20337560E+03                                ecore*ucvol(ha*bohr**3)

 ==>  initialize data related to q vector <==

 The list of irreducible perturbations for this q vector is:
    1)    idir= 1    ipert=  13
    2)    idir= 2    ipert=  13
    3)    idir= 3    ipert=  13

 Perturbation wavevector (in red.coord.)   0.000000  0.000000  0.000000
 Perturbation : derivative vs k along direction   1

 dfpt_looppert : COMMENT -
  In a d/dk calculation, iscf is set to -3 automatically.
 The set of symmetries contains only one element for this perturbation.
 symkpt : not enough symmetry to change the number of k points.

 Initialisation of the first-order wave-functions :
  ireadwf=   0

--- !BeginCycle
iteration_state: {dtset: 1, }
solver: {iscf: 7, nstep: 2000, nline: 4, wfoptalg: 0, }
tolerances: {tolwfr: 1.00E-20, }
...

     iter   2DEtotal(Ha)        deltaE(Ha) residm    vres2
-ETOT  1  -16.951434265104     -1.695E+01 1.867E-02 0.000E+00
 ETOT  2  -17.027140320482     -7.571E-02 1.986E-03 0.000E+00
 ETOT  3  -17.028124479718     -9.842E-04 1.336E-04 0.000E+00
 ETOT  4  -17.028142234676     -1.775E-05 1.774E-05 0.000E+00
 ETOT  5  -17.028142617295     -3.826E-07 1.815E-06 0.000E+00
 ETOT  6  -17.028142626191     -8.895E-09 2.838E-07 0.000E+00
 ETOT  7  -17.028142626410     -2.187E-10 3.081E-08 0.000E+00
[...]
 1-9 gives the relaxation energy (to be shifted if some occ is /=2.0)
   erelax=  -1.70281426E+01
  No Ewald or frozen-wf contrib.: the relaxation energy is the total one
 2DEtotal=   -0.1702814263E+02 Ha. Also 2DEtotal=   -0.463359325430E+03 eV
    (  non-var. 2DEtotal :   -1.7028142626E+01 Ha)

 Perturbation wavevector (in red.coord.)   0.000000  0.000000  0.000000
 Perturbation : derivative vs k along direction   2
 The set of symmetries contains only one element for this perturbation.
 symkpt : not enough symmetry to change the number of k points.

[...]

 Perturbation wavevector (in red.coord.)   0.000000  0.000000  0.000000
 Perturbation : derivative vs k along direction   3
 The set of symmetries contains only one element for this perturbation.
 symkpt : not enough symmetry to change the number of k points.

 Initialisation of the first-order wave-functions :
  ireadwf=   0

--- !BeginCycle
iteration_state: {dtset: 1, }
solver: {iscf: 7, nstep: 2000, nline: 4, wfoptalg: 0, }
tolerances: {tolwfr: 1.00E-20, }
...

     iter   2DEtotal(Ha)        deltaE(Ha) residm    vres2
-ETOT  1  -28.859751533255     -2.886E+01 3.767E-02 0.000E+00
 ETOT  2  -28.942171164668     -8.242E-02 1.608E-03 0.000E+00
 ETOT  3  -28.942872254915     -7.011E-04 3.061E-04 0.000E+00
 ETOT  4  -28.942880502182     -8.247E-06 1.048E-05 0.000E+00
 ETOT  5  -28.942880619253     -1.171E-07 2.254E-06 0.000E+00
 ETOT  6  -28.942880621435     -2.182E-09 7.720E-08 0.000E+00
 ETOT  7  -28.942880621494     -5.892E-11 1.762E-08 0.000E+00
 ETOT  8  -28.942880621496     -1.997E-12 6.306E-10 0.000E+00
 ETOT  9  -28.942880621496     -9.592E-14 1.464E-10 0.000E+00
 ETOT 10  -28.942880621496     -1.776E-14 5.535E-12 0.000E+00
 ETOT 11  -28.942880621496      3.197E-14 1.275E-12 0.000E+00
 ETOT 12  -28.942880621496      0.000E+00 5.145E-14 0.000E+00
 ETOT 13  -28.942880621496      2.487E-14 1.165E-14 0.000E+00
 ETOT 14  -28.942880621496     -7.105E-15 5.063E-16 0.000E+00
 ETOT 15  -28.942880621496     -3.553E-15 1.123E-16 0.000E+00
 ETOT 16  -28.942880621496     -3.553E-15 5.281E-18 0.000E+00
 ETOT 17  -28.942880621496      0.000E+00 1.150E-18 0.000E+00
 ETOT 18  -28.942880621496      1.066E-14 5.818E-20 0.000E+00
 ETOT 19  -28.942880621496      0.000E+00 1.252E-20 0.000E+00
 ETOT 20  -28.942880621496      0.000E+00 9.846E-21 0.000E+00

 At SCF step   20   max residual=  9.85E-21 < tolwfr=  1.00E-20 =>converged.

 ----iterations are completed or convergence reached----

 dfpt_looppert: DFPT cycle converged with prtwf=-1. Will skip output of the 1st-order WFK file.
 dfpt_looppert : ek2=    6.0874813437E+01
          f-sum rule ratio=    1.0425394638E+00
 prteigrs : about to open file /scratch/users/j/a/jabreu/flow_simple_11atoms/flow/w281/t1/tmpdata/tmp_1WF1_EIG
 Expectation of eigenvalue derivatives (hartree) for nkpt=   2  k points:
  (in case of degenerate eigenvalues, averaged derivative)
 kpt#   1, nband= 54, wtk=  0.50000, kpt=  0.0000  0.0000  0.0000 (reduced coord)
   0.00000    0.00000    0.00000   -0.00000    0.00000    0.00000    0.00000    0.00000
  -0.00000   -0.00000    0.00000    0.00000   -0.00000   -0.00000    0.00000    0.00000
  -0.00000   -0.00000   -0.00000   -0.00000    0.00000    0.00000   -0.00000   -0.00000
  -0.00000    0.00000    0.00000   -0.00000   -0.00000    0.00000    0.00000   -0.00000
  -0.00000    0.00000    0.00000    0.00000    0.00000   -0.00000   -0.00000    0.00000
   0.00000    0.00000    0.00000    0.00000    0.00000    0.00000   -0.00000   -0.00000
  -0.00000   -0.00000   -0.00000   -0.00000   -0.00000   -0.00000
 prteigrs : prtvol=0 or 1, do not print more k-points.

 Eight components of 2nd-order total energy (hartree) are
 1,2,3: 0th-order hamiltonian combined with 1st-order wavefunctions
     kin0=   4.45277891E+01 eigvalue=   3.47631514E+00  local=  -2.80837494E+01
 4,5,6: 1st-order hamiltonian combined with 1st and 0th-order wfs
     kin1=  -6.34643954E+01  Hartree=   0.00000000E+00     xc=   0.00000000E+00
 7,8,9: eventually, occupation + non-local contributions
    edocc=   7.31428546E+00     enl0=   1.70824033E+00   enl1=   5.57863411E+00
 1-9 gives the relaxation energy (to be shifted if some occ is /=2.0)
   erelax=  -2.89428806E+01
  No Ewald or frozen-wf contrib.: the relaxation energy is the total one
 2DEtotal=   -0.2894288062E+02 Ha. Also 2DEtotal=   -0.787575834606E+03 eV
    (  non-var. 2DEtotal :   -2.8942880621E+01 Ha)

 CALCULATION OF EFFECTIVE MASSES
 NOTE : Additional infos (eff. mass eigenvalues, eigenvectors and, if degenerate, average mass) are available in stdout.

 COMMENTS:
 - At k-point ( 0.000, 0.000, 0.000), bands    44 through    45
   are DEGENERATE (effective mass tensor is therefore not defined).
   See Section IIIB Eqs. (67)-(70) and Appendix E of PRB 93 205147 (2016).
 - Angular average effective mass for Frohlich model is to be averaged over degenerate bands. See later.
 - Associated theta integrals calculated with ntheta=   1000 points.

 K-point ( 0.000, 0.000, 0.000) | band =    44
 Transport equivalent effective mass tensor:
             -2.8072041376              0.0000000013             -0.0000000010
              0.0000000013             -2.8072041375              0.0000000004
             -0.0000000010              0.0000000004             -0.9603371883
 Transport equivalent effective mass tensor eigenvalues:
             -2.8072041388             -2.8072041363             -0.9603371883
 Angular average effective mass 1/(<1/m>)=  -1.7106166246
 Angular average effective mass for Frohlich model (<m**0.5>)**2=  -1.8647784464
 Effective masses along directions: (cart. coord. / red. coord. -> eff. mass)
    1:   1.000000  0.000000  0.000000 /   0.894427 -0.447214  0.000000 ->  -2.8072041377
    2:   0.000000  1.000000  0.000000 /   0.000000  1.000000  0.000000 ->  -2.8072041377
    3:   0.000000  0.000000  1.000000 /   0.000000  0.000000  1.000000 ->  -0.9603371882
    4:   0.577350  0.577350  0.577350 /   0.792732  0.290160  0.536081 ->  -1.7106166247
    5:   0.000000  0.707107  0.707107 /   0.000000  0.788174  0.615453 ->  -1.4310991146
    6:   0.707107  0.000000  0.707107 /   0.765322 -0.382661  0.517545 ->  -1.4310991158
    7:   0.707107  0.707107  0.000000 /   0.939071  0.343724  0.000000 ->  -2.8072041361

 K-point ( 0.000, 0.000, 0.000) | band =    45
 Transport equivalent effective mass tensor:
             -2.9688708828              0.0000000000              0.0000000000
              0.0000000000             -2.9688708829              0.0000000003
              0.0000000000              0.0000000003             -0.9603371883
 Transport equivalent effective mass tensor eigenvalues:
             -2.9688708829             -2.9688708828             -0.9603371883
 Angular average effective mass 1/(<1/m>)=  -1.7493142807
 Angular average effective mass for Frohlich model (<m**0.5>)**2=  -1.9250745856
 Effective masses along directions: (cart. coord. / red. coord. -> eff. mass)
    1:   1.000000  0.000000  0.000000 /   0.894427 -0.447214  0.000000 ->  -2.9688708827
    2:   0.000000  1.000000  0.000000 /   0.000000  1.000000  0.000000 ->  -2.9688708827
    3:   0.000000  0.000000  1.000000 /   0.000000  0.000000  1.000000 ->  -0.9603371884
    4:   0.577350  0.577350  0.577350 /   0.792732  0.290160  0.536081 ->  -1.7493142805
    5:   0.000000  0.707107  0.707107 /   0.000000  0.788174  0.615453 ->  -1.4512426241
    6:   0.707107  0.000000  0.707107 /   0.765322 -0.382661  0.517545 ->  -1.4512426241
    7:   0.707107  0.707107  0.000000 /   0.939071  0.343724  0.000000 ->  -2.9688708831

 Angular average effective mass for Frohlich model, averaged over degenerate bands.
 Value of     (<<m**0.5>>)**2 =     1.894807E+00
 Absolute Value of <<m**0.5>> =     1.376520E+00

 K-point ( 0.000, 0.000, 0.500) | band =    46
 Effective mass tensor:
              1.5844764433              0.0000000000             -0.0000000000
              0.0000000000              1.5844764433             -0.0000000000
             -0.0000000000             -0.0000000000              0.2009321102
 Effective mass tensor eigenvalues:
              0.2009321102              1.5844764433              1.5844764433
 Angular average effective mass 1/(<1/m>)=   0.4808422861
 Angular average effective mass for Frohlich model (<m**0.5>)**2=   0.6590495126
 Effective masses along directions: (cart. coord. / red. coord. -> eff. mass)
    1:   1.000000  0.000000  0.000000 /   0.894427 -0.447214  0.000000 ->   1.5844764433
    2:   0.000000  1.000000  0.000000 /   0.000000  1.000000  0.000000 ->   1.5844764433
    3:   0.000000  0.000000  1.000000 /   0.000000  0.000000  1.000000 ->   0.2009321102
    4:   0.577350  0.577350  0.577350 /   0.792732  0.290160  0.536081 ->   0.4808422861
    5:   0.000000  0.707107  0.707107 /   0.000000  0.788174  0.615453 ->   0.3566379187
    6:   0.707107  0.000000  0.707107 /   0.765322 -0.382661  0.517545 ->   0.3566379187
    7:   0.707107  0.707107  0.000000 /   0.939071  0.343724  0.000000 ->   1.5844764433

 END OF EFFECTIVE MASSES SECTION

 ---- first-order wavefunction calculations are completed ----

 Total localisation tensor (bohr^2) in cartesian coordinates
  WARNING : still subject to testing - especially symmetries.
      direction              matrix element
   alpha     beta       real part   imaginary part
     1        1       1.5124988899    0.0000000000
     1        2      -0.5239449847    0.0000000000
     1        3       0.0000000000    0.0000000000
     2        1      -0.5239449847    0.0000000000
     2        2       0.9074993338    0.0000000000
     2        3       0.0000000000    0.0000000000
     3        1       0.0000000000    0.0000000000
     3        2       0.0000000000    0.0000000000
     3        3       1.2099737733    0.0000000000

 respfn : d/dk was computed, but no 2DTE, so no DDB output.

== END DATASET(S) ==============================================================

 -outvars: echo values of variables after computation  --------
            acell      1.0000000000E+00  1.0000000000E+00  1.0000000000E+00 Bohr
              amu      3.90983000E+01  3.20660000E+01
             ecut      3.60000000E+01 Hartree
           etotal     -2.8942880621E+01
            fcart      0.0000000000E+00  0.0000000000E+00  0.0000000000E+00
                       0.0000000000E+00  0.0000000000E+00  0.0000000000E+00
                       0.0000000000E+00  0.0000000000E+00  0.0000000000E+00
                       0.0000000000E+00  0.0000000000E+00  0.0000000000E+00
                       0.0000000000E+00  0.0000000000E+00  0.0000000000E+00
                       0.0000000000E+00  0.0000000000E+00  0.0000000000E+00
                       0.0000000000E+00  0.0000000000E+00  0.0000000000E+00
                       0.0000000000E+00  0.0000000000E+00  0.0000000000E+00
                       0.0000000000E+00  0.0000000000E+00  0.0000000000E+00
                       0.0000000000E+00  0.0000000000E+00  0.0000000000E+00
                       0.0000000000E+00  0.0000000000E+00  0.0000000000E+00
                       0.0000000000E+00  0.0000000000E+00  0.0000000000E+00
-          fftalg         512
           irdden           1
           irdwfk           1
           istwfk        1    1
              ixc     -116133
              kpt      0.00000000E+00  0.00000000E+00  0.00000000E+00
                       0.00000000E+00  0.00000000E+00  5.00000000E-01
           kptopt           0
P           mkmem           2
P          mkqmem           2
P          mk1mem           2
            natom          12
            nband          54
           nbdbuf           4
            ngfft          90      90      60
             nkpt           2
            nstep        2000
             nsym          12
           ntypat           2
              occ      2.000000  2.000000  2.000000  2.000000  2.000000  2.000000
                       2.000000  2.000000  2.000000  2.000000  2.000000  2.000000
                       2.000000  2.000000  2.000000  2.000000  2.000000  2.000000
                       2.000000  2.000000  2.000000  2.000000  2.000000  2.000000
                       2.000000  2.000000  2.000000  2.000000  2.000000  2.000000
                       2.000000  2.000000  2.000000  2.000000  2.000000  2.000000
                       2.000000  2.000000  2.000000  2.000000  2.000000  2.000000
                       2.000000  2.000000  2.000000  0.000000  0.000000  0.000000
                       0.000000  0.000000  0.000000  0.000000  0.000000  0.000000
        optdriver           1
            prtwf          -1
            rfdir           1       1       1
           rfelfd           2
            rprim      1.5976947601E+01  0.0000000000E+00  0.0000000000E+00
                      -7.9884738003E+00  1.3836442497E+01  0.0000000000E+00
                       0.0000000000E+00  0.0000000000E+00  1.0804316536E+01
          spgroup         189
           strten      0.0000000000E+00  0.0000000000E+00  0.0000000000E+00
                       0.0000000000E+00  0.0000000000E+00  0.0000000000E+00
           symrel      1  0  0   0  1  0   0  0  1       0  1  0   1  0  0   0  0  1
                      -1 -1  0   1  0  0   0  0 -1       1  0  0  -1 -1  0   0  0 -1
                       0  1  0  -1 -1  0   0  0  1      -1 -1  0   0  1  0   0  0  1
                       1  0  0   0  1  0   0  0 -1       0  1  0   1  0  0   0  0 -1
                      -1 -1  0   1  0  0   0  0  1       1  0  0  -1 -1  0   0  0  1
                       0  1  0  -1 -1  0   0  0 -1      -1 -1  0   0  1  0   0  0 -1
           tolwfr      1.00000000E-20
            typat      1  1  1  1  1  1  2  2  2  2  2  2
           useylm           1
              wtk        0.50000    0.50000
           xangst      1.5036190615E+00  2.6043446098E+00  2.8586990325E+00
                      -2.7236992050E+00  4.7175854076E+00  2.8586990325E+00
                       5.4473984100E+00  5.4193168600E-16  2.8586990325E+00
                       2.9189125352E+00  5.0557048138E+00  6.3475869727E-16
                      -1.3084057313E+00  2.2662252035E+00  6.3475869727E-16
                       2.6168114626E+00  5.4193168600E-16  6.3475869727E-16
                      -1.7638771742E-11  4.8812866783E+00  4.6500913464E+00
                      -1.7638771742E-11  4.8812866783E+00  1.0673067186E+00
                       4.2273182665E+00  2.4406433391E+00  1.0673067186E+00
                       4.2273182665E+00  2.4406433391E+00  4.6500913464E+00
                       4.6932660719E-16  5.4193168600E-16  1.7982760612E+00
                       4.6932660719E-16  5.4193168600E-16  3.9191220038E+00
            xcart      2.8414282345E+00  4.9214980682E+00  5.4021582678E+00
                      -5.1470455658E+00  8.9149444288E+00  5.4021582678E+00
                       1.0294091132E+01  1.0241024693E-15  5.4021582678E+00
                       5.5159452974E+00  9.5538975069E+00  1.1995200983E-15
                      -2.4725285029E+00  4.2825449901E+00  1.1995200983E-15
                       4.9450570057E+00  1.0241024693E-15  1.1995200983E-15
                      -3.3332447913E-11  9.2242949980E+00  8.7873991377E+00
                      -3.3332447913E-11  9.2242949980E+00  2.0169173979E+00
                       7.9884738002E+00  4.6121474990E+00  2.0169173979E+00
                       7.9884738002E+00  4.6121474990E+00  8.7873991377E+00
                       8.8689875446E-16  1.0241024693E-15  3.3982492670E+00
                       8.8689875446E-16  1.0241024693E-15  7.4060672686E+00
             xred      3.5569100000E-01  3.5569100000E-01  5.0000000000E-01
                       9.2518585385E-17  6.4430900000E-01  5.0000000000E-01
                       6.4430900000E-01  7.4014868308E-17  5.0000000000E-01
                       6.9048800000E-01  6.9048800000E-01  1.1102230246E-16
                       9.2518585385E-17  3.0951200000E-01  1.1102230246E-16
                       3.0951200000E-01  7.4014868308E-17  1.1102230246E-16
                       3.3333333333E-01  6.6666666667E-01  8.1332300000E-01
                       3.3333333333E-01  6.6666666667E-01  1.8667700000E-01
                       6.6666666667E-01  3.3333333333E-01  1.8667700000E-01
                       6.6666666667E-01  3.3333333333E-01  8.1332300000E-01
                       9.2518585385E-17  7.4014868308E-17  3.1452700000E-01
                       9.2518585385E-17  7.4014868308E-17  6.8547300000E-01
            znucl       19.00000   16.00000

- Timing analysis has been suppressed with timopt=0

 Suggested references for the acknowledgment of ABINIT usage.

 Calculation completed.
.Delivered   2 WARNINGs and   5 COMMENTs to log file.