.Version 9.5.2 of ABINIT

 ABINIT is a project of the Universite Catholique de Louvain,
 Corning Inc. and other collaborators, see ~abinit/doc/developers/contributors.txt .
 acknowledgments of the ABINIT effort.

.Starting date : Tue  1 Jun 2021.
- ( at 20h04 )

- input  file    -> /scratch/users/j/a/jabreu/flow_simple_11atoms/flow/w410/t1/run.abi
- output file    -> /scratch/users/j/a/jabreu/flow_simple_11atoms/flow/w410/t1/run.abo
- root for input  files -> /scratch/users/j/a/jabreu/flow_simple_11atoms/flow/w410/t1/indata/in
- root for output files -> /scratch/users/j/a/jabreu/flow_simple_11atoms/flow/w410/t1/outdata/out

 Symmetries : space group C2/m (# 12); Bravais mC (1-face-center monocl.)
     intxc =       0      iscf =       7    lmnmax =      18     lnmax =       6
     mgfft =     100  mpssoang =       3    mqgrid =    4487     natom =      12
  nloc_mem =       1    nspden =       1   nspinor =       1    nsppol =       1
      nsym =       4    n1xccc =    2501    ntypat =       3    occopt =       1
   xclevel =       2
-    mband =          87        mffmem =           1         mkmem =           2
-   mkqmem =           2        mk1mem =           2           mpw =       21609
      nfft =      810000          nkpt =           2
  Rough estimation (10% accuracy) of disk space for files :

------------- Echo of variables that govern the present computation ------------
-
- outvars: echo of selected default values
-   iomode0 =  0 , fftalg0 =512 , wfoptalg0 =  0
-
- outvars: echo of global parameters not present in the input file
-  max_nthreads =    0
-
 -outvars: echo values of preprocessed input variables --------
            acell      1.0000000000E+00  1.0000000000E+00  1.0000000000E+00 Bohr
              amu      8.54678000E+01  6.35460000E+01  3.20660000E+01
             ecut      4.60000000E+01 Hartree
-          fftalg         512
           irdden           1
           irdwfk           1
           istwfk        1    1
              ixc     -116133
              kpt      5.00000000E-01  5.00000000E-01  5.00000000E-01
                       0.00000000E+00  0.00000000E+00  0.00000000E+00
           kptopt           0
P           mkmem           2
P          mkqmem           2
P          mk1mem           2
            natom          12
            nband          87
           nbdbuf           4
            ngfft          90      90     100
             nkpt           2
            nstep        2000
             nsym           4
           ntypat           3
              occ      2.000000  2.000000  2.000000  2.000000  2.000000  2.000000
                       2.000000  2.000000  2.000000  2.000000  2.000000  2.000000
                       2.000000  2.000000  2.000000  2.000000  2.000000  2.000000
                       2.000000  2.000000  2.000000  2.000000  2.000000  2.000000
                       2.000000  2.000000  2.000000  2.000000  2.000000  2.000000
                       2.000000  2.000000  2.000000  2.000000  2.000000  2.000000
                       2.000000  2.000000  2.000000  2.000000  2.000000  2.000000
                       2.000000  2.000000  2.000000  2.000000  2.000000  2.000000
                       2.000000  2.000000  2.000000  2.000000  2.000000  2.000000
                       2.000000  2.000000  2.000000  2.000000  2.000000  2.000000
                       2.000000  2.000000  2.000000  2.000000  2.000000  2.000000
                       2.000000  2.000000  2.000000  2.000000  2.000000  2.000000
                       2.000000  2.000000  2.000000  2.000000  2.000000  2.000000
                       0.000000  0.000000  0.000000  0.000000  0.000000  0.000000
                       0.000000  0.000000  0.000000
        optdriver           1
            prtwf          -1
            rfdir           1       1       1
           rfelfd           2
            rprim      1.3125707269E+01  0.0000000000E+00  5.0786603806E+00
                       1.1120018810E+01  6.9734763921E+00  5.0786603806E+00
                       0.0000000000E+00  0.0000000000E+00  1.5842477619E+01
          spgroup          12
           symrel      1  0  0   0  1  0   0  0  1      -1  0  0   0 -1  0   0  0 -1
                       0 -1  0  -1  0  0   0  0 -1       0  1  0   1  0  0   0  0  1
           tolwfr      1.00000000E-20
            typat      1  1  2  2  2  2  2  2  3  3  3  3
           useylm           1
              wtk        0.50000    0.50000
           xangst      1.7516034268E+00  5.0379044559E-01  8.7401507886E+00
                       1.1078682220E+01  3.1864143258E+00  5.0183499419E+00
                       7.5814799400E+00  2.1805604504E+00  6.2552115878E+00
                       8.8463408202E+00  2.5443555976E+00  8.5141448743E+00
                       1.2035629075E+01  3.4616482486E+00  8.4748225640E+00
                       7.9465657181E-01  2.2855652272E-01  5.2836781665E+00
                       3.9839448264E+00  1.1458491738E+00  5.2443558563E+00
                       5.2488057066E+00  1.5096443209E+00  7.5032891427E+00
                       2.4372667220E+00  7.0099867877E-01  3.7245540644E+00
                       1.0393018925E+01  2.9892060926E+00  1.0033946666E+01
                       6.1013396970E+00  1.7548473574E+00  4.6072010684E+00
                       6.7289459497E+00  1.9353574140E+00  9.1512996621E+00
            xcart      3.3100507700E+00  9.5202597053E-01  1.6516491351E+01
                       2.0935675309E+01  6.0214504216E+00  9.4833070292E+00
                       1.4326920769E+01  4.1206620675E+00  1.1820636804E+01
                       1.6717161428E+01  4.8081352641E+00  1.6089402068E+01
                       2.2744042788E+01  6.5415671583E+00  1.6015093671E+01
                       1.5016832904E+00  4.3190923382E-01  9.9847047091E+00
                       7.5285646505E+00  2.1653411280E+00  9.9103963118E+00
                       9.9188053102E+00  2.8528143246E+00  1.4179161576E+01
                       4.6057666174E+00  1.3246955224E+00  7.0383871489E+00
                       1.9639959461E+01  5.6487808697E+00  1.8961411231E+01
                       1.1529861071E+01  3.3161809105E+00  8.7063482585E+00
                       1.2715865008E+01  3.6572954816E+00  1.7293450121E+01
             xred      1.3652100000E-01  1.3652100000E-01  9.5501500000E-01
                       8.6347900000E-01  8.6347900000E-01  4.4985000000E-02
                       5.9090500000E-01  5.9090500000E-01  3.6728000000E-01
                       6.8948900000E-01  6.8948900000E-01  5.7352400000E-01
                       9.3806400000E-01  9.3806400000E-01  4.0946100000E-01
                       6.1936000000E-02  6.1936000000E-02  5.9053900000E-01
                       3.1051100000E-01  3.1051100000E-01  4.2647600000E-01
                       4.0909500000E-01  4.0909500000E-01  6.3272000000E-01
                       1.8996200000E-01  1.8996200000E-01  3.2248000000E-01
                       8.1003800000E-01  8.1003800000E-01  6.7752000000E-01
                       4.7554200000E-01  4.7554200000E-01  2.4466600000E-01
                       5.2445800000E-01  5.2445800000E-01  7.5533400000E-01
            znucl       37.00000   29.00000   16.00000

 chkinp: Checking input parameters for consistency.

== DATASET  1 ==================================================================
-   mpi_nproc: 1, omp_nthreads: -1 (-1 if OMP is not activated)

--- !DatasetInfo
iteration_state: {dtset: 1, }
dimensions: {natom: 12, nkpt: 2, mband: 87, nsppol: 1, nspinor: 1, nspden: 1, mpw: 21609, }
cutoff_energies: {ecut:  46.0, pawecutdg:  -1.0, }
electrons: {nelect:   1.56000000E+02, charge:   0.00000000E+00, occopt:   1.00000000E+00, tsmear:   1.00000000E-02, }
meta: {optdriver: 1, rfelfd: 2, }
...

 Real(R)+Recip(G) space primitive vectors, cartesian coordinates (Bohr,Bohr^-1):
 R(1)= 13.1257073  0.0000000  5.0786604  G(1)=  0.0761864 -0.1214880  0.0000000
 R(2)= 11.1200188  6.9734764  5.0786604  G(2)=  0.0000000  0.1434005  0.0000000
 R(3)=  0.0000000  0.0000000 15.8424776  G(3)= -0.0244232 -0.0070245  0.0631214
 Unit cell volume ucvol=  1.4500906E+03 bohr^3
 Angles (23,13,12)=  6.88473149E+01  6.88473149E+01  2.98775875E+01 degrees

 getcut: wavevector=  0.0000  0.0000  0.0000  ngfft=  90  90 100
         ecut(hartree)=     46.000   => boxcut(ratio)=   2.06744

--- Pseudopotential description ------------------------------------------------
- pspini: atom type   1  psp file is /scratch/users/j/a/jabreu/pseudos/PBEsol/Rb.psp8
- pspatm: opening atomic psp file    /scratch/users/j/a/jabreu/pseudos/PBEsol/Rb.psp8
- Rb    ONCVPSP-3.3.0  r_core=   1.71227   1.75361   1.90633
- 37.00000   9.00000    180112                znucl, zion, pspdat
    8 -116133    2    4       600   0.00000   pspcod,pspxc,lmax,lloc,mmax,r2well
    5.99000000000000    7.00000000000000    0.00000000000000   rchrg,fchrg,qchrg
     nproj     2     2     2
     extension_switch     1
  pspatm : epsatm=   34.48400912
         --- l  ekb(1:nproj) -->
             0    8.196957   -0.477221
             1    3.231347   -0.378736
             2   -1.047201    0.996637
 pspatm: atomic psp has been read  and splines computed

- pspini: atom type   2  psp file is /scratch/users/j/a/jabreu/pseudos/PBEsol/Cu.psp8
- pspatm: opening atomic psp file    /scratch/users/j/a/jabreu/pseudos/PBEsol/Cu.psp8
- Cu    ONCVPSP-3.3.0  r_core=   1.26204   1.45626   1.76249
- 29.00000  19.00000    180112                znucl, zion, pspdat
    8 -116133    2    4       600   0.00000   pspcod,pspxc,lmax,lloc,mmax,r2well
    5.99000000000000    3.50000000000000    0.00000000000000   rchrg,fchrg,qchrg
     nproj     2     2     2
     extension_switch     1
  pspatm : epsatm=   21.63488701
         --- l  ekb(1:nproj) -->
             0    5.008230   -0.401634
             1   -3.496700   -0.765945
             2   -6.895851   -2.521180
 pspatm: atomic psp has been read  and splines computed

- pspini: atom type   3  psp file is /scratch/users/j/a/jabreu/pseudos/PBEsol/S.psp8
- pspatm: opening atomic psp file    /scratch/users/j/a/jabreu/pseudos/PBEsol/S.psp8
- S     ONCVPSP-3.3.0  r_core=   1.45376   1.45376   1.61851
- 16.00000   6.00000    180112                znucl, zion, pspdat
    8 -116133    2    4       600   0.00000   pspcod,pspxc,lmax,lloc,mmax,r2well
    5.99000000000000    6.00000000000000    0.00000000000000   rchrg,fchrg,qchrg
     nproj     2     2     2
     extension_switch     1
  pspatm : epsatm=    8.71840985
         --- l  ekb(1:nproj) -->
             0    6.834532    0.579453
             1    3.282851    0.896984
             2   -3.496974   -0.974265
 pspatm: atomic psp has been read  and splines computed

   3.64495528E+04                                ecore*ucvol(ha*bohr**3)

 ==>  initialize data related to q vector <==

 The list of irreducible perturbations for this q vector is:
    1)    idir= 1    ipert=  13
    2)    idir= 2    ipert=  13
    3)    idir= 3    ipert=  13

 Perturbation wavevector (in red.coord.)   0.000000  0.000000  0.000000
 Perturbation : derivative vs k along direction   1

 dfpt_looppert : COMMENT -
[...]
   0.00000   -0.00000   -0.00000   -0.00000   -0.00000    0.00000   -0.00000   -0.00000
  -0.00000   -0.00000    0.00000    0.00000   -0.00000    0.00000    0.00000    0.00000
  -0.00000    0.00000   -0.00000   -0.00000    0.00000    0.00000   -0.00000    0.00000
   0.00000   -0.00000    0.00000   -0.00000   -0.00000    0.00000    0.00000   -0.00000
   0.00000    0.00000   -0.00000   -0.00000   -0.00000   -0.00001   -0.00150
 prteigrs : prtvol=0 or 1, do not print more k-points.

 Eight components of 2nd-order total energy (hartree) are
 1,2,3: 0th-order hamiltonian combined with 1st-order wavefunctions
     kin0=   2.61006408E+02 eigvalue=  -7.88331859E+00  local=  -1.10543123E+02
 4,5,6: 1st-order hamiltonian combined with 1st and 0th-order wfs
     kin1=  -3.07830369E+02  Hartree=   0.00000000E+00     xc=   0.00000000E+00
 7,8,9: eventually, occupation + non-local contributions
    edocc=   3.80425144E+01     enl0=  -1.55661621E+01   enl1=  -2.22822674E+01
 1-9 gives the relaxation energy (to be shifted if some occ is /=2.0)
   erelax=  -1.65056318E+02
  No Ewald or frozen-wf contrib.: the relaxation energy is the total one
 2DEtotal=   -0.1650563183E+03 Ha. Also 2DEtotal=   -0.449141083580E+04 eV
    (  non-var. 2DEtotal :   -1.6505631830E+02 Ha)

 Perturbation wavevector (in red.coord.)   0.000000  0.000000  0.000000
 Perturbation : derivative vs k along direction   2
 The set of symmetries contains only one element for this perturbation.
 symkpt : not enough symmetry to change the number of k points.

[...]

 Perturbation wavevector (in red.coord.)   0.000000  0.000000  0.000000
 Perturbation : derivative vs k along direction   3
 The set of symmetries contains only one element for this perturbation.
 symkpt : not enough symmetry to change the number of k points.

 Initialisation of the first-order wave-functions :
  ireadwf=   0

--- !BeginCycle
iteration_state: {dtset: 1, }
solver: {iscf: 7, nstep: 2000, nline: 4, wfoptalg: 0, }
tolerances: {tolwfr: 1.00E-20, }
...

     iter   2DEtotal(Ha)        deltaE(Ha) residm    vres2
-ETOT  1  -32.320631947415     -3.232E+01 9.916E-02 0.000E+00
 ETOT  2  -32.636190821786     -3.156E-01 6.003E-03 0.000E+00
 ETOT  3  -32.657951739484     -2.176E-02 7.222E-04 0.000E+00
 ETOT  4  -32.660214578941     -2.263E-03 4.852E-05 0.000E+00
 ETOT  5  -32.660490699361     -2.761E-04 1.595E-05 0.000E+00
 ETOT  6  -32.660527819982     -3.712E-05 1.021E-06 0.000E+00
 ETOT  7  -32.660533107705     -5.288E-06 4.199E-07 0.000E+00
 ETOT  8  -32.660533895352     -7.876E-07 2.775E-08 0.000E+00
 ETOT  9  -32.660534016675     -1.213E-07 1.206E-08 0.000E+00
 ETOT 10  -32.660534035847     -1.917E-08 8.004E-10 0.000E+00
 ETOT 11  -32.660534038932     -3.085E-09 3.560E-10 0.000E+00
 ETOT 12  -32.660534039436     -5.042E-10 2.356E-11 0.000E+00
 ETOT 13  -32.660534039520     -8.335E-11 1.060E-11 0.000E+00
 ETOT 14  -32.660534039534     -1.388E-11 6.997E-13 0.000E+00
 ETOT 15  -32.660534039536     -2.338E-12 3.171E-13 0.000E+00
 ETOT 16  -32.660534039536     -3.908E-13 2.088E-14 0.000E+00
 ETOT 17  -32.660534039536     -7.105E-14 9.500E-15 0.000E+00
 ETOT 18  -32.660534039536      0.000E+00 6.246E-16 0.000E+00
 ETOT 19  -32.660534039536      1.421E-14 2.850E-16 0.000E+00
 ETOT 20  -32.660534039536      0.000E+00 4.277E-17 0.000E+00
 ETOT 21  -32.660534039536     -1.421E-14 1.212E-17 0.000E+00
 ETOT 22  -32.660534039536      1.421E-14 3.264E-18 0.000E+00
 ETOT 23  -32.660534039536     -1.421E-14 9.412E-19 0.000E+00
 ETOT 24  -32.660534039536     -1.421E-14 2.525E-19 0.000E+00
 ETOT 25  -32.660534039536      0.000E+00 7.349E-20 0.000E+00
 ETOT 26  -32.660534039536      7.105E-15 1.963E-20 0.000E+00
 ETOT 27  -32.660534039536     -7.105E-15 9.901E-21 0.000E+00

 At SCF step   27   max residual=  9.90E-21 < tolwfr=  1.00E-20 =>converged.

 ----iterations are completed or convergence reached----

 dfpt_looppert: DFPT cycle converged with prtwf=-1. Will skip output of the 1st-order WFK file.
 dfpt_looppert : ek2=    5.7030853625E+01
          f-sum rule ratio=    1.0354637004E+00
 prteigrs : about to open file /scratch/users/j/a/jabreu/flow_simple_11atoms/flow/w410/t1/tmpdata/tmp_1WF1_EIG
 Expectation of eigenvalue derivatives (hartree) for nkpt=   2  k points:
  (in case of degenerate eigenvalues, averaged derivative)
 kpt#   1, nband= 87, wtk=  0.50000, kpt=  0.5000  0.5000  0.5000 (reduced coord)
   0.00000   -0.00000   -0.00000   -0.00000   -0.00000    0.00000   -0.00000   -0.00000
  -0.00000    0.00000   -0.00000    0.00000    0.00000    0.00000   -0.00000    0.00000
  -0.00000    0.00000   -0.00000    0.00000    0.00000   -0.00000   -0.00000    0.00000
  -0.00000    0.00000   -0.00000   -0.00000   -0.00000   -0.00000    0.00000   -0.00000
   0.00000   -0.00000    0.00000   -0.00000    0.00000   -0.00000    0.00000    0.00000
   0.00000    0.00000   -0.00000   -0.00000    0.00000   -0.00000   -0.00000   -0.00000
   0.00000   -0.00000   -0.00000   -0.00000   -0.00000   -0.00000    0.00000    0.00000
   0.00000    0.00000    0.00000    0.00000   -0.00000   -0.00000   -0.00000    0.00000
   0.00000   -0.00000    0.00000   -0.00000    0.00000   -0.00000    0.00000    0.00000
  -0.00000   -0.00000    0.00000   -0.00000   -0.00000   -0.00000    0.00000    0.00000
   0.00000   -0.00000    0.00000    0.00000    0.00000    0.00000    0.00019
 prteigrs : prtvol=0 or 1, do not print more k-points.

 Eight components of 2nd-order total energy (hartree) are
 1,2,3: 0th-order hamiltonian combined with 1st-order wavefunctions
     kin0=   5.87057745E+01 eigvalue=  -1.64133081E+00  local=  -2.48068932E+01
 4,5,6: 1st-order hamiltonian combined with 1st and 0th-order wfs
     kin1=  -5.90533787E+01  Hartree=   0.00000000E+00     xc=   0.00000000E+00
 7,8,9: eventually, occupation + non-local contributions
    edocc=   3.72208239E+00     enl0=  -3.31909890E+00   enl1=  -6.26768934E+00
 1-9 gives the relaxation energy (to be shifted if some occ is /=2.0)
   erelax=  -3.26605340E+01
  No Ewald or frozen-wf contrib.: the relaxation energy is the total one
 2DEtotal=   -0.3266053404E+02 Ha. Also 2DEtotal=   -0.888738328822E+03 eV
    (  non-var. 2DEtotal :   -3.2660534039E+01 Ha)

 CALCULATION OF EFFECTIVE MASSES
 NOTE : Additional infos (eff. mass eigenvalues, eigenvectors and, if degenerate, average mass) are available in stdout.

--- !WARNING
src_file: m_efmas.F90
src_line: 0
message: |

    Band(s)    78,
    are not band extrema, but saddle points;
    the transport equivalent formalism breaks down in these conditions.
    The associated tensor(s) will therefore not be printed.
...

 K-point ( 0.500, 0.500, 0.500) | band =    78
 Effective mass tensor:
     *** SADDLE POINT: TRANSPORT EQV. EFF. MASS NOT DEFINED (see WARNING above) ***
 Angular average effective mass 1/(<1/m>)=  -0.7619356267
 Angular average effective mass for Frohlich model (<m**0.5>)**2=  -2.0767322524
 Effective masses along directions: (cart. coord. / red. coord. -> eff. mass)
    1:   1.000000  0.000000  0.000000 /   0.762995  0.646405  0.000000 ->  -2.2041301255
    2:   0.000000  1.000000  0.000000 /   0.000000  1.000000  0.000000 ->  -0.3061191102
    3:   0.000000  0.000000  1.000000 /   0.291969  0.291969  0.910774 ->  -4.6094742594
    4:   0.577350  0.577350  0.577350 /   0.544122  0.692607  0.473526 ->  -2.0259952736
    5:   0.000000  0.707107  0.707107 /   0.247216  0.586667  0.771172 ->  -0.6008037347
    6:   0.707107  0.000000  0.707107 /   0.626331  0.557324  0.545069 -> -15.0381641015
    7:   0.707107  0.707107  0.000000 /   0.587200  0.809442  0.000000 ->  -1.0223772160

 K-point ( 0.000, 0.000, 0.000) | band =    79
 Effective mass tensor:
              0.2190803891              0.0073611088              0.0028946266
              0.0073611088              0.1956043374              0.0008324679
              0.0028946266              0.0008324679              0.2393899165
 Effective mass tensor eigenvalues:
              0.1934871414              0.2207118879              0.2398756136
 Angular average effective mass 1/(<1/m>)=   0.2163265555
 Angular average effective mass for Frohlich model (<m**0.5>)**2=   0.2168407224
 Effective masses along directions: (cart. coord. / red. coord. -> eff. mass)
    1:   1.000000  0.000000  0.000000 /   0.762995  0.646405  0.000000 ->   0.2187691232
    2:   0.000000  1.000000  0.000000 /   0.000000  1.000000  0.000000 ->   0.1953547456
    3:   0.000000  0.000000  1.000000 /   0.291969  0.291969  0.910774 ->   0.2393489039
    4:   0.577350  0.577350  0.577350 /   0.544122  0.692607  0.473526 ->   0.2241557175
    5:   0.000000  0.707107  0.707107 /   0.247216  0.586667  0.771172 ->   0.2158557509
    6:   0.707107  0.000000  0.707107 /   0.626331  0.557324  0.545069 ->   0.2314900003
    7:   0.707107  0.707107  0.000000 /   0.587200  0.809442  0.000000 ->   0.2139873401

 END OF EFFECTIVE MASSES SECTION

 ---- first-order wavefunction calculations are completed ----

 Total localisation tensor (bohr^2) in cartesian coordinates
  WARNING : still subject to testing - especially symmetries.
      direction              matrix element
   alpha     beta       real part   imaginary part
     1        1      11.9813575909    0.0000000000
     1        2       3.1394880338    0.0000000000
     1        3       4.9852643397    0.0000000000
     2        1       3.1394880338    0.0000000000
     2        2       1.9688047351    0.0000000000
     2        3       1.4338459103    0.0000000000
     3        1       4.9852643397    0.0000000000
     3        2       1.4338459103    0.0000000000
     3        3       3.1421571851    0.0000000000

 respfn : d/dk was computed, but no 2DTE, so no DDB output.

== END DATASET(S) ==============================================================

 -outvars: echo values of variables after computation  --------
            acell      1.0000000000E+00  1.0000000000E+00  1.0000000000E+00 Bohr
              amu      8.54678000E+01  6.35460000E+01  3.20660000E+01
             ecut      4.60000000E+01 Hartree
           etotal     -3.2660534040E+01
            fcart      0.0000000000E+00  0.0000000000E+00  0.0000000000E+00
                       0.0000000000E+00  0.0000000000E+00  0.0000000000E+00
                       0.0000000000E+00  0.0000000000E+00  0.0000000000E+00
                       0.0000000000E+00  0.0000000000E+00  0.0000000000E+00
                       0.0000000000E+00  0.0000000000E+00  0.0000000000E+00
                       0.0000000000E+00  0.0000000000E+00  0.0000000000E+00
                       0.0000000000E+00  0.0000000000E+00  0.0000000000E+00
                       0.0000000000E+00  0.0000000000E+00  0.0000000000E+00
                       0.0000000000E+00  0.0000000000E+00  0.0000000000E+00
                       0.0000000000E+00  0.0000000000E+00  0.0000000000E+00
                       0.0000000000E+00  0.0000000000E+00  0.0000000000E+00
                       0.0000000000E+00  0.0000000000E+00  0.0000000000E+00
-          fftalg         512
           irdden           1
           irdwfk           1
           istwfk        1    1
              ixc     -116133
              kpt      5.00000000E-01  5.00000000E-01  5.00000000E-01
                       0.00000000E+00  0.00000000E+00  0.00000000E+00
           kptopt           0
P           mkmem           2
P          mkqmem           2
P          mk1mem           2
            natom          12
            nband          87
           nbdbuf           4
            ngfft          90      90     100
             nkpt           2
            nstep        2000
             nsym           4
           ntypat           3
              occ      2.000000  2.000000  2.000000  2.000000  2.000000  2.000000
                       2.000000  2.000000  2.000000  2.000000  2.000000  2.000000
                       2.000000  2.000000  2.000000  2.000000  2.000000  2.000000
                       2.000000  2.000000  2.000000  2.000000  2.000000  2.000000
                       2.000000  2.000000  2.000000  2.000000  2.000000  2.000000
                       2.000000  2.000000  2.000000  2.000000  2.000000  2.000000
                       2.000000  2.000000  2.000000  2.000000  2.000000  2.000000
                       2.000000  2.000000  2.000000  2.000000  2.000000  2.000000
                       2.000000  2.000000  2.000000  2.000000  2.000000  2.000000
                       2.000000  2.000000  2.000000  2.000000  2.000000  2.000000
                       2.000000  2.000000  2.000000  2.000000  2.000000  2.000000
                       2.000000  2.000000  2.000000  2.000000  2.000000  2.000000
                       2.000000  2.000000  2.000000  2.000000  2.000000  2.000000
                       0.000000  0.000000  0.000000  0.000000  0.000000  0.000000
                       0.000000  0.000000  0.000000
        optdriver           1
            prtwf          -1
            rfdir           1       1       1
           rfelfd           2
            rprim      1.3125707269E+01  0.0000000000E+00  5.0786603806E+00
                       1.1120018810E+01  6.9734763921E+00  5.0786603806E+00
                       0.0000000000E+00  0.0000000000E+00  1.5842477619E+01
          spgroup          12
           strten      0.0000000000E+00  0.0000000000E+00  0.0000000000E+00
                       0.0000000000E+00  0.0000000000E+00  0.0000000000E+00
           symrel      1  0  0   0  1  0   0  0  1      -1  0  0   0 -1  0   0  0 -1
                       0 -1  0  -1  0  0   0  0 -1       0  1  0   1  0  0   0  0  1
           tolwfr      1.00000000E-20
            typat      1  1  2  2  2  2  2  2  3  3  3  3
           useylm           1
              wtk        0.50000    0.50000
           xangst      1.7516034268E+00  5.0379044559E-01  8.7401507886E+00
                       1.1078682220E+01  3.1864143258E+00  5.0183499419E+00
                       7.5814799400E+00  2.1805604504E+00  6.2552115878E+00
                       8.8463408202E+00  2.5443555976E+00  8.5141448743E+00
                       1.2035629075E+01  3.4616482486E+00  8.4748225640E+00
                       7.9465657181E-01  2.2855652272E-01  5.2836781665E+00
                       3.9839448264E+00  1.1458491738E+00  5.2443558563E+00
                       5.2488057066E+00  1.5096443209E+00  7.5032891427E+00
                       2.4372667220E+00  7.0099867877E-01  3.7245540644E+00
                       1.0393018925E+01  2.9892060926E+00  1.0033946666E+01
                       6.1013396970E+00  1.7548473574E+00  4.6072010684E+00
                       6.7289459497E+00  1.9353574140E+00  9.1512996621E+00
            xcart      3.3100507700E+00  9.5202597053E-01  1.6516491351E+01
                       2.0935675309E+01  6.0214504216E+00  9.4833070292E+00
                       1.4326920769E+01  4.1206620675E+00  1.1820636804E+01
                       1.6717161428E+01  4.8081352641E+00  1.6089402068E+01
                       2.2744042788E+01  6.5415671583E+00  1.6015093671E+01
                       1.5016832904E+00  4.3190923382E-01  9.9847047091E+00
                       7.5285646505E+00  2.1653411280E+00  9.9103963118E+00
                       9.9188053102E+00  2.8528143246E+00  1.4179161576E+01
                       4.6057666174E+00  1.3246955224E+00  7.0383871489E+00
                       1.9639959461E+01  5.6487808697E+00  1.8961411231E+01
                       1.1529861071E+01  3.3161809105E+00  8.7063482585E+00
                       1.2715865008E+01  3.6572954816E+00  1.7293450121E+01
             xred      1.3652100000E-01  1.3652100000E-01  9.5501500000E-01
                       8.6347900000E-01  8.6347900000E-01  4.4985000000E-02
                       5.9090500000E-01  5.9090500000E-01  3.6728000000E-01
                       6.8948900000E-01  6.8948900000E-01  5.7352400000E-01
                       9.3806400000E-01  9.3806400000E-01  4.0946100000E-01
                       6.1936000000E-02  6.1936000000E-02  5.9053900000E-01
                       3.1051100000E-01  3.1051100000E-01  4.2647600000E-01
                       4.0909500000E-01  4.0909500000E-01  6.3272000000E-01
                       1.8996200000E-01  1.8996200000E-01  3.2248000000E-01
                       8.1003800000E-01  8.1003800000E-01  6.7752000000E-01
                       4.7554200000E-01  4.7554200000E-01  2.4466600000E-01
                       5.2445800000E-01  5.2445800000E-01  7.5533400000E-01
            znucl       37.00000   29.00000   16.00000

- Timing analysis has been suppressed with timopt=0

 Suggested references for the acknowledgment of ABINIT usage.

 Calculation completed.
.Delivered   3 WARNINGs and   5 COMMENTs to log file.