.Version 9.5.1 of ABINIT

 ABINIT is a project of the Universite Catholique de Louvain,
 Corning Inc. and other collaborators, see ~abinit/doc/developers/contributors.txt .
 acknowledgments of the ABINIT effort.

.Starting date : Sun 25 Apr 2021.
- ( at 17h22 )

- input  file    -> /scratch/users/j/a/jabreu/flow_simple2/flow/w208/t1/run.abi
- output file    -> /scratch/users/j/a/jabreu/flow_simple2/flow/w208/t1/run.abo
- root for input  files -> /scratch/users/j/a/jabreu/flow_simple2/flow/w208/t1/indata/in
- root for output files -> /scratch/users/j/a/jabreu/flow_simple2/flow/w208/t1/outdata/out

 Symmetries : space group F-4 3 m (#216); Bravais cF (face-center cubic)
     intxc =       0      iscf =       7    lmnmax =      18     lnmax =       6
     mgfft =      36  mpssoang =       3    mqgrid =    3001     natom =       2
  nloc_mem =       1    nspden =       1   nspinor =       1    nsppol =       1
      nsym =      24    n1xccc =    2501    ntypat =       2    occopt =       1
   xclevel =       2
-    mband =          13        mffmem =           1         mkmem =           2
-   mkqmem =           2        mk1mem =           2           mpw =        1572
      nfft =       46656          nkpt =           2
  Rough estimation (10% accuracy) of disk space for files :

------------- Echo of variables that govern the present computation ------------
-
- outvars: echo of selected default values
-   iomode0 =  0 , fftalg0 =512 , wfoptalg0 =  0
-
- outvars: echo of global parameters not present in the input file
-  max_nthreads =    0
-
 -outvars: echo values of preprocessed input variables --------
            acell      1.0000000000E+00  1.0000000000E+00  1.0000000000E+00 Bohr
              amu      2.69815390E+01  3.09737620E+01
             ecut      2.40000000E+01 Hartree
-          fftalg         512
           irdden           1
           irdwfk           1
           istwfk        1    1
              ixc     -116133
              kpt      0.00000000E+00  0.00000000E+00  0.00000000E+00
                       5.00000000E-01  1.23259516E-32  5.00000000E-01
           kptopt           0
P           mkmem           2
P          mkqmem           2
P          mk1mem           2
            natom           2
            nband          13
           nbdbuf           4
            ngfft          36      36      36
             nkpt           2
            nstep         100
             nsym          24
           ntypat           2
              occ      2.000000  2.000000  2.000000  2.000000  0.000000  0.000000
                       0.000000  0.000000  0.000000  0.000000  0.000000  0.000000
                       0.000000
        optdriver           1
            prtwf          -1
            rfdir           1       1       1
           rfelfd           2
            rprim      6.3288343153E+00  0.0000000000E+00  3.6539541956E+00
                       2.1096114384E+00  5.9668822152E+00  3.6539541956E+00
                       0.0000000000E+00  0.0000000000E+00  7.3079083912E+00
          spgroup         216
           symrel      1  0  0   0  1  0   0  0  1       0 -1  1   0 -1  0   1 -1  0
                      -1  0  0  -1  0  1  -1  1  0       0  1 -1   1  0 -1   0  0 -1
                      -1  0  0  -1  1  0  -1  0  1       0 -1  1   1 -1  0   0 -1  0
                       1  0  0   0  0  1   0  1  0       0  1 -1   0  0 -1   1  0 -1
                      -1  0  1  -1  1  0  -1  0  0       0 -1  0   1 -1  0   0 -1  1
                       1  0 -1   0  0 -1   0  1 -1       0  1  0   0  0  1   1  0  0
                       1  0 -1   0  1 -1   0  0 -1       0 -1  0   0 -1  1   1 -1  0
                      -1  0  1  -1  0  0  -1  1  0       0  1  0   1  0  0   0  0  1
                       0  0 -1   0  1 -1   1  0 -1       1 -1  0   0 -1  1   0 -1  0
                       0  0  1   1  0  0   0  1  0      -1  1  0  -1  0  0  -1  0  1
                       0  0  1   0  1  0   1  0  0       1 -1  0   0 -1  0   0 -1  1
                       0  0 -1   1  0 -1   0  1 -1      -1  1  0  -1  0  1  -1  0  0
           tolwfr      1.00000000E-20
            typat      1  2
           useylm           1
              wtk        0.50000    0.50000
           xangst      0.0000000000E+00  0.0000000000E+00  0.0000000000E+00
                       1.1163582922E+00  7.8938451866E-01  1.9335892815E+00
            xcart      0.0000000000E+00  0.0000000000E+00  0.0000000000E+00
                       2.1096114384E+00  1.4917205538E+00  3.6539541956E+00
             xred      0.0000000000E+00  0.0000000000E+00  0.0000000000E+00
                       2.5000000000E-01  2.5000000000E-01  2.5000000000E-01
            znucl       13.00000   15.00000

 chkinp: Checking input parameters for consistency.

== DATASET  1 ==================================================================
-   mpi_nproc: 1, omp_nthreads: -1 (-1 if OMP is not activated)

--- !DatasetInfo
iteration_state: {dtset: 1, }
dimensions: {natom: 2, nkpt: 2, mband: 13, nsppol: 1, nspinor: 1, nspden: 1, mpw: 1572, }
cutoff_energies: {ecut:  24.0, pawecutdg:  -1.0, }
electrons: {nelect:   8.00000000E+00, charge:   0.00000000E+00, occopt:   1.00000000E+00, tsmear:   1.00000000E-02, }
meta: {optdriver: 1, rfelfd: 2, }
...

 Real(R)+Recip(G) space primitive vectors, cartesian coordinates (Bohr,Bohr^-1):
 R(1)=  6.3288343  0.0000000  3.6539542  G(1)=  0.1580070 -0.0558639  0.0000000
 R(2)=  2.1096114  5.9668822  3.6539542  G(2)=  0.0000000  0.1675917  0.0000000
 R(3)=  0.0000000  0.0000000  7.3079084  G(3)= -0.0790035 -0.0558639  0.1368381
 Unit cell volume ucvol=  2.7597153E+02 bohr^3
 Angles (23,13,12)=  6.00000000E+01  6.00000000E+01  6.00000000E+01 degrees

 getcut: wavevector=  0.0000  0.0000  0.0000  ngfft=  36  36  36
         ecut(hartree)=     24.000   => boxcut(ratio)=   2.23377

 getcut : COMMENT -
  Note that boxcut > 2.2 ; recall that boxcut=Gcut(box)/Gcut(sphere) = 2
  is sufficient for exact treatment of convolution.
  Such a large boxcut is a waste : you could raise ecut
  e.g. ecut=   29.938399 Hartrees makes boxcut=2

--- Pseudopotential description ------------------------------------------------
- pspini: atom type   1  psp file is /scratch/users/j/a/jabreu/pseudos/PBEsol/Al.psp8
- pspatm: opening atomic psp file    /scratch/users/j/a/jabreu/pseudos/PBEsol/Al.psp8
- Al    ONCVPSP-3.3.0  r_core=   1.76802   1.76802   1.70587
- 13.00000   3.00000    180112                znucl, zion, pspdat
    8 -116133    2    4       600   0.00000   pspcod,pspxc,lmax,lloc,mmax,r2well
    5.99000000000000    5.00000000000000    0.00000000000000   rchrg,fchrg,qchrg
     nproj     2     2     2
     extension_switch     1
  pspatm : epsatm=    0.68509324
         --- l  ekb(1:nproj) -->
             0    5.834965    0.726662
             1    6.225605    0.924840
             2   -2.432733   -0.548689
 pspatm: atomic psp has been read  and splines computed

- pspini: atom type   2  psp file is /scratch/users/j/a/jabreu/pseudos/PBEsol/P.psp8
- pspatm: opening atomic psp file    /scratch/users/j/a/jabreu/pseudos/PBEsol/P.psp8
- P     ONCVPSP-3.3.0  r_core=   1.46089   1.55067   1.70594
- 15.00000   5.00000    180112                znucl, zion, pspdat
    8 -116133    2    4       600   0.00000   pspcod,pspxc,lmax,lloc,mmax,r2well
    5.99000000000000    5.00000000000000    0.00000000000000   rchrg,fchrg,qchrg
     nproj     2     2     2
     extension_switch     1
  pspatm : epsatm=    7.31221086
         --- l  ekb(1:nproj) -->
             0    6.742364    1.063650
             1    3.449117    0.910422
             2   -3.077645   -0.799176
 pspatm: atomic psp has been read  and splines computed

   6.39784328E+01                                ecore*ucvol(ha*bohr**3)

-inwffil : will read wavefunctions from disk file /scratch/users/j/a/jabreu/flow_simple2/flow/w208/t1/indata/in_WFK

 ==>  initialize data related to q vector <==

 The list of irreducible perturbations for this q vector is:
    1)    idir= 1    ipert=   3
    2)    idir= 2    ipert=   3
    3)    idir= 3    ipert=   3

 Perturbation wavevector (in red.coord.)   0.000000  0.000000  0.000000
 Perturbation : derivative vs k along direction   1

 dfpt_looppert : COMMENT -
  In a d/dk calculation, iscf is set to -3 automatically.
 The set of symmetries contains only one element for this perturbation.
 symkpt : not enough symmetry to change the number of k points.

[...]

 Initialisation of the first-order wave-functions :
  ireadwf=   0

--- !BeginCycle
iteration_state: {dtset: 1, }
solver: {iscf: 7, nstep: 100, nline: 4, wfoptalg: 0, }
tolerances: {tolwfr: 1.00E-20, }
...

     iter   2DEtotal(Ha)        deltaE(Ha) residm    vres2
-ETOT  1  -19.269902034580     -1.927E+01 5.628E-01 0.000E+00
 ETOT  2  -19.271005295725     -1.103E-03 2.017E-03 0.000E+00
 ETOT  3  -19.271008326757     -3.031E-06 8.711E-05 0.000E+00
 ETOT  4  -19.271008338557     -1.180E-08 1.219E-06 0.000E+00
 ETOT  5  -19.271008338610     -5.318E-11 6.887E-08 0.000E+00
 ETOT  6  -19.271008338610     -2.487E-13 1.698E-09 0.000E+00
 ETOT  7  -19.271008338610     -2.842E-14 6.646E-11 0.000E+00
 ETOT  8  -19.271008338610      2.487E-14 1.812E-12 0.000E+00
 ETOT  9  -19.271008338610      0.000E+00 6.689E-14 0.000E+00
 ETOT 10  -19.271008338610     -3.553E-15 2.500E-15 0.000E+00
 ETOT 11  -19.271008338610     -3.553E-15 1.006E-16 0.000E+00
 ETOT 12  -19.271008338610      7.105E-15 4.148E-18 0.000E+00
 ETOT 13  -19.271008338610      0.000E+00 1.650E-19 0.000E+00
 ETOT 14  -19.271008338610     -7.105E-15 9.235E-21 0.000E+00

 At SCF step   14   max residual=  9.23E-21 < tolwfr=  1.00E-20 =>converged.

 ----iterations are completed or convergence reached----

 dfpt_looppert: DFPT cycle converged with prtwf=-1. Will skip output of the 1st-order WFK file.
 dfpt_looppert : ek2=    1.7741273427E+01
          f-sum rule ratio=    2.3178904605E+00
 prteigrs : about to open file /scratch/users/j/a/jabreu/flow_simple2/flow/w208/t1/tmpdata/tmp_1WF1_EIG
 Expectation of eigenvalue derivatives (hartree) for nkpt=   2  k points:
  (in case of degenerate eigenvalues, averaged derivative)
 kpt#   1, nband= 13, wtk=  0.50000, kpt=  0.0000  0.0000  0.0000 (reduced coord)
  -0.00000    0.00000    0.00000    0.00000    0.00000    0.00000    0.00000    0.00000
  -0.00000   -0.00000    0.00000    0.00000    0.00000
 prteigrs : prtvol=0 or 1, do not print more k-points.

 Eight components of 2nd-order total energy (hartree) are
 1,2,3: 0th-order hamiltonian combined with 1st-order wavefunctions
     kin0=   1.33457640E+00 eigvalue=  -2.79196463E-02  local=  -6.42026117E-01
 4,5,6: 1st-order hamiltonian combined with 1st and 0th-order wfs
     kin1=  -4.11223284E+01  Hartree=   0.00000000E+00     xc=   0.00000000E+00
 7,8,9: eventually, occupation + non-local contributions
    edocc=   1.84065953E+01     enl0=   1.99782412E-01   enl1=   2.58031176E+00
 1-9 gives the relaxation energy (to be shifted if some occ is /=2.0)
   erelax=  -1.92710083E+01
  No Ewald or frozen-wf contrib.: the relaxation energy is the total one
 2DEtotal=   -0.1927100834E+02 Ha. Also 2DEtotal=   -0.524390805271E+03 eV
    (  non-var. 2DEtotal :   -1.9271008339E+01 Ha)

 Perturbation wavevector (in red.coord.)   0.000000  0.000000  0.000000
 Perturbation : derivative vs k along direction   2
 The set of symmetries contains only one element for this perturbation.
 symkpt : not enough symmetry to change the number of k points.

[...]

 Perturbation wavevector (in red.coord.)   0.000000  0.000000  0.000000
 Perturbation : derivative vs k along direction   3
 The set of symmetries contains only one element for this perturbation.
 symkpt : not enough symmetry to change the number of k points.

-inwffil : will read wavefunctions from disk file /scratch/users/j/a/jabreu/flow_simple2/flow/w208/t1/indata/in_WFK

 Initialisation of the first-order wave-functions :
  ireadwf=   0

--- !BeginCycle
iteration_state: {dtset: 1, }
solver: {iscf: 7, nstep: 100, nline: 4, wfoptalg: 0, }
tolerances: {tolwfr: 1.00E-20, }
...

     iter   2DEtotal(Ha)        deltaE(Ha) residm    vres2
-ETOT  1  -19.269821044168     -1.927E+01 5.628E-01 0.000E+00
 ETOT  2  -19.271005166493     -1.184E-03 2.017E-03 0.000E+00
 ETOT  3  -19.271008561814     -3.395E-06 8.711E-05 0.000E+00
 ETOT  4  -19.271008574918     -1.310E-08 1.219E-06 0.000E+00
 ETOT  5  -19.271008574975     -5.763E-11 6.888E-08 0.000E+00
 ETOT  6  -19.271008574976     -2.665E-13 1.706E-09 0.000E+00
 ETOT  7  -19.271008574976      0.000E+00 6.458E-11 0.000E+00
 ETOT  8  -19.271008574976     -7.105E-15 1.769E-12 0.000E+00
 ETOT  9  -19.271008574976      3.553E-15 6.689E-14 0.000E+00
 ETOT 10  -19.271008574976     -1.421E-14 2.611E-15 0.000E+00
 ETOT 11  -19.271008574976      7.105E-15 1.051E-16 0.000E+00
 ETOT 12  -19.271008574976      3.553E-15 4.385E-18 0.000E+00
 ETOT 13  -19.271008574976     -7.105E-15 1.745E-19 0.000E+00
 ETOT 14  -19.271008574976      0.000E+00 8.724E-21 0.000E+00

 At SCF step   14   max residual=  8.72E-21 < tolwfr=  1.00E-20 =>converged.

 ----iterations are completed or convergence reached----

 dfpt_looppert: DFPT cycle converged with prtwf=-1. Will skip output of the 1st-order WFK file.
 dfpt_looppert : ek2=    1.7741273427E+01
          f-sum rule ratio=    2.3178904813E+00
 prteigrs : about to open file /scratch/users/j/a/jabreu/flow_simple2/flow/w208/t1/tmpdata/tmp_1WF1_EIG
 Expectation of eigenvalue derivatives (hartree) for nkpt=   2  k points:
  (in case of degenerate eigenvalues, averaged derivative)
 kpt#   1, nband= 13, wtk=  0.50000, kpt=  0.0000  0.0000  0.0000 (reduced coord)
   0.00000   -0.00000   -0.00000   -0.00000    0.00000   -0.00000   -0.00000   -0.00000
  -0.00000   -0.00000   -0.00000   -0.00000   -0.00000
 prteigrs : prtvol=0 or 1, do not print more k-points.

 Eight components of 2nd-order total energy (hartree) are
 1,2,3: 0th-order hamiltonian combined with 1st-order wavefunctions
     kin0=   1.34081543E+00 eigvalue=  -2.91944808E-02  local=  -6.43806050E-01
 4,5,6: 1st-order hamiltonian combined with 1st and 0th-order wfs
     kin1=  -4.11223288E+01  Hartree=   0.00000000E+00     xc=   0.00000000E+00
 7,8,9: eventually, occupation + non-local contributions
    edocc=   1.84028692E+01     enl0=   2.00324488E-01   enl1=   2.58031165E+00
 1-9 gives the relaxation energy (to be shifted if some occ is /=2.0)
   erelax=  -1.92710086E+01
  No Ewald or frozen-wf contrib.: the relaxation energy is the total one
 2DEtotal=   -0.1927100857E+02 Ha. Also 2DEtotal=   -0.524390811703E+03 eV
    (  non-var. 2DEtotal :   -1.9271008575E+01 Ha)

 CALCULATION OF EFFECTIVE MASSES
 NOTE : Additional infos (eff. mass eigenvalues, eigenvectors and, if degenerate, average mass) are available in stdout.

 COMMENTS:
 - At k-point ( 0.000, 0.000, 0.000), bands     2 through     4
   are DEGENERATE (effective mass tensor is therefore not defined).
   See Section IIIB Eqs. (67)-(70) and Appendix E of PRB 93 205147 (2016).
 - Angular average effective mass for Frohlich model is to be averaged over degenerate bands. See later.
 - Associated theta integrals calculated with ntheta=   1000 points.

 K-point ( 0.000, 0.000, 0.000) | band =     2
 Transport equivalent effective mass tensor:
             -0.1652893119             -0.0000000000              0.0000000000
             -0.0000000000             -0.1652893119             -0.0000000000
              0.0000000000             -0.0000000000             -0.1652893119
 Transport equivalent effective mass tensor eigenvalues:
             -0.1652893119             -0.1652893119             -0.1652893119
 Angular average effective mass 1/(<1/m>)=  -0.1515380727
 Angular average effective mass for Frohlich model (<m**0.5>)**2=  -0.1524164049
 Effective masses along directions: (cart. coord. / red. coord. -> eff. mass)
    1:   1.000000  0.000000  0.000000 /   0.948683  0.316228  0.000000 ->  -0.1436953628
    2:   0.000000  1.000000  0.000000 /   0.000000  1.000000  0.000000 ->  -0.1347288716
    3:   0.000000  0.000000  1.000000 /   0.408248  0.408248  0.816497 ->  -0.1458425851
    4:   0.577350  0.577350  0.577350 /   0.585539  0.688047  0.428644 ->  -0.1436850102
    5:   0.000000  0.707107  0.707107 /   0.289489  0.762222  0.578977 ->  -0.1590387582
    6:   0.707107  0.000000  0.707107 /   0.731423  0.422287  0.535439 ->  -0.1447422685
    7:   0.707107  0.707107  0.000000 /   0.616798  0.787122  0.000000 ->  -0.1842128839

[...]

 K-point ( 0.000, 0.000, 0.000) | band =     4
 Transport equivalent effective mass tensor:
            -33.1550993257              0.0000300876             -0.0000000002
              0.0000300876            -33.1550883455             -0.0000000005
             -0.0000000002             -0.0000000005            -33.1550447463
 Transport equivalent effective mass tensor eigenvalues:
            -33.1551244200            -33.1550632513            -33.1550447463
 Angular average effective mass 1/(<1/m>)=  -1.4721082571
 Angular average effective mass for Frohlich model (<m**0.5>)**2=  -1.9317272631
 Effective masses along directions: (cart. coord. / red. coord. -> eff. mass)
    1:   1.000000  0.000000  0.000000 /   0.948683  0.316228  0.000000 ->  -1.6338455667
    2:   0.000000  1.000000  0.000000 /   0.000000  1.000000  0.000000 ->  -1.3995568210
    3:   0.000000  0.000000  1.000000 /   0.408248  0.408248  0.816497 ->  -6.7156601367
    4:   0.577350  0.577350  0.577350 /   0.585539  0.688047  0.428644 ->  -2.0388480254
    5:   0.000000  0.707107  0.707107 /   0.289489  0.762222  0.578977 ->  -1.3084574592
    6:   0.707107  0.000000  0.707107 /   0.731423  0.422287  0.535439 ->  -3.0384828929
    7:   0.707107  0.707107  0.000000 /   0.616798  0.787122  0.000000 ->  -0.6151450145

 Angular average effective mass for Frohlich model, averaged over degenerate bands.
 Value of     (<<m**0.5>>)**2 =     7.447037E-01
 Absolute Value of <<m**0.5>> =     8.629621E-01

 K-point ( 0.500, 0.000, 0.500) | band =     5
 Effective mass tensor:
              0.3300391232             -0.1241627834              0.1520677322
             -0.1241627834              0.4178354693             -0.2150562493
              0.1520677322             -0.2150562493              0.5056318154
 Effective mass tensor eigenvalues:
              0.2422427771              0.2422427771              0.7690208538
 Angular average effective mass 1/(<1/m>)=   0.3139213124
 Angular average effective mass for Frohlich model (<m**0.5>)**2=   0.3361106529
 Effective masses along directions: (cart. coord. / red. coord. -> eff. mass)
    1:   1.000000  0.000000  0.000000 /   0.948683  0.316228  0.000000 ->   0.2734630730
    2:   0.000000  1.000000  0.000000 /   0.000000  1.000000  0.000000 ->   0.3139213124
    3:   0.000000  0.000000  1.000000 /   0.408248  0.408248  0.816497 ->   0.3684296391
    4:   0.577350  0.577350  0.577350 /   0.585539  0.688047  0.428644 ->   0.2593857754
    5:   0.000000  0.707107  0.707107 /   0.289489  0.762222  0.578977 ->   0.2436477902
    6:   0.707107  0.000000  0.707107 /   0.731423  0.422287  0.535439 ->   0.4220807641
    7:   0.707107  0.707107  0.000000 /   0.616798  0.787122  0.000000 ->   0.2446387517

 END OF EFFECTIVE MASSES SECTION

 ---- first-order wavefunction calculations are completed ----

 Total localisation tensor (bohr^2) in cartesian coordinates
  WARNING : still subject to testing - especially symmetries.
      direction              matrix element
   alpha     beta       real part   imaginary part
     1        1       8.6297342521    0.0000000000
     1        2       2.4408574151    0.0000000000
     1        3       5.9788552604    0.0000000000
     2        1       2.4408574151    0.0000000000
     2        2       6.9037873206    0.0000000000
     2        3       4.2276890570    0.0000000000
     3        1       5.9788552604    0.0000000000
     3        2       4.2276890570    0.0000000000
     3        3      15.5335216832    0.0000000000

 respfn : d/dk was computed, but no 2DTE, so no DDB output.

== END DATASET(S) ==============================================================

 -outvars: echo values of variables after computation  --------
            acell      1.0000000000E+00  1.0000000000E+00  1.0000000000E+00 Bohr
              amu      2.69815390E+01  3.09737620E+01
             ecut      2.40000000E+01 Hartree
           etotal     -1.9271008575E+01
            fcart      0.0000000000E+00  0.0000000000E+00  0.0000000000E+00
                       0.0000000000E+00  0.0000000000E+00  0.0000000000E+00
-          fftalg         512
           irdden           1
           irdwfk           1
           istwfk        1    1
              ixc     -116133
              kpt      0.00000000E+00  0.00000000E+00  0.00000000E+00
                       5.00000000E-01  1.23259516E-32  5.00000000E-01
           kptopt           0
P           mkmem           2
P          mkqmem           2
P          mk1mem           2
            natom           2
            nband          13
           nbdbuf           4
            ngfft          36      36      36
             nkpt           2
            nstep         100
             nsym          24
           ntypat           2
              occ      2.000000  2.000000  2.000000  2.000000  0.000000  0.000000
                       0.000000  0.000000  0.000000  0.000000  0.000000  0.000000
                       0.000000
        optdriver           1
            prtwf          -1
            rfdir           1       1       1
           rfelfd           2
            rprim      6.3288343153E+00  0.0000000000E+00  3.6539541956E+00
                       2.1096114384E+00  5.9668822152E+00  3.6539541956E+00
                       0.0000000000E+00  0.0000000000E+00  7.3079083912E+00
          spgroup         216
           strten      0.0000000000E+00  0.0000000000E+00  0.0000000000E+00
                       0.0000000000E+00  0.0000000000E+00  0.0000000000E+00
           symrel      1  0  0   0  1  0   0  0  1       0 -1  1   0 -1  0   1 -1  0
                      -1  0  0  -1  0  1  -1  1  0       0  1 -1   1  0 -1   0  0 -1
                      -1  0  0  -1  1  0  -1  0  1       0 -1  1   1 -1  0   0 -1  0
                       1  0  0   0  0  1   0  1  0       0  1 -1   0  0 -1   1  0 -1
                      -1  0  1  -1  1  0  -1  0  0       0 -1  0   1 -1  0   0 -1  1
                       1  0 -1   0  0 -1   0  1 -1       0  1  0   0  0  1   1  0  0
                       1  0 -1   0  1 -1   0  0 -1       0 -1  0   0 -1  1   1 -1  0
                      -1  0  1  -1  0  0  -1  1  0       0  1  0   1  0  0   0  0  1
                       0  0 -1   0  1 -1   1  0 -1       1 -1  0   0 -1  1   0 -1  0
                       0  0  1   1  0  0   0  1  0      -1  1  0  -1  0  0  -1  0  1
                       0  0  1   0  1  0   1  0  0       1 -1  0   0 -1  0   0 -1  1
                       0  0 -1   1  0 -1   0  1 -1      -1  1  0  -1  0  1  -1  0  0
           tolwfr      1.00000000E-20
            typat      1  2
           useylm           1
              wtk        0.50000    0.50000
           xangst      0.0000000000E+00  0.0000000000E+00  0.0000000000E+00
                       1.1163582922E+00  7.8938451866E-01  1.9335892815E+00
            xcart      0.0000000000E+00  0.0000000000E+00  0.0000000000E+00
                       2.1096114384E+00  1.4917205538E+00  3.6539541956E+00
             xred      0.0000000000E+00  0.0000000000E+00  0.0000000000E+00
                       2.5000000000E-01  2.5000000000E-01  2.5000000000E-01
            znucl       13.00000   15.00000

- Timing analysis has been suppressed with timopt=0

 Suggested references for the acknowledgment of ABINIT usage.

 Calculation completed.
.Delivered  14 WARNINGs and  15 COMMENTs to log file.