.Version 9.5.1 of ABINIT

 ABINIT is a project of the Universite Catholique de Louvain,
 Corning Inc. and other collaborators, see ~abinit/doc/developers/contributors.txt .
 acknowledgments of the ABINIT effort.

.Starting date : Wed 19 May 2021.
- ( at 01h43 )

- input  file    -> /scratch/users/j/a/jabreu/flow_simple_8atoms/flow/w471/t1/run.abi
- output file    -> /scratch/users/j/a/jabreu/flow_simple_8atoms/flow/w471/t1/run.abo
- root for input  files -> /scratch/users/j/a/jabreu/flow_simple_8atoms/flow/w471/t1/indata/in
- root for output files -> /scratch/users/j/a/jabreu/flow_simple_8atoms/flow/w471/t1/outdata/out

 Symmetries : space group Fd -3 m (#227); Bravais cF (face-center cubic)
     intxc =       0      iscf =       7    lmnmax =      18     lnmax =       6
     mgfft =      72  mpssoang =       3    mqgrid =    3001     natom =       8
  nloc_mem =       1    nspden =       1   nspinor =       1    nsppol =       1
      nsym =      48    n1xccc =    2501    ntypat =       3    occopt =       1
   xclevel =       2
-    mband =          33        mffmem =           1         mkmem =           2
-   mkqmem =           2        mk1mem =           2           mpw =       12212
      nfft =      373248          nkpt =           2
  Rough estimation (10% accuracy) of disk space for files :

------------- Echo of variables that govern the present computation ------------
-
- outvars: echo of selected default values
-   iomode0 =  0 , fftalg0 =512 , wfoptalg0 =  0
-
- outvars: echo of global parameters not present in the input file
-  max_nthreads =    0
-
 -outvars: echo values of preprocessed input variables --------
            acell      1.0000000000E+00  1.0000000000E+00  1.0000000000E+00 Bohr
              amu      8.54678000E+01  2.69815390E+01  1.59994000E+01
             ecut      4.40000000E+01 Hartree
-          fftalg         512
           irdden           1
           irdwfk           1
           istwfk        1    1
              ixc     -116133
              kpt      5.00000000E-01  5.00000000E-01  5.00000000E-01
                       0.00000000E+00  0.00000000E+00  0.00000000E+00
           kptopt           0
P           mkmem           2
P          mkqmem           2
P          mk1mem           2
            natom           8
            nband          33
           nbdbuf           4
            ngfft          72      72      72
             nkpt           2
            nstep        2000
             nsym          48
           ntypat           3
              occ      2.000000  2.000000  2.000000  2.000000  2.000000  2.000000
                       2.000000  2.000000  2.000000  2.000000  2.000000  2.000000
                       2.000000  2.000000  2.000000  2.000000  2.000000  2.000000
                       2.000000  2.000000  2.000000  2.000000  2.000000  2.000000
                       0.000000  0.000000  0.000000  0.000000  0.000000  0.000000
                       0.000000  0.000000  0.000000
        optdriver           1
            prtwf          -1
            rfdir           1       1       1
           rfelfd           2
            rprim      9.2999409761E+00  0.0000000000E+00  5.3693234260E+00
                       3.0999803254E+00  8.7680684384E+00  5.3693234260E+00
                       0.0000000000E+00  0.0000000000E+00  1.0738646852E+01
          spgroup         227
           symrel      1  0  0   0  1  0   0  0  1      -1  0  0   0 -1  0   0  0 -1
                       0 -1  1   0 -1  0   1 -1  0       0  1 -1   0  1  0  -1  1  0
                      -1  0  0  -1  0  1  -1  1  0       1  0  0   1  0 -1   1 -1  0
                       0  1 -1   1  0 -1   0  0 -1       0 -1  1  -1  0  1   0  0  1
                      -1  0  0  -1  1  0  -1  0  1       1  0  0   1 -1  0   1  0 -1
                       0 -1  1   1 -1  0   0 -1  0       0  1 -1  -1  1  0   0  1  0
                       1  0  0   0  0  1   0  1  0      -1  0  0   0  0 -1   0 -1  0
                       0  1 -1   0  0 -1   1  0 -1       0 -1  1   0  0  1  -1  0  1
                      -1  0  1  -1  1  0  -1  0  0       1  0 -1   1 -1  0   1  0  0
                       0 -1  0   1 -1  0   0 -1  1       0  1  0  -1  1  0   0  1 -1
                       1  0 -1   0  0 -1   0  1 -1      -1  0  1   0  0  1   0 -1  1
                       0  1  0   0  0  1   1  0  0       0 -1  0   0  0 -1  -1  0  0
                       1  0 -1   0  1 -1   0  0 -1      -1  0  1   0 -1  1   0  0  1
                       0 -1  0   0 -1  1   1 -1  0       0  1  0   0  1 -1  -1  1  0
                      -1  0  1  -1  0  0  -1  1  0       1  0 -1   1  0  0   1 -1  0
                       0  1  0   1  0  0   0  0  1       0 -1  0  -1  0  0   0  0 -1
                       0  0 -1   0  1 -1   1  0 -1       0  0  1   0 -1  1  -1  0  1
                       1 -1  0   0 -1  1   0 -1  0      -1  1  0   0  1 -1   0  1  0
                       0  0  1   1  0  0   0  1  0       0  0 -1  -1  0  0   0 -1  0
                      -1  1  0  -1  0  0  -1  0  1       1 -1  0   1  0  0   1  0 -1
                       0  0  1   0  1  0   1  0  0       0  0 -1   0 -1  0  -1  0  0
                       1 -1  0   0 -1  0   0 -1  1      -1  1  0   0  1  0   0  1 -1
                       0  0 -1   1  0 -1   0  1 -1       0  0  1  -1  0  1   0 -1  1
                      -1  1  0  -1  0  1  -1  0  0       1 -1  0   1  0 -1   1  0  0
            tnons      0.0000000  0.0000000  0.0000000     0.2500000  0.2500000  0.2500000
                       0.0000000  0.0000000  0.0000000     0.2500000  0.2500000  0.2500000
                       0.0000000 -0.0000000  0.0000000     0.2500000  0.2500000  0.2500000
                       0.0000000 -0.0000000  0.0000000     0.2500000  0.2500000  0.2500000
                       0.0000000  0.0000000  0.0000000     0.2500000  0.2500000  0.2500000
                       0.0000000  0.0000000  0.0000000     0.2500000  0.2500000  0.2500000
                       0.0000000 -0.0000000  0.0000000     0.2500000  0.2500000  0.2500000
                       0.0000000 -0.0000000  0.0000000     0.2500000  0.2500000  0.2500000
                       0.0000000  0.0000000  0.0000000     0.2500000  0.2500000  0.2500000
                       0.0000000  0.0000000  0.0000000     0.2500000  0.2500000  0.2500000
                       0.0000000 -0.0000000  0.0000000     0.2500000  0.2500000  0.2500000
                       0.0000000 -0.0000000  0.0000000     0.2500000  0.2500000  0.2500000
                       0.0000000  0.0000000  0.0000000     0.2500000  0.2500000  0.2500000
                       0.0000000  0.0000000  0.0000000     0.2500000  0.2500000  0.2500000
                       0.0000000 -0.0000000  0.0000000     0.2500000  0.2500000  0.2500000
                       0.0000000 -0.0000000  0.0000000     0.2500000  0.2500000  0.2500000
                       0.0000000  0.0000000  0.0000000     0.2500000  0.2500000  0.2500000
                       0.0000000  0.0000000  0.0000000     0.2500000  0.2500000  0.2500000
                       0.0000000 -0.0000000  0.0000000     0.2500000  0.2500000  0.2500000
                       0.0000000 -0.0000000  0.0000000     0.2500000  0.2500000  0.2500000
                       0.0000000  0.0000000  0.0000000     0.2500000  0.2500000  0.2500000
                       0.0000000  0.0000000  0.0000000     0.2500000  0.2500000  0.2500000
                       0.0000000 -0.0000000  0.0000000     0.2500000  0.2500000  0.2500000
                       0.0000000 -0.0000000  0.0000000     0.2500000  0.2500000  0.2500000
           tolwfr      1.00000000E-20
            typat      1  1  2  2  3  3  3  3
           useylm           1
              wtk        0.50000    0.50000
           xangst      4.9213168058E+00  3.4798964857E+00  8.5239707478E+00
                       3.2808778705E+00  2.3199309905E+00  5.6826471652E+00
                       0.0000000000E+00  0.0000000000E+00  0.0000000000E+00
                       1.6404389353E+00  1.1599654952E+00  2.8413235826E+00
                       8.2021946763E-01  5.7998274762E-01  1.4206617913E+00
                       1.6404389353E+00  2.8999137381E+00  2.8413235826E+00
                       3.2808778705E+00  5.7998274762E-01  2.8413235826E+00
                       8.2021946763E-01  5.7998274762E-01  4.2619853739E+00
            xcart      9.2999409761E+00  6.5760513288E+00  1.6107970278E+01
                       6.1999606508E+00  4.3840342192E+00  1.0738646852E+01
                       0.0000000000E+00  0.0000000000E+00  0.0000000000E+00
                       3.0999803254E+00  2.1920171096E+00  5.3693234260E+00
                       1.5499901627E+00  1.0960085548E+00  2.6846617130E+00
                       3.0999803254E+00  5.4800427740E+00  5.3693234260E+00
                       6.1999606507E+00  1.0960085548E+00  5.3693234260E+00
                       1.5499901627E+00  1.0960085548E+00  8.0539851390E+00
             xred      7.5000000000E-01  7.5000000000E-01  7.5000000000E-01
                       5.0000000000E-01  5.0000000000E-01  5.0000000000E-01
                       0.0000000000E+00  0.0000000000E+00  0.0000000000E+00
                       2.5000000000E-01  2.5000000000E-01  2.5000000000E-01
                       1.2500000000E-01  1.2500000000E-01  1.2500000000E-01
                       1.2500000000E-01  6.2500000000E-01  1.2500000000E-01
                       6.2500000000E-01  1.2500000000E-01  1.2500000000E-01
                       1.2500000000E-01  1.2500000000E-01  6.2500000000E-01
            znucl       37.00000   13.00000    8.00000

 chkinp: Checking input parameters for consistency.

== DATASET  1 ==================================================================
-   mpi_nproc: 1, omp_nthreads: -1 (-1 if OMP is not activated)

--- !DatasetInfo
iteration_state: {dtset: 1, }
dimensions: {natom: 8, nkpt: 2, mband: 33, nsppol: 1, nspinor: 1, nspden: 1, mpw: 12212, }
cutoff_energies: {ecut:  44.0, pawecutdg:  -1.0, }
electrons: {nelect:   4.80000000E+01, charge:   0.00000000E+00, occopt:   1.00000000E+00, tsmear:   1.00000000E-02, }
meta: {optdriver: 1, rfelfd: 2, }
...

 Real(R)+Recip(G) space primitive vectors, cartesian coordinates (Bohr,Bohr^-1):
 R(1)=  9.2999410  0.0000000  5.3693234  G(1)=  0.1075276 -0.0380167  0.0000000
 R(2)=  3.0999803  8.7680684  5.3693234  G(2)=  0.0000000  0.1140502  0.0000000
 R(3)=  0.0000000  0.0000000 10.7386469  G(3)= -0.0537638 -0.0380167  0.0931216
 Unit cell volume ucvol=  8.7565631E+02 bohr^3
 Angles (23,13,12)=  6.00000000E+01  6.00000000E+01  6.00000000E+01 degrees

 getcut: wavevector=  0.0000  0.0000  0.0000  ngfft=  72  72  72
         ecut(hartree)=     44.000   => boxcut(ratio)=   2.24539

 getcut : COMMENT -
  Note that boxcut > 2.2 ; recall that boxcut=Gcut(box)/Gcut(sphere) = 2
  is sufficient for exact treatment of convolution.
  Such a large boxcut is a waste : you could raise ecut
  e.g. ecut=   55.459459 Hartrees makes boxcut=2

--- Pseudopotential description ------------------------------------------------
- pspini: atom type   1  psp file is /scratch/users/j/a/jabreu/pseudos/PBEsol/Rb.psp8
[...]
    (  non-var. 2DEtotal :   -2.6385496812E+01 Ha)

 Perturbation wavevector (in red.coord.)   0.000000  0.000000  0.000000
 Perturbation : derivative vs k along direction   2
 The set of symmetries contains only one element for this perturbation.
 symkpt : not enough symmetry to change the number of k points.

[...]

 Perturbation wavevector (in red.coord.)   0.000000  0.000000  0.000000
 Perturbation : derivative vs k along direction   3
 The set of symmetries contains only one element for this perturbation.
 symkpt : not enough symmetry to change the number of k points.

-inwffil : will read wavefunctions from disk file /scratch/users/j/a/jabreu/flow_simple_8atoms/flow/w471/t1/indata/in_WFK

 Initialisation of the first-order wave-functions :
  ireadwf=   0

--- !BeginCycle
iteration_state: {dtset: 1, }
solver: {iscf: 7, nstep: 2000, nline: 4, wfoptalg: 0, }
tolerances: {tolwfr: 1.00E-20, }
...

     iter   2DEtotal(Ha)        deltaE(Ha) residm    vres2
-ETOT  1  -26.367669820793     -2.637E+01 7.213E-02 0.000E+00
 ETOT  2  -26.385476084418     -1.781E-02 2.217E-03 0.000E+00
 ETOT  3  -26.385541686587     -6.560E-05 1.084E-04 0.000E+00
 ETOT  4  -26.385542247305     -5.607E-07 7.511E-06 0.000E+00
 ETOT  5  -26.385542253265     -5.959E-09 4.132E-07 0.000E+00
 ETOT  6  -26.385542253338     -7.327E-11 3.116E-08 0.000E+00
 ETOT  7  -26.385542253339     -1.048E-12 1.775E-09 0.000E+00
 ETOT  8  -26.385542253339     -3.197E-14 1.450E-10 0.000E+00
 ETOT  9  -26.385542253339      2.132E-14 8.764E-12 0.000E+00
 ETOT 10  -26.385542253339      1.066E-14 1.438E-12 0.000E+00
 ETOT 11  -26.385542253339     -1.776E-14 1.959E-13 0.000E+00
 ETOT 12  -26.385542253339      1.776E-14 3.806E-14 0.000E+00
 ETOT 13  -26.385542253339      0.000E+00 5.216E-15 0.000E+00
 ETOT 14  -26.385542253339     -3.553E-15 1.017E-15 0.000E+00
 ETOT 15  -26.385542253339     -3.553E-15 1.397E-16 0.000E+00
 ETOT 16  -26.385542253339      0.000E+00 2.725E-17 0.000E+00
 ETOT 17  -26.385542253339      3.553E-15 3.748E-18 0.000E+00
 ETOT 18  -26.385542253339      7.105E-15 7.304E-19 0.000E+00
 ETOT 19  -26.385542253339      0.000E+00 1.006E-19 0.000E+00
 ETOT 20  -26.385542253339     -7.105E-15 1.959E-20 0.000E+00
 ETOT 21  -26.385542253339     -7.105E-15 9.950E-21 0.000E+00

 At SCF step   21   max residual=  9.95E-21 < tolwfr=  1.00E-20 =>converged.

 ----iterations are completed or convergence reached----

 dfpt_looppert: DFPT cycle converged with prtwf=-1. Will skip output of the 1st-order WFK file.
 dfpt_looppert : ek2=    4.9297297050E+01
          f-sum rule ratio=    1.0664894985E+00
 prteigrs : about to open file /scratch/users/j/a/jabreu/flow_simple_8atoms/flow/w471/t1/tmpdata/tmp_1WF1_EIG
 Expectation of eigenvalue derivatives (hartree) for nkpt=   2  k points:
  (in case of degenerate eigenvalues, averaged derivative)
 kpt#   1, nband= 33, wtk=  0.50000, kpt=  0.5000  0.5000  0.5000 (reduced coord)
   0.00000   -0.00000    0.00000    0.00000   -0.00000   -0.00000   -0.00000   -0.00000
  -0.00000    0.00000    0.00000    0.00000   -0.00000   -0.00000   -0.00000   -0.00000
  -0.00000   -0.00000   -0.00000    0.00000    0.00000    0.00000    0.00000    0.00000
   0.00000    0.00000   -0.00000    0.00000    0.00000   -0.00000   -0.00000    0.00000
   0.00000
 prteigrs : prtvol=0 or 1, do not print more k-points.

 Eight components of 2nd-order total energy (hartree) are
 1,2,3: 0th-order hamiltonian combined with 1st-order wavefunctions
     kin0=   3.24663787E+01 eigvalue=   1.16687874E+00  local=  -1.44273873E+01
 4,5,6: 1st-order hamiltonian combined with 1st and 0th-order wfs
     kin1=  -5.25750496E+01  Hartree=   0.00000000E+00     xc=   0.00000000E+00
 7,8,9: eventually, occupation + non-local contributions
    edocc=   7.11342818E+00     enl0=   6.62439154E-02   enl1=  -1.96034898E-01
 1-9 gives the relaxation energy (to be shifted if some occ is /=2.0)
   erelax=  -2.63855423E+01
  No Ewald or frozen-wf contrib.: the relaxation energy is the total one
 2DEtotal=   -0.2638554225E+02 Ha. Also 2DEtotal=   -0.717987118610E+03 eV
    (  non-var. 2DEtotal :   -2.6385542253E+01 Ha)

 CALCULATION OF EFFECTIVE MASSES
 NOTE : Additional infos (eff. mass eigenvalues, eigenvectors and, if degenerate, average mass) are available in stdout.

 K-point ( 0.500, 0.500, 0.500) | band =    24
 Effective mass tensor:
            -17.2997242689            -11.4224934237            -27.9792805785
            -11.4224934237             -9.2228012059            -19.7843387135
            -27.9792805785            -19.7843387135            -49.6074135294
 Effective mass tensor eigenvalues:
            -73.8381814143             -1.1458788450             -1.1458787448
 Angular average effective mass 1/(<1/m>)=  -1.7055838983
 Angular average effective mass for Frohlich model (<m**0.5>)**2=  -2.4333592116
 Effective masses along directions: (cart. coord. / red. coord. -> eff. mass)
    1:   1.000000  0.000000  0.000000 /   0.948683  0.316228  0.000000 ->  -1.4667692361
    2:   0.000000  1.000000  0.000000 /   0.000000  1.000000  0.000000 ->  -1.2866177678
    3:   0.000000  0.000000  1.000000 /   0.408248  0.408248  0.816497 ->  -3.3341522975
    4:   0.577350  0.577350  0.577350 /   0.585539  0.688047  0.428644 ->  -8.3359170675
    5:   0.000000  0.707107  0.707107 /   0.289489  0.762222  0.578977 ->  -3.2813990620
    6:   0.707107  0.000000  0.707107 /   0.731423  0.422287  0.535439 ->  -6.2436936682
    7:   0.707107  0.707107  0.000000 /   0.616798  0.787122  0.000000 ->  -1.6820893077

 K-point ( 0.000, 0.000, 0.000) | band =    25
 Effective mass tensor:
              0.3809261043              0.0000012699             -0.0000013240
              0.0000012699              0.3809272964              0.0000004561
             -0.0000013240              0.0000004561              0.3809259245
 Effective mass tensor eigenvalues:
              0.3809242027              0.3809269532              0.3809281693
 Angular average effective mass 1/(<1/m>)=   0.3809264417
 Angular average effective mass for Frohlich model (<m**0.5>)**2=   0.3809264417
 Effective masses along directions: (cart. coord. / red. coord. -> eff. mass)
    1:   1.000000  0.000000  0.000000 /   0.948683  0.316228  0.000000 ->   0.3809261043
    2:   0.000000  1.000000  0.000000 /   0.000000  1.000000  0.000000 ->   0.3809272964
    3:   0.000000  0.000000  1.000000 /   0.408248  0.408248  0.816497 ->   0.3809259245
    4:   0.577350  0.577350  0.577350 /   0.585539  0.688047  0.428644 ->   0.3809267097
    5:   0.000000  0.707107  0.707107 /   0.289489  0.762222  0.578977 ->   0.3809270665
    6:   0.707107  0.000000  0.707107 /   0.731423  0.422287  0.535439 ->   0.3809246904
    7:   0.707107  0.707107  0.000000 /   0.616798  0.787122  0.000000 ->   0.3809279702

 END OF EFFECTIVE MASSES SECTION

 ---- first-order wavefunction calculations are completed ----

 Total localisation tensor (bohr^2) in cartesian coordinates
  WARNING : still subject to testing - especially symmetries.
      direction              matrix element
   alpha     beta       real part   imaginary part
     1        1       1.0200820663    0.0000000000
     1        2       0.2885224240    0.0000000000
     1        3       0.7067334419    0.0000000000
     2        1       0.2885224240    0.0000000000
     2        2       0.8160646500    0.0000000000
     2        3       0.4997354974    0.0000000000
     3        1       0.7067334419    0.0000000000
     3        2       0.4997354974    0.0000000000
     3        3       1.8361500523    0.0000000000

 respfn : d/dk was computed, but no 2DTE, so no DDB output.

== END DATASET(S) ==============================================================

 -outvars: echo values of variables after computation  --------
            acell      1.0000000000E+00  1.0000000000E+00  1.0000000000E+00 Bohr
              amu      8.54678000E+01  2.69815390E+01  1.59994000E+01
             ecut      4.40000000E+01 Hartree
           etotal     -2.6385542253E+01
            fcart      0.0000000000E+00  0.0000000000E+00  0.0000000000E+00
                       0.0000000000E+00  0.0000000000E+00  0.0000000000E+00
                       0.0000000000E+00  0.0000000000E+00  0.0000000000E+00
                       0.0000000000E+00  0.0000000000E+00  0.0000000000E+00
                       0.0000000000E+00  0.0000000000E+00  0.0000000000E+00
                       0.0000000000E+00  0.0000000000E+00  0.0000000000E+00
                       0.0000000000E+00  0.0000000000E+00  0.0000000000E+00
                       0.0000000000E+00  0.0000000000E+00  0.0000000000E+00
-          fftalg         512
           irdden           1
           irdwfk           1
           istwfk        1    1
              ixc     -116133
              kpt      5.00000000E-01  5.00000000E-01  5.00000000E-01
                       0.00000000E+00  0.00000000E+00  0.00000000E+00
           kptopt           0
P           mkmem           2
P          mkqmem           2
P          mk1mem           2
            natom           8
            nband          33
           nbdbuf           4
            ngfft          72      72      72
             nkpt           2
            nstep        2000
             nsym          48
           ntypat           3
              occ      2.000000  2.000000  2.000000  2.000000  2.000000  2.000000
                       2.000000  2.000000  2.000000  2.000000  2.000000  2.000000
                       2.000000  2.000000  2.000000  2.000000  2.000000  2.000000
                       2.000000  2.000000  2.000000  2.000000  2.000000  2.000000
                       0.000000  0.000000  0.000000  0.000000  0.000000  0.000000
                       0.000000  0.000000  0.000000
        optdriver           1
            prtwf          -1
            rfdir           1       1       1
           rfelfd           2
            rprim      9.2999409761E+00  0.0000000000E+00  5.3693234260E+00
                       3.0999803254E+00  8.7680684384E+00  5.3693234260E+00
                       0.0000000000E+00  0.0000000000E+00  1.0738646852E+01
          spgroup         227
           strten      0.0000000000E+00  0.0000000000E+00  0.0000000000E+00
                       0.0000000000E+00  0.0000000000E+00  0.0000000000E+00
           symrel      1  0  0   0  1  0   0  0  1      -1  0  0   0 -1  0   0  0 -1
                       0 -1  1   0 -1  0   1 -1  0       0  1 -1   0  1  0  -1  1  0
                      -1  0  0  -1  0  1  -1  1  0       1  0  0   1  0 -1   1 -1  0
                       0  1 -1   1  0 -1   0  0 -1       0 -1  1  -1  0  1   0  0  1
                      -1  0  0  -1  1  0  -1  0  1       1  0  0   1 -1  0   1  0 -1
                       0 -1  1   1 -1  0   0 -1  0       0  1 -1  -1  1  0   0  1  0
                       1  0  0   0  0  1   0  1  0      -1  0  0   0  0 -1   0 -1  0
                       0  1 -1   0  0 -1   1  0 -1       0 -1  1   0  0  1  -1  0  1
                      -1  0  1  -1  1  0  -1  0  0       1  0 -1   1 -1  0   1  0  0
                       0 -1  0   1 -1  0   0 -1  1       0  1  0  -1  1  0   0  1 -1
                       1  0 -1   0  0 -1   0  1 -1      -1  0  1   0  0  1   0 -1  1
                       0  1  0   0  0  1   1  0  0       0 -1  0   0  0 -1  -1  0  0
                       1  0 -1   0  1 -1   0  0 -1      -1  0  1   0 -1  1   0  0  1
                       0 -1  0   0 -1  1   1 -1  0       0  1  0   0  1 -1  -1  1  0
                      -1  0  1  -1  0  0  -1  1  0       1  0 -1   1  0  0   1 -1  0
                       0  1  0   1  0  0   0  0  1       0 -1  0  -1  0  0   0  0 -1
                       0  0 -1   0  1 -1   1  0 -1       0  0  1   0 -1  1  -1  0  1
                       1 -1  0   0 -1  1   0 -1  0      -1  1  0   0  1 -1   0  1  0
                       0  0  1   1  0  0   0  1  0       0  0 -1  -1  0  0   0 -1  0
                      -1  1  0  -1  0  0  -1  0  1       1 -1  0   1  0  0   1  0 -1
                       0  0  1   0  1  0   1  0  0       0  0 -1   0 -1  0  -1  0  0
                       1 -1  0   0 -1  0   0 -1  1      -1  1  0   0  1  0   0  1 -1
                       0  0 -1   1  0 -1   0  1 -1       0  0  1  -1  0  1   0 -1  1
                      -1  1  0  -1  0  1  -1  0  0       1 -1  0   1  0 -1   1  0  0
            tnons      0.0000000  0.0000000  0.0000000     0.2500000  0.2500000  0.2500000
                       0.0000000  0.0000000  0.0000000     0.2500000  0.2500000  0.2500000
                       0.0000000 -0.0000000  0.0000000     0.2500000  0.2500000  0.2500000
                       0.0000000 -0.0000000  0.0000000     0.2500000  0.2500000  0.2500000
                       0.0000000  0.0000000  0.0000000     0.2500000  0.2500000  0.2500000
                       0.0000000  0.0000000  0.0000000     0.2500000  0.2500000  0.2500000
                       0.0000000 -0.0000000  0.0000000     0.2500000  0.2500000  0.2500000
                       0.0000000 -0.0000000  0.0000000     0.2500000  0.2500000  0.2500000
                       0.0000000  0.0000000  0.0000000     0.2500000  0.2500000  0.2500000
                       0.0000000  0.0000000  0.0000000     0.2500000  0.2500000  0.2500000
                       0.0000000 -0.0000000  0.0000000     0.2500000  0.2500000  0.2500000
                       0.0000000 -0.0000000  0.0000000     0.2500000  0.2500000  0.2500000
                       0.0000000  0.0000000  0.0000000     0.2500000  0.2500000  0.2500000
                       0.0000000  0.0000000  0.0000000     0.2500000  0.2500000  0.2500000
                       0.0000000 -0.0000000  0.0000000     0.2500000  0.2500000  0.2500000
                       0.0000000 -0.0000000  0.0000000     0.2500000  0.2500000  0.2500000
                       0.0000000  0.0000000  0.0000000     0.2500000  0.2500000  0.2500000
                       0.0000000  0.0000000  0.0000000     0.2500000  0.2500000  0.2500000
                       0.0000000 -0.0000000  0.0000000     0.2500000  0.2500000  0.2500000
                       0.0000000 -0.0000000  0.0000000     0.2500000  0.2500000  0.2500000
                       0.0000000  0.0000000  0.0000000     0.2500000  0.2500000  0.2500000
                       0.0000000  0.0000000  0.0000000     0.2500000  0.2500000  0.2500000
                       0.0000000 -0.0000000  0.0000000     0.2500000  0.2500000  0.2500000
                       0.0000000 -0.0000000  0.0000000     0.2500000  0.2500000  0.2500000
           tolwfr      1.00000000E-20
            typat      1  1  2  2  3  3  3  3
           useylm           1
              wtk        0.50000    0.50000
           xangst      4.9213168058E+00  3.4798964857E+00  8.5239707478E+00
                       3.2808778705E+00  2.3199309905E+00  5.6826471652E+00
                       0.0000000000E+00  0.0000000000E+00  0.0000000000E+00
                       1.6404389353E+00  1.1599654952E+00  2.8413235826E+00
                       8.2021946763E-01  5.7998274762E-01  1.4206617913E+00
                       1.6404389353E+00  2.8999137381E+00  2.8413235826E+00
                       3.2808778705E+00  5.7998274762E-01  2.8413235826E+00
                       8.2021946763E-01  5.7998274762E-01  4.2619853739E+00
            xcart      9.2999409761E+00  6.5760513288E+00  1.6107970278E+01
                       6.1999606508E+00  4.3840342192E+00  1.0738646852E+01
                       0.0000000000E+00  0.0000000000E+00  0.0000000000E+00
                       3.0999803254E+00  2.1920171096E+00  5.3693234260E+00
                       1.5499901627E+00  1.0960085548E+00  2.6846617130E+00
                       3.0999803254E+00  5.4800427740E+00  5.3693234260E+00
                       6.1999606507E+00  1.0960085548E+00  5.3693234260E+00
                       1.5499901627E+00  1.0960085548E+00  8.0539851390E+00
             xred      7.5000000000E-01  7.5000000000E-01  7.5000000000E-01
                       5.0000000000E-01  5.0000000000E-01  5.0000000000E-01
                       0.0000000000E+00  0.0000000000E+00  0.0000000000E+00
                       2.5000000000E-01  2.5000000000E-01  2.5000000000E-01
                       1.2500000000E-01  1.2500000000E-01  1.2500000000E-01
                       1.2500000000E-01  6.2500000000E-01  1.2500000000E-01
                       6.2500000000E-01  1.2500000000E-01  1.2500000000E-01
                       1.2500000000E-01  1.2500000000E-01  6.2500000000E-01
            znucl       37.00000   13.00000    8.00000

- Timing analysis has been suppressed with timopt=0

 Suggested references for the acknowledgment of ABINIT usage.

 Calculation completed.
.Delivered  14 WARNINGs and  15 COMMENTs to log file.