.Version 9.5.1 of ABINIT

 ABINIT is a project of the Universite Catholique de Louvain,
 Corning Inc. and other collaborators, see ~abinit/doc/developers/contributors.txt .
 acknowledgments of the ABINIT effort.

.Starting date : Tue 11 May 2021.
- ( at 21h33 )

- input  file    -> /scratch/users/j/a/jabreu/flow_simple_8atoms/flow/w319/t1/run.abi
- output file    -> /scratch/users/j/a/jabreu/flow_simple_8atoms/flow/w319/t1/run.abo
- root for input  files -> /scratch/users/j/a/jabreu/flow_simple_8atoms/flow/w319/t1/indata/in
- root for output files -> /scratch/users/j/a/jabreu/flow_simple_8atoms/flow/w319/t1/outdata/out

 Symmetries : space group P6_3/m m c (#194); Bravais hP (primitive hexag.)
     intxc =       0      iscf =       7    lmnmax =      18     lnmax =       6
     mgfft =     144  mpssoang =       3    mqgrid =    6925     natom =       8
  nloc_mem =       1    nspden =       1   nspinor =       1    nsppol =       1
      nsym =      24    n1xccc =    2501    ntypat =       3    occopt =       1
   xclevel =       2
-    mband =          51        mffmem =           1         mkmem =           2
-   mkqmem =           2        mk1mem =           2           mpw =       10156
      nfft =      186624          nkpt =           2
  Rough estimation (10% accuracy) of disk space for files :

------------- Echo of variables that govern the present computation ------------
-
- outvars: echo of selected default values
-   iomode0 =  0 , fftalg0 =512 , wfoptalg0 =  0
-
- outvars: echo of global parameters not present in the input file
-  max_nthreads =    0
-
 -outvars: echo values of preprocessed input variables --------
            acell      1.0000000000E+00  1.0000000000E+00  1.0000000000E+00 Bohr
              amu      4.49559100E+01  1.07868200E+02  1.59994000E+01
             ecut      4.40000000E+01 Hartree
-          fftalg         512
           irdden           1
           irdwfk           1
           istwfk        1    1
              ixc     -116133
              kpt      5.00000000E-01  0.00000000E+00  0.00000000E+00
                       0.00000000E+00  0.00000000E+00  0.00000000E+00
           kptopt           0
P           mkmem           2
P          mkqmem           2
P          mk1mem           2
            natom           8
            nband          51
           nbdbuf           4
            ngfft          36      36     144
             nkpt           2
            nstep        2000
             nsym          24
           ntypat           3
              occ      2.000000  2.000000  2.000000  2.000000  2.000000  2.000000
                       2.000000  2.000000  2.000000  2.000000  2.000000  2.000000
                       2.000000  2.000000  2.000000  2.000000  2.000000  2.000000
                       2.000000  2.000000  2.000000  2.000000  2.000000  2.000000
                       2.000000  2.000000  2.000000  2.000000  2.000000  2.000000
                       2.000000  2.000000  2.000000  2.000000  2.000000  2.000000
                       2.000000  2.000000  2.000000  2.000000  2.000000  2.000000
                       0.000000  0.000000  0.000000  0.000000  0.000000  0.000000
                       0.000000  0.000000  0.000000
        optdriver           1
            prtwf          -1
            rfdir           1       1       1
           rfelfd           2
            rprim      6.0259213252E+00  0.0000000000E+00  0.0000000000E+00
                      -3.0129606626E+00  5.2186009488E+00  0.0000000000E+00
                       0.0000000000E+00  0.0000000000E+00  2.3188411457E+01
          spgroup         194
           symrel      1  0  0   0  1  0   0  0  1      -1  0  0   0 -1  0   0  0 -1
                       0  1  0   1  0  0   0  0  1       0 -1  0  -1  0  0   0  0 -1
                       1  1  0  -1  0  0   0  0  1      -1 -1  0   1  0  0   0  0 -1
                      -1  0  0   1  1  0   0  0  1       1  0  0  -1 -1  0   0  0 -1
                       0  1  0  -1 -1  0   0  0  1       0 -1  0   1  1  0   0  0 -1
                      -1 -1  0   0  1  0   0  0  1       1  1  0   0 -1  0   0  0 -1
                      -1  0  0   0 -1  0   0  0  1       1  0  0   0  1  0   0  0 -1
                       0 -1  0  -1  0  0   0  0  1       0  1  0   1  0  0   0  0 -1
                      -1 -1  0   1  0  0   0  0  1       1  1  0  -1  0  0   0  0 -1
                       1  0  0  -1 -1  0   0  0  1      -1  0  0   1  1  0   0  0 -1
                       0 -1  0   1  1  0   0  0  1       0  1  0  -1 -1  0   0  0 -1
                       1  1  0   0 -1  0   0  0  1      -1 -1  0   0  1  0   0  0 -1
            tnons      0.0000000  0.0000000  0.0000000     0.0000000  0.0000000  0.0000000
                       0.0000000  0.0000000  0.5000000     0.0000000  0.0000000  0.5000000
                       0.0000000  0.0000000  0.5000000     0.0000000  0.0000000  0.5000000
                       0.0000000  0.0000000  0.0000000     0.0000000  0.0000000  0.0000000
                       0.0000000  0.0000000  0.0000000     0.0000000  0.0000000  0.0000000
                       0.0000000  0.0000000  0.5000000     0.0000000  0.0000000  0.5000000
                       0.0000000  0.0000000  0.5000000     0.0000000  0.0000000  0.5000000
                       0.0000000  0.0000000  0.0000000     0.0000000  0.0000000  0.0000000
                       0.0000000  0.0000000  0.0000000     0.0000000  0.0000000  0.0000000
                       0.0000000  0.0000000  0.5000000     0.0000000  0.0000000  0.5000000
                       0.0000000  0.0000000  0.5000000     0.0000000  0.0000000  0.5000000
                       0.0000000  0.0000000  0.0000000     0.0000000  0.0000000  0.0000000
           tolwfr      1.00000000E-20
            typat      1  1  2  2  3  3  3  3
           useylm           1
              wtk        0.50000    0.50000
           xangst      0.0000000000E+00  0.0000000000E+00  0.0000000000E+00
                       0.0000000000E+00  0.0000000000E+00  6.1353894232E+00
                       0.0000000000E+00  1.8410431219E+00  9.2030841348E+00
                       1.5943901130E+00  9.2052156094E-01  3.0676947116E+00
                       1.5943901130E+00  9.2052156094E-01  5.1195652672E+00
                       0.0000000000E+00  1.8410431219E+00  1.1254954690E+01
                       1.5943901130E+00  9.2052156094E-01  1.0158241560E+00
                       0.0000000000E+00  1.8410431219E+00  7.1512135792E+00
            xcart      0.0000000000E+00  0.0000000000E+00  0.0000000000E+00
                       0.0000000000E+00  0.0000000000E+00  1.1594205728E+01
                       0.0000000000E+00  3.4790672992E+00  1.7391308593E+01
                       3.0129606626E+00  1.7395336496E+00  5.7971028642E+00
                       3.0129606626E+00  1.7395336496E+00  9.6745762744E+00
                       0.0000000000E+00  3.4790672992E+00  2.1268782003E+01
                       3.0129606626E+00  1.7395336496E+00  1.9196294540E+00
                       0.0000000000E+00  3.4790672992E+00  1.3513835182E+01
             xred      0.0000000000E+00  0.0000000000E+00  0.0000000000E+00
                       0.0000000000E+00  0.0000000000E+00  5.0000000000E-01
                       3.3333333333E-01  6.6666666667E-01  7.5000000000E-01
                       6.6666666667E-01  3.3333333333E-01  2.5000000000E-01
                       6.6666666667E-01  3.3333333333E-01  4.1721600000E-01
                       3.3333333333E-01  6.6666666667E-01  9.1721600000E-01
                       6.6666666667E-01  3.3333333333E-01  8.2784000000E-02
                       3.3333333333E-01  6.6666666667E-01  5.8278400000E-01
            znucl       21.00000   47.00000    8.00000

 chkinp: Checking input parameters for consistency.

== DATASET  1 ==================================================================
-   mpi_nproc: 1, omp_nthreads: -1 (-1 if OMP is not activated)

--- !DatasetInfo
iteration_state: {dtset: 1, }
dimensions: {natom: 8, nkpt: 2, mband: 51, nsppol: 1, nspinor: 1, nspden: 1, mpw: 10156, }
cutoff_energies: {ecut:  44.0, pawecutdg:  -1.0, }
electrons: {nelect:   8.40000000E+01, charge:   0.00000000E+00, occopt:   1.00000000E+00, tsmear:   1.00000000E-02, }
meta: {optdriver: 1, rfelfd: 2, }
...

 Real(R)+Recip(G) space primitive vectors, cartesian coordinates (Bohr,Bohr^-1):
 R(1)=  6.0259213  0.0000000  0.0000000  G(1)=  0.1659497  0.0958111  0.0000000
 R(2)= -3.0129607  5.2186009  0.0000000  G(2)=  0.0000000  0.1916222  0.0000000
 R(3)=  0.0000000  0.0000000 23.1884115  G(3)=  0.0000000  0.0000000  0.0431250
 Unit cell volume ucvol=  7.2920316E+02 bohr^3
 Angles (23,13,12)=  9.00000000E+01  9.00000000E+01  1.20000000E+02 degrees

 getcut: wavevector=  0.0000  0.0000  0.0000  ngfft=  36  36 144
         ecut(hartree)=     44.000   => boxcut(ratio)=   2.00073

--- Pseudopotential description ------------------------------------------------
- pspini: atom type   1  psp file is /scratch/users/j/a/jabreu/pseudos/PBEsol/Sc.psp8
- pspatm: opening atomic psp file    /scratch/users/j/a/jabreu/pseudos/PBEsol/Sc.psp8
- Sc    ONCVPSP-3.3.0  r_core=   1.35663   1.35663   1.66161
- 21.00000  11.00000    180112                znucl, zion, pspdat
    8 -116133    2    4       600   0.00000   pspcod,pspxc,lmax,lloc,mmax,r2well
    5.99000000000000    5.00000000000000    0.00000000000000   rchrg,fchrg,qchrg
     nproj     2     2     2
     extension_switch     1
  pspatm : epsatm=   13.58981094
         --- l  ekb(1:nproj) -->
             0   10.810997    0.948773
             1    2.871172    0.364831
             2   -4.789751   -1.321945
 pspatm: atomic psp has been read  and splines computed

- pspini: atom type   2  psp file is /scratch/users/j/a/jabreu/pseudos/PBEsol/Ag.psp8
- pspatm: opening atomic psp file    /scratch/users/j/a/jabreu/pseudos/PBEsol/Ag.psp8
- Ag    ONCVPSP-3.3.0  r_core=   1.41384   1.46535   1.61207
- 47.00000  19.00000    180112                znucl, zion, pspdat
    8 -116133    2    4       600   0.00000   pspcod,pspxc,lmax,lloc,mmax,r2well
    5.99000000000000    7.00000000000000    0.00000000000000   rchrg,fchrg,qchrg
     nproj     2     2     2
     extension_switch     1
  pspatm : epsatm=   27.64581383
         --- l  ekb(1:nproj) -->
             0    9.559407   -0.398585
             1    3.418858   -0.136622
             2   -1.644397   -0.401551
 pspatm: atomic psp has been read  and splines computed

- pspini: atom type   3  psp file is /scratch/users/j/a/jabreu/pseudos/PBEsol/O.psp8
- pspatm: opening atomic psp file    /scratch/users/j/a/jabreu/pseudos/PBEsol/O.psp8
- O     ONCVPSP-3.3.0  r_core=   1.35509   1.45563   1.26150
-  8.00000   6.00000    180112                znucl, zion, pspdat
    8 -116133    2    4       600   0.00000   pspcod,pspxc,lmax,lloc,mmax,r2well
    5.99000000000000    4.00000000000000    0.00000000000000   rchrg,fchrg,qchrg
     nproj     2     2     1
     extension_switch     1
  pspatm : epsatm=    6.22910522
         --- l  ekb(1:nproj) -->
             0    6.050032    0.820363
             1   -4.739617   -1.153841
             2   -1.335834
[...]
 1-9 gives the relaxation energy (to be shifted if some occ is /=2.0)
   erelax=  -1.28454819E+02
  No Ewald or frozen-wf contrib.: the relaxation energy is the total one
 2DEtotal=   -0.1284548194E+03 Ha. Also 2DEtotal=   -0.349543339811E+04 eV
    (  non-var. 2DEtotal :   -1.2845481935E+02 Ha)

 Perturbation wavevector (in red.coord.)   0.000000  0.000000  0.000000
 Perturbation : derivative vs k along direction   2
 The set of symmetries contains only one element for this perturbation.
 symkpt : not enough symmetry to change the number of k points.

[...]

 Perturbation wavevector (in red.coord.)   0.000000  0.000000  0.000000
 Perturbation : derivative vs k along direction   3
 The set of symmetries contains only one element for this perturbation.
 symkpt : not enough symmetry to change the number of k points.

-inwffil : will read wavefunctions from disk file /scratch/users/j/a/jabreu/flow_simple_8atoms/flow/w319/t1/indata/in_WFK

 Initialisation of the first-order wave-functions :
  ireadwf=   0

--- !BeginCycle
iteration_state: {dtset: 1, }
solver: {iscf: 7, nstep: 2000, nline: 4, wfoptalg: 0, }
tolerances: {tolwfr: 1.00E-20, }
...

     iter   2DEtotal(Ha)        deltaE(Ha) residm    vres2
-ETOT  1  -6.1658865188867     -6.166E+00 8.863E-03 0.000E+00
 ETOT  2  -6.1938360122117     -2.795E-02 5.793E-04 0.000E+00
 ETOT  3  -6.1947440738462     -9.081E-04 7.649E-05 0.000E+00
 ETOT  4  -6.1947837441927     -3.967E-05 4.004E-05 0.000E+00
 ETOT  5  -6.1947857394731     -1.995E-06 9.130E-06 0.000E+00
 ETOT  6  -6.1947858430151     -1.035E-07 5.592E-06 0.000E+00
 ETOT  7  -6.1947858495103     -6.495E-09 1.437E-06 0.000E+00
 ETOT  8  -6.1947858499487     -4.383E-10 8.796E-07 0.000E+00
 ETOT  9  -6.1947858499792     -3.050E-11 2.274E-07 0.000E+00
 ETOT 10  -6.1947858499813     -2.139E-12 1.409E-07 0.000E+00
 ETOT 11  -6.1947858499815     -1.608E-13 3.604E-08 0.000E+00
 ETOT 12  -6.1947858499815     -9.770E-15 2.263E-08 0.000E+00
 ETOT 13  -6.1947858499815      0.000E+00 5.778E-09 0.000E+00
 ETOT 14  -6.1947858499815     -4.441E-15 3.653E-09 0.000E+00
 ETOT 15  -6.1947858499815      7.105E-15 9.438E-10 0.000E+00
 ETOT 16  -6.1947858499815      2.665E-15 5.968E-10 0.000E+00
 ETOT 17  -6.1947858499815     -7.994E-15 1.568E-10 0.000E+00
 ETOT 18  -6.1947858499815      0.000E+00 9.887E-11 0.000E+00
 ETOT 19  -6.1947858499815     -3.553E-15 2.634E-11 0.000E+00
 ETOT 20  -6.1947858499815      0.000E+00 1.656E-11 0.000E+00
 ETOT 21  -6.1947858499815      8.882E-16 4.450E-12 0.000E+00
 ETOT 22  -6.1947858499815      8.882E-16 2.793E-12 0.000E+00
 ETOT 23  -6.1947858499815      2.665E-15 7.545E-13 0.000E+00
 ETOT 24  -6.1947858499815     -8.882E-16 4.730E-13 0.000E+00
 ETOT 25  -6.1947858499815      0.000E+00 1.281E-13 0.000E+00
 ETOT 26  -6.1947858499815      1.776E-15 8.034E-14 0.000E+00
 ETOT 27  -6.1947858499815      0.000E+00 2.179E-14 0.000E+00
 ETOT 28  -6.1947858499815      0.000E+00 1.367E-14 0.000E+00
 ETOT 29  -6.1947858499815      0.000E+00 3.707E-15 0.000E+00
 ETOT 30  -6.1947858499815      8.882E-16 2.328E-15 0.000E+00
 ETOT 31  -6.1947858499815     -8.882E-16 6.313E-16 0.000E+00
 ETOT 32  -6.1947858499815      0.000E+00 3.968E-16 0.000E+00
 ETOT 33  -6.1947858499815     -8.882E-16 1.075E-16 0.000E+00
 ETOT 34  -6.1947858499815      1.776E-15 6.768E-17 0.000E+00
 ETOT 35  -6.1947858499815      1.776E-15 1.833E-17 0.000E+00
 ETOT 36  -6.1947858499815     -1.776E-15 1.155E-17 0.000E+00
 ETOT 37  -6.1947858499815      0.000E+00 3.126E-18 0.000E+00
 ETOT 38  -6.1947858499815      0.000E+00 1.972E-18 0.000E+00
 ETOT 39  -6.1947858499815      0.000E+00 5.334E-19 0.000E+00
 ETOT 40  -6.1947858499815     -8.882E-16 3.369E-19 0.000E+00
 ETOT 41  -6.1947858499815     -8.882E-16 9.105E-20 0.000E+00
 ETOT 42  -6.1947858499815      8.882E-16 5.757E-20 0.000E+00
 ETOT 43  -6.1947858499815      8.882E-16 1.555E-20 0.000E+00
 ETOT 44  -6.1947858499815      0.000E+00 9.991E-21 0.000E+00

 At SCF step   44   max residual=  9.99E-21 < tolwfr=  1.00E-20 =>converged.

 ----iterations are completed or convergence reached----

 dfpt_looppert: DFPT cycle converged with prtwf=-1. Will skip output of the 1st-order WFK file.
 dfpt_looppert : ek2=    1.2334655449E+01
          f-sum rule ratio=    1.0109167889E+00
 prteigrs : about to open file /scratch/users/j/a/jabreu/flow_simple_8atoms/flow/w319/t1/tmpdata/tmp_1WF1_EIG
 Expectation of eigenvalue derivatives (hartree) for nkpt=   2  k points:
  (in case of degenerate eigenvalues, averaged derivative)
 kpt#   1, nband= 51, wtk=  0.50000, kpt=  0.5000  0.0000  0.0000 (reduced coord)
   0.00000    0.00000    0.00000    0.00000   -0.00000    0.00000    0.00000   -0.00000
  -0.00000   -0.00000   -0.00000    0.00000   -0.00000   -0.00000    0.00000    0.00000
   0.00000   -0.00000   -0.00000   -0.00000    0.00000    0.00000   -0.00000    0.00000
  -0.00000   -0.00000   -0.00000    0.00000    0.00000   -0.00000   -0.00000   -0.00000
  -0.00000    0.00000   -0.00000   -0.00000    0.00000   -0.00000   -0.00000    0.00000
   0.00000    0.00000    0.00000    0.00000   -0.00000   -0.00000    0.00000   -0.00000
  -0.00000    0.00000    0.00000
 prteigrs : prtvol=0 or 1, do not print more k-points.

 Eight components of 2nd-order total energy (hartree) are
 1,2,3: 0th-order hamiltonian combined with 1st-order wavefunctions
     kin0=   1.12545853E+01 eigvalue=  -3.05890159E-01  local=  -5.52986353E+00
 4,5,6: 1st-order hamiltonian combined with 1st and 0th-order wfs
     kin1=  -1.24693103E+01  Hartree=   0.00000000E+00     xc=   0.00000000E+00
 7,8,9: eventually, occupation + non-local contributions
    edocc=   1.20853434E+00     enl0=  -4.32580052E-01   enl1=   7.97385789E-02
 1-9 gives the relaxation energy (to be shifted if some occ is /=2.0)
   erelax=  -6.19478585E+00
  No Ewald or frozen-wf contrib.: the relaxation energy is the total one
 2DEtotal=   -0.6194785850E+01 Ha. Also 2DEtotal=   -0.168568695694E+03 eV
    (  non-var. 2DEtotal :   -6.1947858498E+00 Ha)

 CALCULATION OF EFFECTIVE MASSES
 NOTE : Additional infos (eff. mass eigenvalues, eigenvectors and, if degenerate, average mass) are available in stdout.

 K-point ( 0.500, 0.000, 0.000) | band =    42
 Effective mass tensor:
             -2.4253355300              3.1815394431              0.0000034914
              3.1815394431             -6.0990609243              0.0000020287
              0.0000034914              0.0000020287             -4.6028472917
 Effective mass tensor eigenvalues:
             -7.9359235566             -4.6028472917             -0.5884728978
 Angular average effective mass 1/(<1/m>)=  -1.4687309325
 Angular average effective mass for Frohlich model (<m**0.5>)**2=  -2.1717578721
 Effective masses along directions: (cart. coord. / red. coord. -> eff. mass)
    1:   1.000000  0.000000  0.000000 /   0.894427 -0.447214  0.000000 ->  -0.7657040960
    2:   0.000000  1.000000  0.000000 /   0.000000  1.000000  0.000000 ->  -1.9255380849
    3:   0.000000  0.000000  1.000000 /   0.000000  0.000000  1.000000 ->  -4.6028472917
    4:   0.577350  0.577350  0.577350 /   0.250455  0.091673  0.963778 ->  -0.8810300263
    5:   0.000000  0.707107  0.707107 /   0.000000  0.219561  0.975599 ->  -2.7152011727
    6:   0.707107  0.000000  0.707107 /   0.249548 -0.124774  0.960290 ->  -1.3129847501
    7:   0.707107  0.707107  0.000000 /   0.939071  0.343724  0.000000 ->  -0.6273831963

 K-point ( 0.000, 0.000, 0.000) | band =    43
 Effective mass tensor:
              1.2398415286              0.0000000015              0.0000000000
              0.0000000015              1.2398415304             -0.0000000000
              0.0000000000             -0.0000000000              0.2863825736
 Effective mass tensor eigenvalues:
              0.2863825736              1.2398415277              1.2398415313
 Angular average effective mass 1/(<1/m>)=   0.5876658395
 Angular average effective mass for Frohlich model (<m**0.5>)**2=   0.6911709598
 Effective masses along directions: (cart. coord. / red. coord. -> eff. mass)
    1:   1.000000  0.000000  0.000000 /   0.894427 -0.447214  0.000000 ->   1.2398415286
    2:   0.000000  1.000000  0.000000 /   0.000000  1.000000  0.000000 ->   1.2398415304
    3:   0.000000  0.000000  1.000000 /   0.000000  0.000000  1.000000 ->   0.2863825736
    4:   0.577350  0.577350  0.577350 /   0.250455  0.091673  0.963778 ->   0.5876658397
    5:   0.000000  0.707107  0.707107 /   0.000000  0.219561  0.975599 ->   0.4652907885
    6:   0.707107  0.000000  0.707107 /   0.249548 -0.124774  0.960290 ->   0.4652907884
    7:   0.707107  0.707107  0.000000 /   0.939071  0.343724  0.000000 ->   1.2398415310

 END OF EFFECTIVE MASSES SECTION

 ---- first-order wavefunction calculations are completed ----

 Total localisation tensor (bohr^2) in cartesian coordinates
  WARNING : still subject to testing - especially symmetries.
      direction              matrix element
   alpha     beta       real part   imaginary part
     1        1       1.3659263396    0.0000000000
     1        2      -0.4020829961    0.0000000000
     1        3       0.0000000000    0.0000000000
     2        1      -0.4020829961    0.0000000000
     2        2       0.6964281782    0.0000000000
     2        3       0.0000000000    0.0000000000
     3        1       0.0000000000    0.0000000000
     3        2       0.0000000000    0.0000000000
     3        3       0.6416827810    0.0000000000

 respfn : d/dk was computed, but no 2DTE, so no DDB output.

== END DATASET(S) ==============================================================

 -outvars: echo values of variables after computation  --------
            acell      1.0000000000E+00  1.0000000000E+00  1.0000000000E+00 Bohr
              amu      4.49559100E+01  1.07868200E+02  1.59994000E+01
             ecut      4.40000000E+01 Hartree
           etotal     -6.1947858500E+00
            fcart      0.0000000000E+00  0.0000000000E+00  0.0000000000E+00
                       0.0000000000E+00  0.0000000000E+00  0.0000000000E+00
                       0.0000000000E+00  0.0000000000E+00  0.0000000000E+00
                       0.0000000000E+00  0.0000000000E+00  0.0000000000E+00
                       0.0000000000E+00  0.0000000000E+00  0.0000000000E+00
                       0.0000000000E+00  0.0000000000E+00  0.0000000000E+00
                       0.0000000000E+00  0.0000000000E+00  0.0000000000E+00
                       0.0000000000E+00  0.0000000000E+00  0.0000000000E+00
-          fftalg         512
           irdden           1
           irdwfk           1
           istwfk        1    1
              ixc     -116133
              kpt      5.00000000E-01  0.00000000E+00  0.00000000E+00
                       0.00000000E+00  0.00000000E+00  0.00000000E+00
           kptopt           0
P           mkmem           2
P          mkqmem           2
P          mk1mem           2
            natom           8
            nband          51
           nbdbuf           4
            ngfft          36      36     144
             nkpt           2
            nstep        2000
             nsym          24
           ntypat           3
              occ      2.000000  2.000000  2.000000  2.000000  2.000000  2.000000
                       2.000000  2.000000  2.000000  2.000000  2.000000  2.000000
                       2.000000  2.000000  2.000000  2.000000  2.000000  2.000000
                       2.000000  2.000000  2.000000  2.000000  2.000000  2.000000
                       2.000000  2.000000  2.000000  2.000000  2.000000  2.000000
                       2.000000  2.000000  2.000000  2.000000  2.000000  2.000000
                       2.000000  2.000000  2.000000  2.000000  2.000000  2.000000
                       0.000000  0.000000  0.000000  0.000000  0.000000  0.000000
                       0.000000  0.000000  0.000000
        optdriver           1
            prtwf          -1
            rfdir           1       1       1
           rfelfd           2
            rprim      6.0259213252E+00  0.0000000000E+00  0.0000000000E+00
                      -3.0129606626E+00  5.2186009488E+00  0.0000000000E+00
                       0.0000000000E+00  0.0000000000E+00  2.3188411457E+01
          spgroup         194
           strten      0.0000000000E+00  0.0000000000E+00  0.0000000000E+00
                       0.0000000000E+00  0.0000000000E+00  0.0000000000E+00
           symrel      1  0  0   0  1  0   0  0  1      -1  0  0   0 -1  0   0  0 -1
                       0  1  0   1  0  0   0  0  1       0 -1  0  -1  0  0   0  0 -1
                       1  1  0  -1  0  0   0  0  1      -1 -1  0   1  0  0   0  0 -1
                      -1  0  0   1  1  0   0  0  1       1  0  0  -1 -1  0   0  0 -1
                       0  1  0  -1 -1  0   0  0  1       0 -1  0   1  1  0   0  0 -1
                      -1 -1  0   0  1  0   0  0  1       1  1  0   0 -1  0   0  0 -1
                      -1  0  0   0 -1  0   0  0  1       1  0  0   0  1  0   0  0 -1
                       0 -1  0  -1  0  0   0  0  1       0  1  0   1  0  0   0  0 -1
                      -1 -1  0   1  0  0   0  0  1       1  1  0  -1  0  0   0  0 -1
                       1  0  0  -1 -1  0   0  0  1      -1  0  0   1  1  0   0  0 -1
                       0 -1  0   1  1  0   0  0  1       0  1  0  -1 -1  0   0  0 -1
                       1  1  0   0 -1  0   0  0  1      -1 -1  0   0  1  0   0  0 -1
            tnons      0.0000000  0.0000000  0.0000000     0.0000000  0.0000000  0.0000000
                       0.0000000  0.0000000  0.5000000     0.0000000  0.0000000  0.5000000
                       0.0000000  0.0000000  0.5000000     0.0000000  0.0000000  0.5000000
                       0.0000000  0.0000000  0.0000000     0.0000000  0.0000000  0.0000000
                       0.0000000  0.0000000  0.0000000     0.0000000  0.0000000  0.0000000
                       0.0000000  0.0000000  0.5000000     0.0000000  0.0000000  0.5000000
                       0.0000000  0.0000000  0.5000000     0.0000000  0.0000000  0.5000000
                       0.0000000  0.0000000  0.0000000     0.0000000  0.0000000  0.0000000
                       0.0000000  0.0000000  0.0000000     0.0000000  0.0000000  0.0000000
                       0.0000000  0.0000000  0.5000000     0.0000000  0.0000000  0.5000000
                       0.0000000  0.0000000  0.5000000     0.0000000  0.0000000  0.5000000
                       0.0000000  0.0000000  0.0000000     0.0000000  0.0000000  0.0000000
           tolwfr      1.00000000E-20
            typat      1  1  2  2  3  3  3  3
           useylm           1
              wtk        0.50000    0.50000
           xangst      0.0000000000E+00  0.0000000000E+00  0.0000000000E+00
                       0.0000000000E+00  0.0000000000E+00  6.1353894232E+00
                       0.0000000000E+00  1.8410431219E+00  9.2030841348E+00
                       1.5943901130E+00  9.2052156094E-01  3.0676947116E+00
                       1.5943901130E+00  9.2052156094E-01  5.1195652672E+00
                       0.0000000000E+00  1.8410431219E+00  1.1254954690E+01
                       1.5943901130E+00  9.2052156094E-01  1.0158241560E+00
                       0.0000000000E+00  1.8410431219E+00  7.1512135792E+00
            xcart      0.0000000000E+00  0.0000000000E+00  0.0000000000E+00
                       0.0000000000E+00  0.0000000000E+00  1.1594205728E+01
                       0.0000000000E+00  3.4790672992E+00  1.7391308593E+01
                       3.0129606626E+00  1.7395336496E+00  5.7971028642E+00
                       3.0129606626E+00  1.7395336496E+00  9.6745762744E+00
                       0.0000000000E+00  3.4790672992E+00  2.1268782003E+01
                       3.0129606626E+00  1.7395336496E+00  1.9196294540E+00
                       0.0000000000E+00  3.4790672992E+00  1.3513835182E+01
             xred      0.0000000000E+00  0.0000000000E+00  0.0000000000E+00
                       0.0000000000E+00  0.0000000000E+00  5.0000000000E-01
                       3.3333333333E-01  6.6666666667E-01  7.5000000000E-01
                       6.6666666667E-01  3.3333333333E-01  2.5000000000E-01
                       6.6666666667E-01  3.3333333333E-01  4.1721600000E-01
                       3.3333333333E-01  6.6666666667E-01  9.1721600000E-01
                       6.6666666667E-01  3.3333333333E-01  8.2784000000E-02
                       3.3333333333E-01  6.6666666667E-01  5.8278400000E-01
            znucl       21.00000   47.00000    8.00000

- Timing analysis has been suppressed with timopt=0

 Suggested references for the acknowledgment of ABINIT usage.

 Calculation completed.
.Delivered  14 WARNINGs and   9 COMMENTs to log file.