.Version 9.5.2 of ABINIT

 ABINIT is a project of the Universite Catholique de Louvain,
 Corning Inc. and other collaborators, see ~abinit/doc/developers/contributors.txt .
 acknowledgments of the ABINIT effort.

.Starting date : Mon 31 May 2021.
- ( at 22h27 )

- input  file    -> /scratch/users/j/a/jabreu/flow_simple_11atoms/flow/w365/t1/run.abi
- output file    -> /scratch/users/j/a/jabreu/flow_simple_11atoms/flow/w365/t1/run.abo
- root for input  files -> /scratch/users/j/a/jabreu/flow_simple_11atoms/flow/w365/t1/indata/in
- root for output files -> /scratch/users/j/a/jabreu/flow_simple_11atoms/flow/w365/t1/outdata/out

 Symmetries : space group P-3 (#147); Bravais hP (primitive hexag.)
     intxc =       0      iscf =       7    lmnmax =      18     lnmax =       6
     mgfft =      80  mpssoang =       3    mqgrid =    3986     natom =      11
  nloc_mem =       1    nspden =       1   nspinor =       1    nsppol =       1
      nsym =       6    n1xccc =    2501    ntypat =       4    occopt =       1
   xclevel =       2
-    mband =          58        mffmem =           1         mkmem =           2
-   mkqmem =           2        mk1mem =           2           mpw =       24456
      nfft =      450000          nkpt =           2
  Rough estimation (10% accuracy) of disk space for files :

------------- Echo of variables that govern the present computation ------------
-
- outvars: echo of selected default values
-   iomode0 =  0 , fftalg0 =512 , wfoptalg0 =  0
-
- outvars: echo of global parameters not present in the input file
-  max_nthreads =    0
-
 -outvars: echo values of preprocessed input variables --------
            acell      1.0000000000E+00  1.0000000000E+00  1.0000000000E+00 Bohr
              amu      3.90983000E+01  1.18710000E+02  7.49215900E+01
                       3.20660000E+01
             ecut      4.20000000E+01 Hartree
-          fftalg         512
           irdden           1
           irdwfk           1
           istwfk        0    1
              ixc     -116133
              kpt      2.35294118E-01  0.00000000E+00  5.00000000E-01
                       0.00000000E+00  0.00000000E+00  0.00000000E+00
           kptopt           0
P           mkmem           2
P          mkqmem           2
P          mk1mem           2
            natom          11
            nband          58
           nbdbuf           4
            ngfft          75      75      80
             nkpt           2
            nstep        2000
             nsym           6
           ntypat           4
              occ      2.000000  2.000000  2.000000  2.000000  2.000000  2.000000
                       2.000000  2.000000  2.000000  2.000000  2.000000  2.000000
                       2.000000  2.000000  2.000000  2.000000  2.000000  2.000000
                       2.000000  2.000000  2.000000  2.000000  2.000000  2.000000
                       2.000000  2.000000  2.000000  2.000000  2.000000  2.000000
                       2.000000  2.000000  2.000000  2.000000  2.000000  2.000000
                       2.000000  2.000000  2.000000  2.000000  2.000000  2.000000
                       2.000000  2.000000  2.000000  2.000000  2.000000  2.000000
                       2.000000  0.000000  0.000000  0.000000  0.000000  0.000000
                       0.000000  0.000000  0.000000  0.000000
        optdriver           1
            prtwf          -1
            rfdir           1       1       1
           rfelfd           2
            rprim      1.2600054713E+01  0.0000000000E+00  0.0000000000E+00
                      -6.3000273563E+00  1.0911967470E+01  0.0000000000E+00
                       0.0000000000E+00  0.0000000000E+00  1.3661809468E+01
          spgroup         147
           symrel      1  0  0   0  1  0   0  0  1      -1  0  0   0 -1  0   0  0 -1
                       0  1  0  -1 -1  0   0  0  1       0 -1  0   1  1  0   0  0 -1
                      -1 -1  0   1  0  0   0  0  1       1  1  0  -1  0  0   0  0 -1
           tolwfr      1.00000000E-20
            typat      1  1  2  3  3  4  4  4  4  4  4
           useylm           1
              wtk        0.50000    0.50000
           xangst      3.3338308904E+00  1.9247881620E+00  4.2626468316E+00
                      -1.7639241746E-11  3.8495763240E+00  2.9668713668E+00
                       0.0000000000E+00  0.0000000000E+00  0.0000000000E+00
                       3.3338308904E+00  1.9247881620E+00  4.0703633361E-01
                      -1.7639241746E-11  3.8495763240E+00  6.8224818648E+00
                       3.8178831327E+00  3.8094675883E+00  1.5827005830E+00
                       1.8742063823E+00  4.3727144986E+00  5.6468176154E+00
                      -4.8405224231E-01  1.9648968977E+00  5.6468176154E+00
                      -1.3901541400E+00  5.2111175758E+00  5.6468176154E+00
                       4.7239850304E+00  5.6324691027E-01  1.5827005830E+00
                       1.4596245081E+00  1.4016499875E+00  1.5827005830E+00
            xcart      6.3000273562E+00  3.6373224900E+00  8.0552351129E+00
                      -3.3333336091E-11  7.2746449801E+00  5.6065743548E+00
                       0.0000000000E+00  0.0000000000E+00  0.0000000000E+00
                       6.3000273562E+00  3.6373224900E+00  7.6918719665E-01
                      -3.3333336091E-11  7.2746449801E+00  1.2892622271E+01
                       7.2147535282E+00  7.1988504540E+00  2.9908706523E+00
                       3.5417367790E+00  8.2632328596E+00  1.0670938815E+01
                      -9.1472617198E-01  3.7131170161E+00  1.0670938815E+01
                      -2.6270106072E+00  9.8475850645E+00  1.0670938815E+01
                       8.9270379634E+00  1.0643824056E+00  2.9908706523E+00
                       2.7582905772E+00  2.6487346105E+00  2.9908706523E+00
             xred      6.6666666667E-01  3.3333333333E-01  5.8961700000E-01
                       3.3333333333E-01  6.6666666667E-01  4.1038300000E-01
                       0.0000000000E+00  0.0000000000E+00  0.0000000000E+00
                       6.6666666667E-01  3.3333333333E-01  5.6302000000E-02
                       3.3333333333E-01  6.6666666667E-01  9.4369800000E-01
                       9.0245733333E-01  6.5972066667E-01  2.1892200000E-01
                       6.5972066667E-01  7.5726333333E-01  7.8107800000E-01
                       9.7542666667E-02  3.4027933333E-01  7.8107800000E-01
                       2.4273666667E-01  9.0245733333E-01  7.8107800000E-01
                       7.5726333333E-01  9.7542666667E-02  2.1892200000E-01
                       3.4027933333E-01  2.4273666667E-01  2.1892200000E-01
            znucl       19.00000   50.00000   33.00000   16.00000

 chkinp: Checking input parameters for consistency.

== DATASET  1 ==================================================================
-   mpi_nproc: 1, omp_nthreads: -1 (-1 if OMP is not activated)

--- !DatasetInfo
iteration_state: {dtset: 1, }
dimensions: {natom: 11, nkpt: 2, mband: 58, nsppol: 1, nspinor: 1, nspden: 1, mpw: 24456, }
cutoff_energies: {ecut:  42.0, pawecutdg:  -1.0, }
electrons: {nelect:   9.80000000E+01, charge:   0.00000000E+00, occopt:   1.00000000E+00, tsmear:   1.00000000E-02, }
meta: {optdriver: 1, rfelfd: 2, }
...

 Real(R)+Recip(G) space primitive vectors, cartesian coordinates (Bohr,Bohr^-1):
 R(1)= 12.6000547  0.0000000  0.0000000  G(1)=  0.0793647  0.0458213  0.0000000
 R(2)= -6.3000274 10.9119675  0.0000000  G(2)=  0.0000000  0.0916425  0.0000000
 R(3)=  0.0000000  0.0000000 13.6618095  G(3)=  0.0000000  0.0000000  0.0731967
 Unit cell volume ucvol=  1.8783811E+03 bohr^3
 Angles (23,13,12)=  9.00000000E+01  9.00000000E+01  1.20000000E+02 degrees

 getcut: wavevector=  0.0000  0.0000  0.0000  ngfft=  75  75  80
         ecut(hartree)=     42.000   => boxcut(ratio)=   2.00721

--- Pseudopotential description ------------------------------------------------
- pspini: atom type   1  psp file is /scratch/users/j/a/jabreu/pseudos/PBEsol/K.psp8
- pspatm: opening atomic psp file    /scratch/users/j/a/jabreu/pseudos/PBEsol/K.psp8
- K     ONCVPSP-3.3.0  r_core=   1.36296   1.46408   1.61068
- 19.00000   9.00000    180112                znucl, zion, pspdat
    8 -116133    2    4       400   0.00000   pspcod,pspxc,lmax,lloc,mmax,r2well
    3.99000000000000    5.00000000000000    0.00000000000000   rchrg,fchrg,qchrg
     nproj     2     2     2
     extension_switch     1
  pspatm : epsatm=    8.32487830
         --- l  ekb(1:nproj) -->
             0   10.921326    0.816676
             1    4.431000    0.560368
             2   -3.384038   -1.043186
 pspatm: atomic psp has been read  and splines computed

- pspini: atom type   2  psp file is /scratch/users/j/a/jabreu/pseudos/PBEsol/Sn.psp8
- pspatm: opening atomic psp file    /scratch/users/j/a/jabreu/pseudos/PBEsol/Sn.psp8
- Sn    ONCVPSP-3.3.0  r_core=   2.27326   2.62311   1.85601
- 50.00000  14.00000    180112                znucl, zion, pspdat
    8 -116133    2    4       600   0.00000   pspcod,pspxc,lmax,lloc,mmax,r2well
    5.99000000000000    6.50000000000000    0.00000000000000   rchrg,fchrg,qchrg
     nproj     2     2     2
     extension_switch     1
  pspatm : epsatm=   32.44586081
         --- l  ekb(1:nproj) -->
             0    5.587869    0.749373
             1    4.197111    0.728791
             2   -5.271877   -1.523486
 pspatm: atomic psp has been read  and splines computed

[...]

- pspini: atom type   4  psp file is /scratch/users/j/a/jabreu/pseudos/PBEsol/S.psp8
- pspatm: opening atomic psp file    /scratch/users/j/a/jabreu/pseudos/PBEsol/S.psp8
- S     ONCVPSP-3.3.0  r_core=   1.45376   1.45376   1.61851
- 16.00000   6.00000    180112                znucl, zion, pspdat
    8 -116133    2    4       600   0.00000   pspcod,pspxc,lmax,lloc,mmax,r2well
    5.99000000000000    6.00000000000000    0.00000000000000   rchrg,fchrg,qchrg
     nproj     2     2     2
     extension_switch     1
  pspatm : epsatm=    8.71840985
         --- l  ekb(1:nproj) -->
             0    6.834532    0.579453
             1    3.282851    0.896984
             2   -3.496974   -0.974265
 pspatm: atomic psp has been read  and splines computed

   1.55809400E+04                                ecore*ucvol(ha*bohr**3)

 ==>  initialize data related to q vector <==

 The list of irreducible perturbations for this q vector is:
    1)    idir= 1    ipert=  12
    2)    idir= 2    ipert=  12
    3)    idir= 3    ipert=  12

 Perturbation wavevector (in red.coord.)   0.000000  0.000000  0.000000
 Perturbation : derivative vs k along direction   1

 dfpt_looppert : COMMENT -
  In a d/dk calculation, iscf is set to -3 automatically.
 The set of symmetries contains only one element for this perturbation.
 symkpt : not enough symmetry to change the number of k points.

 Initialisation of the first-order wave-functions :
  ireadwf=   0

--- !BeginCycle
iteration_state: {dtset: 1, }
solver: {iscf: 7, nstep: 2000, nline: 4, wfoptalg: 0, }
tolerances: {tolwfr: 1.00E-20, }
...

     iter   2DEtotal(Ha)        deltaE(Ha) residm    vres2
-ETOT  1  -54.017910228107     -5.402E+01 1.179E-01 0.000E+00
[...]
 ETOT 28  -54.151131311674      0.000E+00 7.195E-20 0.000E+00
 ETOT 29  -54.151131311674      0.000E+00 1.400E-20 0.000E+00
 ETOT 30  -54.151131311674      1.421E-14 9.952E-21 0.000E+00

 At SCF step   30   max residual=  9.95E-21 < tolwfr=  1.00E-20 =>converged.

 ----iterations are completed or convergence reached----

 dfpt_looppert: DFPT cycle converged with prtwf=-1. Will skip output of the 1st-order WFK file.
 dfpt_looppert : ek2=    6.4984485194E+01
          f-sum rule ratio=    1.0395378927E+00
 prteigrs : about to open file /scratch/users/j/a/jabreu/flow_simple_11atoms/flow/w365/t1/tmpdata/tmp_1WF1_EIG
 Expectation of eigenvalue derivatives (hartree) for nkpt=   2  k points:
  (in case of degenerate eigenvalues, averaged derivative)
 kpt#   1, nband= 58, wtk=  0.50000, kpt=  0.2353  0.0000  0.5000 (reduced coord)
  -0.00002   -0.00001    0.00000    0.00002   -0.00000    0.00000   -0.00000    0.00000
   0.00001   -0.00001    0.00049   -0.00049   -0.00006    0.00001    0.00001   -0.00001
   0.00001    0.03783   -0.00727   -0.00606    0.00079    0.00086    0.00284    0.00396
  -0.00136   -0.08515   -0.01571   -0.03878    0.01088    0.11701    0.07185   -0.01377
  -0.04973   -0.06518    0.05528    0.03591    0.11320   -0.06843   -0.04399   -0.03999
  -0.03335   -0.03399   -0.00934    0.02765   -0.04846   -0.05748    0.00065   -0.04324
   0.00248    0.04731    0.02578    0.01642    0.02534    0.08402    0.01169    0.02611
  -0.02350    0.08797
 prteigrs : prtvol=0 or 1, do not print more k-points.

 Eight components of 2nd-order total energy (hartree) are
 1,2,3: 0th-order hamiltonian combined with 1st-order wavefunctions
     kin0=   6.57213615E+01 eigvalue=   6.36362303E+00  local=  -3.25280111E+01
 4,5,6: 1st-order hamiltonian combined with 1st and 0th-order wfs
     kin1=  -6.75538348E+01  Hartree=   0.00000000E+00     xc=   0.00000000E+00
 7,8,9: eventually, occupation + non-local contributions
    edocc=   8.62304055E+00     enl0=   5.97111734E+00   enl1=  -4.07484278E+01
 1-9 gives the relaxation energy (to be shifted if some occ is /=2.0)
   erelax=  -5.41511313E+01
  No Ewald or frozen-wf contrib.: the relaxation energy is the total one
 2DEtotal=   -0.5415113131E+02 Ha. Also 2DEtotal=   -0.147352722058E+04 eV
    (  non-var. 2DEtotal :   -5.4151131311E+01 Ha)

 Perturbation wavevector (in red.coord.)   0.000000  0.000000  0.000000
 Perturbation : derivative vs k along direction   2
 The set of symmetries contains only one element for this perturbation.
 symkpt : not enough symmetry to change the number of k points.

[...]

 Perturbation wavevector (in red.coord.)   0.000000  0.000000  0.000000
 Perturbation : derivative vs k along direction   3
 The set of symmetries contains only one element for this perturbation.
 symkpt : not enough symmetry to change the number of k points.

 Initialisation of the first-order wave-functions :
  ireadwf=   0

--- !BeginCycle
iteration_state: {dtset: 1, }
solver: {iscf: 7, nstep: 2000, nline: 4, wfoptalg: 0, }
tolerances: {tolwfr: 1.00E-20, }
...

     iter   2DEtotal(Ha)        deltaE(Ha) residm    vres2
-ETOT  1  -33.633702351710     -3.363E+01 5.469E-02 0.000E+00
 ETOT  2  -33.708503299215     -7.480E-02 4.891E-03 0.000E+00
 ETOT  3  -33.710602023695     -2.099E-03 3.298E-04 0.000E+00
 ETOT  4  -33.710715137772     -1.131E-04 5.910E-05 0.000E+00
 ETOT  5  -33.710722796729     -7.659E-06 5.635E-06 0.000E+00
 ETOT  6  -33.710723377422     -5.807E-07 1.246E-06 0.000E+00
 ETOT  7  -33.710723423548     -4.613E-08 1.330E-07 0.000E+00
 ETOT  8  -33.710723427333     -3.785E-09 3.159E-08 0.000E+00
 ETOT  9  -33.710723427650     -3.167E-10 3.448E-09 0.000E+00
 ETOT 10  -33.710723427677     -2.695E-11 8.444E-10 0.000E+00
 ETOT 11  -33.710723427679     -2.288E-12 9.390E-11 0.000E+00
 ETOT 12  -33.710723427679     -1.990E-13 2.333E-11 0.000E+00
 ETOT 13  -33.710723427679     -4.263E-14 2.639E-12 0.000E+00
 ETOT 14  -33.710723427679     -7.105E-15 6.771E-13 0.000E+00
 ETOT 15  -33.710723427679      7.105E-15 7.582E-14 0.000E+00
 ETOT 16  -33.710723427679      2.132E-14 2.093E-14 0.000E+00
 ETOT 17  -33.710723427679     -1.421E-14 2.216E-15 0.000E+00
 ETOT 18  -33.710723427679     -2.842E-14 6.622E-16 0.000E+00
 ETOT 19  -33.710723427679      2.132E-14 6.920E-17 0.000E+00
 ETOT 20  -33.710723427679      0.000E+00 2.134E-17 0.000E+00
 ETOT 21  -33.710723427679     -7.105E-15 2.258E-18 0.000E+00
 ETOT 22  -33.710723427679      1.421E-14 6.977E-19 0.000E+00
 ETOT 23  -33.710723427679     -7.105E-15 7.457E-20 0.000E+00
 ETOT 24  -33.710723427679      0.000E+00 2.305E-20 0.000E+00
 ETOT 25  -33.710723427679      0.000E+00 9.867E-21 0.000E+00

 At SCF step   25   max residual=  9.87E-21 < tolwfr=  1.00E-20 =>converged.

 ----iterations are completed or convergence reached----

 dfpt_looppert: DFPT cycle converged with prtwf=-1. Will skip output of the 1st-order WFK file.
 dfpt_looppert : ek2=    4.1457142050E+01
          f-sum rule ratio=    9.9803851491E-01
 prteigrs : about to open file /scratch/users/j/a/jabreu/flow_simple_11atoms/flow/w365/t1/tmpdata/tmp_1WF1_EIG
 Expectation of eigenvalue derivatives (hartree) for nkpt=   2  k points:
  (in case of degenerate eigenvalues, averaged derivative)
 kpt#   1, nband= 58, wtk=  0.50000, kpt=  0.2353  0.0000  0.5000 (reduced coord)
   0.00000    0.00000   -0.00000   -0.00000    0.00000   -0.00000    0.00000   -0.00000
   0.00000   -0.00000    0.00000   -0.00000   -0.00000    0.00000    0.00000    0.00000
  -0.00000   -0.00014    0.00050    0.00099   -0.00018   -0.00147    0.00021   -0.00010
  -0.00062   -0.00272    0.00498    0.00359   -0.00497    0.00060   -0.00098    0.00022
  -0.00158    0.00071    0.00588    0.00032   -0.00600    0.00069    0.00189   -0.00483
  -0.00349    0.00348    0.00052   -0.01624    0.01876   -0.00289   -0.00220    0.00674
  -0.00133    0.00169    0.00097   -0.02506    0.01865    0.00417    0.00904   -0.00480
   0.02298   -0.02571
 prteigrs : prtvol=0 or 1, do not print more k-points.

 Eight components of 2nd-order total energy (hartree) are
 1,2,3: 0th-order hamiltonian combined with 1st-order wavefunctions
     kin0=   4.20024773E+01 eigvalue=   4.10939976E+00  local=  -2.04697152E+01
 4,5,6: 1st-order hamiltonian combined with 1st and 0th-order wfs
     kin1=  -4.13758245E+01  Hartree=   0.00000000E+00     xc=   0.00000000E+00
 7,8,9: eventually, occupation + non-local contributions
    edocc=   4.58456747E+00     enl0=   3.48399405E+00   enl1=  -2.60456224E+01
 1-9 gives the relaxation energy (to be shifted if some occ is /=2.0)
   erelax=  -3.37107234E+01
  No Ewald or frozen-wf contrib.: the relaxation energy is the total one
 2DEtotal=   -0.3371072343E+02 Ha. Also 2DEtotal=   -0.917315435389E+03 eV
    (  non-var. 2DEtotal :   -3.3710723427E+01 Ha)

 CALCULATION OF EFFECTIVE MASSES
 NOTE : Additional infos (eff. mass eigenvalues, eigenvectors and, if degenerate, average mass) are available in stdout.

 K-point ( 0.235, 0.000, 0.500) | band =    49
 Effective mass tensor:
             -4.7669870255              4.7416031024              1.4152691720
              4.7416031024             -6.0658962909             -1.7383384082
              1.4152691720             -1.7383384082             -4.7142803682
 Effective mass tensor eigenvalues:
            -11.0007651042             -3.9174641811             -0.6289343994
 Angular average effective mass 1/(<1/m>)=  -1.5494580146
 Angular average effective mass for Frohlich model (<m**0.5>)**2=  -2.2908400769
 Effective masses along directions: (cart. coord. / red. coord. -> eff. mass)
    1:   1.000000  0.000000  0.000000 /   0.894427 -0.447214  0.000000 ->  -1.0598047503
    2:   0.000000  1.000000  0.000000 /   0.000000  1.000000  0.000000 ->  -1.3240884308
    3:   0.000000  0.000000  1.000000 /   0.000000  0.000000  1.000000 ->  -4.2131111592
    4:   0.577350  0.577350  0.577350 /   0.658008  0.240848  0.713455 ->  -0.9055139299
    5:   0.000000  0.707107  0.707107 /   0.000000  0.624085  0.781356 ->  -2.2823269981
    6:   0.707107  0.000000  0.707107 /   0.642078 -0.321039  0.696183 ->  -1.6581171347
    7:   0.707107  0.707107  0.000000 /   0.939071  0.343724  0.000000 ->  -0.6315701878

 K-point ( 0.000, 0.000, 0.000) | band =    50
 Effective mass tensor:
              0.4364829286              0.0000394757             -0.0000118162
              0.0000394757              0.4364578831             -0.0001624905
             -0.0000118162             -0.0001624905              0.8482558511
 Effective mass tensor eigenvalues:
              0.4364289541              0.4365117932              0.8482559156
 Angular average effective mass 1/(<1/m>)=   0.5207337027
 Angular average effective mass for Frohlich model (<m**0.5>)**2=   0.5342512563
 Effective masses along directions: (cart. coord. / red. coord. -> eff. mass)
    1:   1.000000  0.000000  0.000000 /   0.894427 -0.447214  0.000000 ->   0.4364829249
    2:   0.000000  1.000000  0.000000 /   0.000000  1.000000  0.000000 ->   0.4364578484
    3:   0.000000  0.000000  1.000000 /   0.000000  0.000000  1.000000 ->   0.8482557903
    4:   0.577350  0.577350  0.577350 /   0.658008  0.240848  0.713455 ->   0.5206860614
    5:   0.000000  0.707107  0.707107 /   0.000000  0.624085  0.781356 ->   0.5762128735
    6:   0.707107  0.000000  0.707107 /   0.642078 -0.321039  0.696183 ->   0.5763699062
    7:   0.707107  0.707107  0.000000 /   0.939071  0.343724  0.000000 ->   0.4365098633

 END OF EFFECTIVE MASSES SECTION

 ---- first-order wavefunction calculations are completed ----

 Total localisation tensor (bohr^2) in cartesian coordinates
  WARNING : still subject to testing - especially symmetries.
      direction              matrix element
   alpha     beta       real part   imaginary part
     1        1       2.3155957248    0.0000000000
     1        2      -0.8387522944    0.0000000000
     1        3       0.0000000000    0.0000000000
     2        1      -0.8387522944    0.0000000000
     2        2       1.4527615888    0.0000000000
     2        3       0.0000000000    0.0000000000
     3        1       0.0000000000    0.0000000000
     3        2       0.0000000000    0.0000000000
     3        3       1.0442269025    0.0000000000

 respfn : d/dk was computed, but no 2DTE, so no DDB output.

== END DATASET(S) ==============================================================

 -outvars: echo values of variables after computation  --------
            acell      1.0000000000E+00  1.0000000000E+00  1.0000000000E+00 Bohr
              amu      3.90983000E+01  1.18710000E+02  7.49215900E+01
                       3.20660000E+01
             ecut      4.20000000E+01 Hartree
           etotal     -3.3710723428E+01
            fcart      0.0000000000E+00  0.0000000000E+00  0.0000000000E+00
                       0.0000000000E+00  0.0000000000E+00  0.0000000000E+00
                       0.0000000000E+00  0.0000000000E+00  0.0000000000E+00
                       0.0000000000E+00  0.0000000000E+00  0.0000000000E+00
                       0.0000000000E+00  0.0000000000E+00  0.0000000000E+00
                       0.0000000000E+00  0.0000000000E+00  0.0000000000E+00
                       0.0000000000E+00  0.0000000000E+00  0.0000000000E+00
                       0.0000000000E+00  0.0000000000E+00  0.0000000000E+00
                       0.0000000000E+00  0.0000000000E+00  0.0000000000E+00
                       0.0000000000E+00  0.0000000000E+00  0.0000000000E+00
                       0.0000000000E+00  0.0000000000E+00  0.0000000000E+00
-          fftalg         512
           irdden           1
           irdwfk           1
           istwfk        0    1
              ixc     -116133
              kpt      2.35294118E-01  0.00000000E+00  5.00000000E-01
                       0.00000000E+00  0.00000000E+00  0.00000000E+00
           kptopt           0
P           mkmem           2
P          mkqmem           2
P          mk1mem           2
            natom          11
            nband          58
           nbdbuf           4
            ngfft          75      75      80
             nkpt           2
            nstep        2000
             nsym           6
           ntypat           4
              occ      2.000000  2.000000  2.000000  2.000000  2.000000  2.000000
                       2.000000  2.000000  2.000000  2.000000  2.000000  2.000000
                       2.000000  2.000000  2.000000  2.000000  2.000000  2.000000
                       2.000000  2.000000  2.000000  2.000000  2.000000  2.000000
                       2.000000  2.000000  2.000000  2.000000  2.000000  2.000000
                       2.000000  2.000000  2.000000  2.000000  2.000000  2.000000
                       2.000000  2.000000  2.000000  2.000000  2.000000  2.000000
                       2.000000  2.000000  2.000000  2.000000  2.000000  2.000000
                       2.000000  0.000000  0.000000  0.000000  0.000000  0.000000
                       0.000000  0.000000  0.000000  0.000000
        optdriver           1
            prtwf          -1
            rfdir           1       1       1
           rfelfd           2
            rprim      1.2600054713E+01  0.0000000000E+00  0.0000000000E+00
                      -6.3000273563E+00  1.0911967470E+01  0.0000000000E+00
                       0.0000000000E+00  0.0000000000E+00  1.3661809468E+01
          spgroup         147
           strten      0.0000000000E+00  0.0000000000E+00  0.0000000000E+00
                       0.0000000000E+00  0.0000000000E+00  0.0000000000E+00
           symrel      1  0  0   0  1  0   0  0  1      -1  0  0   0 -1  0   0  0 -1
                       0  1  0  -1 -1  0   0  0  1       0 -1  0   1  1  0   0  0 -1
                      -1 -1  0   1  0  0   0  0  1       1  1  0  -1  0  0   0  0 -1
           tolwfr      1.00000000E-20
            typat      1  1  2  3  3  4  4  4  4  4  4
           useylm           1
              wtk        0.50000    0.50000
           xangst      3.3338308904E+00  1.9247881620E+00  4.2626468316E+00
                      -1.7639241746E-11  3.8495763240E+00  2.9668713668E+00
                       0.0000000000E+00  0.0000000000E+00  0.0000000000E+00
                       3.3338308904E+00  1.9247881620E+00  4.0703633361E-01
                      -1.7639241746E-11  3.8495763240E+00  6.8224818648E+00
                       3.8178831327E+00  3.8094675883E+00  1.5827005830E+00
                       1.8742063823E+00  4.3727144986E+00  5.6468176154E+00
                      -4.8405224231E-01  1.9648968977E+00  5.6468176154E+00
                      -1.3901541400E+00  5.2111175758E+00  5.6468176154E+00
                       4.7239850304E+00  5.6324691027E-01  1.5827005830E+00
                       1.4596245081E+00  1.4016499875E+00  1.5827005830E+00
            xcart      6.3000273562E+00  3.6373224900E+00  8.0552351129E+00
                      -3.3333336091E-11  7.2746449801E+00  5.6065743548E+00
                       0.0000000000E+00  0.0000000000E+00  0.0000000000E+00
                       6.3000273562E+00  3.6373224900E+00  7.6918719665E-01
                      -3.3333336091E-11  7.2746449801E+00  1.2892622271E+01
                       7.2147535282E+00  7.1988504540E+00  2.9908706523E+00
                       3.5417367790E+00  8.2632328596E+00  1.0670938815E+01
                      -9.1472617198E-01  3.7131170161E+00  1.0670938815E+01
                      -2.6270106072E+00  9.8475850645E+00  1.0670938815E+01
                       8.9270379634E+00  1.0643824056E+00  2.9908706523E+00
                       2.7582905772E+00  2.6487346105E+00  2.9908706523E+00
             xred      6.6666666667E-01  3.3333333333E-01  5.8961700000E-01
                       3.3333333333E-01  6.6666666667E-01  4.1038300000E-01
                       0.0000000000E+00  0.0000000000E+00  0.0000000000E+00
                       6.6666666667E-01  3.3333333333E-01  5.6302000000E-02
                       3.3333333333E-01  6.6666666667E-01  9.4369800000E-01
                       9.0245733333E-01  6.5972066667E-01  2.1892200000E-01
                       6.5972066667E-01  7.5726333333E-01  7.8107800000E-01
                       9.7542666667E-02  3.4027933333E-01  7.8107800000E-01
                       2.4273666667E-01  9.0245733333E-01  7.8107800000E-01
                       7.5726333333E-01  9.7542666667E-02  2.1892200000E-01
                       3.4027933333E-01  2.4273666667E-01  2.1892200000E-01
            znucl       19.00000   50.00000   33.00000   16.00000

- Timing analysis has been suppressed with timopt=0

 Suggested references for the acknowledgment of ABINIT usage.

 Calculation completed.
.Delivered   2 WARNINGs and   5 COMMENTs to log file.