.Version 9.5.1 of ABINIT

 ABINIT is a project of the Universite Catholique de Louvain,
 Corning Inc. and other collaborators, see ~abinit/doc/developers/contributors.txt .
 acknowledgments of the ABINIT effort.

.Starting date : Sun 25 Apr 2021.
- ( at 17h22 )

- input  file    -> /scratch/users/j/a/jabreu/flow_simple2/flow/w200/t1/run.abi
- output file    -> /scratch/users/j/a/jabreu/flow_simple2/flow/w200/t1/run.abo
- root for input  files -> /scratch/users/j/a/jabreu/flow_simple2/flow/w200/t1/indata/in
- root for output files -> /scratch/users/j/a/jabreu/flow_simple2/flow/w200/t1/outdata/out

 Symmetries : space group F-4 3 m (#216); Bravais cF (face-center cubic)
     intxc =       0      iscf =       7    lmnmax =      13     lnmax =       5
     mgfft =      32  mpssoang =       3    mqgrid =    3001     natom =       2
  nloc_mem =       1    nspden =       1   nspinor =       1    nsppol =       1
      nsym =      24    n1xccc =    2501    ntypat =       2    occopt =       1
   xclevel =       2
-    mband =          14        mffmem =           1         mkmem =           2
-   mkqmem =           2        mk1mem =           2           mpw =        1298
      nfft =       32768          nkpt =           2
  Rough estimation (10% accuracy) of disk space for files :

------------- Echo of variables that govern the present computation ------------
-
- outvars: echo of selected default values
-   iomode0 =  0 , fftalg0 =512 , wfoptalg0 =  0
-
- outvars: echo of global parameters not present in the input file
-  max_nthreads =    0
-
 -outvars: echo values of preprocessed input variables --------
            acell      1.0000000000E+00  1.0000000000E+00  1.0000000000E+00 Bohr
              amu      9.01218200E+00  1.59994000E+01
             ecut      4.40000000E+01 Hartree
-          fftalg         512
           irdden           1
           irdwfk           1
           istwfk        1    1
              ixc     -116133
              kpt      0.00000000E+00  0.00000000E+00  0.00000000E+00
                       5.00000000E-01  0.00000000E+00  5.00000000E-01
           kptopt           0
P           mkmem           2
P          mkqmem           2
P          mk1mem           2
            natom           2
            nband          14
           nbdbuf           4
            ngfft          32      32      32
             nkpt           2
            nstep         100
             nsym          24
           ntypat           2
              occ      2.000000  2.000000  2.000000  2.000000  2.000000  0.000000
                       0.000000  0.000000  0.000000  0.000000  0.000000  0.000000
                       0.000000  0.000000
        optdriver           1
            prtwf          -1
            rfdir           1       1       1
           rfelfd           2
            rprim      4.3932514774E+00  0.0000000000E+00  2.5364449231E+00
                       1.4644171591E+00  4.1419972148E+00  2.5364449231E+00
                       0.0000000000E+00  0.0000000000E+00  5.0728898461E+00
          spgroup         216
           symrel      1  0  0   0  1  0   0  0  1       0 -1  1   0 -1  0   1 -1  0
                      -1  0  0  -1  0  1  -1  1  0       0  1 -1   1  0 -1   0  0 -1
                      -1  0  0  -1  1  0  -1  0  1       0 -1  1   1 -1  0   0 -1  0
                       1  0  0   0  0  1   0  1  0       0  1 -1   0  0 -1   1  0 -1
                      -1  0  1  -1  1  0  -1  0  0       0 -1  0   1 -1  0   0 -1  1
                       1  0 -1   0  0 -1   0  1 -1       0  1  0   0  0  1   1  0  0
                       1  0 -1   0  1 -1   0  0 -1       0 -1  0   0 -1  1   1 -1  0
                      -1  0  1  -1  0  0  -1  1  0       0  1  0   1  0  0   0  0  1
                       0  0 -1   0  1 -1   1  0 -1       1 -1  0   0 -1  1   0 -1  0
                       0  0  1   1  0  0   0  1  0      -1  1  0  -1  0  0  -1  0  1
                       0  0  1   0  1  0   1  0  0       1 -1  0   0 -1  0   0 -1  1
                       0  0 -1   1  0 -1   0  1 -1      -1  1  0  -1  0  1  -1  0  0
           tolwfr      1.00000000E-20
            typat      1  2
           useylm           1
              wtk        0.50000    0.50000
           xangst      0.0000000000E+00  0.0000000000E+00  0.0000000000E+00
                       7.7493618448E-01  5.4796263103E-01  1.3422288441E+00
            xcart      0.0000000000E+00  0.0000000000E+00  0.0000000000E+00
                       1.4644171591E+00  1.0354993037E+00  2.5364449231E+00
             xred      0.0000000000E+00  0.0000000000E+00  0.0000000000E+00
                       2.5000000000E-01  2.5000000000E-01  2.5000000000E-01
            znucl        4.00000    8.00000

 chkinp: Checking input parameters for consistency.

== DATASET  1 ==================================================================
-   mpi_nproc: 1, omp_nthreads: -1 (-1 if OMP is not activated)

--- !DatasetInfo
iteration_state: {dtset: 1, }
dimensions: {natom: 2, nkpt: 2, mband: 14, nsppol: 1, nspinor: 1, nspden: 1, mpw: 1298, }
cutoff_energies: {ecut:  44.0, pawecutdg:  -1.0, }
electrons: {nelect:   1.00000000E+01, charge:   0.00000000E+00, occopt:   1.00000000E+00, tsmear:   1.00000000E-02, }
meta: {optdriver: 1, rfelfd: 2, }
...

 Real(R)+Recip(G) space primitive vectors, cartesian coordinates (Bohr,Bohr^-1):
 R(1)=  4.3932515  0.0000000  2.5364449  G(1)=  0.2276218 -0.0804765  0.0000000
 R(2)=  1.4644172  4.1419972  2.5364449  G(2)=  0.0000000  0.2414294  0.0000000
 R(3)=  0.0000000  0.0000000  5.0728898  G(3)= -0.1138109 -0.0804765  0.1971263
 Unit cell volume ucvol=  9.2310541E+01 bohr^3
 Angles (23,13,12)=  6.00000000E+01  6.00000000E+01  6.00000000E+01 degrees

 getcut: wavevector=  0.0000  0.0000  0.0000  ngfft=  32  32  32
         ecut(hartree)=     44.000   => boxcut(ratio)=   2.11253

--- Pseudopotential description ------------------------------------------------
- pspini: atom type   1  psp file is /scratch/users/j/a/jabreu/pseudos/PBEsol/Be.psp8
- pspatm: opening atomic psp file    /scratch/users/j/a/jabreu/pseudos/PBEsol/Be.psp8
- Be    ONCVPSP-3.3.0  r_core=   1.35684   1.10780
-  4.00000   4.00000    180112                znucl, zion, pspdat
    8 -116133    1    4       400   0.00000   pspcod,pspxc,lmax,lloc,mmax,r2well
    3.99000000000000    0.00000000000000    0.00000000000000   rchrg,fchrg,qchrg
     nproj     2     2
     extension_switch     1
  pspatm : epsatm=    3.86293307
         --- l  ekb(1:nproj) -->
             0   -7.966826   -2.672546
             1   -3.431835   -0.651830
 pspatm: atomic psp has been read  and splines computed

- pspini: atom type   2  psp file is /scratch/users/j/a/jabreu/pseudos/PBEsol/O.psp8
- pspatm: opening atomic psp file    /scratch/users/j/a/jabreu/pseudos/PBEsol/O.psp8
- O     ONCVPSP-3.3.0  r_core=   1.35509   1.45563   1.26150
-  8.00000   6.00000    180112                znucl, zion, pspdat
    8 -116133    2    4       600   0.00000   pspcod,pspxc,lmax,lloc,mmax,r2well
    5.99000000000000    4.00000000000000    0.00000000000000   rchrg,fchrg,qchrg
     nproj     2     2     1
     extension_switch     1
  pspatm : epsatm=    6.22910522
         --- l  ekb(1:nproj) -->
             0    6.050032    0.820363
             1   -4.739617   -1.153841
             2   -1.335834
 pspatm: atomic psp has been read  and splines computed

   1.00920383E+02                                ecore*ucvol(ha*bohr**3)

-inwffil : will read wavefunctions from disk file /scratch/users/j/a/jabreu/flow_simple2/flow/w200/t1/indata/in_WFK

 ==>  initialize data related to q vector <==

 The list of irreducible perturbations for this q vector is:
    1)    idir= 1    ipert=   3
    2)    idir= 2    ipert=   3
    3)    idir= 3    ipert=   3

 Perturbation wavevector (in red.coord.)   0.000000  0.000000  0.000000
 Perturbation : derivative vs k along direction   1

 dfpt_looppert : COMMENT -
  In a d/dk calculation, iscf is set to -3 automatically.
 The set of symmetries contains only one element for this perturbation.
 symkpt : not enough symmetry to change the number of k points.

[...]

 Initialisation of the first-order wave-functions :
  ireadwf=   0

--- !BeginCycle
iteration_state: {dtset: 1, }
solver: {iscf: 7, nstep: 100, nline: 4, wfoptalg: 0, }
tolerances: {tolwfr: 1.00E-20, }
...

     iter   2DEtotal(Ha)        deltaE(Ha) residm    vres2
-ETOT  1  -32.117397735842     -3.212E+01 1.320E+01 0.000E+00
 ETOT  2  -32.119962140781     -2.564E-03 1.054E-02 0.000E+00
 ETOT  3  -32.119963554583     -1.414E-06 5.899E-03 0.000E+00
 ETOT  4  -32.119963555734     -1.151E-09 5.669E-05 0.000E+00
 ETOT  5  -32.119963555734     -7.816E-14 3.033E-05 0.000E+00
 ETOT  6  -32.119963555734     -7.105E-15 3.883E-07 0.000E+00
 ETOT  7  -32.119963555734      2.842E-14 2.195E-07 0.000E+00
 ETOT  8  -32.119963555734     -7.105E-15 2.961E-09 0.000E+00
 ETOT  9  -32.119963555734      0.000E+00 1.686E-09 0.000E+00
 ETOT 10  -32.119963555734      7.105E-15 2.323E-11 0.000E+00
 ETOT 11  -32.119963555734     -7.105E-15 1.317E-11 0.000E+00
 ETOT 12  -32.119963555734      7.105E-15 1.838E-13 0.000E+00
 ETOT 13  -32.119963555734     -7.105E-15 1.038E-13 0.000E+00
 ETOT 14  -32.119963555734      7.105E-15 1.459E-15 0.000E+00
 ETOT 15  -32.119963555734      0.000E+00 8.216E-16 0.000E+00
 ETOT 16  -32.119963555734      0.000E+00 1.160E-17 0.000E+00
 ETOT 17  -32.119963555734     -7.105E-15 6.522E-18 0.000E+00
 ETOT 18  -32.119963555734      0.000E+00 9.232E-20 0.000E+00
 ETOT 19  -32.119963555734      7.105E-15 5.187E-20 0.000E+00
 ETOT 20  -32.119963555734      0.000E+00 8.067E-21 0.000E+00

 At SCF step   20   max residual=  8.07E-21 < tolwfr=  1.00E-20 =>converged.

 ----iterations are completed or convergence reached----

 dfpt_looppert: DFPT cycle converged with prtwf=-1. Will skip output of the 1st-order WFK file.
 dfpt_looppert : ek2=    4.6022491620E+01
          f-sum rule ratio=    1.3929886014E+00
 prteigrs : about to open file /scratch/users/j/a/jabreu/flow_simple2/flow/w200/t1/tmpdata/tmp_1WF1_EIG
 Expectation of eigenvalue derivatives (hartree) for nkpt=   2  k points:
  (in case of degenerate eigenvalues, averaged derivative)
 kpt#   1, nband= 14, wtk=  0.50000, kpt=  0.0000  0.0000  0.0000 (reduced coord)
   0.00000    0.00000   -0.00000   -0.00000   -0.00000   -0.00000   -0.00000   -0.00000
  -0.00000   -0.00000   -0.00000   -0.00000    0.00000    0.00000
 prteigrs : prtvol=0 or 1, do not print more k-points.

 Eight components of 2nd-order total energy (hartree) are
 1,2,3: 0th-order hamiltonian combined with 1st-order wavefunctions
     kin0=   1.32940659E+01 eigvalue=   1.76948079E+00  local=  -3.59217505E+00
 4,5,6: 1st-order hamiltonian combined with 1st and 0th-order wfs
     kin1=  -6.41088062E+01  Hartree=   0.00000000E+00     xc=   0.00000000E+00
 7,8,9: eventually, occupation + non-local contributions
    edocc=   2.20121827E+01     enl0=  -1.36359081E+00   enl1=  -1.31120877E-01
 1-9 gives the relaxation energy (to be shifted if some occ is /=2.0)
   erelax=  -3.21199636E+01
  No Ewald or frozen-wf contrib.: the relaxation energy is the total one
 2DEtotal=   -0.3211996356E+02 Ha. Also 2DEtotal=   -0.874028657884E+03 eV
    (  non-var. 2DEtotal :   -3.2119963556E+01 Ha)

 Perturbation wavevector (in red.coord.)   0.000000  0.000000  0.000000
 Perturbation : derivative vs k along direction   2
 The set of symmetries contains only one element for this perturbation.
 symkpt : not enough symmetry to change the number of k points.

[...]

 Perturbation wavevector (in red.coord.)   0.000000  0.000000  0.000000
 Perturbation : derivative vs k along direction   3
 The set of symmetries contains only one element for this perturbation.
 symkpt : not enough symmetry to change the number of k points.

-inwffil : will read wavefunctions from disk file /scratch/users/j/a/jabreu/flow_simple2/flow/w200/t1/indata/in_WFK

 Initialisation of the first-order wave-functions :
  ireadwf=   0

--- !BeginCycle
iteration_state: {dtset: 1, }
solver: {iscf: 7, nstep: 100, nline: 4, wfoptalg: 0, }
tolerances: {tolwfr: 1.00E-20, }
...

     iter   2DEtotal(Ha)        deltaE(Ha) residm    vres2
-ETOT  1  -32.117410839251     -3.212E+01 1.193E+00 0.000E+00
 ETOT  2  -32.119945870947     -2.535E-03 9.097E-03 0.000E+00
 ETOT  3  -32.119947279390     -1.408E-06 6.458E-03 0.000E+00
 ETOT  4  -32.119947280540     -1.150E-09 8.708E-05 0.000E+00
 ETOT  5  -32.119947280540     -5.684E-14 5.718E-05 0.000E+00
 ETOT  6  -32.119947280540     -7.105E-15 7.865E-07 0.000E+00
 ETOT  7  -32.119947280540      0.000E+00 5.475E-07 0.000E+00
 ETOT  8  -32.119947280540     -1.421E-14 7.835E-09 0.000E+00
 ETOT  9  -32.119947280540      0.000E+00 5.231E-09 0.000E+00
 ETOT 10  -32.119947280540      0.000E+00 7.680E-11 0.000E+00
 ETOT 11  -32.119947280540      7.105E-15 4.993E-11 0.000E+00
 ETOT 12  -32.119947280540     -7.105E-15 7.443E-13 0.000E+00
 ETOT 13  -32.119947280540      7.105E-15 4.765E-13 0.000E+00
 ETOT 14  -32.119947280540      0.000E+00 7.179E-15 0.000E+00
 ETOT 15  -32.119947280540      0.000E+00 4.551E-15 0.000E+00
 ETOT 16  -32.119947280540      0.000E+00 6.917E-17 0.000E+00
 ETOT 17  -32.119947280540      0.000E+00 4.351E-17 0.000E+00
 ETOT 18  -32.119947280540      0.000E+00 6.664E-19 0.000E+00
 ETOT 19  -32.119947280540      7.105E-15 4.164E-19 0.000E+00
 ETOT 20  -32.119947280540     -1.421E-14 8.669E-21 0.000E+00

 At SCF step   20   max residual=  8.67E-21 < tolwfr=  1.00E-20 =>converged.

 ----iterations are completed or convergence reached----

 dfpt_looppert: DFPT cycle converged with prtwf=-1. Will skip output of the 1st-order WFK file.
 dfpt_looppert : ek2=    4.6022491622E+01
          f-sum rule ratio=    1.3929879012E+00
 prteigrs : about to open file /scratch/users/j/a/jabreu/flow_simple2/flow/w200/t1/tmpdata/tmp_1WF1_EIG
 Expectation of eigenvalue derivatives (hartree) for nkpt=   2  k points:
  (in case of degenerate eigenvalues, averaged derivative)
 kpt#   1, nband= 14, wtk=  0.50000, kpt=  0.0000  0.0000  0.0000 (reduced coord)
  -0.00000   -0.00000    0.00000    0.00000    0.00000   -0.00000    0.00000    0.00000
   0.00000    0.00000    0.00000    0.00000   -0.00000   -0.00000
 prteigrs : prtvol=0 or 1, do not print more k-points.

 Eight components of 2nd-order total energy (hartree) are
 1,2,3: 0th-order hamiltonian combined with 1st-order wavefunctions
     kin0=   1.32941411E+01 eigvalue=   1.76948020E+00  local=  -3.59219922E+00
 4,5,6: 1st-order hamiltonian combined with 1st and 0th-order wfs
     kin1=  -6.41087740E+01  Hartree=   0.00000000E+00     xc=   0.00000000E+00
 7,8,9: eventually, occupation + non-local contributions
    edocc=   2.20121189E+01     enl0=  -1.36359362E+00   enl1=  -1.31120547E-01
 1-9 gives the relaxation energy (to be shifted if some occ is /=2.0)
   erelax=  -3.21199473E+01
  No Ewald or frozen-wf contrib.: the relaxation energy is the total one
 2DEtotal=   -0.3211994728E+02 Ha. Also 2DEtotal=   -0.874028215014E+03 eV
    (  non-var. 2DEtotal :   -3.2119947280E+01 Ha)

 CALCULATION OF EFFECTIVE MASSES
 NOTE : Additional infos (eff. mass eigenvalues, eigenvectors and, if degenerate, average mass) are available in stdout.

 COMMENTS:
 - At k-point ( 0.000, 0.000, 0.000), bands     3 through     5
   are DEGENERATE (effective mass tensor is therefore not defined).
   See Section IIIB Eqs. (67)-(70) and Appendix E of PRB 93 205147 (2016).
 - Angular average effective mass for Frohlich model is to be averaged over degenerate bands. See later.
 - Associated theta integrals calculated with ntheta=   1000 points.

 K-point ( 0.000, 0.000, 0.000) | band =     3
 Transport equivalent effective mass tensor:
             -0.4702783326              0.0000000028              0.0000000031
              0.0000000028             -0.4702783358             -0.0000000180
              0.0000000031             -0.0000000180             -0.4702783421
 Transport equivalent effective mass tensor eigenvalues:
             -0.4702783580             -0.4702783319             -0.4702783206
 Angular average effective mass 1/(<1/m>)=  -0.4225037163
 Angular average effective mass for Frohlich model (<m**0.5>)**2=  -0.4254882268
 Effective masses along directions: (cart. coord. / red. coord. -> eff. mass)
    1:   1.000000  0.000000  0.000000 /   0.948683  0.316228  0.000000 ->  -0.3983040042
    2:   0.000000  1.000000  0.000000 /   0.000000  1.000000  0.000000 ->  -0.3717896460
    3:   0.000000  0.000000  1.000000 /   0.408248  0.408248  0.816497 ->  -0.4058219481
    4:   0.577350  0.577350  0.577350 /   0.585539  0.688047  0.428644 ->  -0.3984325197
    5:   0.000000  0.707107  0.707107 /   0.289489  0.762222  0.578977 ->  -0.4451901269
    6:   0.707107  0.000000  0.707107 /   0.731423  0.422287  0.535439 ->  -0.4019418324
    7:   0.707107  0.707107  0.000000 /   0.616798  0.787122  0.000000 ->  -0.5256152632

[...]

 K-point ( 0.000, 0.000, 0.000) | band =     5
 Transport equivalent effective mass tensor:
            -34.9997998078              0.0000366304              0.0000031727
              0.0000366304            -34.9997867190              0.0000004258
              0.0000031727              0.0000004258            -34.9997386930
 Transport equivalent effective mass tensor eigenvalues:
            -34.9998305247            -34.9997563678            -34.9997383273
 Angular average effective mass 1/(<1/m>)=  -3.2913335761
 Angular average effective mass for Frohlich model (<m**0.5>)**2=  -3.9961315121
 Effective masses along directions: (cart. coord. / red. coord. -> eff. mass)
    1:   1.000000  0.000000  0.000000 /   0.948683  0.316228  0.000000 ->  -3.6181712182
    2:   0.000000  1.000000  0.000000 /   0.000000  1.000000  0.000000 ->  -3.0970027570
    3:   0.000000  0.000000  1.000000 /   0.408248  0.408248  0.816497 -> -10.2738347733
    4:   0.577350  0.577350  0.577350 /   0.585539  0.688047  0.428644 ->  -4.3513519547
    5:   0.000000  0.707107  0.707107 /   0.289489  0.762222  0.578977 ->  -2.9935905391
    6:   0.707107  0.000000  0.707107 /   0.731423  0.422287  0.535439 ->  -5.9783100251
    7:   0.707107  0.707107  0.000000 /   0.616798  0.787122  0.000000 ->  -1.4743016866

 Angular average effective mass for Frohlich model, averaged over degenerate bands.
 Value of     (<<m**0.5>>)**2 =     1.683934E+00
 Absolute Value of <<m**0.5>> =     1.297665E+00

 K-point ( 0.500, 0.000, 0.500) | band =     6
 Effective mass tensor:
              0.4548029066             -0.0798787636              0.0978311059
             -0.0798787636              0.5112857220             -0.1383540768
              0.0978311059             -0.1383540768              0.5677685374
 Effective mass tensor eigenvalues:
              0.3983200911              0.3983200915              0.7372169834
 Angular average effective mass 1/(<1/m>)=   0.4704008007
 Angular average effective mass for Frohlich model (<m**0.5>)**2=   0.4809867835
 Effective masses along directions: (cart. coord. / red. coord. -> eff. mass)
    1:   1.000000  0.000000  0.000000 /   0.948683  0.316228  0.000000 ->   0.4313700558
    2:   0.000000  1.000000  0.000000 /   0.000000  1.000000  0.000000 ->   0.4704008006
    3:   0.000000  0.000000  1.000000 /   0.408248  0.408248  0.816497 ->   0.5171972677
    4:   0.577350  0.577350  0.577350 /   0.585539  0.688047  0.428644 ->   0.4168067332
    5:   0.000000  0.707107  0.707107 /   0.289489  0.762222  0.578977 ->   0.3998675418
    6:   0.707107  0.000000  0.707107 /   0.731423  0.422287  0.535439 ->   0.5578211284
    7:   0.707107  0.707107  0.000000 /   0.616798  0.787122  0.000000 ->   0.4009554255

 END OF EFFECTIVE MASSES SECTION

 ---- first-order wavefunction calculations are completed ----

 Total localisation tensor (bohr^2) in cartesian coordinates
  WARNING : still subject to testing - especially symmetries.
      direction              matrix element
   alpha     beta       real part   imaginary part
     1        1       1.2120836054    0.0000000000
     1        2       0.3428290676    0.0000000000
     1        3       0.8397561766    0.0000000000
     2        1       0.3428290676    0.0000000000
     2        2       0.9696670339    0.0000000000
     2        3       0.5937973634    0.0000000000
     3        1       0.8397561766    0.0000000000
     3        2       0.5937973634    0.0000000000
     3        3       2.1817499364    0.0000000000

 respfn : d/dk was computed, but no 2DTE, so no DDB output.

== END DATASET(S) ==============================================================

 -outvars: echo values of variables after computation  --------
            acell      1.0000000000E+00  1.0000000000E+00  1.0000000000E+00 Bohr
              amu      9.01218200E+00  1.59994000E+01
             ecut      4.40000000E+01 Hartree
           etotal     -3.2119947281E+01
            fcart      0.0000000000E+00  0.0000000000E+00  0.0000000000E+00
                       0.0000000000E+00  0.0000000000E+00  0.0000000000E+00
-          fftalg         512
           irdden           1
           irdwfk           1
           istwfk        1    1
              ixc     -116133
              kpt      0.00000000E+00  0.00000000E+00  0.00000000E+00
                       5.00000000E-01  0.00000000E+00  5.00000000E-01
           kptopt           0
P           mkmem           2
P          mkqmem           2
P          mk1mem           2
            natom           2
            nband          14
           nbdbuf           4
            ngfft          32      32      32
             nkpt           2
            nstep         100
             nsym          24
           ntypat           2
              occ      2.000000  2.000000  2.000000  2.000000  2.000000  0.000000
                       0.000000  0.000000  0.000000  0.000000  0.000000  0.000000
                       0.000000  0.000000
        optdriver           1
            prtwf          -1
            rfdir           1       1       1
           rfelfd           2
            rprim      4.3932514774E+00  0.0000000000E+00  2.5364449231E+00
                       1.4644171591E+00  4.1419972148E+00  2.5364449231E+00
                       0.0000000000E+00  0.0000000000E+00  5.0728898461E+00
          spgroup         216
           strten      0.0000000000E+00  0.0000000000E+00  0.0000000000E+00
                       0.0000000000E+00  0.0000000000E+00  0.0000000000E+00
           symrel      1  0  0   0  1  0   0  0  1       0 -1  1   0 -1  0   1 -1  0
                      -1  0  0  -1  0  1  -1  1  0       0  1 -1   1  0 -1   0  0 -1
                      -1  0  0  -1  1  0  -1  0  1       0 -1  1   1 -1  0   0 -1  0
                       1  0  0   0  0  1   0  1  0       0  1 -1   0  0 -1   1  0 -1
                      -1  0  1  -1  1  0  -1  0  0       0 -1  0   1 -1  0   0 -1  1
                       1  0 -1   0  0 -1   0  1 -1       0  1  0   0  0  1   1  0  0
                       1  0 -1   0  1 -1   0  0 -1       0 -1  0   0 -1  1   1 -1  0
                      -1  0  1  -1  0  0  -1  1  0       0  1  0   1  0  0   0  0  1
                       0  0 -1   0  1 -1   1  0 -1       1 -1  0   0 -1  1   0 -1  0
                       0  0  1   1  0  0   0  1  0      -1  1  0  -1  0  0  -1  0  1
                       0  0  1   0  1  0   1  0  0       1 -1  0   0 -1  0   0 -1  1
                       0  0 -1   1  0 -1   0  1 -1      -1  1  0  -1  0  1  -1  0  0
           tolwfr      1.00000000E-20
            typat      1  2
           useylm           1
              wtk        0.50000    0.50000
           xangst      0.0000000000E+00  0.0000000000E+00  0.0000000000E+00
                       7.7493618448E-01  5.4796263103E-01  1.3422288441E+00
            xcart      0.0000000000E+00  0.0000000000E+00  0.0000000000E+00
                       1.4644171591E+00  1.0354993037E+00  2.5364449231E+00
             xred      0.0000000000E+00  0.0000000000E+00  0.0000000000E+00
                       2.5000000000E-01  2.5000000000E-01  2.5000000000E-01
            znucl        4.00000    8.00000

- Timing analysis has been suppressed with timopt=0

 Suggested references for the acknowledgment of ABINIT usage.

 Calculation completed.
.Delivered  14 WARNINGs and   9 COMMENTs to log file.