.Version 9.5.1 of ABINIT

 ABINIT is a project of the Universite Catholique de Louvain,
 Corning Inc. and other collaborators, see ~abinit/doc/developers/contributors.txt .
 acknowledgments of the ABINIT effort.

.Starting date : Tue 27 Apr 2021.
- ( at 18h33 )

- input  file    -> /scratch/users/j/a/jabreu/flow_simple_4atoms/flow/w192/t1/run.abi
- output file    -> /scratch/users/j/a/jabreu/flow_simple_4atoms/flow/w192/t1/run.abo
- root for input  files -> /scratch/users/j/a/jabreu/flow_simple_4atoms/flow/w192/t1/indata/in
- root for output files -> /scratch/users/j/a/jabreu/flow_simple_4atoms/flow/w192/t1/outdata/out

 Symmetries : space group R-3 m (#166); Bravais hR (rhombohedral)
     intxc =       0      iscf =       7    lmnmax =      18     lnmax =       6
     mgfft =      72  mpssoang =       3    mqgrid =    3001     natom =       4
  nloc_mem =       1    nspden =       1   nspinor =       1    nsppol =       1
      nsym =      12    n1xccc =    2501    ntypat =       3    occopt =       1
   xclevel =       2
-    mband =          22        mffmem =           1         mkmem =           2
-   mkqmem =           2        mk1mem =           2           mpw =        5708
      nfft =      373248          nkpt =           2
  Rough estimation (10% accuracy) of disk space for files :

------------- Echo of variables that govern the present computation ------------
-
- outvars: echo of selected default values
-   iomode0 =  0 , fftalg0 =512 , wfoptalg0 =  0
-
- outvars: echo of global parameters not present in the input file
-  max_nthreads =    0
-
 -outvars: echo values of preprocessed input variables --------
            acell      1.0000000000E+00  1.0000000000E+00  1.0000000000E+00 Bohr
              amu      6.94100000E+00  8.89058500E+01  3.20660000E+01
             ecut      3.70000000E+01 Hartree
-          fftalg         512
           irdden           1
           irdwfk           1
           istwfk        0    1
              ixc     -116133
              kpt      3.04047395E-02 -1.73472348E-18 -3.04047395E-02
                       5.00000000E-01  5.00000000E-01  0.00000000E+00
           kptopt           0
P           mkmem           2
P          mkqmem           2
P          mk1mem           2
            natom           4
            nband          22
           nbdbuf           4
            ngfft          72      72      72
             nkpt           2
            nstep         100
             nsym          12
           ntypat           3
              occ      2.000000  2.000000  2.000000  2.000000  2.000000  2.000000
                       2.000000  2.000000  2.000000  2.000000  2.000000  2.000000
                       2.000000  0.000000  0.000000  0.000000  0.000000  0.000000
                       0.000000  0.000000  0.000000  0.000000
        optdriver           1
            prtwf          -1
            rfdir           1       1       1
           rfelfd           2
            rprim      6.9673139229E+00  0.0000000000E+00  1.0039094725E+01
                       3.1423433859E+00  6.2184516839E+00  1.0039094725E+01
                       0.0000000000E+00  0.0000000000E+00  1.2219938060E+01
          spgroup         166
           symrel      1  0  0   0  1  0   0  0  1      -1  0  0   0 -1  0   0  0 -1
                       0  1  0   1  0  0   0  0  1       0 -1  0  -1  0  0   0  0 -1
                       0  0  1   1  0  0   0  1  0       0  0 -1  -1  0  0   0 -1  0
                       1  0  0   0  0  1   0  1  0      -1  0  0   0  0 -1   0 -1  0
                       0  1  0   0  0  1   1  0  0       0 -1  0   0  0 -1  -1  0  0
                       0  0  1   0  1  0   1  0  0       0  0 -1   0 -1  0  -1  0  0
           tolwfr      1.00000000E-20
            typat      1  2  3  3
           useylm           1
              wtk        0.50000    0.50000
           xangst      2.6749001172E+00  1.6453314519E+00  8.5457164790E+00
                       0.0000000000E+00  0.0000000000E+00  0.0000000000E+00
                       4.0173896877E+00  2.4710969823E+00  1.2834674848E+01
                       1.3324105468E+00  8.1956592150E-01  4.2567581097E+00
            xcart      5.0548286544E+00  3.1092258419E+00  1.6149063755E+01
                       0.0000000000E+00  0.0000000000E+00  0.0000000000E+00
                       7.5917662788E+00  4.6696965444E+00  2.4254020468E+01
                       2.5178910300E+00  1.5487551395E+00  8.0441070412E+00
             xred      5.0000000000E-01  5.0000000000E-01  5.0000000000E-01
                       0.0000000000E+00  0.0000000000E+00  0.0000000000E+00
                       7.5094200000E-01  7.5094200000E-01  7.5094200000E-01
                       2.4905800000E-01  2.4905800000E-01  2.4905800000E-01
            znucl        3.00000   39.00000   16.00000

 chkinp: Checking input parameters for consistency.

== DATASET  1 ==================================================================
-   mpi_nproc: 1, omp_nthreads: -1 (-1 if OMP is not activated)

--- !DatasetInfo
iteration_state: {dtset: 1, }
dimensions: {natom: 4, nkpt: 2, mband: 22, nsppol: 1, nspinor: 1, nspden: 1, mpw: 5708, }
cutoff_energies: {ecut:  37.0, pawecutdg:  -1.0, }
electrons: {nelect:   2.60000000E+01, charge:   0.00000000E+00, occopt:   1.00000000E+00, tsmear:   1.00000000E-02, }
meta: {optdriver: 1, rfelfd: 2, }
...

 Real(R)+Recip(G) space primitive vectors, cartesian coordinates (Bohr,Bohr^-1):
 R(1)=  6.9673139  0.0000000 10.0390947  G(1)=  0.1435273 -0.0725280  0.0000000
 R(2)=  3.1423434  6.2184517 10.0390947  G(2)=  0.0000000  0.1608117  0.0000000
 R(3)=  0.0000000  0.0000000 12.2199381  G(3)= -0.1179126 -0.0725280  0.0818335
 Unit cell volume ucvol=  5.2943988E+02 bohr^3
 Angles (23,13,12)=  3.47613498E+01  3.47613498E+01  3.47613498E+01 degrees

 getcut: wavevector=  0.0000  0.0000  0.0000  ngfft=  72  72  72
         ecut(hartree)=     37.000   => boxcut(ratio)=   2.15241

--- Pseudopotential description ------------------------------------------------
- pspini: atom type   1  psp file is /scratch/users/j/a/jabreu/pseudos/PBEsol/Li.psp8
- pspatm: opening atomic psp file    /scratch/users/j/a/jabreu/pseudos/PBEsol/Li.psp8
- Li    ONCVPSP-3.3.0  r_core=   1.40824   1.10935
-  3.00000   3.00000    180112                znucl, zion, pspdat
    8 -116133    1    4       400   0.00000   pspcod,pspxc,lmax,lloc,mmax,r2well
    3.99000000000000    0.00000000000000    0.00000000000000   rchrg,fchrg,qchrg
     nproj     2     2
     extension_switch     1
  pspatm : epsatm=    2.60859637
         --- l  ekb(1:nproj) -->
             0   -4.855856   -1.482423
             1   -2.171544   -0.427615
 pspatm: atomic psp has been read  and splines computed

- pspini: atom type   2  psp file is /scratch/users/j/a/jabreu/pseudos/PBEsol/Y.psp8
- pspatm: opening atomic psp file    /scratch/users/j/a/jabreu/pseudos/PBEsol/Y.psp8
- Y     ONCVPSP-3.3.0  r_core=   1.60520   1.51226   1.56736
- 39.00000  11.00000    180112                znucl, zion, pspdat
    8 -116133    2    4       600   0.00000   pspcod,pspxc,lmax,lloc,mmax,r2well
    5.99000000000000    4.00000000000000    0.00000000000000   rchrg,fchrg,qchrg
     nproj     2     2     2
     extension_switch     1
  pspatm : epsatm=   18.54790046
         --- l  ekb(1:nproj) -->
             0   10.130768    0.866504
             1    5.598307    0.427135
             2    1.217602    0.315447
 pspatm: atomic psp has been read  and splines computed

- pspini: atom type   3  psp file is /scratch/users/j/a/jabreu/pseudos/PBEsol/S.psp8
- pspatm: opening atomic psp file    /scratch/users/j/a/jabreu/pseudos/PBEsol/S.psp8
- S     ONCVPSP-3.3.0  r_core=   1.45376   1.45376   1.61851
- 16.00000   6.00000    180112                znucl, zion, pspdat
    8 -116133    2    4       600   0.00000   pspcod,pspxc,lmax,lloc,mmax,r2well
    5.99000000000000    6.00000000000000    0.00000000000000   rchrg,fchrg,qchrg
     nproj     2     2     2
     extension_switch     1
  pspatm : epsatm=    8.71840985
         --- l  ekb(1:nproj) -->
             0    6.834532    0.579453
             1    3.282851    0.896984
             2   -3.496974   -0.974265
 pspatm: atomic psp has been read  and splines computed

   1.00342623E+03                                ecore*ucvol(ha*bohr**3)

-inwffil : will read wavefunctions from disk file /scratch/users/j/a/jabreu/flow_simple_4atoms/flow/w192/t1/indata/in_WFK

 ==>  initialize data related to q vector <==

 The list of irreducible perturbations for this q vector is:
    1)    idir= 1    ipert=   5
    2)    idir= 2    ipert=   5
    3)    idir= 3    ipert=   5

 Perturbation wavevector (in red.coord.)   0.000000  0.000000  0.000000
 Perturbation : derivative vs k along direction   1

 dfpt_looppert : COMMENT -
  In a d/dk calculation, iscf is set to -3 automatically.
 The set of symmetries contains only one element for this perturbation.
 symkpt : not enough symmetry to change the number of k points.

[...]

 Initialisation of the first-order wave-functions :
  ireadwf=   0

--- !BeginCycle
iteration_state: {dtset: 1, }
solver: {iscf: 7, nstep: 100, nline: 4, wfoptalg: 0, }
tolerances: {tolwfr: 1.00E-20, }
...

     iter   2DEtotal(Ha)        deltaE(Ha) residm    vres2
-ETOT  1  -31.983342937601     -3.198E+01 5.894E-02 0.000E+00
 ETOT  2  -31.993256141547     -9.913E-03 3.797E-04 0.000E+00
 ETOT  3  -31.993278573505     -2.243E-05 3.850E-06 0.000E+00
 ETOT  4  -31.993278646075     -7.257E-08 3.134E-08 0.000E+00
 ETOT  5  -31.993278646358     -2.832E-10 4.556E-10 0.000E+00
 ETOT  6  -31.993278646359     -1.243E-12 3.885E-12 0.000E+00
 ETOT  7  -31.993278646359      3.197E-14 6.141E-14 0.000E+00
 ETOT  8  -31.993278646359     -2.487E-14 5.515E-16 0.000E+00
 ETOT  9  -31.993278646359      3.553E-15 9.127E-18 0.000E+00
 ETOT 10  -31.993278646359     -1.066E-14 8.812E-20 0.000E+00
 ETOT 11  -31.993278646359     -1.421E-14 9.992E-21 0.000E+00

 At SCF step   11   max residual=  9.99E-21 < tolwfr=  1.00E-20 =>converged.

 ----iterations are completed or convergence reached----

 dfpt_looppert: DFPT cycle converged with prtwf=-1. Will skip output of the 1st-order WFK file.
 dfpt_looppert : ek2=    5.3088267389E+01
          f-sum rule ratio=    1.2429135743E+00
 prteigrs : about to open file /scratch/users/j/a/jabreu/flow_simple_4atoms/flow/w192/t1/tmpdata/tmp_1WF1_EIG
 Expectation of eigenvalue derivatives (hartree) for nkpt=   2  k points:
  (in case of degenerate eigenvalues, averaged derivative)
 kpt#   1, nband= 22, wtk=  0.50000, kpt=  0.0304  0.0000 -0.0304 (reduced coord)
   0.00003    0.00066    0.00273   -0.01074   -0.00217    0.02843   -0.00629    0.03972
  -0.05892    0.00276   -0.15788   -0.05016    0.00047   -0.00914    0.06648    0.02714
  -0.02276    0.14659   -0.06785    0.13837    0.03499    0.16849
 prteigrs : prtvol=0 or 1, do not print more k-points.

 Eight components of 2nd-order total energy (hartree) are
 1,2,3: 0th-order hamiltonian combined with 1st-order wavefunctions
     kin0=   1.67620295E+01 eigvalue=   6.93190435E-01  local=  -8.68471868E+00
 4,5,6: 1st-order hamiltonian combined with 1st and 0th-order wfs
     kin1=  -6.59841282E+01  Hartree=   0.00000000E+00     xc=   0.00000000E+00
 7,8,9: eventually, occupation + non-local contributions
    edocc=   2.20385204E+01     enl0=   1.18425695E+00   enl1=   1.99757088E+00
 1-9 gives the relaxation energy (to be shifted if some occ is /=2.0)
   erelax=  -3.19932786E+01
  No Ewald or frozen-wf contrib.: the relaxation energy is the total one
 2DEtotal=   -0.3199327865E+02 Ha. Also 2DEtotal=   -0.870581386186E+03 eV
    (  non-var. 2DEtotal :   -3.1993278646E+01 Ha)

 Perturbation wavevector (in red.coord.)   0.000000  0.000000  0.000000
 Perturbation : derivative vs k along direction   2
 The set of symmetries contains only one element for this perturbation.
 symkpt : not enough symmetry to change the number of k points.

[...]

 Perturbation wavevector (in red.coord.)   0.000000  0.000000  0.000000
 Perturbation : derivative vs k along direction   3
 The set of symmetries contains only one element for this perturbation.
 symkpt : not enough symmetry to change the number of k points.

-inwffil : will read wavefunctions from disk file /scratch/users/j/a/jabreu/flow_simple_4atoms/flow/w192/t1/indata/in_WFK

 Initialisation of the first-order wave-functions :
  ireadwf=   0

--- !BeginCycle
iteration_state: {dtset: 1, }
solver: {iscf: 7, nstep: 100, nline: 4, wfoptalg: 0, }
tolerances: {tolwfr: 1.00E-20, }
...

     iter   2DEtotal(Ha)        deltaE(Ha) residm    vres2
-ETOT  1  -28.609894986744     -2.861E+01 4.061E-02 0.000E+00
 ETOT  2  -28.618030438112     -8.135E-03 3.781E-04 0.000E+00
 ETOT  3  -28.618047583571     -1.715E-05 1.681E-06 0.000E+00
 ETOT  4  -28.618047639329     -5.576E-08 2.092E-08 0.000E+00
 ETOT  5  -28.618047639555     -2.263E-10 1.652E-10 0.000E+00
 ETOT  6  -28.618047639556     -1.009E-12 1.972E-12 0.000E+00
 ETOT  7  -28.618047639556      3.197E-14 1.792E-14 0.000E+00
 ETOT  8  -28.618047639556     -7.105E-15 2.127E-16 0.000E+00
 ETOT  9  -28.618047639556      7.105E-15 2.074E-18 0.000E+00
 ETOT 10  -28.618047639556     -7.105E-15 2.420E-20 0.000E+00
 ETOT 11  -28.618047639556      0.000E+00 9.867E-21 0.000E+00

 At SCF step   11   max residual=  9.87E-21 < tolwfr=  1.00E-20 =>converged.

 ----iterations are completed or convergence reached----

 dfpt_looppert: DFPT cycle converged with prtwf=-1. Will skip output of the 1st-order WFK file.
 dfpt_looppert : ek2=    5.3088267389E+01
          f-sum rule ratio=    1.1084035643E+00
 prteigrs : about to open file /scratch/users/j/a/jabreu/flow_simple_4atoms/flow/w192/t1/tmpdata/tmp_1WF1_EIG
 Expectation of eigenvalue derivatives (hartree) for nkpt=   2  k points:
  (in case of degenerate eigenvalues, averaged derivative)
 kpt#   1, nband= 22, wtk=  0.50000, kpt=  0.0304  0.0000 -0.0304 (reduced coord)
  -0.00003   -0.00066   -0.00273    0.01074    0.00217   -0.02843    0.00629   -0.03972
   0.05892   -0.00276    0.15788    0.05016   -0.00047    0.00914   -0.06648   -0.02714
   0.02276   -0.14659    0.06785   -0.13837   -0.03499   -0.16849
 prteigrs : prtvol=0 or 1, do not print more k-points.

 Eight components of 2nd-order total energy (hartree) are
 1,2,3: 0th-order hamiltonian combined with 1st-order wavefunctions
     kin0=   1.56371361E+01 eigvalue=   6.57060056E-01  local=  -7.78259844E+00
 4,5,6: 1st-order hamiltonian combined with 1st and 0th-order wfs
     kin1=  -5.88432248E+01  Hartree=   0.00000000E+00     xc=   0.00000000E+00
 7,8,9: eventually, occupation + non-local contributions
    edocc=   1.89548531E+01     enl0=   1.15159682E+00   enl1=   1.60712952E+00
 1-9 gives the relaxation energy (to be shifted if some occ is /=2.0)
   erelax=  -2.86180476E+01
  No Ewald or frozen-wf contrib.: the relaxation energy is the total one
 2DEtotal=   -0.2861804764E+02 Ha. Also 2DEtotal=   -0.778736679644E+03 eV
    (  non-var. 2DEtotal :   -2.8618047639E+01 Ha)

 CALCULATION OF EFFECTIVE MASSES
 NOTE : Additional infos (eff. mass eigenvalues, eigenvectors and, if degenerate, average mass) are available in stdout.

 K-point ( 0.030,-0.000,-0.030) | band =    13
 Effective mass tensor:
             -4.9376143409              0.0799789178              1.4437335662
              0.0799789178            -11.8484306183              0.2555150929
              1.4437335662              0.2555150929             -0.7771076718
 Effective mass tensor eigenvalues:
            -11.8546481417             -5.3895182973             -0.3189861921
 Angular average effective mass 1/(<1/m>)=  -0.8811006456
 Angular average effective mass for Frohlich model (<m**0.5>)**2=  -1.7218574712
 Effective masses along directions: (cart. coord. / red. coord. -> eff. mass)
    1:   1.000000  0.000000  0.000000 /   0.911576  0.411132  0.000000 ->  -2.2292507040
    2:   0.000000  1.000000  0.000000 /   0.000000  1.000000  0.000000 -> -11.6280008182
    3:   0.000000  0.000000  1.000000 /   0.535928  0.535928  0.652351 ->  -0.3484014832
    4:   0.577350  0.577350  0.577350 /   0.595745  0.679590  0.428072 ->  -0.5700217755
    5:   0.000000  0.707107  0.707107 /   0.442625  0.716798  0.538779 ->  -0.6469577884
    6:   0.707107  0.000000  0.707107 /   0.687278  0.532700  0.493843 ->  -0.4000386897
    7:   0.707107  0.707107  0.000000 /   0.597074  0.802186  0.000000 ->  -3.4669196162

 K-point ( 0.500, 0.500, 0.000) | band =    14
 Effective mass tensor:
              0.6113700287              0.1960133291             -0.5053572307
              0.1960133291              0.4132688872             -0.3108453063
             -0.5053572307             -0.3108453063              1.2374848559
 Effective mass tensor eigenvalues:
              0.2927010599              0.3398042484              1.6296184635
 Angular average effective mass 1/(<1/m>)=   0.4302329656
 Angular average effective mass for Frohlich model (<m**0.5>)**2=   0.4860482309
 Effective masses along directions: (cart. coord. / red. coord. -> eff. mass)
    1:   1.000000  0.000000  0.000000 /   0.911576  0.411132  0.000000 ->   0.3907613594
    2:   0.000000  1.000000  0.000000 /   0.000000  1.000000  0.000000 ->   0.3234070219
    3:   0.000000  0.000000  1.000000 /   0.535928  0.535928  0.652351 ->   0.7565550444
    4:   0.577350  0.577350  0.577350 /   0.595745  0.679590  0.428072 ->   0.3383652288
    5:   0.000000  0.707107  0.707107 /   0.442625  0.716798  0.538779 ->   0.3612358553
    6:   0.707107  0.000000  0.707107 /   0.687278  0.532700  0.493843 ->   0.3505020121
    7:   0.707107  0.707107  0.000000 /   0.597074  0.802186  0.000000 ->   0.4351160109

 END OF EFFECTIVE MASSES SECTION

 ---- first-order wavefunction calculations are completed ----

 Total localisation tensor (bohr^2) in cartesian coordinates
  WARNING : still subject to testing - especially symmetries.
      direction              matrix element
   alpha     beta       real part   imaginary part
     1        1       3.0491753315    0.0000000000
     1        2       1.0391237053    0.0000000000
     1        3       5.3144726655    0.0000000000
     2        1       1.0391237053    0.0000000000
     2        2       2.0563445051    0.0000000000
     2        3       3.3197712747    0.0000000000
     3        1       5.3144726655    0.0000000000
     3        2       3.3197712747    0.0000000000
     3        3      16.6464750741    0.0000000000

 respfn : d/dk was computed, but no 2DTE, so no DDB output.

== END DATASET(S) ==============================================================

 -outvars: echo values of variables after computation  --------
            acell      1.0000000000E+00  1.0000000000E+00  1.0000000000E+00 Bohr
              amu      6.94100000E+00  8.89058500E+01  3.20660000E+01
             ecut      3.70000000E+01 Hartree
           etotal     -2.8618047640E+01
            fcart      0.0000000000E+00  0.0000000000E+00  0.0000000000E+00
                       0.0000000000E+00  0.0000000000E+00  0.0000000000E+00
                       0.0000000000E+00  0.0000000000E+00  0.0000000000E+00
                       0.0000000000E+00  0.0000000000E+00  0.0000000000E+00
-          fftalg         512
           irdden           1
           irdwfk           1
           istwfk        0    1
              ixc     -116133
              kpt      3.04047395E-02 -1.73472348E-18 -3.04047395E-02
                       5.00000000E-01  5.00000000E-01  0.00000000E+00
           kptopt           0
P           mkmem           2
P          mkqmem           2
P          mk1mem           2
            natom           4
            nband          22
           nbdbuf           4
            ngfft          72      72      72
             nkpt           2
            nstep         100
             nsym          12
           ntypat           3
              occ      2.000000  2.000000  2.000000  2.000000  2.000000  2.000000
                       2.000000  2.000000  2.000000  2.000000  2.000000  2.000000
                       2.000000  0.000000  0.000000  0.000000  0.000000  0.000000
                       0.000000  0.000000  0.000000  0.000000
        optdriver           1
            prtwf          -1
            rfdir           1       1       1
           rfelfd           2
            rprim      6.9673139229E+00  0.0000000000E+00  1.0039094725E+01
                       3.1423433859E+00  6.2184516839E+00  1.0039094725E+01
                       0.0000000000E+00  0.0000000000E+00  1.2219938060E+01
          spgroup         166
           strten      0.0000000000E+00  0.0000000000E+00  0.0000000000E+00
                       0.0000000000E+00  0.0000000000E+00  0.0000000000E+00
           symrel      1  0  0   0  1  0   0  0  1      -1  0  0   0 -1  0   0  0 -1
                       0  1  0   1  0  0   0  0  1       0 -1  0  -1  0  0   0  0 -1
                       0  0  1   1  0  0   0  1  0       0  0 -1  -1  0  0   0 -1  0
                       1  0  0   0  0  1   0  1  0      -1  0  0   0  0 -1   0 -1  0
                       0  1  0   0  0  1   1  0  0       0 -1  0   0  0 -1  -1  0  0
                       0  0  1   0  1  0   1  0  0       0  0 -1   0 -1  0  -1  0  0
           tolwfr      1.00000000E-20
            typat      1  2  3  3
           useylm           1
              wtk        0.50000    0.50000
           xangst      2.6749001172E+00  1.6453314519E+00  8.5457164790E+00
                       0.0000000000E+00  0.0000000000E+00  0.0000000000E+00
                       4.0173896877E+00  2.4710969823E+00  1.2834674848E+01
                       1.3324105468E+00  8.1956592150E-01  4.2567581097E+00
            xcart      5.0548286544E+00  3.1092258419E+00  1.6149063755E+01
                       0.0000000000E+00  0.0000000000E+00  0.0000000000E+00
                       7.5917662788E+00  4.6696965444E+00  2.4254020468E+01
                       2.5178910300E+00  1.5487551395E+00  8.0441070412E+00
             xred      5.0000000000E-01  5.0000000000E-01  5.0000000000E-01
                       0.0000000000E+00  0.0000000000E+00  0.0000000000E+00
                       7.5094200000E-01  7.5094200000E-01  7.5094200000E-01
                       2.4905800000E-01  2.4905800000E-01  2.4905800000E-01
            znucl        3.00000   39.00000   16.00000

- Timing analysis has been suppressed with timopt=0

 Suggested references for the acknowledgment of ABINIT usage.

 Calculation completed.
.Delivered  14 WARNINGs and   9 COMMENTs to log file.