.Version 9.5.1 of ABINIT

 ABINIT is a project of the Universite Catholique de Louvain,
 Corning Inc. and other collaborators, see ~abinit/doc/developers/contributors.txt .
 acknowledgments of the ABINIT effort.

.Starting date : Tue 27 Apr 2021.
- ( at 18h45 )

- input  file    -> /scratch/users/j/a/jabreu/flow_simple_4atoms/flow/w249/t1/run.abi
- output file    -> /scratch/users/j/a/jabreu/flow_simple_4atoms/flow/w249/t1/run.abo
- root for input  files -> /scratch/users/j/a/jabreu/flow_simple_4atoms/flow/w249/t1/indata/in
- root for output files -> /scratch/users/j/a/jabreu/flow_simple_4atoms/flow/w249/t1/outdata/out

 Symmetries : space group P6_3 m c (#186); Bravais hP (primitive hexag.)
     intxc =       0      iscf =       7    lmnmax =      18     lnmax =       6
     mgfft =      90  mpssoang =       3    mqgrid =    4089     natom =       4
  nloc_mem =       1    nspden =       1   nspinor =       1    nsppol =       1
      nsym =      12    n1xccc =    2501    ntypat =       2    occopt =       1
   xclevel =       2
-    mband =          35        mffmem =           1         mkmem =           1
-   mkqmem =           1        mk1mem =           1           mpw =       11717
      nfft =      262440          nkpt =           1
  Rough estimation (10% accuracy) of disk space for files :

------------- Echo of variables that govern the present computation ------------
-
- outvars: echo of selected default values
-   iomode0 =  0 , fftalg0 =512 , wfoptalg0 =  0
-
- outvars: echo of global parameters not present in the input file
-  max_nthreads =    0
-
 -outvars: echo values of preprocessed input variables --------
            acell      1.0000000000E+00  1.0000000000E+00  1.0000000000E+00 Bohr
              amu      2.43050000E+01  1.27600000E+02
             ecut      4.20000000E+01 Hartree
-          fftalg         512
           irdden           1
           irdwfk           1
           istwfk        1
              ixc     -116133
           kptopt           0
P           mkmem           1
P          mkqmem           1
P          mk1mem           1
            natom           4
            nband          35
           nbdbuf           4
            ngfft          54      54      90
             nkpt           1
            nstep         100
             nsym          12
           ntypat           2
              occ      2.000000  2.000000  2.000000  2.000000  2.000000  2.000000
                       2.000000  2.000000  2.000000  2.000000  2.000000  2.000000
                       2.000000  2.000000  2.000000  2.000000  2.000000  2.000000
                       2.000000  2.000000  2.000000  2.000000  2.000000  2.000000
                       2.000000  2.000000  0.000000  0.000000  0.000000  0.000000
                       0.000000  0.000000  0.000000  0.000000  0.000000
        optdriver           1
            prtwf          -1
            rfdir           1       1       1
           rfelfd           2
            rprim      8.6186689185E+00  0.0000000000E+00  0.0000000000E+00
                      -4.3093344593E+00  7.4639862302E+00  0.0000000000E+00
                       0.0000000000E+00  0.0000000000E+00  1.4013437460E+01
          spgroup         186
           symrel      1  0  0   0  1  0   0  0  1       0  1  0   1  0  0   0  0  1
                       1  1  0  -1  0  0   0  0  1      -1  0  0   1  1  0   0  0  1
                       0  1  0  -1 -1  0   0  0  1      -1 -1  0   0  1  0   0  0  1
                      -1  0  0   0 -1  0   0  0  1       0 -1  0  -1  0  0   0  0  1
                      -1 -1  0   1  0  0   0  0  1       1  0  0  -1 -1  0   0  0  1
                       0 -1  0   1  1  0   0  0  1       1  1  0   0 -1  0   0  0  1
            tnons      0.0000000  0.0000000  0.0000000     0.0000000  0.0000000  0.5000000
                       0.0000000  0.0000000  0.5000000     0.0000000  0.0000000  0.0000000
                       0.0000000  0.0000000  0.0000000     0.0000000  0.0000000  0.5000000
                       0.0000000  0.0000000  0.5000000     0.0000000  0.0000000  0.0000000
                       0.0000000  0.0000000  0.0000000     0.0000000  0.0000000  0.5000000
                       0.0000000  0.0000000  0.5000000     0.0000000  0.0000000  0.0000000
           tolwfr      1.00000000E-20
            typat      1  1  2  2
           useylm           1
           xangst     -1.7639241746E-11  2.6331809322E+00  2.4486283851E-02
                       2.2804015800E+00  1.3165904661E+00  3.7322821426E+00
                      -1.7639241746E-11  2.6331809322E+00  4.6473364982E+00
                       2.2804015800E+00  1.3165904661E+00  9.3954063943E-01
            xcart     -3.3333336091E-11  4.9759908201E+00  4.6272370491E-02
                       4.3093344592E+00  2.4879954101E+00  7.0529911002E+00
                      -3.3333336091E-11  4.9759908201E+00  8.7821932290E+00
                       4.3093344592E+00  2.4879954101E+00  1.7754744992E+00
             xred      3.3333333333E-01  6.6666666667E-01  3.3020000000E-03
                       6.6666666667E-01  3.3333333333E-01  5.0330200000E-01
                       3.3333333333E-01  6.6666666667E-01  6.2669800000E-01
                       6.6666666667E-01  3.3333333333E-01  1.2669800000E-01
            znucl       12.00000   52.00000

 chkinp: Checking input parameters for consistency.

== DATASET  1 ==================================================================
-   mpi_nproc: 1, omp_nthreads: -1 (-1 if OMP is not activated)

--- !DatasetInfo
iteration_state: {dtset: 1, }
dimensions: {natom: 4, nkpt: 1, mband: 35, nsppol: 1, nspinor: 1, nspden: 1, mpw: 11717, }
cutoff_energies: {ecut:  42.0, pawecutdg:  -1.0, }
electrons: {nelect:   5.20000000E+01, charge:   0.00000000E+00, occopt:   1.00000000E+00, tsmear:   1.00000000E-02, }
meta: {optdriver: 1, rfelfd: 2, }
...

 Real(R)+Recip(G) space primitive vectors, cartesian coordinates (Bohr,Bohr^-1):
 R(1)=  8.6186689  0.0000000  0.0000000  G(1)=  0.1160272  0.0669883  0.0000000
 R(2)= -4.3093345  7.4639862  0.0000000  G(2)=  0.0000000  0.1339767  0.0000000
 R(3)=  0.0000000  0.0000000 14.0134375  G(3)=  0.0000000  0.0000000  0.0713601
 Unit cell volume ucvol=  9.0147919E+02 bohr^3
 Angles (23,13,12)=  9.00000000E+01  9.00000000E+01  1.20000000E+02 degrees

 getcut: wavevector=  0.0000  0.0000  0.0000  ngfft=  54  54  90
         ecut(hartree)=     42.000   => boxcut(ratio)=   2.14814

--- Pseudopotential description ------------------------------------------------
- pspini: atom type   1  psp file is /scratch/users/j/a/jabreu/pseudos/PBEsol/Mg.psp8
- pspatm: opening atomic psp file    /scratch/users/j/a/jabreu/pseudos/PBEsol/Mg.psp8
- Mg    ONCVPSP-3.3.0  r_core=   1.16056   1.56380
- 12.00000  10.00000    180112                znucl, zion, pspdat
    8 -116133    1    4       400   0.00000   pspcod,pspxc,lmax,lloc,mmax,r2well
    3.99000000000000    0.00000000000000    0.00000000000000   rchrg,fchrg,qchrg
     nproj     2     2
     extension_switch     1
  pspatm : epsatm=    9.18164846
         --- l  ekb(1:nproj) -->
             0    2.230603   -0.826587
             1   -6.503151   -2.501445
 pspatm: atomic psp has been read  and splines computed

- pspini: atom type   2  psp file is /scratch/users/j/a/jabreu/pseudos/PBEsol/Te.psp8
- pspatm: opening atomic psp file    /scratch/users/j/a/jabreu/pseudos/PBEsol/Te.psp8
- Te    ONCVPSP-3.3.0  r_core=   2.26547   1.91704   1.80604
- 52.00000  16.00000    180112                znucl, zion, pspdat
    8 -116133    2    4       600   0.00000   pspcod,pspxc,lmax,lloc,mmax,r2well
    5.99000000000000    5.00000000000000    0.00000000000000   rchrg,fchrg,qchrg
     nproj     2     2     2
     extension_switch     1
  pspatm : epsatm=   36.82679836
         --- l  ekb(1:nproj) -->
             0    6.345999    0.785432
             1    5.709019    1.070069
             2   -6.035173   -1.870937
 pspatm: atomic psp has been read  and splines computed

   4.78487847E+03                                ecore*ucvol(ha*bohr**3)

-inwffil : will read wavefunctions from disk file /scratch/users/j/a/jabreu/flow_simple_4atoms/flow/w249/t1/indata/in_WFK

 ==>  initialize data related to q vector <==

 The list of irreducible perturbations for this q vector is:
    1)    idir= 1    ipert=   5
    2)    idir= 2    ipert=   5
    3)    idir= 3    ipert=   5

 Perturbation wavevector (in red.coord.)   0.000000  0.000000  0.000000
 Perturbation : derivative vs k along direction   1

 dfpt_looppert : COMMENT -
  In a d/dk calculation, iscf is set to -3 automatically.
 The set of symmetries contains only one element for this perturbation.
 symkpt : not enough symmetry to change the number of k points.

[...]

 Initialisation of the first-order wave-functions :
  ireadwf=   0

--- !BeginCycle
iteration_state: {dtset: 1, }
solver: {iscf: 7, nstep: 100, nline: 4, wfoptalg: 0, }
tolerances: {tolwfr: 1.00E-20, }
...

     iter   2DEtotal(Ha)        deltaE(Ha) residm    vres2
-ETOT  1  -85.075150149845     -8.508E+01 7.128E-02 0.000E+00
 ETOT  2  -85.103839191937     -2.869E-02 6.839E-04 0.000E+00
 ETOT  3  -85.103844342000     -5.150E-06 1.972E-06 0.000E+00
 ETOT  4  -85.103844343737     -1.737E-09 4.995E-08 0.000E+00
 ETOT  5  -85.103844343738     -6.537E-13 5.117E-10 0.000E+00
 ETOT  6  -85.103844343738      1.421E-14 1.312E-11 0.000E+00
 ETOT  7  -85.103844343738     -4.263E-14 1.460E-13 0.000E+00
 ETOT  8  -85.103844343738      0.000E+00 3.895E-15 0.000E+00
 ETOT  9  -85.103844343738      2.842E-14 4.349E-17 0.000E+00
 ETOT 10  -85.103844343738     -2.842E-14 1.194E-18 0.000E+00
 ETOT 11  -85.103844343738      2.842E-14 1.327E-20 0.000E+00
 ETOT 12  -85.103844343738      0.000E+00 9.943E-21 0.000E+00

 At SCF step   12   max residual=  9.94E-21 < tolwfr=  1.00E-20 =>converged.

 ----iterations are completed or convergence reached----

 dfpt_looppert: DFPT cycle converged with prtwf=-1. Will skip output of the 1st-order WFK file.
 dfpt_looppert : ek2=    7.3697272807E+01
          f-sum rule ratio=    1.3838659564E+00
 prteigrs : about to open file /scratch/users/j/a/jabreu/flow_simple_4atoms/flow/w249/t1/tmpdata/tmp_1WF1_EIG
 Expectation of eigenvalue derivatives (hartree) for nkpt=   1  k points:
  (in case of degenerate eigenvalues, averaged derivative)
 kpt#   1, nband= 35, wtk=  1.00000, kpt=  0.0000  0.0000  0.0000 (reduced coord)
   0.00000    0.00000    0.00000    0.00000   -0.00000   -0.00000   -0.00000   -0.00000
  -0.00000    0.00000    0.00000    0.00000    0.00000    0.00000    0.00000    0.00000
  -0.00000   -0.00000   -0.00000   -0.00000    0.00000    0.00000    0.00000   -0.00000
  -0.00000    0.00000   -0.00000   -0.00000    0.00000    0.00000    0.00000    0.00000
   0.00000   -0.00000   -0.00000

 Eight components of 2nd-order total energy (hartree) are
 1,2,3: 0th-order hamiltonian combined with 1st-order wavefunctions
     kin0=   6.99936787E+01 eigvalue=   1.62225073E+01  local=  -3.54574452E+01
 4,5,6: 1st-order hamiltonian combined with 1st and 0th-order wfs
     kin1=  -1.01987147E+02  Hartree=   0.00000000E+00     xc=   0.00000000E+00
 7,8,9: eventually, occupation + non-local contributions
    edocc=   2.53230195E+01     enl0=   9.02208401E+00   enl1=  -6.82205418E+01
 1-9 gives the relaxation energy (to be shifted if some occ is /=2.0)
   erelax=  -8.51038443E+01
  No Ewald or frozen-wf contrib.: the relaxation energy is the total one
 2DEtotal=   -0.8510384434E+02 Ha. Also 2DEtotal=   -0.231579337640E+04 eV
    (  non-var. 2DEtotal :   -8.5103844344E+01 Ha)

 Perturbation wavevector (in red.coord.)   0.000000  0.000000  0.000000
 Perturbation : derivative vs k along direction   2
 The set of symmetries contains only one element for this perturbation.
 symkpt : not enough symmetry to change the number of k points.

[...]

 Perturbation wavevector (in red.coord.)   0.000000  0.000000  0.000000
 Perturbation : derivative vs k along direction   3
 The set of symmetries contains only one element for this perturbation.
 symkpt : not enough symmetry to change the number of k points.

-inwffil : will read wavefunctions from disk file /scratch/users/j/a/jabreu/flow_simple_4atoms/flow/w249/t1/indata/in_WFK

 Initialisation of the first-order wave-functions :
  ireadwf=   0

--- !BeginCycle
iteration_state: {dtset: 1, }
solver: {iscf: 7, nstep: 100, nline: 4, wfoptalg: 0, }
tolerances: {tolwfr: 1.00E-20, }
...

     iter   2DEtotal(Ha)        deltaE(Ha) residm    vres2
-ETOT  1  -21.894811810486     -2.189E+01 6.459E-02 0.000E+00
 ETOT  2  -21.901018110904     -6.206E-03 1.281E-05 0.000E+00
 ETOT  3  -21.901019259516     -1.149E-06 4.664E-07 0.000E+00
 ETOT  4  -21.901019260124     -6.077E-10 2.281E-09 0.000E+00
 ETOT  5  -21.901019260124     -8.562E-13 8.811E-11 0.000E+00
 ETOT  6  -21.901019260124      4.974E-14 1.360E-12 0.000E+00
 ETOT  7  -21.901019260124     -1.066E-14 6.417E-14 0.000E+00
 ETOT  8  -21.901019260124     -7.105E-15 1.141E-15 0.000E+00
 ETOT  9  -21.901019260124      3.553E-15 5.394E-17 0.000E+00
 ETOT 10  -21.901019260124      7.105E-15 1.025E-18 0.000E+00
 ETOT 11  -21.901019260124     -3.553E-15 4.919E-20 0.000E+00
 ETOT 12  -21.901019260124      0.000E+00 9.606E-21 0.000E+00

 At SCF step   12   max residual=  9.61E-21 < tolwfr=  1.00E-20 =>converged.

 ----iterations are completed or convergence reached----

 dfpt_looppert: DFPT cycle converged with prtwf=-1. Will skip output of the 1st-order WFK file.
 dfpt_looppert : ek2=    2.0907577568E+01
          f-sum rule ratio=    1.1810112541E+00
 prteigrs : about to open file /scratch/users/j/a/jabreu/flow_simple_4atoms/flow/w249/t1/tmpdata/tmp_1WF1_EIG
 Expectation of eigenvalue derivatives (hartree) for nkpt=   1  k points:
  (in case of degenerate eigenvalues, averaged derivative)
 kpt#   1, nband= 35, wtk=  1.00000, kpt=  0.0000  0.0000  0.0000 (reduced coord)
   0.00000    0.00000    0.00000    0.00000    0.00000    0.00000   -0.00000   -0.00000
  -0.00000   -0.00000   -0.00000   -0.00000   -0.00000    0.00000    0.00000    0.00000
  -0.00000   -0.00000    0.00000    0.00000    0.00000   -0.00000   -0.00000    0.00000
   0.00000    0.00000    0.00000    0.00000   -0.00000   -0.00000   -0.00000    0.00000
   0.00000    0.00000    0.00000

 Eight components of 2nd-order total energy (hartree) are
 1,2,3: 0th-order hamiltonian combined with 1st-order wavefunctions
     kin0=   2.09301415E+01 eigvalue=   4.57727893E+00  local=  -1.05319170E+01
 4,5,6: 1st-order hamiltonian combined with 1st and 0th-order wfs
     kin1=  -2.46920844E+01  Hartree=   0.00000000E+00     xc=   0.00000000E+00
 7,8,9: eventually, occupation + non-local contributions
    edocc=   4.55902903E+00     enl0=   2.36648685E+00   enl1=  -1.91099541E+01
 1-9 gives the relaxation energy (to be shifted if some occ is /=2.0)
   erelax=  -2.19010193E+01
  No Ewald or frozen-wf contrib.: the relaxation energy is the total one
 2DEtotal=   -0.2190101926E+02 Ha. Also 2DEtotal=   -0.595957042012E+03 eV
    (  non-var. 2DEtotal :   -2.1901019260E+01 Ha)

 CALCULATION OF EFFECTIVE MASSES
 NOTE : Additional infos (eff. mass eigenvalues, eigenvectors and, if degenerate, average mass) are available in stdout.

--- !WARNING
src_file: m_efmas.F90
src_line: 0
message: |

    Band(s)    26,
    are not band extrema, but saddle points;
    the transport equivalent formalism breaks down in these conditions.
    The associated tensor(s) will therefore not be printed.
...

 K-point ( 0.000, 0.000, 0.000) | band =    26
 Effective mass tensor:
     *** SADDLE POINT: TRANSPORT EQV. EFF. MASS NOT DEFINED (see WARNING above) ***
 Angular average effective mass 1/(<1/m>)=  -0.4525728732
 Angular average effective mass for Frohlich model (<m**0.5>)**2=  -3.3463484074
 Effective masses along directions: (cart. coord. / red. coord. -> eff. mass)
    1:   1.000000  0.000000  0.000000 /   0.894427 -0.447214  0.000000 ->  19.6476472818
    2:   0.000000  1.000000  0.000000 /   0.000000  1.000000  0.000000 ->  19.6476149894
    3:   0.000000  0.000000  1.000000 /   0.000000  0.000000  1.000000 ->  -0.1485760436
    4:   0.577350  0.577350  0.577350 /   0.514504  0.188322  0.836553 ->  -0.4525728715
    5:   0.000000  0.707107  0.707107 /   0.000000  0.470105  0.882610 ->  -0.2994162896
    6:   0.707107  0.000000  0.707107 /   0.506780 -0.253390  0.823995 ->  -0.2994162828
    7:   0.707107  0.707107  0.000000 /   0.939071  0.343724  0.000000 ->  19.6476624180

 K-point ( 0.000, 0.000, 0.000) | band =    27
 Effective mass tensor:
              0.1712065448              0.0000000001             -0.0000000000
              0.0000000001              0.1712065448             -0.0000000000
             -0.0000000000             -0.0000000000              0.1538736293
 Effective mass tensor eigenvalues:
              0.1538736293              0.1712065447              0.1712065449
 Angular average effective mass 1/(<1/m>)=   0.1650107310
 Angular average effective mass for Frohlich model (<m**0.5>)**2=   0.1651383896
 Effective masses along directions: (cart. coord. / red. coord. -> eff. mass)
    1:   1.000000  0.000000  0.000000 /   0.894427 -0.447214  0.000000 ->   0.1712065448
    2:   0.000000  1.000000  0.000000 /   0.000000  1.000000  0.000000 ->   0.1712065448
    3:   0.000000  0.000000  1.000000 /   0.000000  0.000000  1.000000 ->   0.1538736293
    4:   0.577350  0.577350  0.577350 /   0.514504  0.188322  0.836553 ->   0.1650107311
    5:   0.000000  0.707107  0.707107 /   0.000000  0.470105  0.882610 ->   0.1620780011
    6:   0.707107  0.000000  0.707107 /   0.506780 -0.253390  0.823995 ->   0.1620780011
    7:   0.707107  0.707107  0.000000 /   0.939071  0.343724  0.000000 ->   0.1712065449

 END OF EFFECTIVE MASSES SECTION

 ---- first-order wavefunction calculations are completed ----

 Total localisation tensor (bohr^2) in cartesian coordinates
  WARNING : still subject to testing - especially symmetries.
      direction              matrix element
   alpha     beta       real part   imaginary part
     1        1       4.4234555363    0.0000000000
     1        2      -1.5323299376    0.0000000000
     1        3       0.0000000000    0.0000000000
     2        1      -1.5323299376    0.0000000000
     2        2       2.6540733059    0.0000000000
     2        3       0.0000000000    0.0000000000
     3        1       0.0000000000    0.0000000000
     3        2       0.0000000000    0.0000000000
     3        3       1.9507170321    0.0000000000

 respfn : d/dk was computed, but no 2DTE, so no DDB output.

== END DATASET(S) ==============================================================

 -outvars: echo values of variables after computation  --------
            acell      1.0000000000E+00  1.0000000000E+00  1.0000000000E+00 Bohr
              amu      2.43050000E+01  1.27600000E+02
             ecut      4.20000000E+01 Hartree
           etotal     -2.1901019260E+01
            fcart      0.0000000000E+00  0.0000000000E+00  0.0000000000E+00
                       0.0000000000E+00  0.0000000000E+00  0.0000000000E+00
                       0.0000000000E+00  0.0000000000E+00  0.0000000000E+00
                       0.0000000000E+00  0.0000000000E+00  0.0000000000E+00
-          fftalg         512
           irdden           1
           irdwfk           1
           istwfk        1
              ixc     -116133
           kptopt           0
P           mkmem           1
P          mkqmem           1
P          mk1mem           1
            natom           4
            nband          35
           nbdbuf           4
            ngfft          54      54      90
             nkpt           1
            nstep         100
             nsym          12
           ntypat           2
              occ      2.000000  2.000000  2.000000  2.000000  2.000000  2.000000
                       2.000000  2.000000  2.000000  2.000000  2.000000  2.000000
                       2.000000  2.000000  2.000000  2.000000  2.000000  2.000000
                       2.000000  2.000000  2.000000  2.000000  2.000000  2.000000
                       2.000000  2.000000  0.000000  0.000000  0.000000  0.000000
                       0.000000  0.000000  0.000000  0.000000  0.000000
        optdriver           1
            prtwf          -1
            rfdir           1       1       1
           rfelfd           2
            rprim      8.6186689185E+00  0.0000000000E+00  0.0000000000E+00
                      -4.3093344593E+00  7.4639862302E+00  0.0000000000E+00
                       0.0000000000E+00  0.0000000000E+00  1.4013437460E+01
          spgroup         186
           strten      0.0000000000E+00  0.0000000000E+00  0.0000000000E+00
                       0.0000000000E+00  0.0000000000E+00  0.0000000000E+00
           symrel      1  0  0   0  1  0   0  0  1       0  1  0   1  0  0   0  0  1
                       1  1  0  -1  0  0   0  0  1      -1  0  0   1  1  0   0  0  1
                       0  1  0  -1 -1  0   0  0  1      -1 -1  0   0  1  0   0  0  1
                      -1  0  0   0 -1  0   0  0  1       0 -1  0  -1  0  0   0  0  1
                      -1 -1  0   1  0  0   0  0  1       1  0  0  -1 -1  0   0  0  1
                       0 -1  0   1  1  0   0  0  1       1  1  0   0 -1  0   0  0  1
            tnons      0.0000000  0.0000000  0.0000000     0.0000000  0.0000000  0.5000000
                       0.0000000  0.0000000  0.5000000     0.0000000  0.0000000  0.0000000
                       0.0000000  0.0000000  0.0000000     0.0000000  0.0000000  0.5000000
                       0.0000000  0.0000000  0.5000000     0.0000000  0.0000000  0.0000000
                       0.0000000  0.0000000  0.0000000     0.0000000  0.0000000  0.5000000
                       0.0000000  0.0000000  0.5000000     0.0000000  0.0000000  0.0000000
           tolwfr      1.00000000E-20
            typat      1  1  2  2
           useylm           1
           xangst     -1.7639241746E-11  2.6331809322E+00  2.4486283851E-02
                       2.2804015800E+00  1.3165904661E+00  3.7322821426E+00
                      -1.7639241746E-11  2.6331809322E+00  4.6473364982E+00
                       2.2804015800E+00  1.3165904661E+00  9.3954063943E-01
            xcart     -3.3333336091E-11  4.9759908201E+00  4.6272370491E-02
                       4.3093344592E+00  2.4879954101E+00  7.0529911002E+00
                      -3.3333336091E-11  4.9759908201E+00  8.7821932290E+00
                       4.3093344592E+00  2.4879954101E+00  1.7754744992E+00
             xred      3.3333333333E-01  6.6666666667E-01  3.3020000000E-03
                       6.6666666667E-01  3.3333333333E-01  5.0330200000E-01
                       3.3333333333E-01  6.6666666667E-01  6.2669800000E-01
                       6.6666666667E-01  3.3333333333E-01  1.2669800000E-01
            znucl       12.00000   52.00000

- Timing analysis has been suppressed with timopt=0

 Suggested references for the acknowledgment of ABINIT usage.

 Calculation completed.
.Delivered   7 WARNINGs and   5 COMMENTs to log file.