.Version 9.5.1 of ABINIT

 ABINIT is a project of the Universite Catholique de Louvain,
 Corning Inc. and other collaborators, see ~abinit/doc/developers/contributors.txt .
 acknowledgments of the ABINIT effort.

.Starting date : Mon 26 Apr 2021.
- ( at 00h47 )

- input  file    -> /scratch/users/j/a/jabreu/flow_simple/flow/w97/t1/run.abi
- output file    -> /scratch/users/j/a/jabreu/flow_simple/flow/w97/t1/run.abo
- root for input  files -> /scratch/users/j/a/jabreu/flow_simple/flow/w97/t1/indata/in
- root for output files -> /scratch/users/j/a/jabreu/flow_simple/flow/w97/t1/outdata/out

 Symmetries : space group Fm -3 m (#225); Bravais cF (face-center cubic)
     intxc =       0      iscf =       7    lmnmax =      18     lnmax =       6
     mgfft =      54  mpssoang =       3    mqgrid =    3001     natom =       3
  nloc_mem =       1    nspden =       1   nspinor =       1    nsppol =       1
      nsym =      48    n1xccc =    2501    ntypat =       2    occopt =       1
   xclevel =       2
-    mband =          21        mffmem =           1         mkmem =           2
-   mkqmem =           2        mk1mem =           2           mpw =        7119
      nfft =      157464          nkpt =           2
  Rough estimation (10% accuracy) of disk space for files :

------------- Echo of variables that govern the present computation ------------
-
- outvars: echo of selected default values
-   iomode0 =  0 , fftalg0 =512 , wfoptalg0 =  0
-
- outvars: echo of global parameters not present in the input file
-  max_nthreads =    0
-
 -outvars: echo values of preprocessed input variables --------
            acell      1.0000000000E+00  1.0000000000E+00  1.0000000000E+00 Bohr
              amu      8.54678000E+01  1.59994000E+01
             ecut      4.40000000E+01 Hartree
-          fftalg         512
           irdden           1
           irdwfk           1
           istwfk        1    1
              ixc     -116133
              kpt      5.00000000E-01  0.00000000E+00  5.00000000E-01
                       0.00000000E+00  0.00000000E+00  0.00000000E+00
           kptopt           0
P           mkmem           2
P          mkqmem           2
P          mk1mem           2
            natom           3
            nband          21
           nbdbuf           4
            ngfft          54      54      54
             nkpt           2
            nstep         100
             nsym          48
           ntypat           2
              occ      2.000000  2.000000  2.000000  2.000000  2.000000  2.000000
                       2.000000  2.000000  2.000000  2.000000  2.000000  2.000000
                       0.000000  0.000000  0.000000  0.000000  0.000000  0.000000
                       0.000000  0.000000  0.000000
        optdriver           1
            prtwf          -1
            rfdir           1       1       1
           rfelfd           2
            rprim      7.7417498854E+00  0.0000000000E+00  4.4697013803E+00
                       2.5805832951E+00  7.2989917896E+00  4.4697013803E+00
                       0.0000000000E+00  0.0000000000E+00  8.9394027606E+00
          spgroup         225
           symrel      1  0  0   0  1  0   0  0  1      -1  0  0   0 -1  0   0  0 -1
                       0 -1  1   0 -1  0   1 -1  0       0  1 -1   0  1  0  -1  1  0
                      -1  0  0  -1  0  1  -1  1  0       1  0  0   1  0 -1   1 -1  0
                       0  1 -1   1  0 -1   0  0 -1       0 -1  1  -1  0  1   0  0  1
                      -1  0  0  -1  1  0  -1  0  1       1  0  0   1 -1  0   1  0 -1
                       0 -1  1   1 -1  0   0 -1  0       0  1 -1  -1  1  0   0  1  0
                       1  0  0   0  0  1   0  1  0      -1  0  0   0  0 -1   0 -1  0
                       0  1 -1   0  0 -1   1  0 -1       0 -1  1   0  0  1  -1  0  1
                      -1  0  1  -1  1  0  -1  0  0       1  0 -1   1 -1  0   1  0  0
                       0 -1  0   1 -1  0   0 -1  1       0  1  0  -1  1  0   0  1 -1
                       1  0 -1   0  0 -1   0  1 -1      -1  0  1   0  0  1   0 -1  1
                       0  1  0   0  0  1   1  0  0       0 -1  0   0  0 -1  -1  0  0
                       1  0 -1   0  1 -1   0  0 -1      -1  0  1   0 -1  1   0  0  1
                       0 -1  0   0 -1  1   1 -1  0       0  1  0   0  1 -1  -1  1  0
                      -1  0  1  -1  0  0  -1  1  0       1  0 -1   1  0  0   1 -1  0
                       0  1  0   1  0  0   0  0  1       0 -1  0  -1  0  0   0  0 -1
                       0  0 -1   0  1 -1   1  0 -1       0  0  1   0 -1  1  -1  0  1
                       1 -1  0   0 -1  1   0 -1  0      -1  1  0   0  1 -1   0  1  0
                       0  0  1   1  0  0   0  1  0       0  0 -1  -1  0  0   0 -1  0
                      -1  1  0  -1  0  0  -1  0  1       1 -1  0   1  0  0   1  0 -1
                       0  0  1   0  1  0   1  0  0       0  0 -1   0 -1  0  -1  0  0
                       1 -1  0   0 -1  0   0 -1  1      -1  1  0   0  1  0   0  1 -1
                       0  0 -1   1  0 -1   0  1 -1       0  0  1  -1  0  1   0 -1  1
                      -1  1  0  -1  0  1  -1  0  0       1 -1  0   1  0 -1   1  0  0
           tolwfr      1.00000000E-20
            typat      1  1  2
           useylm           1
              wtk        0.50000    0.50000
           xangst      4.0967575939E+00  2.8968450756E+00  7.0957922990E+00
                       1.3655858646E+00  9.6561502519E-01  2.3652640997E+00
                       0.0000000000E+00  0.0000000000E+00  0.0000000000E+00
            xcart      7.7417498854E+00  5.4742438422E+00  1.3409104141E+01
                       2.5805832951E+00  1.8247479474E+00  4.4697013803E+00
                       0.0000000000E+00  0.0000000000E+00  0.0000000000E+00
             xred      7.5000000000E-01  7.5000000000E-01  7.5000000000E-01
                       2.5000000000E-01  2.5000000000E-01  2.5000000000E-01
                       0.0000000000E+00  0.0000000000E+00  0.0000000000E+00
            znucl       37.00000    8.00000

 chkinp: Checking input parameters for consistency.

== DATASET  1 ==================================================================
-   mpi_nproc: 1, omp_nthreads: -1 (-1 if OMP is not activated)

--- !DatasetInfo
iteration_state: {dtset: 1, }
dimensions: {natom: 3, nkpt: 2, mband: 21, nsppol: 1, nspinor: 1, nspden: 1, mpw: 7119, }
cutoff_energies: {ecut:  44.0, pawecutdg:  -1.0, }
electrons: {nelect:   2.40000000E+01, charge:   0.00000000E+00, occopt:   1.00000000E+00, tsmear:   1.00000000E-02, }
meta: {optdriver: 1, rfelfd: 2, }
...

 Real(R)+Recip(G) space primitive vectors, cartesian coordinates (Bohr,Bohr^-1):
 R(1)=  7.7417499  0.0000000  4.4697014  G(1)=  0.1291698 -0.0456684  0.0000000
 R(2)=  2.5805833  7.2989918  4.4697014  G(2)=  0.0000000  0.1370052  0.0000000
 R(3)=  0.0000000  0.0000000  8.9394028  G(3)= -0.0645849 -0.0456684  0.1118643
 Unit cell volume ucvol=  5.0513855E+02 bohr^3
 Angles (23,13,12)=  6.00000000E+01  6.00000000E+01  6.00000000E+01 degrees

 getcut: wavevector=  0.0000  0.0000  0.0000  ngfft=  54  54  54
         ecut(hartree)=     44.000   => boxcut(ratio)=   2.02368

--- Pseudopotential description ------------------------------------------------
- pspini: atom type   1  psp file is /scratch/users/j/a/jabreu/pseudos/PBEsol/Rb.psp8
- pspatm: opening atomic psp file    /scratch/users/j/a/jabreu/pseudos/PBEsol/Rb.psp8
- Rb    ONCVPSP-3.3.0  r_core=   1.71227   1.75361   1.90633
- 37.00000   9.00000    180112                znucl, zion, pspdat
    8 -116133    2    4       600   0.00000   pspcod,pspxc,lmax,lloc,mmax,r2well
    5.99000000000000    7.00000000000000    0.00000000000000   rchrg,fchrg,qchrg
     nproj     2     2     2
     extension_switch     1
  pspatm : epsatm=   34.48400912
         --- l  ekb(1:nproj) -->
             0    8.196957   -0.477221
             1    3.231347   -0.378736
             2   -1.047201    0.996637
 pspatm: atomic psp has been read  and splines computed

- pspini: atom type   2  psp file is /scratch/users/j/a/jabreu/pseudos/PBEsol/O.psp8
- pspatm: opening atomic psp file    /scratch/users/j/a/jabreu/pseudos/PBEsol/O.psp8
- O     ONCVPSP-3.3.0  r_core=   1.35509   1.45563   1.26150
-  8.00000   6.00000    180112                znucl, zion, pspdat
    8 -116133    2    4       600   0.00000   pspcod,pspxc,lmax,lloc,mmax,r2well
    5.99000000000000    4.00000000000000    0.00000000000000   rchrg,fchrg,qchrg
     nproj     2     2     1
     extension_switch     1
  pspatm : epsatm=    6.22910522
         --- l  ekb(1:nproj) -->
             0    6.050032    0.820363
             1   -4.739617   -1.153841
             2   -1.335834
 pspatm: atomic psp has been read  and splines computed

   1.80473096E+03                                ecore*ucvol(ha*bohr**3)

-inwffil : will read wavefunctions from disk file /scratch/users/j/a/jabreu/flow_simple/flow/w97/t1/indata/in_WFK

 ==>  initialize data related to q vector <==

 The list of irreducible perturbations for this q vector is:
    1)    idir= 1    ipert=   4
    2)    idir= 2    ipert=   4
    3)    idir= 3    ipert=   4

 Perturbation wavevector (in red.coord.)   0.000000  0.000000  0.000000
 Perturbation : derivative vs k along direction   1

 dfpt_looppert : COMMENT -
  In a d/dk calculation, iscf is set to -3 automatically.
 The set of symmetries contains only one element for this perturbation.
 symkpt : not enough symmetry to change the number of k points.

[...]

 Initialisation of the first-order wave-functions :
  ireadwf=   0

--- !BeginCycle
iteration_state: {dtset: 1, }
solver: {iscf: 7, nstep: 100, nline: 4, wfoptalg: 0, }
tolerances: {tolwfr: 1.00E-20, }
...

     iter   2DEtotal(Ha)        deltaE(Ha) residm    vres2
-ETOT  1  -18.604471555589     -1.860E+01 7.894E-02 0.000E+00
 ETOT  2  -18.609733449951     -5.262E-03 1.445E-03 0.000E+00
 ETOT  3  -18.609736562480     -3.113E-06 8.259E-06 0.000E+00
 ETOT  4  -18.609736565544     -3.063E-09 3.626E-07 0.000E+00
 ETOT  5  -18.609736565548     -4.125E-12 2.053E-09 0.000E+00
 ETOT  6  -18.609736565548     -1.776E-14 1.195E-10 0.000E+00
 ETOT  7  -18.609736565548      2.132E-14 5.821E-13 0.000E+00
 ETOT  8  -18.609736565548     -1.066E-14 4.983E-14 0.000E+00
 ETOT  9  -18.609736565548      0.000E+00 2.616E-16 0.000E+00
 ETOT 10  -18.609736565548      7.105E-15 2.371E-17 0.000E+00
 ETOT 11  -18.609736565548     -7.105E-15 1.323E-19 0.000E+00
 ETOT 12  -18.609736565548      7.105E-15 1.168E-20 0.000E+00
 ETOT 13  -18.609736565548     -3.553E-15 9.647E-21 0.000E+00

 At SCF step   13   max residual=  9.65E-21 < tolwfr=  1.00E-20 =>converged.

 ----iterations are completed or convergence reached----

 dfpt_looppert: DFPT cycle converged with prtwf=-1. Will skip output of the 1st-order WFK file.
 dfpt_looppert : ek2=    3.5569292255E+01
          f-sum rule ratio=    1.0331739803E+00
 prteigrs : about to open file /scratch/users/j/a/jabreu/flow_simple/flow/w97/t1/tmpdata/tmp_1WF1_EIG
 Expectation of eigenvalue derivatives (hartree) for nkpt=   2  k points:
  (in case of degenerate eigenvalues, averaged derivative)
 kpt#   1, nband= 21, wtk=  0.50000, kpt=  0.5000  0.0000  0.5000 (reduced coord)
   0.00000   -0.00000    0.00000    0.00000    0.00000   -0.00000    0.00000    0.00000
  -0.00000    0.00000    0.00000    0.00000   -0.00000   -0.00000   -0.00000   -0.00000
  -0.00000    0.00000    0.00000   -0.00000   -0.00000
 prteigrs : prtvol=0 or 1, do not print more k-points.

 Eight components of 2nd-order total energy (hartree) are
 1,2,3: 0th-order hamiltonian combined with 1st-order wavefunctions
     kin0=   1.39699482E+01 eigvalue=   1.15043037E+00  local=  -5.80887824E+00
 4,5,6: 1st-order hamiltonian combined with 1st and 0th-order wfs
     kin1=  -3.67492673E+01  Hartree=   0.00000000E+00     xc=   0.00000000E+00
 7,8,9: eventually, occupation + non-local contributions
    edocc=   9.74288616E+00     enl0=  -4.44649908E-01   enl1=  -4.70205875E-01
 1-9 gives the relaxation energy (to be shifted if some occ is /=2.0)
   erelax=  -1.86097366E+01
  No Ewald or frozen-wf contrib.: the relaxation energy is the total one
 2DEtotal=   -0.1860973657E+02 Ha. Also 2DEtotal=   -0.506396685219E+03 eV
    (  non-var. 2DEtotal :   -1.8609736565E+01 Ha)

 Perturbation wavevector (in red.coord.)   0.000000  0.000000  0.000000
 Perturbation : derivative vs k along direction   2
 The set of symmetries contains only one element for this perturbation.
 symkpt : not enough symmetry to change the number of k points.

[...]

 Perturbation wavevector (in red.coord.)   0.000000  0.000000  0.000000
 Perturbation : derivative vs k along direction   3
 The set of symmetries contains only one element for this perturbation.
 symkpt : not enough symmetry to change the number of k points.

-inwffil : will read wavefunctions from disk file /scratch/users/j/a/jabreu/flow_simple/flow/w97/t1/indata/in_WFK

 Initialisation of the first-order wave-functions :
  ireadwf=   0

--- !BeginCycle
iteration_state: {dtset: 1, }
solver: {iscf: 7, nstep: 100, nline: 4, wfoptalg: 0, }
tolerances: {tolwfr: 1.00E-20, }
...

     iter   2DEtotal(Ha)        deltaE(Ha) residm    vres2
-ETOT  1  -18.603497203974     -1.860E+01 7.894E-02 0.000E+00
 ETOT  2  -18.609639916138     -6.143E-03 1.445E-03 0.000E+00
 ETOT  3  -18.609644173007     -4.257E-06 8.259E-06 0.000E+00
 ETOT  4  -18.609644177166     -4.159E-09 3.626E-07 0.000E+00
 ETOT  5  -18.609644177171     -5.279E-12 2.053E-09 0.000E+00
 ETOT  6  -18.609644177171      1.421E-14 1.195E-10 0.000E+00
 ETOT  7  -18.609644177171     -1.421E-14 5.821E-13 0.000E+00
 ETOT  8  -18.609644177171      1.421E-14 4.983E-14 0.000E+00
 ETOT  9  -18.609644177171      0.000E+00 2.616E-16 0.000E+00
 ETOT 10  -18.609644177171      0.000E+00 2.371E-17 0.000E+00
 ETOT 11  -18.609644177171     -3.553E-15 1.323E-19 0.000E+00
 ETOT 12  -18.609644177171      7.105E-15 1.168E-20 0.000E+00
 ETOT 13  -18.609644177171     -1.066E-14 9.846E-21 0.000E+00

 At SCF step   13   max residual=  9.85E-21 < tolwfr=  1.00E-20 =>converged.

 ----iterations are completed or convergence reached----

 dfpt_looppert: DFPT cycle converged with prtwf=-1. Will skip output of the 1st-order WFK file.
 dfpt_looppert : ek2=    3.5569292255E+01
          f-sum rule ratio=    1.0331685576E+00
 prteigrs : about to open file /scratch/users/j/a/jabreu/flow_simple/flow/w97/t1/tmpdata/tmp_1WF1_EIG
 Expectation of eigenvalue derivatives (hartree) for nkpt=   2  k points:
  (in case of degenerate eigenvalues, averaged derivative)
 kpt#   1, nband= 21, wtk=  0.50000, kpt=  0.5000  0.0000  0.5000 (reduced coord)
  -0.00000    0.00000    0.00000   -0.00000   -0.00000    0.00000   -0.00000   -0.00000
  -0.00000    0.00000    0.00000    0.00000    0.00000   -0.00000    0.00000   -0.00000
   0.00000   -0.00000   -0.00000   -0.00000   -0.00000
 prteigrs : prtvol=0 or 1, do not print more k-points.

 Eight components of 2nd-order total energy (hartree) are
 1,2,3: 0th-order hamiltonian combined with 1st-order wavefunctions
     kin0=   1.34244108E+01 eigvalue=   1.06602864E+00  local=  -5.52662172E+00
 4,5,6: 1st-order hamiltonian combined with 1st and 0th-order wfs
     kin1=  -3.67490744E+01  Hartree=   0.00000000E+00     xc=   0.00000000E+00
 7,8,9: eventually, occupation + non-local contributions
    edocc=   1.00566736E+01     enl0=  -4.10847140E-01   enl1=  -4.70213978E-01
 1-9 gives the relaxation energy (to be shifted if some occ is /=2.0)
   erelax=  -1.86096442E+01
  No Ewald or frozen-wf contrib.: the relaxation energy is the total one
 2DEtotal=   -0.1860964418E+02 Ha. Also 2DEtotal=   -0.506394171203E+03 eV
    (  non-var. 2DEtotal :   -1.8609644177E+01 Ha)

 CALCULATION OF EFFECTIVE MASSES
 NOTE : Additional infos (eff. mass eigenvalues, eigenvectors and, if degenerate, average mass) are available in stdout.

 COMMENTS:
 - At k-point ( 0.500, 0.000, 0.500), bands    11 through    12
   are DEGENERATE (effective mass tensor is therefore not defined).
   See Section IIIB Eqs. (67)-(70) and Appendix E of PRB 93 205147 (2016).
 - Angular average effective mass for Frohlich model is to be averaged over degenerate bands. See later.
 - Associated theta integrals calculated with ntheta=   1000 points.

 K-point ( 0.500, 0.000, 0.500) | band =    11
 Transport equivalent effective mass tensor:
             -2.5913330882             -0.0215604864              0.0264060904
             -0.0215604864             -2.5760875135             -0.0373438629
              0.0264060904             -0.0373438629             -2.5608419517
 Transport equivalent effective mass tensor eigenvalues:
             -2.6065786531             -2.6065786491             -2.5151052512
 Angular average effective mass 1/(<1/m>)=  -2.5172906211
 Angular average effective mass for Frohlich model (<m**0.5>)**2=  -2.5213356075
 Effective masses along directions: (cart. coord. / red. coord. -> eff. mass)
    1:   1.000000  0.000000  0.000000 /   0.948683  0.316228  0.000000 ->  -2.5735435891
    2:   0.000000  1.000000  0.000000 /   0.000000  1.000000  0.000000 ->  -2.6821365864
    3:   0.000000  0.000000  1.000000 /   0.408248  0.408248  0.816497 ->  -2.4049984193
    4:   0.577350  0.577350  0.577350 /   0.585539  0.688047  0.428644 ->  -2.6660868170
    5:   0.000000  0.707107  0.707107 /   0.289489  0.762222  0.578977 ->  -2.5642656015
    6:   0.707107  0.000000  0.707107 /   0.731423  0.422287  0.535439 ->  -2.4649314880
    7:   0.707107  0.707107  0.000000 /   0.616798  0.787122  0.000000 ->  -2.3882475230

 K-point ( 0.500, 0.000, 0.500) | band =    12
 Transport equivalent effective mass tensor:
             -5.2256322970             -0.6990365274              0.8561414011
             -0.6990365274             -4.7313388281             -1.2107667790
              0.8561414011             -1.2107667790             -4.2370453729
 Transport equivalent effective mass tensor eigenvalues:
             -5.7199257700             -5.7199257656             -2.7541649623
 Angular average effective mass 1/(<1/m>)=  -3.8112296922
 Angular average effective mass for Frohlich model (<m**0.5>)**2=  -4.0053050082
 Effective masses along directions: (cart. coord. / red. coord. -> eff. mass)
    1:   1.000000  0.000000  0.000000 /   0.948683  0.316228  0.000000 ->  -4.3281123611
    2:   0.000000  1.000000  0.000000 /   0.000000  1.000000  0.000000 ->  -3.4867756270
    3:   0.000000  0.000000  1.000000 /   0.408248  0.408248  0.816497 ->  -3.5229572730
    4:   0.577350  0.577350  0.577350 /   0.585539  0.688047  0.428644 ->  -4.3920590968
    5:   0.000000  0.707107  0.707107 /   0.289489  0.762222  0.578977 ->  -5.2179838707
    6:   0.707107  0.000000  0.707107 /   0.731423  0.422287  0.535439 ->  -3.0935078163
    7:   0.707107  0.707107  0.000000 /   0.616798  0.787122  0.000000 ->  -6.0858819046

 Angular average effective mass for Frohlich model, averaged over degenerate bands.
 Value of     (<<m**0.5>>)**2 =     3.220584E+00
 Absolute Value of <<m**0.5>> =     1.794599E+00

 K-point ( 0.000, 0.000, 0.000) | band =    13
 Effective mass tensor:
              0.3381432627             -0.0000000000              0.0000000001
             -0.0000000000              0.3381432627              0.0000000001
              0.0000000001              0.0000000001              0.3381432629
 Effective mass tensor eigenvalues:
              0.3381432626              0.3381432628              0.3381432629
 Angular average effective mass 1/(<1/m>)=   0.3381432628
 Angular average effective mass for Frohlich model (<m**0.5>)**2=   0.3381432628
 Effective masses along directions: (cart. coord. / red. coord. -> eff. mass)
    1:   1.000000  0.000000  0.000000 /   0.948683  0.316228  0.000000 ->   0.3381432627
    2:   0.000000  1.000000  0.000000 /   0.000000  1.000000  0.000000 ->   0.3381432627
    3:   0.000000  0.000000  1.000000 /   0.408248  0.408248  0.816497 ->   0.3381432629
    4:   0.577350  0.577350  0.577350 /   0.585539  0.688047  0.428644 ->   0.3381432629
    5:   0.000000  0.707107  0.707107 /   0.289489  0.762222  0.578977 ->   0.3381432629
    6:   0.707107  0.000000  0.707107 /   0.731423  0.422287  0.535439 ->   0.3381432629
    7:   0.707107  0.707107  0.000000 /   0.616798  0.787122  0.000000 ->   0.3381432627

 END OF EFFECTIVE MASSES SECTION

 ---- first-order wavefunction calculations are completed ----

 Total localisation tensor (bohr^2) in cartesian coordinates
  WARNING : still subject to testing - especially symmetries.
      direction              matrix element
   alpha     beta       real part   imaginary part
     1        1       1.4042762505    0.0000000000
     1        2       0.3971857507    0.0000000000
     1        3       0.9729096750    0.0000000000
     2        1       0.3971857507    0.0000000000
     2        2       1.1234109509    0.0000000000
     2        3       0.6879459003    0.0000000000
     3        1       0.9729096750    0.0000000000
     3        2       0.6879459003    0.0000000000
     3        3       2.5276834723    0.0000000000

 respfn : d/dk was computed, but no 2DTE, so no DDB output.

== END DATASET(S) ==============================================================

 -outvars: echo values of variables after computation  --------
            acell      1.0000000000E+00  1.0000000000E+00  1.0000000000E+00 Bohr
              amu      8.54678000E+01  1.59994000E+01
             ecut      4.40000000E+01 Hartree
           etotal     -1.8609644177E+01
            fcart      0.0000000000E+00  0.0000000000E+00  0.0000000000E+00
                       0.0000000000E+00  0.0000000000E+00  0.0000000000E+00
                       0.0000000000E+00  0.0000000000E+00  0.0000000000E+00
-          fftalg         512
           irdden           1
           irdwfk           1
           istwfk        1    1
              ixc     -116133
              kpt      5.00000000E-01  0.00000000E+00  5.00000000E-01
                       0.00000000E+00  0.00000000E+00  0.00000000E+00
           kptopt           0
P           mkmem           2
P          mkqmem           2
P          mk1mem           2
            natom           3
            nband          21
           nbdbuf           4
            ngfft          54      54      54
             nkpt           2
            nstep         100
             nsym          48
           ntypat           2
              occ      2.000000  2.000000  2.000000  2.000000  2.000000  2.000000
                       2.000000  2.000000  2.000000  2.000000  2.000000  2.000000
                       0.000000  0.000000  0.000000  0.000000  0.000000  0.000000
                       0.000000  0.000000  0.000000
        optdriver           1
            prtwf          -1
            rfdir           1       1       1
           rfelfd           2
            rprim      7.7417498854E+00  0.0000000000E+00  4.4697013803E+00
                       2.5805832951E+00  7.2989917896E+00  4.4697013803E+00
                       0.0000000000E+00  0.0000000000E+00  8.9394027606E+00
          spgroup         225
           strten      0.0000000000E+00  0.0000000000E+00  0.0000000000E+00
                       0.0000000000E+00  0.0000000000E+00  0.0000000000E+00
           symrel      1  0  0   0  1  0   0  0  1      -1  0  0   0 -1  0   0  0 -1
                       0 -1  1   0 -1  0   1 -1  0       0  1 -1   0  1  0  -1  1  0
                      -1  0  0  -1  0  1  -1  1  0       1  0  0   1  0 -1   1 -1  0
                       0  1 -1   1  0 -1   0  0 -1       0 -1  1  -1  0  1   0  0  1
                      -1  0  0  -1  1  0  -1  0  1       1  0  0   1 -1  0   1  0 -1
                       0 -1  1   1 -1  0   0 -1  0       0  1 -1  -1  1  0   0  1  0
                       1  0  0   0  0  1   0  1  0      -1  0  0   0  0 -1   0 -1  0
                       0  1 -1   0  0 -1   1  0 -1       0 -1  1   0  0  1  -1  0  1
                      -1  0  1  -1  1  0  -1  0  0       1  0 -1   1 -1  0   1  0  0
                       0 -1  0   1 -1  0   0 -1  1       0  1  0  -1  1  0   0  1 -1
                       1  0 -1   0  0 -1   0  1 -1      -1  0  1   0  0  1   0 -1  1
                       0  1  0   0  0  1   1  0  0       0 -1  0   0  0 -1  -1  0  0
                       1  0 -1   0  1 -1   0  0 -1      -1  0  1   0 -1  1   0  0  1
                       0 -1  0   0 -1  1   1 -1  0       0  1  0   0  1 -1  -1  1  0
                      -1  0  1  -1  0  0  -1  1  0       1  0 -1   1  0  0   1 -1  0
                       0  1  0   1  0  0   0  0  1       0 -1  0  -1  0  0   0  0 -1
                       0  0 -1   0  1 -1   1  0 -1       0  0  1   0 -1  1  -1  0  1
                       1 -1  0   0 -1  1   0 -1  0      -1  1  0   0  1 -1   0  1  0
                       0  0  1   1  0  0   0  1  0       0  0 -1  -1  0  0   0 -1  0
                      -1  1  0  -1  0  0  -1  0  1       1 -1  0   1  0  0   1  0 -1
                       0  0  1   0  1  0   1  0  0       0  0 -1   0 -1  0  -1  0  0
                       1 -1  0   0 -1  0   0 -1  1      -1  1  0   0  1  0   0  1 -1
                       0  0 -1   1  0 -1   0  1 -1       0  0  1  -1  0  1   0 -1  1
                      -1  1  0  -1  0  1  -1  0  0       1 -1  0   1  0 -1   1  0  0
           tolwfr      1.00000000E-20
            typat      1  1  2
           useylm           1
              wtk        0.50000    0.50000
           xangst      4.0967575939E+00  2.8968450756E+00  7.0957922990E+00
                       1.3655858646E+00  9.6561502519E-01  2.3652640997E+00
                       0.0000000000E+00  0.0000000000E+00  0.0000000000E+00
            xcart      7.7417498854E+00  5.4742438422E+00  1.3409104141E+01
                       2.5805832951E+00  1.8247479474E+00  4.4697013803E+00
                       0.0000000000E+00  0.0000000000E+00  0.0000000000E+00
             xred      7.5000000000E-01  7.5000000000E-01  7.5000000000E-01
                       2.5000000000E-01  2.5000000000E-01  2.5000000000E-01
                       0.0000000000E+00  0.0000000000E+00  0.0000000000E+00
            znucl       37.00000    8.00000

- Timing analysis has been suppressed with timopt=0

 Suggested references for the acknowledgment of ABINIT usage.

 Calculation completed.
.Delivered  14 WARNINGs and   9 COMMENTs to log file.