.Version 9.5.1 of ABINIT

 ABINIT is a project of the Universite Catholique de Louvain,
 Corning Inc. and other collaborators, see ~abinit/doc/developers/contributors.txt .
 acknowledgments of the ABINIT effort.

.Starting date : Tue  4 May 2021.
- ( at 19h14 )

- input  file    -> /scratch/users/j/a/jabreu/flow_simple_6atoms/flow/w161/t1/run.abi
- output file    -> /scratch/users/j/a/jabreu/flow_simple_6atoms/flow/w161/t1/run.abo
- root for input  files -> /scratch/users/j/a/jabreu/flow_simple_6atoms/flow/w161/t1/indata/in
- root for output files -> /scratch/users/j/a/jabreu/flow_simple_6atoms/flow/w161/t1/outdata/out

 Symmetries : space group P4_2/m n m (#136); Bravais tP (primitive tetrag.)
     intxc =       0      iscf =       7    lmnmax =      18     lnmax =       6
     mgfft =      54  mpssoang =       3    mqgrid =    3001     natom =       6
  nloc_mem =       1    nspden =       1   nspinor =       1    nsppol =       1
      nsym =      16    n1xccc =    2501    ntypat =       2    occopt =       1
   xclevel =       2
-    mband =          43        mffmem =           1         mkmem =           1
-   mkqmem =           1        mk1mem =           1           mpw =        6077
      nfft =      104976          nkpt =           1
  Rough estimation (10% accuracy) of disk space for files :

------------- Echo of variables that govern the present computation ------------
-
- outvars: echo of selected default values
-   iomode0 =  0 , fftalg0 =512 , wfoptalg0 =  0
-
- outvars: echo of global parameters not present in the input file
-  max_nthreads =    0
-
 -outvars: echo values of preprocessed input variables --------
            acell      1.0000000000E+00  1.0000000000E+00  1.0000000000E+00 Bohr
              amu      6.53900000E+01  1.89984032E+01
             ecut      4.20000000E+01 Hartree
-          fftalg         512
           irdden           1
           irdwfk           1
           istwfk        1
              ixc     -116133
           kptopt           0
P           mkmem           1
P          mkqmem           1
P          mk1mem           1
            natom           6
            nband          43
           nbdbuf           4
            ngfft          54      54      36
             nkpt           1
            nstep        1000
             nsym          16
           ntypat           2
              occ      2.000000  2.000000  2.000000  2.000000  2.000000  2.000000
                       2.000000  2.000000  2.000000  2.000000  2.000000  2.000000
                       2.000000  2.000000  2.000000  2.000000  2.000000  2.000000
                       2.000000  2.000000  2.000000  2.000000  2.000000  2.000000
                       2.000000  2.000000  2.000000  2.000000  2.000000  2.000000
                       2.000000  2.000000  2.000000  2.000000  0.000000  0.000000
                       0.000000  0.000000  0.000000  0.000000  0.000000  0.000000
                       0.000000
        optdriver           1
            prtwf          -1
            rfdir           1       1       1
           rfelfd           2
            rprim      8.8979407144E+00  0.0000000000E+00  0.0000000000E+00
                       0.0000000000E+00  8.8979407144E+00  0.0000000000E+00
                       0.0000000000E+00  0.0000000000E+00  5.9041803873E+00
          spgroup         136
           symrel      1  0  0   0  1  0   0  0  1      -1  0  0   0 -1  0   0  0 -1
                      -1  0  0   0  1  0   0  0 -1       1  0  0   0 -1  0   0  0  1
                      -1  0  0   0 -1  0   0  0  1       1  0  0   0  1  0   0  0 -1
                       1  0  0   0 -1  0   0  0 -1      -1  0  0   0  1  0   0  0  1
                       0  1  0   1  0  0   0  0  1       0 -1  0  -1  0  0   0  0 -1
                       0 -1  0   1  0  0   0  0 -1       0  1  0  -1  0  0   0  0  1
                       0 -1  0  -1  0  0   0  0  1       0  1  0   1  0  0   0  0 -1
                       0  1  0  -1  0  0   0  0 -1       0 -1  0   1  0  0   0  0  1
            tnons      0.0000000  0.0000000  0.0000000     0.0000000  0.0000000  0.0000000
                       0.5000000  0.5000000  0.5000000     0.5000000  0.5000000  0.5000000
                       0.0000000  0.0000000  0.0000000     0.0000000  0.0000000  0.0000000
                       0.5000000  0.5000000  0.5000000     0.5000000  0.5000000  0.5000000
                       0.0000000  0.0000000  0.0000000     0.0000000  0.0000000  0.0000000
                       0.5000000  0.5000000  0.5000000     0.5000000  0.5000000  0.5000000
                       0.0000000  0.0000000  0.0000000     0.0000000  0.0000000  0.0000000
                       0.5000000  0.5000000  0.5000000     0.5000000  0.5000000  0.5000000
           tolwfr      1.00000000E-20
            typat      1  1  2  2  2  2
           useylm           1
           xangst      2.3542937147E+00  2.3542937147E+00  1.5621788482E+00
                       0.0000000000E+00  0.0000000000E+00  0.0000000000E+00
                       3.2777560071E+00  3.2777560071E+00  0.0000000000E+00
                       3.7851251370E+00  9.2346229243E-01  1.5621788482E+00
                       1.4308314223E+00  1.4308314223E+00  0.0000000000E+00
                       9.2346229243E-01  3.7851251370E+00  1.5621788482E+00
            xcart      4.4489703572E+00  4.4489703572E+00  2.9520901937E+00
                       0.0000000000E+00  0.0000000000E+00  0.0000000000E+00
                       6.1940611839E+00  6.1940611839E+00  0.0000000000E+00
                       7.1528498877E+00  1.7450908267E+00  2.9520901937E+00
                       2.7038795305E+00  2.7038795305E+00  0.0000000000E+00
                       1.7450908267E+00  7.1528498877E+00  2.9520901937E+00
             xred      5.0000000000E-01  5.0000000000E-01  5.0000000000E-01
                       0.0000000000E+00  0.0000000000E+00  0.0000000000E+00
                       6.9612300000E-01  6.9612300000E-01  0.0000000000E+00
                       8.0387700000E-01  1.9612300000E-01  5.0000000000E-01
                       3.0387700000E-01  3.0387700000E-01  0.0000000000E+00
                       1.9612300000E-01  8.0387700000E-01  5.0000000000E-01
            znucl       30.00000    9.00000

 chkinp: Checking input parameters for consistency.

== DATASET  1 ==================================================================
-   mpi_nproc: 1, omp_nthreads: -1 (-1 if OMP is not activated)

--- !DatasetInfo
iteration_state: {dtset: 1, }
dimensions: {natom: 6, nkpt: 1, mband: 43, nsppol: 1, nspinor: 1, nspden: 1, mpw: 6077, }
cutoff_energies: {ecut:  42.0, pawecutdg:  -1.0, }
electrons: {nelect:   6.80000000E+01, charge:   0.00000000E+00, occopt:   1.00000000E+00, tsmear:   1.00000000E-02, }
meta: {optdriver: 1, rfelfd: 2, }
...

 Real(R)+Recip(G) space primitive vectors, cartesian coordinates (Bohr,Bohr^-1):
 R(1)=  8.8979407  0.0000000  0.0000000  G(1)=  0.1123856  0.0000000  0.0000000
 R(2)=  0.0000000  8.8979407  0.0000000  G(2)=  0.0000000  0.1123856  0.0000000
 R(3)=  0.0000000  0.0000000  5.9041804  G(3)=  0.0000000  0.0000000  0.1693715
 Unit cell volume ucvol=  4.6745373E+02 bohr^3
 Angles (23,13,12)=  9.00000000E+01  9.00000000E+01  9.00000000E+01 degrees

 getcut: wavevector=  0.0000  0.0000  0.0000  ngfft=  54  54  36
         ecut(hartree)=     42.000   => boxcut(ratio)=   2.08024

--- Pseudopotential description ------------------------------------------------
- pspini: atom type   1  psp file is /scratch/users/j/a/jabreu/pseudos/PBEsol/Zn.psp8
- pspatm: opening atomic psp file    /scratch/users/j/a/jabreu/pseudos/PBEsol/Zn.psp8
- Zn    ONCVPSP-3.3.0  r_core=   1.35823   1.66358   1.85211
- 30.00000  20.00000    180112                znucl, zion, pspdat
    8 -116133    2    4       600   0.00000   pspcod,pspxc,lmax,lloc,mmax,r2well
    5.99000000000000    2.50000000000000    0.00000000000000   rchrg,fchrg,qchrg
     nproj     2     2     2
     extension_switch     1
  pspatm : epsatm=   26.57343589
         --- l  ekb(1:nproj) -->
             0    2.830835   -1.519107
             1   -4.626739   -1.324150
             2   -6.948510   -2.555500
 pspatm: atomic psp has been read  and splines computed

- pspini: atom type   2  psp file is /scratch/users/j/a/jabreu/pseudos/PBEsol/F.psp8
- pspatm: opening atomic psp file    /scratch/users/j/a/jabreu/pseudos/PBEsol/F.psp8
- F     ONCVPSP-3.3.0  r_core=   1.30942   1.45782   1.60379
-  9.00000   7.00000    180112                znucl, zion, pspdat
    8 -116133    2    4       600   0.00000   pspcod,pspxc,lmax,lloc,mmax,r2well
    5.99000000000000    2.50000000000000    0.00000000000000   rchrg,fchrg,qchrg
     nproj     2     2     1
     extension_switch     1
  pspatm : epsatm=    4.89824824
         --- l  ekb(1:nproj) -->
             0    6.506434    1.065875
             1   -3.978753   -1.295852
             2   -2.394754
 pspatm: atomic psp has been read  and splines computed

   4.94631080E+03                                ecore*ucvol(ha*bohr**3)

-inwffil : will read wavefunctions from disk file /scratch/users/j/a/jabreu/flow_simple_6atoms/flow/w161/t1/indata/in_WFK

 ==>  initialize data related to q vector <==

 The list of irreducible perturbations for this q vector is:
    1)    idir= 1    ipert=   7
    2)    idir= 2    ipert=   7
    3)    idir= 3    ipert=   7

 Perturbation wavevector (in red.coord.)   0.000000  0.000000  0.000000
 Perturbation : derivative vs k along direction   1

 dfpt_looppert : COMMENT -
  In a d/dk calculation, iscf is set to -3 automatically.
 The set of symmetries contains only one element for this perturbation.
 symkpt : not enough symmetry to change the number of k points.

[...]

 Initialisation of the first-order wave-functions :
  ireadwf=   0

--- !BeginCycle
iteration_state: {dtset: 1, }
solver: {iscf: 7, nstep: 1000, nline: 4, wfoptalg: 0, }
tolerances: {tolwfr: 1.00E-20, }
...

     iter   2DEtotal(Ha)        deltaE(Ha) residm    vres2
-ETOT  1  -41.109722810160     -4.111E+01 2.551E-02 0.000E+00
 ETOT  2  -41.138547252709     -2.882E-02 8.438E-05 0.000E+00
 ETOT  3  -41.138608427692     -6.117E-05 2.298E-07 0.000E+00
 ETOT  4  -41.138608744620     -3.169E-07 2.749E-09 0.000E+00
 ETOT  5  -41.138608746799     -2.179E-09 1.576E-11 0.000E+00
 ETOT  6  -41.138608746816     -1.700E-11 2.094E-13 0.000E+00
 ETOT  7  -41.138608746816     -1.279E-13 1.272E-15 0.000E+00
 ETOT  8  -41.138608746816     -5.684E-14 4.863E-17 0.000E+00
 ETOT  9  -41.138608746816      4.263E-14 2.772E-19 0.000E+00
 ETOT 10  -41.138608746816      1.421E-14 8.934E-20 0.000E+00
 ETOT 11  -41.138608746816     -1.421E-14 9.869E-21 0.000E+00

 At SCF step   11   max residual=  9.87E-21 < tolwfr=  1.00E-20 =>converged.

 ----iterations are completed or convergence reached----

 dfpt_looppert: DFPT cycle converged with prtwf=-1. Will skip output of the 1st-order WFK file.
 dfpt_looppert : ek2=    6.7814041782E+01
          f-sum rule ratio=    1.0494243991E+00
 prteigrs : about to open file /scratch/users/j/a/jabreu/flow_simple_6atoms/flow/w161/t1/tmpdata/tmp_1WF1_EIG
 Expectation of eigenvalue derivatives (hartree) for nkpt=   1  k points:
  (in case of degenerate eigenvalues, averaged derivative)
 kpt#   1, nband= 43, wtk=  1.00000, kpt=  0.0000  0.0000  0.0000 (reduced coord)
   0.00000    0.00000   -0.00000   -0.00000   -0.00000   -0.00000    0.00000    0.00000
   0.00000   -0.00000   -0.00000    0.00000   -0.00000   -0.00000    0.00000    0.00000
   0.00000   -0.00000   -0.00000   -0.00000    0.00000   -0.00000    0.00000    0.00000
  -0.00000   -0.00000   -0.00000    0.00000    0.00000    0.00000   -0.00000    0.00000
   0.00000    0.00000   -0.00000   -0.00000    0.00000    0.00000    0.00000   -0.00000
   0.00000    0.00000    0.00003

 Eight components of 2nd-order total energy (hartree) are
 1,2,3: 0th-order hamiltonian combined with 1st-order wavefunctions
     kin0=   5.68663108E+01 eigvalue=   1.36425164E+00  local=  -2.02177476E+01
 4,5,6: 1st-order hamiltonian combined with 1st and 0th-order wfs
     kin1=  -7.11657100E+01  Hartree=   0.00000000E+00     xc=   0.00000000E+00
 7,8,9: eventually, occupation + non-local contributions
    edocc=   4.87544011E+00     enl0=  -1.74964625E+00   enl1=  -1.11115074E+01
 1-9 gives the relaxation energy (to be shifted if some occ is /=2.0)
   erelax=  -4.11386087E+01
  No Ewald or frozen-wf contrib.: the relaxation energy is the total one
 2DEtotal=   -0.4113860875E+02 Ha. Also 2DEtotal=   -0.111943847408E+04 eV
    (  non-var. 2DEtotal :   -4.1138608747E+01 Ha)

 Perturbation wavevector (in red.coord.)   0.000000  0.000000  0.000000
 Perturbation : derivative vs k along direction   2
 The set of symmetries contains only one element for this perturbation.
 symkpt : not enough symmetry to change the number of k points.

[...]

 Perturbation wavevector (in red.coord.)   0.000000  0.000000  0.000000
 Perturbation : derivative vs k along direction   3
 The set of symmetries contains only one element for this perturbation.
 symkpt : not enough symmetry to change the number of k points.

-inwffil : will read wavefunctions from disk file /scratch/users/j/a/jabreu/flow_simple_6atoms/flow/w161/t1/indata/in_WFK

 Initialisation of the first-order wave-functions :
  ireadwf=   0

--- !BeginCycle
iteration_state: {dtset: 1, }
solver: {iscf: 7, nstep: 1000, nline: 4, wfoptalg: 0, }
tolerances: {tolwfr: 1.00E-20, }
...

     iter   2DEtotal(Ha)        deltaE(Ha) residm    vres2
-ETOT  1  -98.545545057626     -9.855E+01 8.522E-02 0.000E+00
 ETOT  2  -98.597663775664     -5.212E-02 1.899E-04 0.000E+00
 ETOT  3  -98.597747510621     -8.373E-05 5.509E-07 0.000E+00
 ETOT  4  -98.597747839146     -3.285E-07 5.067E-09 0.000E+00
 ETOT  5  -98.597747840870     -1.724E-09 1.125E-11 0.000E+00
 ETOT  6  -98.597747840880     -9.919E-12 1.645E-13 0.000E+00
 ETOT  7  -98.597747840880     -8.527E-14 4.633E-16 0.000E+00
 ETOT  8  -98.597747840880      5.684E-14 6.538E-18 0.000E+00
 ETOT  9  -98.597747840880     -1.421E-14 2.142E-20 0.000E+00
 ETOT 10  -98.597747840880      0.000E+00 8.493E-21 0.000E+00

 At SCF step   10   max residual=  8.49E-21 < tolwfr=  1.00E-20 =>converged.

 ----iterations are completed or convergence reached----

 dfpt_looppert: DFPT cycle converged with prtwf=-1. Will skip output of the 1st-order WFK file.
 dfpt_looppert : ek2=    1.5402081230E+02
          f-sum rule ratio=    1.1350556462E+00
 prteigrs : about to open file /scratch/users/j/a/jabreu/flow_simple_6atoms/flow/w161/t1/tmpdata/tmp_1WF1_EIG
 Expectation of eigenvalue derivatives (hartree) for nkpt=   1  k points:
  (in case of degenerate eigenvalues, averaged derivative)
 kpt#   1, nband= 43, wtk=  1.00000, kpt=  0.0000  0.0000  0.0000 (reduced coord)
   0.00000   -0.00000    0.00000    0.00000   -0.00000    0.00000   -0.00000   -0.00000
   0.00000    0.00000    0.00000   -0.00000    0.00000    0.00000   -0.00000   -0.00000
   0.00000   -0.00000   -0.00000   -0.00000   -0.00000   -0.00000   -0.00000   -0.00000
   0.00000    0.00000    0.00000    0.00000    0.00000    0.00000   -0.00000    0.00000
   0.00000   -0.00000    0.00000   -0.00000   -0.00000   -0.00000    0.00000    0.00000
   0.00000   -0.00000   -0.00002

 Eight components of 2nd-order total energy (hartree) are
 1,2,3: 0th-order hamiltonian combined with 1st-order wavefunctions
     kin0=   1.30372634E+02 eigvalue=   3.22264001E+00  local=  -4.63124475E+01
 4,5,6: 1st-order hamiltonian combined with 1st and 0th-order wfs
     kin1=  -1.74822193E+02  Hartree=   0.00000000E+00     xc=   0.00000000E+00
 7,8,9: eventually, occupation + non-local contributions
    edocc=   1.62265010E+01     enl0=  -4.91157920E+00   enl1=  -2.23733030E+01
 1-9 gives the relaxation energy (to be shifted if some occ is /=2.0)
   erelax=  -9.85977478E+01
  No Ewald or frozen-wf contrib.: the relaxation energy is the total one
 2DEtotal=   -0.9859774784E+02 Ha. Also 2DEtotal=   -0.268298116423E+04 eV
    (  non-var. 2DEtotal :   -9.8597747841E+01 Ha)

 CALCULATION OF EFFECTIVE MASSES
 NOTE : Additional infos (eff. mass eigenvalues, eigenvectors and, if degenerate, average mass) are available in stdout.

 K-point ( 0.000, 0.000, 0.000) | band =    34
 Effective mass tensor:
             -4.1613775774              0.0000492887             -0.0002741340
              0.0000492887             -4.1614580308              0.0000805278
             -0.0002741340              0.0000805278             -2.0467536378
 Effective mass tensor eigenvalues:
             -4.1614814417             -4.1613542051             -2.0467535992
 Angular average effective mass 1/(<1/m>)=  -3.0953873782
 Angular average effective mass for Frohlich model (<m**0.5>)**2=  -3.2116659919
 Effective masses along directions: (cart. coord. / red. coord. -> eff. mass)
    1:   1.000000  0.000000  0.000000 /   1.000000  0.000000  0.000000 ->  -4.1613775401
    2:   0.000000  1.000000  0.000000 /   0.000000  1.000000  0.000000 ->  -4.1614580270
    3:   0.000000  0.000000  1.000000 /   0.000000  0.000000  1.000000 ->  -2.0467536182
    4:   0.577350  0.577350  0.577350 /   0.640146  0.640146  0.424766 ->  -3.0955144060
    5:   0.000000  0.707107  0.707107 /   0.000000  0.833249  0.552898 ->  -2.7438685443
    6:   0.707107  0.000000  0.707107 /   0.833249  0.000000  0.552898 ->  -2.7441645757
    7:   0.707107  0.707107  0.000000 /   0.707107  0.707107  0.000000 ->  -4.1613685058

 K-point ( 0.000, 0.000, 0.000) | band =    35
 Effective mass tensor:
              0.4447856201             -0.0000000273              0.0000012006
             -0.0000000273              0.4447855765             -0.0000003581
              0.0000012006             -0.0000003581              0.4049879455
 Effective mass tensor eigenvalues:
              0.4049879454              0.4447855633              0.4447856333
 Angular average effective mass 1/(<1/m>)=   0.4306781978
 Angular average effective mass for Frohlich model (<m**0.5>)**2=   0.4309345801
 Effective masses along directions: (cart. coord. / red. coord. -> eff. mass)
    1:   1.000000  0.000000  0.000000 /   1.000000  0.000000  0.000000 ->   0.4447856201
    2:   0.000000  1.000000  0.000000 /   0.000000  1.000000  0.000000 ->   0.4447855765
    3:   0.000000  0.000000  1.000000 /   0.000000  0.000000  1.000000 ->   0.4049879455
    4:   0.577350  0.577350  0.577350 /   0.640146  0.640146  0.424766 ->   0.4306787591
    5:   0.000000  0.707107  0.707107 /   0.000000  0.833249  0.552898 ->   0.4239544781
    6:   0.707107  0.000000  0.707107 /   0.833249  0.000000  0.552898 ->   0.4239560531
    7:   0.707107  0.707107  0.000000 /   0.707107  0.707107  0.000000 ->   0.4447855710

 END OF EFFECTIVE MASSES SECTION

 ---- first-order wavefunction calculations are completed ----

 Total localisation tensor (bohr^2) in cartesian coordinates
  WARNING : still subject to testing - especially symmetries.
      direction              matrix element
   alpha     beta       real part   imaginary part
     1        1       0.4129321489    0.0000000000
     1        2       0.0000000000    0.0000000000
     1        3       0.0000000000    0.0000000000
     2        1       0.0000000000    0.0000000000
     2        2       0.4129319299    0.0000000000
     2        3       0.0000000000    0.0000000000
     3        1       0.0000000000    0.0000000000
     3        2       0.0000000000    0.0000000000
     3        3       0.5048997223    0.0000000000

 respfn : d/dk was computed, but no 2DTE, so no DDB output.

== END DATASET(S) ==============================================================

 -outvars: echo values of variables after computation  --------
            acell      1.0000000000E+00  1.0000000000E+00  1.0000000000E+00 Bohr
              amu      6.53900000E+01  1.89984032E+01
             ecut      4.20000000E+01 Hartree
           etotal     -9.8597747841E+01
            fcart      0.0000000000E+00  0.0000000000E+00  0.0000000000E+00
                       0.0000000000E+00  0.0000000000E+00  0.0000000000E+00
                       0.0000000000E+00  0.0000000000E+00  0.0000000000E+00
                       0.0000000000E+00  0.0000000000E+00  0.0000000000E+00
                       0.0000000000E+00  0.0000000000E+00  0.0000000000E+00
                       0.0000000000E+00  0.0000000000E+00  0.0000000000E+00
-          fftalg         512
           irdden           1
           irdwfk           1
           istwfk        1
              ixc     -116133
           kptopt           0
P           mkmem           1
P          mkqmem           1
P          mk1mem           1
            natom           6
            nband          43
           nbdbuf           4
            ngfft          54      54      36
             nkpt           1
            nstep        1000
             nsym          16
           ntypat           2
              occ      2.000000  2.000000  2.000000  2.000000  2.000000  2.000000
                       2.000000  2.000000  2.000000  2.000000  2.000000  2.000000
                       2.000000  2.000000  2.000000  2.000000  2.000000  2.000000
                       2.000000  2.000000  2.000000  2.000000  2.000000  2.000000
                       2.000000  2.000000  2.000000  2.000000  2.000000  2.000000
                       2.000000  2.000000  2.000000  2.000000  0.000000  0.000000
                       0.000000  0.000000  0.000000  0.000000  0.000000  0.000000
                       0.000000
        optdriver           1
            prtwf          -1
            rfdir           1       1       1
           rfelfd           2
            rprim      8.8979407144E+00  0.0000000000E+00  0.0000000000E+00
                       0.0000000000E+00  8.8979407144E+00  0.0000000000E+00
                       0.0000000000E+00  0.0000000000E+00  5.9041803873E+00
          spgroup         136
           strten      0.0000000000E+00  0.0000000000E+00  0.0000000000E+00
                       0.0000000000E+00  0.0000000000E+00  0.0000000000E+00
           symrel      1  0  0   0  1  0   0  0  1      -1  0  0   0 -1  0   0  0 -1
                      -1  0  0   0  1  0   0  0 -1       1  0  0   0 -1  0   0  0  1
                      -1  0  0   0 -1  0   0  0  1       1  0  0   0  1  0   0  0 -1
                       1  0  0   0 -1  0   0  0 -1      -1  0  0   0  1  0   0  0  1
                       0  1  0   1  0  0   0  0  1       0 -1  0  -1  0  0   0  0 -1
                       0 -1  0   1  0  0   0  0 -1       0  1  0  -1  0  0   0  0  1
                       0 -1  0  -1  0  0   0  0  1       0  1  0   1  0  0   0  0 -1
                       0  1  0  -1  0  0   0  0 -1       0 -1  0   1  0  0   0  0  1
            tnons      0.0000000  0.0000000  0.0000000     0.0000000  0.0000000  0.0000000
                       0.5000000  0.5000000  0.5000000     0.5000000  0.5000000  0.5000000
                       0.0000000  0.0000000  0.0000000     0.0000000  0.0000000  0.0000000
                       0.5000000  0.5000000  0.5000000     0.5000000  0.5000000  0.5000000
                       0.0000000  0.0000000  0.0000000     0.0000000  0.0000000  0.0000000
                       0.5000000  0.5000000  0.5000000     0.5000000  0.5000000  0.5000000
                       0.0000000  0.0000000  0.0000000     0.0000000  0.0000000  0.0000000
                       0.5000000  0.5000000  0.5000000     0.5000000  0.5000000  0.5000000
           tolwfr      1.00000000E-20
            typat      1  1  2  2  2  2
           useylm           1
           xangst      2.3542937147E+00  2.3542937147E+00  1.5621788482E+00
                       0.0000000000E+00  0.0000000000E+00  0.0000000000E+00
                       3.2777560071E+00  3.2777560071E+00  0.0000000000E+00
                       3.7851251370E+00  9.2346229243E-01  1.5621788482E+00
                       1.4308314223E+00  1.4308314223E+00  0.0000000000E+00
                       9.2346229243E-01  3.7851251370E+00  1.5621788482E+00
            xcart      4.4489703572E+00  4.4489703572E+00  2.9520901937E+00
                       0.0000000000E+00  0.0000000000E+00  0.0000000000E+00
                       6.1940611839E+00  6.1940611839E+00  0.0000000000E+00
                       7.1528498877E+00  1.7450908267E+00  2.9520901937E+00
                       2.7038795305E+00  2.7038795305E+00  0.0000000000E+00
                       1.7450908267E+00  7.1528498877E+00  2.9520901937E+00
             xred      5.0000000000E-01  5.0000000000E-01  5.0000000000E-01
                       0.0000000000E+00  0.0000000000E+00  0.0000000000E+00
                       6.9612300000E-01  6.9612300000E-01  0.0000000000E+00
                       8.0387700000E-01  1.9612300000E-01  5.0000000000E-01
                       3.0387700000E-01  3.0387700000E-01  0.0000000000E+00
                       1.9612300000E-01  8.0387700000E-01  5.0000000000E-01
            znucl       30.00000    9.00000

- Timing analysis has been suppressed with timopt=0

 Suggested references for the acknowledgment of ABINIT usage.

 Calculation completed.
.Delivered   6 WARNINGs and   5 COMMENTs to log file.