.Version 9.5.1 of ABINIT

 ABINIT is a project of the Universite Catholique de Louvain,
 Corning Inc. and other collaborators, see ~abinit/doc/developers/contributors.txt .
 acknowledgments of the ABINIT effort.

.Starting date : Tue 27 Apr 2021.
- ( at 18h39 )

- input  file    -> /scratch/users/j/a/jabreu/flow_simple_4atoms/flow/w224/t1/run.abi
- output file    -> /scratch/users/j/a/jabreu/flow_simple_4atoms/flow/w224/t1/run.abo
- root for input  files -> /scratch/users/j/a/jabreu/flow_simple_4atoms/flow/w224/t1/indata/in
- root for output files -> /scratch/users/j/a/jabreu/flow_simple_4atoms/flow/w224/t1/outdata/out

 Symmetries : space group P-4 m 2 (#115); Bravais tP (primitive tetrag.)
     intxc =       0      iscf =       7    lmnmax =      18     lnmax =       6
     mgfft =      50  mpssoang =       3    mqgrid =    3001     natom =       4
  nloc_mem =       1    nspden =       1   nspinor =       1    nsppol =       1
      nsym =       8    n1xccc =    2501    ntypat =       3    occopt =       1
   xclevel =       2
-    mband =          22        mffmem =           1         mkmem =           1
-   mkqmem =           1        mk1mem =           1           mpw =        3857
      nfft =       64800          nkpt =           1
  Rough estimation (10% accuracy) of disk space for files :

------------- Echo of variables that govern the present computation ------------
-
- outvars: echo of selected default values
-   iomode0 =  0 , fftalg0 =512 , wfoptalg0 =  0
-
- outvars: echo of global parameters not present in the input file
-  max_nthreads =    0
-
 -outvars: echo values of preprocessed input variables --------
            acell      1.0000000000E+00  1.0000000000E+00  1.0000000000E+00 Bohr
              amu      2.69815390E+01  6.97230000E+01  1.40067400E+01
             ecut      4.20000000E+01 Hartree
-          fftalg         512
           irdden           1
           irdwfk           1
           istwfk        1
              ixc     -116133
           kptopt           0
P           mkmem           1
P          mkqmem           1
P          mk1mem           1
            natom           4
            nband          22
           nbdbuf           4
            ngfft          36      36      50
             nkpt           1
            nstep         100
             nsym           8
           ntypat           3
              occ      2.000000  2.000000  2.000000  2.000000  2.000000  2.000000
                       2.000000  2.000000  2.000000  2.000000  2.000000  2.000000
                       2.000000  0.000000  0.000000  0.000000  0.000000  0.000000
                       0.000000  0.000000  0.000000  0.000000
        optdriver           1
            prtwf          -1
            rfdir           1       1       1
           rfelfd           2
            rprim      5.9383880017E+00  0.0000000000E+00  0.0000000000E+00
                       0.0000000000E+00  5.9383880017E+00  0.0000000000E+00
                       0.0000000000E+00  0.0000000000E+00  8.3622232379E+00
          spgroup         115
           symrel      1  0  0   0  1  0   0  0  1       1  0  0   0 -1  0   0  0  1
                      -1  0  0   0 -1  0   0  0  1      -1  0  0   0  1  0   0  0  1
                       0 -1  0  -1  0  0   0  0 -1       0 -1  0   1  0  0   0  0 -1
                       0  1  0   1  0  0   0  0 -1       0  1  0  -1  0  0   0  0 -1
           tolwfr      1.00000000E-20
            typat      1  2  3  3
           useylm           1
           xangst      1.5712297931E+00  1.5712297931E+00  2.2125489753E+00
                       0.0000000000E+00  0.0000000000E+00  0.0000000000E+00
                       0.0000000000E+00  1.5712297931E+00  1.1522645307E+00
                       1.5712297931E+00  0.0000000000E+00  3.2728334200E+00
            xcart      2.9691940008E+00  2.9691940008E+00  4.1811116190E+00
                       0.0000000000E+00  0.0000000000E+00  0.0000000000E+00
                       0.0000000000E+00  2.9691940008E+00  2.1774643956E+00
                       2.9691940008E+00  0.0000000000E+00  6.1847588423E+00
             xred      5.0000000000E-01  5.0000000000E-01  5.0000000000E-01
                       0.0000000000E+00  0.0000000000E+00  0.0000000000E+00
                       0.0000000000E+00  5.0000000000E-01  2.6039300000E-01
                       5.0000000000E-01  0.0000000000E+00  7.3960700000E-01
            znucl       13.00000   31.00000    7.00000

 chkinp: Checking input parameters for consistency.

== DATASET  1 ==================================================================
-   mpi_nproc: 1, omp_nthreads: -1 (-1 if OMP is not activated)

--- !DatasetInfo
iteration_state: {dtset: 1, }
dimensions: {natom: 4, nkpt: 1, mband: 22, nsppol: 1, nspinor: 1, nspden: 1, mpw: 3857, }
cutoff_energies: {ecut:  42.0, pawecutdg:  -1.0, }
electrons: {nelect:   2.60000000E+01, charge:   0.00000000E+00, occopt:   1.00000000E+00, tsmear:   1.00000000E-02, }
meta: {optdriver: 1, rfelfd: 2, }
...

 Real(R)+Recip(G) space primitive vectors, cartesian coordinates (Bohr,Bohr^-1):
 R(1)=  5.9383880  0.0000000  0.0000000  G(1)=  0.1683959  0.0000000  0.0000000
 R(2)=  0.0000000  5.9383880  0.0000000  G(2)=  0.0000000  0.1683959  0.0000000
 R(3)=  0.0000000  0.0000000  8.3622232  G(3)=  0.0000000  0.0000000  0.1195854
 Unit cell volume ucvol=  2.9488922E+02 bohr^3
 Angles (23,13,12)=  9.00000000E+01  9.00000000E+01  9.00000000E+01 degrees

 getcut: wavevector=  0.0000  0.0000  0.0000  ngfft=  36  36  50
         ecut(hartree)=     42.000   => boxcut(ratio)=   2.04955

--- Pseudopotential description ------------------------------------------------
- pspini: atom type   1  psp file is /scratch/users/j/a/jabreu/pseudos/PBEsol/Al.psp8
- pspatm: opening atomic psp file    /scratch/users/j/a/jabreu/pseudos/PBEsol/Al.psp8
- Al    ONCVPSP-3.3.0  r_core=   1.76802   1.76802   1.70587
- 13.00000   3.00000    180112                znucl, zion, pspdat
    8 -116133    2    4       600   0.00000   pspcod,pspxc,lmax,lloc,mmax,r2well
    5.99000000000000    5.00000000000000    0.00000000000000   rchrg,fchrg,qchrg
     nproj     2     2     2
     extension_switch     1
  pspatm : epsatm=    0.68509324
         --- l  ekb(1:nproj) -->
             0    5.834965    0.726662
             1    6.225605    0.924840
             2   -2.432733   -0.548689
 pspatm: atomic psp has been read  and splines computed

- pspini: atom type   2  psp file is /scratch/users/j/a/jabreu/pseudos/PBEsol/Ga.psp8
- pspatm: opening atomic psp file    /scratch/users/j/a/jabreu/pseudos/PBEsol/Ga.psp8
- Ga    ONCVPSP-3.3.0  r_core=   1.66857   1.75011   1.90252
- 31.00000  13.00000    180112                znucl, zion, pspdat
    8 -116133    2    4       600   0.00000   pspcod,pspxc,lmax,lloc,mmax,r2well
    5.99000000000000    5.00000000000000    0.00000000000000   rchrg,fchrg,qchrg
     nproj     2     2     2
     extension_switch     1
  pspatm : epsatm=   24.50969055
         --- l  ekb(1:nproj) -->
             0    7.053021    1.156713
             1    6.846070    1.293139
             2   -8.368667   -2.819170
 pspatm: atomic psp has been read  and splines computed

- pspini: atom type   3  psp file is /scratch/users/j/a/jabreu/pseudos/PBEsol/N.psp8
- pspatm: opening atomic psp file    /scratch/users/j/a/jabreu/pseudos/PBEsol/N.psp8
- N     ONCVPSP-3.3.0  r_core=   1.20551   1.35824
-  7.00000   5.00000    180112                znucl, zion, pspdat
    8 -116133    1    4       600   0.00000   pspcod,pspxc,lmax,lloc,mmax,r2well
    5.99000000000000    4.00000000000000    0.00000000000000   rchrg,fchrg,qchrg
     nproj     2     2
     extension_switch     1
  pspatm : epsatm=    5.26508895
         --- l  ekb(1:nproj) -->
             0    7.464189    0.625868
             1   -4.309714   -1.012941
 pspatm: atomic psp has been read  and splines computed

   9.28849004E+02                                ecore*ucvol(ha*bohr**3)

-inwffil : will read wavefunctions from disk file /scratch/users/j/a/jabreu/flow_simple_4atoms/flow/w224/t1/indata/in_WFK

 ==>  initialize data related to q vector <==

 The list of irreducible perturbations for this q vector is:
    1)    idir= 1    ipert=   5
    2)    idir= 2    ipert=   5
    3)    idir= 3    ipert=   5

 Perturbation wavevector (in red.coord.)   0.000000  0.000000  0.000000
 Perturbation : derivative vs k along direction   1

 dfpt_looppert : COMMENT -
  In a d/dk calculation, iscf is set to -3 automatically.
 The set of symmetries contains only one element for this perturbation.
 symkpt : not enough symmetry to change the number of k points.

[...]

 Initialisation of the first-order wave-functions :
  ireadwf=   0

--- !BeginCycle
iteration_state: {dtset: 1, }
solver: {iscf: 7, nstep: 100, nline: 4, wfoptalg: 0, }
tolerances: {tolwfr: 1.00E-20, }
...

     iter   2DEtotal(Ha)        deltaE(Ha) residm    vres2
-ETOT  1  -67.807339547239     -6.781E+01 1.177E-01 0.000E+00
 ETOT  2  -67.832555978341     -2.522E-02 9.623E-04 0.000E+00
 ETOT  3  -67.832580151528     -2.417E-05 4.084E-06 0.000E+00
 ETOT  4  -67.832580199146     -4.762E-08 3.633E-08 0.000E+00
 ETOT  5  -67.832580199258     -1.118E-10 2.796E-10 0.000E+00
 ETOT  6  -67.832580199258     -2.416E-13 2.943E-12 0.000E+00
 ETOT  7  -67.832580199258      4.263E-14 2.389E-14 0.000E+00
 ETOT  8  -67.832580199258     -5.684E-14 2.946E-16 0.000E+00
 ETOT  9  -67.832580199258     -4.263E-14 2.306E-18 0.000E+00
 ETOT 10  -67.832580199258      0.000E+00 3.357E-20 0.000E+00
 ETOT 11  -67.832580199258      1.421E-14 7.995E-21 0.000E+00

 At SCF step   11   max residual=  8.00E-21 < tolwfr=  1.00E-20 =>converged.

 ----iterations are completed or convergence reached----

 dfpt_looppert: DFPT cycle converged with prtwf=-1. Will skip output of the 1st-order WFK file.
 dfpt_looppert : ek2=    5.8213798757E+01
          f-sum rule ratio=    1.6560577573E+00
 prteigrs : about to open file /scratch/users/j/a/jabreu/flow_simple_4atoms/flow/w224/t1/tmpdata/tmp_1WF1_EIG
 Expectation of eigenvalue derivatives (hartree) for nkpt=   1  k points:
  (in case of degenerate eigenvalues, averaged derivative)
 kpt#   1, nband= 22, wtk=  1.00000, kpt=  0.0000  0.0000  0.0000 (reduced coord)
  -0.00000   -0.00000   -0.00000   -0.00000    0.00000   -0.00000   -0.00000   -0.00000
  -0.00000   -0.00000    0.00000    0.00000    0.00000   -0.00000    0.00000    0.00000
  -0.00000   -0.00000    0.00000    0.00000   -0.00000   -0.00000

 Eight components of 2nd-order total energy (hartree) are
 1,2,3: 0th-order hamiltonian combined with 1st-order wavefunctions
     kin0=   5.39490496E+01 eigvalue=   7.15019937E-01  local=  -1.73848290E+01
 4,5,6: 1st-order hamiltonian combined with 1st and 0th-order wfs
     kin1=  -9.64054130E+01  Hartree=   0.00000000E+00     xc=   0.00000000E+00
 7,8,9: eventually, occupation + non-local contributions
    edocc=   2.68610520E+01     enl0=   3.69228767E+00   enl1=  -3.92597474E+01
 1-9 gives the relaxation energy (to be shifted if some occ is /=2.0)
   erelax=  -6.78325802E+01
  No Ewald or frozen-wf contrib.: the relaxation energy is the total one
 2DEtotal=   -0.6783258020E+02 Ha. Also 2DEtotal=   -0.184581837802E+04 eV
    (  non-var. 2DEtotal :   -6.7832580199E+01 Ha)

 Perturbation wavevector (in red.coord.)   0.000000  0.000000  0.000000
 Perturbation : derivative vs k along direction   2
 The set of symmetries contains only one element for this perturbation.
 symkpt : not enough symmetry to change the number of k points.

[...]

 Perturbation wavevector (in red.coord.)   0.000000  0.000000  0.000000
 Perturbation : derivative vs k along direction   3
 The set of symmetries contains only one element for this perturbation.
 symkpt : not enough symmetry to change the number of k points.

-inwffil : will read wavefunctions from disk file /scratch/users/j/a/jabreu/flow_simple_4atoms/flow/w224/t1/indata/in_WFK

 Initialisation of the first-order wave-functions :
  ireadwf=   0

--- !BeginCycle
iteration_state: {dtset: 1, }
solver: {iscf: 7, nstep: 100, nline: 4, wfoptalg: 0, }
tolerances: {tolwfr: 1.00E-20, }
...

     iter   2DEtotal(Ha)        deltaE(Ha) residm    vres2
-ETOT  1  -29.762188516998     -2.976E+01 1.466E-02 0.000E+00
 ETOT  2  -29.773602103503     -1.141E-02 2.324E-05 0.000E+00
 ETOT  3  -29.773609153441     -7.050E-06 2.733E-08 0.000E+00
 ETOT  4  -29.773609163369     -9.928E-09 1.021E-10 0.000E+00
 ETOT  5  -29.773609163388     -1.881E-11 3.473E-13 0.000E+00
 ETOT  6  -29.773609163388      0.000E+00 1.979E-15 0.000E+00
 ETOT  7  -29.773609163388     -2.132E-14 6.481E-18 0.000E+00
 ETOT  8  -29.773609163388     -1.421E-14 3.957E-20 0.000E+00
 ETOT  9  -29.773609163388      0.000E+00 9.890E-21 0.000E+00

 At SCF step    9   max residual=  9.89E-21 < tolwfr=  1.00E-20 =>converged.

 ----iterations are completed or convergence reached----

 dfpt_looppert: DFPT cycle converged with prtwf=-1. Will skip output of the 1st-order WFK file.
 dfpt_looppert : ek2=    2.9357533543E+01
          f-sum rule ratio=    1.3171416716E+00
 prteigrs : about to open file /scratch/users/j/a/jabreu/flow_simple_4atoms/flow/w224/t1/tmpdata/tmp_1WF1_EIG
 Expectation of eigenvalue derivatives (hartree) for nkpt=   1  k points:
  (in case of degenerate eigenvalues, averaged derivative)
 kpt#   1, nband= 22, wtk=  1.00000, kpt=  0.0000  0.0000  0.0000 (reduced coord)
   0.00000    0.00000   -0.00000   -0.00000   -0.00000    0.00000    0.00000    0.00000
   0.00000    0.00000    0.00000   -0.00000   -0.00000    0.00000   -0.00000    0.00000
  -0.00000   -0.00000    0.00000    0.00000   -0.00000   -0.00000

 Eight components of 2nd-order total energy (hartree) are
 1,2,3: 0th-order hamiltonian combined with 1st-order wavefunctions
     kin0=   2.72203348E+01 eigvalue=   3.71709863E-01  local=  -8.77763068E+00
 4,5,6: 1st-order hamiltonian combined with 1st and 0th-order wfs
     kin1=  -3.86680308E+01  Hartree=   0.00000000E+00     xc=   0.00000000E+00
 7,8,9: eventually, occupation + non-local contributions
    edocc=   9.15987013E+00     enl0=   1.79932504E+00   enl1=  -2.08791875E+01
 1-9 gives the relaxation energy (to be shifted if some occ is /=2.0)
   erelax=  -2.97736092E+01
  No Ewald or frozen-wf contrib.: the relaxation energy is the total one
 2DEtotal=   -0.2977360916E+02 Ha. Also 2DEtotal=   -0.810181107843E+03 eV
    (  non-var. 2DEtotal :   -2.9773609163E+01 Ha)

 CALCULATION OF EFFECTIVE MASSES
 NOTE : Additional infos (eff. mass eigenvalues, eigenvectors and, if degenerate, average mass) are available in stdout.

 COMMENTS:
 - At k-point ( 0.000, 0.000, 0.000), bands    12 through    13
   are DEGENERATE (effective mass tensor is therefore not defined).
   See Section IIIB Eqs. (67)-(70) and Appendix E of PRB 93 205147 (2016).
 - Angular average effective mass for Frohlich model is to be averaged over degenerate bands. See later.
 - Associated theta integrals calculated with ntheta=   1000 points.

 K-point ( 0.000, 0.000, 0.000) | band =    12
 Transport equivalent effective mass tensor:
             -0.2213251979             -0.0000000001             -0.0000000017
             -0.0000000001             -0.2213251981             -0.0000000007
             -0.0000000017             -0.0000000007             -1.1537632031
 Transport equivalent effective mass tensor eigenvalues:
             -1.1537632031             -0.2213251981             -0.2213251978
 Angular average effective mass 1/(<1/m>)=  -0.2973233140
 Angular average effective mass for Frohlich model (<m**0.5>)**2=  -0.3358524751
 Effective masses along directions: (cart. coord. / red. coord. -> eff. mass)
    1:   1.000000  0.000000  0.000000 /   1.000000  0.000000  0.000000 ->  -0.2013402070
    2:   0.000000  1.000000  0.000000 /   0.000000  1.000000  0.000000 ->  -0.2013402071
    3:   0.000000  0.000000  1.000000 /   0.000000  0.000000  1.000000 ->  -1.1214123838
    4:   0.577350  0.577350  0.577350 /   0.501071  0.501071  0.705589 ->  -0.3232117711
    5:   0.000000  0.707107  0.707107 /   0.000000  0.579000  0.815327 ->  -0.3413872001
    6:   0.707107  0.000000  0.707107 /   0.579000  0.000000  0.815327 ->  -0.3413871999
    7:   0.707107  0.707107  0.000000 /   0.707107  0.707107  0.000000 ->  -0.2383759655

 K-point ( 0.000, 0.000, 0.000) | band =    13
 Transport equivalent effective mass tensor:
            -10.9835614060             -0.0000000006             -0.0000000698
             -0.0000000006            -10.9835613770             -0.0000000135
             -0.0000000698             -0.0000000135            -12.0059764372
 Transport equivalent effective mass tensor eigenvalues:
            -12.0059764372            -10.9835614060            -10.9835613770
 Angular average effective mass 1/(<1/m>)=  -1.6247329020
 Angular average effective mass for Frohlich model (<m**0.5>)**2=  -1.9392367618
 Effective masses along directions: (cart. coord. / red. coord. -> eff. mass)
    1:   1.000000  0.000000  0.000000 /   1.000000  0.000000  0.000000 ->  -9.1081929403
    2:   0.000000  1.000000  0.000000 /   0.000000  1.000000  0.000000 ->  -9.1081929404
    3:   0.000000  0.000000  1.000000 /   0.000000  0.000000  1.000000 ->  -1.1214123899
    4:   0.577350  0.577350  0.577350 /   0.501071  0.501071  0.705589 ->  -1.1300953567
    5:   0.000000  0.707107  0.707107 /   0.000000  0.579000  0.815327 ->  -1.9969569028
    6:   0.707107  0.000000  0.707107 /   0.579000  0.000000  0.815327 ->  -1.9969569510
    7:   0.707107  0.707107  0.000000 /   0.707107  0.707107  0.000000 ->  -1.1344874631

 Angular average effective mass for Frohlich model, averaged over degenerate bands.
 Value of     (<<m**0.5>>)**2 =     9.722873E-01
 Absolute Value of <<m**0.5>> =     9.860463E-01

 K-point ( 0.000, 0.000, 0.000) | band =    14
 Effective mass tensor:
              0.2258821954              0.0000000003             -0.0000000001
              0.0000000003              0.2258821954              0.0000000002
             -0.0000000001              0.0000000002              0.3130595709
 Effective mass tensor eigenvalues:
              0.2258821951              0.2258821957              0.3130595709
 Angular average effective mass 1/(<1/m>)=   0.2489946204
 Angular average effective mass for Frohlich model (<m**0.5>)**2=   0.2506609937
 Effective masses along directions: (cart. coord. / red. coord. -> eff. mass)
    1:   1.000000  0.000000  0.000000 /   1.000000  0.000000  0.000000 ->   0.2258821954
    2:   0.000000  1.000000  0.000000 /   0.000000  1.000000  0.000000 ->   0.2258821954
    3:   0.000000  0.000000  1.000000 /   0.000000  0.000000  1.000000 ->   0.3130595709
    4:   0.577350  0.577350  0.577350 /   0.501071  0.501071  0.705589 ->   0.2489946207
    5:   0.000000  0.707107  0.707107 /   0.000000  0.579000  0.815327 ->   0.2624201265
    6:   0.707107  0.000000  0.707107 /   0.579000  0.000000  0.815327 ->   0.2624201261
    7:   0.707107  0.707107  0.000000 /   0.707107  0.707107  0.000000 ->   0.2258821957

 END OF EFFECTIVE MASSES SECTION

 ---- first-order wavefunction calculations are completed ----

 Total localisation tensor (bohr^2) in cartesian coordinates
  WARNING : still subject to testing - especially symmetries.
      direction              matrix element
   alpha     beta       real part   imaginary part
     1        1       2.6621453810    0.0000000000
     1        2       0.0000000000    0.0000000000
     1        3       0.0000000000    0.0000000000
     2        1       0.0000000000    0.0000000000
     2        2       2.6621453796    0.0000000000
     2        3       0.0000000000    0.0000000000
     3        1       0.0000000000    0.0000000000
     3        2       0.0000000000    0.0000000000
     3        3       1.8548875556    0.0000000000

 respfn : d/dk was computed, but no 2DTE, so no DDB output.

== END DATASET(S) ==============================================================

 -outvars: echo values of variables after computation  --------
            acell      1.0000000000E+00  1.0000000000E+00  1.0000000000E+00 Bohr
              amu      2.69815390E+01  6.97230000E+01  1.40067400E+01
             ecut      4.20000000E+01 Hartree
           etotal     -2.9773609163E+01
            fcart      0.0000000000E+00  0.0000000000E+00  0.0000000000E+00
                       0.0000000000E+00  0.0000000000E+00  0.0000000000E+00
                       0.0000000000E+00  0.0000000000E+00  0.0000000000E+00
                       0.0000000000E+00  0.0000000000E+00  0.0000000000E+00
-          fftalg         512
           irdden           1
           irdwfk           1
           istwfk        1
              ixc     -116133
           kptopt           0
P           mkmem           1
P          mkqmem           1
P          mk1mem           1
            natom           4
            nband          22
           nbdbuf           4
            ngfft          36      36      50
             nkpt           1
            nstep         100
             nsym           8
           ntypat           3
              occ      2.000000  2.000000  2.000000  2.000000  2.000000  2.000000
                       2.000000  2.000000  2.000000  2.000000  2.000000  2.000000
                       2.000000  0.000000  0.000000  0.000000  0.000000  0.000000
                       0.000000  0.000000  0.000000  0.000000
        optdriver           1
            prtwf          -1
            rfdir           1       1       1
           rfelfd           2
            rprim      5.9383880017E+00  0.0000000000E+00  0.0000000000E+00
                       0.0000000000E+00  5.9383880017E+00  0.0000000000E+00
                       0.0000000000E+00  0.0000000000E+00  8.3622232379E+00
          spgroup         115
           strten      0.0000000000E+00  0.0000000000E+00  0.0000000000E+00
                       0.0000000000E+00  0.0000000000E+00  0.0000000000E+00
           symrel      1  0  0   0  1  0   0  0  1       1  0  0   0 -1  0   0  0  1
                      -1  0  0   0 -1  0   0  0  1      -1  0  0   0  1  0   0  0  1
                       0 -1  0  -1  0  0   0  0 -1       0 -1  0   1  0  0   0  0 -1
                       0  1  0   1  0  0   0  0 -1       0  1  0  -1  0  0   0  0 -1
           tolwfr      1.00000000E-20
            typat      1  2  3  3
           useylm           1
           xangst      1.5712297931E+00  1.5712297931E+00  2.2125489753E+00
                       0.0000000000E+00  0.0000000000E+00  0.0000000000E+00
                       0.0000000000E+00  1.5712297931E+00  1.1522645307E+00
                       1.5712297931E+00  0.0000000000E+00  3.2728334200E+00
            xcart      2.9691940008E+00  2.9691940008E+00  4.1811116190E+00
                       0.0000000000E+00  0.0000000000E+00  0.0000000000E+00
                       0.0000000000E+00  2.9691940008E+00  2.1774643956E+00
                       2.9691940008E+00  0.0000000000E+00  6.1847588423E+00
             xred      5.0000000000E-01  5.0000000000E-01  5.0000000000E-01
                       0.0000000000E+00  0.0000000000E+00  0.0000000000E+00
                       0.0000000000E+00  5.0000000000E-01  2.6039300000E-01
                       5.0000000000E-01  0.0000000000E+00  7.3960700000E-01
            znucl       13.00000   31.00000    7.00000

- Timing analysis has been suppressed with timopt=0

 Suggested references for the acknowledgment of ABINIT usage.

 Calculation completed.
.Delivered   6 WARNINGs and   5 COMMENTs to log file.