.Version 9.5.2 of ABINIT

 ABINIT is a project of the Universite Catholique de Louvain,
 Corning Inc. and other collaborators, see ~abinit/doc/developers/contributors.txt .
 acknowledgments of the ABINIT effort.

.Starting date : Mon 24 May 2021.
- ( at 22h50 )

- input  file    -> /scratch/users/j/a/jabreu/flow_simple_10atoms/flow/w452/t1/run.abi
- output file    -> /scratch/users/j/a/jabreu/flow_simple_10atoms/flow/w452/t1/run.abo
- root for input  files -> /scratch/users/j/a/jabreu/flow_simple_10atoms/flow/w452/t1/indata/in
- root for output files -> /scratch/users/j/a/jabreu/flow_simple_10atoms/flow/w452/t1/outdata/out

 Symmetries : space group Pm m n (# 59); Bravais oP (primitive ortho.)
     intxc =       0      iscf =       7    lmnmax =      18     lnmax =       6
     mgfft =      72  mpssoang =       3    mqgrid =    3248     natom =      10
  nloc_mem =       1    nspden =       1   nspinor =       1    nsppol =       1
      nsym =       8    n1xccc =    2501    ntypat =       3    occopt =       1
   xclevel =       2
-    mband =          41        mffmem =           1         mkmem =           2
-   mkqmem =           2        mk1mem =           2           mpw =       14324
      nfft =      276480          nkpt =           2
  Rough estimation (10% accuracy) of disk space for files :

------------- Echo of variables that govern the present computation ------------
-
- outvars: echo of selected default values
-   iomode0 =  0 , fftalg0 =512 , wfoptalg0 =  0
-
- outvars: echo of global parameters not present in the input file
-  max_nthreads =    0
-
 -outvars: echo values of preprocessed input variables --------
            acell      1.0000000000E+00  1.0000000000E+00  1.0000000000E+00 Bohr
              amu      8.54678000E+01  1.40067400E+01  1.59994000E+01
             ecut      4.40000000E+01 Hartree
-          fftalg         512
           irdden           1
           irdwfk           1
           istwfk        1    0
              ixc     -116133
              kpt      5.00000000E-01  0.00000000E+00  0.00000000E+00
                       0.00000000E+00  3.33333333E-01  0.00000000E+00
           kptopt           0
P           mkmem           2
P          mkqmem           2
P          mk1mem           2
            natom          10
            nband          41
           nbdbuf           4
            ngfft          60      64      72
             nkpt           2
            nstep        2000
             nsym           8
           ntypat           3
              occ      2.000000  2.000000  2.000000  2.000000  2.000000  2.000000
                       2.000000  2.000000  2.000000  2.000000  2.000000  2.000000
                       2.000000  2.000000  2.000000  2.000000  2.000000  2.000000
                       2.000000  2.000000  2.000000  2.000000  2.000000  2.000000
                       2.000000  2.000000  2.000000  2.000000  2.000000  2.000000
                       2.000000  2.000000  0.000000  0.000000  0.000000  0.000000
                       0.000000  0.000000  0.000000  0.000000  0.000000
        optdriver           1
            prtwf          -1
            rfdir           1       1       1
           rfelfd           2
            rprim      9.2539100496E+00  0.0000000000E+00  0.0000000000E+00
                       0.0000000000E+00  1.0200056255E+01  0.0000000000E+00
                       0.0000000000E+00  0.0000000000E+00  1.0875834260E+01
          spgroup          59
           symrel      1  0  0   0  1  0   0  0  1      -1  0  0   0 -1  0   0  0 -1
                      -1  0  0   0  1  0   0  0 -1       1  0  0   0 -1  0   0  0  1
                      -1  0  0   0 -1  0   0  0  1       1  0  0   0  1  0   0  0 -1
                       1  0  0   0 -1  0   0  0 -1      -1  0  0   0  1  0   0  0  1
            tnons      0.0000000  0.0000000  0.0000000     0.0000000  0.5000000  0.5000000
                       0.0000000  0.5000000  0.5000000     0.0000000 -0.0000000  0.0000000
                       0.0000000  0.5000000  0.5000000     0.0000000  0.0000000  0.0000000
                       0.0000000 -0.0000000  0.0000000     0.0000000  0.5000000  0.5000000
           tolwfr      1.00000000E-20
            typat      1  1  2  2  3  3  3  3  3  3
           useylm           1
              wtk        0.50000    0.50000
           xangst      2.9408585063E+00  2.6988186482E+00  0.0000000000E+00
                       1.9560997823E+00  0.0000000000E+00  2.8776218074E+00
                       5.7220957602E-02  0.0000000000E+00  0.0000000000E+00
                       4.8397373310E+00  2.6988186482E+00  2.8776218074E+00
                       4.3284899887E+00  0.0000000000E+00  1.0903827000E+00
                       4.3284899887E+00  0.0000000000E+00  4.6648609148E+00
                       3.5772769994E+00  2.6988186482E+00  2.8776218074E+00
                       1.3196812892E+00  0.0000000000E+00  0.0000000000E+00
                       5.6846829989E-01  2.6988186482E+00  1.7872391074E+00
                       5.6846829989E-01  2.6988186482E+00  3.9680045074E+00
            xcart      5.5574171725E+00  5.1000281274E+00  0.0000000000E+00
                       3.6964928771E+00  0.0000000000E+00  5.4379171300E+00
                       1.0813193893E-01  0.0000000000E+00  0.0000000000E+00
                       9.1457781107E+00  5.1000281274E+00  5.4379171300E+00
                       8.1796606476E+00  0.0000000000E+00  2.0605246831E+00
                       8.1796606476E+00  0.0000000000E+00  8.8153095770E+00
                       6.7600738303E+00  5.1000281274E+00  5.4379171300E+00
                       2.4938362193E+00  0.0000000000E+00  0.0000000000E+00
                       1.0742494020E+00  5.1000281274E+00  3.3773924470E+00
                       1.0742494020E+00  5.1000281274E+00  7.4984418131E+00
             xred      6.0054800000E-01  5.0000000000E-01  0.0000000000E+00
                       3.9945200000E-01  0.0000000000E+00  5.0000000000E-01
                       1.1685000000E-02  0.0000000000E+00  0.0000000000E+00
                       9.8831500000E-01  5.0000000000E-01  5.0000000000E-01
                       8.8391400000E-01  0.0000000000E+00  1.8945900000E-01
                       8.8391400000E-01  0.0000000000E+00  8.1054100000E-01
                       7.3051000000E-01  5.0000000000E-01  5.0000000000E-01
                       2.6949000000E-01  0.0000000000E+00  0.0000000000E+00
                       1.1608600000E-01  5.0000000000E-01  3.1054100000E-01
                       1.1608600000E-01  5.0000000000E-01  6.8945900000E-01
            znucl       37.00000    7.00000    8.00000

 chkinp: Checking input parameters for consistency.

== DATASET  1 ==================================================================
-   mpi_nproc: 1, omp_nthreads: -1 (-1 if OMP is not activated)

--- !DatasetInfo
iteration_state: {dtset: 1, }
dimensions: {natom: 10, nkpt: 2, mband: 41, nsppol: 1, nspinor: 1, nspden: 1, mpw: 14324, }
cutoff_energies: {ecut:  44.0, pawecutdg:  -1.0, }
electrons: {nelect:   6.40000000E+01, charge:   0.00000000E+00, occopt:   1.00000000E+00, tsmear:   1.00000000E-02, }
meta: {optdriver: 1, rfelfd: 2, }
...

 Real(R)+Recip(G) space primitive vectors, cartesian coordinates (Bohr,Bohr^-1):
 R(1)=  9.2539100  0.0000000  0.0000000  G(1)=  0.1080624  0.0000000  0.0000000
 R(2)=  0.0000000 10.2000563  0.0000000  G(2)=  0.0000000  0.0980387  0.0000000
 R(3)=  0.0000000  0.0000000 10.8758343  G(3)=  0.0000000  0.0000000  0.0919470
 Unit cell volume ucvol=  1.0265744E+03 bohr^3
 Angles (23,13,12)=  9.00000000E+01  9.00000000E+01  9.00000000E+01 degrees

 getcut: wavevector=  0.0000  0.0000  0.0000  ngfft=  60  64  72
         ecut(hartree)=     44.000   => boxcut(ratio)=   2.10129

--- Pseudopotential description ------------------------------------------------
- pspini: atom type   1  psp file is /scratch/users/j/a/jabreu/pseudos/PBEsol/Rb.psp8
- pspatm: opening atomic psp file    /scratch/users/j/a/jabreu/pseudos/PBEsol/Rb.psp8
- Rb    ONCVPSP-3.3.0  r_core=   1.71227   1.75361   1.90633
- 37.00000   9.00000    180112                znucl, zion, pspdat
    8 -116133    2    4       600   0.00000   pspcod,pspxc,lmax,lloc,mmax,r2well
    5.99000000000000    7.00000000000000    0.00000000000000   rchrg,fchrg,qchrg
     nproj     2     2     2
     extension_switch     1
  pspatm : epsatm=   34.48400912
         --- l  ekb(1:nproj) -->
             0    8.196957   -0.477221
             1    3.231347   -0.378736
             2   -1.047201    0.996637
 pspatm: atomic psp has been read  and splines computed

- pspini: atom type   2  psp file is /scratch/users/j/a/jabreu/pseudos/PBEsol/N.psp8
- pspatm: opening atomic psp file    /scratch/users/j/a/jabreu/pseudos/PBEsol/N.psp8
- N     ONCVPSP-3.3.0  r_core=   1.20551   1.35824
-  7.00000   5.00000    180112                znucl, zion, pspdat
    8 -116133    1    4       600   0.00000   pspcod,pspxc,lmax,lloc,mmax,r2well
    5.99000000000000    4.00000000000000    0.00000000000000   rchrg,fchrg,qchrg
     nproj     2     2
     extension_switch     1
  pspatm : epsatm=    5.26508895
         --- l  ekb(1:nproj) -->
             0    7.464189    0.625868
             1   -4.309714   -1.012941
 pspatm: atomic psp has been read  and splines computed

- pspini: atom type   3  psp file is /scratch/users/j/a/jabreu/pseudos/PBEsol/O.psp8
- pspatm: opening atomic psp file    /scratch/users/j/a/jabreu/pseudos/PBEsol/O.psp8
- O     ONCVPSP-3.3.0  r_core=   1.35509   1.45563   1.26150
-  8.00000   6.00000    180112                znucl, zion, pspdat
    8 -116133    2    4       600   0.00000   pspcod,pspxc,lmax,lloc,mmax,r2well
    5.99000000000000    4.00000000000000    0.00000000000000   rchrg,fchrg,qchrg
     nproj     2     2     1
     extension_switch     1
  pspatm : epsatm=    6.22910522
         --- l  ekb(1:nproj) -->
             0    6.050032    0.820363
             1   -4.739617   -1.153841
             2   -1.335834
 pspatm: atomic psp has been read  and splines computed

   7.47986096E+03                                ecore*ucvol(ha*bohr**3)

 ==>  initialize data related to q vector <==

 The list of irreducible perturbations for this q vector is:
    1)    idir= 1    ipert=  11
    2)    idir= 2    ipert=  11
    3)    idir= 3    ipert=  11

 Perturbation wavevector (in red.coord.)   0.000000  0.000000  0.000000
 Perturbation : derivative vs k along direction   1

 dfpt_looppert : COMMENT -
  In a d/dk calculation, iscf is set to -3 automatically.
 The set of symmetries contains only one element for this perturbation.
 symkpt : not enough symmetry to change the number of k points.

 Initialisation of the first-order wave-functions :
  ireadwf=   0

--- !BeginCycle
iteration_state: {dtset: 1, }
solver: {iscf: 7, nstep: 2000, nline: 4, wfoptalg: 0, }
tolerances: {tolwfr: 1.00E-20, }
...

     iter   2DEtotal(Ha)        deltaE(Ha) residm    vres2
-ETOT  1  -30.187827282931     -3.019E+01 1.966E-01 0.000E+00
 ETOT  2  -30.289166612309     -1.013E-01 1.413E-02 0.000E+00
 ETOT  3  -30.290505070468     -1.338E-03 1.225E-03 0.000E+00
[...]
 ETOT 18  -30.290531967844     -7.105E-15 7.141E-14 0.000E+00
 ETOT 19  -30.290531967844      3.553E-15 6.262E-15 0.000E+00
 ETOT 20  -30.290531967844     -3.553E-15 3.178E-15 0.000E+00
 ETOT 21  -30.290531967844     -3.553E-15 2.792E-16 0.000E+00
 ETOT 22  -30.290531967844      7.105E-15 1.417E-16 0.000E+00
 ETOT 23  -30.290531967844      7.105E-15 1.247E-17 0.000E+00
 ETOT 24  -30.290531967844     -3.553E-15 6.327E-18 0.000E+00
 ETOT 25  -30.290531967844     -3.553E-15 5.576E-19 0.000E+00
 ETOT 26  -30.290531967844      1.421E-14 2.828E-19 0.000E+00
 ETOT 27  -30.290531967844     -3.553E-15 2.496E-20 0.000E+00
 ETOT 28  -30.290531967844      0.000E+00 1.265E-20 0.000E+00
 ETOT 29  -30.290531967844     -1.066E-14 9.673E-21 0.000E+00

 At SCF step   29   max residual=  9.67E-21 < tolwfr=  1.00E-20 =>converged.

 ----iterations are completed or convergence reached----

 dfpt_looppert: DFPT cycle converged with prtwf=-1. Will skip output of the 1st-order WFK file.
 dfpt_looppert : ek2=    5.9009122830E+01
          f-sum rule ratio=    1.0072650372E+00
 prteigrs : about to open file /scratch/users/j/a/jabreu/flow_simple_10atoms/flow/w452/t1/tmpdata/tmp_1WF1_EIG
 Expectation of eigenvalue derivatives (hartree) for nkpt=   2  k points:
  (in case of degenerate eigenvalues, averaged derivative)
 kpt#   1, nband= 41, wtk=  0.50000, kpt=  0.5000  0.0000  0.0000 (reduced coord)
   0.00000    0.00000    0.00000    0.00000   -0.00000    0.00000    0.00000    0.00000
  -0.00000   -0.00000   -0.00000    0.00000    0.00000    0.00000    0.00000   -0.00000
   0.00000    0.00000    0.00000   -0.00000    0.00000   -0.00000   -0.00000    0.00000
  -0.00000    0.00000    0.00000    0.00000   -0.00000    0.00000   -0.00000    0.00000
  -0.00000   -0.00000   -0.00000   -0.00000    0.00000    0.00000    0.00000   -0.00058
   0.00064
 prteigrs : prtvol=0 or 1, do not print more k-points.

 Eight components of 2nd-order total energy (hartree) are
 1,2,3: 0th-order hamiltonian combined with 1st-order wavefunctions
     kin0=   4.73167848E+01 eigvalue=   4.21282888E+00  local=  -2.30114515E+01
 4,5,6: 1st-order hamiltonian combined with 1st and 0th-order wfs
     kin1=  -5.94378263E+01  Hartree=   0.00000000E+00     xc=   0.00000000E+00
 7,8,9: eventually, occupation + non-local contributions
    edocc=   6.12074671E+00     enl0=  -4.34837696E+00   enl1=  -1.14323763E+00
 1-9 gives the relaxation energy (to be shifted if some occ is /=2.0)
   erelax=  -3.02905320E+01
  No Ewald or frozen-wf contrib.: the relaxation energy is the total one
 2DEtotal=   -0.3029053197E+02 Ha. Also 2DEtotal=   -0.824247292701E+03 eV
    (  non-var. 2DEtotal :   -3.0290531967E+01 Ha)

 Perturbation wavevector (in red.coord.)   0.000000  0.000000  0.000000
 Perturbation : derivative vs k along direction   2
 The set of symmetries contains only one element for this perturbation.
 symkpt : not enough symmetry to change the number of k points.

[...]

 Perturbation wavevector (in red.coord.)   0.000000  0.000000  0.000000
 Perturbation : derivative vs k along direction   3
 The set of symmetries contains only one element for this perturbation.
 symkpt : not enough symmetry to change the number of k points.

 Initialisation of the first-order wave-functions :
  ireadwf=   0

--- !BeginCycle
iteration_state: {dtset: 1, }
solver: {iscf: 7, nstep: 2000, nline: 4, wfoptalg: 0, }
tolerances: {tolwfr: 1.00E-20, }
...

     iter   2DEtotal(Ha)        deltaE(Ha) residm    vres2
-ETOT  1  -22.638798814184     -2.264E+01 4.524E-02 0.000E+00
 ETOT  2  -22.713604634913     -7.481E-02 9.381E-04 0.000E+00
 ETOT  3  -22.714702616774     -1.098E-03 3.947E-05 0.000E+00
 ETOT  4  -22.714726765170     -2.415E-05 1.272E-05 0.000E+00
 ETOT  5  -22.714727434822     -6.697E-07 5.159E-07 0.000E+00
 ETOT  6  -22.714727455529     -2.071E-08 2.272E-07 0.000E+00
 ETOT  7  -22.714727456224     -6.958E-10 1.147E-08 0.000E+00
 ETOT  8  -22.714727456249     -2.485E-11 5.496E-09 0.000E+00
 ETOT  9  -22.714727456250     -9.486E-13 3.003E-10 0.000E+00
 ETOT 10  -22.714727456250     -5.684E-14 1.432E-10 0.000E+00
 ETOT 11  -22.714727456250     -3.553E-15 8.195E-12 0.000E+00
 ETOT 12  -22.714727456250      1.421E-14 3.772E-12 0.000E+00
 ETOT 13  -22.714727456250      0.000E+00 3.719E-13 0.000E+00
 ETOT 14  -22.714727456250     -3.553E-15 1.023E-13 0.000E+00
 ETOT 15  -22.714727456250      3.553E-15 1.675E-14 0.000E+00
 ETOT 16  -22.714727456250     -1.421E-14 3.410E-15 0.000E+00
 ETOT 17  -22.714727456250     -3.553E-15 5.514E-16 0.000E+00
 ETOT 18  -22.714727456250      3.553E-15 1.129E-16 0.000E+00
 ETOT 19  -22.714727456250      0.000E+00 1.810E-17 0.000E+00
 ETOT 20  -22.714727456250      0.000E+00 3.741E-18 0.000E+00
 ETOT 21  -22.714727456250      0.000E+00 5.963E-19 0.000E+00
 ETOT 22  -22.714727456250     -3.553E-15 1.241E-19 0.000E+00
 ETOT 23  -22.714727456250      1.776E-14 1.969E-20 0.000E+00
 ETOT 24  -22.714727456250     -1.776E-14 9.958E-21 0.000E+00

 At SCF step   24   max residual=  9.96E-21 < tolwfr=  1.00E-20 =>converged.

 ----iterations are completed or convergence reached----

 dfpt_looppert: DFPT cycle converged with prtwf=-1. Will skip output of the 1st-order WFK file.
 dfpt_looppert : ek2=    4.2721308400E+01
          f-sum rule ratio=    1.0514588537E+00
 prteigrs : about to open file /scratch/users/j/a/jabreu/flow_simple_10atoms/flow/w452/t1/tmpdata/tmp_1WF1_EIG
 Expectation of eigenvalue derivatives (hartree) for nkpt=   2  k points:
  (in case of degenerate eigenvalues, averaged derivative)
 kpt#   1, nband= 41, wtk=  0.50000, kpt=  0.5000  0.0000  0.0000 (reduced coord)
  -0.00000    0.00000    0.00000    0.00000   -0.00000    0.00000    0.00000    0.00000
  -0.00000    0.00000    0.00000    0.00000   -0.00000   -0.00000   -0.00000    0.00000
  -0.00000   -0.00000    0.00000    0.00000    0.00000   -0.00000   -0.00000    0.00000
  -0.00000   -0.00000   -0.00000    0.00000    0.00000    0.00000    0.00000   -0.00000
   0.00000   -0.00000   -0.00000    0.00000   -0.00000   -0.00000    0.00000   -0.00006
  -0.00010
 prteigrs : prtvol=0 or 1, do not print more k-points.

 Eight components of 2nd-order total energy (hartree) are
 1,2,3: 0th-order hamiltonian combined with 1st-order wavefunctions
     kin0=   3.40948364E+01 eigvalue=   2.96715448E+00  local=  -1.63568789E+01
 4,5,6: 1st-order hamiltonian combined with 1st and 0th-order wfs
     kin1=  -4.49196980E+01  Hartree=   0.00000000E+00     xc=   0.00000000E+00
 7,8,9: eventually, occupation + non-local contributions
    edocc=   4.97874473E+00     enl0=  -2.96912917E+00   enl1=  -5.09756952E-01
 1-9 gives the relaxation energy (to be shifted if some occ is /=2.0)
   erelax=  -2.27147275E+01
  No Ewald or frozen-wf contrib.: the relaxation energy is the total one
 2DEtotal=   -0.2271472746E+02 Ha. Also 2DEtotal=   -0.618099168087E+03 eV
    (  non-var. 2DEtotal :   -2.2714727456E+01 Ha)

 CALCULATION OF EFFECTIVE MASSES
 NOTE : Additional infos (eff. mass eigenvalues, eigenvectors and, if degenerate, average mass) are available in stdout.

 K-point ( 0.500, 0.000, 0.000) | band =    32
 Effective mass tensor:
             -2.6703162560             -0.0000141160              0.0000167145
             -0.0000141160            -21.6711398518             -0.0000000705
              0.0000167145             -0.0000000705             -3.2666378301
 Effective mass tensor eigenvalues:
            -21.6711398519             -3.2666378305             -2.6703162555
 Angular average effective mass 1/(<1/m>)=  -4.1279275077
 Angular average effective mass for Frohlich model (<m**0.5>)**2=  -4.8574044061
 Effective masses along directions: (cart. coord. / red. coord. -> eff. mass)
    1:   1.000000  0.000000  0.000000 /   1.000000  0.000000  0.000000 ->  -2.6703162559
    2:   0.000000  1.000000  0.000000 /   0.000000  1.000000  0.000000 -> -21.6711398518
    3:   0.000000  0.000000  1.000000 /   0.000000  0.000000  1.000000 ->  -3.2666378299
    4:   0.577350  0.577350  0.577350 /   0.527325  0.581240  0.619749 ->  -4.1279085229
    5:   0.000000  0.707107  0.707107 /   0.000000  0.684083  0.729405 ->  -5.6774718712
    6:   0.707107  0.000000  0.707107 /   0.648033  0.000000  0.761613 ->  -2.9385125293
    7:   0.707107  0.707107  0.000000 /   0.671922  0.740622  0.000000 ->  -4.7547578002

 K-point ( 0.000, 0.333, 0.000) | band =    33
 Effective mass tensor:
              5.9329983593             -0.0000037972              0.0000217997
             -0.0000037972              6.0688042385             -0.0000000849
              0.0000217997             -0.0000000849              4.3768342179
 Effective mass tensor eigenvalues:
              4.3768342176              5.9329983595              6.0688042386
 Angular average effective mass 1/(<1/m>)=   5.3399635478
 Angular average effective mass for Frohlich model (<m**0.5>)**2=   5.3774413331
 Effective masses along directions: (cart. coord. / red. coord. -> eff. mass)
    1:   1.000000  0.000000  0.000000 /   1.000000  0.000000  0.000000 ->   5.9329983592
    2:   0.000000  1.000000  0.000000 /   0.000000  1.000000  0.000000 ->   6.0688042385
    3:   0.000000  0.000000  1.000000 /   0.000000  0.000000  1.000000 ->   4.3768342178
    4:   0.577350  0.577350  0.577350 /   0.527325  0.581240  0.619749 ->   5.3399774411
    5:   0.000000  0.707107  0.707107 /   0.000000  0.684083  0.729405 ->   5.0857876676
    6:   0.707107  0.000000  0.707107 /   0.648033  0.000000  0.761613 ->   5.0374940339
    7:   0.707107  0.707107  0.000000 /   0.671922  0.740622  0.000000 ->   6.0001291493

 END OF EFFECTIVE MASSES SECTION

 ---- first-order wavefunction calculations are completed ----

 Total localisation tensor (bohr^2) in cartesian coordinates
  WARNING : still subject to testing - especially symmetries.
      direction              matrix element
   alpha     beta       real part   imaginary part
     1        1       0.6785294555    0.0000000000
     1        2       0.0000000000    0.0000000000
     1        3       0.0000000000    0.0000000000
     2        1       0.0000000000    0.0000000000
     2        2       0.5243843361    0.0000000000
     2        3       0.0000000000    0.0000000000
     3        1       0.0000000000    0.0000000000
     3        2       0.0000000000    0.0000000000
     3        3       0.7459763110    0.0000000000

 respfn : d/dk was computed, but no 2DTE, so no DDB output.

== END DATASET(S) ==============================================================

 -outvars: echo values of variables after computation  --------
            acell      1.0000000000E+00  1.0000000000E+00  1.0000000000E+00 Bohr
              amu      8.54678000E+01  1.40067400E+01  1.59994000E+01
             ecut      4.40000000E+01 Hartree
           etotal     -2.2714727456E+01
            fcart      0.0000000000E+00  0.0000000000E+00  0.0000000000E+00
                       0.0000000000E+00  0.0000000000E+00  0.0000000000E+00
                       0.0000000000E+00  0.0000000000E+00  0.0000000000E+00
                       0.0000000000E+00  0.0000000000E+00  0.0000000000E+00
                       0.0000000000E+00  0.0000000000E+00  0.0000000000E+00
                       0.0000000000E+00  0.0000000000E+00  0.0000000000E+00
                       0.0000000000E+00  0.0000000000E+00  0.0000000000E+00
                       0.0000000000E+00  0.0000000000E+00  0.0000000000E+00
                       0.0000000000E+00  0.0000000000E+00  0.0000000000E+00
                       0.0000000000E+00  0.0000000000E+00  0.0000000000E+00
-          fftalg         512
           irdden           1
           irdwfk           1
           istwfk        1    0
              ixc     -116133
              kpt      5.00000000E-01  0.00000000E+00  0.00000000E+00
                       0.00000000E+00  3.33333333E-01  0.00000000E+00
           kptopt           0
P           mkmem           2
P          mkqmem           2
P          mk1mem           2
            natom          10
            nband          41
           nbdbuf           4
            ngfft          60      64      72
             nkpt           2
            nstep        2000
             nsym           8
           ntypat           3
              occ      2.000000  2.000000  2.000000  2.000000  2.000000  2.000000
                       2.000000  2.000000  2.000000  2.000000  2.000000  2.000000
                       2.000000  2.000000  2.000000  2.000000  2.000000  2.000000
                       2.000000  2.000000  2.000000  2.000000  2.000000  2.000000
                       2.000000  2.000000  2.000000  2.000000  2.000000  2.000000
                       2.000000  2.000000  0.000000  0.000000  0.000000  0.000000
                       0.000000  0.000000  0.000000  0.000000  0.000000
        optdriver           1
            prtwf          -1
            rfdir           1       1       1
           rfelfd           2
            rprim      9.2539100496E+00  0.0000000000E+00  0.0000000000E+00
                       0.0000000000E+00  1.0200056255E+01  0.0000000000E+00
                       0.0000000000E+00  0.0000000000E+00  1.0875834260E+01
          spgroup          59
           strten      0.0000000000E+00  0.0000000000E+00  0.0000000000E+00
                       0.0000000000E+00  0.0000000000E+00  0.0000000000E+00
           symrel      1  0  0   0  1  0   0  0  1      -1  0  0   0 -1  0   0  0 -1
                      -1  0  0   0  1  0   0  0 -1       1  0  0   0 -1  0   0  0  1
                      -1  0  0   0 -1  0   0  0  1       1  0  0   0  1  0   0  0 -1
                       1  0  0   0 -1  0   0  0 -1      -1  0  0   0  1  0   0  0  1
            tnons      0.0000000  0.0000000  0.0000000     0.0000000  0.5000000  0.5000000
                       0.0000000  0.5000000  0.5000000     0.0000000 -0.0000000  0.0000000
                       0.0000000  0.5000000  0.5000000     0.0000000  0.0000000  0.0000000
                       0.0000000 -0.0000000  0.0000000     0.0000000  0.5000000  0.5000000
           tolwfr      1.00000000E-20
            typat      1  1  2  2  3  3  3  3  3  3
           useylm           1
              wtk        0.50000    0.50000
           xangst      2.9408585063E+00  2.6988186482E+00  0.0000000000E+00
                       1.9560997823E+00  0.0000000000E+00  2.8776218074E+00
                       5.7220957602E-02  0.0000000000E+00  0.0000000000E+00
                       4.8397373310E+00  2.6988186482E+00  2.8776218074E+00
                       4.3284899887E+00  0.0000000000E+00  1.0903827000E+00
                       4.3284899887E+00  0.0000000000E+00  4.6648609148E+00
                       3.5772769994E+00  2.6988186482E+00  2.8776218074E+00
                       1.3196812892E+00  0.0000000000E+00  0.0000000000E+00
                       5.6846829989E-01  2.6988186482E+00  1.7872391074E+00
                       5.6846829989E-01  2.6988186482E+00  3.9680045074E+00
            xcart      5.5574171725E+00  5.1000281274E+00  0.0000000000E+00
                       3.6964928771E+00  0.0000000000E+00  5.4379171300E+00
                       1.0813193893E-01  0.0000000000E+00  0.0000000000E+00
                       9.1457781107E+00  5.1000281274E+00  5.4379171300E+00
                       8.1796606476E+00  0.0000000000E+00  2.0605246831E+00
                       8.1796606476E+00  0.0000000000E+00  8.8153095770E+00
                       6.7600738303E+00  5.1000281274E+00  5.4379171300E+00
                       2.4938362193E+00  0.0000000000E+00  0.0000000000E+00
                       1.0742494020E+00  5.1000281274E+00  3.3773924470E+00
                       1.0742494020E+00  5.1000281274E+00  7.4984418131E+00
             xred      6.0054800000E-01  5.0000000000E-01  0.0000000000E+00
                       3.9945200000E-01  0.0000000000E+00  5.0000000000E-01
                       1.1685000000E-02  0.0000000000E+00  0.0000000000E+00
                       9.8831500000E-01  5.0000000000E-01  5.0000000000E-01
                       8.8391400000E-01  0.0000000000E+00  1.8945900000E-01
                       8.8391400000E-01  0.0000000000E+00  8.1054100000E-01
                       7.3051000000E-01  5.0000000000E-01  5.0000000000E-01
                       2.6949000000E-01  0.0000000000E+00  0.0000000000E+00
                       1.1608600000E-01  5.0000000000E-01  3.1054100000E-01
                       1.1608600000E-01  5.0000000000E-01  6.8945900000E-01
            znucl       37.00000    7.00000    8.00000

- Timing analysis has been suppressed with timopt=0

 Suggested references for the acknowledgment of ABINIT usage.

 Calculation completed.
.Delivered   2 WARNINGs and   5 COMMENTs to log file.