.Version 9.5.1 of ABINIT

 ABINIT is a project of the Universite Catholique de Louvain,
 Corning Inc. and other collaborators, see ~abinit/doc/developers/contributors.txt .
 acknowledgments of the ABINIT effort.

.Starting date : Wed 19 May 2021.
- ( at 01h43 )

- input  file    -> /scratch/users/j/a/jabreu/flow_simple_8atoms/flow/w472/t1/run.abi
- output file    -> /scratch/users/j/a/jabreu/flow_simple_8atoms/flow/w472/t1/run.abo
- root for input  files -> /scratch/users/j/a/jabreu/flow_simple_8atoms/flow/w472/t1/indata/in
- root for output files -> /scratch/users/j/a/jabreu/flow_simple_8atoms/flow/w472/t1/outdata/out

 Symmetries : space group I-4 2 d (#122); Bravais tI (body-center tetrag.)
     intxc =       0      iscf =       7    lmnmax =      18     lnmax =       6
     mgfft =      80  mpssoang =       3    mqgrid =    3001     natom =       8
  nloc_mem =       1    nspden =       1   nspinor =       1    nsppol =       1
      nsym =       8    n1xccc =    2501    ntypat =       3    occopt =       1
   xclevel =       2
-    mband =          57        mffmem =           1         mkmem =           2
-   mkqmem =           2        mk1mem =           2           mpw =       14771
      nfft =      512000          nkpt =           2
  Rough estimation (10% accuracy) of disk space for files :

------------- Echo of variables that govern the present computation ------------
-
- outvars: echo of selected default values
-   iomode0 =  0 , fftalg0 =512 , wfoptalg0 =  0
-
- outvars: echo of global parameters not present in the input file
-  max_nthreads =    0
-
 -outvars: echo values of preprocessed input variables --------
            acell      1.0000000000E+00  1.0000000000E+00  1.0000000000E+00 Bohr
              amu      9.01218200E+00  7.26100000E+01  7.49215900E+01
             ecut      4.40000000E+01 Hartree
-          fftalg         512
           irdden           1
           irdwfk           1
           istwfk        1    0
              ixc     -116133
              kpt      0.00000000E+00  0.00000000E+00  0.00000000E+00
                       4.44444444E-01  4.44444444E-01 -4.44444444E-01
           kptopt           0
P           mkmem           2
P          mkqmem           2
P          mk1mem           2
            natom           8
            nband          57
           nbdbuf           4
            ngfft          80      80      80
             nkpt           2
            nstep        2000
             nsym           8
           ntypat           3
              occ      2.000000  2.000000  2.000000  2.000000  2.000000  2.000000
                       2.000000  2.000000  2.000000  2.000000  2.000000  2.000000
                       2.000000  2.000000  2.000000  2.000000  2.000000  2.000000
                       2.000000  2.000000  2.000000  2.000000  2.000000  2.000000
                       2.000000  2.000000  2.000000  2.000000  2.000000  2.000000
                       2.000000  2.000000  2.000000  2.000000  2.000000  2.000000
                       2.000000  2.000000  2.000000  2.000000  2.000000  2.000000
                       2.000000  2.000000  2.000000  2.000000  2.000000  2.000000
                       0.000000  0.000000  0.000000  0.000000  0.000000  0.000000
                       0.000000  0.000000  0.000000
        optdriver           1
            prtwf          -1
            rfdir           1       1       1
           rfelfd           2
            rprim      9.2884974942E+00  0.0000000000E+00 -8.3699435275E+00
                      -1.8393193585E+00  9.1045642399E+00 -8.3699435275E+00
                       0.0000000000E+00  0.0000000000E+00  1.2503285183E+01
          spgroup         122
           symrel      1  0  0   0  1  0   0  0  1      -1 -1 -1   0  0  1   0  1  0
                       0  1  0   1  0  0  -1 -1 -1       0  0  1  -1 -1 -1   1  0  0
                       0  1  0   1  0  0   0  0  1      -1 -1 -1   0  0  1   1  0  0
                       1  0  0   0  1  0  -1 -1 -1       0  0  1  -1 -1 -1   0  1  0
            tnons      0.0000000  0.0000000  0.0000000    -0.2500000  0.2500000  0.5000000
                       0.0000000 -0.0000000 -0.0000000    -0.2500000  0.2500000  0.5000000
                      -0.2500000  0.2500000  0.5000000     0.0000000 -0.0000000  0.0000000
                      -0.2500000  0.2500000  0.5000000    -0.0000000 -0.0000000 -0.0000000
           tolwfr      1.00000000E-20
            typat      1  1  2  2  3  3  3  3
           useylm           1
              wtk        0.50000    0.50000
           xangst      4.9882088112E-01  3.6134459174E+00 -1.1209565764E+00
                       1.9709676461E+00  2.4089639449E+00 -4.4291833519E+00
                       0.0000000000E+00  0.0000000000E+00  0.0000000000E+00
                       3.4431144110E+00  1.2044819725E+00 -1.1209565764E+00
                       3.9052617700E+00  1.9581648861E+00 -5.4677267258E+00
                       2.3092081530E+00  3.0112049312E+00 -2.2970048786E+00
                       1.0221573451E+00  4.0642449763E+00  1.0112218970E+00
                       6.4724331606E-01  6.0224098624E-01  2.2696834017E+00
            xcart      9.4263485468E-01  6.8284231799E+00 -2.1183009362E+00
                       3.7245890678E+00  4.5522821199E+00 -8.3699435275E+00
                       0.0000000000E+00  0.0000000000E+00  0.0000000000E+00
                       6.5065432810E+00  2.2761410600E+00 -2.1183009362E+00
                       7.3798752226E+00  3.7003953577E+00 -1.0332506081E+01
                       4.3637709931E+00  5.6903526499E+00 -4.3407101464E+00
                       1.9315974470E+00  7.6803099422E+00  1.9109324449E+00
                       1.2231126087E+00  1.1380705300E+00  4.2890800376E+00
             xred      2.5000000000E-01  7.5000000000E-01  5.0000000000E-01
                       5.0000000000E-01  5.0000000000E-01 -5.5511151231E-17
                       0.0000000000E+00  0.0000000000E+00  0.0000000000E+00
                       7.5000000000E-01  2.5000000000E-01  5.0000000000E-01
                       8.7500000000E-01  4.0643300000E-01  3.1433000000E-02
                       5.9356700000E-01  6.2500000000E-01  4.6856700000E-01
                       3.7500000000E-01  8.4356700000E-01  9.6856700000E-01
                       1.5643300000E-01  1.2500000000E-01  5.3143300000E-01
            znucl        4.00000   32.00000   33.00000

 chkinp: Checking input parameters for consistency.

== DATASET  1 ==================================================================
-   mpi_nproc: 1, omp_nthreads: -1 (-1 if OMP is not activated)

--- !DatasetInfo
iteration_state: {dtset: 1, }
dimensions: {natom: 8, nkpt: 2, mband: 57, nsppol: 1, nspinor: 1, nspden: 1, mpw: 14771, }
cutoff_energies: {ecut:  44.0, pawecutdg:  -1.0, }
electrons: {nelect:   9.60000000E+01, charge:   0.00000000E+00, occopt:   1.00000000E+00, tsmear:   1.00000000E-02, }
meta: {optdriver: 1, rfelfd: 2, }
...

 Real(R)+Recip(G) space primitive vectors, cartesian coordinates (Bohr,Bohr^-1):
 R(1)=  9.2884975  0.0000000 -8.3699435  G(1)=  0.1076600  0.0217497  0.0000000
 R(2)= -1.8393194  9.1045642 -8.3699435  G(2)=  0.0000000  0.1098350  0.0000000
 R(3)=  0.0000000  0.0000000 12.5032852  G(3)=  0.0720697  0.0880854  0.0799790
 Unit cell volume ucvol=  1.0573743E+03 bohr^3
 Angles (23,13,12)=  1.32022281E+02  1.32022281E+02  7.01938386E+01 degrees

 getcut: wavevector=  0.0000  0.0000  0.0000  ngfft=  80  80  80
         ecut(hartree)=     44.000   => boxcut(ratio)=   2.14291

--- Pseudopotential description ------------------------------------------------
- pspini: atom type   1  psp file is /scratch/users/j/a/jabreu/pseudos/PBEsol/Be.psp8
- pspatm: opening atomic psp file    /scratch/users/j/a/jabreu/pseudos/PBEsol/Be.psp8
- Be    ONCVPSP-3.3.0  r_core=   1.35684   1.10780
-  4.00000   4.00000    180112                znucl, zion, pspdat
    8 -116133    1    4       400   0.00000   pspcod,pspxc,lmax,lloc,mmax,r2well
    3.99000000000000    0.00000000000000    0.00000000000000   rchrg,fchrg,qchrg
     nproj     2     2
     extension_switch     1
  pspatm : epsatm=    3.86293307
         --- l  ekb(1:nproj) -->
             0   -7.966826   -2.672546
             1   -3.431835   -0.651830
 pspatm: atomic psp has been read  and splines computed

- pspini: atom type   2  psp file is /scratch/users/j/a/jabreu/pseudos/PBEsol/Ge.psp8
- pspatm: opening atomic psp file    /scratch/users/j/a/jabreu/pseudos/PBEsol/Ge.psp8
- Ge    ONCVPSP-3.3.0  r_core=   1.91022   1.82122   1.91022
- 32.00000  14.00000    180112                znucl, zion, pspdat
    8 -116133    2    4       600   0.00000   pspcod,pspxc,lmax,lloc,mmax,r2well
    5.99000000000000    5.00000000000000    0.00000000000000   rchrg,fchrg,qchrg
     nproj     2     2     2
     extension_switch     1
  pspatm : epsatm=   30.86751540
         --- l  ekb(1:nproj) -->
             0    6.339734    0.583066
             1    3.813259    0.738801
             2   -9.332373   -3.602819
 pspatm: atomic psp has been read  and splines computed

- pspini: atom type   3  psp file is /scratch/users/j/a/jabreu/pseudos/PBEsol/As.psp8
- pspatm: opening atomic psp file    /scratch/users/j/a/jabreu/pseudos/PBEsol/As.psp8
- As    ONCVPSP-3.3.0  r_core=   1.76603   1.70395   1.80867
- 33.00000  15.00000    180112                znucl, zion, pspdat
    8 -116133    2    4       600   0.00000   pspcod,pspxc,lmax,lloc,mmax,r2well
    5.99000000000000    5.00000000000000    0.00000000000000   rchrg,fchrg,qchrg
     nproj     2     2     2
     extension_switch     1
  pspatm : epsatm=   28.79155382
         --- l  ekb(1:nproj) -->
             0    8.270760    0.868950
             1    4.919053    0.756587
             2  -10.048665   -4.076802
 pspatm: atomic psp has been read  and splines computed

   1.77242028E+04                                ecore*ucvol(ha*bohr**3)

-inwffil : will read wavefunctions from disk file /scratch/users/j/a/jabreu/flow_simple_8atoms/flow/w472/t1/indata/in_WFK

 ==>  initialize data related to q vector <==

 The list of irreducible perturbations for this q vector is:
    1)    idir= 1    ipert=   9
    2)    idir= 2    ipert=   9
    3)    idir= 3    ipert=   9

 Perturbation wavevector (in red.coord.)   0.000000  0.000000  0.000000
 Perturbation : derivative vs k along direction   1

 dfpt_looppert : COMMENT -
  In a d/dk calculation, iscf is set to -3 automatically.
 The set of symmetries contains only one element for this perturbation.
 symkpt : not enough symmetry to change the number of k points.

[...]

 Initialisation of the first-order wave-functions :
  ireadwf=   0

--- !BeginCycle
iteration_state: {dtset: 1, }
solver: {iscf: 7, nstep: 2000, nline: 4, wfoptalg: 0, }
tolerances: {tolwfr: 1.00E-20, }
...

     iter   2DEtotal(Ha)        deltaE(Ha) residm    vres2
-ETOT  1  -122.43006502416     -1.224E+02 5.970E-02 0.000E+00
 ETOT  2  -122.53926202632     -1.092E-01 5.103E-03 0.000E+00
 ETOT  3  -122.53943080781     -1.688E-04 1.130E-04 0.000E+00
 ETOT  4  -122.53943163706     -8.293E-07 1.597E-05 0.000E+00
[...]
  -0.00000   -0.00000   -0.00000   -0.00000   -0.00000    0.00000   -0.00000    0.00000
   0.00000   -0.00000   -0.00000   -0.00000    0.00000    0.00000   -0.00000   -0.00000
   0.00000    0.00000    0.00000    0.00000   -0.00000    0.00000   -0.00000    0.00000
   0.00000    0.00000    0.00000   -0.00000   -0.00000   -0.00000    0.00000    0.00000
   0.00000   -0.00000    0.00000    0.00000    0.00000    0.00000    0.00000    0.00000
   0.00008
 prteigrs : prtvol=0 or 1, do not print more k-points.

 Eight components of 2nd-order total energy (hartree) are
 1,2,3: 0th-order hamiltonian combined with 1st-order wavefunctions
     kin0=   1.16681748E+02 eigvalue=   1.59665678E+01  local=  -4.25515023E+01
 4,5,6: 1st-order hamiltonian combined with 1st and 0th-order wfs
     kin1=  -1.10742585E+02  Hartree=   0.00000000E+00     xc=   0.00000000E+00
 7,8,9: eventually, occupation + non-local contributions
    edocc=   2.20408601E+01     enl0=   1.04017579E+01   enl1=  -1.34336278E+02
 1-9 gives the relaxation energy (to be shifted if some occ is /=2.0)
   erelax=  -1.22539432E+02
  No Ewald or frozen-wf contrib.: the relaxation energy is the total one
 2DEtotal=   -0.1225394316E+03 Ha. Also 2DEtotal=   -0.333446751244E+04 eV
    (  non-var. 2DEtotal :   -1.2253943164E+02 Ha)

 Perturbation wavevector (in red.coord.)   0.000000  0.000000  0.000000
 Perturbation : derivative vs k along direction   2
 The set of symmetries contains only one element for this perturbation.
 symkpt : not enough symmetry to change the number of k points.

[...]

 Perturbation wavevector (in red.coord.)   0.000000  0.000000  0.000000
 Perturbation : derivative vs k along direction   3
 The set of symmetries contains only one element for this perturbation.
 symkpt : not enough symmetry to change the number of k points.

-inwffil : will read wavefunctions from disk file /scratch/users/j/a/jabreu/flow_simple_8atoms/flow/w472/t1/indata/in_WFK

 Initialisation of the first-order wave-functions :
  ireadwf=   0

--- !BeginCycle
iteration_state: {dtset: 1, }
solver: {iscf: 7, nstep: 2000, nline: 4, wfoptalg: 0, }
tolerances: {tolwfr: 1.00E-20, }
...

     iter   2DEtotal(Ha)        deltaE(Ha) residm    vres2
-ETOT  1  -198.28914307742     -1.983E+02 6.318E-02 0.000E+00
 ETOT  2  -198.46635157557     -1.772E-01 5.108E-04 0.000E+00
 ETOT  3  -198.46661553474     -2.640E-04 3.132E-05 0.000E+00
 ETOT  4  -198.46661695150     -1.417E-06 1.093E-06 0.000E+00
 ETOT  5  -198.46661696360     -1.210E-08 1.254E-07 0.000E+00
 ETOT  6  -198.46661696372     -1.261E-10 5.171E-09 0.000E+00
 ETOT  7  -198.46661696373     -1.478E-12 6.433E-10 0.000E+00
 ETOT  8  -198.46661696373     -1.421E-13 2.830E-11 0.000E+00
 ETOT  9  -198.46661696373     -5.684E-14 3.586E-12 0.000E+00
 ETOT 10  -198.46661696373      2.558E-13 1.626E-13 0.000E+00
 ETOT 11  -198.46661696373     -1.990E-13 2.060E-14 0.000E+00
 ETOT 12  -198.46661696373     -5.684E-14 9.510E-16 0.000E+00
 ETOT 13  -198.46661696373      5.684E-14 1.201E-16 0.000E+00
 ETOT 14  -198.46661696373     -5.684E-14 5.616E-18 0.000E+00
 ETOT 15  -198.46661696373      0.000E+00 7.062E-19 0.000E+00
 ETOT 16  -198.46661696373      0.000E+00 3.338E-20 0.000E+00
 ETOT 17  -198.46661696373      0.000E+00 9.916E-21 0.000E+00

 At SCF step   17   max residual=  9.92E-21 < tolwfr=  1.00E-20 =>converged.

 ----iterations are completed or convergence reached----

 dfpt_looppert: DFPT cycle converged with prtwf=-1. Will skip output of the 1st-order WFK file.
 dfpt_looppert : ek2=    1.4666805196E+02
          f-sum rule ratio=    1.2360416332E+00
 prteigrs : about to open file /scratch/users/j/a/jabreu/flow_simple_8atoms/flow/w472/t1/tmpdata/tmp_1WF1_EIG
 Expectation of eigenvalue derivatives (hartree) for nkpt=   2  k points:
  (in case of degenerate eigenvalues, averaged derivative)
 kpt#   1, nband= 57, wtk=  0.50000, kpt=  0.0000  0.0000  0.0000 (reduced coord)
  -0.00000   -0.00000   -0.00000   -0.00000    0.00000   -0.00000   -0.00000    0.00000
   0.00000    0.00000   -0.00000   -0.00000   -0.00000   -0.00000   -0.00000    0.00000
  -0.00000   -0.00000   -0.00000   -0.00000   -0.00000    0.00000   -0.00000    0.00000
   0.00000    0.00000   -0.00000   -0.00000   -0.00000    0.00000   -0.00000    0.00000
   0.00000    0.00000    0.00000    0.00000   -0.00000    0.00000    0.00000   -0.00000
  -0.00000    0.00000    0.00000   -0.00000   -0.00000    0.00000    0.00000    0.00000
   0.00000   -0.00000   -0.00000   -0.00000    0.00000    0.00000    0.00000    0.00000
  -0.00151
 prteigrs : prtvol=0 or 1, do not print more k-points.

 Eight components of 2nd-order total energy (hartree) are
 1,2,3: 0th-order hamiltonian combined with 1st-order wavefunctions
     kin0=   1.86433911E+02 eigvalue=   2.56626116E+01  local=  -6.77091316E+01
 4,5,6: 1st-order hamiltonian combined with 1st and 0th-order wfs
     kin1=  -1.81287818E+02  Hartree=   0.00000000E+00     xc=   0.00000000E+00
 7,8,9: eventually, occupation + non-local contributions
    edocc=   3.75211564E+01     enl0=   1.65580692E+01   enl1=  -2.15645415E+02
 1-9 gives the relaxation energy (to be shifted if some occ is /=2.0)
   erelax=  -1.98466617E+02
  No Ewald or frozen-wf contrib.: the relaxation energy is the total one
 2DEtotal=   -0.1984666170E+03 Ha. Also 2DEtotal=   -0.540055129760E+04 eV
    (  non-var. 2DEtotal :   -1.9846661696E+02 Ha)

 CALCULATION OF EFFECTIVE MASSES
 NOTE : Additional infos (eff. mass eigenvalues, eigenvectors and, if degenerate, average mass) are available in stdout.

 COMMENTS:
 - At k-point ( 0.000, 0.000, 0.000), bands    47 through    48
   are DEGENERATE (effective mass tensor is therefore not defined).
   See Section IIIB Eqs. (67)-(70) and Appendix E of PRB 93 205147 (2016).
 - Angular average effective mass for Frohlich model is to be averaged over degenerate bands. See later.
 - Associated theta integrals calculated with ntheta=   1000 points.

 K-point ( 0.000, 0.000, 0.000) | band =    47
 Transport equivalent effective mass tensor:
             -0.1146237743             -0.0352410593              0.0647951033
             -0.0352410593             -0.1288615604              0.0791934799
              0.0647951033              0.0791934799             -0.2314001130
 Transport equivalent effective mass tensor eigenvalues:
             -0.3033049207             -0.0857908033             -0.0857897237
 Angular average effective mass 1/(<1/m>)=  -0.1074620102
 Angular average effective mass for Frohlich model (<m**0.5>)**2=  -0.1165003660
 Effective masses along directions: (cart. coord. / red. coord. -> eff. mass)
    1:   1.000000  0.000000  0.000000 /   0.980952 -0.194249  0.000000 ->  -0.0992088546
    2:   0.000000  1.000000  0.000000 /   0.000000  1.000000  0.000000 ->  -0.1101106263
    3:   0.000000  0.000000  1.000000 /  -0.486129 -0.486129  0.726194 ->  -0.1451680402
    4:   0.577350  0.577350  0.577350 /   0.072985 -0.087775  0.993463 ->  -0.0735202318
    5:   0.000000  0.707107  0.707107 /  -0.555621  0.048766  0.830004 ->  -0.0895450803
    6:   0.707107  0.000000  0.707107 /   0.056813 -0.631448  0.773334 ->  -0.0982858450
    7:   0.707107  0.707107  0.000000 /   0.787670  0.616097  0.000000 ->  -0.0975007973

 K-point ( 0.000, 0.000, 0.000) | band =    48
 Transport equivalent effective mass tensor:
             -3.1186748298             -0.0487539131              0.0898026651
             -0.0487539131             -3.1383438713              0.1097338007
              0.0898026651              0.1097338007             -3.2804631345
 Transport equivalent effective mass tensor eigenvalues:
             -3.3800796108             -3.0787734815             -3.0786287432
 Angular average effective mass 1/(<1/m>)=  -0.4104707661
 Angular average effective mass for Frohlich model (<m**0.5>)**2=  -0.4972142217
 Effective masses along directions: (cart. coord. / red. coord. -> eff. mass)
    1:   1.000000  0.000000  0.000000 /   0.980952 -0.194249  0.000000 ->  -0.3262684145
    2:   0.000000  1.000000  0.000000 /   0.000000  1.000000  0.000000 ->  -0.2773456458
    3:   0.000000  0.000000  1.000000 /  -0.486129 -0.486129  0.726194 ->  -0.3992233090
    4:   0.577350  0.577350  0.577350 /   0.072985 -0.087775  0.993463 ->  -2.1319471477
    5:   0.000000  0.707107  0.707107 /  -0.555621  0.048766  0.830004 ->  -0.4137721834
    6:   0.707107  0.000000  0.707107 /   0.056813 -0.631448  0.773334 ->  -0.3148485542
    7:   0.707107  0.707107  0.000000 /   0.787670  0.616097  0.000000 ->  -0.6545867778

 Angular average effective mass for Frohlich model, averaged over degenerate bands.
 Value of     (<<m**0.5>>)**2 =     2.737674E-01
 Absolute Value of <<m**0.5>> =     5.232278E-01

 K-point ( 0.444, 0.444,-0.444) | band =    49
 Effective mass tensor:
              0.2736668837              0.0348403087             -0.0640582973
              0.0348403087              0.2877439195             -0.0782935707
             -0.0640582973             -0.0782935707              0.3891138681
 Effective mass tensor eigenvalues:
              0.2451612196              0.2451612691              0.4602021827
 Angular average effective mass 1/(<1/m>)=   0.2903922494
 Angular average effective mass for Frohlich model (<m**0.5>)**2=   0.2972111520
 Effective masses along directions: (cart. coord. / red. coord. -> eff. mass)
    1:   1.000000  0.000000  0.000000 /   0.980952 -0.194249  0.000000 ->   0.2613496369
    2:   0.000000  1.000000  0.000000 /   0.000000  1.000000  0.000000 ->   0.2701591808
    3:   0.000000  0.000000  1.000000 /  -0.486129 -0.486129  0.726194 ->   0.3567554093
    4:   0.577350  0.577350  0.577350 /   0.072985 -0.087775  0.993463 ->   0.2451644118
    5:   0.000000  0.707107  0.707107 /  -0.555621  0.048766  0.830004 ->   0.2534066107
    6:   0.707107  0.000000  0.707107 /   0.056813 -0.631448  0.773334 ->   0.2575700040
    7:   0.707107  0.707107  0.000000 /   0.787670  0.616097  0.000000 ->   0.2894269186

 END OF EFFECTIVE MASSES SECTION

 ---- first-order wavefunction calculations are completed ----

 Total localisation tensor (bohr^2) in cartesian coordinates
  WARNING : still subject to testing - especially symmetries.
      direction              matrix element
   alpha     beta       real part   imaginary part
     1        1       2.6794564373    0.0000000000
     1        2      -0.5004628420    0.0000000000
     1        3      -1.8632928878    0.0000000000
     2        1      -0.5004628420    0.0000000000
     2        2       2.4772729509    0.0000000000
     2        3      -2.2773890276    0.0000000000
     3        1      -1.8632928878    0.0000000000
     3        2      -2.2773890276    0.0000000000
     3        3      12.0704456678    0.0000000000

 respfn : d/dk was computed, but no 2DTE, so no DDB output.

== END DATASET(S) ==============================================================

 -outvars: echo values of variables after computation  --------
            acell      1.0000000000E+00  1.0000000000E+00  1.0000000000E+00 Bohr
              amu      9.01218200E+00  7.26100000E+01  7.49215900E+01
             ecut      4.40000000E+01 Hartree
           etotal     -1.9846661696E+02
            fcart      0.0000000000E+00  0.0000000000E+00  0.0000000000E+00
                       0.0000000000E+00  0.0000000000E+00  0.0000000000E+00
                       0.0000000000E+00  0.0000000000E+00  0.0000000000E+00
                       0.0000000000E+00  0.0000000000E+00  0.0000000000E+00
                       0.0000000000E+00  0.0000000000E+00  0.0000000000E+00
                       0.0000000000E+00  0.0000000000E+00  0.0000000000E+00
                       0.0000000000E+00  0.0000000000E+00  0.0000000000E+00
                       0.0000000000E+00  0.0000000000E+00  0.0000000000E+00
-          fftalg         512
           irdden           1
           irdwfk           1
           istwfk        1    0
              ixc     -116133
              kpt      0.00000000E+00  0.00000000E+00  0.00000000E+00
                       4.44444444E-01  4.44444444E-01 -4.44444444E-01
           kptopt           0
P           mkmem           2
P          mkqmem           2
P          mk1mem           2
            natom           8
            nband          57
           nbdbuf           4
            ngfft          80      80      80
             nkpt           2
            nstep        2000
             nsym           8
           ntypat           3
              occ      2.000000  2.000000  2.000000  2.000000  2.000000  2.000000
                       2.000000  2.000000  2.000000  2.000000  2.000000  2.000000
                       2.000000  2.000000  2.000000  2.000000  2.000000  2.000000
                       2.000000  2.000000  2.000000  2.000000  2.000000  2.000000
                       2.000000  2.000000  2.000000  2.000000  2.000000  2.000000
                       2.000000  2.000000  2.000000  2.000000  2.000000  2.000000
                       2.000000  2.000000  2.000000  2.000000  2.000000  2.000000
                       2.000000  2.000000  2.000000  2.000000  2.000000  2.000000
                       0.000000  0.000000  0.000000  0.000000  0.000000  0.000000
                       0.000000  0.000000  0.000000
        optdriver           1
            prtwf          -1
            rfdir           1       1       1
           rfelfd           2
            rprim      9.2884974942E+00  0.0000000000E+00 -8.3699435275E+00
                      -1.8393193585E+00  9.1045642399E+00 -8.3699435275E+00
                       0.0000000000E+00  0.0000000000E+00  1.2503285183E+01
          spgroup         122
           strten      0.0000000000E+00  0.0000000000E+00  0.0000000000E+00
                       0.0000000000E+00  0.0000000000E+00  0.0000000000E+00
           symrel      1  0  0   0  1  0   0  0  1      -1 -1 -1   0  0  1   0  1  0
                       0  1  0   1  0  0  -1 -1 -1       0  0  1  -1 -1 -1   1  0  0
                       0  1  0   1  0  0   0  0  1      -1 -1 -1   0  0  1   1  0  0
                       1  0  0   0  1  0  -1 -1 -1       0  0  1  -1 -1 -1   0  1  0
            tnons      0.0000000  0.0000000  0.0000000    -0.2500000  0.2500000  0.5000000
                       0.0000000 -0.0000000 -0.0000000    -0.2500000  0.2500000  0.5000000
                      -0.2500000  0.2500000  0.5000000     0.0000000 -0.0000000  0.0000000
                      -0.2500000  0.2500000  0.5000000    -0.0000000 -0.0000000 -0.0000000
           tolwfr      1.00000000E-20
            typat      1  1  2  2  3  3  3  3
           useylm           1
              wtk        0.50000    0.50000
           xangst      4.9882088112E-01  3.6134459174E+00 -1.1209565764E+00
                       1.9709676461E+00  2.4089639449E+00 -4.4291833519E+00
                       0.0000000000E+00  0.0000000000E+00  0.0000000000E+00
                       3.4431144110E+00  1.2044819725E+00 -1.1209565764E+00
                       3.9052617700E+00  1.9581648861E+00 -5.4677267258E+00
                       2.3092081530E+00  3.0112049312E+00 -2.2970048786E+00
                       1.0221573451E+00  4.0642449763E+00  1.0112218970E+00
                       6.4724331606E-01  6.0224098624E-01  2.2696834017E+00
            xcart      9.4263485468E-01  6.8284231799E+00 -2.1183009362E+00
                       3.7245890678E+00  4.5522821199E+00 -8.3699435275E+00
                       0.0000000000E+00  0.0000000000E+00  0.0000000000E+00
                       6.5065432810E+00  2.2761410600E+00 -2.1183009362E+00
                       7.3798752226E+00  3.7003953577E+00 -1.0332506081E+01
                       4.3637709931E+00  5.6903526499E+00 -4.3407101464E+00
                       1.9315974470E+00  7.6803099422E+00  1.9109324449E+00
                       1.2231126087E+00  1.1380705300E+00  4.2890800376E+00
             xred      2.5000000000E-01  7.5000000000E-01  5.0000000000E-01
                       5.0000000000E-01  5.0000000000E-01 -5.5511151231E-17
                       0.0000000000E+00  0.0000000000E+00  0.0000000000E+00
                       7.5000000000E-01  2.5000000000E-01  5.0000000000E-01
                       8.7500000000E-01  4.0643300000E-01  3.1433000000E-02
                       5.9356700000E-01  6.2500000000E-01  4.6856700000E-01
                       3.7500000000E-01  8.4356700000E-01  9.6856700000E-01
                       1.5643300000E-01  1.2500000000E-01  5.3143300000E-01
            znucl        4.00000   32.00000   33.00000

- Timing analysis has been suppressed with timopt=0

 Suggested references for the acknowledgment of ABINIT usage.

 Calculation completed.
.Delivered  14 WARNINGs and   9 COMMENTs to log file.