.Version 9.5.1 of ABINIT

 ABINIT is a project of the Universite Catholique de Louvain,
 Corning Inc. and other collaborators, see ~abinit/doc/developers/contributors.txt .
 acknowledgments of the ABINIT effort.

.Starting date : Tue 27 Apr 2021.
- ( at 15h32 )

- input  file    -> /scratch/users/j/a/jabreu/flow_simple/flow/w147/t1/run.abi
- output file    -> /scratch/users/j/a/jabreu/flow_simple/flow/w147/t1/run.abo
- root for input  files -> /scratch/users/j/a/jabreu/flow_simple/flow/w147/t1/indata/in
- root for output files -> /scratch/users/j/a/jabreu/flow_simple/flow/w147/t1/outdata/out

 Symmetries : space group Fm -3 m (#225); Bravais cF (face-center cubic)
     intxc =       0      iscf =       7    lmnmax =      32     lnmax =       8
     mgfft =      72  mpssoang =       4    mqgrid =    3001     natom =       3
  nloc_mem =       1    nspden =       1   nspinor =       1    nsppol =       1
      nsym =      48    n1xccc =    2501    ntypat =       2    occopt =       1
   xclevel =       2
-    mband =          26        mffmem =           1         mkmem =           2
-   mkqmem =           2        mk1mem =           2           mpw =       12976
      nfft =      373248          nkpt =           2
  Rough estimation (10% accuracy) of disk space for files :

------------- Echo of variables that govern the present computation ------------
-
- outvars: echo of selected default values
-   iomode0 =  0 , fftalg0 =512 , wfoptalg0 =  0
-
- outvars: echo of global parameters not present in the input file
-  max_nthreads =    0
-
 -outvars: echo values of preprocessed input variables --------
            acell      1.0000000000E+00  1.0000000000E+00  1.0000000000E+00 Bohr
              amu      1.32905430E+02  7.89600000E+01
             ecut      4.30000000E+01 Hartree
-          fftalg         512
           irdden           1
           irdwfk           1
           istwfk        1    1
              ixc     -116133
              kpt      5.00000000E-01  3.69778549E-32  5.00000000E-01
                       0.00000000E+00  0.00000000E+00  0.00000000E+00
           kptopt           0
P           mkmem           2
P          mkqmem           2
P          mk1mem           2
            natom           3
            nband          26
           nbdbuf           4
            ngfft          72      72      72
             nkpt           2
            nstep         100
             nsym          48
           ntypat           2
              occ      2.000000  2.000000  2.000000  2.000000  2.000000  2.000000
                       2.000000  2.000000  2.000000  2.000000  2.000000  2.000000
                       2.000000  2.000000  2.000000  2.000000  2.000000  0.000000
                       0.000000  0.000000  0.000000  0.000000  0.000000  0.000000
                       0.000000  0.000000
        optdriver           1
            prtwf          -1
            rfdir           1       1       1
           rfelfd           2
            rprim      9.5878572688E+00  0.0000000000E+00  5.5355519751E+00
                       3.1959524229E+00  9.0395185225E+00  5.5355519751E+00
                       0.0000000000E+00  0.0000000000E+00  1.1071103950E+01
          spgroup         225
           symrel      1  0  0   0  1  0   0  0  1      -1  0  0   0 -1  0   0  0 -1
                       0 -1  1   0 -1  0   1 -1  0       0  1 -1   0  1  0  -1  1  0
                      -1  0  0  -1  0  1  -1  1  0       1  0  0   1  0 -1   1 -1  0
                       0  1 -1   1  0 -1   0  0 -1       0 -1  1  -1  0  1   0  0  1
                      -1  0  0  -1  1  0  -1  0  1       1  0  0   1 -1  0   1  0 -1
                       0 -1  1   1 -1  0   0 -1  0       0  1 -1  -1  1  0   0  1  0
                       1  0  0   0  0  1   0  1  0      -1  0  0   0  0 -1   0 -1  0
                       0  1 -1   0  0 -1   1  0 -1       0 -1  1   0  0  1  -1  0  1
                      -1  0  1  -1  1  0  -1  0  0       1  0 -1   1 -1  0   1  0  0
                       0 -1  0   1 -1  0   0 -1  1       0  1  0  -1  1  0   0  1 -1
                       1  0 -1   0  0 -1   0  1 -1      -1  0  1   0  0  1   0 -1  1
                       0  1  0   0  0  1   1  0  0       0 -1  0   0  0 -1  -1  0  0
                       1  0 -1   0  1 -1   0  0 -1      -1  0  1   0 -1  1   0  0  1
                       0 -1  0   0 -1  1   1 -1  0       0  1  0   0  1 -1  -1  1  0
                      -1  0  1  -1  0  0  -1  1  0       1  0 -1   1  0  0   1 -1  0
                       0  1  0   1  0  0   0  0  1       0 -1  0  -1  0  0   0  0 -1
                       0  0 -1   0  1 -1   1  0 -1       0  0  1   0 -1  1  -1  0  1
                       1 -1  0   0 -1  1   0 -1  0      -1  1  0   0  1 -1   0  1  0
                       0  0  1   1  0  0   0  1  0       0  0 -1  -1  0  0   0 -1  0
                      -1  1  0  -1  0  0  -1  0  1       1 -1  0   1  0  0   1  0 -1
                       0  0  1   0  1  0   1  0  0       0  0 -1   0 -1  0  -1  0  0
                       1 -1  0   0 -1  0   0 -1  1      -1  1  0   0  1  0   0  1 -1
                       0  0 -1   1  0 -1   0  1 -1       0  0  1  -1  0  1   0 -1  1
                      -1  1  0  -1  0  1  -1  0  0       1 -1  0   1  0 -1   1  0  0
           tolwfr      1.00000000E-20
            typat      1  1  2
           useylm           1
              wtk        0.50000    0.50000
           xangst      5.0736755458E+00  3.5876303841E+00  8.7878638266E+00
                       1.6912251819E+00  1.1958767947E+00  2.9292879422E+00
                       0.0000000000E+00  0.0000000000E+00  0.0000000000E+00
            xcart      9.5878572688E+00  6.7796388919E+00  1.6606655925E+01
                       3.1959524229E+00  2.2598796306E+00  5.5355519751E+00
                       0.0000000000E+00  0.0000000000E+00  0.0000000000E+00
             xred      7.5000000000E-01  7.5000000000E-01  7.5000000000E-01
                       2.5000000000E-01  2.5000000000E-01  2.5000000000E-01
                       0.0000000000E+00  0.0000000000E+00  0.0000000000E+00
            znucl       55.00000   34.00000

 chkinp: Checking input parameters for consistency.

== DATASET  1 ==================================================================
-   mpi_nproc: 1, omp_nthreads: -1 (-1 if OMP is not activated)

--- !DatasetInfo
iteration_state: {dtset: 1, }
dimensions: {natom: 3, nkpt: 2, mband: 26, nsppol: 1, nspinor: 1, nspden: 1, mpw: 12976, }
cutoff_energies: {ecut:  43.0, pawecutdg:  -1.0, }
electrons: {nelect:   3.40000000E+01, charge:   0.00000000E+00, occopt:   1.00000000E+00, tsmear:   1.00000000E-02, }
meta: {optdriver: 1, rfelfd: 2, }
...

 Real(R)+Recip(G) space primitive vectors, cartesian coordinates (Bohr,Bohr^-1):
 R(1)=  9.5878573  0.0000000  5.5355520  G(1)=  0.1042986 -0.0368751  0.0000000
 R(2)=  3.1959524  9.0395185  5.5355520  G(2)=  0.0000000  0.1106254  0.0000000
 R(3)=  0.0000000  0.0000000 11.0711040  G(3)= -0.0521493 -0.0368751  0.0903252
 Unit cell volume ucvol=  9.5952830E+02 bohr^3
 Angles (23,13,12)=  6.00000000E+01  6.00000000E+01  6.00000000E+01 degrees

 getcut: wavevector=  0.0000  0.0000  0.0000  ngfft=  72  72  72
         ecut(hartree)=     43.000   => boxcut(ratio)=   2.20314

 getcut : COMMENT -
  Note that boxcut > 2.2 ; recall that boxcut=Gcut(box)/Gcut(sphere) = 2
  is sufficient for exact treatment of convolution.
  Such a large boxcut is a waste : you could raise ecut
  e.g. ecut=   52.178657 Hartrees makes boxcut=2

--- Pseudopotential description ------------------------------------------------
- pspini: atom type   1  psp file is /scratch/users/j/a/jabreu/pseudos/PBEsol/Cs.psp8
- pspatm: opening atomic psp file    /scratch/users/j/a/jabreu/pseudos/PBEsol/Cs.psp8
- Cs    ONCVPSP-3.3.0  r_core=   2.27353   1.85623   2.01788   1.90105
- 55.00000   9.00000    180112                znucl, zion, pspdat
    8 -116133    3    4       600   0.00000   pspcod,pspxc,lmax,lloc,mmax,r2well
    5.99000000000000    5.00000000000000    0.00000000000000   rchrg,fchrg,qchrg
     nproj     2     2     2     2
     extension_switch     1
  pspatm : epsatm=   22.12462445
         --- l  ekb(1:nproj) -->
             0    6.214110    0.767882
             1    6.311966    0.793598
             2    3.769790    0.913105
             3   -9.247129   -2.432478
 pspatm: atomic psp has been read  and splines computed

- pspini: atom type   2  psp file is /scratch/users/j/a/jabreu/pseudos/PBEsol/Se.psp8
- pspatm: opening atomic psp file    /scratch/users/j/a/jabreu/pseudos/PBEsol/Se.psp8
- Se    ONCVPSP-3.3.0  r_core=   1.81943   1.50330   1.90835
- 34.00000  16.00000    180112                znucl, zion, pspdat
    8 -116133    2    4       600   0.00000   pspcod,pspxc,lmax,lloc,mmax,r2well
    5.99000000000000    5.00000000000000    0.00000000000000   rchrg,fchrg,qchrg
     nproj     2     2     2
     extension_switch     1
  pspatm : epsatm=   29.17862020
         --- l  ekb(1:nproj) -->
             0    8.973804    1.019550
             1    6.849857    1.297308
             2   -9.203962   -3.731027
 pspatm: atomic psp has been read  and splines computed

   2.49654755E+03                                ecore*ucvol(ha*bohr**3)

-inwffil : will read wavefunctions from disk file /scratch/users/j/a/jabreu/flow_simple/flow/w147/t1/indata/in_WFK

 ==>  initialize data related to q vector <==

 The list of irreducible perturbations for this q vector is:
    1)    idir= 1    ipert=   4
    2)    idir= 2    ipert=   4
    3)    idir= 3    ipert=   4

 Perturbation wavevector (in red.coord.)   0.000000  0.000000  0.000000
 Perturbation : derivative vs k along direction   1

 dfpt_looppert : COMMENT -
  In a d/dk calculation, iscf is set to -3 automatically.
 The set of symmetries contains only one element for this perturbation.
 symkpt : not enough symmetry to change the number of k points.

[...]

 Initialisation of the first-order wave-functions :
  ireadwf=   0

--- !BeginCycle
iteration_state: {dtset: 1, }
solver: {iscf: 7, nstep: 100, nline: 4, wfoptalg: 0, }
tolerances: {tolwfr: 1.00E-20, }
...

     iter   2DEtotal(Ha)        deltaE(Ha) residm    vres2
-ETOT  1  -29.907816759105     -2.991E+01 1.081E-01 0.000E+00
 ETOT  2  -29.932844270510     -2.503E-02 2.861E-02 0.000E+00
 ETOT  3  -29.933806596666     -9.623E-04 4.431E-03 0.000E+00
 ETOT  4  -29.933906660794     -1.001E-04 1.748E-03 0.000E+00
 ETOT  5  -29.933918691981     -1.203E-05 3.177E-04 0.000E+00
 ETOT  6  -29.933920255790     -1.564E-06 1.220E-04 0.000E+00
 ETOT  7  -29.933920469993     -2.142E-07 2.345E-05 0.000E+00
 ETOT  8  -29.933920500244     -3.025E-08 8.815E-06 0.000E+00
 ETOT  9  -29.933920504612     -4.368E-09 1.745E-06 0.000E+00
 ETOT 10  -29.933920505254     -6.416E-10 6.427E-07 0.000E+00
 ETOT 11  -29.933920505349     -9.560E-11 1.306E-07 0.000E+00
 ETOT 12  -29.933920505364     -1.444E-11 4.707E-08 0.000E+00
 ETOT 13  -29.933920505366     -2.224E-12 9.810E-09 0.000E+00
 ETOT 14  -29.933920505366     -3.020E-13 3.458E-09 0.000E+00
 ETOT 15  -29.933920505366     -7.105E-14 7.381E-10 0.000E+00
 ETOT 16  -29.933920505366     -3.197E-14 2.548E-10 0.000E+00
[...]
 kpt#   1, nband= 26, wtk=  0.50000, kpt=  0.5000  0.0000  0.5000 (reduced coord)
   0.00000   -0.00000   -0.00000   -0.00000   -0.00000   -0.00000    0.00000   -0.00000
   0.00000    0.00000   -0.00000    0.00000    0.00000   -0.00000   -0.00000   -0.00000
  -0.00000   -0.00000   -0.00000   -0.00000   -0.00000    0.00000    0.00000    0.00000
   0.00000    0.00000
 prteigrs : prtvol=0 or 1, do not print more k-points.

 Eight components of 2nd-order total energy (hartree) are
 1,2,3: 0th-order hamiltonian combined with 1st-order wavefunctions
     kin0=   2.66837069E+01 eigvalue=   4.39809966E+00  local=  -1.24818857E+01
 4,5,6: 1st-order hamiltonian combined with 1st and 0th-order wfs
     kin1=  -3.29101877E+01  Hartree=   0.00000000E+00     xc=   0.00000000E+00
 7,8,9: eventually, occupation + non-local contributions
    edocc=   7.50767093E+00     enl0=   3.82632873E+00   enl1=  -2.69576534E+01
 1-9 gives the relaxation energy (to be shifted if some occ is /=2.0)
   erelax=  -2.99339205E+01
  No Ewald or frozen-wf contrib.: the relaxation energy is the total one
 2DEtotal=   -0.2993392051E+02 Ha. Also 2DEtotal=   -0.814543401306E+03 eV
    (  non-var. 2DEtotal :   -2.9933920505E+01 Ha)

 Perturbation wavevector (in red.coord.)   0.000000  0.000000  0.000000
 Perturbation : derivative vs k along direction   2
 The set of symmetries contains only one element for this perturbation.
 symkpt : not enough symmetry to change the number of k points.

[...]

 Perturbation wavevector (in red.coord.)   0.000000  0.000000  0.000000
 Perturbation : derivative vs k along direction   3
 The set of symmetries contains only one element for this perturbation.
 symkpt : not enough symmetry to change the number of k points.

-inwffil : will read wavefunctions from disk file /scratch/users/j/a/jabreu/flow_simple/flow/w147/t1/indata/in_WFK

 Initialisation of the first-order wave-functions :
  ireadwf=   0

--- !BeginCycle
iteration_state: {dtset: 1, }
solver: {iscf: 7, nstep: 100, nline: 4, wfoptalg: 0, }
tolerances: {tolwfr: 1.00E-20, }
...

     iter   2DEtotal(Ha)        deltaE(Ha) residm    vres2
-ETOT  1  -29.906498016780     -2.991E+01 1.081E-01 0.000E+00
 ETOT  2  -29.932822948240     -2.632E-02 2.861E-02 0.000E+00
 ETOT  3  -29.933808128086     -9.852E-04 4.431E-03 0.000E+00
 ETOT  4  -29.933906816894     -9.869E-05 1.748E-03 0.000E+00
 ETOT  5  -29.933918690010     -1.187E-05 3.177E-04 0.000E+00
 ETOT  6  -29.933920253397     -1.563E-06 1.220E-04 0.000E+00
 ETOT  7  -29.933920470142     -2.167E-07 2.345E-05 0.000E+00
 ETOT  8  -29.933920500981     -3.084E-08 8.815E-06 0.000E+00
 ETOT  9  -29.933920505449     -4.468E-09 1.745E-06 0.000E+00
 ETOT 10  -29.933920506106     -6.566E-10 6.427E-07 0.000E+00
 ETOT 11  -29.933920506203     -9.770E-11 1.306E-07 0.000E+00
 ETOT 12  -29.933920506218     -1.470E-11 4.707E-08 0.000E+00
 ETOT 13  -29.933920506220     -2.238E-12 9.810E-09 0.000E+00
 ETOT 14  -29.933920506221     -3.162E-13 3.458E-09 0.000E+00
 ETOT 15  -29.933920506221     -9.948E-14 7.381E-10 0.000E+00
 ETOT 16  -29.933920506221      0.000E+00 2.548E-10 0.000E+00
 ETOT 17  -29.933920506221      3.553E-15 5.559E-11 0.000E+00
 ETOT 18  -29.933920506221      0.000E+00 1.881E-11 0.000E+00
 ETOT 19  -29.933920506221      0.000E+00 4.188E-12 0.000E+00
 ETOT 20  -29.933920506221     -2.132E-14 1.391E-12 0.000E+00
 ETOT 21  -29.933920506221      1.421E-14 3.155E-13 0.000E+00
 ETOT 22  -29.933920506221      1.066E-14 1.030E-13 0.000E+00
 ETOT 23  -29.933920506221     -3.553E-15 2.376E-14 0.000E+00
 ETOT 24  -29.933920506221     -7.105E-15 7.637E-15 0.000E+00
 ETOT 25  -29.933920506221      7.105E-15 1.788E-15 0.000E+00
 ETOT 26  -29.933920506221      0.000E+00 5.669E-16 0.000E+00
 ETOT 27  -29.933920506221      0.000E+00 1.345E-16 0.000E+00
 ETOT 28  -29.933920506221     -3.553E-15 4.213E-17 0.000E+00
 ETOT 29  -29.933920506221      0.000E+00 1.011E-17 0.000E+00
 ETOT 30  -29.933920506221     -3.553E-15 3.133E-18 0.000E+00
 ETOT 31  -29.933920506221      7.105E-15 7.597E-19 0.000E+00
 ETOT 32  -29.933920506221      0.000E+00 2.332E-19 0.000E+00
 ETOT 33  -29.933920506221     -3.553E-15 5.705E-20 0.000E+00
 ETOT 34  -29.933920506221      0.000E+00 1.737E-20 0.000E+00
 ETOT 35  -29.933920506221      0.000E+00 9.618E-21 0.000E+00

 At SCF step   35   max residual=  9.62E-21 < tolwfr=  1.00E-20 =>converged.

 ----iterations are completed or convergence reached----

 dfpt_looppert: DFPT cycle converged with prtwf=-1. Will skip output of the 1st-order WFK file.
 dfpt_looppert : ek2=    3.2853228285E+01
          f-sum rule ratio=    1.0017337527E+00
 prteigrs : about to open file /scratch/users/j/a/jabreu/flow_simple/flow/w147/t1/tmpdata/tmp_1WF1_EIG
 Expectation of eigenvalue derivatives (hartree) for nkpt=   2  k points:
  (in case of degenerate eigenvalues, averaged derivative)
 kpt#   1, nband= 26, wtk=  0.50000, kpt=  0.5000  0.0000  0.5000 (reduced coord)
   0.00000    0.00000    0.00000   -0.00000   -0.00000   -0.00000   -0.00000   -0.00000
   0.00000    0.00000   -0.00000   -0.00000   -0.00000   -0.00000   -0.00000    0.00000
   0.00000   -0.00000    0.00000   -0.00000    0.00000   -0.00000   -0.00000    0.00000
   0.00000    0.00000
 prteigrs : prtvol=0 or 1, do not print more k-points.

 Eight components of 2nd-order total energy (hartree) are
 1,2,3: 0th-order hamiltonian combined with 1st-order wavefunctions
     kin0=   2.66837069E+01 eigvalue=   4.39809967E+00  local=  -1.24818857E+01
 4,5,6: 1st-order hamiltonian combined with 1st and 0th-order wfs
     kin1=  -3.29101877E+01  Hartree=   0.00000000E+00     xc=   0.00000000E+00
 7,8,9: eventually, occupation + non-local contributions
    edocc=   7.50767092E+00     enl0=   3.82632873E+00   enl1=  -2.69576534E+01
 1-9 gives the relaxation energy (to be shifted if some occ is /=2.0)
   erelax=  -2.99339205E+01
  No Ewald or frozen-wf contrib.: the relaxation energy is the total one
 2DEtotal=   -0.2993392051E+02 Ha. Also 2DEtotal=   -0.814543401330E+03 eV
    (  non-var. 2DEtotal :   -2.9933920506E+01 Ha)

 CALCULATION OF EFFECTIVE MASSES
 NOTE : Additional infos (eff. mass eigenvalues, eigenvectors and, if degenerate, average mass) are available in stdout.

 COMMENTS:
 - At k-point ( 0.500, 0.000, 0.500), bands    16 through    17
   are DEGENERATE (effective mass tensor is therefore not defined).
   See Section IIIB Eqs. (67)-(70) and Appendix E of PRB 93 205147 (2016).
 - Angular average effective mass for Frohlich model is to be averaged over degenerate bands. See later.
 - Associated theta integrals calculated with ntheta=   1000 points.

 K-point ( 0.500, 0.000, 0.500) | band =    16
 Transport equivalent effective mass tensor:
             -1.5006813702              0.0415822255             -0.0509276161
              0.0415822255             -1.5300844408              0.0720225227
             -0.0509276161              0.0720225227             -1.5594875087
 Transport equivalent effective mass tensor eigenvalues:
             -1.6476967285             -1.4712782957             -1.4712782955
 Angular average effective mass 1/(<1/m>)=  -1.4433417150
 Angular average effective mass for Frohlich model (<m**0.5>)**2=  -1.4492544228
 Effective masses along directions: (cart. coord. / red. coord. -> eff. mass)
    1:   1.000000  0.000000  0.000000 /   0.948683  0.316228  0.000000 ->  -1.4522833212
    2:   0.000000  1.000000  0.000000 /   0.000000  1.000000  0.000000 ->  -1.6075682312
    3:   0.000000  0.000000  1.000000 /   0.408248  0.408248  0.816497 ->  -1.3777370686
    4:   0.577350  0.577350  0.577350 /   0.585539  0.688047  0.428644 ->  -1.5198589341
    5:   0.000000  0.707107  0.707107 /   0.289489  0.762222  0.578977 ->  -1.4078800769
    6:   0.707107  0.000000  0.707107 /   0.731423  0.422287  0.535439 ->  -1.4597381598
    7:   0.707107  0.707107  0.000000 /   0.616798  0.787122  0.000000 ->  -1.2695743237

 K-point ( 0.500, 0.000, 0.500) | band =    17
 Transport equivalent effective mass tensor:
             -5.0978625446             -0.7185741367              0.8800699801
             -0.7185741367             -4.5897539032             -1.2446068993
              0.8800699801             -1.2446068993             -4.0816452654
 Transport equivalent effective mass tensor eigenvalues:
             -5.6059711907             -5.6059711791             -2.5573193434
 Angular average effective mass 1/(<1/m>)=  -2.6074137490
 Angular average effective mass for Frohlich model (<m**0.5>)**2=  -2.8644876816
 Effective masses along directions: (cart. coord. / red. coord. -> eff. mass)
    1:   1.000000  0.000000  0.000000 /   0.948683  0.316228  0.000000 ->  -3.0328977458
    2:   0.000000  1.000000  0.000000 /   0.000000  1.000000  0.000000 ->  -2.2011845722
    3:   0.000000  0.000000  1.000000 /   0.408248  0.408248  0.816497 ->  -2.4473790037
    4:   0.577350  0.577350  0.577350 /   0.585539  0.688047  0.428644 ->  -2.9772587583
    5:   0.000000  0.707107  0.707107 /   0.289489  0.762222  0.578977 ->  -3.9546943144
    6:   0.707107  0.000000  0.707107 /   0.731423  0.422287  0.535439 ->  -2.0329996282
    7:   0.707107  0.707107  0.000000 /   0.616798  0.787122  0.000000 ->  -5.6327012141

 Angular average effective mass for Frohlich model, averaged over degenerate bands.
 Value of     (<<m**0.5>>)**2 =     2.097181E+00
 Absolute Value of <<m**0.5>> =     1.448165E+00

 K-point ( 0.000, 0.000, 0.000) | band =    18
 Effective mass tensor:
              0.3232341973              0.0000000000             -0.0000000000
              0.0000000000              0.3232341973             -0.0000000000
             -0.0000000000             -0.0000000000              0.3232341973
 Effective mass tensor eigenvalues:
              0.3232341973              0.3232341973              0.3232341973
 Angular average effective mass 1/(<1/m>)=   0.3232341973
 Angular average effective mass for Frohlich model (<m**0.5>)**2=   0.3232341973
 Effective masses along directions: (cart. coord. / red. coord. -> eff. mass)
    1:   1.000000  0.000000  0.000000 /   0.948683  0.316228  0.000000 ->   0.3232341973
    2:   0.000000  1.000000  0.000000 /   0.000000  1.000000  0.000000 ->   0.3232341973
    3:   0.000000  0.000000  1.000000 /   0.408248  0.408248  0.816497 ->   0.3232341973
    4:   0.577350  0.577350  0.577350 /   0.585539  0.688047  0.428644 ->   0.3232341973
    5:   0.000000  0.707107  0.707107 /   0.289489  0.762222  0.578977 ->   0.3232341973
    6:   0.707107  0.000000  0.707107 /   0.731423  0.422287  0.535439 ->   0.3232341973
    7:   0.707107  0.707107  0.000000 /   0.616798  0.787122  0.000000 ->   0.3232341973

 END OF EFFECTIVE MASSES SECTION

 ---- first-order wavefunction calculations are completed ----

 Total localisation tensor (bohr^2) in cartesian coordinates
  WARNING : still subject to testing - especially symmetries.
      direction              matrix element
   alpha     beta       real part   imaginary part
     1        1       1.4803055734    0.0000000000
     1        2       0.4186936438    0.0000000000
     1        3       1.0255857856    0.0000000000
     2        1       0.4186936438    0.0000000000
     2        2       1.1842444590    0.0000000000
     2        3       0.7251986638    0.0000000000
     3        1       1.0255857856    0.0000000000
     3        2       0.7251986638    0.0000000000
     3        3       2.6645500321    0.0000000000

 respfn : d/dk was computed, but no 2DTE, so no DDB output.

== END DATASET(S) ==============================================================

 -outvars: echo values of variables after computation  --------
            acell      1.0000000000E+00  1.0000000000E+00  1.0000000000E+00 Bohr
              amu      1.32905430E+02  7.89600000E+01
             ecut      4.30000000E+01 Hartree
           etotal     -2.9933920506E+01
            fcart      0.0000000000E+00  0.0000000000E+00  0.0000000000E+00
                       0.0000000000E+00  0.0000000000E+00  0.0000000000E+00
                       0.0000000000E+00  0.0000000000E+00  0.0000000000E+00
-          fftalg         512
           irdden           1
           irdwfk           1
           istwfk        1    1
              ixc     -116133
              kpt      5.00000000E-01  3.69778549E-32  5.00000000E-01
                       0.00000000E+00  0.00000000E+00  0.00000000E+00
           kptopt           0
P           mkmem           2
P          mkqmem           2
P          mk1mem           2
            natom           3
            nband          26
           nbdbuf           4
            ngfft          72      72      72
             nkpt           2
            nstep         100
             nsym          48
           ntypat           2
              occ      2.000000  2.000000  2.000000  2.000000  2.000000  2.000000
                       2.000000  2.000000  2.000000  2.000000  2.000000  2.000000
                       2.000000  2.000000  2.000000  2.000000  2.000000  0.000000
                       0.000000  0.000000  0.000000  0.000000  0.000000  0.000000
                       0.000000  0.000000
        optdriver           1
            prtwf          -1
            rfdir           1       1       1
           rfelfd           2
            rprim      9.5878572688E+00  0.0000000000E+00  5.5355519751E+00
                       3.1959524229E+00  9.0395185225E+00  5.5355519751E+00
                       0.0000000000E+00  0.0000000000E+00  1.1071103950E+01
          spgroup         225
           strten      0.0000000000E+00  0.0000000000E+00  0.0000000000E+00
                       0.0000000000E+00  0.0000000000E+00  0.0000000000E+00
           symrel      1  0  0   0  1  0   0  0  1      -1  0  0   0 -1  0   0  0 -1
                       0 -1  1   0 -1  0   1 -1  0       0  1 -1   0  1  0  -1  1  0
                      -1  0  0  -1  0  1  -1  1  0       1  0  0   1  0 -1   1 -1  0
                       0  1 -1   1  0 -1   0  0 -1       0 -1  1  -1  0  1   0  0  1
                      -1  0  0  -1  1  0  -1  0  1       1  0  0   1 -1  0   1  0 -1
                       0 -1  1   1 -1  0   0 -1  0       0  1 -1  -1  1  0   0  1  0
                       1  0  0   0  0  1   0  1  0      -1  0  0   0  0 -1   0 -1  0
                       0  1 -1   0  0 -1   1  0 -1       0 -1  1   0  0  1  -1  0  1
                      -1  0  1  -1  1  0  -1  0  0       1  0 -1   1 -1  0   1  0  0
                       0 -1  0   1 -1  0   0 -1  1       0  1  0  -1  1  0   0  1 -1
                       1  0 -1   0  0 -1   0  1 -1      -1  0  1   0  0  1   0 -1  1
                       0  1  0   0  0  1   1  0  0       0 -1  0   0  0 -1  -1  0  0
                       1  0 -1   0  1 -1   0  0 -1      -1  0  1   0 -1  1   0  0  1
                       0 -1  0   0 -1  1   1 -1  0       0  1  0   0  1 -1  -1  1  0
                      -1  0  1  -1  0  0  -1  1  0       1  0 -1   1  0  0   1 -1  0
                       0  1  0   1  0  0   0  0  1       0 -1  0  -1  0  0   0  0 -1
                       0  0 -1   0  1 -1   1  0 -1       0  0  1   0 -1  1  -1  0  1
                       1 -1  0   0 -1  1   0 -1  0      -1  1  0   0  1 -1   0  1  0
                       0  0  1   1  0  0   0  1  0       0  0 -1  -1  0  0   0 -1  0
                      -1  1  0  -1  0  0  -1  0  1       1 -1  0   1  0  0   1  0 -1
                       0  0  1   0  1  0   1  0  0       0  0 -1   0 -1  0  -1  0  0
                       1 -1  0   0 -1  0   0 -1  1      -1  1  0   0  1  0   0  1 -1
                       0  0 -1   1  0 -1   0  1 -1       0  0  1  -1  0  1   0 -1  1
                      -1  1  0  -1  0  1  -1  0  0       1 -1  0   1  0 -1   1  0  0
           tolwfr      1.00000000E-20
            typat      1  1  2
           useylm           1
              wtk        0.50000    0.50000
           xangst      5.0736755458E+00  3.5876303841E+00  8.7878638266E+00
                       1.6912251819E+00  1.1958767947E+00  2.9292879422E+00
                       0.0000000000E+00  0.0000000000E+00  0.0000000000E+00
            xcart      9.5878572688E+00  6.7796388919E+00  1.6606655925E+01
                       3.1959524229E+00  2.2598796306E+00  5.5355519751E+00
                       0.0000000000E+00  0.0000000000E+00  0.0000000000E+00
             xred      7.5000000000E-01  7.5000000000E-01  7.5000000000E-01
                       2.5000000000E-01  2.5000000000E-01  2.5000000000E-01
                       0.0000000000E+00  0.0000000000E+00  0.0000000000E+00
            znucl       55.00000   34.00000

- Timing analysis has been suppressed with timopt=0

 Suggested references for the acknowledgment of ABINIT usage.

 Calculation completed.
.Delivered  14 WARNINGs and  15 COMMENTs to log file.