.Version 9.5.1 of ABINIT

 ABINIT is a project of the Universite Catholique de Louvain,
 Corning Inc. and other collaborators, see ~abinit/doc/developers/contributors.txt .
 acknowledgments of the ABINIT effort.

.Starting date : Tue 27 Apr 2021.
- ( at 15h33 )

- input  file    -> /scratch/users/j/a/jabreu/flow_simple/flow/w156/t1/run.abi
- output file    -> /scratch/users/j/a/jabreu/flow_simple/flow/w156/t1/run.abo
- root for input  files -> /scratch/users/j/a/jabreu/flow_simple/flow/w156/t1/indata/in
- root for output files -> /scratch/users/j/a/jabreu/flow_simple/flow/w156/t1/outdata/out

 Symmetries : space group Fm -3 m (#225); Bravais cF (face-center cubic)
     intxc =       0      iscf =       7    lmnmax =      18     lnmax =       6
     mgfft =      45  mpssoang =       3    mqgrid =    3001     natom =       3
  nloc_mem =       1    nspden =       1   nspinor =       1    nsppol =       1
      nsym =      48    n1xccc =    2501    ntypat =       2    occopt =       1
   xclevel =       2
-    mband =          15        mffmem =           1         mkmem =           2
-   mkqmem =           2        mk1mem =           2           mpw =        3306
      nfft =       91125          nkpt =           2
  Rough estimation (10% accuracy) of disk space for files :

------------- Echo of variables that govern the present computation ------------
-
- outvars: echo of selected default values
-   iomode0 =  0 , fftalg0 =512 , wfoptalg0 =  0
-
- outvars: echo of global parameters not present in the input file
-  max_nthreads =    0
-
 -outvars: echo values of preprocessed input variables --------
            acell      1.0000000000E+00  1.0000000000E+00  1.0000000000E+00 Bohr
              amu      6.94100000E+00  3.20660000E+01
             ecut      3.70000000E+01 Hartree
-          fftalg         512
           irdden           1
           irdwfk           1
           istwfk        1    1
              ixc     -116133
              kpt      0.00000000E+00  0.00000000E+00  0.00000000E+00
                       5.00000000E-01  0.00000000E+00  5.00000000E-01
           kptopt           0
P           mkmem           2
P          mkqmem           2
P          mk1mem           2
            natom           3
            nband          15
           nbdbuf           4
            ngfft          45      45      45
             nkpt           2
            nstep         100
             nsym          48
           ntypat           2
              occ      2.000000  2.000000  2.000000  2.000000  2.000000  2.000000
                       0.000000  0.000000  0.000000  0.000000  0.000000  0.000000
                       0.000000  0.000000  0.000000
        optdriver           1
            prtwf          -1
            rfdir           1       1       1
           rfelfd           2
            rprim      6.5441051478E+00  0.0000000000E+00  3.7782408687E+00
                       2.1813683826E+00  6.1698415024E+00  3.7782408687E+00
                       0.0000000000E+00  0.0000000000E+00  7.5564817373E+00
          spgroup         225
           symrel      1  0  0   0  1  0   0  0  1      -1  0  0   0 -1  0   0  0 -1
                       0 -1  1   0 -1  0   1 -1  0       0  1 -1   0  1  0  -1  1  0
                      -1  0  0  -1  0  1  -1  1  0       1  0  0   1  0 -1   1 -1  0
                       0  1 -1   1  0 -1   0  0 -1       0 -1  1  -1  0  1   0  0  1
                      -1  0  0  -1  1  0  -1  0  1       1  0  0   1 -1  0   1  0 -1
                       0 -1  1   1 -1  0   0 -1  0       0  1 -1  -1  1  0   0  1  0
                       1  0  0   0  0  1   0  1  0      -1  0  0   0  0 -1   0 -1  0
                       0  1 -1   0  0 -1   1  0 -1       0 -1  1   0  0  1  -1  0  1
                      -1  0  1  -1  1  0  -1  0  0       1  0 -1   1 -1  0   1  0  0
                       0 -1  0   1 -1  0   0 -1  1       0  1  0  -1  1  0   0  1 -1
                       1  0 -1   0  0 -1   0  1 -1      -1  0  1   0  0  1   0 -1  1
                       0  1  0   0  0  1   1  0  0       0 -1  0   0  0 -1  -1  0  0
                       1  0 -1   0  1 -1   0  0 -1      -1  0  1   0 -1  1   0  0  1
                       0 -1  0   0 -1  1   1 -1  0       0  1  0   0  1 -1  -1  1  0
                      -1  0  1  -1  0  0  -1  1  0       1  0 -1   1  0  0   1 -1  0
                       0  1  0   1  0  0   0  0  1       0 -1  0  -1  0  0   0  0 -1
                       0  0 -1   0  1 -1   1  0 -1       0  0  1   0 -1  1  -1  0  1
                       1 -1  0   0 -1  1   0 -1  0      -1  1  0   0  1 -1   0  1  0
                       0  0  1   1  0  0   0  1  0       0  0 -1  -1  0  0   0 -1  0
                      -1  1  0  -1  0  0  -1  0  1       1 -1  0   1  0  0   1  0 -1
                       0  0  1   0  1  0   1  0  0       0  0 -1   0 -1  0  -1  0  0
                       1 -1  0   0 -1  0   0 -1  1      -1  1  0   0  1  0   0  1 -1
                       0  0 -1   1  0 -1   0  1 -1       0  0  1  -1  0  1   0 -1  1
                      -1  1  0  -1  0  1  -1  0  0       1 -1  0   1  0 -1   1  0  0
           tolwfr      1.00000000E-20
            typat      1  1  2
           useylm           1
              wtk        0.50000    0.50000
           xangst      1.1543304316E+00  8.1623487592E-01  1.9993589563E+00
                       3.4629912948E+00  2.4487046278E+00  5.9980768688E+00
                       0.0000000000E+00  0.0000000000E+00  0.0000000000E+00
            xcart      2.1813683826E+00  1.5424603756E+00  3.7782408687E+00
                       6.5441051478E+00  4.6273811268E+00  1.1334722606E+01
                       0.0000000000E+00  0.0000000000E+00  0.0000000000E+00
             xred      2.5000000000E-01  2.5000000000E-01  2.5000000000E-01
                       7.5000000000E-01  7.5000000000E-01  7.5000000000E-01
                       0.0000000000E+00  0.0000000000E+00  0.0000000000E+00
            znucl        3.00000   16.00000

 chkinp: Checking input parameters for consistency.

== DATASET  1 ==================================================================
-   mpi_nproc: 1, omp_nthreads: -1 (-1 if OMP is not activated)

--- !DatasetInfo
iteration_state: {dtset: 1, }
dimensions: {natom: 3, nkpt: 2, mband: 15, nsppol: 1, nspinor: 1, nspden: 1, mpw: 3306, }
cutoff_energies: {ecut:  37.0, pawecutdg:  -1.0, }
electrons: {nelect:   1.20000000E+01, charge:   0.00000000E+00, occopt:   1.00000000E+00, tsmear:   1.00000000E-02, }
meta: {optdriver: 1, rfelfd: 2, }
...

 Real(R)+Recip(G) space primitive vectors, cartesian coordinates (Bohr,Bohr^-1):
 R(1)=  6.5441051  0.0000000  3.7782409  G(1)=  0.1528093 -0.0540262  0.0000000
 R(2)=  2.1813684  6.1698415  3.7782409  G(2)=  0.0000000  0.1620787  0.0000000
 R(3)=  0.0000000  0.0000000  7.5564817  G(3)= -0.0764046 -0.0540262  0.1323367
 Unit cell volume ucvol=  3.0510120E+02 bohr^3
 Angles (23,13,12)=  6.00000000E+01  6.00000000E+01  6.00000000E+01 degrees

 getcut: wavevector=  0.0000  0.0000  0.0000  ngfft=  45  45  45
         ecut(hartree)=     37.000   => boxcut(ratio)=   2.12651

--- Pseudopotential description ------------------------------------------------
- pspini: atom type   1  psp file is /scratch/users/j/a/jabreu/pseudos/PBEsol/Li.psp8
- pspatm: opening atomic psp file    /scratch/users/j/a/jabreu/pseudos/PBEsol/Li.psp8
- Li    ONCVPSP-3.3.0  r_core=   1.40824   1.10935
-  3.00000   3.00000    180112                znucl, zion, pspdat
    8 -116133    1    4       400   0.00000   pspcod,pspxc,lmax,lloc,mmax,r2well
    3.99000000000000    0.00000000000000    0.00000000000000   rchrg,fchrg,qchrg
     nproj     2     2
     extension_switch     1
  pspatm : epsatm=    2.60859637
         --- l  ekb(1:nproj) -->
             0   -4.855856   -1.482423
             1   -2.171544   -0.427615
 pspatm: atomic psp has been read  and splines computed

- pspini: atom type   2  psp file is /scratch/users/j/a/jabreu/pseudos/PBEsol/S.psp8
- pspatm: opening atomic psp file    /scratch/users/j/a/jabreu/pseudos/PBEsol/S.psp8
- S     ONCVPSP-3.3.0  r_core=   1.45376   1.45376   1.61851
- 16.00000   6.00000    180112                znucl, zion, pspdat
    8 -116133    2    4       600   0.00000   pspcod,pspxc,lmax,lloc,mmax,r2well
    5.99000000000000    6.00000000000000    0.00000000000000   rchrg,fchrg,qchrg
     nproj     2     2     2
     extension_switch     1
  pspatm : epsatm=    8.71840985
         --- l  ekb(1:nproj) -->
             0    6.834532    0.579453
             1    3.282851    0.896984
             2   -3.496974   -0.974265
 pspatm: atomic psp has been read  and splines computed

   1.67227231E+02                                ecore*ucvol(ha*bohr**3)

-inwffil : will read wavefunctions from disk file /scratch/users/j/a/jabreu/flow_simple/flow/w156/t1/indata/in_WFK

 ==>  initialize data related to q vector <==

 The list of irreducible perturbations for this q vector is:
    1)    idir= 1    ipert=   4
    2)    idir= 2    ipert=   4
    3)    idir= 3    ipert=   4

 Perturbation wavevector (in red.coord.)   0.000000  0.000000  0.000000
 Perturbation : derivative vs k along direction   1

 dfpt_looppert : COMMENT -
  In a d/dk calculation, iscf is set to -3 automatically.
 The set of symmetries contains only one element for this perturbation.
 symkpt : not enough symmetry to change the number of k points.

[...]

 Initialisation of the first-order wave-functions :
  ireadwf=   0

--- !BeginCycle
iteration_state: {dtset: 1, }
solver: {iscf: 7, nstep: 100, nline: 4, wfoptalg: 0, }
tolerances: {tolwfr: 1.00E-20, }
...

     iter   2DEtotal(Ha)        deltaE(Ha) residm    vres2
-ETOT  1  -16.748777024680     -1.675E+01 9.311E-02 0.000E+00
 ETOT  2  -16.750531260453     -1.754E-03 1.945E-04 0.000E+00
 ETOT  3  -16.750531979212     -7.188E-07 1.719E-06 0.000E+00
 ETOT  4  -16.750531979769     -5.569E-10 6.364E-09 0.000E+00
 ETOT  5  -16.750531979769     -6.857E-13 7.312E-11 0.000E+00
 ETOT  6  -16.750531979769      1.776E-14 5.609E-13 0.000E+00
 ETOT  7  -16.750531979769     -1.066E-14 6.435E-15 0.000E+00
 ETOT  8  -16.750531979769     -3.553E-15 5.408E-17 0.000E+00
 ETOT  9  -16.750531979769     -3.553E-15 6.122E-19 0.000E+00
 ETOT 10  -16.750531979769      7.105E-15 7.451E-21 0.000E+00

 At SCF step   10   max residual=  7.45E-21 < tolwfr=  1.00E-20 =>converged.

 ----iterations are completed or convergence reached----

 dfpt_looppert: DFPT cycle converged with prtwf=-1. Will skip output of the 1st-order WFK file.
 dfpt_looppert : ek2=    2.4889889202E+01
          f-sum rule ratio=    1.3657932425E+00
 prteigrs : about to open file /scratch/users/j/a/jabreu/flow_simple/flow/w156/t1/tmpdata/tmp_1WF1_EIG
 Expectation of eigenvalue derivatives (hartree) for nkpt=   2  k points:
  (in case of degenerate eigenvalues, averaged derivative)
 kpt#   1, nband= 15, wtk=  0.50000, kpt=  0.0000  0.0000  0.0000 (reduced coord)
   0.00000   -0.00000   -0.00000   -0.00000   -0.00000   -0.00000    0.00000    0.00000
   0.00000    0.00000    0.00000    0.00000    0.00000    0.00000    0.00000
 prteigrs : prtvol=0 or 1, do not print more k-points.

 Eight components of 2nd-order total energy (hartree) are
 1,2,3: 0th-order hamiltonian combined with 1st-order wavefunctions
     kin0=   5.29116894E+00 eigvalue=   1.60947815E+00  local=  -1.86616218E+00
 4,5,6: 1st-order hamiltonian combined with 1st and 0th-order wfs
     kin1=  -3.39944425E+01  Hartree=   0.00000000E+00     xc=   0.00000000E+00
 7,8,9: eventually, occupation + non-local contributions
    edocc=   1.19549151E+01     enl0=  -2.38868024E-01   enl1=   4.93378518E-01
 1-9 gives the relaxation energy (to be shifted if some occ is /=2.0)
   erelax=  -1.67505320E+01
  No Ewald or frozen-wf contrib.: the relaxation energy is the total one
 2DEtotal=   -0.1675053198E+02 Ha. Also 2DEtotal=   -0.455805155561E+03 eV
    (  non-var. 2DEtotal :   -1.6750531980E+01 Ha)

 Perturbation wavevector (in red.coord.)   0.000000  0.000000  0.000000
 Perturbation : derivative vs k along direction   2
 The set of symmetries contains only one element for this perturbation.
 symkpt : not enough symmetry to change the number of k points.

[...]

 Perturbation wavevector (in red.coord.)   0.000000  0.000000  0.000000
 Perturbation : derivative vs k along direction   3
 The set of symmetries contains only one element for this perturbation.
 symkpt : not enough symmetry to change the number of k points.

-inwffil : will read wavefunctions from disk file /scratch/users/j/a/jabreu/flow_simple/flow/w156/t1/indata/in_WFK

 Initialisation of the first-order wave-functions :
  ireadwf=   0

--- !BeginCycle
iteration_state: {dtset: 1, }
solver: {iscf: 7, nstep: 100, nline: 4, wfoptalg: 0, }
tolerances: {tolwfr: 1.00E-20, }
...

     iter   2DEtotal(Ha)        deltaE(Ha) residm    vres2
-ETOT  1  -16.748772737669     -1.675E+01 9.311E-02 0.000E+00
 ETOT  2  -16.750531251368     -1.759E-03 1.945E-04 0.000E+00
 ETOT  3  -16.750531979113     -7.277E-07 1.719E-06 0.000E+00
 ETOT  4  -16.750531979682     -5.699E-10 6.364E-09 0.000E+00
 ETOT  5  -16.750531979683     -6.430E-13 7.312E-11 0.000E+00
 ETOT  6  -16.750531979683      3.553E-15 5.609E-13 0.000E+00
 ETOT  7  -16.750531979683      2.132E-14 6.435E-15 0.000E+00
 ETOT  8  -16.750531979683      7.105E-15 5.408E-17 0.000E+00
 ETOT  9  -16.750531979683      0.000E+00 6.122E-19 0.000E+00
 ETOT 10  -16.750531979683      0.000E+00 7.451E-21 0.000E+00

 At SCF step   10   max residual=  7.45E-21 < tolwfr=  1.00E-20 =>converged.

 ----iterations are completed or convergence reached----

 dfpt_looppert: DFPT cycle converged with prtwf=-1. Will skip output of the 1st-order WFK file.
 dfpt_looppert : ek2=    2.4889889202E+01
          f-sum rule ratio=    1.3657932425E+00
 prteigrs : about to open file /scratch/users/j/a/jabreu/flow_simple/flow/w156/t1/tmpdata/tmp_1WF1_EIG
 Expectation of eigenvalue derivatives (hartree) for nkpt=   2  k points:
  (in case of degenerate eigenvalues, averaged derivative)
 kpt#   1, nband= 15, wtk=  0.50000, kpt=  0.0000  0.0000  0.0000 (reduced coord)
  -0.00000   -0.00000    0.00000    0.00000    0.00000    0.00000   -0.00000    0.00000
   0.00000    0.00000   -0.00000   -0.00000    0.00000    0.00000    0.00000
 prteigrs : prtvol=0 or 1, do not print more k-points.

 Eight components of 2nd-order total energy (hartree) are
 1,2,3: 0th-order hamiltonian combined with 1st-order wavefunctions
     kin0=   5.29116894E+00 eigvalue=   1.60947815E+00  local=  -1.86616218E+00
 4,5,6: 1st-order hamiltonian combined with 1st and 0th-order wfs
     kin1=  -3.39944425E+01  Hartree=   0.00000000E+00     xc=   0.00000000E+00
 7,8,9: eventually, occupation + non-local contributions
    edocc=   1.19549151E+01     enl0=  -2.38868024E-01   enl1=   4.93378518E-01
 1-9 gives the relaxation energy (to be shifted if some occ is /=2.0)
   erelax=  -1.67505320E+01
  No Ewald or frozen-wf contrib.: the relaxation energy is the total one
 2DEtotal=   -0.1675053198E+02 Ha. Also 2DEtotal=   -0.455805155558E+03 eV
    (  non-var. 2DEtotal :   -1.6750531980E+01 Ha)

 CALCULATION OF EFFECTIVE MASSES
 NOTE : Additional infos (eff. mass eigenvalues, eigenvectors and, if degenerate, average mass) are available in stdout.

 COMMENTS:
 - At k-point ( 0.000, 0.000, 0.000), bands     4 through     6
   are DEGENERATE (effective mass tensor is therefore not defined).
   See Section IIIB Eqs. (67)-(70) and Appendix E of PRB 93 205147 (2016).
 - Angular average effective mass for Frohlich model is to be averaged over degenerate bands. See later.
 - Associated theta integrals calculated with ntheta=   1000 points.

 K-point ( 0.000, 0.000, 0.000) | band =     4
 Transport equivalent effective mass tensor:
             -0.3858098834             -0.0000000000              0.0000000000
             -0.0000000000             -0.3858098834              0.0000000000
              0.0000000000              0.0000000000             -0.3858098834
 Transport equivalent effective mass tensor eigenvalues:
             -0.3858098834             -0.3858098834             -0.3858098834
 Angular average effective mass 1/(<1/m>)=  -0.3373234339
 Angular average effective mass for Frohlich model (<m**0.5>)**2=  -0.3402622930
 Effective masses along directions: (cart. coord. / red. coord. -> eff. mass)
    1:   1.000000  0.000000  0.000000 /   0.948683  0.316228  0.000000 ->  -0.3158400628
    2:   0.000000  1.000000  0.000000 /   0.000000  1.000000  0.000000 ->  -0.2933584498
    3:   0.000000  0.000000  1.000000 /   0.408248  0.408248  0.816497 ->  -0.3234076788
    4:   0.577350  0.577350  0.577350 /   0.585539  0.688047  0.428644 ->  -0.3161064431
    5:   0.000000  0.707107  0.707107 /   0.289489  0.762222  0.578977 ->  -0.3570624800
    6:   0.707107  0.000000  0.707107 /   0.731423  0.422287  0.535439 ->  -0.3194661346
    7:   0.707107  0.707107  0.000000 /   0.616798  0.787122  0.000000 ->  -0.4312953077

[...]

 K-point ( 0.000, 0.000, 0.000) | band =     6
 Transport equivalent effective mass tensor:
            -22.9077230414              0.0000254654             -0.0000000012
              0.0000254654            -22.9077153938             -0.0000000011
             -0.0000000012             -0.0000000011            -22.9076855102
 Transport equivalent effective mass tensor eigenvalues:
            -22.9077449685            -22.9076934668            -22.9076855102
 Angular average effective mass 1/(<1/m>)=  -2.3639690362
 Angular average effective mass for Frohlich model (<m**0.5>)**2=  -2.8452114757
 Effective masses along directions: (cart. coord. / red. coord. -> eff. mass)
    1:   1.000000  0.000000  0.000000 /   0.948683  0.316228  0.000000 ->  -2.6040386805
    2:   0.000000  1.000000  0.000000 /   0.000000  1.000000  0.000000 ->  -2.1829018878
    3:   0.000000  0.000000  1.000000 /   0.408248  0.408248  0.816497 ->  -7.0731716880
    4:   0.577350  0.577350  0.577350 /   0.585539  0.688047  0.428644 ->  -3.1094902364
    5:   0.000000  0.707107  0.707107 /   0.289489  0.762222  0.578977 ->  -2.1751894372
    6:   0.707107  0.000000  0.707107 /   0.731423  0.422287  0.535439 ->  -4.2266100630
    7:   0.707107  0.707107  0.000000 /   0.616798  0.787122  0.000000 ->  -1.0615421906

 Angular average effective mass for Frohlich model, averaged over degenerate bands.
 Value of     (<<m**0.5>>)**2 =     1.221466E+00
 Absolute Value of <<m**0.5>> =     1.105200E+00

 K-point ( 0.500, 0.000, 0.500) | band =     7
 Effective mass tensor:
              0.3787880851             -0.0687733979              0.0842298663
             -0.0687733979              0.4274182211             -0.1191190193
              0.0842298663             -0.1191190193              0.4760483571
 Effective mass tensor eigenvalues:
              0.3301579491              0.3301579491              0.6219387651
 Angular average effective mass 1/(<1/m>)=   0.3913597181
 Angular average effective mass for Frohlich model (<m**0.5>)**2=   0.4006459495
 Effective masses along directions: (cart. coord. / red. coord. -> eff. mass)
    1:   1.000000  0.000000  0.000000 /   0.948683  0.316228  0.000000 ->   0.3581631546
    2:   0.000000  1.000000  0.000000 /   0.000000  1.000000  0.000000 ->   0.3913597181
    3:   0.000000  0.000000  1.000000 /   0.408248  0.408248  0.816497 ->   0.4313385901
    4:   0.577350  0.577350  0.577350 /   0.585539  0.688047  0.428644 ->   0.3458109987
    5:   0.000000  0.707107  0.707107 /   0.289489  0.762222  0.578977 ->   0.3314670642
    6:   0.707107  0.000000  0.707107 /   0.731423  0.422287  0.535439 ->   0.4662019920
    7:   0.707107  0.707107  0.000000 /   0.616798  0.787122  0.000000 ->   0.3323875196

 END OF EFFECTIVE MASSES SECTION

 ---- first-order wavefunction calculations are completed ----

 Total localisation tensor (bohr^2) in cartesian coordinates
  WARNING : still subject to testing - especially symmetries.
      direction              matrix element
   alpha     beta       real part   imaginary part
     1        1       2.5877408073    0.0000000000
     1        2       0.7319236291    0.0000000000
     1        3       1.7928394220    0.0000000000
     2        1       0.7319236291    0.0000000000
     2        2       2.0701926458    0.0000000000
     2        3       1.2677289128    0.0000000000
     3        1       1.7928394220    0.0000000000
     3        2       1.2677289128    0.0000000000
     3        3       4.6579334530    0.0000000000

 respfn : d/dk was computed, but no 2DTE, so no DDB output.

== END DATASET(S) ==============================================================

 -outvars: echo values of variables after computation  --------
            acell      1.0000000000E+00  1.0000000000E+00  1.0000000000E+00 Bohr
              amu      6.94100000E+00  3.20660000E+01
             ecut      3.70000000E+01 Hartree
           etotal     -1.6750531980E+01
            fcart      0.0000000000E+00  0.0000000000E+00  0.0000000000E+00
                       0.0000000000E+00  0.0000000000E+00  0.0000000000E+00
                       0.0000000000E+00  0.0000000000E+00  0.0000000000E+00
-          fftalg         512
           irdden           1
           irdwfk           1
           istwfk        1    1
              ixc     -116133
              kpt      0.00000000E+00  0.00000000E+00  0.00000000E+00
                       5.00000000E-01  0.00000000E+00  5.00000000E-01
           kptopt           0
P           mkmem           2
P          mkqmem           2
P          mk1mem           2
            natom           3
            nband          15
           nbdbuf           4
            ngfft          45      45      45
             nkpt           2
            nstep         100
             nsym          48
           ntypat           2
              occ      2.000000  2.000000  2.000000  2.000000  2.000000  2.000000
                       0.000000  0.000000  0.000000  0.000000  0.000000  0.000000
                       0.000000  0.000000  0.000000
        optdriver           1
            prtwf          -1
            rfdir           1       1       1
           rfelfd           2
            rprim      6.5441051478E+00  0.0000000000E+00  3.7782408687E+00
                       2.1813683826E+00  6.1698415024E+00  3.7782408687E+00
                       0.0000000000E+00  0.0000000000E+00  7.5564817373E+00
          spgroup         225
           strten      0.0000000000E+00  0.0000000000E+00  0.0000000000E+00
                       0.0000000000E+00  0.0000000000E+00  0.0000000000E+00
           symrel      1  0  0   0  1  0   0  0  1      -1  0  0   0 -1  0   0  0 -1
                       0 -1  1   0 -1  0   1 -1  0       0  1 -1   0  1  0  -1  1  0
                      -1  0  0  -1  0  1  -1  1  0       1  0  0   1  0 -1   1 -1  0
                       0  1 -1   1  0 -1   0  0 -1       0 -1  1  -1  0  1   0  0  1
                      -1  0  0  -1  1  0  -1  0  1       1  0  0   1 -1  0   1  0 -1
                       0 -1  1   1 -1  0   0 -1  0       0  1 -1  -1  1  0   0  1  0
                       1  0  0   0  0  1   0  1  0      -1  0  0   0  0 -1   0 -1  0
                       0  1 -1   0  0 -1   1  0 -1       0 -1  1   0  0  1  -1  0  1
                      -1  0  1  -1  1  0  -1  0  0       1  0 -1   1 -1  0   1  0  0
                       0 -1  0   1 -1  0   0 -1  1       0  1  0  -1  1  0   0  1 -1
                       1  0 -1   0  0 -1   0  1 -1      -1  0  1   0  0  1   0 -1  1
                       0  1  0   0  0  1   1  0  0       0 -1  0   0  0 -1  -1  0  0
                       1  0 -1   0  1 -1   0  0 -1      -1  0  1   0 -1  1   0  0  1
                       0 -1  0   0 -1  1   1 -1  0       0  1  0   0  1 -1  -1  1  0
                      -1  0  1  -1  0  0  -1  1  0       1  0 -1   1  0  0   1 -1  0
                       0  1  0   1  0  0   0  0  1       0 -1  0  -1  0  0   0  0 -1
                       0  0 -1   0  1 -1   1  0 -1       0  0  1   0 -1  1  -1  0  1
                       1 -1  0   0 -1  1   0 -1  0      -1  1  0   0  1 -1   0  1  0
                       0  0  1   1  0  0   0  1  0       0  0 -1  -1  0  0   0 -1  0
                      -1  1  0  -1  0  0  -1  0  1       1 -1  0   1  0  0   1  0 -1
                       0  0  1   0  1  0   1  0  0       0  0 -1   0 -1  0  -1  0  0
                       1 -1  0   0 -1  0   0 -1  1      -1  1  0   0  1  0   0  1 -1
                       0  0 -1   1  0 -1   0  1 -1       0  0  1  -1  0  1   0 -1  1
                      -1  1  0  -1  0  1  -1  0  0       1 -1  0   1  0 -1   1  0  0
           tolwfr      1.00000000E-20
            typat      1  1  2
           useylm           1
              wtk        0.50000    0.50000
           xangst      1.1543304316E+00  8.1623487592E-01  1.9993589563E+00
                       3.4629912948E+00  2.4487046278E+00  5.9980768688E+00
                       0.0000000000E+00  0.0000000000E+00  0.0000000000E+00
            xcart      2.1813683826E+00  1.5424603756E+00  3.7782408687E+00
                       6.5441051478E+00  4.6273811268E+00  1.1334722606E+01
                       0.0000000000E+00  0.0000000000E+00  0.0000000000E+00
             xred      2.5000000000E-01  2.5000000000E-01  2.5000000000E-01
                       7.5000000000E-01  7.5000000000E-01  7.5000000000E-01
                       0.0000000000E+00  0.0000000000E+00  0.0000000000E+00
            znucl        3.00000   16.00000

- Timing analysis has been suppressed with timopt=0

 Suggested references for the acknowledgment of ABINIT usage.

 Calculation completed.
.Delivered  14 WARNINGs and   9 COMMENTs to log file.