.Version 9.5.1 of ABINIT

 ABINIT is a project of the Universite Catholique de Louvain,
 Corning Inc. and other collaborators, see ~abinit/doc/developers/contributors.txt .
 acknowledgments of the ABINIT effort.

.Starting date : Sun 25 Apr 2021.
- ( at 17h26 )

- input  file    -> /scratch/users/j/a/jabreu/flow_simple2/flow/w233/t1/run.abi
- output file    -> /scratch/users/j/a/jabreu/flow_simple2/flow/w233/t1/run.abo
- root for input  files -> /scratch/users/j/a/jabreu/flow_simple2/flow/w233/t1/indata/in
- root for output files -> /scratch/users/j/a/jabreu/flow_simple2/flow/w233/t1/outdata/out

 Symmetries : space group Fm -3 m (#225); Bravais cF (face-center cubic)
     intxc =       0      iscf =       7    lmnmax =      18     lnmax =       6
     mgfft =      45  mpssoang =       3    mqgrid =    3001     natom =       2
  nloc_mem =       1    nspden =       1   nspinor =       1    nsppol =       1
      nsym =      48    n1xccc =    2501    ntypat =       2    occopt =       1
   xclevel =       2
-    mband =          22        mffmem =           1         mkmem =           2
-   mkqmem =           2        mk1mem =           2           mpw =        3695
      nfft =       91125          nkpt =           2
  Rough estimation (10% accuracy) of disk space for files :

------------- Echo of variables that govern the present computation ------------
-
- outvars: echo of selected default values
-   iomode0 =  0 , fftalg0 =512 , wfoptalg0 =  0
-
- outvars: echo of global parameters not present in the input file
-  max_nthreads =    0
-
 -outvars: echo values of preprocessed input variables --------
            acell      1.0000000000E+00  1.0000000000E+00  1.0000000000E+00 Bohr
              amu      2.43050000E+01  7.89600000E+01
             ecut      4.30000000E+01 Hartree
-          fftalg         512
           irdden           1
           irdwfk           1
           istwfk        1    1
              ixc     -116133
              kpt      0.00000000E+00  0.00000000E+00  0.00000000E+00
                       5.00000000E-01  0.00000000E+00  5.00000000E-01
           kptopt           0
P           mkmem           2
P          mkqmem           2
P          mk1mem           2
            natom           2
            nband          22
           nbdbuf           4
            ngfft          45      45      45
             nkpt           2
            nstep         100
             nsym          48
           ntypat           2
              occ      2.000000  2.000000  2.000000  2.000000  2.000000  2.000000
                       2.000000  2.000000  2.000000  2.000000  2.000000  2.000000
                       2.000000  0.000000  0.000000  0.000000  0.000000  0.000000
                       0.000000  0.000000  0.000000  0.000000
        optdriver           1
            prtwf          -1
            rfdir           1       1       1
           rfelfd           2
            rprim      6.3077581264E+00  0.0000000000E+00  3.6417858523E+00
                       2.1025860421E+00  5.9470113937E+00  3.6417858523E+00
                       0.0000000000E+00  0.0000000000E+00  7.2835717045E+00
          spgroup         225
           symrel      1  0  0   0  1  0   0  0  1      -1  0  0   0 -1  0   0  0 -1
                       0 -1  1   0 -1  0   1 -1  0       0  1 -1   0  1  0  -1  1  0
                      -1  0  0  -1  0  1  -1  1  0       1  0  0   1  0 -1   1 -1  0
                       0  1 -1   1  0 -1   0  0 -1       0 -1  1  -1  0  1   0  0  1
                      -1  0  0  -1  1  0  -1  0  1       1  0  0   1 -1  0   1  0 -1
                       0 -1  1   1 -1  0   0 -1  0       0  1 -1  -1  1  0   0  1  0
                       1  0  0   0  0  1   0  1  0      -1  0  0   0  0 -1   0 -1  0
                       0  1 -1   0  0 -1   1  0 -1       0 -1  1   0  0  1  -1  0  1
                      -1  0  1  -1  1  0  -1  0  0       1  0 -1   1 -1  0   1  0  0
                       0 -1  0   1 -1  0   0 -1  1       0  1  0  -1  1  0   0  1 -1
                       1  0 -1   0  0 -1   0  1 -1      -1  0  1   0  0  1   0 -1  1
                       0  1  0   0  0  1   1  0  0       0 -1  0   0  0 -1  -1  0  0
                       1  0 -1   0  1 -1   0  0 -1      -1  0  1   0 -1  1   0  0  1
                       0 -1  0   0 -1  1   1 -1  0       0  1  0   0  1 -1  -1  1  0
                      -1  0  1  -1  0  0  -1  1  0       1  0 -1   1  0  0   1 -1  0
                       0  1  0   1  0  0   0  0  1       0 -1  0  -1  0  0   0  0 -1
                       0  0 -1   0  1 -1   1  0 -1       0  0  1   0 -1  1  -1  0  1
                       1 -1  0   0 -1  1   0 -1  0      -1  1  0   0  1 -1   0  1  0
                       0  0  1   1  0  0   0  1  0       0  0 -1  -1  0  0   0 -1  0
                      -1  1  0  -1  0  0  -1  0  1       1 -1  0   1  0  0   1  0 -1
                       0  0  1   0  1  0   1  0  0       0  0 -1   0 -1  0  -1  0  0
                       1 -1  0   0 -1  0   0 -1  1      -1  1  0   0  1  0   0  1 -1
                       0  0 -1   1  0 -1   0  1 -1       0  0  1  -1  0  1   0 -1  1
                      -1  1  0  -1  0  1  -1  0  0       1 -1  0   1  0 -1   1  0  0
           tolwfr      1.00000000E-20
            typat      1  2
           useylm           1
              wtk        0.50000    0.50000
           xangst      0.0000000000E+00  0.0000000000E+00  0.0000000000E+00
                       2.2252812252E+00  1.5735114444E+00  3.8543001432E+00
            xcart      0.0000000000E+00  0.0000000000E+00  0.0000000000E+00
                       4.2051720842E+00  2.9735056969E+00  7.2835717046E+00
             xred      0.0000000000E+00  0.0000000000E+00  0.0000000000E+00
                       5.0000000000E-01  5.0000000000E-01  5.0000000000E-01
            znucl       12.00000   34.00000

 chkinp: Checking input parameters for consistency.

== DATASET  1 ==================================================================
-   mpi_nproc: 1, omp_nthreads: -1 (-1 if OMP is not activated)

--- !DatasetInfo
iteration_state: {dtset: 1, }
dimensions: {natom: 2, nkpt: 2, mband: 22, nsppol: 1, nspinor: 1, nspden: 1, mpw: 3695, }
cutoff_energies: {ecut:  43.0, pawecutdg:  -1.0, }
electrons: {nelect:   2.60000000E+01, charge:   0.00000000E+00, occopt:   1.00000000E+00, tsmear:   1.00000000E-02, }
meta: {optdriver: 1, rfelfd: 2, }
...

 Real(R)+Recip(G) space primitive vectors, cartesian coordinates (Bohr,Bohr^-1):
 R(1)=  6.3077581  0.0000000  3.6417859  G(1)=  0.1585349 -0.0560506  0.0000000
 R(2)=  2.1025860  5.9470114  3.6417859  G(2)=  0.0000000  0.1681517  0.0000000
 R(3)=  0.0000000  0.0000000  7.2835717  G(3)= -0.0792675 -0.0560506  0.1372953
 Unit cell volume ucvol=  2.7322360E+02 bohr^3
 Angles (23,13,12)=  6.00000000E+01  6.00000000E+01  6.00000000E+01 degrees

 getcut: wavevector=  0.0000  0.0000  0.0000  ngfft=  45  45  45
         ecut(hartree)=     43.000   => boxcut(ratio)=   2.04649

--- Pseudopotential description ------------------------------------------------
- pspini: atom type   1  psp file is /scratch/users/j/a/jabreu/pseudos/PBEsol/Mg.psp8
- pspatm: opening atomic psp file    /scratch/users/j/a/jabreu/pseudos/PBEsol/Mg.psp8
- Mg    ONCVPSP-3.3.0  r_core=   1.16056   1.56380
- 12.00000  10.00000    180112                znucl, zion, pspdat
    8 -116133    1    4       400   0.00000   pspcod,pspxc,lmax,lloc,mmax,r2well
    3.99000000000000    0.00000000000000    0.00000000000000   rchrg,fchrg,qchrg
     nproj     2     2
     extension_switch     1
  pspatm : epsatm=    9.18164846
         --- l  ekb(1:nproj) -->
             0    2.230603   -0.826587
             1   -6.503151   -2.501445
 pspatm: atomic psp has been read  and splines computed

- pspini: atom type   2  psp file is /scratch/users/j/a/jabreu/pseudos/PBEsol/Se.psp8
- pspatm: opening atomic psp file    /scratch/users/j/a/jabreu/pseudos/PBEsol/Se.psp8
- Se    ONCVPSP-3.3.0  r_core=   1.81943   1.50330   1.90835
- 34.00000  16.00000    180112                znucl, zion, pspdat
    8 -116133    2    4       600   0.00000   pspcod,pspxc,lmax,lloc,mmax,r2well
    5.99000000000000    5.00000000000000    0.00000000000000   rchrg,fchrg,qchrg
     nproj     2     2     2
     extension_switch     1
  pspatm : epsatm=   29.17862020
         --- l  ekb(1:nproj) -->
             0    8.973804    1.019550
             1    6.849857    1.297308
             2   -9.203962   -3.731027
 pspatm: atomic psp has been read  and splines computed

   9.97366985E+02                                ecore*ucvol(ha*bohr**3)

-inwffil : will read wavefunctions from disk file /scratch/users/j/a/jabreu/flow_simple2/flow/w233/t1/indata/in_WFK

 ==>  initialize data related to q vector <==

 The list of irreducible perturbations for this q vector is:
    1)    idir= 1    ipert=   3
    2)    idir= 2    ipert=   3
    3)    idir= 3    ipert=   3

 Perturbation wavevector (in red.coord.)   0.000000  0.000000  0.000000
 Perturbation : derivative vs k along direction   1

 dfpt_looppert : COMMENT -
  In a d/dk calculation, iscf is set to -3 automatically.
 The set of symmetries contains only one element for this perturbation.
 symkpt : not enough symmetry to change the number of k points.

[...]

 Initialisation of the first-order wave-functions :
  ireadwf=   0

--- !BeginCycle
iteration_state: {dtset: 1, }
solver: {iscf: 7, nstep: 100, nline: 4, wfoptalg: 0, }
tolerances: {tolwfr: 1.00E-20, }
...

     iter   2DEtotal(Ha)        deltaE(Ha) residm    vres2
-ETOT  1  -70.524802061370     -7.052E+01 8.881E-01 0.000E+00
 ETOT  2  -70.541790537238     -1.699E-02 2.419E-04 0.000E+00
 ETOT  3  -70.541794348773     -3.812E-06 3.657E-06 0.000E+00
 ETOT  4  -70.541794350598     -1.825E-09 3.465E-10 0.000E+00
 ETOT  5  -70.541794350599     -1.080E-12 1.338E-11 0.000E+00
 ETOT  6  -70.541794350599      1.421E-14 1.464E-14 0.000E+00
 ETOT  7  -70.541794350599     -5.684E-14 8.023E-16 0.000E+00
 ETOT  8  -70.541794350599      0.000E+00 5.027E-19 0.000E+00
 ETOT  9  -70.541794350599      2.842E-14 8.553E-20 0.000E+00
 ETOT 10  -70.541794350599      0.000E+00 9.641E-21 0.000E+00

 At SCF step   10   max residual=  9.64E-21 < tolwfr=  1.00E-20 =>converged.

 ----iterations are completed or convergence reached----

 dfpt_looppert: DFPT cycle converged with prtwf=-1. Will skip output of the 1st-order WFK file.
 dfpt_looppert : ek2=    5.8045096727E+01
          f-sum rule ratio=    1.3864730157E+00
 prteigrs : about to open file /scratch/users/j/a/jabreu/flow_simple2/flow/w233/t1/tmpdata/tmp_1WF1_EIG
 Expectation of eigenvalue derivatives (hartree) for nkpt=   2  k points:
  (in case of degenerate eigenvalues, averaged derivative)
 kpt#   1, nband= 22, wtk=  0.50000, kpt=  0.0000  0.0000  0.0000 (reduced coord)
  -0.00000    0.00000    0.00000    0.00000    0.00000    0.00000   -0.00000   -0.00000
  -0.00000   -0.00000    0.00000    0.00000    0.00000   -0.00000   -0.00000   -0.00000
  -0.00000    0.00000    0.00000   -0.00000    0.00000    0.00000
 prteigrs : prtvol=0 or 1, do not print more k-points.

 Eight components of 2nd-order total energy (hartree) are
 1,2,3: 0th-order hamiltonian combined with 1st-order wavefunctions
     kin0=   5.52636886E+01 eigvalue=   1.10139606E+01  local=  -2.11253656E+01
 4,5,6: 1st-order hamiltonian combined with 1st and 0th-order wfs
     kin1=  -8.04779603E+01  Hartree=   0.00000000E+00     xc=   0.00000000E+00
 7,8,9: eventually, occupation + non-local contributions
    edocc=   2.04258571E+01     enl0=   4.96365368E+00   enl1=  -6.06056284E+01
 1-9 gives the relaxation energy (to be shifted if some occ is /=2.0)
   erelax=  -7.05417944E+01
  No Ewald or frozen-wf contrib.: the relaxation energy is the total one
 2DEtotal=   -0.7054179435E+02 Ha. Also 2DEtotal=   -0.191953984425E+04 eV
    (  non-var. 2DEtotal :   -7.0541794351E+01 Ha)

 Perturbation wavevector (in red.coord.)   0.000000  0.000000  0.000000
 Perturbation : derivative vs k along direction   2
 The set of symmetries contains only one element for this perturbation.
 symkpt : not enough symmetry to change the number of k points.

[...]

 Perturbation wavevector (in red.coord.)   0.000000  0.000000  0.000000
 Perturbation : derivative vs k along direction   3
 The set of symmetries contains only one element for this perturbation.
 symkpt : not enough symmetry to change the number of k points.

-inwffil : will read wavefunctions from disk file /scratch/users/j/a/jabreu/flow_simple2/flow/w233/t1/indata/in_WFK

 Initialisation of the first-order wave-functions :
  ireadwf=   0

--- !BeginCycle
iteration_state: {dtset: 1, }
solver: {iscf: 7, nstep: 100, nline: 4, wfoptalg: 0, }
tolerances: {tolwfr: 1.00E-20, }
...

     iter   2DEtotal(Ha)        deltaE(Ha) residm    vres2
-ETOT  1  -70.524877343646     -7.052E+01 4.796E-01 0.000E+00
 ETOT  2  -70.541790310278     -1.691E-02 1.601E-04 0.000E+00
 ETOT  3  -70.541794140194     -3.830E-06 1.254E-06 0.000E+00
 ETOT  4  -70.541794141892     -1.699E-09 2.459E-10 0.000E+00
 ETOT  5  -70.541794141893     -1.094E-12 3.222E-12 0.000E+00
 ETOT  6  -70.541794141894     -7.105E-14 3.805E-15 0.000E+00
 ETOT  7  -70.541794141893      4.263E-14 9.425E-17 0.000E+00
 ETOT  8  -70.541794141893     -1.421E-14 6.777E-20 0.000E+00
 ETOT  9  -70.541794141894     -1.421E-14 1.852E-20 0.000E+00
 ETOT 10  -70.541794141893      4.263E-14 9.503E-21 0.000E+00

 At SCF step   10   max residual=  9.50E-21 < tolwfr=  1.00E-20 =>converged.

 ----iterations are completed or convergence reached----

 dfpt_looppert: DFPT cycle converged with prtwf=-1. Will skip output of the 1st-order WFK file.
 dfpt_looppert : ek2=    5.8045096728E+01
          f-sum rule ratio=    1.3864730082E+00
 prteigrs : about to open file /scratch/users/j/a/jabreu/flow_simple2/flow/w233/t1/tmpdata/tmp_1WF1_EIG
 Expectation of eigenvalue derivatives (hartree) for nkpt=   2  k points:
  (in case of degenerate eigenvalues, averaged derivative)
 kpt#   1, nband= 22, wtk=  0.50000, kpt=  0.0000  0.0000  0.0000 (reduced coord)
   0.00000   -0.00000   -0.00000    0.00000    0.00000    0.00000   -0.00000   -0.00000
  -0.00000   -0.00000    0.00000    0.00000    0.00000   -0.00000   -0.00000   -0.00000
  -0.00000   -0.00000   -0.00000    0.00000    0.00000    0.00000
 prteigrs : prtvol=0 or 1, do not print more k-points.

 Eight components of 2nd-order total energy (hartree) are
 1,2,3: 0th-order hamiltonian combined with 1st-order wavefunctions
     kin0=   5.52608814E+01 eigvalue=   1.10121985E+01  local=  -2.11231399E+01
 4,5,6: 1st-order hamiltonian combined with 1st and 0th-order wfs
     kin1=  -8.04779599E+01  Hartree=   0.00000000E+00     xc=   0.00000000E+00
 7,8,9: eventually, occupation + non-local contributions
    edocc=   2.04281572E+01     enl0=   4.96369699E+00   enl1=  -6.06056284E+01
 1-9 gives the relaxation energy (to be shifted if some occ is /=2.0)
   erelax=  -7.05417941E+01
  No Ewald or frozen-wf contrib.: the relaxation energy is the total one
 2DEtotal=   -0.7054179414E+02 Ha. Also 2DEtotal=   -0.191953983857E+04 eV
    (  non-var. 2DEtotal :   -7.0541794142E+01 Ha)

 CALCULATION OF EFFECTIVE MASSES
 NOTE : Additional infos (eff. mass eigenvalues, eigenvectors and, if degenerate, average mass) are available in stdout.

 COMMENTS:
 - At k-point ( 0.000, 0.000, 0.000), bands    11 through    13
   are DEGENERATE (effective mass tensor is therefore not defined).
   See Section IIIB Eqs. (67)-(70) and Appendix E of PRB 93 205147 (2016).
 - Angular average effective mass for Frohlich model is to be averaged over degenerate bands. See later.
 - Associated theta integrals calculated with ntheta=   1000 points.

 K-point ( 0.000, 0.000, 0.000) | band =    11
 Transport equivalent effective mass tensor:
             -0.1422534966             -0.0000000000              0.0000000000
             -0.0000000000             -0.1422534966              0.0000000000
              0.0000000000              0.0000000000             -0.1422534967
 Transport equivalent effective mass tensor eigenvalues:
             -0.1422534967             -0.1422534966             -0.1422534966
 Angular average effective mass 1/(<1/m>)=  -0.1370500358
 Angular average effective mass for Frohlich model (<m**0.5>)**2=  -0.1373988123
 Effective masses along directions: (cart. coord. / red. coord. -> eff. mass)
    1:   1.000000  0.000000  0.000000 /   0.948683  0.316228  0.000000 ->  -0.1323742063
    2:   0.000000  1.000000  0.000000 /   0.000000  1.000000  0.000000 ->  -0.1263145004
    3:   0.000000  0.000000  1.000000 /   0.408248  0.408248  0.816497 ->  -0.1332095857
    4:   0.577350  0.577350  0.577350 /   0.585539  0.688047  0.428644 ->  -0.1322811952
    5:   0.000000  0.707107  0.707107 /   0.289489  0.762222  0.578977 ->  -0.1417417852
    6:   0.707107  0.000000  0.707107 /   0.731423  0.422287  0.535439 ->  -0.1327876899
    7:   0.707107  0.707107  0.000000 /   0.616798  0.787122  0.000000 ->  -0.1551720862

[...]

 K-point ( 0.000, 0.000, 0.000) | band =    13
 Transport equivalent effective mass tensor:
           -140.4693822908              0.0000904021              0.0000000075
              0.0000904021           -140.4693447217              0.0000000021
              0.0000000075              0.0000000021           -140.4691941737
 Transport equivalent effective mass tensor eigenvalues:
           -140.4694558393           -140.4692711731           -140.4691941737
 Angular average effective mass 1/(<1/m>)=  -2.1672853534
 Angular average effective mass for Frohlich model (<m**0.5>)**2=  -3.1714326321
 Effective masses along directions: (cart. coord. / red. coord. -> eff. mass)
    1:   1.000000  0.000000  0.000000 /   0.948683  0.316228  0.000000 ->  -2.3927207090
    2:   0.000000  1.000000  0.000000 /   0.000000  1.000000  0.000000 ->  -2.1491104096
    3:   0.000000  0.000000  1.000000 /   0.408248  0.408248  0.816497 -> -18.0087312557
    4:   0.577350  0.577350  0.577350 /   0.585539  0.688047  0.428644 ->  -3.1178456861
    5:   0.000000  0.707107  0.707107 /   0.289489  0.762222  0.578977 ->  -1.8525665029
    6:   0.707107  0.000000  0.707107 /   0.731423  0.422287  0.535439 ->  -5.1198430192
    7:   0.707107  0.707107  0.000000 /   0.616798  0.787122  0.000000 ->  -0.8671587204

 Angular average effective mass for Frohlich model, averaged over degenerate bands.
 Value of     (<<m**0.5>>)**2 =     1.084860E+00
 Absolute Value of <<m**0.5>> =     1.041566E+00

 K-point ( 0.500, 0.000, 0.500) | band =    14
 Effective mass tensor:
              0.2760225105             -0.0591553373              0.0724501959
             -0.0591553373              0.3178516506             -0.1024600497
              0.0724501959             -0.1024600497              0.3596807907
 Effective mass tensor eigenvalues:
              0.2341933704              0.2341933704              0.4851682111
 Angular average effective mass 1/(<1/m>)=   0.2829897091
 Angular average effective mass for Frohlich model (<m**0.5>)**2=   0.2917017626
 Effective masses along directions: (cart. coord. / red. coord. -> eff. mass)
    1:   1.000000  0.000000  0.000000 /   0.948683  0.316228  0.000000 ->   0.2562895670
    2:   0.000000  1.000000  0.000000 /   0.000000  1.000000  0.000000 ->   0.2829897091
    3:   0.000000  0.000000  1.000000 /   0.408248  0.408248  0.816497 ->   0.3159000466
    4:   0.577350  0.577350  0.577350 /   0.585539  0.688047  0.428644 ->   0.2464960246
    5:   0.000000  0.707107  0.707107 /   0.289489  0.762222  0.578977 ->   0.2352176916
    6:   0.707107  0.000000  0.707107 /   0.731423  0.422287  0.535439 ->   0.3452965115
    7:   0.707107  0.707107  0.000000 /   0.616798  0.787122  0.000000 ->   0.2359384043

 END OF EFFECTIVE MASSES SECTION

 ---- first-order wavefunction calculations are completed ----

 Total localisation tensor (bohr^2) in cartesian coordinates
  WARNING : still subject to testing - especially symmetries.
      direction              matrix element
   alpha     beta       real part   imaginary part
     1        1       2.9912413809    0.0000000000
     1        2       0.8460508249    0.0000000000
     1        3       2.0723928194    0.0000000000
     2        1       0.8460508249    0.0000000000
     2        2       2.3929931020    0.0000000000
     2        3       1.4654030145    0.0000000000
     3        1       2.0723928194    0.0000000000
     3        2       1.4654030145    0.0000000000
     3        3       5.3842344767    0.0000000000

 respfn : d/dk was computed, but no 2DTE, so no DDB output.

== END DATASET(S) ==============================================================

 -outvars: echo values of variables after computation  --------
            acell      1.0000000000E+00  1.0000000000E+00  1.0000000000E+00 Bohr
              amu      2.43050000E+01  7.89600000E+01
             ecut      4.30000000E+01 Hartree
           etotal     -7.0541794142E+01
            fcart      0.0000000000E+00  0.0000000000E+00  0.0000000000E+00
                       0.0000000000E+00  0.0000000000E+00  0.0000000000E+00
-          fftalg         512
           irdden           1
           irdwfk           1
           istwfk        1    1
              ixc     -116133
              kpt      0.00000000E+00  0.00000000E+00  0.00000000E+00
                       5.00000000E-01  0.00000000E+00  5.00000000E-01
           kptopt           0
P           mkmem           2
P          mkqmem           2
P          mk1mem           2
            natom           2
            nband          22
           nbdbuf           4
            ngfft          45      45      45
             nkpt           2
            nstep         100
             nsym          48
           ntypat           2
              occ      2.000000  2.000000  2.000000  2.000000  2.000000  2.000000
                       2.000000  2.000000  2.000000  2.000000  2.000000  2.000000
                       2.000000  0.000000  0.000000  0.000000  0.000000  0.000000
                       0.000000  0.000000  0.000000  0.000000
        optdriver           1
            prtwf          -1
            rfdir           1       1       1
           rfelfd           2
            rprim      6.3077581264E+00  0.0000000000E+00  3.6417858523E+00
                       2.1025860421E+00  5.9470113937E+00  3.6417858523E+00
                       0.0000000000E+00  0.0000000000E+00  7.2835717045E+00
          spgroup         225
           strten      0.0000000000E+00  0.0000000000E+00  0.0000000000E+00
                       0.0000000000E+00  0.0000000000E+00  0.0000000000E+00
           symrel      1  0  0   0  1  0   0  0  1      -1  0  0   0 -1  0   0  0 -1
                       0 -1  1   0 -1  0   1 -1  0       0  1 -1   0  1  0  -1  1  0
                      -1  0  0  -1  0  1  -1  1  0       1  0  0   1  0 -1   1 -1  0
                       0  1 -1   1  0 -1   0  0 -1       0 -1  1  -1  0  1   0  0  1
                      -1  0  0  -1  1  0  -1  0  1       1  0  0   1 -1  0   1  0 -1
                       0 -1  1   1 -1  0   0 -1  0       0  1 -1  -1  1  0   0  1  0
                       1  0  0   0  0  1   0  1  0      -1  0  0   0  0 -1   0 -1  0
                       0  1 -1   0  0 -1   1  0 -1       0 -1  1   0  0  1  -1  0  1
                      -1  0  1  -1  1  0  -1  0  0       1  0 -1   1 -1  0   1  0  0
                       0 -1  0   1 -1  0   0 -1  1       0  1  0  -1  1  0   0  1 -1
                       1  0 -1   0  0 -1   0  1 -1      -1  0  1   0  0  1   0 -1  1
                       0  1  0   0  0  1   1  0  0       0 -1  0   0  0 -1  -1  0  0
                       1  0 -1   0  1 -1   0  0 -1      -1  0  1   0 -1  1   0  0  1
                       0 -1  0   0 -1  1   1 -1  0       0  1  0   0  1 -1  -1  1  0
                      -1  0  1  -1  0  0  -1  1  0       1  0 -1   1  0  0   1 -1  0
                       0  1  0   1  0  0   0  0  1       0 -1  0  -1  0  0   0  0 -1
                       0  0 -1   0  1 -1   1  0 -1       0  0  1   0 -1  1  -1  0  1
                       1 -1  0   0 -1  1   0 -1  0      -1  1  0   0  1 -1   0  1  0
                       0  0  1   1  0  0   0  1  0       0  0 -1  -1  0  0   0 -1  0
                      -1  1  0  -1  0  0  -1  0  1       1 -1  0   1  0  0   1  0 -1
                       0  0  1   0  1  0   1  0  0       0  0 -1   0 -1  0  -1  0  0
                       1 -1  0   0 -1  0   0 -1  1      -1  1  0   0  1  0   0  1 -1
                       0  0 -1   1  0 -1   0  1 -1       0  0  1  -1  0  1   0 -1  1
                      -1  1  0  -1  0  1  -1  0  0       1 -1  0   1  0 -1   1  0  0
           tolwfr      1.00000000E-20
            typat      1  2
           useylm           1
              wtk        0.50000    0.50000
           xangst      0.0000000000E+00  0.0000000000E+00  0.0000000000E+00
                       2.2252812252E+00  1.5735114444E+00  3.8543001432E+00
            xcart      0.0000000000E+00  0.0000000000E+00  0.0000000000E+00
                       4.2051720842E+00  2.9735056969E+00  7.2835717046E+00
             xred      0.0000000000E+00  0.0000000000E+00  0.0000000000E+00
                       5.0000000000E-01  5.0000000000E-01  5.0000000000E-01
            znucl       12.00000   34.00000

- Timing analysis has been suppressed with timopt=0

 Suggested references for the acknowledgment of ABINIT usage.

 Calculation completed.
.Delivered  14 WARNINGs and   9 COMMENTs to log file.