.Version 9.5.2 of ABINIT

 ABINIT is a project of the Universite Catholique de Louvain,
 Corning Inc. and other collaborators, see ~abinit/doc/developers/contributors.txt .
 acknowledgments of the ABINIT effort.

.Starting date : Mon 24 May 2021.
- ( at 11h15 )

- input  file    -> /scratch/users/j/a/jabreu/flow_simple_10atoms/flow/w307/t1/run.abi
- output file    -> /scratch/users/j/a/jabreu/flow_simple_10atoms/flow/w307/t1/run.abo
- root for input  files -> /scratch/users/j/a/jabreu/flow_simple_10atoms/flow/w307/t1/indata/in
- root for output files -> /scratch/users/j/a/jabreu/flow_simple_10atoms/flow/w307/t1/outdata/out

 Symmetries : space group P6_3/m m c (#194); Bravais hP (primitive hexag.)
     intxc =       0      iscf =       7    lmnmax =      18     lnmax =       6
     mgfft =     144  mpssoang =       3    mqgrid =    7013     natom =      10
  nloc_mem =       1    nspden =       1   nspinor =       1    nsppol =       1
      nsym =      24    n1xccc =    2501    ntypat =       3    occopt =       1
   xclevel =       2
-    mband =          49        mffmem =           1         mkmem =           2
-   mkqmem =           2        mk1mem =           2           mpw =       12467
      nfft =      230400          nkpt =           2
  Rough estimation (10% accuracy) of disk space for files :

------------- Echo of variables that govern the present computation ------------
-
- outvars: echo of selected default values
-   iomode0 =  0 , fftalg0 =512 , wfoptalg0 =  0
-
- outvars: echo of global parameters not present in the input file
-  max_nthreads =    0
-
 -outvars: echo values of preprocessed input variables --------
            acell      1.0000000000E+00  1.0000000000E+00  1.0000000000E+00 Bohr
              amu      9.12240000E+01  3.20660000E+01  1.40067400E+01
             ecut      4.20000000E+01 Hartree
-          fftalg         512
           irdden           1
           irdwfk           1
           istwfk        1    0
              ixc     -116133
              kpt      0.00000000E+00  0.00000000E+00  0.00000000E+00
                       3.33333333E-01  3.33333333E-01  0.00000000E+00
           kptopt           0
P           mkmem           2
P          mkqmem           2
P          mk1mem           2
            natom          10
            nband          49
           nbdbuf           4
            ngfft          40      40     144
             nkpt           2
            nstep        2000
             nsym          24
           ntypat           3
              occ      2.000000  2.000000  2.000000  2.000000  2.000000  2.000000
                       2.000000  2.000000  2.000000  2.000000  2.000000  2.000000
                       2.000000  2.000000  2.000000  2.000000  2.000000  2.000000
                       2.000000  2.000000  2.000000  2.000000  2.000000  2.000000
                       2.000000  2.000000  2.000000  2.000000  2.000000  2.000000
                       2.000000  2.000000  2.000000  2.000000  2.000000  2.000000
                       2.000000  2.000000  2.000000  2.000000  0.000000  0.000000
                       0.000000  0.000000  0.000000  0.000000  0.000000  0.000000
                       0.000000
        optdriver           1
            prtwf          -1
            rfdir           1       1       1
           rfelfd           2
            rprim      6.7926971834E+00  0.0000000000E+00  0.0000000000E+00
                      -3.3963485917E+00  5.8826483210E+00  0.0000000000E+00
                       0.0000000000E+00  0.0000000000E+00  2.4037534096E+01
          spgroup         194
           symrel      1  0  0   0  1  0   0  0  1      -1  0  0   0 -1  0   0  0 -1
                       0  1  0   1  0  0   0  0  1       0 -1  0  -1  0  0   0  0 -1
                       1  1  0  -1  0  0   0  0  1      -1 -1  0   1  0  0   0  0 -1
                      -1  0  0   1  1  0   0  0  1       1  0  0  -1 -1  0   0  0 -1
                       0  1  0  -1 -1  0   0  0  1       0 -1  0   1  1  0   0  0 -1
                      -1 -1  0   0  1  0   0  0  1       1  1  0   0 -1  0   0  0 -1
                      -1  0  0   0 -1  0   0  0  1       1  0  0   0  1  0   0  0 -1
                       0 -1  0  -1  0  0   0  0  1       0  1  0   1  0  0   0  0 -1
                      -1 -1  0   1  0  0   0  0  1       1  1  0  -1  0  0   0  0 -1
                       1  0  0  -1 -1  0   0  0  1      -1  0  0   1  1  0   0  0 -1
                       0 -1  0   1  1  0   0  0  1       0  1  0  -1 -1  0   0  0 -1
                       1  1  0   0 -1  0   0  0  1      -1 -1  0   0  1  0   0  0 -1
            tnons      0.0000000  0.0000000  0.0000000     0.0000000  0.0000000  0.0000000
                       0.0000000  0.0000000  0.5000000     0.0000000  0.0000000  0.5000000
                       0.0000000  0.0000000  0.5000000     0.0000000  0.0000000  0.5000000
                       0.0000000  0.0000000  0.0000000     0.0000000  0.0000000  0.0000000
                       0.0000000  0.0000000  0.0000000     0.0000000  0.0000000  0.0000000
                       0.0000000  0.0000000  0.5000000     0.0000000  0.0000000  0.5000000
                       0.0000000  0.0000000  0.5000000     0.0000000  0.0000000  0.5000000
                       0.0000000  0.0000000  0.0000000     0.0000000  0.0000000  0.0000000
                       0.0000000  0.0000000  0.0000000     0.0000000  0.0000000  0.0000000
                       0.0000000  0.0000000  0.5000000     0.0000000  0.0000000  0.5000000
                       0.0000000  0.0000000  0.5000000     0.0000000  0.0000000  0.5000000
                       0.0000000  0.0000000  0.0000000     0.0000000  0.0000000  0.0000000
           tolwfr      1.00000000E-20
            typat      1  1  1  1  2  2  3  3  3  3
           useylm           1
              wtk        0.50000    0.50000
           xangst      2.3500188843E-16  2.0753089451E+00  7.6668459116E+00
                       1.7972702672E+00  1.0376544725E+00  1.3067883144E+00
                       1.7972702672E+00  1.0376544725E+00  5.0532692828E+00
                       2.3500188843E-16  2.0753089451E+00  1.1413326880E+01
                       0.0000000000E+00  0.0000000000E+00  3.1800287986E+00
                       0.0000000000E+00  0.0000000000E+00  9.5400863958E+00
                       1.7972702672E+00  1.0376544725E+00  7.2281800190E+00
                       2.3500188843E-16  2.0753089451E+00  8.6812242179E-01
                       2.3500188843E-16  2.0753089451E+00  5.4919351754E+00
                       1.7972702672E+00  1.0376544725E+00  1.1851992773E+01
            xcart      4.4408920985E-16  3.9217655473E+00  1.4488239076E+01
                       3.3963485917E+00  1.9608827737E+00  2.4694720278E+00
                       3.3963485917E+00  1.9608827737E+00  9.5492950203E+00
                       4.4408920985E-16  3.9217655473E+00  2.1568062068E+01
                       0.0000000000E+00  0.0000000000E+00  6.0093835240E+00
                       0.0000000000E+00  0.0000000000E+00  1.8028150572E+01
                       3.3963485917E+00  1.9608827737E+00  1.3659280675E+01
                       4.4408920985E-16  3.9217655473E+00  1.6405136270E+00
                       4.4408920985E-16  3.9217655473E+00  1.0378253421E+01
                       3.3963485917E+00  1.9608827737E+00  2.2397020469E+01
             xred      3.3333333333E-01  6.6666666667E-01  6.0273400000E-01
                       6.6666666667E-01  3.3333333333E-01  1.0273400000E-01
                       6.6666666667E-01  3.3333333333E-01  3.9726600000E-01
                       3.3333333333E-01  6.6666666667E-01  8.9726600000E-01
                       0.0000000000E+00  0.0000000000E+00  2.5000000000E-01
                       0.0000000000E+00  0.0000000000E+00  7.5000000000E-01
                       6.6666666667E-01  3.3333333333E-01  5.6824800000E-01
                       3.3333333333E-01  6.6666666667E-01  6.8248000000E-02
                       3.3333333333E-01  6.6666666667E-01  4.3175200000E-01
                       6.6666666667E-01  3.3333333333E-01  9.3175200000E-01
            znucl       40.00000   16.00000    7.00000

 chkinp: Checking input parameters for consistency.

== DATASET  1 ==================================================================
-   mpi_nproc: 1, omp_nthreads: -1 (-1 if OMP is not activated)

--- !DatasetInfo
iteration_state: {dtset: 1, }
dimensions: {natom: 10, nkpt: 2, mband: 49, nsppol: 1, nspinor: 1, nspden: 1, mpw: 12467, }
cutoff_energies: {ecut:  42.0, pawecutdg:  -1.0, }
electrons: {nelect:   8.00000000E+01, charge:   0.00000000E+00, occopt:   1.00000000E+00, tsmear:   1.00000000E-02, }
meta: {optdriver: 1, rfelfd: 2, }
...

 Real(R)+Recip(G) space primitive vectors, cartesian coordinates (Bohr,Bohr^-1):
 R(1)=  6.7926972  0.0000000  0.0000000  G(1)=  0.1472169  0.0849957  0.0000000
 R(2)= -3.3963486  5.8826483  0.0000000  G(2)=  0.0000000  0.1699915  0.0000000
 R(3)=  0.0000000  0.0000000 24.0375341  G(3)=  0.0000000  0.0000000  0.0416016
 Unit cell volume ucvol=  9.6051700E+02 bohr^3
 Angles (23,13,12)=  9.00000000E+01  9.00000000E+01  1.20000000E+02 degrees

 getcut: wavevector=  0.0000  0.0000  0.0000  ngfft=  40  40 144
         ecut(hartree)=     42.000   => boxcut(ratio)=   2.01850

--- Pseudopotential description ------------------------------------------------
- pspini: atom type   1  psp file is /scratch/users/j/a/jabreu/pseudos/PBEsol/Zr.psp8
- pspatm: opening atomic psp file    /scratch/users/j/a/jabreu/pseudos/PBEsol/Zr.psp8
- Zr    ONCVPSP-3.3.0  r_core=   1.56507   1.56507   1.51006
- 40.00000  12.00000    180112                znucl, zion, pspdat
    8 -116133    2    4       600   0.00000   pspcod,pspxc,lmax,lloc,mmax,r2well
    5.99000000000000    5.00000000000000    0.00000000000000   rchrg,fchrg,qchrg
     nproj     2     2     2
     extension_switch     1
  pspatm : epsatm=   18.88750170
         --- l  ekb(1:nproj) -->
             0   10.584966    0.890424
             1    5.814585    0.741293
             2    1.525459    0.487901
 pspatm: atomic psp has been read  and splines computed

- pspini: atom type   2  psp file is /scratch/users/j/a/jabreu/pseudos/PBEsol/S.psp8
- pspatm: opening atomic psp file    /scratch/users/j/a/jabreu/pseudos/PBEsol/S.psp8
- S     ONCVPSP-3.3.0  r_core=   1.45376   1.45376   1.61851
- 16.00000   6.00000    180112                znucl, zion, pspdat
    8 -116133    2    4       600   0.00000   pspcod,pspxc,lmax,lloc,mmax,r2well
    5.99000000000000    6.00000000000000    0.00000000000000   rchrg,fchrg,qchrg
     nproj     2     2     2
     extension_switch     1
  pspatm : epsatm=    8.71840985
         --- l  ekb(1:nproj) -->
             0    6.834532    0.579453
             1    3.282851    0.896984
             2   -3.496974   -0.974265
 pspatm: atomic psp has been read  and splines computed

- pspini: atom type   3  psp file is /scratch/users/j/a/jabreu/pseudos/PBEsol/N.psp8
- pspatm: opening atomic psp file    /scratch/users/j/a/jabreu/pseudos/PBEsol/N.psp8
- N     ONCVPSP-3.3.0  r_core=   1.20551   1.35824
[...]
 ETOT 10  -5.5471487602405     -7.665E-13 1.076E-06 0.000E+00
 ETOT 11  -5.5471487602405     -6.661E-14 5.363E-07 0.000E+00
 ETOT 12  -5.5471487602405     -8.882E-16 3.044E-07 0.000E+00
 ETOT 13  -5.5471487602405      1.155E-14 1.519E-07 0.000E+00
 ETOT 14  -5.5471487602405     -6.217E-15 8.704E-08 0.000E+00
 ETOT 15  -5.5471487602405     -2.665E-15 4.339E-08 0.000E+00
 ETOT 16  -5.5471487602405      1.776E-15 2.505E-08 0.000E+00
 ETOT 17  -5.5471487602405     -8.882E-16 1.248E-08 0.000E+00
 ETOT 18  -5.5471487602405      1.776E-15 7.245E-09 0.000E+00
 ETOT 19  -5.5471487602405      8.882E-16 3.610E-09 0.000E+00
 ETOT 20  -5.5471487602405     -1.776E-15 2.105E-09 0.000E+00
 ETOT 21  -5.5471487602405      8.882E-16 1.049E-09 0.000E+00
 ETOT 22  -5.5471487602405     -8.882E-16 6.136E-10 0.000E+00
 ETOT 23  -5.5471487602405      0.000E+00 3.058E-10 0.000E+00
 ETOT 24  -5.5471487602405      0.000E+00 1.794E-10 0.000E+00
 ETOT 25  -5.5471487602405      0.000E+00 8.944E-11 0.000E+00
 ETOT 26  -5.5471487602405     -8.882E-16 5.258E-11 0.000E+00
 ETOT 27  -5.5471487602405      0.000E+00 2.622E-11 0.000E+00
 ETOT 28  -5.5471487602405      8.882E-16 1.544E-11 0.000E+00
 ETOT 29  -5.5471487602405     -2.665E-15 7.700E-12 0.000E+00
 ETOT 30  -5.5471487602405      3.553E-15 4.541E-12 0.000E+00
 ETOT 31  -5.5471487602405      0.000E+00 2.264E-12 0.000E+00
 ETOT 32  -5.5471487602405      8.882E-16 1.337E-12 0.000E+00
 ETOT 33  -5.5471487602405     -8.882E-16 6.666E-13 0.000E+00
 ETOT 34  -5.5471487602405      8.882E-16 3.941E-13 0.000E+00
 ETOT 35  -5.5471487602405     -8.882E-16 1.964E-13 0.000E+00
 ETOT 36  -5.5471487602405     -2.665E-15 1.162E-13 0.000E+00
 ETOT 37  -5.5471487602405      0.000E+00 5.793E-14 0.000E+00
 ETOT 38  -5.5471487602405      0.000E+00 3.431E-14 0.000E+00
 ETOT 39  -5.5471487602405      1.776E-15 1.709E-14 0.000E+00
 ETOT 40  -5.5471487602405      0.000E+00 1.013E-14 0.000E+00
 ETOT 41  -5.5471487602405      8.882E-16 5.045E-15 0.000E+00
 ETOT 42  -5.5471487602405     -8.882E-16 2.992E-15 0.000E+00
 ETOT 43  -5.5471487602405      0.000E+00 1.490E-15 0.000E+00
 ETOT 44  -5.5471487602405      0.000E+00 8.841E-16 0.000E+00
 ETOT 45  -5.5471487602405      8.882E-16 4.400E-16 0.000E+00
 ETOT 46  -5.5471487602405     -3.553E-15 2.613E-16 0.000E+00
 ETOT 47  -5.5471487602405      1.776E-15 1.300E-16 0.000E+00
 ETOT 48  -5.5471487602405      8.882E-16 7.724E-17 0.000E+00
 ETOT 49  -5.5471487602405      8.882E-16 3.841E-17 0.000E+00
 ETOT 50  -5.5471487602405      0.000E+00 2.284E-17 0.000E+00
 ETOT 51  -5.5471487602405      1.776E-15 1.135E-17 0.000E+00
 ETOT 52  -5.5471487602405      0.000E+00 6.753E-18 0.000E+00
 ETOT 53  -5.5471487602405     -1.776E-15 3.355E-18 0.000E+00
 ETOT 54  -5.5471487602405      8.882E-16 1.997E-18 0.000E+00
 ETOT 55  -5.5471487602405     -8.882E-16 9.919E-19 0.000E+00
 ETOT 56  -5.5471487602405     -8.882E-16 5.906E-19 0.000E+00
 ETOT 57  -5.5471487602405      8.882E-16 2.933E-19 0.000E+00
 ETOT 58  -5.5471487602405     -8.882E-16 1.747E-19 0.000E+00
 ETOT 59  -5.5471487602405      0.000E+00 8.671E-20 0.000E+00
 ETOT 60  -5.5471487602405      8.882E-16 5.167E-20 0.000E+00
 ETOT 61  -5.5471487602405      0.000E+00 2.564E-20 0.000E+00
 ETOT 62  -5.5471487602405     -1.776E-15 1.528E-20 0.000E+00
 ETOT 63  -5.5471487602405      0.000E+00 9.911E-21 0.000E+00

 At SCF step   63   max residual=  9.91E-21 < tolwfr=  1.00E-20 =>converged.

 ----iterations are completed or convergence reached----

 dfpt_looppert: DFPT cycle converged with prtwf=-1. Will skip output of the 1st-order WFK file.
 dfpt_looppert : ek2=    1.0932006791E+01
          f-sum rule ratio=    1.0235588424E+00
 prteigrs : about to open file /scratch/users/j/a/jabreu/flow_simple_10atoms/flow/w307/t1/tmpdata/tmp_1WF1_EIG
 Expectation of eigenvalue derivatives (hartree) for nkpt=   2  k points:
  (in case of degenerate eigenvalues, averaged derivative)
 kpt#   1, nband= 49, wtk=  0.50000, kpt=  0.0000  0.0000  0.0000 (reduced coord)
  -0.00000    0.00000   -0.00000    0.00000   -0.00000   -0.00000   -0.00000   -0.00000
   0.00000    0.00000    0.00000    0.00000    0.00000    0.00000    0.00000    0.00000
  -0.00000    0.00000    0.00000   -0.00000   -0.00000    0.00000   -0.00000    0.00000
   0.00000    0.00000    0.00000   -0.00000   -0.00000   -0.00000   -0.00000   -0.00000
  -0.00000   -0.00000   -0.00000   -0.00000   -0.00000   -0.00000   -0.00000    0.00000
   0.00000    0.00000   -0.00000    0.00000   -0.00000   -0.00000   -0.00000   -0.00002
   0.00000
 prteigrs : prtvol=0 or 1, do not print more k-points.

 Eight components of 2nd-order total energy (hartree) are
 1,2,3: 0th-order hamiltonian combined with 1st-order wavefunctions
     kin0=   1.07822459E+01 eigvalue=  -1.15159506E+00  local=  -6.46926235E+00
 4,5,6: 1st-order hamiltonian combined with 1st and 0th-order wfs
     kin1=  -1.11895522E+01  Hartree=   0.00000000E+00     xc=   0.00000000E+00
 7,8,9: eventually, occupation + non-local contributions
    edocc=   1.64382746E+00     enl0=   7.41932792E-01   enl1=   9.52546964E-02
 1-9 gives the relaxation energy (to be shifted if some occ is /=2.0)
   erelax=  -5.54714876E+00
  No Ewald or frozen-wf contrib.: the relaxation energy is the total one
 2DEtotal=   -0.5547148760E+01 Ha. Also 2DEtotal=   -0.150945594243E+03 eV
    (  non-var. 2DEtotal :   -5.5471487600E+00 Ha)

 CALCULATION OF EFFECTIVE MASSES
 NOTE : Additional infos (eff. mass eigenvalues, eigenvectors and, if degenerate, average mass) are available in stdout.

 K-point ( 0.000, 0.000, 0.000) | band =    40
 Effective mass tensor:
             -0.5017387234              0.0000000196              0.0000000095
              0.0000000196             -0.5017387209              0.0000000102
              0.0000000095              0.0000000102             -0.3712299530
 Effective mass tensor eigenvalues:
             -0.5017387417             -0.5017387025             -0.3712299530
 Angular average effective mass 1/(<1/m>)=  -0.4491094220
 Angular average effective mass for Frohlich model (<m**0.5>)**2=  -0.4519676228
 Effective masses along directions: (cart. coord. / red. coord. -> eff. mass)
    1:   1.000000  0.000000  0.000000 /   0.894427 -0.447214  0.000000 ->  -0.5017387234
    2:   0.000000  1.000000  0.000000 /   0.000000  1.000000  0.000000 ->  -0.5017387209
    3:   0.000000  0.000000  1.000000 /   0.000000  0.000000  1.000000 ->  -0.3712299530
    4:   0.577350  0.577350  0.577350 /   0.270601  0.099047  0.957583 ->  -0.4491093973
    5:   0.000000  0.707107  0.707107 /   0.000000  0.237713  0.971336 ->  -0.4267288002
    6:   0.707107  0.000000  0.707107 /   0.269458 -0.134729  0.953541 ->  -0.4267288018
    7:   0.707107  0.707107  0.000000 /   0.939071  0.343724  0.000000 ->  -0.5017387026

 K-point ( 0.333, 0.333, 0.000) | band =    41
 Effective mass tensor:
              0.3440452094             -0.0000001170             -0.0000000197
             -0.0000001170              0.3440449020             -0.0000000408
             -0.0000000197             -0.0000000408              0.7890006877
 Effective mass tensor eigenvalues:
              0.3440448625              0.3440452489              0.7890006877
 Angular average effective mass 1/(<1/m>)=   0.4236918232
 Angular average effective mass for Frohlich model (<m**0.5>)**2=   0.4402763956
 Effective masses along directions: (cart. coord. / red. coord. -> eff. mass)
    1:   1.000000  0.000000  0.000000 /   0.894427 -0.447214  0.000000 ->   0.3440452094
    2:   0.000000  1.000000  0.000000 /   0.000000  1.000000  0.000000 ->   0.3440449020
    3:   0.000000  0.000000  1.000000 /   0.000000  0.000000  1.000000 ->   0.7890006877
    4:   0.577350  0.577350  0.577350 /   0.270601  0.099047  0.957583 ->   0.4236916782
    5:   0.000000  0.707107  0.707107 /   0.000000  0.237713  0.971336 ->   0.4791539674
    6:   0.707107  0.000000  0.707107 /   0.269458 -0.134729  0.953541 ->   0.4791542832
    7:   0.707107  0.707107  0.000000 /   0.939071  0.343724  0.000000 ->   0.3440449387

 END OF EFFECTIVE MASSES SECTION

 ---- first-order wavefunction calculations are completed ----

 Total localisation tensor (bohr^2) in cartesian coordinates
  WARNING : still subject to testing - especially symmetries.
      direction              matrix element
   alpha     beta       real part   imaginary part
     1        1       2.5902050093    0.0000000000
     1        2      -0.8972796991    0.0000000000
     1        3       0.0000000000    0.0000000000
     2        1      -0.8972796991    0.0000000000
     2        2       1.5541340274    0.0000000000
     2        3       0.0000000000    0.0000000000
     3        1       0.0000000000    0.0000000000
     3        2       0.0000000000    0.0000000000
     3        3       1.1407884125    0.0000000000

 respfn : d/dk was computed, but no 2DTE, so no DDB output.

== END DATASET(S) ==============================================================

 -outvars: echo values of variables after computation  --------
            acell      1.0000000000E+00  1.0000000000E+00  1.0000000000E+00 Bohr
              amu      9.12240000E+01  3.20660000E+01  1.40067400E+01
             ecut      4.20000000E+01 Hartree
           etotal     -5.5471487602E+00
            fcart      0.0000000000E+00  0.0000000000E+00  0.0000000000E+00
                       0.0000000000E+00  0.0000000000E+00  0.0000000000E+00
                       0.0000000000E+00  0.0000000000E+00  0.0000000000E+00
                       0.0000000000E+00  0.0000000000E+00  0.0000000000E+00
                       0.0000000000E+00  0.0000000000E+00  0.0000000000E+00
                       0.0000000000E+00  0.0000000000E+00  0.0000000000E+00
                       0.0000000000E+00  0.0000000000E+00  0.0000000000E+00
                       0.0000000000E+00  0.0000000000E+00  0.0000000000E+00
                       0.0000000000E+00  0.0000000000E+00  0.0000000000E+00
                       0.0000000000E+00  0.0000000000E+00  0.0000000000E+00
-          fftalg         512
           irdden           1
           irdwfk           1
           istwfk        1    0
              ixc     -116133
              kpt      0.00000000E+00  0.00000000E+00  0.00000000E+00
                       3.33333333E-01  3.33333333E-01  0.00000000E+00
           kptopt           0
P           mkmem           2
P          mkqmem           2
P          mk1mem           2
            natom          10
            nband          49
           nbdbuf           4
            ngfft          40      40     144
             nkpt           2
            nstep        2000
             nsym          24
           ntypat           3
              occ      2.000000  2.000000  2.000000  2.000000  2.000000  2.000000
                       2.000000  2.000000  2.000000  2.000000  2.000000  2.000000
                       2.000000  2.000000  2.000000  2.000000  2.000000  2.000000
                       2.000000  2.000000  2.000000  2.000000  2.000000  2.000000
                       2.000000  2.000000  2.000000  2.000000  2.000000  2.000000
                       2.000000  2.000000  2.000000  2.000000  2.000000  2.000000
                       2.000000  2.000000  2.000000  2.000000  0.000000  0.000000
                       0.000000  0.000000  0.000000  0.000000  0.000000  0.000000
                       0.000000
        optdriver           1
            prtwf          -1
            rfdir           1       1       1
           rfelfd           2
            rprim      6.7926971834E+00  0.0000000000E+00  0.0000000000E+00
                      -3.3963485917E+00  5.8826483210E+00  0.0000000000E+00
                       0.0000000000E+00  0.0000000000E+00  2.4037534096E+01
          spgroup         194
           strten      0.0000000000E+00  0.0000000000E+00  0.0000000000E+00
                       0.0000000000E+00  0.0000000000E+00  0.0000000000E+00
           symrel      1  0  0   0  1  0   0  0  1      -1  0  0   0 -1  0   0  0 -1
                       0  1  0   1  0  0   0  0  1       0 -1  0  -1  0  0   0  0 -1
                       1  1  0  -1  0  0   0  0  1      -1 -1  0   1  0  0   0  0 -1
                      -1  0  0   1  1  0   0  0  1       1  0  0  -1 -1  0   0  0 -1
                       0  1  0  -1 -1  0   0  0  1       0 -1  0   1  1  0   0  0 -1
                      -1 -1  0   0  1  0   0  0  1       1  1  0   0 -1  0   0  0 -1
                      -1  0  0   0 -1  0   0  0  1       1  0  0   0  1  0   0  0 -1
                       0 -1  0  -1  0  0   0  0  1       0  1  0   1  0  0   0  0 -1
                      -1 -1  0   1  0  0   0  0  1       1  1  0  -1  0  0   0  0 -1
                       1  0  0  -1 -1  0   0  0  1      -1  0  0   1  1  0   0  0 -1
                       0 -1  0   1  1  0   0  0  1       0  1  0  -1 -1  0   0  0 -1
                       1  1  0   0 -1  0   0  0  1      -1 -1  0   0  1  0   0  0 -1
            tnons      0.0000000  0.0000000  0.0000000     0.0000000  0.0000000  0.0000000
                       0.0000000  0.0000000  0.5000000     0.0000000  0.0000000  0.5000000
                       0.0000000  0.0000000  0.5000000     0.0000000  0.0000000  0.5000000
                       0.0000000  0.0000000  0.0000000     0.0000000  0.0000000  0.0000000
                       0.0000000  0.0000000  0.0000000     0.0000000  0.0000000  0.0000000
                       0.0000000  0.0000000  0.5000000     0.0000000  0.0000000  0.5000000
                       0.0000000  0.0000000  0.5000000     0.0000000  0.0000000  0.5000000
                       0.0000000  0.0000000  0.0000000     0.0000000  0.0000000  0.0000000
                       0.0000000  0.0000000  0.0000000     0.0000000  0.0000000  0.0000000
                       0.0000000  0.0000000  0.5000000     0.0000000  0.0000000  0.5000000
                       0.0000000  0.0000000  0.5000000     0.0000000  0.0000000  0.5000000
                       0.0000000  0.0000000  0.0000000     0.0000000  0.0000000  0.0000000
           tolwfr      1.00000000E-20
            typat      1  1  1  1  2  2  3  3  3  3
           useylm           1
              wtk        0.50000    0.50000
           xangst      2.3500188843E-16  2.0753089451E+00  7.6668459116E+00
                       1.7972702672E+00  1.0376544725E+00  1.3067883144E+00
                       1.7972702672E+00  1.0376544725E+00  5.0532692828E+00
                       2.3500188843E-16  2.0753089451E+00  1.1413326880E+01
                       0.0000000000E+00  0.0000000000E+00  3.1800287986E+00
                       0.0000000000E+00  0.0000000000E+00  9.5400863958E+00
                       1.7972702672E+00  1.0376544725E+00  7.2281800190E+00
                       2.3500188843E-16  2.0753089451E+00  8.6812242179E-01
                       2.3500188843E-16  2.0753089451E+00  5.4919351754E+00
                       1.7972702672E+00  1.0376544725E+00  1.1851992773E+01
            xcart      4.4408920985E-16  3.9217655473E+00  1.4488239076E+01
                       3.3963485917E+00  1.9608827737E+00  2.4694720278E+00
                       3.3963485917E+00  1.9608827737E+00  9.5492950203E+00
                       4.4408920985E-16  3.9217655473E+00  2.1568062068E+01
                       0.0000000000E+00  0.0000000000E+00  6.0093835240E+00
                       0.0000000000E+00  0.0000000000E+00  1.8028150572E+01
                       3.3963485917E+00  1.9608827737E+00  1.3659280675E+01
                       4.4408920985E-16  3.9217655473E+00  1.6405136270E+00
                       4.4408920985E-16  3.9217655473E+00  1.0378253421E+01
                       3.3963485917E+00  1.9608827737E+00  2.2397020469E+01
             xred      3.3333333333E-01  6.6666666667E-01  6.0273400000E-01
                       6.6666666667E-01  3.3333333333E-01  1.0273400000E-01
                       6.6666666667E-01  3.3333333333E-01  3.9726600000E-01
                       3.3333333333E-01  6.6666666667E-01  8.9726600000E-01
                       0.0000000000E+00  0.0000000000E+00  2.5000000000E-01
                       0.0000000000E+00  0.0000000000E+00  7.5000000000E-01
                       6.6666666667E-01  3.3333333333E-01  5.6824800000E-01
                       3.3333333333E-01  6.6666666667E-01  6.8248000000E-02
                       3.3333333333E-01  6.6666666667E-01  4.3175200000E-01
                       6.6666666667E-01  3.3333333333E-01  9.3175200000E-01
            znucl       40.00000   16.00000    7.00000

- Timing analysis has been suppressed with timopt=0

 Suggested references for the acknowledgment of ABINIT usage.

 Calculation completed.
.Delivered   2 WARNINGs and   5 COMMENTs to log file.