.Version 9.5.1 of ABINIT

 ABINIT is a project of the Universite Catholique de Louvain,
 Corning Inc. and other collaborators, see ~abinit/doc/developers/contributors.txt .
 acknowledgments of the ABINIT effort.

.Starting date : Tue 11 May 2021.
- ( at 21h17 )

- input  file    -> /scratch/users/j/a/jabreu/flow_simple_8atoms/flow/w285/t1/run.abi
- output file    -> /scratch/users/j/a/jabreu/flow_simple_8atoms/flow/w285/t1/run.abo
- root for input  files -> /scratch/users/j/a/jabreu/flow_simple_8atoms/flow/w285/t1/indata/in
- root for output files -> /scratch/users/j/a/jabreu/flow_simple_8atoms/flow/w285/t1/outdata/out

 Symmetries : space group Fd -3 m (#227); Bravais cF (face-center cubic)
     intxc =       0      iscf =       7    lmnmax =      32     lnmax =       8
     mgfft =      72  mpssoang =       4    mqgrid =    3001     natom =       8
  nloc_mem =       1    nspden =       1   nspinor =       1    nsppol =       1
      nsym =      48    n1xccc =    2501    ntypat =       3    occopt =       1
   xclevel =       2
-    mband =          33        mffmem =           1         mkmem =           2
-   mkqmem =           2        mk1mem =           2           mpw =       12548
      nfft =      373248          nkpt =           2
  Rough estimation (10% accuracy) of disk space for files :

------------- Echo of variables that govern the present computation ------------
-
- outvars: echo of selected default values
-   iomode0 =  0 , fftalg0 =512 , wfoptalg0 =  0
-
- outvars: echo of global parameters not present in the input file
-  max_nthreads =    0
-
 -outvars: echo values of preprocessed input variables --------
            acell      1.0000000000E+00  1.0000000000E+00  1.0000000000E+00 Bohr
              amu      1.32905430E+02  2.69815390E+01  1.59994000E+01
             ecut      4.40000000E+01 Hartree
-          fftalg         512
           irdden           1
           irdwfk           1
           istwfk        1    1
              ixc     -116133
              kpt      5.00000000E-01  5.00000000E-01  5.00000000E-01
                       0.00000000E+00  0.00000000E+00  0.00000000E+00
           kptopt           0
P           mkmem           2
P          mkqmem           2
P          mk1mem           2
            natom           8
            nband          33
           nbdbuf           4
            ngfft          72      72      72
             nkpt           2
            nstep        2000
             nsym          48
           ntypat           3
              occ      2.000000  2.000000  2.000000  2.000000  2.000000  2.000000
                       2.000000  2.000000  2.000000  2.000000  2.000000  2.000000
                       2.000000  2.000000  2.000000  2.000000  2.000000  2.000000
                       2.000000  2.000000  2.000000  2.000000  2.000000  2.000000
                       0.000000  0.000000  0.000000  0.000000  0.000000  0.000000
                       0.000000  0.000000  0.000000
        optdriver           1
            prtwf          -1
            rfdir           1       1       1
           rfelfd           2
            rprim      9.3848369358E+00  0.0000000000E+00  5.4183381312E+00
                       3.1282789786E+00  8.8481091169E+00  5.4183381312E+00
                       0.0000000000E+00  0.0000000000E+00  1.0836676262E+01
          spgroup         227
           symrel      1  0  0   0  1  0   0  0  1      -1  0  0   0 -1  0   0  0 -1
                       0 -1  1   0 -1  0   1 -1  0       0  1 -1   0  1  0  -1  1  0
                      -1  0  0  -1  0  1  -1  1  0       1  0  0   1  0 -1   1 -1  0
                       0  1 -1   1  0 -1   0  0 -1       0 -1  1  -1  0  1   0  0  1
                      -1  0  0  -1  1  0  -1  0  1       1  0  0   1 -1  0   1  0 -1
                       0 -1  1   1 -1  0   0 -1  0       0  1 -1  -1  1  0   0  1  0
                       1  0  0   0  0  1   0  1  0      -1  0  0   0  0 -1   0 -1  0
                       0  1 -1   0  0 -1   1  0 -1       0 -1  1   0  0  1  -1  0  1
                      -1  0  1  -1  1  0  -1  0  0       1  0 -1   1 -1  0   1  0  0
                       0 -1  0   1 -1  0   0 -1  1       0  1  0  -1  1  0   0  1 -1
                       1  0 -1   0  0 -1   0  1 -1      -1  0  1   0  0  1   0 -1  1
                       0  1  0   0  0  1   1  0  0       0 -1  0   0  0 -1  -1  0  0
                       1  0 -1   0  1 -1   0  0 -1      -1  0  1   0 -1  1   0  0  1
                       0 -1  0   0 -1  1   1 -1  0       0  1  0   0  1 -1  -1  1  0
                      -1  0  1  -1  0  0  -1  1  0       1  0 -1   1  0  0   1 -1  0
                       0  1  0   1  0  0   0  0  1       0 -1  0  -1  0  0   0  0 -1
                       0  0 -1   0  1 -1   1  0 -1       0  0  1   0 -1  1  -1  0  1
                       1 -1  0   0 -1  1   0 -1  0      -1  1  0   0  1 -1   0  1  0
                       0  0  1   1  0  0   0  1  0       0  0 -1  -1  0  0   0 -1  0
                      -1  1  0  -1  0  0  -1  0  1       1 -1  0   1  0  0   1  0 -1
                       0  0  1   0  1  0   1  0  0       0  0 -1   0 -1  0  -1  0  0
                       1 -1  0   0 -1  0   0 -1  1      -1  1  0   0  1  0   0  1 -1
                       0  0 -1   1  0 -1   0  1 -1       0  0  1  -1  0  1   0 -1  1
                      -1  1  0  -1  0  1  -1  0  0       1 -1  0   1  0 -1   1  0  0
            tnons      0.0000000  0.0000000  0.0000000     0.2500000  0.2500000  0.2500000
                       0.0000000  0.0000000  0.0000000     0.2500000  0.2500000  0.2500000
                       0.0000000  0.0000000  0.0000000     0.2500000  0.2500000  0.2500000
                       0.0000000  0.0000000  0.0000000     0.2500000  0.2500000  0.2500000
                       0.0000000  0.0000000  0.0000000     0.2500000  0.2500000  0.2500000
                       0.0000000  0.0000000  0.0000000     0.2500000  0.2500000  0.2500000
                       0.0000000  0.0000000  0.0000000     0.2500000  0.2500000  0.2500000
                       0.0000000  0.0000000  0.0000000     0.2500000  0.2500000  0.2500000
                       0.0000000  0.0000000  0.0000000     0.2500000  0.2500000  0.2500000
                       0.0000000  0.0000000  0.0000000     0.2500000  0.2500000  0.2500000
                       0.0000000  0.0000000  0.0000000     0.2500000  0.2500000  0.2500000
                       0.0000000  0.0000000  0.0000000     0.2500000  0.2500000  0.2500000
                       0.0000000  0.0000000  0.0000000     0.2500000  0.2500000  0.2500000
                       0.0000000  0.0000000  0.0000000     0.2500000  0.2500000  0.2500000
                       0.0000000  0.0000000  0.0000000     0.2500000  0.2500000  0.2500000
                       0.0000000  0.0000000  0.0000000     0.2500000  0.2500000  0.2500000
                       0.0000000  0.0000000  0.0000000     0.2500000  0.2500000  0.2500000
                       0.0000000  0.0000000  0.0000000     0.2500000  0.2500000  0.2500000
                       0.0000000  0.0000000  0.0000000     0.2500000  0.2500000  0.2500000
                       0.0000000  0.0000000  0.0000000     0.2500000  0.2500000  0.2500000
                       0.0000000  0.0000000  0.0000000     0.2500000  0.2500000  0.2500000
                       0.0000000  0.0000000  0.0000000     0.2500000  0.2500000  0.2500000
                       0.0000000  0.0000000  0.0000000     0.2500000  0.2500000  0.2500000
                       0.0000000  0.0000000  0.0000000     0.2500000  0.2500000  0.2500000
           tolwfr      1.00000000E-20
            typat      1  1  2  2  3  3  3  3
           useylm           1
              wtk        0.50000    0.50000
           xangst      3.3108278752E+00  2.3411088419E+00  5.7345220949E+00
                       4.9662418128E+00  3.5116632628E+00  8.6017831424E+00
                       1.6554139376E+00  1.1705544209E+00  2.8672610475E+00
                       0.0000000000E+00  0.0000000000E+00  0.0000000000E+00
                       3.3108278752E+00  5.8527721047E-01  2.8672610475E+00
                       1.6554139376E+00  2.9263860524E+00  2.8672610475E+00
                       8.2770696879E-01  5.8527721047E-01  1.4336305237E+00
                       8.2770696879E-01  5.8527721047E-01  4.3008915712E+00
            xcart      6.2565579572E+00  4.4240545584E+00  1.0836676262E+01
                       9.3848369358E+00  6.6360818377E+00  1.6255014394E+01
                       3.1282789786E+00  2.2120272792E+00  5.4183381312E+00
                       0.0000000000E+00  0.0000000000E+00  0.0000000000E+00
                       6.2565579572E+00  1.1060136396E+00  5.4183381312E+00
                       3.1282789786E+00  5.5300681981E+00  5.4183381312E+00
                       1.5641394893E+00  1.1060136396E+00  2.7091690656E+00
                       1.5641394893E+00  1.1060136396E+00  8.1275071968E+00
             xred      5.0000000000E-01  5.0000000000E-01  5.0000000000E-01
                       7.5000000000E-01  7.5000000000E-01  7.5000000000E-01
                       2.5000000000E-01  2.5000000000E-01  2.5000000000E-01
                       0.0000000000E+00  0.0000000000E+00  0.0000000000E+00
                       6.2500000000E-01  1.2500000000E-01  1.2500000000E-01
                       1.2500000000E-01  6.2500000000E-01  1.2500000000E-01
                       1.2500000000E-01  1.2500000000E-01  1.2500000000E-01
                       1.2500000000E-01  1.2500000000E-01  6.2500000000E-01
            znucl       55.00000   13.00000    8.00000

 chkinp: Checking input parameters for consistency.

== DATASET  1 ==================================================================
-   mpi_nproc: 1, omp_nthreads: -1 (-1 if OMP is not activated)

--- !DatasetInfo
iteration_state: {dtset: 1, }
dimensions: {natom: 8, nkpt: 2, mband: 33, nsppol: 1, nspinor: 1, nspden: 1, mpw: 12548, }
cutoff_energies: {ecut:  44.0, pawecutdg:  -1.0, }
electrons: {nelect:   4.80000000E+01, charge:   0.00000000E+00, occopt:   1.00000000E+00, tsmear:   1.00000000E-02, }
meta: {optdriver: 1, rfelfd: 2, }
...

 Real(R)+Recip(G) space primitive vectors, cartesian coordinates (Bohr,Bohr^-1):
 R(1)=  9.3848369  0.0000000  5.4183381  G(1)=  0.1065549 -0.0376728  0.0000000
 R(2)=  3.1282790  8.8481091  5.4183381  G(2)=  0.0000000  0.1130185  0.0000000
 R(3)=  0.0000000  0.0000000 10.8366763  G(3)= -0.0532774 -0.0376728  0.0922792
 Unit cell volume ucvol=  8.9985659E+02 bohr^3
 Angles (23,13,12)=  6.00000000E+01  6.00000000E+01  6.00000000E+01 degrees

 getcut: wavevector=  0.0000  0.0000  0.0000  ngfft=  72  72  72
         ecut(hartree)=     44.000   => boxcut(ratio)=   2.22508

 getcut : COMMENT -
  Note that boxcut > 2.2 ; recall that boxcut=Gcut(box)/Gcut(sphere) = 2
  is sufficient for exact treatment of convolution.
  Such a large boxcut is a waste : you could raise ecut
  e.g. ecut=   54.460616 Hartrees makes boxcut=2

--- Pseudopotential description ------------------------------------------------
- pspini: atom type   1  psp file is /scratch/users/j/a/jabreu/pseudos/PBEsol/Cs.psp8
[...]
 symkpt : not enough symmetry to change the number of k points.

-inwffil : will read wavefunctions from disk file /scratch/users/j/a/jabreu/flow_simple_8atoms/flow/w285/t1/indata/in_WFK

 Initialisation of the first-order wave-functions :
  ireadwf=   0

--- !BeginCycle
iteration_state: {dtset: 1, }
solver: {iscf: 7, nstep: 2000, nline: 4, wfoptalg: 0, }
tolerances: {tolwfr: 1.00E-20, }
...

     iter   2DEtotal(Ha)        deltaE(Ha) residm    vres2
-ETOT  1  -26.953150631800     -2.695E+01 3.596E-02 0.000E+00
 ETOT  2  -26.979721915679     -2.657E-02 2.715E-03 0.000E+00
 ETOT  3  -26.980870522714     -1.149E-03 3.928E-04 0.000E+00
 ETOT  4  -26.980946757491     -7.623E-05 5.800E-05 0.000E+00
 ETOT  5  -26.980952750905     -5.993E-06 1.443E-05 0.000E+00
 ETOT  6  -26.980953273646     -5.227E-07 2.624E-06 0.000E+00
 ETOT  7  -26.980953321968     -4.832E-08 5.999E-07 0.000E+00
 ETOT  8  -26.980953326631     -4.663E-09 1.283E-07 0.000E+00
 ETOT  9  -26.980953327095     -4.638E-10 2.933E-08 0.000E+00
 ETOT 10  -26.980953327142     -4.727E-11 6.504E-09 0.000E+00
 ETOT 11  -26.980953327147     -4.921E-12 1.478E-09 0.000E+00
 ETOT 12  -26.980953327147     -5.009E-13 3.378E-10 0.000E+00
 ETOT 13  -26.980953327148     -8.171E-14 7.686E-11 0.000E+00
 ETOT 14  -26.980953327148      1.066E-14 1.788E-11 0.000E+00
 ETOT 15  -26.980953327147      7.105E-15 4.103E-12 0.000E+00
 ETOT 16  -26.980953327147      7.105E-15 9.620E-13 0.000E+00
 ETOT 17  -26.980953327147     -7.105E-15 2.233E-13 0.000E+00
 ETOT 18  -26.980953327147      7.105E-15 5.244E-14 0.000E+00
 ETOT 19  -26.980953327147      0.000E+00 1.233E-14 0.000E+00
 ETOT 20  -26.980953327147     -7.105E-15 2.890E-15 0.000E+00
 ETOT 21  -26.980953327147      7.105E-15 6.892E-16 0.000E+00
 ETOT 22  -26.980953327147     -3.553E-15 1.607E-16 0.000E+00
 ETOT 23  -26.980953327147      0.000E+00 3.887E-17 0.000E+00
 ETOT 24  -26.980953327147      0.000E+00 9.006E-18 0.000E+00
 ETOT 25  -26.980953327147      7.105E-15 2.208E-18 0.000E+00
 ETOT 26  -26.980953327147     -1.066E-14 5.078E-19 0.000E+00
 ETOT 27  -26.980953327147     -3.553E-15 1.262E-19 0.000E+00
 ETOT 28  -26.980953327147      3.553E-15 2.878E-20 0.000E+00
 ETOT 29  -26.980953327147     -3.553E-15 9.833E-21 0.000E+00

 At SCF step   29   max residual=  9.83E-21 < tolwfr=  1.00E-20 =>converged.

 ----iterations are completed or convergence reached----

 dfpt_looppert: DFPT cycle converged with prtwf=-1. Will skip output of the 1st-order WFK file.
 dfpt_looppert : ek2=    4.8409436810E+01
          f-sum rule ratio=    1.0621813433E+00
 prteigrs : about to open file /scratch/users/j/a/jabreu/flow_simple_8atoms/flow/w285/t1/tmpdata/tmp_1WF1_EIG
 Expectation of eigenvalue derivatives (hartree) for nkpt=   2  k points:
  (in case of degenerate eigenvalues, averaged derivative)
 kpt#   1, nband= 33, wtk=  0.50000, kpt=  0.5000  0.5000  0.5000 (reduced coord)
   0.00000   -0.00000    0.00000   -0.00000   -0.00000   -0.00000    0.00000    0.00000
   0.00000    0.00000   -0.00000   -0.00000   -0.00000    0.00000   -0.00000   -0.00000
  -0.00000   -0.00000   -0.00000    0.00000    0.00000   -0.00000   -0.00000    0.00000
  -0.00000    0.00000    0.00000    0.00000   -0.00000   -0.00000    0.00000    0.00000
   0.00000
 prteigrs : prtvol=0 or 1, do not print more k-points.

 Eight components of 2nd-order total energy (hartree) are
 1,2,3: 0th-order hamiltonian combined with 1st-order wavefunctions
     kin0=   3.10588926E+01 eigvalue=  -8.48023201E-01  local=  -1.37356569E+01
 4,5,6: 1st-order hamiltonian combined with 1st and 0th-order wfs
     kin1=  -5.14196006E+01  Hartree=   0.00000000E+00     xc=   0.00000000E+00
 7,8,9: eventually, occupation + non-local contributions
    edocc=   8.40911338E+00     enl0=   2.09662736E+00   enl1=  -2.54230604E+00
 1-9 gives the relaxation energy (to be shifted if some occ is /=2.0)
   erelax=  -2.69809533E+01
  No Ewald or frozen-wf contrib.: the relaxation energy is the total one
 2DEtotal=   -0.2698095333E+02 Ha. Also 2DEtotal=   -0.734189077894E+03 eV
    (  non-var. 2DEtotal :   -2.6980953327E+01 Ha)

 CALCULATION OF EFFECTIVE MASSES
 NOTE : Additional infos (eff. mass eigenvalues, eigenvectors and, if degenerate, average mass) are available in stdout.

 K-point ( 0.500, 0.500, 0.500) | band =    24
 Effective mass tensor:
            -12.5261543308             -8.0747274160            -19.7789619759
             -8.0747274160             -6.8164598183            -13.9858381383
            -19.7789619759            -13.9858381383            -35.3649323625
 Effective mass tensor eigenvalues:
            -52.4940158982             -1.1067653072             -1.1067653062
 Angular average effective mass 1/(<1/m>)=  -1.6428295408
 Angular average effective mass for Frohlich model (<m**0.5>)**2=  -2.2960846566
 Effective masses along directions: (cart. coord. / red. coord. -> eff. mass)
    1:   1.000000  0.000000  0.000000 /   0.948683  0.316228  0.000000 ->  -1.4144633815
    2:   0.000000  1.000000  0.000000 /   0.000000  1.000000  0.000000 ->  -1.2418381598
    3:   0.000000  0.000000  1.000000 /   0.408248  0.408248  0.816497 ->  -3.1859529064
    4:   0.577350  0.577350  0.577350 /   0.585539  0.688047  0.428644 ->  -7.7755921030
    5:   0.000000  0.707107  0.707107 /   0.289489  0.762222  0.578977 ->  -3.1363518132
    6:   0.707107  0.000000  0.707107 /   0.731423  0.422287  0.535439 ->  -5.8826379787
    7:   0.707107  0.707107  0.000000 /   0.616798  0.787122  0.000000 ->  -1.6203867252

 K-point ( 0.000, 0.000, 0.000) | band =    25
 Effective mass tensor:
              0.3369884046              0.0000001646             -0.0000000848
              0.0000001646              0.3369882262              0.0000001510
             -0.0000000848              0.0000001510              0.3369884396
 Effective mass tensor eigenvalues:
              0.3369880510              0.3369885016              0.3369885178
 Angular average effective mass 1/(<1/m>)=   0.3369883568
 Angular average effective mass for Frohlich model (<m**0.5>)**2=   0.3369883568
 Effective masses along directions: (cart. coord. / red. coord. -> eff. mass)
    1:   1.000000  0.000000  0.000000 /   0.948683  0.316228  0.000000 ->   0.3369884046
    2:   0.000000  1.000000  0.000000 /   0.000000  1.000000  0.000000 ->   0.3369882262
    3:   0.000000  0.000000  1.000000 /   0.408248  0.408248  0.816497 ->   0.3369884396
    4:   0.577350  0.577350  0.577350 /   0.585539  0.688047  0.428644 ->   0.3369885106
    5:   0.000000  0.707107  0.707107 /   0.289489  0.762222  0.578977 ->   0.3369884839
    6:   0.707107  0.000000  0.707107 /   0.731423  0.422287  0.535439 ->   0.3369883372
    7:   0.707107  0.707107  0.000000 /   0.616798  0.787122  0.000000 ->   0.3369884800

 END OF EFFECTIVE MASSES SECTION

 ---- first-order wavefunction calculations are completed ----

 Total localisation tensor (bohr^2) in cartesian coordinates
  WARNING : still subject to testing - especially symmetries.
      direction              matrix element
   alpha     beta       real part   imaginary part
     1        1       1.1662324158    0.0000000000
     1        2       0.3298603272    0.0000000000
     1        3       0.8079895139    0.0000000000
     2        1       0.3298603272    0.0000000000
     2        2       0.9329858968    0.0000000000
     2        3       0.5713348461    0.0000000000
     3        1       0.8079895139    0.0000000000
     3        2       0.5713348461    0.0000000000
     3        3       2.0992183025    0.0000000000

 respfn : d/dk was computed, but no 2DTE, so no DDB output.

== END DATASET(S) ==============================================================

 -outvars: echo values of variables after computation  --------
            acell      1.0000000000E+00  1.0000000000E+00  1.0000000000E+00 Bohr
              amu      1.32905430E+02  2.69815390E+01  1.59994000E+01
             ecut      4.40000000E+01 Hartree
           etotal     -2.6980953327E+01
            fcart      0.0000000000E+00  0.0000000000E+00  0.0000000000E+00
                       0.0000000000E+00  0.0000000000E+00  0.0000000000E+00
                       0.0000000000E+00  0.0000000000E+00  0.0000000000E+00
                       0.0000000000E+00  0.0000000000E+00  0.0000000000E+00
                       0.0000000000E+00  0.0000000000E+00  0.0000000000E+00
                       0.0000000000E+00  0.0000000000E+00  0.0000000000E+00
                       0.0000000000E+00  0.0000000000E+00  0.0000000000E+00
                       0.0000000000E+00  0.0000000000E+00  0.0000000000E+00
-          fftalg         512
           irdden           1
           irdwfk           1
           istwfk        1    1
              ixc     -116133
              kpt      5.00000000E-01  5.00000000E-01  5.00000000E-01
                       0.00000000E+00  0.00000000E+00  0.00000000E+00
           kptopt           0
P           mkmem           2
P          mkqmem           2
P          mk1mem           2
            natom           8
            nband          33
           nbdbuf           4
            ngfft          72      72      72
             nkpt           2
            nstep        2000
             nsym          48
           ntypat           3
              occ      2.000000  2.000000  2.000000  2.000000  2.000000  2.000000
                       2.000000  2.000000  2.000000  2.000000  2.000000  2.000000
                       2.000000  2.000000  2.000000  2.000000  2.000000  2.000000
                       2.000000  2.000000  2.000000  2.000000  2.000000  2.000000
                       0.000000  0.000000  0.000000  0.000000  0.000000  0.000000
                       0.000000  0.000000  0.000000
        optdriver           1
            prtwf          -1
            rfdir           1       1       1
           rfelfd           2
            rprim      9.3848369358E+00  0.0000000000E+00  5.4183381312E+00
                       3.1282789786E+00  8.8481091169E+00  5.4183381312E+00
                       0.0000000000E+00  0.0000000000E+00  1.0836676262E+01
          spgroup         227
           strten      0.0000000000E+00  0.0000000000E+00  0.0000000000E+00
                       0.0000000000E+00  0.0000000000E+00  0.0000000000E+00
           symrel      1  0  0   0  1  0   0  0  1      -1  0  0   0 -1  0   0  0 -1
                       0 -1  1   0 -1  0   1 -1  0       0  1 -1   0  1  0  -1  1  0
                      -1  0  0  -1  0  1  -1  1  0       1  0  0   1  0 -1   1 -1  0
                       0  1 -1   1  0 -1   0  0 -1       0 -1  1  -1  0  1   0  0  1
                      -1  0  0  -1  1  0  -1  0  1       1  0  0   1 -1  0   1  0 -1
                       0 -1  1   1 -1  0   0 -1  0       0  1 -1  -1  1  0   0  1  0
                       1  0  0   0  0  1   0  1  0      -1  0  0   0  0 -1   0 -1  0
                       0  1 -1   0  0 -1   1  0 -1       0 -1  1   0  0  1  -1  0  1
                      -1  0  1  -1  1  0  -1  0  0       1  0 -1   1 -1  0   1  0  0
                       0 -1  0   1 -1  0   0 -1  1       0  1  0  -1  1  0   0  1 -1
                       1  0 -1   0  0 -1   0  1 -1      -1  0  1   0  0  1   0 -1  1
                       0  1  0   0  0  1   1  0  0       0 -1  0   0  0 -1  -1  0  0
                       1  0 -1   0  1 -1   0  0 -1      -1  0  1   0 -1  1   0  0  1
                       0 -1  0   0 -1  1   1 -1  0       0  1  0   0  1 -1  -1  1  0
                      -1  0  1  -1  0  0  -1  1  0       1  0 -1   1  0  0   1 -1  0
                       0  1  0   1  0  0   0  0  1       0 -1  0  -1  0  0   0  0 -1
                       0  0 -1   0  1 -1   1  0 -1       0  0  1   0 -1  1  -1  0  1
                       1 -1  0   0 -1  1   0 -1  0      -1  1  0   0  1 -1   0  1  0
                       0  0  1   1  0  0   0  1  0       0  0 -1  -1  0  0   0 -1  0
                      -1  1  0  -1  0  0  -1  0  1       1 -1  0   1  0  0   1  0 -1
                       0  0  1   0  1  0   1  0  0       0  0 -1   0 -1  0  -1  0  0
                       1 -1  0   0 -1  0   0 -1  1      -1  1  0   0  1  0   0  1 -1
                       0  0 -1   1  0 -1   0  1 -1       0  0  1  -1  0  1   0 -1  1
                      -1  1  0  -1  0  1  -1  0  0       1 -1  0   1  0 -1   1  0  0
            tnons      0.0000000  0.0000000  0.0000000     0.2500000  0.2500000  0.2500000
                       0.0000000  0.0000000  0.0000000     0.2500000  0.2500000  0.2500000
                       0.0000000  0.0000000  0.0000000     0.2500000  0.2500000  0.2500000
                       0.0000000  0.0000000  0.0000000     0.2500000  0.2500000  0.2500000
                       0.0000000  0.0000000  0.0000000     0.2500000  0.2500000  0.2500000
                       0.0000000  0.0000000  0.0000000     0.2500000  0.2500000  0.2500000
                       0.0000000  0.0000000  0.0000000     0.2500000  0.2500000  0.2500000
                       0.0000000  0.0000000  0.0000000     0.2500000  0.2500000  0.2500000
                       0.0000000  0.0000000  0.0000000     0.2500000  0.2500000  0.2500000
                       0.0000000  0.0000000  0.0000000     0.2500000  0.2500000  0.2500000
                       0.0000000  0.0000000  0.0000000     0.2500000  0.2500000  0.2500000
                       0.0000000  0.0000000  0.0000000     0.2500000  0.2500000  0.2500000
                       0.0000000  0.0000000  0.0000000     0.2500000  0.2500000  0.2500000
                       0.0000000  0.0000000  0.0000000     0.2500000  0.2500000  0.2500000
                       0.0000000  0.0000000  0.0000000     0.2500000  0.2500000  0.2500000
                       0.0000000  0.0000000  0.0000000     0.2500000  0.2500000  0.2500000
                       0.0000000  0.0000000  0.0000000     0.2500000  0.2500000  0.2500000
                       0.0000000  0.0000000  0.0000000     0.2500000  0.2500000  0.2500000
                       0.0000000  0.0000000  0.0000000     0.2500000  0.2500000  0.2500000
                       0.0000000  0.0000000  0.0000000     0.2500000  0.2500000  0.2500000
                       0.0000000  0.0000000  0.0000000     0.2500000  0.2500000  0.2500000
                       0.0000000  0.0000000  0.0000000     0.2500000  0.2500000  0.2500000
                       0.0000000  0.0000000  0.0000000     0.2500000  0.2500000  0.2500000
                       0.0000000  0.0000000  0.0000000     0.2500000  0.2500000  0.2500000
           tolwfr      1.00000000E-20
            typat      1  1  2  2  3  3  3  3
           useylm           1
              wtk        0.50000    0.50000
           xangst      3.3108278752E+00  2.3411088419E+00  5.7345220949E+00
                       4.9662418128E+00  3.5116632628E+00  8.6017831424E+00
                       1.6554139376E+00  1.1705544209E+00  2.8672610475E+00
                       0.0000000000E+00  0.0000000000E+00  0.0000000000E+00
                       3.3108278752E+00  5.8527721047E-01  2.8672610475E+00
                       1.6554139376E+00  2.9263860524E+00  2.8672610475E+00
                       8.2770696879E-01  5.8527721047E-01  1.4336305237E+00
                       8.2770696879E-01  5.8527721047E-01  4.3008915712E+00
            xcart      6.2565579572E+00  4.4240545584E+00  1.0836676262E+01
                       9.3848369358E+00  6.6360818377E+00  1.6255014394E+01
                       3.1282789786E+00  2.2120272792E+00  5.4183381312E+00
                       0.0000000000E+00  0.0000000000E+00  0.0000000000E+00
                       6.2565579572E+00  1.1060136396E+00  5.4183381312E+00
                       3.1282789786E+00  5.5300681981E+00  5.4183381312E+00
                       1.5641394893E+00  1.1060136396E+00  2.7091690656E+00
                       1.5641394893E+00  1.1060136396E+00  8.1275071968E+00
             xred      5.0000000000E-01  5.0000000000E-01  5.0000000000E-01
                       7.5000000000E-01  7.5000000000E-01  7.5000000000E-01
                       2.5000000000E-01  2.5000000000E-01  2.5000000000E-01
                       0.0000000000E+00  0.0000000000E+00  0.0000000000E+00
                       6.2500000000E-01  1.2500000000E-01  1.2500000000E-01
                       1.2500000000E-01  6.2500000000E-01  1.2500000000E-01
                       1.2500000000E-01  1.2500000000E-01  1.2500000000E-01
                       1.2500000000E-01  1.2500000000E-01  6.2500000000E-01
            znucl       55.00000   13.00000    8.00000

- Timing analysis has been suppressed with timopt=0

 Suggested references for the acknowledgment of ABINIT usage.

 Calculation completed.
.Delivered  14 WARNINGs and  15 COMMENTs to log file.