.Version 9.5.2 of ABINIT

 ABINIT is a project of the Universite Catholique de Louvain,
 Corning Inc. and other collaborators, see ~abinit/doc/developers/contributors.txt .
 acknowledgments of the ABINIT effort.

.Starting date : Mon 24 May 2021.
- ( at 11h18 )

- input  file    -> /scratch/users/j/a/jabreu/flow_simple_10atoms/flow/w315/t1/run.abi
- output file    -> /scratch/users/j/a/jabreu/flow_simple_10atoms/flow/w315/t1/run.abo
- root for input  files -> /scratch/users/j/a/jabreu/flow_simple_10atoms/flow/w315/t1/indata/in
- root for output files -> /scratch/users/j/a/jabreu/flow_simple_10atoms/flow/w315/t1/outdata/out

 Symmetries : space group Cm c 2_1 (# 36); Bravais oC (1-face-center ortho.)
     intxc =       0      iscf =       7    lmnmax =      18     lnmax =       6
     mgfft =     125  mpssoang =       3    mqgrid =    6101     natom =      10
  nloc_mem =       1    nspden =       1   nspinor =       1    nsppol =       1
      nsym =       4    n1xccc =    2501    ntypat =       3    occopt =       1
   xclevel =       2
-    mband =          57        mffmem =           1         mkmem =           2
-   mkqmem =           2        mk1mem =           2           mpw =       18566
      nfft =      512000          nkpt =           2
  Rough estimation (10% accuracy) of disk space for files :

------------- Echo of variables that govern the present computation ------------
-
- outvars: echo of selected default values
-   iomode0 =  0 , fftalg0 =512 , wfoptalg0 =  0
-
- outvars: echo of global parameters not present in the input file
-  max_nthreads =    0
-
 -outvars: echo values of preprocessed input variables --------
            acell      1.0000000000E+00  1.0000000000E+00  1.0000000000E+00 Bohr
              amu      2.29897680E+01  1.06420000E+02  3.20660000E+01
             ecut      4.40000000E+01 Hartree
-          fftalg         512
           irdden           1
           irdwfk           1
              ixc     -116133
              kpt     -5.00000000E-01  5.00000000E-01  0.00000000E+00
                       1.21063614E-01  1.21063614E-01  0.00000000E+00
           kptopt           0
P           mkmem           2
P          mkqmem           2
P          mk1mem           2
            natom          10
            nband          57
           nbdbuf           4
            ngfft          64      64     125
             nkpt           2
            nstep        2000
             nsym           4
           ntypat           3
              occ      2.000000  2.000000  2.000000  2.000000  2.000000  2.000000
                       2.000000  2.000000  2.000000  2.000000  2.000000  2.000000
                       2.000000  2.000000  2.000000  2.000000  2.000000  2.000000
                       2.000000  2.000000  2.000000  2.000000  2.000000  2.000000
                       2.000000  2.000000  2.000000  2.000000  2.000000  2.000000
                       2.000000  2.000000  2.000000  2.000000  2.000000  2.000000
                       2.000000  2.000000  2.000000  2.000000  2.000000  2.000000
                       2.000000  2.000000  2.000000  2.000000  2.000000  2.000000
                       0.000000  0.000000  0.000000  0.000000  0.000000  0.000000
                       0.000000  0.000000  0.000000
        optdriver           1
            prtwf          -1
            rfdir           1       1       1
           rfelfd           2
            rprim      1.0308098833E+01  0.0000000000E+00  0.0000000000E+00
                      -8.1402305049E+00  6.3240452934E+00  0.0000000000E+00
                       0.0000000000E+00  0.0000000000E+00  2.0431048101E+01
          spgroup          36
           symrel      1  0  0   0  1  0   0  0  1       0 -1  0  -1  0  0   0  0  1
                      -1  0  0   0 -1  0   0  0  1       0  1  0   1  0  0   0  0  1
            tnons      0.0000000  0.0000000  0.0000000     0.0000000  0.0000000  0.0000000
                       0.0000000  0.0000000  0.5000000     0.0000000  0.0000000  0.5000000
           tolwfr      1.00000000E-20
            typat      1  1  1  1  2  2  3  3  3  3
           useylm           1
              wtk        0.50000    0.50000
           xangst      1.2565049002E+00  1.4391697606E+00  1.3401358330E+00
                      -1.0931838993E-01  1.9073708747E+00  6.7459583344E+00
                      -2.6392632920E+00  2.7746302269E+00  4.4500298366E+00
                       3.7864498023E+00  5.7191040842E-01  9.8558523379E+00
                       4.1438623255E+00  4.4939020922E-01  2.6897751020E+00
                      -2.9966758152E+00  2.8971504261E+00  8.0955976034E+00
                       8.8468551721E-02  1.8395699615E+00  3.9544780879E+00
                       1.0587179586E+00  1.5069706739E+00  9.3603005892E+00
                      -1.5467198566E+00  2.4001088248E+00  1.4044759324E+00
                       2.6939063669E+00  9.4643181054E-01  6.8102984338E+00
            xcart      2.3744501461E+00  2.7196367063E+00  2.5324897053E+00
                      -2.0658181825E-01  3.6044085871E+00  1.2748013756E+01
                      -4.9874848144E+00  5.2432912489E+00  8.4093376743E+00
                       7.1553531422E+00  1.0807540445E+00  1.8624861725E+01
                       7.8307649276E+00  8.4922442222E-01  5.0829383019E+00
                      -5.6628965998E+00  5.4748208712E+00  1.5298462352E+01
                       1.6718133413E-01  3.4762834295E+00  7.4728805845E+00
                       2.0006869937E+00  2.8477618639E+00  1.7688404635E+01
                      -2.9228769333E+00  4.5355483680E+00  2.6540748725E+00
                       5.0907452611E+00  1.7884969254E+00  1.2869598923E+01
             xred      5.6995300000E-01  4.3004700000E-01  1.2395300000E-01
                       4.3004700000E-01  5.6995300000E-01  6.2395300000E-01
                       1.7089600000E-01  8.2910400000E-01  4.1159600000E-01
                       8.2910400000E-01  1.7089600000E-01  9.1159600000E-01
                       8.6571500000E-01  1.3428500000E-01  2.4878500000E-01
                       1.3428500000E-01  8.6571500000E-01  7.4878500000E-01
                       4.5030700000E-01  5.4969300000E-01  3.6576100000E-01
                       5.4969300000E-01  4.5030700000E-01  8.6576100000E-01
                       2.8280900000E-01  7.1719100000E-01  1.2990400000E-01
                       7.1719100000E-01  2.8280900000E-01  6.2990400000E-01
            znucl       11.00000   46.00000   16.00000

 chkinp: Checking input parameters for consistency.

== DATASET  1 ==================================================================
-   mpi_nproc: 1, omp_nthreads: -1 (-1 if OMP is not activated)

--- !DatasetInfo
iteration_state: {dtset: 1, }
dimensions: {natom: 10, nkpt: 2, mband: 57, nsppol: 1, nspinor: 1, nspden: 1, mpw: 18566, }
cutoff_energies: {ecut:  44.0, pawecutdg:  -1.0, }
electrons: {nelect:   9.60000000E+01, charge:   0.00000000E+00, occopt:   1.00000000E+00, tsmear:   1.00000000E-02, }
meta: {optdriver: 1, rfelfd: 2, }
...

 Real(R)+Recip(G) space primitive vectors, cartesian coordinates (Bohr,Bohr^-1):
 R(1)= 10.3080988  0.0000000  0.0000000  G(1)=  0.0970111  0.1248715  0.0000000
 R(2)= -8.1402305  6.3240453  0.0000000  G(2)=  0.0000000  0.1581266  0.0000000
 R(3)=  0.0000000  0.0000000 20.4310481  G(3)=  0.0000000  0.0000000  0.0489451
 Unit cell volume ucvol=  1.3318772E+03 bohr^3
 Angles (23,13,12)=  9.00000000E+01  9.00000000E+01  1.42156804E+02 degrees

 getcut: wavevector=  0.0000  0.0000  0.0000  ngfft=  64  64 125
         ecut(hartree)=     44.000   => boxcut(ratio)=   2.03254

--- Pseudopotential description ------------------------------------------------
- pspini: atom type   1  psp file is /scratch/users/j/a/jabreu/pseudos/PBEsol/Na.psp8
- pspatm: opening atomic psp file    /scratch/users/j/a/jabreu/pseudos/PBEsol/Na.psp8
- Na    ONCVPSP-3.3.0  r_core=   1.20708   1.55069
- 11.00000   9.00000    180112                znucl, zion, pspdat
    8 -116133    1    4       400   0.00000   pspcod,pspxc,lmax,lloc,mmax,r2well
    3.99000000000000    0.00000000000000    0.00000000000000   rchrg,fchrg,qchrg
     nproj     2     2
     extension_switch     1
  pspatm : epsatm=    9.32878306
         --- l  ekb(1:nproj) -->
             0    2.657905   -0.678300
             1   -6.761319   -2.404728
 pspatm: atomic psp has been read  and splines computed

- pspini: atom type   2  psp file is /scratch/users/j/a/jabreu/pseudos/PBEsol/Pd.psp8
- pspatm: opening atomic psp file    /scratch/users/j/a/jabreu/pseudos/PBEsol/Pd.psp8
- Pd    ONCVPSP-3.3.0  r_core=   1.41052   1.46191   1.55175
- 46.00000  18.00000    180112                znucl, zion, pspdat
    8 -116133    2    4       600   0.00000   pspcod,pspxc,lmax,lloc,mmax,r2well
    5.99000000000000    7.00000000000000    0.00000000000000   rchrg,fchrg,qchrg
     nproj     2     2     2
     extension_switch     1
  pspatm : epsatm=   26.17262427
         --- l  ekb(1:nproj) -->
             0    7.952303   -2.096627
             1    3.304793   -0.572651
             2   -1.185452   -0.410427
 pspatm: atomic psp has been read  and splines computed

- pspini: atom type   3  psp file is /scratch/users/j/a/jabreu/pseudos/PBEsol/S.psp8
- pspatm: opening atomic psp file    /scratch/users/j/a/jabreu/pseudos/PBEsol/S.psp8
- S     ONCVPSP-3.3.0  r_core=   1.45376   1.45376   1.61851
- 16.00000   6.00000    180112                znucl, zion, pspdat
    8 -116133    2    4       600   0.00000   pspcod,pspxc,lmax,lloc,mmax,r2well
    5.99000000000000    6.00000000000000    0.00000000000000   rchrg,fchrg,qchrg
     nproj     2     2     2
     extension_switch     1
  pspatm : epsatm=    8.71840985
         --- l  ekb(1:nproj) -->
             0    6.834532    0.579453
             1    3.282851    0.896984
             2   -3.496974   -0.974265
 pspatm: atomic psp has been read  and splines computed

   1.19552659E+04                                ecore*ucvol(ha*bohr**3)

 ==>  initialize data related to q vector <==

 The list of irreducible perturbations for this q vector is:
    1)    idir= 1    ipert=  11
    2)    idir= 2    ipert=  11
    3)    idir= 3    ipert=  11

 Perturbation wavevector (in red.coord.)   0.000000  0.000000  0.000000
 Perturbation : derivative vs k along direction   1

 dfpt_looppert : COMMENT -
  In a d/dk calculation, iscf is set to -3 automatically.
 The set of symmetries contains only one element for this perturbation.
 symkpt : not enough symmetry to change the number of k points.

 Initialisation of the first-order wave-functions :
  ireadwf=   0

--- !BeginCycle
iteration_state: {dtset: 1, }
solver: {iscf: 7, nstep: 2000, nline: 4, wfoptalg: 0, }
tolerances: {tolwfr: 1.00E-20, }
...

     iter   2DEtotal(Ha)        deltaE(Ha) residm    vres2
-ETOT  1  -103.34197616700     -1.033E+02 6.548E-01 0.000E+00
 ETOT  2  -103.46115313000     -1.192E-01 6.706E-03 0.000E+00
 ETOT  3  -103.46182770297     -6.746E-04 2.185E-04 0.000E+00
 ETOT  4  -103.46183511545     -7.412E-06 1.378E-05 0.000E+00
 ETOT  5  -103.46183521508     -9.963E-08 7.904E-07 0.000E+00
 ETOT  6  -103.46183521658     -1.496E-09 4.996E-08 0.000E+00
 ETOT  7  -103.46183521660     -2.424E-11 3.124E-09 0.000E+00
 ETOT  8  -103.46183521660     -4.974E-13 1.984E-10 0.000E+00
 ETOT  9  -103.46183521660      7.105E-14 1.259E-11 0.000E+00
 ETOT 10  -103.46183521660     -2.842E-14 8.108E-13 0.000E+00
 ETOT 11  -103.46183521660      1.421E-14 5.186E-14 0.000E+00
 ETOT 12  -103.46183521660     -8.527E-14 3.375E-15 0.000E+00
 ETOT 13  -103.46183521660      4.263E-14 2.181E-16 0.000E+00
 ETOT 14  -103.46183521660      0.000E+00 1.426E-17 0.000E+00
 ETOT 15  -103.46183521660      0.000E+00 9.323E-19 0.000E+00
 ETOT 16  -103.46183521660      0.000E+00 6.091E-20 0.000E+00
 ETOT 17  -103.46183521660      2.842E-14 9.666E-21 0.000E+00

 At SCF step   17   max residual=  9.67E-21 < tolwfr=  1.00E-20 =>converged.

 ----iterations are completed or convergence reached----

 dfpt_looppert: DFPT cycle converged with prtwf=-1. Will skip output of the 1st-order WFK file.
 dfpt_looppert : ek2=    1.8952697107E+02
          f-sum rule ratio=    1.0296538611E+00
 prteigrs : about to open file /scratch/users/j/a/jabreu/flow_simple_10atoms/flow/w315/t1/tmpdata/tmp_1WF1_EIG
 Expectation of eigenvalue derivatives (hartree) for nkpt=   2  k points:
  (in case of degenerate eigenvalues, averaged derivative)
 kpt#   1, nband= 57, wtk=  0.50000, kpt= -0.5000  0.5000  0.0000 (reduced coord)
  -0.00000   -0.00000    0.00000    0.00000    0.00000   -0.00000    0.00000    0.00000
   0.00000    0.00000    0.00000    0.00000    0.00000    0.00000    0.00000    0.00000
  -0.00000    0.00000    0.00000   -0.00000   -0.00000   -0.00000    0.00000   -0.00000
   0.00000   -0.00000   -0.00000    0.00000   -0.00000   -0.00000   -0.00000    0.00000
  -0.00000    0.00000    0.00000   -0.00000   -0.00000    0.00000    0.00000   -0.00000
  -0.00000   -0.00000   -0.00000   -0.00000    0.00000    0.00000    0.00000    0.00000
   0.00000    0.00000    0.00000    0.00000   -0.00000    0.00000   -0.00000    0.03149
  -0.03626
 prteigrs : prtvol=0 or 1, do not print more k-points.

 Eight components of 2nd-order total energy (hartree) are
 1,2,3: 0th-order hamiltonian combined with 1st-order wavefunctions
     kin0=   1.46221075E+02 eigvalue=   5.69630890E+00  local=  -7.04090980E+01
 4,5,6: 1st-order hamiltonian combined with 1st and 0th-order wfs
     kin1=  -1.95147178E+02  Hartree=   0.00000000E+00     xc=   0.00000000E+00
 7,8,9: eventually, occupation + non-local contributions
    edocc=   2.02520354E+01     enl0=   1.70151419E+00   enl1=  -1.17764929E+01
 1-9 gives the relaxation energy (to be shifted if some occ is /=2.0)
   erelax=  -1.03461835E+02
  No Ewald or frozen-wf contrib.: the relaxation energy is the total one
 2DEtotal=   -0.1034618352E+03 Ha. Also 2DEtotal=   -0.281533971294E+04 eV
    (  non-var. 2DEtotal :   -1.0346183522E+02 Ha)

 Perturbation wavevector (in red.coord.)   0.000000  0.000000  0.000000
 Perturbation : derivative vs k along direction   2
 The set of symmetries contains only one element for this perturbation.
 symkpt : not enough symmetry to change the number of k points.

[...]

 Perturbation wavevector (in red.coord.)   0.000000  0.000000  0.000000
 Perturbation : derivative vs k along direction   3
 The set of symmetries contains only one element for this perturbation.
 symkpt : not enough symmetry to change the number of k points.

 Initialisation of the first-order wave-functions :
  ireadwf=   0

--- !BeginCycle
iteration_state: {dtset: 1, }
solver: {iscf: 7, nstep: 2000, nline: 4, wfoptalg: 0, }
tolerances: {tolwfr: 1.00E-20, }
...

     iter   2DEtotal(Ha)        deltaE(Ha) residm    vres2
-ETOT  1  -9.6940119899846     -9.694E+00 8.369E-03 0.000E+00
 ETOT  2  -9.7061324083191     -1.212E-02 1.444E-04 0.000E+00
 ETOT  3  -9.7062007261600     -6.832E-05 4.897E-06 0.000E+00
 ETOT  4  -9.7062014216306     -6.955E-07 1.562E-07 0.000E+00
 ETOT  5  -9.7062014301939     -8.563E-09 1.044E-08 0.000E+00
 ETOT  6  -9.7062014303134     -1.195E-10 3.883E-10 0.000E+00
 ETOT  7  -9.7062014303153     -1.817E-12 3.607E-11 0.000E+00
 ETOT  8  -9.7062014303153     -1.599E-14 1.746E-12 0.000E+00
 ETOT  9  -9.7062014303153      0.000E+00 1.981E-13 0.000E+00
 ETOT 10  -9.7062014303153     -1.776E-15 1.113E-14 0.000E+00
 ETOT 11  -9.7062014303153     -3.553E-15 1.304E-15 0.000E+00
 ETOT 12  -9.7062014303153      0.000E+00 7.716E-17 0.000E+00
 ETOT 13  -9.7062014303153      0.000E+00 8.949E-18 0.000E+00
 ETOT 14  -9.7062014303153      0.000E+00 5.445E-19 0.000E+00
 ETOT 15  -9.7062014303153      3.553E-15 6.236E-20 0.000E+00
 ETOT 16  -9.7062014303153     -3.553E-15 9.986E-21 0.000E+00

 At SCF step   16   max residual=  9.99E-21 < tolwfr=  1.00E-20 =>converged.

 ----iterations are completed or convergence reached----

 dfpt_looppert: DFPT cycle converged with prtwf=-1. Will skip output of the 1st-order WFK file.
 dfpt_looppert : ek2=    1.8158487562E+01
          f-sum rule ratio=    1.0050876501E+00
 prteigrs : about to open file /scratch/users/j/a/jabreu/flow_simple_10atoms/flow/w315/t1/tmpdata/tmp_1WF1_EIG
 Expectation of eigenvalue derivatives (hartree) for nkpt=   2  k points:
  (in case of degenerate eigenvalues, averaged derivative)
 kpt#   1, nband= 57, wtk=  0.50000, kpt= -0.5000  0.5000  0.0000 (reduced coord)
  -0.00000    0.00000    0.00000   -0.00000   -0.00000    0.00000    0.00000    0.00000
   0.00000    0.00000    0.00000    0.00000   -0.00000   -0.00000    0.00000    0.00000
   0.00000   -0.00000   -0.00000   -0.00000    0.00000    0.00000   -0.00000    0.00000
   0.00000    0.00000    0.00000    0.00000    0.00000    0.00000   -0.00000    0.00000
  -0.00000    0.00000    0.00000   -0.00000   -0.00000    0.00000    0.00000   -0.00000
  -0.00000    0.00000   -0.00000    0.00000    0.00000    0.00000    0.00000   -0.00000
   0.00000   -0.00000   -0.00000   -0.00000    0.00000    0.00000    0.00000    0.00001
   0.00010
 prteigrs : prtvol=0 or 1, do not print more k-points.

 Eight components of 2nd-order total energy (hartree) are
 1,2,3: 0th-order hamiltonian combined with 1st-order wavefunctions
     kin0=   1.37834971E+01 eigvalue=   5.54743764E-01  local=  -6.42124704E+00
 4,5,6: 1st-order hamiltonian combined with 1st and 0th-order wfs
     kin1=  -1.82508716E+01  Hartree=   0.00000000E+00     xc=   0.00000000E+00
 7,8,9: eventually, occupation + non-local contributions
    edocc=   1.62903281E+00     enl0=   1.60174760E-01   enl1=  -1.16153127E+00
 1-9 gives the relaxation energy (to be shifted if some occ is /=2.0)
   erelax=  -9.70620143E+00
  No Ewald or frozen-wf contrib.: the relaxation energy is the total one
 2DEtotal=   -0.9706201430E+01 Ha. Also 2DEtotal=   -0.264119172943E+03 eV
    (  non-var. 2DEtotal :   -9.7062014303E+00 Ha)

 CALCULATION OF EFFECTIVE MASSES
 NOTE : Additional infos (eff. mass eigenvalues, eigenvectors and, if degenerate, average mass) are available in stdout.

 K-point (-0.500, 0.500, 0.000) | band =    48
 Effective mass tensor:
             -2.6070618442              0.3689660862              0.0010198116
              0.3689660862             -1.6574941966             -0.0003179862
              0.0010198116             -0.0003179862             -1.3130927429
 Effective mass tensor eigenvalues:
             -2.7335738024             -1.5309830452             -1.3130919360
 Angular average effective mass 1/(<1/m>)=  -1.6848652036
 Angular average effective mass for Frohlich model (<m**0.5>)**2=  -1.7302764089
 Effective masses along directions: (cart. coord. / red. coord. -> eff. mass)
    1:   1.000000  0.000000  0.000000 /   0.784799 -0.619750  0.000000 ->  -2.5249275539
    2:   0.000000  1.000000  0.000000 /   0.000000  1.000000  0.000000 ->  -1.6052760135
    3:   0.000000  0.000000  1.000000 /   0.000000  0.000000  1.000000 ->  -1.3130923251
    4:   0.577350  0.577350  0.577350 /   0.449035 -0.079116  0.890005 ->  -1.5327305942
    5:   0.000000  0.707107  0.707107 /   0.000000  0.295690  0.955284 ->  -1.4447295581
    6:   0.707107  0.000000  0.707107 /   0.424396 -0.335143  0.841170 ->  -1.7268405481
    7:   0.707107  0.707107  0.000000 /   0.984831 -0.173517  0.000000 ->  -1.6731888351

 K-point ( 0.121, 0.121, 0.000) | band =    49
 Effective mass tensor:
             11.9149429688             -3.9971311514              0.0000762341
             -3.9971311514              1.6249175709             -0.0000262903
              0.0000762341             -0.0000262903              1.4343881553
 Effective mass tensor eigenvalues:
              0.2547009482              1.4343881548             13.2851595920
 Angular average effective mass 1/(<1/m>)=   0.6384871936
 Angular average effective mass for Frohlich model (<m**0.5>)**2=   1.0541848503
 Effective masses along directions: (cart. coord. / red. coord. -> eff. mass)
    1:   1.000000  0.000000  0.000000 /   0.784799 -0.619750  0.000000 ->   2.0824088588
    2:   0.000000  1.000000  0.000000 /   0.000000  1.000000  0.000000 ->   0.2839915183
    3:   0.000000  0.000000  1.000000 /   0.000000  0.000000  1.000000 ->   1.4343881549
    4:   0.577350  0.577350  0.577350 /   0.449035 -0.079116  0.890005 ->   0.4248598281
    5:   0.000000  0.707107  0.707107 /   0.000000  0.295690  0.955284 ->   0.4741137677
    6:   0.707107  0.000000  0.707107 /   0.424396 -0.335143  0.841170 ->   1.6987060843
    7:   0.707107  0.707107  0.000000 /   0.984831 -0.173517  0.000000 ->   0.3142679894

 END OF EFFECTIVE MASSES SECTION

 ---- first-order wavefunction calculations are completed ----

 Total localisation tensor (bohr^2) in cartesian coordinates
  WARNING : still subject to testing - especially symmetries.
      direction              matrix element
   alpha     beta       real part   imaginary part
     1        1       4.3773993849    0.0000000000
     1        2      -1.3061940631    0.0000000000
     1        3       0.0000000000    0.0000000000
     2        1      -1.3061940631    0.0000000000
     2        2       1.0147661559    0.0000000000
     2        3       0.0000000000    0.0000000000
     3        1       0.0000000000    0.0000000000
     3        2       0.0000000000    0.0000000000
     3        3       0.8231390251    0.0000000000

 respfn : d/dk was computed, but no 2DTE, so no DDB output.

== END DATASET(S) ==============================================================

 -outvars: echo values of variables after computation  --------
            acell      1.0000000000E+00  1.0000000000E+00  1.0000000000E+00 Bohr
              amu      2.29897680E+01  1.06420000E+02  3.20660000E+01
             ecut      4.40000000E+01 Hartree
           etotal     -9.7062014303E+00
            fcart      0.0000000000E+00  0.0000000000E+00  0.0000000000E+00
                       0.0000000000E+00  0.0000000000E+00  0.0000000000E+00
                       0.0000000000E+00  0.0000000000E+00  0.0000000000E+00
                       0.0000000000E+00  0.0000000000E+00  0.0000000000E+00
                       0.0000000000E+00  0.0000000000E+00  0.0000000000E+00
                       0.0000000000E+00  0.0000000000E+00  0.0000000000E+00
                       0.0000000000E+00  0.0000000000E+00  0.0000000000E+00
                       0.0000000000E+00  0.0000000000E+00  0.0000000000E+00
                       0.0000000000E+00  0.0000000000E+00  0.0000000000E+00
                       0.0000000000E+00  0.0000000000E+00  0.0000000000E+00
-          fftalg         512
           irdden           1
           irdwfk           1
              ixc     -116133
              kpt     -5.00000000E-01  5.00000000E-01  0.00000000E+00
                       1.21063614E-01  1.21063614E-01  0.00000000E+00
           kptopt           0
P           mkmem           2
P          mkqmem           2
P          mk1mem           2
            natom          10
            nband          57
           nbdbuf           4
            ngfft          64      64     125
             nkpt           2
            nstep        2000
             nsym           4
           ntypat           3
              occ      2.000000  2.000000  2.000000  2.000000  2.000000  2.000000
                       2.000000  2.000000  2.000000  2.000000  2.000000  2.000000
                       2.000000  2.000000  2.000000  2.000000  2.000000  2.000000
                       2.000000  2.000000  2.000000  2.000000  2.000000  2.000000
                       2.000000  2.000000  2.000000  2.000000  2.000000  2.000000
                       2.000000  2.000000  2.000000  2.000000  2.000000  2.000000
                       2.000000  2.000000  2.000000  2.000000  2.000000  2.000000
                       2.000000  2.000000  2.000000  2.000000  2.000000  2.000000
                       0.000000  0.000000  0.000000  0.000000  0.000000  0.000000
                       0.000000  0.000000  0.000000
        optdriver           1
            prtwf          -1
            rfdir           1       1       1
           rfelfd           2
            rprim      1.0308098833E+01  0.0000000000E+00  0.0000000000E+00
                      -8.1402305049E+00  6.3240452934E+00  0.0000000000E+00
                       0.0000000000E+00  0.0000000000E+00  2.0431048101E+01
          spgroup          36
           strten      0.0000000000E+00  0.0000000000E+00  0.0000000000E+00
                       0.0000000000E+00  0.0000000000E+00  0.0000000000E+00
           symrel      1  0  0   0  1  0   0  0  1       0 -1  0  -1  0  0   0  0  1
                      -1  0  0   0 -1  0   0  0  1       0  1  0   1  0  0   0  0  1
            tnons      0.0000000  0.0000000  0.0000000     0.0000000  0.0000000  0.0000000
                       0.0000000  0.0000000  0.5000000     0.0000000  0.0000000  0.5000000
           tolwfr      1.00000000E-20
            typat      1  1  1  1  2  2  3  3  3  3
           useylm           1
              wtk        0.50000    0.50000
           xangst      1.2565049002E+00  1.4391697606E+00  1.3401358330E+00
                      -1.0931838993E-01  1.9073708747E+00  6.7459583344E+00
                      -2.6392632920E+00  2.7746302269E+00  4.4500298366E+00
                       3.7864498023E+00  5.7191040842E-01  9.8558523379E+00
                       4.1438623255E+00  4.4939020922E-01  2.6897751020E+00
                      -2.9966758152E+00  2.8971504261E+00  8.0955976034E+00
                       8.8468551721E-02  1.8395699615E+00  3.9544780879E+00
                       1.0587179586E+00  1.5069706739E+00  9.3603005892E+00
                      -1.5467198566E+00  2.4001088248E+00  1.4044759324E+00
                       2.6939063669E+00  9.4643181054E-01  6.8102984338E+00
            xcart      2.3744501461E+00  2.7196367063E+00  2.5324897053E+00
                      -2.0658181825E-01  3.6044085871E+00  1.2748013756E+01
                      -4.9874848144E+00  5.2432912489E+00  8.4093376743E+00
                       7.1553531422E+00  1.0807540445E+00  1.8624861725E+01
                       7.8307649276E+00  8.4922442222E-01  5.0829383019E+00
                      -5.6628965998E+00  5.4748208712E+00  1.5298462352E+01
                       1.6718133413E-01  3.4762834295E+00  7.4728805845E+00
                       2.0006869937E+00  2.8477618639E+00  1.7688404635E+01
                      -2.9228769333E+00  4.5355483680E+00  2.6540748725E+00
                       5.0907452611E+00  1.7884969254E+00  1.2869598923E+01
             xred      5.6995300000E-01  4.3004700000E-01  1.2395300000E-01
                       4.3004700000E-01  5.6995300000E-01  6.2395300000E-01
                       1.7089600000E-01  8.2910400000E-01  4.1159600000E-01
                       8.2910400000E-01  1.7089600000E-01  9.1159600000E-01
                       8.6571500000E-01  1.3428500000E-01  2.4878500000E-01
                       1.3428500000E-01  8.6571500000E-01  7.4878500000E-01
                       4.5030700000E-01  5.4969300000E-01  3.6576100000E-01
                       5.4969300000E-01  4.5030700000E-01  8.6576100000E-01
                       2.8280900000E-01  7.1719100000E-01  1.2990400000E-01
                       7.1719100000E-01  2.8280900000E-01  6.2990400000E-01
            znucl       11.00000   46.00000   16.00000

- Timing analysis has been suppressed with timopt=0

 Suggested references for the acknowledgment of ABINIT usage.

 Calculation completed.
.Delivered   2 WARNINGs and   5 COMMENTs to log file.