.Version 9.5.1 of ABINIT

 ABINIT is a project of the Universite Catholique de Louvain,
 Corning Inc. and other collaborators, see ~abinit/doc/developers/contributors.txt .
 acknowledgments of the ABINIT effort.

.Starting date : Tue  4 May 2021.
- ( at 19h32 )

- input  file    -> /scratch/users/j/a/jabreu/flow_simple_6atoms/flow/w212/t1/run.abi
- output file    -> /scratch/users/j/a/jabreu/flow_simple_6atoms/flow/w212/t1/run.abo
- root for input  files -> /scratch/users/j/a/jabreu/flow_simple_6atoms/flow/w212/t1/indata/in
- root for output files -> /scratch/users/j/a/jabreu/flow_simple_6atoms/flow/w212/t1/outdata/out

 Symmetries : space group P6_3/m m c (#194); Bravais hP (primitive hexag.)
     intxc =       0      iscf =       7    lmnmax =      18     lnmax =       6
     mgfft =      90  mpssoang =       3    mqgrid =    4091     natom =       6
  nloc_mem =       1    nspden =       1   nspinor =       1    nsppol =       1
      nsym =      24    n1xccc =    2501    ntypat =       3    occopt =       1
   xclevel =       2
-    mband =          27        mffmem =           1         mkmem =           2
-   mkqmem =           2        mk1mem =           2           mpw =        9377
      nfft =      207360          nkpt =           2
  Rough estimation (10% accuracy) of disk space for files :

------------- Echo of variables that govern the present computation ------------
-
- outvars: echo of selected default values
-   iomode0 =  0 , fftalg0 =512 , wfoptalg0 =  0
-
- outvars: echo of global parameters not present in the input file
-  max_nthreads =    0
-
 -outvars: echo values of preprocessed input variables --------
            acell      1.0000000000E+00  1.0000000000E+00  1.0000000000E+00 Bohr
              amu      8.76200000E+01  6.94100000E+00  3.09737620E+01
             ecut      3.70000000E+01 Hartree
-          fftalg         512
           irdden           1
           irdwfk           1
           istwfk        1    1
              ixc     -116133
              kpt      0.00000000E+00  0.00000000E+00  0.00000000E+00
                       5.00000000E-01  0.00000000E+00  0.00000000E+00
           kptopt           0
P           mkmem           2
P          mkqmem           2
P          mk1mem           2
            natom           6
            nband          27
           nbdbuf           4
            ngfft          48      48      90
             nkpt           2
            nstep        1000
             nsym          24
           ntypat           3
              occ      2.000000  2.000000  2.000000  2.000000  2.000000  2.000000
                       2.000000  2.000000  2.000000  2.000000  2.000000  2.000000
                       2.000000  2.000000  2.000000  2.000000  2.000000  2.000000
                       0.000000  0.000000  0.000000  0.000000  0.000000  0.000000
                       0.000000  0.000000  0.000000
        optdriver           1
            prtwf          -1
            rfdir           1       1       1
           rfelfd           2
            rprim      8.2032193197E+00  0.0000000000E+00  0.0000000000E+00
                      -4.1016096598E+00  7.1041963236E+00  0.0000000000E+00
                       0.0000000000E+00  0.0000000000E+00  1.4939435235E+01
          spgroup         194
           symrel      1  0  0   0  1  0   0  0  1      -1  0  0   0 -1  0   0  0 -1
                       0  1  0   1  0  0   0  0  1       0 -1  0  -1  0  0   0  0 -1
                       1  1  0  -1  0  0   0  0  1      -1 -1  0   1  0  0   0  0 -1
                      -1  0  0   1  1  0   0  0  1       1  0  0  -1 -1  0   0  0 -1
                       0  1  0  -1 -1  0   0  0  1       0 -1  0   1  1  0   0  0 -1
                      -1 -1  0   0  1  0   0  0  1       1  1  0   0 -1  0   0  0 -1
                      -1  0  0   0 -1  0   0  0  1       1  0  0   0  1  0   0  0 -1
                       0 -1  0  -1  0  0   0  0  1       0  1  0   1  0  0   0  0 -1
                      -1 -1  0   1  0  0   0  0  1       1  1  0  -1  0  0   0  0 -1
                       1  0  0  -1 -1  0   0  0  1      -1  0  0   1  1  0   0  0 -1
                       0 -1  0   1  1  0   0  0  1       0  1  0  -1 -1  0   0  0 -1
                       1  1  0   0 -1  0   0  0  1      -1 -1  0   0  1  0   0  0 -1
            tnons      0.0000000  0.0000000  0.0000000     0.0000000  0.0000000  0.0000000
                       0.0000000  0.0000000  0.5000000     0.0000000  0.0000000  0.5000000
                       0.0000000  0.0000000  0.5000000     0.0000000  0.0000000  0.5000000
                       0.0000000  0.0000000  0.0000000     0.0000000  0.0000000  0.0000000
                       0.0000000  0.0000000  0.0000000     0.0000000  0.0000000  0.0000000
                       0.0000000  0.0000000  0.5000000     0.0000000  0.0000000  0.5000000
                       0.0000000  0.0000000  0.5000000     0.0000000  0.0000000  0.5000000
                       0.0000000  0.0000000  0.0000000     0.0000000  0.0000000  0.0000000
                       0.0000000  0.0000000  0.0000000     0.0000000  0.0000000  0.0000000
                       0.0000000  0.0000000  0.5000000     0.0000000  0.0000000  0.5000000
                       0.0000000  0.0000000  0.5000000     0.0000000  0.0000000  0.5000000
                       0.0000000  0.0000000  0.0000000     0.0000000  0.0000000  0.0000000
           tolwfr      1.00000000E-20
            typat      1  1  2  2  3  3
           useylm           1
              wtk        0.50000    0.50000
           xangst      0.0000000000E+00  0.0000000000E+00  4.3884943654E-16
                       0.0000000000E+00  0.0000000000E+00  3.9528043177E+00
                       2.1704783505E+00  1.2531262599E+00  5.9292064766E+00
                       1.7639241746E-11  2.5062525199E+00  1.9764021589E+00
                       2.1704783505E+00  1.2531262599E+00  1.9764021589E+00
                       1.7639241746E-11  2.5062525199E+00  5.9292064766E+00
            xcart      0.0000000000E+00  0.0000000000E+00  8.2930524863E-16
                       0.0000000000E+00  0.0000000000E+00  7.4697176174E+00
                       4.1016096599E+00  2.3680654412E+00  1.1204576426E+01
                       3.3333336091E-11  4.7361308824E+00  3.7348588087E+00
                       4.1016096599E+00  2.3680654412E+00  3.7348588087E+00
                       3.3333336091E-11  4.7361308824E+00  1.1204576426E+01
             xred      0.0000000000E+00  0.0000000000E+00  5.5511151231E-17
                       0.0000000000E+00  0.0000000000E+00  5.0000000000E-01
                       6.6666666667E-01  3.3333333333E-01  7.5000000000E-01
                       3.3333333333E-01  6.6666666667E-01  2.5000000000E-01
                       6.6666666667E-01  3.3333333333E-01  2.5000000000E-01
                       3.3333333333E-01  6.6666666667E-01  7.5000000000E-01
            znucl       38.00000    3.00000   15.00000

 chkinp: Checking input parameters for consistency.

== DATASET  1 ==================================================================
-   mpi_nproc: 1, omp_nthreads: -1 (-1 if OMP is not activated)

--- !DatasetInfo
iteration_state: {dtset: 1, }
dimensions: {natom: 6, nkpt: 2, mband: 27, nsppol: 1, nspinor: 1, nspden: 1, mpw: 9377, }
cutoff_energies: {ecut:  37.0, pawecutdg:  -1.0, }
electrons: {nelect:   3.60000000E+01, charge:   0.00000000E+00, occopt:   1.00000000E+00, tsmear:   1.00000000E-02, }
meta: {optdriver: 1, rfelfd: 2, }
...

 Real(R)+Recip(G) space primitive vectors, cartesian coordinates (Bohr,Bohr^-1):
 R(1)=  8.2032193  0.0000000  0.0000000  G(1)=  0.1219034  0.0703809  0.0000000
 R(2)= -4.1016097  7.1041963  0.0000000  G(2)=  0.0000000  0.1407619  0.0000000
 R(3)=  0.0000000  0.0000000 14.9394352  G(3)=  0.0000000  0.0000000  0.0669369
 Unit cell volume ucvol=  8.7062966E+02 bohr^3
 Angles (23,13,12)=  9.00000000E+01  9.00000000E+01  1.20000000E+02 degrees

 getcut: wavevector=  0.0000  0.0000  0.0000  ngfft=  48  48  90
         ecut(hartree)=     37.000   => boxcut(ratio)=   2.13693

--- Pseudopotential description ------------------------------------------------
- pspini: atom type   1  psp file is /scratch/users/j/a/jabreu/pseudos/PBEsol/Sr.psp8
- pspatm: opening atomic psp file    /scratch/users/j/a/jabreu/pseudos/PBEsol/Sr.psp8
- Sr    ONCVPSP-3.3.0  r_core=   1.66721   1.31335   1.51547
- 38.00000  10.00000    180112                znucl, zion, pspdat
    8 -116133    2    4       600   0.00000   pspcod,pspxc,lmax,lloc,mmax,r2well
    5.99000000000000    6.00000000000000    0.00000000000000   rchrg,fchrg,qchrg
     nproj     2     2     2
     extension_switch     1
  pspatm : epsatm=   12.46450977
         --- l  ekb(1:nproj) -->
             0   10.029206    1.044171
             1    7.472414    1.670829
             2    4.142950    0.968140
 pspatm: atomic psp has been read  and splines computed

- pspini: atom type   2  psp file is /scratch/users/j/a/jabreu/pseudos/PBEsol/Li.psp8
- pspatm: opening atomic psp file    /scratch/users/j/a/jabreu/pseudos/PBEsol/Li.psp8
- Li    ONCVPSP-3.3.0  r_core=   1.40824   1.10935
-  3.00000   3.00000    180112                znucl, zion, pspdat
    8 -116133    1    4       400   0.00000   pspcod,pspxc,lmax,lloc,mmax,r2well
    3.99000000000000    0.00000000000000    0.00000000000000   rchrg,fchrg,qchrg
     nproj     2     2
     extension_switch     1
  pspatm : epsatm=    2.60859637
         --- l  ekb(1:nproj) -->
             0   -4.855856   -1.482423
             1   -2.171544   -0.427615
 pspatm: atomic psp has been read  and splines computed

- pspini: atom type   3  psp file is /scratch/users/j/a/jabreu/pseudos/PBEsol/P.psp8
- pspatm: opening atomic psp file    /scratch/users/j/a/jabreu/pseudos/PBEsol/P.psp8
- P     ONCVPSP-3.3.0  r_core=   1.46089   1.55067   1.70594
- 15.00000   5.00000    180112                znucl, zion, pspdat
    8 -116133    2    4       600   0.00000   pspcod,pspxc,lmax,lloc,mmax,r2well
    5.99000000000000    5.00000000000000    0.00000000000000   rchrg,fchrg,qchrg
     nproj     2     2     2
     extension_switch     1
  pspatm : epsatm=    7.31221086
         --- l  ekb(1:nproj) -->
             0    6.742364    1.063650
             1    3.449117    0.910422
             2   -3.077645   -0.799176
 pspatm: atomic psp has been read  and splines computed

   1.61174282E+03                                ecore*ucvol(ha*bohr**3)

-inwffil : will read wavefunctions from disk file /scratch/users/j/a/jabreu/flow_simple_6atoms/flow/w212/t1/indata/in_WFK

 ==>  initialize data related to q vector <==

 The list of irreducible perturbations for this q vector is:
    1)    idir= 1    ipert=   7
    2)    idir= 2    ipert=   7
    3)    idir= 3    ipert=   7

 Perturbation wavevector (in red.coord.)   0.000000  0.000000  0.000000
 Perturbation : derivative vs k along direction   1

 dfpt_looppert : COMMENT -
  In a d/dk calculation, iscf is set to -3 automatically.
 The set of symmetries contains only one element for this perturbation.
 symkpt : not enough symmetry to change the number of k points.

[...]

[...]
-ETOT  1  -34.314884812368     -3.431E+01 1.814E-01 0.000E+00
 ETOT  2  -34.328262722129     -1.338E-02 3.463E-03 0.000E+00
 ETOT  3  -34.328323508305     -6.079E-05 8.915E-04 0.000E+00
 ETOT  4  -34.328324043405     -5.351E-07 2.206E-05 0.000E+00
 ETOT  5  -34.328324048759     -5.354E-09 1.035E-05 0.000E+00
 ETOT  6  -34.328324048815     -5.647E-11 2.499E-07 0.000E+00
 ETOT  7  -34.328324048816     -6.324E-13 1.343E-07 0.000E+00
 ETOT  8  -34.328324048816      4.263E-14 3.146E-09 0.000E+00
 ETOT  9  -34.328324048816     -2.842E-14 1.761E-09 0.000E+00
 ETOT 10  -34.328324048816     -8.527E-14 4.080E-11 0.000E+00
 ETOT 11  -34.328324048816     -2.132E-14 2.356E-11 0.000E+00
 ETOT 12  -34.328324048816      1.421E-14 5.537E-13 0.000E+00
 ETOT 13  -34.328324048816     -7.105E-15 3.263E-13 0.000E+00
 ETOT 14  -34.328324048816      0.000E+00 8.008E-15 0.000E+00
 ETOT 15  -34.328324048816      7.105E-15 4.807E-15 0.000E+00
 ETOT 16  -34.328324048816     -7.105E-15 1.286E-16 0.000E+00
 ETOT 17  -34.328324048816      7.105E-15 7.865E-17 0.000E+00
 ETOT 18  -34.328324048816      7.105E-15 2.404E-18 0.000E+00
 ETOT 19  -34.328324048816      0.000E+00 1.486E-18 0.000E+00
 ETOT 20  -34.328324048816      0.000E+00 5.217E-20 0.000E+00
 ETOT 21  -34.328324048816      7.105E-15 3.211E-20 0.000E+00
 ETOT 22  -34.328324048816     -7.105E-15 9.679E-21 0.000E+00

 At SCF step   22   max residual=  9.68E-21 < tolwfr=  1.00E-20 =>converged.

 ----iterations are completed or convergence reached----

 dfpt_looppert: DFPT cycle converged with prtwf=-1. Will skip output of the 1st-order WFK file.
 dfpt_looppert : ek2=    5.6319958214E+01
          f-sum rule ratio=    1.2242818717E+00
 prteigrs : about to open file /scratch/users/j/a/jabreu/flow_simple_6atoms/flow/w212/t1/tmpdata/tmp_1WF1_EIG
 Expectation of eigenvalue derivatives (hartree) for nkpt=   2  k points:
  (in case of degenerate eigenvalues, averaged derivative)
 kpt#   1, nband= 27, wtk=  0.50000, kpt=  0.0000  0.0000  0.0000 (reduced coord)
   0.00000    0.00000   -0.00000    0.00000   -0.00000   -0.00000   -0.00000    0.00000
   0.00000    0.00000   -0.00000    0.00000    0.00000    0.00000    0.00000    0.00000
   0.00000    0.00000    0.00000   -0.00000   -0.00000   -0.00000    0.00000    0.00000
   0.00000    0.00000    0.00000
 prteigrs : prtvol=0 or 1, do not print more k-points.

 Eight components of 2nd-order total energy (hartree) are
 1,2,3: 0th-order hamiltonian combined with 1st-order wavefunctions
     kin0=   3.04755702E+01 eigvalue=   2.46108174E+00  local=  -2.06223080E+01
 4,5,6: 1st-order hamiltonian combined with 1st and 0th-order wfs
     kin1=  -6.89515039E+01  Hartree=   0.00000000E+00     xc=   0.00000000E+00
 7,8,9: eventually, occupation + non-local contributions
    edocc=   1.78975321E+01     enl0=   4.11644801E+00   enl1=   2.94855759E-01
 1-9 gives the relaxation energy (to be shifted if some occ is /=2.0)
   erelax=  -3.43283240E+01
  No Ewald or frozen-wf contrib.: the relaxation energy is the total one
 2DEtotal=   -0.3432832405E+02 Ha. Also 2DEtotal=   -0.934121202963E+03 eV
    (  non-var. 2DEtotal :   -3.4328324049E+01 Ha)

 Perturbation wavevector (in red.coord.)   0.000000  0.000000  0.000000
 Perturbation : derivative vs k along direction   2
 The set of symmetries contains only one element for this perturbation.
 symkpt : not enough symmetry to change the number of k points.

[...]

 Perturbation wavevector (in red.coord.)   0.000000  0.000000  0.000000
 Perturbation : derivative vs k along direction   3
 The set of symmetries contains only one element for this perturbation.
 symkpt : not enough symmetry to change the number of k points.

-inwffil : will read wavefunctions from disk file /scratch/users/j/a/jabreu/flow_simple_6atoms/flow/w212/t1/indata/in_WFK

 Initialisation of the first-order wave-functions :
  ireadwf=   0

--- !BeginCycle
iteration_state: {dtset: 1, }
solver: {iscf: 7, nstep: 1000, nline: 4, wfoptalg: 0, }
tolerances: {tolwfr: 1.00E-20, }
...

     iter   2DEtotal(Ha)        deltaE(Ha) residm    vres2
-ETOT  1  -7.9377240280284     -7.938E+00 3.127E-02 0.000E+00
 ETOT  2  -7.9400750579618     -2.351E-03 8.310E-04 0.000E+00
 ETOT  3  -7.9400793872896     -4.329E-06 1.703E-05 0.000E+00
 ETOT  4  -7.9400794112778     -2.399E-08 6.303E-07 0.000E+00
 ETOT  5  -7.9400794114673     -1.895E-10 3.612E-08 0.000E+00
 ETOT  6  -7.9400794114690     -1.723E-12 1.207E-09 0.000E+00
 ETOT  7  -7.9400794114690     -1.688E-14 1.386E-10 0.000E+00
 ETOT  8  -7.9400794114690      9.770E-15 6.404E-12 0.000E+00
 ETOT  9  -7.9400794114690      1.066E-14 7.514E-13 0.000E+00
 ETOT 10  -7.9400794114690     -6.217E-15 4.030E-14 0.000E+00
 ETOT 11  -7.9400794114690      0.000E+00 4.747E-15 0.000E+00
 ETOT 12  -7.9400794114690      1.776E-15 2.857E-16 0.000E+00
 ETOT 13  -7.9400794114690     -8.882E-16 3.482E-17 0.000E+00
 ETOT 14  -7.9400794114690      3.553E-15 2.399E-18 0.000E+00
 ETOT 15  -7.9400794114690     -3.553E-15 3.031E-19 0.000E+00
 ETOT 16  -7.9400794114690      2.665E-15 2.332E-20 0.000E+00
 ETOT 17  -7.9400794114690      8.882E-16 9.912E-21 0.000E+00

 At SCF step   17   max residual=  9.91E-21 < tolwfr=  1.00E-20 =>converged.

 ----iterations are completed or convergence reached----

 dfpt_looppert: DFPT cycle converged with prtwf=-1. Will skip output of the 1st-order WFK file.
 dfpt_looppert : ek2=    1.2735730881E+01
          f-sum rule ratio=    1.2533104249E+00
 prteigrs : about to open file /scratch/users/j/a/jabreu/flow_simple_6atoms/flow/w212/t1/tmpdata/tmp_1WF1_EIG
 Expectation of eigenvalue derivatives (hartree) for nkpt=   2  k points:
  (in case of degenerate eigenvalues, averaged derivative)
 kpt#   1, nband= 27, wtk=  0.50000, kpt=  0.0000  0.0000  0.0000 (reduced coord)
   0.00000    0.00000    0.00000   -0.00000   -0.00000   -0.00000   -0.00000   -0.00000
  -0.00000   -0.00000   -0.00000    0.00000   -0.00000   -0.00000   -0.00000   -0.00000
  -0.00000   -0.00000   -0.00000    0.00000    0.00000    0.00000    0.00000    0.00000
  -0.00000    0.00001    0.00001
 prteigrs : prtvol=0 or 1, do not print more k-points.

 Eight components of 2nd-order total energy (hartree) are
 1,2,3: 0th-order hamiltonian combined with 1st-order wavefunctions
     kin0=   6.31891955E+00 eigvalue=   7.00625859E-01  local=  -4.03999354E+00
 4,5,6: 1st-order hamiltonian combined with 1st and 0th-order wfs
     kin1=  -1.59618243E+01  Hartree=   0.00000000E+00     xc=   0.00000000E+00
 7,8,9: eventually, occupation + non-local contributions
    edocc=   4.24191017E+00     enl0=   7.18617372E-01   enl1=   8.16654596E-02
 1-9 gives the relaxation energy (to be shifted if some occ is /=2.0)
   erelax=  -7.94007941E+00
  No Ewald or frozen-wf contrib.: the relaxation energy is the total one
 2DEtotal=   -0.7940079411E+01 Ha. Also 2DEtotal=   -0.216060548744E+03 eV
    (  non-var. 2DEtotal :   -7.9400794114E+00 Ha)

 CALCULATION OF EFFECTIVE MASSES
 NOTE : Additional infos (eff. mass eigenvalues, eigenvectors and, if degenerate, average mass) are available in stdout.

 K-point ( 0.000, 0.000, 0.000) | band =    18
 Effective mass tensor:
             -0.8670128567             -0.0000000001              0.0000000000
             -0.0000000001             -0.8670128573             -0.0000000000
              0.0000000000             -0.0000000000             -0.1006338645
 Effective mass tensor eigenvalues:
             -0.8670128573             -0.8670128566             -0.1006338645
 Angular average effective mass 1/(<1/m>)=  -0.2450222970
 Angular average effective mass for Frohlich model (<m**0.5>)**2=  -0.3445128594
 Effective masses along directions: (cart. coord. / red. coord. -> eff. mass)
    1:   1.000000  0.000000  0.000000 /   0.894427 -0.447214  0.000000 ->  -0.8670128567
    2:   0.000000  1.000000  0.000000 /   0.000000  1.000000  0.000000 ->  -0.8670128573
    3:   0.000000  0.000000  1.000000 /   0.000000  0.000000  1.000000 ->  -0.1006338645
    4:   0.577350  0.577350  0.577350 /   0.474012  0.173500  0.863255 ->  -0.2450222970
    5:   0.000000  0.707107  0.707107 /   0.000000  0.429450  0.903091 ->  -0.1803361752
    6:   0.707107  0.000000  0.707107 /   0.467952 -0.233976  0.852219 ->  -0.1803361752
    7:   0.707107  0.707107  0.000000 /   0.939071  0.343724  0.000000 ->  -0.8670128571

 K-point ( 0.500, 0.000, 0.000) | band =    19
 Effective mass tensor:
              1.0251148792              0.4817354273              0.0000364765
              0.4817354273              0.4688412973              0.0000210573
              0.0000364765              0.0000210573              0.9800289649
 Effective mass tensor eigenvalues:
              0.1907145748              0.9800289594              1.3032416072
 Angular average effective mass 1/(<1/m>)=   0.4266737553
 Angular average effective mass for Frohlich model (<m**0.5>)**2=   0.5412006686
 Effective masses along directions: (cart. coord. / red. coord. -> eff. mass)
    1:   1.000000  0.000000  0.000000 /   0.894427 -0.447214  0.000000 ->   0.5301307058
    2:   0.000000  1.000000  0.000000 /   0.000000  1.000000  0.000000 ->   0.2424578679
    3:   0.000000  0.000000  1.000000 /   0.000000  0.000000  1.000000 ->   0.9800289635
    4:   0.577350  0.577350  0.577350 /   0.474012  0.173500  0.863255 ->   0.9509823782
    5:   0.000000  0.707107  0.707107 /   0.000000  0.429450  0.903091 ->   0.3887440733
    6:   0.707107  0.000000  0.707107 /   0.467952 -0.233976  0.852219 ->   0.6880777812
    7:   0.707107  0.707107  0.000000 /   0.939071  0.343724  0.000000 ->   0.9370557769

 END OF EFFECTIVE MASSES SECTION

 ---- first-order wavefunction calculations are completed ----

 Total localisation tensor (bohr^2) in cartesian coordinates
  WARNING : still subject to testing - especially symmetries.
      direction              matrix element
   alpha     beta       real part   imaginary part
     1        1       4.4844319298    0.0000000000
     1        2      -1.8058693840    0.0000000000
     1        3       0.0000000000    0.0000000000
     2        1      -1.8058693840    0.0000000000
     2        2       3.1278575250    0.0000000000
     2        3       0.0000000000    0.0000000000
     3        1       0.0000000000    0.0000000000
     3        2       0.0000000000    0.0000000000
     3        3       3.8363901018    0.0000000000

 respfn : d/dk was computed, but no 2DTE, so no DDB output.

== END DATASET(S) ==============================================================

 -outvars: echo values of variables after computation  --------
            acell      1.0000000000E+00  1.0000000000E+00  1.0000000000E+00 Bohr
              amu      8.76200000E+01  6.94100000E+00  3.09737620E+01
             ecut      3.70000000E+01 Hartree
           etotal     -7.9400794115E+00
            fcart      0.0000000000E+00  0.0000000000E+00  0.0000000000E+00
                       0.0000000000E+00  0.0000000000E+00  0.0000000000E+00
                       0.0000000000E+00  0.0000000000E+00  0.0000000000E+00
                       0.0000000000E+00  0.0000000000E+00  0.0000000000E+00
                       0.0000000000E+00  0.0000000000E+00  0.0000000000E+00
                       0.0000000000E+00  0.0000000000E+00  0.0000000000E+00
-          fftalg         512
           irdden           1
           irdwfk           1
           istwfk        1    1
              ixc     -116133
              kpt      0.00000000E+00  0.00000000E+00  0.00000000E+00
                       5.00000000E-01  0.00000000E+00  0.00000000E+00
           kptopt           0
P           mkmem           2
P          mkqmem           2
P          mk1mem           2
            natom           6
            nband          27
           nbdbuf           4
            ngfft          48      48      90
             nkpt           2
            nstep        1000
             nsym          24
           ntypat           3
              occ      2.000000  2.000000  2.000000  2.000000  2.000000  2.000000
                       2.000000  2.000000  2.000000  2.000000  2.000000  2.000000
                       2.000000  2.000000  2.000000  2.000000  2.000000  2.000000
                       0.000000  0.000000  0.000000  0.000000  0.000000  0.000000
                       0.000000  0.000000  0.000000
        optdriver           1
            prtwf          -1
            rfdir           1       1       1
           rfelfd           2
            rprim      8.2032193197E+00  0.0000000000E+00  0.0000000000E+00
                      -4.1016096598E+00  7.1041963236E+00  0.0000000000E+00
                       0.0000000000E+00  0.0000000000E+00  1.4939435235E+01
          spgroup         194
           strten      0.0000000000E+00  0.0000000000E+00  0.0000000000E+00
                       0.0000000000E+00  0.0000000000E+00  0.0000000000E+00
           symrel      1  0  0   0  1  0   0  0  1      -1  0  0   0 -1  0   0  0 -1
                       0  1  0   1  0  0   0  0  1       0 -1  0  -1  0  0   0  0 -1
                       1  1  0  -1  0  0   0  0  1      -1 -1  0   1  0  0   0  0 -1
                      -1  0  0   1  1  0   0  0  1       1  0  0  -1 -1  0   0  0 -1
                       0  1  0  -1 -1  0   0  0  1       0 -1  0   1  1  0   0  0 -1
                      -1 -1  0   0  1  0   0  0  1       1  1  0   0 -1  0   0  0 -1
                      -1  0  0   0 -1  0   0  0  1       1  0  0   0  1  0   0  0 -1
                       0 -1  0  -1  0  0   0  0  1       0  1  0   1  0  0   0  0 -1
                      -1 -1  0   1  0  0   0  0  1       1  1  0  -1  0  0   0  0 -1
                       1  0  0  -1 -1  0   0  0  1      -1  0  0   1  1  0   0  0 -1
                       0 -1  0   1  1  0   0  0  1       0  1  0  -1 -1  0   0  0 -1
                       1  1  0   0 -1  0   0  0  1      -1 -1  0   0  1  0   0  0 -1
            tnons      0.0000000  0.0000000  0.0000000     0.0000000  0.0000000  0.0000000
                       0.0000000  0.0000000  0.5000000     0.0000000  0.0000000  0.5000000
                       0.0000000  0.0000000  0.5000000     0.0000000  0.0000000  0.5000000
                       0.0000000  0.0000000  0.0000000     0.0000000  0.0000000  0.0000000
                       0.0000000  0.0000000  0.0000000     0.0000000  0.0000000  0.0000000
                       0.0000000  0.0000000  0.5000000     0.0000000  0.0000000  0.5000000
                       0.0000000  0.0000000  0.5000000     0.0000000  0.0000000  0.5000000
                       0.0000000  0.0000000  0.0000000     0.0000000  0.0000000  0.0000000
                       0.0000000  0.0000000  0.0000000     0.0000000  0.0000000  0.0000000
                       0.0000000  0.0000000  0.5000000     0.0000000  0.0000000  0.5000000
                       0.0000000  0.0000000  0.5000000     0.0000000  0.0000000  0.5000000
                       0.0000000  0.0000000  0.0000000     0.0000000  0.0000000  0.0000000
           tolwfr      1.00000000E-20
            typat      1  1  2  2  3  3
           useylm           1
              wtk        0.50000    0.50000
           xangst      0.0000000000E+00  0.0000000000E+00  4.3884943654E-16
                       0.0000000000E+00  0.0000000000E+00  3.9528043177E+00
                       2.1704783505E+00  1.2531262599E+00  5.9292064766E+00
                       1.7639241746E-11  2.5062525199E+00  1.9764021589E+00
                       2.1704783505E+00  1.2531262599E+00  1.9764021589E+00
                       1.7639241746E-11  2.5062525199E+00  5.9292064766E+00
            xcart      0.0000000000E+00  0.0000000000E+00  8.2930524863E-16
                       0.0000000000E+00  0.0000000000E+00  7.4697176174E+00
                       4.1016096599E+00  2.3680654412E+00  1.1204576426E+01
                       3.3333336091E-11  4.7361308824E+00  3.7348588087E+00
                       4.1016096599E+00  2.3680654412E+00  3.7348588087E+00
                       3.3333336091E-11  4.7361308824E+00  1.1204576426E+01
             xred      0.0000000000E+00  0.0000000000E+00  5.5511151231E-17
                       0.0000000000E+00  0.0000000000E+00  5.0000000000E-01
                       6.6666666667E-01  3.3333333333E-01  7.5000000000E-01
                       3.3333333333E-01  6.6666666667E-01  2.5000000000E-01
                       6.6666666667E-01  3.3333333333E-01  2.5000000000E-01
                       3.3333333333E-01  6.6666666667E-01  7.5000000000E-01
            znucl       38.00000    3.00000   15.00000

- Timing analysis has been suppressed with timopt=0

 Suggested references for the acknowledgment of ABINIT usage.

 Calculation completed.
.Delivered  14 WARNINGs and   9 COMMENTs to log file.