.Version 9.5.1 of ABINIT

 ABINIT is a project of the Universite Catholique de Louvain,
 Corning Inc. and other collaborators, see ~abinit/doc/developers/contributors.txt .
 acknowledgments of the ABINIT effort.

.Starting date : Tue 11 May 2021.
- ( at 21h12 )

- input  file    -> /scratch/users/j/a/jabreu/flow_simple_8atoms/flow/w272/t1/run.abi
- output file    -> /scratch/users/j/a/jabreu/flow_simple_8atoms/flow/w272/t1/run.abo
- root for input  files -> /scratch/users/j/a/jabreu/flow_simple_8atoms/flow/w272/t1/indata/in
- root for output files -> /scratch/users/j/a/jabreu/flow_simple_8atoms/flow/w272/t1/outdata/out

 Symmetries : space group Pn n m (# 58); Bravais oP (primitive ortho.)
     intxc =       0      iscf =       7    lmnmax =      18     lnmax =       6
     mgfft =     108  mpssoang =       3    mqgrid =    5382     natom =       8
  nloc_mem =       1    nspden =       1   nspinor =       1    nsppol =       1
      nsym =       8    n1xccc =    2501    ntypat =       2    occopt =       1
   xclevel =       2
-    mband =          47        mffmem =           1         mkmem =           2
-   mkqmem =           2        mk1mem =           2           mpw =       12330
      nfft =      194400          nkpt =           2
  Rough estimation (10% accuracy) of disk space for files :

------------- Echo of variables that govern the present computation ------------
-
- outvars: echo of selected default values
-   iomode0 =  0 , fftalg0 =512 , wfoptalg0 =  0
-
- outvars: echo of global parameters not present in the input file
-  max_nthreads =    0
-
 -outvars: echo values of preprocessed input variables --------
            acell      1.0000000000E+00  1.0000000000E+00  1.0000000000E+00 Bohr
              amu      1.14820000E+02  3.20660000E+01
             ecut      3.50000000E+01 Hartree
-          fftalg         512
           irdden           1
           irdwfk           1
              ixc     -116133
              kpt      0.00000000E+00  3.63636364E-01  0.00000000E+00
                       0.00000000E+00 -1.54074396E-33  2.77777778E-01
           kptopt           0
P           mkmem           2
P          mkqmem           2
P          mk1mem           2
            natom           8
            nband          47
           nbdbuf           4
            ngfft          40      45     108
             nkpt           2
            nstep        2000
             nsym           8
           ntypat           2
              occ      2.000000  2.000000  2.000000  2.000000  2.000000  2.000000
                       2.000000  2.000000  2.000000  2.000000  2.000000  2.000000
                       2.000000  2.000000  2.000000  2.000000  2.000000  2.000000
                       2.000000  2.000000  2.000000  2.000000  2.000000  2.000000
                       2.000000  2.000000  2.000000  2.000000  2.000000  2.000000
                       2.000000  2.000000  2.000000  2.000000  2.000000  2.000000
                       2.000000  2.000000  0.000000  0.000000  0.000000  0.000000
                       0.000000  0.000000  0.000000  0.000000  0.000000
        optdriver           1
            prtwf          -1
            rfdir           1       1       1
           rfelfd           2
            rprim      7.4718792279E+00  0.0000000000E+00  0.0000000000E+00
                       0.0000000000E+00  8.2555539997E+00  0.0000000000E+00
                       0.0000000000E+00  0.0000000000E+00  2.0207518483E+01
          spgroup          58
           symrel      1  0  0   0  1  0   0  0  1      -1  0  0   0 -1  0   0  0 -1
                      -1  0  0   0  1  0   0  0 -1       1  0  0   0 -1  0   0  0  1
                      -1  0  0   0 -1  0   0  0  1       1  0  0   0  1  0   0  0 -1
                       1  0  0   0 -1  0   0  0 -1      -1  0  0   0  1  0   0  0  1
            tnons      0.0000000  0.0000000  0.0000000     0.0000000  0.0000000  0.0000000
                       0.5000000  0.5000000  0.5000000     0.5000000  0.5000000  0.5000000
                       0.5000000  0.5000000  0.5000000     0.5000000  0.5000000  0.5000000
                       0.0000000  0.0000000  0.0000000     0.0000000  0.0000000  0.0000000
           tolwfr      1.00000000E-20
            typat      1  1  1  1  2  2  2  2
           useylm           1
              wtk        0.50000    0.50000
           xangst      1.9769740964E+00  3.8461603588E+00  6.6319779966E+00
                       1.9769740964E+00  5.2249066210E-01  4.0613802266E+00
                       0.0000000000E+00  1.6618348484E+00  9.4080593383E+00
                       0.0000000000E+00  2.7068161726E+00  1.2852988850E+00
                       1.9769740964E+00  3.8378599219E-02  9.0883172340E+00
                       1.9769740964E+00  4.3302724217E+00  1.6050409892E+00
                       0.0000000000E+00  2.2227041097E+00  6.9517201009E+00
                       0.0000000000E+00  2.1459469112E+00  3.7416381224E+00
            xcart      3.7359396139E+00  7.2681897413E+00  1.2532622133E+01
                       3.7359396139E+00  9.8736425836E-01  7.6748963498E+00
                       0.0000000000E+00  3.1404127415E+00  1.7778655591E+01
                       0.0000000000E+00  5.1151412582E+00  2.4288628916E+00
                       3.7359396139E+00  7.2525041887E-02  1.7174430581E+01
                       3.7359396139E+00  8.1830289578E+00  3.0330879017E+00
                       0.0000000000E+00  4.2003020417E+00  1.3136847143E+01
                       0.0000000000E+00  4.0552519580E+00  7.0706713397E+00
             xred      5.0000000000E-01  8.8040000000E-01  6.2019600000E-01
                       5.0000000000E-01  1.1960000000E-01  3.7980400000E-01
                       0.0000000000E+00  3.8040000000E-01  8.7980400000E-01
                       0.0000000000E+00  6.1960000000E-01  1.2019600000E-01
                       5.0000000000E-01  8.7850000000E-03  8.4990300000E-01
                       5.0000000000E-01  9.9121500000E-01  1.5009700000E-01
                       0.0000000000E+00  5.0878500000E-01  6.5009700000E-01
                       0.0000000000E+00  4.9121500000E-01  3.4990300000E-01
            znucl       49.00000   16.00000

 chkinp: Checking input parameters for consistency.

== DATASET  1 ==================================================================
-   mpi_nproc: 1, omp_nthreads: -1 (-1 if OMP is not activated)

--- !DatasetInfo
iteration_state: {dtset: 1, }
dimensions: {natom: 8, nkpt: 2, mband: 47, nsppol: 1, nspinor: 1, nspden: 1, mpw: 12330, }
cutoff_energies: {ecut:  35.0, pawecutdg:  -1.0, }
electrons: {nelect:   7.60000000E+01, charge:   0.00000000E+00, occopt:   1.00000000E+00, tsmear:   1.00000000E-02, }
meta: {optdriver: 1, rfelfd: 2, }
...

 Real(R)+Recip(G) space primitive vectors, cartesian coordinates (Bohr,Bohr^-1):
 R(1)=  7.4718792  0.0000000  0.0000000  G(1)=  0.1338351  0.0000000  0.0000000
 R(2)=  0.0000000  8.2555540  0.0000000  G(2)=  0.0000000  0.1211306  0.0000000
 R(3)=  0.0000000  0.0000000 20.2075185  G(3)=  0.0000000  0.0000000  0.0494865
 Unit cell volume ucvol=  1.2464907E+03 bohr^3
 Angles (23,13,12)=  9.00000000E+01  9.00000000E+01  9.00000000E+01 degrees

 getcut: wavevector=  0.0000  0.0000  0.0000  ngfft=  40  45 108
         ecut(hartree)=     35.000   => boxcut(ratio)=   2.00128

--- Pseudopotential description ------------------------------------------------
- pspini: atom type   1  psp file is /scratch/users/j/a/jabreu/pseudos/PBEsol/In.psp8
- pspatm: opening atomic psp file    /scratch/users/j/a/jabreu/pseudos/PBEsol/In.psp8
- In    ONCVPSP-3.3.0  r_core=   2.10853   2.37566   1.87143
- 49.00000  13.00000    180112                znucl, zion, pspdat
    8 -116133    2    4       600   0.00000   pspcod,pspxc,lmax,lloc,mmax,r2well
    5.99000000000000    5.00000000000000    0.00000000000000   rchrg,fchrg,qchrg
     nproj     2     2     2
     extension_switch     1
  pspatm : epsatm=   25.17984752
         --- l  ekb(1:nproj) -->
             0   12.999887    1.931740
             1    5.981707    1.012544
             2   -4.048011   -1.239028
 pspatm: atomic psp has been read  and splines computed

- pspini: atom type   2  psp file is /scratch/users/j/a/jabreu/pseudos/PBEsol/S.psp8
- pspatm: opening atomic psp file    /scratch/users/j/a/jabreu/pseudos/PBEsol/S.psp8
- S     ONCVPSP-3.3.0  r_core=   1.45376   1.45376   1.61851
- 16.00000   6.00000    180112                znucl, zion, pspdat
    8 -116133    2    4       600   0.00000   pspcod,pspxc,lmax,lloc,mmax,r2well
    5.99000000000000    6.00000000000000    0.00000000000000   rchrg,fchrg,qchrg
     nproj     2     2     2
     extension_switch     1
  pspatm : epsatm=    8.71840985
         --- l  ekb(1:nproj) -->
             0    6.834532    0.579453
             1    3.282851    0.896984
             2   -3.496974   -0.974265
 pspatm: atomic psp has been read  and splines computed

   1.03050702E+04                                ecore*ucvol(ha*bohr**3)

-inwffil : will read wavefunctions from disk file /scratch/users/j/a/jabreu/flow_simple_8atoms/flow/w272/t1/indata/in_WFK

 ==>  initialize data related to q vector <==

 The list of irreducible perturbations for this q vector is:
    1)    idir= 1    ipert=   9
    2)    idir= 2    ipert=   9
    3)    idir= 3    ipert=   9

 Perturbation wavevector (in red.coord.)   0.000000  0.000000  0.000000
 Perturbation : derivative vs k along direction   1

 dfpt_looppert : COMMENT -
  In a d/dk calculation, iscf is set to -3 automatically.
 The set of symmetries contains only one element for this perturbation.
 symkpt : not enough symmetry to change the number of k points.

[...]

 Initialisation of the first-order wave-functions :
  ireadwf=   0

--- !BeginCycle
iteration_state: {dtset: 1, }
solver: {iscf: 7, nstep: 2000, nline: 4, wfoptalg: 0, }
tolerances: {tolwfr: 1.00E-20, }
...

     iter   2DEtotal(Ha)        deltaE(Ha) residm    vres2
-ETOT  1  -110.65545760289     -1.107E+02 1.616E-01 0.000E+00
 ETOT  2  -110.72218734122     -6.673E-02 1.570E-03 0.000E+00
 ETOT  3  -110.72253775022     -3.504E-04 2.095E-04 0.000E+00
 ETOT  4  -110.72254225723     -4.507E-06 2.017E-06 0.000E+00
 ETOT  5  -110.72254238874     -1.315E-07 3.630E-07 0.000E+00
 ETOT  6  -110.72254239547     -6.734E-09 6.978E-09 0.000E+00
 ETOT  7  -110.72254239585     -3.782E-10 1.443E-09 0.000E+00
 ETOT  8  -110.72254239587     -2.196E-11 4.458E-11 0.000E+00
 ETOT  9  -110.72254239587     -1.293E-12 9.364E-12 0.000E+00
 ETOT 10  -110.72254239587      0.000E+00 3.001E-13 0.000E+00
 ETOT 11  -110.72254239587     -2.842E-14 7.180E-14 0.000E+00
 ETOT 12  -110.72254239587     -2.842E-14 2.276E-15 0.000E+00
 ETOT 13  -110.72254239587     -4.263E-14 6.067E-16 0.000E+00
 ETOT 14  -110.72254239587      4.263E-14 1.890E-17 0.000E+00
 ETOT 15  -110.72254239587     -5.684E-14 5.390E-18 0.000E+00
 ETOT 16  -110.72254239587     -2.842E-14 1.661E-19 0.000E+00
 ETOT 17  -110.72254239587      0.000E+00 4.993E-20 0.000E+00
 ETOT 18  -110.72254239587      2.842E-14 9.681E-21 0.000E+00

 At SCF step   18   max residual=  9.68E-21 < tolwfr=  1.00E-20 =>converged.

 ----iterations are completed or convergence reached----

 dfpt_looppert: DFPT cycle converged with prtwf=-1. Will skip output of the 1st-order WFK file.
 dfpt_looppert : ek2=    1.0748395479E+02
          f-sum rule ratio=    1.2184081107E+00
 prteigrs : about to open file /scratch/users/j/a/jabreu/flow_simple_8atoms/flow/w272/t1/tmpdata/tmp_1WF1_EIG
 Expectation of eigenvalue derivatives (hartree) for nkpt=   2  k points:
  (in case of degenerate eigenvalues, averaged derivative)
 kpt#   1, nband= 47, wtk=  0.50000, kpt=  0.0000  0.3636  0.0000 (reduced coord)
   0.00000   -0.00000    0.00000   -0.00000    0.00000   -0.00000    0.00000   -0.00000
  -0.00000   -0.00000    0.00000   -0.00000   -0.00000    0.00000    0.00000    0.00000
  -0.00000   -0.00000   -0.00000    0.00000    0.00000    0.00000    0.00000   -0.00000
   0.00000    0.00000   -0.00000    0.00000   -0.00000   -0.00000    0.00000    0.00000
  -0.00000   -0.00000   -0.00000    0.00000   -0.00000    0.00000    0.00000    0.00000
   0.00000   -0.00000   -0.00000   -0.00000   -0.00000    0.00000    0.00000
 prteigrs : prtvol=0 or 1, do not print more k-points.

 Eight components of 2nd-order total energy (hartree) are
 1,2,3: 0th-order hamiltonian combined with 1st-order wavefunctions
     kin0=   1.20292084E+02 eigvalue=   6.23185372E+00  local=  -6.58728245E+01
 4,5,6: 1st-order hamiltonian combined with 1st and 0th-order wfs
     kin1=  -1.30959322E+02  Hartree=   0.00000000E+00     xc=   0.00000000E+00
 7,8,9: eventually, occupation + non-local contributions
    edocc=   2.75544236E+01     enl0=   2.25170053E+01   enl1=  -9.04857625E+01
 1-9 gives the relaxation energy (to be shifted if some occ is /=2.0)
   erelax=  -1.10722542E+02
  No Ewald or frozen-wf contrib.: the relaxation energy is the total one
 2DEtotal=   -0.1107225424E+03 Ha. Also 2DEtotal=   -0.301291360309E+04 eV
    (  non-var. 2DEtotal :   -1.1072254240E+02 Ha)

 Perturbation wavevector (in red.coord.)   0.000000  0.000000  0.000000
 Perturbation : derivative vs k along direction   2
 The set of symmetries contains only one element for this perturbation.
 symkpt : not enough symmetry to change the number of k points.

[...]

 Perturbation wavevector (in red.coord.)   0.000000  0.000000  0.000000
 Perturbation : derivative vs k along direction   3
 The set of symmetries contains only one element for this perturbation.
 symkpt : not enough symmetry to change the number of k points.

-inwffil : will read wavefunctions from disk file /scratch/users/j/a/jabreu/flow_simple_8atoms/flow/w272/t1/indata/in_WFK

 Initialisation of the first-order wave-functions :
  ireadwf=   0

--- !BeginCycle
iteration_state: {dtset: 1, }
solver: {iscf: 7, nstep: 2000, nline: 4, wfoptalg: 0, }
tolerances: {tolwfr: 1.00E-20, }
...

     iter   2DEtotal(Ha)        deltaE(Ha) residm    vres2
-ETOT  1  -13.781742253431     -1.378E+01 4.789E-02 0.000E+00
 ETOT  2  -13.794184970311     -1.244E-02 1.206E-03 0.000E+00
 ETOT  3  -13.794272250552     -8.728E-05 5.535E-05 0.000E+00
 ETOT  4  -13.794273527307     -1.277E-06 1.689E-06 0.000E+00
 ETOT  5  -13.794273565541     -3.823E-08 1.290E-07 0.000E+00
 ETOT  6  -13.794273567609     -2.068E-09 7.511E-09 0.000E+00
 ETOT  7  -13.794273567729     -1.205E-10 4.309E-10 0.000E+00
 ETOT  8  -13.794273567737     -7.196E-12 3.542E-11 0.000E+00
 ETOT  9  -13.794273567737     -4.245E-13 2.081E-12 0.000E+00
 ETOT 10  -13.794273567737     -4.086E-14 1.760E-13 0.000E+00
 ETOT 11  -13.794273567737      1.599E-14 1.104E-14 0.000E+00
 ETOT 12  -13.794273567737     -1.776E-15 9.198E-16 0.000E+00
 ETOT 13  -13.794273567737      0.000E+00 6.025E-17 0.000E+00
 ETOT 14  -13.794273567737     -3.553E-15 5.024E-18 0.000E+00
 ETOT 15  -13.794273567737     -1.776E-15 3.324E-19 0.000E+00
 ETOT 16  -13.794273567737      0.000E+00 2.842E-20 0.000E+00
 ETOT 17  -13.794273567737     -3.553E-15 9.956E-21 0.000E+00

 At SCF step   17   max residual=  9.96E-21 < tolwfr=  1.00E-20 =>converged.

 ----iterations are completed or convergence reached----

 dfpt_looppert: DFPT cycle converged with prtwf=-1. Will skip output of the 1st-order WFK file.
 dfpt_looppert : ek2=    1.4695262738E+01
          f-sum rule ratio=    1.0438429609E+00
 prteigrs : about to open file /scratch/users/j/a/jabreu/flow_simple_8atoms/flow/w272/t1/tmpdata/tmp_1WF1_EIG
 Expectation of eigenvalue derivatives (hartree) for nkpt=   2  k points:
  (in case of degenerate eigenvalues, averaged derivative)
 kpt#   1, nband= 47, wtk=  0.50000, kpt=  0.0000  0.3636  0.0000 (reduced coord)
  -0.00000    0.00000   -0.00000    0.00000    0.00000   -0.00000    0.00000   -0.00000
   0.00000   -0.00000    0.00000   -0.00000   -0.00000    0.00000    0.00000   -0.00000
   0.00000   -0.00000    0.00000   -0.00000   -0.00000    0.00000   -0.00000    0.00000
   0.00000   -0.00000   -0.00000    0.00000   -0.00000    0.00000   -0.00000    0.00000
  -0.00000    0.00000    0.00000   -0.00000    0.00000   -0.00000   -0.00000    0.00000
  -0.00000    0.00000    0.00000    0.00000   -0.00000    0.00000    0.00000
 prteigrs : prtvol=0 or 1, do not print more k-points.

 Eight components of 2nd-order total energy (hartree) are
 1,2,3: 0th-order hamiltonian combined with 1st-order wavefunctions
     kin0=   1.64095951E+01 eigvalue=   8.23733710E-01  local=  -8.92338030E+00
 4,5,6: 1st-order hamiltonian combined with 1st and 0th-order wfs
     kin1=  -1.53395466E+01  Hartree=   0.00000000E+00     xc=   0.00000000E+00
 7,8,9: eventually, occupation + non-local contributions
    edocc=   2.44339079E+00     enl0=   3.04093430E+00   enl1=  -1.22490006E+01
 1-9 gives the relaxation energy (to be shifted if some occ is /=2.0)
   erelax=  -1.37942736E+01
  No Ewald or frozen-wf contrib.: the relaxation energy is the total one
 2DEtotal=   -0.1379427357E+02 Ha. Also 2DEtotal=   -0.375361273122E+03 eV
    (  non-var. 2DEtotal :   -1.3794273568E+01 Ha)

 CALCULATION OF EFFECTIVE MASSES
 NOTE : Additional infos (eff. mass eigenvalues, eigenvectors and, if degenerate, average mass) are available in stdout.

 K-point ( 0.000, 0.364, 0.000) | band =    38
 Effective mass tensor:
             -0.3217706582             -0.0000000000              0.0000000001
             -0.0000000000             -0.2041154149             -0.0000000007
              0.0000000001             -0.0000000007             -0.7541288720
 Effective mass tensor eigenvalues:
             -0.7541288720             -0.3217706582             -0.2041154149
 Angular average effective mass 1/(<1/m>)=  -0.3214391596
 Angular average effective mass for Frohlich model (<m**0.5>)**2=  -0.3467265604
 Effective masses along directions: (cart. coord. / red. coord. -> eff. mass)
    1:   1.000000  0.000000  0.000000 /   1.000000  0.000000  0.000000 ->  -0.3217706582
    2:   0.000000  1.000000  0.000000 /   0.000000  1.000000  0.000000 ->  -0.2041154149
    3:   0.000000  0.000000  1.000000 /   0.000000  0.000000  1.000000 ->  -0.7541288720
    4:   0.577350  0.577350  0.577350 /   0.323848  0.357814  0.875838 ->  -0.3214391599
    5:   0.000000  0.707107  0.707107 /   0.000000  0.378195  0.925726 ->  -0.3212736667
    6:   0.707107  0.000000  0.707107 /   0.346809  0.000000  0.937936 ->  -0.4510765860
    7:   0.707107  0.707107  0.000000 /   0.671040  0.741421  0.000000 ->  -0.2497816724

 K-point ( 0.000,-0.000, 0.278) | band =    39
 Effective mass tensor:
              0.4088344507              0.0000004850             -0.0000000001
              0.0000004850              0.4321638361              0.0000000307
             -0.0000000001              0.0000000307              0.1204013974
 Effective mass tensor eigenvalues:
              0.1204013974              0.4088344507              0.4321638362
 Angular average effective mass 1/(<1/m>)=   0.2296129262
 Angular average effective mass for Frohlich model (<m**0.5>)**2=   0.2583514047
 Effective masses along directions: (cart. coord. / red. coord. -> eff. mass)
    1:   1.000000  0.000000  0.000000 /   1.000000  0.000000  0.000000 ->   0.4088344507
    2:   0.000000  1.000000  0.000000 /   0.000000  1.000000  0.000000 ->   0.4321638361
    3:   0.000000  0.000000  1.000000 /   0.000000  0.000000  1.000000 ->   0.1204013974
    4:   0.577350  0.577350  0.577350 /   0.323848  0.357814  0.875838 ->   0.2296130434
    5:   0.000000  0.707107  0.707107 /   0.000000  0.378195  0.925726 ->   0.1883330054
    6:   0.707107  0.000000  0.707107 /   0.346809  0.000000  0.937936 ->   0.1860200489
    7:   0.707107  0.707107  0.000000 /   0.671040  0.741421  0.000000 ->   0.4201760482

 END OF EFFECTIVE MASSES SECTION

 ---- first-order wavefunction calculations are completed ----

 Total localisation tensor (bohr^2) in cartesian coordinates
  WARNING : still subject to testing - especially symmetries.
      direction              matrix element
   alpha     beta       real part   imaginary part
     1        1       2.0136470454    0.0000000000
     1        2       0.0000000000    0.0000000000
     1        3       0.0000000000    0.0000000000
     2        1       0.0000000000    0.0000000000
     2        2       1.6533253181    0.0000000000
     2        3       0.0000000000    0.0000000000
     3        1       0.0000000000    0.0000000000
     3        2       0.0000000000    0.0000000000
     3        3       2.0274565466    0.0000000000

 respfn : d/dk was computed, but no 2DTE, so no DDB output.

== END DATASET(S) ==============================================================

 -outvars: echo values of variables after computation  --------
            acell      1.0000000000E+00  1.0000000000E+00  1.0000000000E+00 Bohr
              amu      1.14820000E+02  3.20660000E+01
             ecut      3.50000000E+01 Hartree
           etotal     -1.3794273568E+01
            fcart      0.0000000000E+00  0.0000000000E+00  0.0000000000E+00
                       0.0000000000E+00  0.0000000000E+00  0.0000000000E+00
                       0.0000000000E+00  0.0000000000E+00  0.0000000000E+00
                       0.0000000000E+00  0.0000000000E+00  0.0000000000E+00
                       0.0000000000E+00  0.0000000000E+00  0.0000000000E+00
                       0.0000000000E+00  0.0000000000E+00  0.0000000000E+00
                       0.0000000000E+00  0.0000000000E+00  0.0000000000E+00
                       0.0000000000E+00  0.0000000000E+00  0.0000000000E+00
-          fftalg         512
           irdden           1
           irdwfk           1
              ixc     -116133
              kpt      0.00000000E+00  3.63636364E-01  0.00000000E+00
                       0.00000000E+00 -1.54074396E-33  2.77777778E-01
           kptopt           0
P           mkmem           2
P          mkqmem           2
P          mk1mem           2
            natom           8
            nband          47
           nbdbuf           4
            ngfft          40      45     108
             nkpt           2
            nstep        2000
             nsym           8
           ntypat           2
              occ      2.000000  2.000000  2.000000  2.000000  2.000000  2.000000
                       2.000000  2.000000  2.000000  2.000000  2.000000  2.000000
                       2.000000  2.000000  2.000000  2.000000  2.000000  2.000000
                       2.000000  2.000000  2.000000  2.000000  2.000000  2.000000
                       2.000000  2.000000  2.000000  2.000000  2.000000  2.000000
                       2.000000  2.000000  2.000000  2.000000  2.000000  2.000000
                       2.000000  2.000000  0.000000  0.000000  0.000000  0.000000
                       0.000000  0.000000  0.000000  0.000000  0.000000
        optdriver           1
            prtwf          -1
            rfdir           1       1       1
           rfelfd           2
            rprim      7.4718792279E+00  0.0000000000E+00  0.0000000000E+00
                       0.0000000000E+00  8.2555539997E+00  0.0000000000E+00
                       0.0000000000E+00  0.0000000000E+00  2.0207518483E+01
          spgroup          58
           strten      0.0000000000E+00  0.0000000000E+00  0.0000000000E+00
                       0.0000000000E+00  0.0000000000E+00  0.0000000000E+00
           symrel      1  0  0   0  1  0   0  0  1      -1  0  0   0 -1  0   0  0 -1
                      -1  0  0   0  1  0   0  0 -1       1  0  0   0 -1  0   0  0  1
                      -1  0  0   0 -1  0   0  0  1       1  0  0   0  1  0   0  0 -1
                       1  0  0   0 -1  0   0  0 -1      -1  0  0   0  1  0   0  0  1
            tnons      0.0000000  0.0000000  0.0000000     0.0000000  0.0000000  0.0000000
                       0.5000000  0.5000000  0.5000000     0.5000000  0.5000000  0.5000000
                       0.5000000  0.5000000  0.5000000     0.5000000  0.5000000  0.5000000
                       0.0000000  0.0000000  0.0000000     0.0000000  0.0000000  0.0000000
           tolwfr      1.00000000E-20
            typat      1  1  1  1  2  2  2  2
           useylm           1
              wtk        0.50000    0.50000
           xangst      1.9769740964E+00  3.8461603588E+00  6.6319779966E+00
                       1.9769740964E+00  5.2249066210E-01  4.0613802266E+00
                       0.0000000000E+00  1.6618348484E+00  9.4080593383E+00
                       0.0000000000E+00  2.7068161726E+00  1.2852988850E+00
                       1.9769740964E+00  3.8378599219E-02  9.0883172340E+00
                       1.9769740964E+00  4.3302724217E+00  1.6050409892E+00
                       0.0000000000E+00  2.2227041097E+00  6.9517201009E+00
                       0.0000000000E+00  2.1459469112E+00  3.7416381224E+00
            xcart      3.7359396139E+00  7.2681897413E+00  1.2532622133E+01
                       3.7359396139E+00  9.8736425836E-01  7.6748963498E+00
                       0.0000000000E+00  3.1404127415E+00  1.7778655591E+01
                       0.0000000000E+00  5.1151412582E+00  2.4288628916E+00
                       3.7359396139E+00  7.2525041887E-02  1.7174430581E+01
                       3.7359396139E+00  8.1830289578E+00  3.0330879017E+00
                       0.0000000000E+00  4.2003020417E+00  1.3136847143E+01
                       0.0000000000E+00  4.0552519580E+00  7.0706713397E+00
             xred      5.0000000000E-01  8.8040000000E-01  6.2019600000E-01
                       5.0000000000E-01  1.1960000000E-01  3.7980400000E-01
                       0.0000000000E+00  3.8040000000E-01  8.7980400000E-01
                       0.0000000000E+00  6.1960000000E-01  1.2019600000E-01
                       5.0000000000E-01  8.7850000000E-03  8.4990300000E-01
                       5.0000000000E-01  9.9121500000E-01  1.5009700000E-01
                       0.0000000000E+00  5.0878500000E-01  6.5009700000E-01
                       0.0000000000E+00  4.9121500000E-01  3.4990300000E-01
            znucl       49.00000   16.00000

- Timing analysis has been suppressed with timopt=0

 Suggested references for the acknowledgment of ABINIT usage.

 Calculation completed.
.Delivered  14 WARNINGs and   9 COMMENTs to log file.