.Version 9.5.1 of ABINIT

 ABINIT is a project of the Universite Catholique de Louvain,
 Corning Inc. and other collaborators, see ~abinit/doc/developers/contributors.txt .
 acknowledgments of the ABINIT effort.

.Starting date : Tue 27 Apr 2021.
- ( at 18h26 )

- input  file    -> /scratch/users/j/a/jabreu/flow_simple_4atoms/flow/w152/t1/run.abi
- output file    -> /scratch/users/j/a/jabreu/flow_simple_4atoms/flow/w152/t1/run.abo
- root for input  files -> /scratch/users/j/a/jabreu/flow_simple_4atoms/flow/w152/t1/indata/in
- root for output files -> /scratch/users/j/a/jabreu/flow_simple_4atoms/flow/w152/t1/outdata/out

 Symmetries : space group R-3 m (#166); Bravais hR (rhombohedral)
     intxc =       0      iscf =       7    lmnmax =      18     lnmax =       6
     mgfft =      64  mpssoang =       3    mqgrid =    3001     natom =       4
  nloc_mem =       1    nspden =       1   nspinor =       1    nsppol =       1
      nsym =      12    n1xccc =    2501    ntypat =       3    occopt =       1
   xclevel =       2
-    mband =          21        mffmem =           1         mkmem =           2
-   mkqmem =           2        mk1mem =           2           mpw =        5931
      nfft =      262144          nkpt =           2
  Rough estimation (10% accuracy) of disk space for files :

------------- Echo of variables that govern the present computation ------------
-
- outvars: echo of selected default values
-   iomode0 =  0 , fftalg0 =512 , wfoptalg0 =  0
-
- outvars: echo of global parameters not present in the input file
-  max_nthreads =    0
-
 -outvars: echo values of preprocessed input variables --------
            acell      1.0000000000E+00  1.0000000000E+00  1.0000000000E+00 Bohr
              amu      8.76200000E+01  1.20110000E+01  1.40067400E+01
             ecut      4.20000000E+01 Hartree
-          fftalg         512
           irdden           1
           irdwfk           1
           istwfk        1    1
              ixc     -116133
              kpt      5.00000000E-01  5.00000000E-01  5.00000000E-01
                       0.00000000E+00  0.00000000E+00  0.00000000E+00
           kptopt           0
P           mkmem           2
P          mkqmem           2
P          mk1mem           2
            natom           4
            nband          21
           nbdbuf           4
            ngfft          64      64      64
             nkpt           2
            nstep         100
             nsym          12
           ntypat           3
              occ      2.000000  2.000000  2.000000  2.000000  2.000000  2.000000
                       2.000000  2.000000  2.000000  2.000000  2.000000  2.000000
                       0.000000  0.000000  0.000000  0.000000  0.000000  0.000000
                       0.000000  0.000000  0.000000
        optdriver           1
            prtwf          -1
            rfdir           1       1       1
           rfelfd           2
            rprim      6.9503583555E+00  0.0000000000E+00  7.7573806159E+00
                       2.9668559797E+00  6.2853199494E+00  7.7573806159E+00
                       0.0000000000E+00  0.0000000000E+00  1.0415586171E+01
          spgroup         166
           symrel      1  0  0   0  1  0   0  0  1      -1  0  0   0 -1  0   0  0 -1
                       0  1  0   1  0  0   0  0  1       0 -1  0  -1  0  0   0  0 -1
                       0  0  1   1  0  0   0  1  0       0  0 -1  -1  0  0   0 -1  0
                       1  0  0   0  0  1   0  1  0      -1  0  0   0  0 -1   0 -1  0
                       0  1  0   0  0  1   1  0  0       0 -1  0   0  0 -1  -1  0  0
                       0  0  1   0  1  0   1  0  0       0  0 -1   0 -1  0  -1  0  0
           tolwfr      1.00000000E-20
            typat      1  2  3  3
           useylm           1
              wtk        0.50000    0.50000
           xangst      2.6239818994E+00  1.6630240330E+00  6.8608744282E+00
                       0.0000000000E+00  0.0000000000E+00  0.0000000000E+00
                       4.8168960524E+00  3.0528464778E+00  1.2594644405E+01
                       4.3106774644E-01  2.7320158813E-01  1.1271044511E+00
            xcart      4.9586071676E+00  3.1426599747E+00  1.2965173702E+01
                       0.0000000000E+00  0.0000000000E+00  0.0000000000E+00
                       9.1026143497E+00  5.7690437688E+00  2.3800428667E+01
                       8.1459998549E-01  5.1627618064E-01  2.1299187357E+00
             xred      5.0000000000E-01  5.0000000000E-01  5.0000000000E-01
                       0.0000000000E+00  0.0000000000E+00  0.0000000000E+00
                       9.1786000000E-01  9.1786000000E-01  9.1786000000E-01
                       8.2140000000E-02  8.2140000000E-02  8.2140000000E-02
            znucl       38.00000    6.00000    7.00000

 chkinp: Checking input parameters for consistency.

== DATASET  1 ==================================================================
-   mpi_nproc: 1, omp_nthreads: -1 (-1 if OMP is not activated)

--- !DatasetInfo
iteration_state: {dtset: 1, }
dimensions: {natom: 4, nkpt: 2, mband: 21, nsppol: 1, nspinor: 1, nspden: 1, mpw: 5931, }
cutoff_energies: {ecut:  42.0, pawecutdg:  -1.0, }
electrons: {nelect:   2.40000000E+01, charge:   0.00000000E+00, occopt:   1.00000000E+00, tsmear:   1.00000000E-02, }
meta: {optdriver: 1, rfelfd: 2, }
...

 Real(R)+Recip(G) space primitive vectors, cartesian coordinates (Bohr,Bohr^-1):
 R(1)=  6.9503584  0.0000000  7.7573806  G(1)=  0.1438775 -0.0679144  0.0000000
 R(2)=  2.9668560  6.2853199  7.7573806  G(2)=  0.0000000  0.1591009  0.0000000
 R(3)=  0.0000000  0.0000000 10.4155862  G(3)= -0.1071579 -0.0679144  0.0960100
 Unit cell volume ucvol=  4.5500724E+02 bohr^3
 Angles (23,13,12)=  4.18592965E+01  4.18592964E+01  4.18592964E+01 degrees

 getcut: wavevector=  0.0000  0.0000  0.0000  ngfft=  64  64  64
         ecut(hartree)=     42.000   => boxcut(ratio)=   2.10632

--- Pseudopotential description ------------------------------------------------
- pspini: atom type   1  psp file is /scratch/users/j/a/jabreu/pseudos/PBEsol/Sr.psp8
- pspatm: opening atomic psp file    /scratch/users/j/a/jabreu/pseudos/PBEsol/Sr.psp8
- Sr    ONCVPSP-3.3.0  r_core=   1.66721   1.31335   1.51547
- 38.00000  10.00000    180112                znucl, zion, pspdat
    8 -116133    2    4       600   0.00000   pspcod,pspxc,lmax,lloc,mmax,r2well
    5.99000000000000    6.00000000000000    0.00000000000000   rchrg,fchrg,qchrg
     nproj     2     2     2
     extension_switch     1
  pspatm : epsatm=   12.46450977
         --- l  ekb(1:nproj) -->
             0   10.029206    1.044171
             1    7.472414    1.670829
             2    4.142950    0.968140
 pspatm: atomic psp has been read  and splines computed

- pspini: atom type   2  psp file is /scratch/users/j/a/jabreu/pseudos/PBEsol/C.psp8
- pspatm: opening atomic psp file    /scratch/users/j/a/jabreu/pseudos/PBEsol/C.psp8
- C     ONCVPSP-3.3.0  r_core=   1.20440   1.26326
-  6.00000   4.00000    180112                znucl, zion, pspdat
    8 -116133    1    4       600   0.00000   pspcod,pspxc,lmax,lloc,mmax,r2well
    5.99000000000000    4.00000000000000    0.00000000000000   rchrg,fchrg,qchrg
     nproj     2     2
     extension_switch     1
  pspatm : epsatm=    4.34909529
         --- l  ekb(1:nproj) -->
             0    6.468939    0.390031
             1   -4.179695   -0.878453
 pspatm: atomic psp has been read  and splines computed

- pspini: atom type   3  psp file is /scratch/users/j/a/jabreu/pseudos/PBEsol/N.psp8
- pspatm: opening atomic psp file    /scratch/users/j/a/jabreu/pseudos/PBEsol/N.psp8
- N     ONCVPSP-3.3.0  r_core=   1.20551   1.35824
-  7.00000   5.00000    180112                znucl, zion, pspdat
    8 -116133    1    4       600   0.00000   pspcod,pspxc,lmax,lloc,mmax,r2well
    5.99000000000000    4.00000000000000    0.00000000000000   rchrg,fchrg,qchrg
     nproj     2     2
     extension_switch     1
  pspatm : epsatm=    5.26508895
         --- l  ekb(1:nproj) -->
             0    7.464189    0.625868
             1   -4.309714   -1.012941
 pspatm: atomic psp has been read  and splines computed

   6.56250791E+02                                ecore*ucvol(ha*bohr**3)

-inwffil : will read wavefunctions from disk file /scratch/users/j/a/jabreu/flow_simple_4atoms/flow/w152/t1/indata/in_WFK

 ==>  initialize data related to q vector <==

 The list of irreducible perturbations for this q vector is:
    1)    idir= 1    ipert=   5
    2)    idir= 2    ipert=   5
    3)    idir= 3    ipert=   5

 Perturbation wavevector (in red.coord.)   0.000000  0.000000  0.000000
 Perturbation : derivative vs k along direction   1

 dfpt_looppert : COMMENT -
  In a d/dk calculation, iscf is set to -3 automatically.
 The set of symmetries contains only one element for this perturbation.
 symkpt : not enough symmetry to change the number of k points.

[...]

 Initialisation of the first-order wave-functions :
  ireadwf=   0

--- !BeginCycle
iteration_state: {dtset: 1, }
solver: {iscf: 7, nstep: 100, nline: 4, wfoptalg: 0, }
tolerances: {tolwfr: 1.00E-20, }
...

     iter   2DEtotal(Ha)        deltaE(Ha) residm    vres2
-ETOT  1  -26.529142948689     -2.653E+01 4.312E-02 0.000E+00
 ETOT  2  -26.539437434694     -1.029E-02 1.208E-03 0.000E+00
 ETOT  3  -26.539466748811     -2.931E-05 3.216E-05 0.000E+00
 ETOT  4  -26.539466923613     -1.748E-07 2.746E-06 0.000E+00
 ETOT  5  -26.539466924973     -1.360E-09 7.882E-08 0.000E+00
 ETOT  6  -26.539466924985     -1.148E-11 7.608E-09 0.000E+00
 ETOT  7  -26.539466924985     -1.137E-13 2.147E-10 0.000E+00
 ETOT  8  -26.539466924985      1.421E-14 2.163E-11 0.000E+00
 ETOT  9  -26.539466924985     -1.066E-14 6.115E-13 0.000E+00
 ETOT 10  -26.539466924985      1.066E-14 6.358E-14 0.000E+00
 ETOT 11  -26.539466924985     -7.105E-15 1.799E-15 0.000E+00
 ETOT 12  -26.539466924985      7.105E-15 1.903E-16 0.000E+00
 ETOT 13  -26.539466924985     -1.066E-14 5.373E-18 0.000E+00
 ETOT 14  -26.539466924985      0.000E+00 5.740E-19 0.000E+00
 ETOT 15  -26.539466924985     -7.105E-15 1.616E-20 0.000E+00
 ETOT 16  -26.539466924985      7.105E-15 9.968E-21 0.000E+00

 At SCF step   16   max residual=  9.97E-21 < tolwfr=  1.00E-20 =>converged.

 ----iterations are completed or convergence reached----

 dfpt_looppert: DFPT cycle converged with prtwf=-1. Will skip output of the 1st-order WFK file.
 dfpt_looppert : ek2=    4.7967401683E+01
          f-sum rule ratio=    1.0966127077E+00
 prteigrs : about to open file /scratch/users/j/a/jabreu/flow_simple_4atoms/flow/w152/t1/tmpdata/tmp_1WF1_EIG
 Expectation of eigenvalue derivatives (hartree) for nkpt=   2  k points:
  (in case of degenerate eigenvalues, averaged derivative)
 kpt#   1, nband= 21, wtk=  0.50000, kpt=  0.5000  0.5000  0.5000 (reduced coord)
  -0.00000    0.00000    0.00000   -0.00000   -0.00000   -0.00000   -0.00000   -0.00000
  -0.00000   -0.00000   -0.00000   -0.00000    0.00000   -0.00000   -0.00000   -0.00000
   0.00000    0.00000   -0.00000    0.00001    0.00318
 prteigrs : prtvol=0 or 1, do not print more k-points.

 Eight components of 2nd-order total energy (hartree) are
 1,2,3: 0th-order hamiltonian combined with 1st-order wavefunctions
     kin0=   2.26028458E+01 eigvalue=   7.88825091E-01  local=  -9.71351583E+00
 4,5,6: 1st-order hamiltonian combined with 1st and 0th-order wfs
     kin1=  -5.26016622E+01  Hartree=   0.00000000E+00     xc=   0.00000000E+00
 7,8,9: eventually, occupation + non-local contributions
    edocc=   1.26819362E+01     enl0=   1.79375667E-01   enl1=  -4.77271608E-01
 1-9 gives the relaxation energy (to be shifted if some occ is /=2.0)
   erelax=  -2.65394669E+01
  No Ewald or frozen-wf contrib.: the relaxation energy is the total one
 2DEtotal=   -0.2653946692E+02 Ha. Also 2DEtotal=   -0.722175621936E+03 eV
    (  non-var. 2DEtotal :   -2.6539466925E+01 Ha)

 Perturbation wavevector (in red.coord.)   0.000000  0.000000  0.000000
 Perturbation : derivative vs k along direction   2
 The set of symmetries contains only one element for this perturbation.
 symkpt : not enough symmetry to change the number of k points.

[...]

 Perturbation wavevector (in red.coord.)   0.000000  0.000000  0.000000
 Perturbation : derivative vs k along direction   3
 The set of symmetries contains only one element for this perturbation.
 symkpt : not enough symmetry to change the number of k points.

-inwffil : will read wavefunctions from disk file /scratch/users/j/a/jabreu/flow_simple_4atoms/flow/w152/t1/indata/in_WFK

 Initialisation of the first-order wave-functions :
  ireadwf=   0

--- !BeginCycle
iteration_state: {dtset: 1, }
solver: {iscf: 7, nstep: 100, nline: 4, wfoptalg: 0, }
tolerances: {tolwfr: 1.00E-20, }
...

     iter   2DEtotal(Ha)        deltaE(Ha) residm    vres2
-ETOT  1  -26.528305062580     -2.653E+01 1.150E-01 0.000E+00
 ETOT  2  -26.539077629068     -1.077E-02 9.056E-03 0.000E+00
 ETOT  3  -26.539108391592     -3.076E-05 2.582E-04 0.000E+00
 ETOT  4  -26.539108573466     -1.819E-07 2.212E-05 0.000E+00
 ETOT  5  -26.539108574906     -1.440E-09 6.945E-07 0.000E+00
 ETOT  6  -26.539108574918     -1.232E-11 5.862E-08 0.000E+00
 ETOT  7  -26.539108574919     -1.350E-13 1.900E-09 0.000E+00
 ETOT  8  -26.539108574918      1.421E-14 1.705E-10 0.000E+00
 ETOT  9  -26.539108574918      0.000E+00 5.553E-12 0.000E+00
 ETOT 10  -26.539108574918      1.066E-14 5.243E-13 0.000E+00
 ETOT 11  -26.539108574918     -7.105E-15 1.693E-14 0.000E+00
 ETOT 12  -26.539108574918      0.000E+00 1.655E-15 0.000E+00
 ETOT 13  -26.539108574918      3.553E-15 5.289E-17 0.000E+00
 ETOT 14  -26.539108574918      3.553E-15 5.299E-18 0.000E+00
 ETOT 15  -26.539108574918      3.553E-15 1.678E-19 0.000E+00
 ETOT 16  -26.539108574918     -1.066E-14 1.712E-20 0.000E+00
 ETOT 17  -26.539108574918      0.000E+00 9.607E-21 0.000E+00

 At SCF step   17   max residual=  9.61E-21 < tolwfr=  1.00E-20 =>converged.

 ----iterations are completed or convergence reached----

 dfpt_looppert: DFPT cycle converged with prtwf=-1. Will skip output of the 1st-order WFK file.
 dfpt_looppert : ek2=    4.7967401683E+01
          f-sum rule ratio=    1.0966012583E+00
 prteigrs : about to open file /scratch/users/j/a/jabreu/flow_simple_4atoms/flow/w152/t1/tmpdata/tmp_1WF1_EIG
 Expectation of eigenvalue derivatives (hartree) for nkpt=   2  k points:
  (in case of degenerate eigenvalues, averaged derivative)
 kpt#   1, nband= 21, wtk=  0.50000, kpt=  0.5000  0.5000  0.5000 (reduced coord)
  -0.00000    0.00000    0.00000    0.00000    0.00000   -0.00000   -0.00000   -0.00000
   0.00000    0.00000   -0.00000   -0.00000    0.00000    0.00000    0.00000   -0.00000
   0.00000    0.00000    0.00000    0.00007   -0.00369
 prteigrs : prtvol=0 or 1, do not print more k-points.

 Eight components of 2nd-order total energy (hartree) are
 1,2,3: 0th-order hamiltonian combined with 1st-order wavefunctions
     kin0=   2.26734983E+01 eigvalue=   7.84448362E-01  local=  -9.75068101E+00
 4,5,6: 1st-order hamiltonian combined with 1st and 0th-order wfs
     kin1=  -5.26011130E+01  Hartree=   0.00000000E+00     xc=   0.00000000E+00
 7,8,9: eventually, occupation + non-local contributions
    edocc=   1.26791011E+01     enl0=   1.52741873E-01   enl1=  -4.77104108E-01
 1-9 gives the relaxation energy (to be shifted if some occ is /=2.0)
   erelax=  -2.65391086E+01
  No Ewald or frozen-wf contrib.: the relaxation energy is the total one
 2DEtotal=   -0.2653910857E+02 Ha. Also 2DEtotal=   -0.722165870734E+03 eV
    (  non-var. 2DEtotal :   -2.6539108575E+01 Ha)

 CALCULATION OF EFFECTIVE MASSES
 NOTE : Additional infos (eff. mass eigenvalues, eigenvectors and, if degenerate, average mass) are available in stdout.

 COMMENTS:
 - At k-point ( 0.500, 0.500, 0.500), bands    11 through    12
   are DEGENERATE (effective mass tensor is therefore not defined).
   See Section IIIB Eqs. (67)-(70) and Appendix E of PRB 93 205147 (2016).
 - Angular average effective mass for Frohlich model is to be averaged over degenerate bands. See later.
 - Associated theta integrals calculated with ntheta=   1000 points.

 K-point ( 0.500, 0.500, 0.500) | band =    11
 Transport equivalent effective mass tensor:
             -0.9403047009              0.0394521335              0.1629782183
              0.0394521335             -0.9776391126              0.1033353007
              0.1629782183              0.1033353007             -0.5765700335
 Transport equivalent effective mass tensor eigenvalues:
             -1.0027371436             -1.0025950254             -0.4891816780
 Angular average effective mass 1/(<1/m>)=  -0.6582034530
 Angular average effective mass for Frohlich model (<m**0.5>)**2=  -0.6884729702
 Effective masses along directions: (cart. coord. / red. coord. -> eff. mass)
    1:   1.000000  0.000000  0.000000 /   0.919713  0.392592  0.000000 ->  -0.8041646160
    2:   0.000000  1.000000  0.000000 /   0.000000  1.000000  0.000000 ->  -1.0175703356
    3:   0.000000  0.000000  1.000000 /   0.512803  0.512803  0.688524 ->  -0.4972327891
    4:   0.577350  0.577350  0.577350 /   0.593495  0.686379  0.420295 ->  -0.4859332983
    5:   0.000000  0.707107  0.707107 /   0.405563  0.734165  0.544536 ->  -0.5259094115
    6:   0.707107  0.000000  0.707107 /   0.701314  0.511368  0.496650 ->  -0.5063425582
    7:   0.707107  0.707107  0.000000 /   0.600621  0.799534  0.000000 ->  -0.6707888609

 K-point ( 0.500, 0.500, 0.500) | band =    12
 Transport equivalent effective mass tensor:
             -3.9543176406              0.2453980314              1.0130802229
              0.2453980314             -4.1859785957              0.6419180385
              1.0130802229              0.6419180385             -1.6930575204
 Transport equivalent effective mass tensor eigenvalues:
             -4.3418373939             -4.3414996450             -1.1500167178
 Angular average effective mass 1/(<1/m>)=  -1.2573061014
 Angular average effective mass for Frohlich model (<m**0.5>)**2=  -1.5651520500
 Effective masses along directions: (cart. coord. / red. coord. -> eff. mass)
    1:   1.000000  0.000000  0.000000 /   0.919713  0.392592  0.000000 ->  -1.8777861612
    2:   0.000000  1.000000  0.000000 /   0.000000  1.000000  0.000000 ->  -1.6428474561
    3:   0.000000  0.000000  1.000000 /   0.512803  0.512803  0.688524 ->  -0.6388617813
    4:   0.577350  0.577350  0.577350 /   0.593495  0.686379  0.420295 ->  -0.7902084495
    5:   0.000000  0.707107  0.707107 /   0.405563  0.734165  0.544536 ->  -0.8377856559
    6:   0.707107  0.000000  0.707107 /   0.701314  0.511368  0.496650 ->  -0.6632034809
    7:   0.707107  0.707107  0.000000 /   0.600621  0.799534  0.000000 ->  -2.5747921111

 Angular average effective mass for Frohlich model, averaged over degenerate bands.
 Value of     (<<m**0.5>>)**2 =     1.082435E+00
 Absolute Value of <<m**0.5>> =     1.040402E+00

 K-point ( 0.000, 0.000, 0.000) | band =    13
 Effective mass tensor:
              0.5514721539              0.0161877482              0.0667832246
              0.0161877482              0.5361899669              0.0423257903
              0.0667832246              0.0423257903              0.7005473140
 Effective mass tensor eigenvalues:
              0.5259305157              0.5259305157              0.7363484034
 Angular average effective mass 1/(<1/m>)=   0.5813011128
 Angular average effective mass for Frohlich model (<m**0.5>)**2=   0.5854293157
 Effective masses along directions: (cart. coord. / red. coord. -> eff. mass)
    1:   1.000000  0.000000  0.000000 /   0.919713  0.392592  0.000000 ->   0.5448289388
    2:   0.000000  1.000000  0.000000 /   0.000000  1.000000  0.000000 ->   0.5333617794
    3:   0.000000  0.000000  1.000000 /   0.512803  0.512803  0.688524 ->   0.6894183842
    4:   0.577350  0.577350  0.577350 /   0.593495  0.686379  0.420295 ->   0.6646349109
    5:   0.000000  0.707107  0.707107 /   0.405563  0.734165  0.544536 ->   0.6437468103
    6:   0.707107  0.000000  0.707107 /   0.701314  0.511368  0.496650 ->   0.6800309794
    7:   0.707107  0.707107  0.000000 /   0.600621  0.799534  0.000000 ->   0.5514596227

 END OF EFFECTIVE MASSES SECTION

 ---- first-order wavefunction calculations are completed ----

 Total localisation tensor (bohr^2) in cartesian coordinates
  WARNING : still subject to testing - especially symmetries.
      direction              matrix element
   alpha     beta       real part   imaginary part
     1        1       1.2876441747    0.0000000000
     1        2       0.4204393171    0.0000000000
     1        3       1.7345609775    0.0000000000
     2        1       0.4204393171    0.0000000000
     2        2       0.8907057320    0.0000000000
     2        3       1.0993145036    0.0000000000
     3        1       1.7345609775    0.0000000000
     3        2       1.0993145036    0.0000000000
     3        3       5.1595113458    0.0000000000

 respfn : d/dk was computed, but no 2DTE, so no DDB output.

== END DATASET(S) ==============================================================

 -outvars: echo values of variables after computation  --------
            acell      1.0000000000E+00  1.0000000000E+00  1.0000000000E+00 Bohr
              amu      8.76200000E+01  1.20110000E+01  1.40067400E+01
             ecut      4.20000000E+01 Hartree
           etotal     -2.6539108575E+01
            fcart      0.0000000000E+00  0.0000000000E+00  0.0000000000E+00
                       0.0000000000E+00  0.0000000000E+00  0.0000000000E+00
                       0.0000000000E+00  0.0000000000E+00  0.0000000000E+00
                       0.0000000000E+00  0.0000000000E+00  0.0000000000E+00
-          fftalg         512
           irdden           1
           irdwfk           1
           istwfk        1    1
              ixc     -116133
              kpt      5.00000000E-01  5.00000000E-01  5.00000000E-01
                       0.00000000E+00  0.00000000E+00  0.00000000E+00
           kptopt           0
P           mkmem           2
P          mkqmem           2
P          mk1mem           2
            natom           4
            nband          21
           nbdbuf           4
            ngfft          64      64      64
             nkpt           2
            nstep         100
             nsym          12
           ntypat           3
              occ      2.000000  2.000000  2.000000  2.000000  2.000000  2.000000
                       2.000000  2.000000  2.000000  2.000000  2.000000  2.000000
                       0.000000  0.000000  0.000000  0.000000  0.000000  0.000000
                       0.000000  0.000000  0.000000
        optdriver           1
            prtwf          -1
            rfdir           1       1       1
           rfelfd           2
            rprim      6.9503583555E+00  0.0000000000E+00  7.7573806159E+00
                       2.9668559797E+00  6.2853199494E+00  7.7573806159E+00
                       0.0000000000E+00  0.0000000000E+00  1.0415586171E+01
          spgroup         166
           strten      0.0000000000E+00  0.0000000000E+00  0.0000000000E+00
                       0.0000000000E+00  0.0000000000E+00  0.0000000000E+00
           symrel      1  0  0   0  1  0   0  0  1      -1  0  0   0 -1  0   0  0 -1
                       0  1  0   1  0  0   0  0  1       0 -1  0  -1  0  0   0  0 -1
                       0  0  1   1  0  0   0  1  0       0  0 -1  -1  0  0   0 -1  0
                       1  0  0   0  0  1   0  1  0      -1  0  0   0  0 -1   0 -1  0
                       0  1  0   0  0  1   1  0  0       0 -1  0   0  0 -1  -1  0  0
                       0  0  1   0  1  0   1  0  0       0  0 -1   0 -1  0  -1  0  0
           tolwfr      1.00000000E-20
            typat      1  2  3  3
           useylm           1
              wtk        0.50000    0.50000
           xangst      2.6239818994E+00  1.6630240330E+00  6.8608744282E+00
                       0.0000000000E+00  0.0000000000E+00  0.0000000000E+00
                       4.8168960524E+00  3.0528464778E+00  1.2594644405E+01
                       4.3106774644E-01  2.7320158813E-01  1.1271044511E+00
            xcart      4.9586071676E+00  3.1426599747E+00  1.2965173702E+01
                       0.0000000000E+00  0.0000000000E+00  0.0000000000E+00
                       9.1026143497E+00  5.7690437688E+00  2.3800428667E+01
                       8.1459998549E-01  5.1627618064E-01  2.1299187357E+00
             xred      5.0000000000E-01  5.0000000000E-01  5.0000000000E-01
                       0.0000000000E+00  0.0000000000E+00  0.0000000000E+00
                       9.1786000000E-01  9.1786000000E-01  9.1786000000E-01
                       8.2140000000E-02  8.2140000000E-02  8.2140000000E-02
            znucl       38.00000    6.00000    7.00000

- Timing analysis has been suppressed with timopt=0

 Suggested references for the acknowledgment of ABINIT usage.

 Calculation completed.
.Delivered  14 WARNINGs and   9 COMMENTs to log file.