.Version 9.5.1 of ABINIT

 ABINIT is a project of the Universite Catholique de Louvain,
 Corning Inc. and other collaborators, see ~abinit/doc/developers/contributors.txt .
 acknowledgments of the ABINIT effort.

.Starting date : Tue 27 Apr 2021.
- ( at 18h42 )

- input  file    -> /scratch/users/j/a/jabreu/flow_simple_4atoms/flow/w237/t1/run.abi
- output file    -> /scratch/users/j/a/jabreu/flow_simple_4atoms/flow/w237/t1/run.abo
- root for input  files -> /scratch/users/j/a/jabreu/flow_simple_4atoms/flow/w237/t1/indata/in
- root for output files -> /scratch/users/j/a/jabreu/flow_simple_4atoms/flow/w237/t1/outdata/out

 Symmetries : space group Fm -3 m (#225); Bravais cF (face-center cubic)
     intxc =       0      iscf =       7    lmnmax =      18     lnmax =       6
     mgfft =      72  mpssoang =       3    mqgrid =    3001     natom =       4
  nloc_mem =       1    nspden =       1   nspinor =       1    nsppol =       1
      nsym =      48    n1xccc =    2501    ntypat =       2    occopt =       1
   xclevel =       2
-    mband =          30        mffmem =           1         mkmem =           1
-   mkqmem =           1        mk1mem =           1           mpw =       12939
      nfft =      373248          nkpt =           1
  Rough estimation (10% accuracy) of disk space for files :

------------- Echo of variables that govern the present computation ------------
-
- outvars: echo of selected default values
-   iomode0 =  0 , fftalg0 =512 , wfoptalg0 =  0
-
- outvars: echo of global parameters not present in the input file
-  max_nthreads =    0
-
 -outvars: echo values of preprocessed input variables --------
            acell      1.0000000000E+00  1.0000000000E+00  1.0000000000E+00 Bohr
              amu      3.90983000E+01  1.21753000E+02
             ecut      4.20000000E+01 Hartree
-          fftalg         512
           irdden           1
           irdwfk           1
           istwfk        1
              ixc     -116133
           kptopt           0
P           mkmem           1
P          mkqmem           1
P          mk1mem           1
            natom           4
            nband          30
           nbdbuf           4
            ngfft          72      72      72
             nkpt           1
            nstep         100
             nsym          48
           ntypat           2
              occ      2.000000  2.000000  2.000000  2.000000  2.000000  2.000000
                       2.000000  2.000000  2.000000  2.000000  2.000000  2.000000
                       2.000000  2.000000  2.000000  2.000000  2.000000  2.000000
                       2.000000  2.000000  2.000000  0.000000  0.000000  0.000000
                       0.000000  0.000000  0.000000  0.000000  0.000000  0.000000
        optdriver           1
            prtwf          -1
            rfdir           1       1       1
           rfelfd           2
            rprim      9.7081932441E+00  0.0000000000E+00  5.6050279829E+00
                       3.2360644147E+00  9.1529723680E+00  5.6050279829E+00
                       0.0000000000E+00  0.0000000000E+00  1.1210055966E+01
          spgroup         225
           symrel      1  0  0   0  1  0   0  0  1      -1  0  0   0 -1  0   0  0 -1
                       0 -1  1   0 -1  0   1 -1  0       0  1 -1   0  1  0  -1  1  0
                      -1  0  0  -1  0  1  -1  1  0       1  0  0   1  0 -1   1 -1  0
                       0  1 -1   1  0 -1   0  0 -1       0 -1  1  -1  0  1   0  0  1
                      -1  0  0  -1  1  0  -1  0  1       1  0  0   1 -1  0   1  0 -1
                       0 -1  1   1 -1  0   0 -1  0       0  1 -1  -1  1  0   0  1  0
                       1  0  0   0  0  1   0  1  0      -1  0  0   0  0 -1   0 -1  0
                       0  1 -1   0  0 -1   1  0 -1       0 -1  1   0  0  1  -1  0  1
                      -1  0  1  -1  1  0  -1  0  0       1  0 -1   1 -1  0   1  0  0
                       0 -1  0   1 -1  0   0 -1  1       0  1  0  -1  1  0   0  1 -1
                       1  0 -1   0  0 -1   0  1 -1      -1  0  1   0  0  1   0 -1  1
                       0  1  0   0  0  1   1  0  0       0 -1  0   0  0 -1  -1  0  0
                       1  0 -1   0  1 -1   0  0 -1      -1  0  1   0 -1  1   0  0  1
                       0 -1  0   0 -1  1   1 -1  0       0  1  0   0  1 -1  -1  1  0
                      -1  0  1  -1  0  0  -1  1  0       1  0 -1   1  0  0   1 -1  0
                       0  1  0   1  0  0   0  0  1       0 -1  0  -1  0  0   0  0 -1
                       0  0 -1   0  1 -1   1  0 -1       0  0  1   0 -1  1  -1  0  1
                       1 -1  0   0 -1  1   0 -1  0      -1  1  0   0  1 -1   0  1  0
                       0  0  1   1  0  0   0  1  0       0  0 -1  -1  0  0   0 -1  0
                      -1  1  0  -1  0  0  -1  0  1       1 -1  0   1  0  0   1  0 -1
                       0  0  1   0  1  0   1  0  0       0  0 -1   0 -1  0  -1  0  0
                       1 -1  0   0 -1  0   0 -1  1      -1  1  0   0  1  0   0  1 -1
                       0  0 -1   1  0 -1   0  1 -1       0  0  1  -1  0  1   0 -1  1
                      -1  1  0  -1  0  1  -1  0  0       1 -1  0   1  0 -1   1  0  0
           tolwfr      1.00000000E-20
            typat      1  1  1  2
           useylm           1
           xangst      3.4249030676E+00  2.4217721840E+00  5.9321061241E+00
                       5.1373546014E+00  3.6326582760E+00  8.8981591861E+00
                       1.7124515338E+00  1.2108860920E+00  2.9660530620E+00
                       0.0000000000E+00  0.0000000000E+00  0.0000000000E+00
            xcart      6.4721288294E+00  4.5764861840E+00  1.1210055966E+01
                       9.7081932441E+00  6.8647292760E+00  1.6815083949E+01
                       3.2360644147E+00  2.2882430920E+00  5.6050279829E+00
                       0.0000000000E+00  0.0000000000E+00  0.0000000000E+00
             xred      5.0000000000E-01  5.0000000000E-01  5.0000000000E-01
                       7.5000000000E-01  7.5000000000E-01  7.5000000000E-01
                       2.5000000000E-01  2.5000000000E-01  2.5000000000E-01
                       0.0000000000E+00  0.0000000000E+00  0.0000000000E+00
            znucl       19.00000   51.00000

 chkinp: Checking input parameters for consistency.

== DATASET  1 ==================================================================
-   mpi_nproc: 1, omp_nthreads: -1 (-1 if OMP is not activated)

--- !DatasetInfo
iteration_state: {dtset: 1, }
dimensions: {natom: 4, nkpt: 1, mband: 30, nsppol: 1, nspinor: 1, nspden: 1, mpw: 12939, }
cutoff_energies: {ecut:  42.0, pawecutdg:  -1.0, }
electrons: {nelect:   4.20000000E+01, charge:   0.00000000E+00, occopt:   1.00000000E+00, tsmear:   1.00000000E-02, }
meta: {optdriver: 1, rfelfd: 2, }
...

 Real(R)+Recip(G) space primitive vectors, cartesian coordinates (Bohr,Bohr^-1):
 R(1)=  9.7081932  0.0000000  5.6050280  G(1)=  0.1030058 -0.0364180  0.0000000
 R(2)=  3.2360644  9.1529724  5.6050280  G(2)=  0.0000000  0.1092541  0.0000000
 R(3)=  0.0000000  0.0000000 11.2100560  G(3)= -0.0515029 -0.0364180  0.0892056
 Unit cell volume ucvol=  9.9611240E+02 bohr^3
 Angles (23,13,12)=  6.00000000E+01  6.00000000E+01  6.00000000E+01 degrees

 getcut: wavevector=  0.0000  0.0000  0.0000  ngfft=  72  72  72
         ecut(hartree)=     42.000   => boxcut(ratio)=   2.20158

 getcut : COMMENT -
  Note that boxcut > 2.2 ; recall that boxcut=Gcut(box)/Gcut(sphere) = 2
  is sufficient for exact treatment of convolution.
  Such a large boxcut is a waste : you could raise ecut
  e.g. ecut=   50.893133 Hartrees makes boxcut=2

--- Pseudopotential description ------------------------------------------------
- pspini: atom type   1  psp file is /scratch/users/j/a/jabreu/pseudos/PBEsol/K.psp8
- pspatm: opening atomic psp file    /scratch/users/j/a/jabreu/pseudos/PBEsol/K.psp8
- K     ONCVPSP-3.3.0  r_core=   1.36296   1.46408   1.61068
- 19.00000   9.00000    180112                znucl, zion, pspdat
    8 -116133    2    4       400   0.00000   pspcod,pspxc,lmax,lloc,mmax,r2well
    3.99000000000000    5.00000000000000    0.00000000000000   rchrg,fchrg,qchrg
     nproj     2     2     2
     extension_switch     1
  pspatm : epsatm=    8.32487830
         --- l  ekb(1:nproj) -->
             0   10.921326    0.816676
             1    4.431000    0.560368
             2   -3.384038   -1.043186
 pspatm: atomic psp has been read  and splines computed

- pspini: atom type   2  psp file is /scratch/users/j/a/jabreu/pseudos/PBEsol/Sb.psp8
- pspatm: opening atomic psp file    /scratch/users/j/a/jabreu/pseudos/PBEsol/Sb.psp8
- Sb    ONCVPSP-3.3.0  r_core=   1.81962   2.12485   1.81962
- 51.00000  15.00000    180112                znucl, zion, pspdat
    8 -116133    2    4       600   0.00000   pspcod,pspxc,lmax,lloc,mmax,r2well
    5.99000000000000    5.00000000000000    0.00000000000000   rchrg,fchrg,qchrg
     nproj     2     2     2
     extension_switch     1
  pspatm : epsatm=   26.35641246
         --- l  ekb(1:nproj) -->
             0    9.727814    1.485032
             1    5.505335    0.704623
             2   -4.710637   -1.436443
 pspatm: atomic psp has been read  and splines computed

   2.15590399E+03                                ecore*ucvol(ha*bohr**3)

-inwffil : will read wavefunctions from disk file /scratch/users/j/a/jabreu/flow_simple_4atoms/flow/w237/t1/indata/in_WFK

 ==>  initialize data related to q vector <==

 The list of irreducible perturbations for this q vector is:
    1)    idir= 1    ipert=   5
    2)    idir= 2    ipert=   5
    3)    idir= 3    ipert=   5

 Perturbation wavevector (in red.coord.)   0.000000  0.000000  0.000000
 Perturbation : derivative vs k along direction   1

 dfpt_looppert : COMMENT -
  In a d/dk calculation, iscf is set to -3 automatically.
 The set of symmetries contains only one element for this perturbation.
 symkpt : not enough symmetry to change the number of k points.

[...]

 Initialisation of the first-order wave-functions :
  ireadwf=   0

--- !BeginCycle
iteration_state: {dtset: 1, }
solver: {iscf: 7, nstep: 100, nline: 4, wfoptalg: 0, }
tolerances: {tolwfr: 1.00E-20, }
...

     iter   2DEtotal(Ha)        deltaE(Ha) residm    vres2
-ETOT  1  -33.367186857761     -3.337E+01 7.006E-02 0.000E+00
 ETOT  2  -33.445179802957     -7.799E-02 1.378E-03 0.000E+00
 ETOT  3  -33.447257642702     -2.078E-03 7.507E-05 0.000E+00
 ETOT  4  -33.447374973811     -1.173E-04 8.125E-06 0.000E+00
 ETOT  5  -33.447382898295     -7.924E-06 7.705E-07 0.000E+00
 ETOT  6  -33.447383463774     -5.655E-07 7.203E-08 0.000E+00
 ETOT  7  -33.447383505005     -4.123E-08 1.028E-08 0.000E+00
 ETOT  8  -33.447383508059     -3.054E-09 8.913E-10 0.000E+00
 ETOT  9  -33.447383508288     -2.286E-10 1.368E-10 0.000E+00
 ETOT 10  -33.447383508305     -1.734E-11 1.139E-11 0.000E+00
 ETOT 11  -33.447383508307     -1.172E-12 1.825E-12 0.000E+00
 ETOT 12  -33.447383508307     -1.066E-13 1.470E-13 0.000E+00
 ETOT 13  -33.447383508307      2.132E-14 2.438E-14 0.000E+00
 ETOT 14  -33.447383508307      2.132E-14 1.912E-15 0.000E+00
 ETOT 15  -33.447383508307     -1.421E-14 3.263E-16 0.000E+00
[...]
 ETOT 18  -33.447383508307      4.263E-14 3.302E-19 0.000E+00
 ETOT 19  -33.447383508307      2.842E-14 5.883E-20 0.000E+00
 ETOT 20  -33.447383508307     -1.421E-14 9.843E-21 0.000E+00

 At SCF step   20   max residual=  9.84E-21 < tolwfr=  1.00E-20 =>converged.

 ----iterations are completed or convergence reached----

 dfpt_looppert: DFPT cycle converged with prtwf=-1. Will skip output of the 1st-order WFK file.
 dfpt_looppert : ek2=    3.9583548130E+01
          f-sum rule ratio=    1.3165470548E+00
 prteigrs : about to open file /scratch/users/j/a/jabreu/flow_simple_4atoms/flow/w237/t1/tmpdata/tmp_1WF1_EIG
 Expectation of eigenvalue derivatives (hartree) for nkpt=   1  k points:
  (in case of degenerate eigenvalues, averaged derivative)
 kpt#   1, nband= 30, wtk=  1.00000, kpt=  0.0000  0.0000  0.0000 (reduced coord)
   0.00000    0.00000    0.00000   -0.00000   -0.00000   -0.00000    0.00000    0.00000
   0.00000    0.00000    0.00000   -0.00000   -0.00000   -0.00000   -0.00000   -0.00000
  -0.00000   -0.00000   -0.00000   -0.00000   -0.00000    0.00000   -0.00000   -0.00000
  -0.00000   -0.00000   -0.00000    0.00000    0.00000    0.00000

 Eight components of 2nd-order total energy (hartree) are
 1,2,3: 0th-order hamiltonian combined with 1st-order wavefunctions
     kin0=   3.48509465E+01 eigvalue=   5.32703107E+00  local=  -2.20843039E+01
 4,5,6: 1st-order hamiltonian combined with 1st and 0th-order wfs
     kin1=  -5.21136037E+01  Hartree=   0.00000000E+00     xc=   0.00000000E+00
 7,8,9: eventually, occupation + non-local contributions
    edocc=   1.16137863E+01     enl0=   3.73992351E+00   enl1=  -1.47811633E+01
 1-9 gives the relaxation energy (to be shifted if some occ is /=2.0)
   erelax=  -3.34473835E+01
  No Ewald or frozen-wf contrib.: the relaxation energy is the total one
 2DEtotal=   -0.3344738351E+02 Ha. Also 2DEtotal=   -0.910149591757E+03 eV
    (  non-var. 2DEtotal :   -3.3447383508E+01 Ha)

 Perturbation wavevector (in red.coord.)   0.000000  0.000000  0.000000
 Perturbation : derivative vs k along direction   2
 The set of symmetries contains only one element for this perturbation.
 symkpt : not enough symmetry to change the number of k points.

[...]

 Perturbation wavevector (in red.coord.)   0.000000  0.000000  0.000000
 Perturbation : derivative vs k along direction   3
 The set of symmetries contains only one element for this perturbation.
 symkpt : not enough symmetry to change the number of k points.

-inwffil : will read wavefunctions from disk file /scratch/users/j/a/jabreu/flow_simple_4atoms/flow/w237/t1/indata/in_WFK

 Initialisation of the first-order wave-functions :
  ireadwf=   0

--- !BeginCycle
iteration_state: {dtset: 1, }
solver: {iscf: 7, nstep: 100, nline: 4, wfoptalg: 0, }
tolerances: {tolwfr: 1.00E-20, }
...

     iter   2DEtotal(Ha)        deltaE(Ha) residm    vres2
-ETOT  1  -33.369196764314     -3.337E+01 7.005E-02 0.000E+00
 ETOT  2  -33.445718133372     -7.652E-02 1.382E-03 0.000E+00
 ETOT  3  -33.447311105222     -1.593E-03 7.391E-05 0.000E+00
 ETOT  4  -33.447379148824     -6.804E-05 6.921E-06 0.000E+00
 ETOT  5  -33.447383198519     -4.050E-06 6.911E-07 0.000E+00
 ETOT  6  -33.447383463073     -2.646E-07 6.336E-08 0.000E+00
 ETOT  7  -33.447383481134     -1.806E-08 8.607E-09 0.000E+00
 ETOT  8  -33.447383482391     -1.257E-09 7.384E-10 0.000E+00
 ETOT  9  -33.447383482480     -8.925E-11 1.065E-10 0.000E+00
 ETOT 10  -33.447383482487     -6.352E-12 8.879E-12 0.000E+00
 ETOT 11  -33.447383482487     -4.903E-13 1.321E-12 0.000E+00
 ETOT 12  -33.447383482487     -1.350E-13 1.073E-13 0.000E+00
 ETOT 13  -33.447383482487      5.684E-14 1.640E-14 0.000E+00
 ETOT 14  -33.447383482487     -7.105E-15 1.299E-15 0.000E+00
 ETOT 15  -33.447383482487      2.132E-14 2.038E-16 0.000E+00
 ETOT 16  -33.447383482487     -2.132E-14 1.579E-17 0.000E+00
 ETOT 17  -33.447383482487      4.974E-14 2.533E-18 0.000E+00
 ETOT 18  -33.447383482487      7.105E-15 1.926E-19 0.000E+00
 ETOT 19  -33.447383482487      7.105E-15 3.151E-20 0.000E+00
 ETOT 20  -33.447383482487     -1.421E-14 9.763E-21 0.000E+00

 At SCF step   20   max residual=  9.76E-21 < tolwfr=  1.00E-20 =>converged.

 ----iterations are completed or convergence reached----

 dfpt_looppert: DFPT cycle converged with prtwf=-1. Will skip output of the 1st-order WFK file.
 dfpt_looppert : ek2=    3.9583548130E+01
          f-sum rule ratio=    1.3165470531E+00
 prteigrs : about to open file /scratch/users/j/a/jabreu/flow_simple_4atoms/flow/w237/t1/tmpdata/tmp_1WF1_EIG
 Expectation of eigenvalue derivatives (hartree) for nkpt=   1  k points:
  (in case of degenerate eigenvalues, averaged derivative)
 kpt#   1, nband= 30, wtk=  1.00000, kpt=  0.0000  0.0000  0.0000 (reduced coord)
   0.00000   -0.00000    0.00000   -0.00000   -0.00000   -0.00000    0.00000    0.00000
   0.00000    0.00000    0.00000   -0.00000   -0.00000   -0.00000    0.00000    0.00000
   0.00000    0.00000   -0.00000   -0.00000   -0.00000    0.00000    0.00000    0.00000
   0.00000    0.00000    0.00000    0.00000    0.00000    0.00000

 Eight components of 2nd-order total energy (hartree) are
 1,2,3: 0th-order hamiltonian combined with 1st-order wavefunctions
     kin0=   3.48509466E+01 eigvalue=   5.32703109E+00  local=  -2.20843039E+01
 4,5,6: 1st-order hamiltonian combined with 1st and 0th-order wfs
     kin1=  -5.21136036E+01  Hartree=   0.00000000E+00     xc=   0.00000000E+00
 7,8,9: eventually, occupation + non-local contributions
    edocc=   1.16137862E+01     enl0=   3.73992352E+00   enl1=  -1.47811633E+01
 1-9 gives the relaxation energy (to be shifted if some occ is /=2.0)
   erelax=  -3.34473835E+01
  No Ewald or frozen-wf contrib.: the relaxation energy is the total one
 2DEtotal=   -0.3344738348E+02 Ha. Also 2DEtotal=   -0.910149591055E+03 eV
    (  non-var. 2DEtotal :   -3.3447383482E+01 Ha)

 CALCULATION OF EFFECTIVE MASSES
 NOTE : Additional infos (eff. mass eigenvalues, eigenvectors and, if degenerate, average mass) are available in stdout.

 COMMENTS:
 - At k-point ( 0.000, 0.000, 0.000), bands    19 through    21
   are DEGENERATE (effective mass tensor is therefore not defined).
   See Section IIIB Eqs. (67)-(70) and Appendix E of PRB 93 205147 (2016).
 - Angular average effective mass for Frohlich model is to be averaged over degenerate bands. See later.
 - Associated theta integrals calculated with ntheta=   1000 points.

 K-point ( 0.000, 0.000, 0.000) | band =    19
 Transport equivalent effective mass tensor:
             -0.1403159048             -0.0000000000              0.0000000000
             -0.0000000000             -0.1403159048              0.0000000000
              0.0000000000              0.0000000000             -0.1403159048
 Transport equivalent effective mass tensor eigenvalues:
             -0.1403159048             -0.1403159048             -0.1403159048
 Angular average effective mass 1/(<1/m>)=  -0.1401782834
 Angular average effective mass for Frohlich model (<m**0.5>)**2=  -0.1401878993
 Effective masses along directions: (cart. coord. / red. coord. -> eff. mass)
    1:   1.000000  0.000000  0.000000 /   0.948683  0.316228  0.000000 ->  -0.1409416281
    2:   0.000000  1.000000  0.000000 /   0.000000  1.000000  0.000000 ->  -0.1422706393
    3:   0.000000  0.000000  1.000000 /   0.408248  0.408248  0.816497 ->  -0.1409659682
    4:   0.577350  0.577350  0.577350 /   0.585539  0.688047  0.428644 ->  -0.1409912900
    5:   0.000000  0.707107  0.707107 /   0.289489  0.762222  0.578977 ->  -0.1393413034
    6:   0.707107  0.000000  0.707107 /   0.731423  0.422287  0.535439 ->  -0.1409537949
    7:   0.707107  0.707107  0.000000 /   0.616798  0.787122  0.000000 ->  -0.1375938574

[...]

 K-point ( 0.000, 0.000, 0.000) | band =    21
 Transport equivalent effective mass tensor:
            -44.8157280878              0.0000210866             -0.0000000140
              0.0000210866            -44.8157255859              0.0000000097
             -0.0000000140              0.0000000097            -44.8157316048
 Transport equivalent effective mass tensor eigenvalues:
            -44.8157479605            -44.8157316048            -44.8157057131
 Angular average effective mass 1/(<1/m>)= -11.5447499096
 Angular average effective mass for Frohlich model (<m**0.5>)**2= -12.5499066450
 Effective masses along directions: (cart. coord. / red. coord. -> eff. mass)
    1:   1.000000  0.000000  0.000000 /   0.948683  0.316228  0.000000 ->  -8.2485478140
    2:   0.000000  1.000000  0.000000 /   0.000000  1.000000  0.000000 ->  -5.3680586965
    3:   0.000000  0.000000  1.000000 /   0.408248  0.408248  0.816497 -> -17.7999800796
    4:   0.577350  0.577350  0.577350 /   0.585539  0.688047  0.428644 ->  -9.4911640453
    5:   0.000000  0.707107  0.707107 /   0.289489  0.762222  0.578977 -> -16.3954502716
    6:   0.707107  0.000000  0.707107 /   0.731423  0.422287  0.535439 -> -12.3669284942
    7:   0.707107  0.707107  0.000000 /   0.616798  0.787122  0.000000 -> -16.1915638956

 Angular average effective mass for Frohlich model, averaged over degenerate bands.
 Value of     (<<m**0.5>>)**2 =     4.511095E+00
 Absolute Value of <<m**0.5>> =     2.123934E+00

 K-point ( 0.000, 0.000, 0.000) | band =    22
 Effective mass tensor:
              0.1166805834              0.0000000000              0.0000000000
              0.0000000000              0.1166805833              0.0000000000
              0.0000000000              0.0000000000              0.1166805834
 Effective mass tensor eigenvalues:
              0.1166805833              0.1166805834              0.1166805834
 Angular average effective mass 1/(<1/m>)=   0.1166805834
 Angular average effective mass for Frohlich model (<m**0.5>)**2=   0.1166805834
 Effective masses along directions: (cart. coord. / red. coord. -> eff. mass)
    1:   1.000000  0.000000  0.000000 /   0.948683  0.316228  0.000000 ->   0.1166805834
    2:   0.000000  1.000000  0.000000 /   0.000000  1.000000  0.000000 ->   0.1166805833
    3:   0.000000  0.000000  1.000000 /   0.408248  0.408248  0.816497 ->   0.1166805834
    4:   0.577350  0.577350  0.577350 /   0.585539  0.688047  0.428644 ->   0.1166805834
    5:   0.000000  0.707107  0.707107 /   0.289489  0.762222  0.578977 ->   0.1166805834
    6:   0.707107  0.000000  0.707107 /   0.731423  0.422287  0.535439 ->   0.1166805834
    7:   0.707107  0.707107  0.000000 /   0.616798  0.787122  0.000000 ->   0.1166805834

 END OF EFFECTIVE MASSES SECTION

 ---- first-order wavefunction calculations are completed ----

 Total localisation tensor (bohr^2) in cartesian coordinates
  WARNING : still subject to testing - especially symmetries.
      direction              matrix element
   alpha     beta       real part   imaginary part
     1        1       8.5079366396    0.0000000000
     1        2       2.4064078767    0.0000000000
     1        3       5.8944714111    0.0000000000
     2        1       2.4064078767    0.0000000000
     2        2       6.8063493118    0.0000000000
     2        3       4.1680207063    0.0000000000
     3        1       5.8944714111    0.0000000000
     3        2       4.1680207063    0.0000000000
     3        3      15.3142859477    0.0000000000

 respfn : d/dk was computed, but no 2DTE, so no DDB output.

== END DATASET(S) ==============================================================

 -outvars: echo values of variables after computation  --------
            acell      1.0000000000E+00  1.0000000000E+00  1.0000000000E+00 Bohr
              amu      3.90983000E+01  1.21753000E+02
             ecut      4.20000000E+01 Hartree
           etotal     -3.3447383482E+01
            fcart      0.0000000000E+00  0.0000000000E+00  0.0000000000E+00
                       0.0000000000E+00  0.0000000000E+00  0.0000000000E+00
                       0.0000000000E+00  0.0000000000E+00  0.0000000000E+00
                       0.0000000000E+00  0.0000000000E+00  0.0000000000E+00
-          fftalg         512
           irdden           1
           irdwfk           1
           istwfk        1
              ixc     -116133
           kptopt           0
P           mkmem           1
P          mkqmem           1
P          mk1mem           1
            natom           4
            nband          30
           nbdbuf           4
            ngfft          72      72      72
             nkpt           1
            nstep         100
             nsym          48
           ntypat           2
              occ      2.000000  2.000000  2.000000  2.000000  2.000000  2.000000
                       2.000000  2.000000  2.000000  2.000000  2.000000  2.000000
                       2.000000  2.000000  2.000000  2.000000  2.000000  2.000000
                       2.000000  2.000000  2.000000  0.000000  0.000000  0.000000
                       0.000000  0.000000  0.000000  0.000000  0.000000  0.000000
        optdriver           1
            prtwf          -1
            rfdir           1       1       1
           rfelfd           2
            rprim      9.7081932441E+00  0.0000000000E+00  5.6050279829E+00
                       3.2360644147E+00  9.1529723680E+00  5.6050279829E+00
                       0.0000000000E+00  0.0000000000E+00  1.1210055966E+01
          spgroup         225
           strten      0.0000000000E+00  0.0000000000E+00  0.0000000000E+00
                       0.0000000000E+00  0.0000000000E+00  0.0000000000E+00
           symrel      1  0  0   0  1  0   0  0  1      -1  0  0   0 -1  0   0  0 -1
                       0 -1  1   0 -1  0   1 -1  0       0  1 -1   0  1  0  -1  1  0
                      -1  0  0  -1  0  1  -1  1  0       1  0  0   1  0 -1   1 -1  0
                       0  1 -1   1  0 -1   0  0 -1       0 -1  1  -1  0  1   0  0  1
                      -1  0  0  -1  1  0  -1  0  1       1  0  0   1 -1  0   1  0 -1
                       0 -1  1   1 -1  0   0 -1  0       0  1 -1  -1  1  0   0  1  0
                       1  0  0   0  0  1   0  1  0      -1  0  0   0  0 -1   0 -1  0
                       0  1 -1   0  0 -1   1  0 -1       0 -1  1   0  0  1  -1  0  1
                      -1  0  1  -1  1  0  -1  0  0       1  0 -1   1 -1  0   1  0  0
                       0 -1  0   1 -1  0   0 -1  1       0  1  0  -1  1  0   0  1 -1
                       1  0 -1   0  0 -1   0  1 -1      -1  0  1   0  0  1   0 -1  1
                       0  1  0   0  0  1   1  0  0       0 -1  0   0  0 -1  -1  0  0
                       1  0 -1   0  1 -1   0  0 -1      -1  0  1   0 -1  1   0  0  1
                       0 -1  0   0 -1  1   1 -1  0       0  1  0   0  1 -1  -1  1  0
                      -1  0  1  -1  0  0  -1  1  0       1  0 -1   1  0  0   1 -1  0
                       0  1  0   1  0  0   0  0  1       0 -1  0  -1  0  0   0  0 -1
                       0  0 -1   0  1 -1   1  0 -1       0  0  1   0 -1  1  -1  0  1
                       1 -1  0   0 -1  1   0 -1  0      -1  1  0   0  1 -1   0  1  0
                       0  0  1   1  0  0   0  1  0       0  0 -1  -1  0  0   0 -1  0
                      -1  1  0  -1  0  0  -1  0  1       1 -1  0   1  0  0   1  0 -1
                       0  0  1   0  1  0   1  0  0       0  0 -1   0 -1  0  -1  0  0
                       1 -1  0   0 -1  0   0 -1  1      -1  1  0   0  1  0   0  1 -1
                       0  0 -1   1  0 -1   0  1 -1       0  0  1  -1  0  1   0 -1  1
                      -1  1  0  -1  0  1  -1  0  0       1 -1  0   1  0 -1   1  0  0
           tolwfr      1.00000000E-20
            typat      1  1  1  2
           useylm           1
           xangst      3.4249030676E+00  2.4217721840E+00  5.9321061241E+00
                       5.1373546014E+00  3.6326582760E+00  8.8981591861E+00
                       1.7124515338E+00  1.2108860920E+00  2.9660530620E+00
                       0.0000000000E+00  0.0000000000E+00  0.0000000000E+00
            xcart      6.4721288294E+00  4.5764861840E+00  1.1210055966E+01
                       9.7081932441E+00  6.8647292760E+00  1.6815083949E+01
                       3.2360644147E+00  2.2882430920E+00  5.6050279829E+00
                       0.0000000000E+00  0.0000000000E+00  0.0000000000E+00
             xred      5.0000000000E-01  5.0000000000E-01  5.0000000000E-01
                       7.5000000000E-01  7.5000000000E-01  7.5000000000E-01
                       2.5000000000E-01  2.5000000000E-01  2.5000000000E-01
                       0.0000000000E+00  0.0000000000E+00  0.0000000000E+00
            znucl       19.00000   51.00000

- Timing analysis has been suppressed with timopt=0

 Suggested references for the acknowledgment of ABINIT usage.

 Calculation completed.
.Delivered   6 WARNINGs and  11 COMMENTs to log file.