.Version 9.5.2 of ABINIT

 ABINIT is a project of the Universite Catholique de Louvain,
 Corning Inc. and other collaborators, see ~abinit/doc/developers/contributors.txt .
 acknowledgments of the ABINIT effort.

.Starting date : Tue 25 May 2021.
- ( at 11h17 )

- input  file    -> /scratch/users/j/a/jabreu/flow_simple_10atoms/flow/w494/t1/run.abi
- output file    -> /scratch/users/j/a/jabreu/flow_simple_10atoms/flow/w494/t1/run.abo
- root for input  files -> /scratch/users/j/a/jabreu/flow_simple_10atoms/flow/w494/t1/indata/in
- root for output files -> /scratch/users/j/a/jabreu/flow_simple_10atoms/flow/w494/t1/outdata/out

 Symmetries : space group Cm c 2_1 (# 36); Bravais oC (1-face-center ortho.)
     intxc =       0      iscf =       7    lmnmax =      32     lnmax =       8
     mgfft =     125  mpssoang =       4    mqgrid =    6097     natom =      10
  nloc_mem =       1    nspden =       1   nspinor =       1    nsppol =       1
      nsym =       4    n1xccc =    2501    ntypat =       3    occopt =       1
   xclevel =       2
-    mband =          57        mffmem =           1         mkmem =           2
-   mkqmem =           2        mk1mem =           2           mpw =       18704
      nfft =      512000          nkpt =           2
  Rough estimation (10% accuracy) of disk space for files :

------------- Echo of variables that govern the present computation ------------
-
- outvars: echo of selected default values
-   iomode0 =  0 , fftalg0 =512 , wfoptalg0 =  0
-
- outvars: echo of global parameters not present in the input file
-  max_nthreads =    0
-
 -outvars: echo values of preprocessed input variables --------
            acell      1.0000000000E+00  1.0000000000E+00  1.0000000000E+00 Bohr
              amu      2.29897680E+01  1.95080000E+02  3.20660000E+01
             ecut      4.40000000E+01 Hartree
-          fftalg         512
           irdden           1
           irdwfk           1
              ixc     -116133
              kpt     -4.73684210E-01  4.73684210E-01  0.00000000E+00
                       1.21069212E-01  1.21069212E-01  0.00000000E+00
           kptopt           0
P           mkmem           2
P          mkqmem           2
P          mk1mem           2
            natom          10
            nband          57
           nbdbuf           4
            ngfft          64      64     125
             nkpt           2
            nstep        2000
             nsym           4
           ntypat           3
              occ      2.000000  2.000000  2.000000  2.000000  2.000000  2.000000
                       2.000000  2.000000  2.000000  2.000000  2.000000  2.000000
                       2.000000  2.000000  2.000000  2.000000  2.000000  2.000000
                       2.000000  2.000000  2.000000  2.000000  2.000000  2.000000
                       2.000000  2.000000  2.000000  2.000000  2.000000  2.000000
                       2.000000  2.000000  2.000000  2.000000  2.000000  2.000000
                       2.000000  2.000000  2.000000  2.000000  2.000000  2.000000
                       2.000000  2.000000  2.000000  2.000000  2.000000  2.000000
                       0.000000  0.000000  0.000000  0.000000  0.000000  0.000000
                       0.000000  0.000000  0.000000
        optdriver           1
            prtwf          -1
            rfdir           1       1       1
           rfelfd           2
            rprim      1.0345038821E+01  0.0000000000E+00  0.0000000000E+00
                      -8.1685455424E+00  6.3478100106E+00  0.0000000000E+00
                       0.0000000000E+00  0.0000000000E+00  2.0416439725E+01
          spgroup          36
           symrel      1  0  0   0  1  0   0  0  1       0 -1  0  -1  0  0   0  0  1
                      -1  0  0   0 -1  0   0  0  1       0  1  0   1  0  0   0  0  1
            tnons      0.0000000  0.0000000  0.0000000     0.0000000  0.0000000  0.0000000
                       0.0000000  0.0000000  0.5000000     0.0000000  0.0000000  0.5000000
           tolwfr      1.00000000E-20
            typat      1  1  1  1  2  2  3  3  3  3
           useylm           1
              wtk        0.50000    0.50000
           xangst     -1.0805664528E+00  2.2475075116E+00  9.7932515892E+00
                       2.2323170904E+00  1.1116088705E+00  4.3912942978E+00
                      -3.6410037506E+00  3.1254125780E+00  1.3335811965E+00
                       4.7927543883E+00  2.3370380405E-01  6.7355384879E+00
                       1.9052845385E+00  1.2237395345E+00  8.0547396741E+00
                      -7.5353390086E-01  2.1353768476E+00  2.6527823827E+00
                       4.9419426002E+00  1.8255117978E-01  3.9288975576E+00
                      -3.7901919625E+00  3.1765652023E+00  9.3308548490E+00
                       3.3493868497E+00  7.2859570239E-01  1.3712004271E+00
                      -2.1976362120E+00  2.6305206797E+00  6.7731577185E+00
            xcart     -2.0419746641E+00  4.2471736785E+00  1.8506563454E+01
                       4.2184679427E+00  2.1006363321E+00  8.2983435918E+00
                      -6.8804999375E+00  5.9061738247E+00  2.5201032374E+00
                       9.0569932161E+00  4.4163618587E-01  1.2728323100E+01
                       3.6004659831E+00  2.3125325781E+00  1.5221252056E+01
                      -1.4239727045E+00  4.0352774325E+00  5.0130321935E+00
                       9.3389180788E+00  3.4497173503E-01  7.4245403880E+00
                      -7.1624248002E+00  6.0028382756E+00  1.7632760250E+01
                       6.3294238590E+00  1.3768463391E+00  2.5911932805E+00
                      -4.1529305804E+00  4.9709636715E+00  1.2799413143E+01
             xred      3.3092300000E-01  6.6907700000E-01  9.0645400000E-01
                       6.6907700000E-01  3.3092300000E-01  4.0645400000E-01
                       6.9573000000E-02  9.3042700000E-01  1.2343500000E-01
                       9.3042700000E-01  6.9573000000E-02  6.2343500000E-01
                       6.3569600000E-01  3.6430400000E-01  7.4553900000E-01
                       3.6430400000E-01  6.3569600000E-01  2.4553900000E-01
                       9.4565500000E-01  5.4345000000E-02  3.6365500000E-01
                       5.4345000000E-02  9.4565500000E-01  8.6365500000E-01
                       7.8309900000E-01  2.1690100000E-01  1.2691700000E-01
                       2.1690100000E-01  7.8309900000E-01  6.2691700000E-01
            znucl       11.00000   78.00000   16.00000

 chkinp: Checking input parameters for consistency.

== DATASET  1 ==================================================================
-   mpi_nproc: 1, omp_nthreads: -1 (-1 if OMP is not activated)

--- !DatasetInfo
iteration_state: {dtset: 1, }
dimensions: {natom: 10, nkpt: 2, mband: 57, nsppol: 1, nspinor: 1, nspden: 1, mpw: 18704, }
cutoff_energies: {ecut:  44.0, pawecutdg:  -1.0, }
electrons: {nelect:   9.60000000E+01, charge:   0.00000000E+00, occopt:   1.00000000E+00, tsmear:   1.00000000E-02, }
meta: {optdriver: 1, rfelfd: 2, }
...

 Real(R)+Recip(G) space primitive vectors, cartesian coordinates (Bohr,Bohr^-1):
 R(1)= 10.3450388  0.0000000  0.0000000  G(1)=  0.0966647  0.1243909  0.0000000
 R(2)= -8.1685455  6.3478100  0.0000000  G(2)=  0.0000000  0.1575346  0.0000000
 R(3)=  0.0000000  0.0000000 20.4164397  G(3)=  0.0000000  0.0000000  0.0489801
 Unit cell volume ucvol=  1.3407137E+03 bohr^3
 Angles (23,13,12)=  9.00000000E+01  9.00000000E+01  1.42149075E+02 degrees

 getcut: wavevector=  0.0000  0.0000  0.0000  ngfft=  64  64 125
         ecut(hartree)=     44.000   => boxcut(ratio)=   2.03400

--- Pseudopotential description ------------------------------------------------
- pspini: atom type   1  psp file is /scratch/users/j/a/jabreu/pseudos/PBEsol/Na.psp8
- pspatm: opening atomic psp file    /scratch/users/j/a/jabreu/pseudos/PBEsol/Na.psp8
- Na    ONCVPSP-3.3.0  r_core=   1.20708   1.55069
- 11.00000   9.00000    180112                znucl, zion, pspdat
    8 -116133    1    4       400   0.00000   pspcod,pspxc,lmax,lloc,mmax,r2well
    3.99000000000000    0.00000000000000    0.00000000000000   rchrg,fchrg,qchrg
     nproj     2     2
     extension_switch     1
  pspatm : epsatm=    9.32878306
         --- l  ekb(1:nproj) -->
             0    2.657905   -0.678300
             1   -6.761319   -2.404728
 pspatm: atomic psp has been read  and splines computed

- pspini: atom type   2  psp file is /scratch/users/j/a/jabreu/pseudos/PBEsol/Pt.psp8
- pspatm: opening atomic psp file    /scratch/users/j/a/jabreu/pseudos/PBEsol/Pt.psp8
- Pt    ONCVPSP-3.3.0  r_core=   1.45722   1.45722   1.45722   1.91724
- 78.00000  18.00000    180112                znucl, zion, pspdat
    8 -116133    3    4       500   0.00000   pspcod,pspxc,lmax,lloc,mmax,r2well
    4.99000000000000    5.00000000000000    0.00000000000000   rchrg,fchrg,qchrg
     nproj     2     2     2     2
     extension_switch     1
  pspatm : epsatm=   26.54019552
         --- l  ekb(1:nproj) -->
             0   18.149684    1.747248
             1    8.048135    1.208190
             2    2.365973    0.348456
             3    3.491561    0.381218
 pspatm: atomic psp has been read  and splines computed

- pspini: atom type   3  psp file is /scratch/users/j/a/jabreu/pseudos/PBEsol/S.psp8
- pspatm: opening atomic psp file    /scratch/users/j/a/jabreu/pseudos/PBEsol/S.psp8
- S     ONCVPSP-3.3.0  r_core=   1.45376   1.45376   1.61851
- 16.00000   6.00000    180112                znucl, zion, pspdat
    8 -116133    2    4       600   0.00000   pspcod,pspxc,lmax,lloc,mmax,r2well
    5.99000000000000    6.00000000000000    0.00000000000000   rchrg,fchrg,qchrg
     nproj     2     2     2
     extension_switch     1
  pspatm : epsatm=    8.71840985
         --- l  ekb(1:nproj) -->
             0    6.834532    0.579453
             1    3.282851    0.896984
             2   -3.496974   -0.974265
 pspatm: atomic psp has been read  and splines computed

   1.20258396E+04                                ecore*ucvol(ha*bohr**3)

 ==>  initialize data related to q vector <==

 The list of irreducible perturbations for this q vector is:
    1)    idir= 1    ipert=  11
    2)    idir= 2    ipert=  11
    3)    idir= 3    ipert=  11

 Perturbation wavevector (in red.coord.)   0.000000  0.000000  0.000000
 Perturbation : derivative vs k along direction   1

 dfpt_looppert : COMMENT -
  In a d/dk calculation, iscf is set to -3 automatically.
 The set of symmetries contains only one element for this perturbation.
 symkpt : not enough symmetry to change the number of k points.

 Initialisation of the first-order wave-functions :
  ireadwf=   0

--- !BeginCycle
iteration_state: {dtset: 1, }
solver: {iscf: 7, nstep: 2000, nline: 4, wfoptalg: 0, }
tolerances: {tolwfr: 1.00E-20, }
...

     iter   2DEtotal(Ha)        deltaE(Ha) residm    vres2
-ETOT  1  -104.18938345351     -1.042E+02 5.768E-01 0.000E+00
 ETOT  2  -104.28313932725     -9.376E-02 8.829E-03 0.000E+00
 ETOT  3  -104.28365314825     -5.138E-04 4.608E-04 0.000E+00
 ETOT  4  -104.28365882755     -5.679E-06 2.984E-05 0.000E+00
 ETOT  5  -104.28365890638     -7.883E-08 3.760E-06 0.000E+00
 ETOT  6  -104.28365890763     -1.249E-09 1.558E-07 0.000E+00
 ETOT  7  -104.28365890765     -2.113E-11 1.579E-08 0.000E+00
 ETOT  8  -104.28365890765     -5.258E-13 8.676E-10 0.000E+00
 ETOT  9  -104.28365890765      2.842E-14 9.600E-11 0.000E+00
 ETOT 10  -104.28365890765     -5.684E-14 5.181E-12 0.000E+00
 ETOT 11  -104.28365890765      0.000E+00 6.511E-13 0.000E+00
 ETOT 12  -104.28365890765     -4.263E-14 3.261E-14 0.000E+00
 ETOT 13  -104.28365890765      2.842E-14 4.892E-15 0.000E+00
 ETOT 14  -104.28365890765      0.000E+00 2.125E-16 0.000E+00
 ETOT 15  -104.28365890765     -1.421E-14 3.674E-17 0.000E+00
 ETOT 16  -104.28365890765     -2.842E-14 1.415E-18 0.000E+00
 ETOT 17  -104.28365890765      0.000E+00 2.546E-19 0.000E+00
 ETOT 18  -104.28365890765      0.000E+00 9.967E-21 0.000E+00

 At SCF step   18   max residual=  9.97E-21 < tolwfr=  1.00E-20 =>converged.

 ----iterations are completed or convergence reached----

 dfpt_looppert: DFPT cycle converged with prtwf=-1. Will skip output of the 1st-order WFK file.
 dfpt_looppert : ek2=    1.8811053806E+02
          f-sum rule ratio=    1.0272030294E+00
 prteigrs : about to open file /scratch/users/j/a/jabreu/flow_simple_10atoms/flow/w494/t1/tmpdata/tmp_1WF1_EIG
 Expectation of eigenvalue derivatives (hartree) for nkpt=   2  k points:
  (in case of degenerate eigenvalues, averaged derivative)
 kpt#   1, nband= 57, wtk=  0.50000, kpt= -0.4737  0.4737  0.0000 (reduced coord)
   0.00000   -0.00000    0.00000    0.00000    0.00000    0.00000    0.00000    0.00000
  -0.00000   -0.00000   -0.00000   -0.00000    0.00000   -0.00000    0.00002    0.00002
   0.00000    0.00000    0.00003    0.00002    0.00000    0.00000   -0.00002    0.00001
  -0.00352    0.00198   -0.00249    0.00292   -0.00374    0.00569   -0.00004   -0.00016
  -0.02219    0.00992   -0.00122    0.02204   -0.01052    0.00661   -0.00021   -0.00014
  -0.00374    0.00674    0.00066    0.00003    0.00088    0.00176   -0.00620    0.00004
   0.00042   -0.00097   -0.01524    0.02251   -0.05482    0.03058   -0.00758   -0.12022
   0.07167
 prteigrs : prtvol=0 or 1, do not print more k-points.

 Eight components of 2nd-order total energy (hartree) are
 1,2,3: 0th-order hamiltonian combined with 1st-order wavefunctions
     kin0=   1.38585396E+02 eigvalue=   5.07498587E+00  local=  -6.84930720E+01
 4,5,6: 1st-order hamiltonian combined with 1st and 0th-order wfs
     kin1=  -1.93227715E+02  Hartree=   0.00000000E+00     xc=   0.00000000E+00
 7,8,9: eventually, occupation + non-local contributions
    edocc=   2.38735137E+01     enl0=   5.24283540E+00   enl1=  -1.53396033E+01
 1-9 gives the relaxation energy (to be shifted if some occ is /=2.0)
   erelax=  -1.04283659E+02
  No Ewald or frozen-wf contrib.: the relaxation energy is the total one
 2DEtotal=   -0.1042836589E+03 Ha. Also 2DEtotal=   -0.283770267286E+04 eV
    (  non-var. 2DEtotal :   -1.0428365891E+02 Ha)

 Perturbation wavevector (in red.coord.)   0.000000  0.000000  0.000000
 Perturbation : derivative vs k along direction   2
 The set of symmetries contains only one element for this perturbation.
 symkpt : not enough symmetry to change the number of k points.

[...]

 Perturbation wavevector (in red.coord.)   0.000000  0.000000  0.000000
 Perturbation : derivative vs k along direction   3
 The set of symmetries contains only one element for this perturbation.
 symkpt : not enough symmetry to change the number of k points.

 Initialisation of the first-order wave-functions :
  ireadwf=   0

--- !BeginCycle
iteration_state: {dtset: 1, }
solver: {iscf: 7, nstep: 2000, nline: 4, wfoptalg: 0, }
tolerances: {tolwfr: 1.00E-20, }
...

     iter   2DEtotal(Ha)        deltaE(Ha) residm    vres2
-ETOT  1  -9.8921623148763     -9.892E+00 1.320E-02 0.000E+00
 ETOT  2  -9.9019545457215     -9.792E-03 3.170E-04 0.000E+00
 ETOT  3  -9.9020022985859     -4.775E-05 8.580E-06 0.000E+00
 ETOT  4  -9.9020027694266     -4.708E-07 7.300E-07 0.000E+00
 ETOT  5  -9.9020027754787     -6.052E-09 2.668E-08 0.000E+00
 ETOT  6  -9.9020027755675     -8.882E-11 2.325E-09 0.000E+00
 ETOT  7  -9.9020027755689     -1.400E-12 9.405E-11 0.000E+00
 ETOT  8  -9.9020027755689     -1.954E-14 8.691E-12 0.000E+00
 ETOT  9  -9.9020027755689     -1.776E-15 3.607E-13 0.000E+00
 ETOT 10  -9.9020027755689     -5.329E-15 3.436E-14 0.000E+00
 ETOT 11  -9.9020027755689      0.000E+00 1.431E-15 0.000E+00
 ETOT 12  -9.9020027755689      1.776E-15 1.388E-16 0.000E+00
 ETOT 13  -9.9020027755689      1.776E-15 5.759E-18 0.000E+00
 ETOT 14  -9.9020027755689      0.000E+00 5.664E-19 0.000E+00
 ETOT 15  -9.9020027755689      1.776E-15 3.458E-20 0.000E+00
 ETOT 16  -9.9020027755689     -1.776E-15 9.901E-21 0.000E+00

 At SCF step   16   max residual=  9.90E-21 < tolwfr=  1.00E-20 =>converged.

 ----iterations are completed or convergence reached----

 dfpt_looppert: DFPT cycle converged with prtwf=-1. Will skip output of the 1st-order WFK file.
 dfpt_looppert : ek2=    1.8184482391E+01
          f-sum rule ratio=    1.0069195474E+00
 prteigrs : about to open file /scratch/users/j/a/jabreu/flow_simple_10atoms/flow/w494/t1/tmpdata/tmp_1WF1_EIG
 Expectation of eigenvalue derivatives (hartree) for nkpt=   2  k points:
  (in case of degenerate eigenvalues, averaged derivative)
 kpt#   1, nband= 57, wtk=  0.50000, kpt= -0.4737  0.4737  0.0000 (reduced coord)
  -0.00000    0.00000    0.00000    0.00000    0.00000   -0.00000    0.00000   -0.00000
   0.00000   -0.00000   -0.00000    0.00000    0.00000   -0.00000    0.00000   -0.00000
  -0.00000    0.00000    0.00000   -0.00000    0.00000   -0.00000   -0.00000    0.00000
   0.00000   -0.00000   -0.00000    0.00000    0.00000   -0.00000    0.00000   -0.00000
   0.00000   -0.00000   -0.00000    0.00000   -0.00000    0.00000    0.00000   -0.00000
   0.00000   -0.00000   -0.00000    0.00000    0.00000   -0.00000    0.00000   -0.00000
   0.00000   -0.00000   -0.00000    0.00000   -0.00000   -0.00000   -0.00000    0.00000
   0.00020
 prteigrs : prtvol=0 or 1, do not print more k-points.

 Eight components of 2nd-order total energy (hartree) are
 1,2,3: 0th-order hamiltonian combined with 1st-order wavefunctions
     kin0=   1.36625369E+01 eigvalue=   4.80976429E-01  local=  -6.66545656E+00
 4,5,6: 1st-order hamiltonian combined with 1st and 0th-order wfs
     kin1=  -1.83103108E+01  Hartree=   0.00000000E+00     xc=   0.00000000E+00
 7,8,9: eventually, occupation + non-local contributions
    edocc=   1.87512786E+00     enl0=   5.48818140E-01   enl1=  -1.49369477E+00
 1-9 gives the relaxation energy (to be shifted if some occ is /=2.0)
   erelax=  -9.90200278E+00
  No Ewald or frozen-wf contrib.: the relaxation energy is the total one
 2DEtotal=   -0.9902002776E+01 Ha. Also 2DEtotal=   -0.269447198509E+03 eV
    (  non-var. 2DEtotal :   -9.9020027755E+00 Ha)

 CALCULATION OF EFFECTIVE MASSES
 NOTE : Additional infos (eff. mass eigenvalues, eigenvectors and, if degenerate, average mass) are available in stdout.

 K-point (-0.474, 0.474, 0.000) | band =    48
 Effective mass tensor:
            -16.4733128770              5.2770842222              0.0000060784
              5.2770842222             -2.8917836971             -0.0000005651
              0.0000060784             -0.0000005651             -1.4014418825
 Effective mass tensor eigenvalues:
            -18.2826704725             -1.4014418825             -1.0824261016
 Angular average effective mass 1/(<1/m>)=  -1.7729469378
 Angular average effective mass for Frohlich model (<m**0.5>)**2=  -2.2550874846
 Effective masses along directions: (cart. coord. / red. coord. -> eff. mass)
    1:   1.000000  0.000000  0.000000 /   0.784831 -0.619710  0.000000 ->  -6.8434024809
    2:   0.000000  1.000000  0.000000 /   0.000000  1.000000  0.000000 ->  -1.2013151134
    3:   0.000000  0.000000  1.000000 /   0.000000  0.000000  1.000000 ->  -1.4014418825
    4:   0.577350  0.577350  0.577350 /   0.450566 -0.079300  0.889214 ->  -1.3480610020
    5:   0.000000  0.707107  0.707107 /   0.000000  0.296897  0.954909 ->  -1.2936832203
    6:   0.707107  0.000000  0.707107 /   0.425691 -0.336130  0.840122 ->  -2.3264524328
    7:   0.707107  0.707107  0.000000 /   0.984863 -0.173337  0.000000 ->  -1.3228693763

 K-point ( 0.121, 0.121, 0.000) | band =    49
 Effective mass tensor:
              4.0086256489             -1.2898247557             -0.0005017529
             -1.2898247557              0.6894776279              0.0002568548
             -0.0005017529              0.0002568548              1.3157251760
 Effective mass tensor eigenvalues:
              0.2471872703              1.3157250827              4.4509160998
 Angular average effective mass 1/(<1/m>)=   0.5963946972
 Angular average effective mass for Frohlich model (<m**0.5>)**2=   0.8637922896
 Effective masses along directions: (cart. coord. / red. coord. -> eff. mass)
    1:   1.000000  0.000000  0.000000 /   0.784831 -0.619710  0.000000 ->   1.5957150145
    2:   0.000000  1.000000  0.000000 /   0.000000  1.000000  0.000000 ->   0.2744605937
    3:   0.000000  0.000000  1.000000 /   0.000000  0.000000  1.000000 ->   1.3157250800
    4:   0.577350  0.577350  0.577350 /   0.450566 -0.079300  0.889214 ->   0.4068124076
    5:   0.000000  0.707107  0.707107 /   0.000000  0.296897  0.954909 ->   0.4542337802
    6:   0.707107  0.000000  0.707107 /   0.425691 -0.336130  0.840122 ->   1.4422358372
    7:   0.707107  0.707107  0.000000 /   0.984863 -0.173337  0.000000 ->   0.3023487665

 END OF EFFECTIVE MASSES SECTION

 ---- first-order wavefunction calculations are completed ----

 Total localisation tensor (bohr^2) in cartesian coordinates
  WARNING : still subject to testing - especially symmetries.
      direction              matrix element
   alpha     beta       real part   imaginary part
     1        1       4.3945843143    0.0000000000
     1        2      -1.3114981586    0.0000000000
     1        3       0.0000000000    0.0000000000
     2        1      -1.3114981586    0.0000000000
     2        2       1.0191705607    0.0000000000
     2        3       0.0000000000    0.0000000000
     3        1       0.0000000000    0.0000000000
     3        2       0.0000000000    0.0000000000
     3        3       0.8658167056    0.0000000000

 respfn : d/dk was computed, but no 2DTE, so no DDB output.

== END DATASET(S) ==============================================================

 -outvars: echo values of variables after computation  --------
            acell      1.0000000000E+00  1.0000000000E+00  1.0000000000E+00 Bohr
              amu      2.29897680E+01  1.95080000E+02  3.20660000E+01
             ecut      4.40000000E+01 Hartree
           etotal     -9.9020027756E+00
            fcart      0.0000000000E+00  0.0000000000E+00  0.0000000000E+00
                       0.0000000000E+00  0.0000000000E+00  0.0000000000E+00
                       0.0000000000E+00  0.0000000000E+00  0.0000000000E+00
                       0.0000000000E+00  0.0000000000E+00  0.0000000000E+00
                       0.0000000000E+00  0.0000000000E+00  0.0000000000E+00
                       0.0000000000E+00  0.0000000000E+00  0.0000000000E+00
                       0.0000000000E+00  0.0000000000E+00  0.0000000000E+00
                       0.0000000000E+00  0.0000000000E+00  0.0000000000E+00
                       0.0000000000E+00  0.0000000000E+00  0.0000000000E+00
                       0.0000000000E+00  0.0000000000E+00  0.0000000000E+00
-          fftalg         512
           irdden           1
           irdwfk           1
              ixc     -116133
              kpt     -4.73684210E-01  4.73684210E-01  0.00000000E+00
                       1.21069212E-01  1.21069212E-01  0.00000000E+00
           kptopt           0
P           mkmem           2
P          mkqmem           2
P          mk1mem           2
            natom          10
            nband          57
           nbdbuf           4
            ngfft          64      64     125
             nkpt           2
            nstep        2000
             nsym           4
           ntypat           3
              occ      2.000000  2.000000  2.000000  2.000000  2.000000  2.000000
                       2.000000  2.000000  2.000000  2.000000  2.000000  2.000000
                       2.000000  2.000000  2.000000  2.000000  2.000000  2.000000
                       2.000000  2.000000  2.000000  2.000000  2.000000  2.000000
                       2.000000  2.000000  2.000000  2.000000  2.000000  2.000000
                       2.000000  2.000000  2.000000  2.000000  2.000000  2.000000
                       2.000000  2.000000  2.000000  2.000000  2.000000  2.000000
                       2.000000  2.000000  2.000000  2.000000  2.000000  2.000000
                       0.000000  0.000000  0.000000  0.000000  0.000000  0.000000
                       0.000000  0.000000  0.000000
        optdriver           1
            prtwf          -1
            rfdir           1       1       1
           rfelfd           2
            rprim      1.0345038821E+01  0.0000000000E+00  0.0000000000E+00
                      -8.1685455424E+00  6.3478100106E+00  0.0000000000E+00
                       0.0000000000E+00  0.0000000000E+00  2.0416439725E+01
          spgroup          36
           strten      0.0000000000E+00  0.0000000000E+00  0.0000000000E+00
                       0.0000000000E+00  0.0000000000E+00  0.0000000000E+00
           symrel      1  0  0   0  1  0   0  0  1       0 -1  0  -1  0  0   0  0  1
                      -1  0  0   0 -1  0   0  0  1       0  1  0   1  0  0   0  0  1
            tnons      0.0000000  0.0000000  0.0000000     0.0000000  0.0000000  0.0000000
                       0.0000000  0.0000000  0.5000000     0.0000000  0.0000000  0.5000000
           tolwfr      1.00000000E-20
            typat      1  1  1  1  2  2  3  3  3  3
           useylm           1
              wtk        0.50000    0.50000
           xangst     -1.0805664528E+00  2.2475075116E+00  9.7932515892E+00
                       2.2323170904E+00  1.1116088705E+00  4.3912942978E+00
                      -3.6410037506E+00  3.1254125780E+00  1.3335811965E+00
                       4.7927543883E+00  2.3370380405E-01  6.7355384879E+00
                       1.9052845385E+00  1.2237395345E+00  8.0547396741E+00
                      -7.5353390086E-01  2.1353768476E+00  2.6527823827E+00
                       4.9419426002E+00  1.8255117978E-01  3.9288975576E+00
                      -3.7901919625E+00  3.1765652023E+00  9.3308548490E+00
                       3.3493868497E+00  7.2859570239E-01  1.3712004271E+00
                      -2.1976362120E+00  2.6305206797E+00  6.7731577185E+00
            xcart     -2.0419746641E+00  4.2471736785E+00  1.8506563454E+01
                       4.2184679427E+00  2.1006363321E+00  8.2983435918E+00
                      -6.8804999375E+00  5.9061738247E+00  2.5201032374E+00
                       9.0569932161E+00  4.4163618587E-01  1.2728323100E+01
                       3.6004659831E+00  2.3125325781E+00  1.5221252056E+01
                      -1.4239727045E+00  4.0352774325E+00  5.0130321935E+00
                       9.3389180788E+00  3.4497173503E-01  7.4245403880E+00
                      -7.1624248002E+00  6.0028382756E+00  1.7632760250E+01
                       6.3294238590E+00  1.3768463391E+00  2.5911932805E+00
                      -4.1529305804E+00  4.9709636715E+00  1.2799413143E+01
             xred      3.3092300000E-01  6.6907700000E-01  9.0645400000E-01
                       6.6907700000E-01  3.3092300000E-01  4.0645400000E-01
                       6.9573000000E-02  9.3042700000E-01  1.2343500000E-01
                       9.3042700000E-01  6.9573000000E-02  6.2343500000E-01
                       6.3569600000E-01  3.6430400000E-01  7.4553900000E-01
                       3.6430400000E-01  6.3569600000E-01  2.4553900000E-01
                       9.4565500000E-01  5.4345000000E-02  3.6365500000E-01
                       5.4345000000E-02  9.4565500000E-01  8.6365500000E-01
                       7.8309900000E-01  2.1690100000E-01  1.2691700000E-01
                       2.1690100000E-01  7.8309900000E-01  6.2691700000E-01
            znucl       11.00000   78.00000   16.00000

- Timing analysis has been suppressed with timopt=0

 Suggested references for the acknowledgment of ABINIT usage.

 Calculation completed.
.Delivered   2 WARNINGs and   7 COMMENTs to log file.