.Version 9.5.1 of ABINIT

 ABINIT is a project of the Universite Catholique de Louvain,
 Corning Inc. and other collaborators, see ~abinit/doc/developers/contributors.txt .
 acknowledgments of the ABINIT effort.

.Starting date : Tue 27 Apr 2021.
- ( at 18h43 )

- input  file    -> /scratch/users/j/a/jabreu/flow_simple_4atoms/flow/w195/t1/run.abi
- output file    -> /scratch/users/j/a/jabreu/flow_simple_4atoms/flow/w195/t1/run.abo
- root for input  files -> /scratch/users/j/a/jabreu/flow_simple_4atoms/flow/w195/t1/indata/in
- root for output files -> /scratch/users/j/a/jabreu/flow_simple_4atoms/flow/w195/t1/outdata/out

 Symmetries : space group R-3 m (#166); Bravais hR (rhombohedral)
     intxc =       0      iscf =       7    lmnmax =      32     lnmax =       8
     mgfft =      96  mpssoang =       4    mqgrid =    3001     natom =       4
  nloc_mem =       1    nspden =       1   nspinor =       1    nsppol =       1
      nsym =      12    n1xccc =    2501    ntypat =       3    occopt =       1
   xclevel =       2
-    mband =          25        mffmem =           1         mkmem =           2
-   mkqmem =           2        mk1mem =           2           mpw =       13624
      nfft =      884736          nkpt =           2
  Rough estimation (10% accuracy) of disk space for files :

------------- Echo of variables that govern the present computation ------------
-
- outvars: echo of selected default values
-   iomode0 =  0 , fftalg0 =512 , wfoptalg0 =  0
-
- outvars: echo of global parameters not present in the input file
-  max_nthreads =    0
-
 -outvars: echo values of preprocessed input variables --------
            acell      1.0000000000E+00  1.0000000000E+00  1.0000000000E+00 Bohr
              amu      3.90983000E+01  1.38905500E+02  3.20660000E+01
             ecut      5.20000000E+01 Hartree
-          fftalg         512
           irdden           1
           irdwfk           1
           istwfk        1    1
              ixc     -116133
              kpt      0.00000000E+00  0.00000000E+00  0.00000000E+00
                       5.00000000E-01  5.00000000E-01  0.00000000E+00
           kptopt           0
P           mkmem           2
P          mkqmem           2
P          mk1mem           2
            natom           4
            nband          25
           nbdbuf           4
            ngfft          96      96      96
             nkpt           2
            nstep         100
             nsym          12
           ntypat           3
              occ      2.000000  2.000000  2.000000  2.000000  2.000000  2.000000
                       2.000000  2.000000  2.000000  2.000000  2.000000  2.000000
                       2.000000  2.000000  2.000000  2.000000  0.000000  0.000000
                       0.000000  0.000000  0.000000  0.000000  0.000000  0.000000
                       0.000000
        optdriver           1
            prtwf          -1
            rfdir           1       1       1
           rfelfd           2
            rprim      7.6992011619E+00  0.0000000000E+00  1.2189031843E+01
                       3.5272366488E+00  6.8437051481E+00  1.2189031843E+01
                       0.0000000000E+00  0.0000000000E+00  1.4417010640E+01
          spgroup         166
           symrel      1  0  0   0  1  0   0  0  1      -1  0  0   0 -1  0   0  0 -1
                       0  1  0   1  0  0   0  0  1       0 -1  0  -1  0  0   0  0 -1
                       0  0  1   1  0  0   0  1  0       0  0 -1  -1  0  0   0 -1  0
                       1  0  0   0  0  1   0  1  0      -1  0  0   0  0 -1   0 -1  0
                       0  1  0   0  0  1   1  0  0       0 -1  0   0  0 -1  -1  0  0
                       0  0  1   0  1  0   1  0  0       0  0 -1   0 -1  0  -1  0  0
           tolwfr      1.00000000E-20
            typat      1  2  3  3
           useylm           1
              wtk        0.50000    0.50000
           xangst      2.9703875115E+00  1.8107663933E+00  1.0264734569E+01
                       0.0000000000E+00  0.0000000000E+00  0.0000000000E+00
                       1.5656674942E+00  9.5444047980E-01  5.4104594735E+00
                       4.3751075288E+00  2.6670923069E+00  1.5119009665E+01
            xcart      5.6132189053E+00  3.4218525740E+00  1.9397537163E+01
                       0.0000000000E+00  0.0000000000E+00  0.0000000000E+00
                       2.9586827793E+00  1.8036311170E+00  1.0224286658E+01
                       8.2677550314E+00  5.0400740311E+00  2.8570787667E+01
             xred      5.0000000000E-01  5.0000000000E-01  5.0000000000E-01
                       0.0000000000E+00  0.0000000000E+00  0.0000000000E+00
                       2.6354600000E-01  2.6354600000E-01  2.6354600000E-01
                       7.3645400000E-01  7.3645400000E-01  7.3645400000E-01
            znucl       19.00000   57.00000   16.00000

 chkinp: Checking input parameters for consistency.

== DATASET  1 ==================================================================
-   mpi_nproc: 1, omp_nthreads: -1 (-1 if OMP is not activated)

--- !DatasetInfo
iteration_state: {dtset: 1, }
dimensions: {natom: 4, nkpt: 2, mband: 25, nsppol: 1, nspinor: 1, nspden: 1, mpw: 13624, }
cutoff_energies: {ecut:  52.0, pawecutdg:  -1.0, }
electrons: {nelect:   3.20000000E+01, charge:   0.00000000E+00, occopt:   1.00000000E+00, tsmear:   1.00000000E-02, }
meta: {optdriver: 1, rfelfd: 2, }
...

 Real(R)+Recip(G) space primitive vectors, cartesian coordinates (Bohr,Bohr^-1):
 R(1)=  7.6992012  0.0000000 12.1890318  G(1)=  0.1298836 -0.0669418  0.0000000
 R(2)=  3.5272366  6.8437051 12.1890318  G(2)=  0.0000000  0.1461197  0.0000000
 R(3)=  0.0000000  0.0000000 14.4170106  G(3)= -0.1098116 -0.0669418  0.0693625
 Unit cell volume ucvol=  7.5964761E+02 bohr^3
 Angles (23,13,12)=  3.22785517E+01  3.22785517E+01  3.22785517E+01 degrees

 getcut: wavevector=  0.0000  0.0000  0.0000  ngfft=  96  96  96
         ecut(hartree)=     52.000   => boxcut(ratio)=   2.05167

--- Pseudopotential description ------------------------------------------------
- pspini: atom type   1  psp file is /scratch/users/j/a/jabreu/pseudos/PBEsol/K.psp8
- pspatm: opening atomic psp file    /scratch/users/j/a/jabreu/pseudos/PBEsol/K.psp8
- K     ONCVPSP-3.3.0  r_core=   1.36296   1.46408   1.61068
- 19.00000   9.00000    180112                znucl, zion, pspdat
    8 -116133    2    4       400   0.00000   pspcod,pspxc,lmax,lloc,mmax,r2well
    3.99000000000000    5.00000000000000    0.00000000000000   rchrg,fchrg,qchrg
     nproj     2     2     2
     extension_switch     1
  pspatm : epsatm=    8.32487830
         --- l  ekb(1:nproj) -->
             0   10.921326    0.816676
             1    4.431000    0.560368
             2   -3.384038   -1.043186
 pspatm: atomic psp has been read  and splines computed

- pspini: atom type   2  psp file is /scratch/users/j/a/jabreu/pseudos/PBEsol/La.psp8
- pspatm: opening atomic psp file    /scratch/users/j/a/jabreu/pseudos/PBEsol/La.psp8
- La    ONCVPSP-3.3.0  r_core=   2.11664   1.60878   1.85636   1.66739
- 57.00000  11.00000    180112                znucl, zion, pspdat
    8 -116133    3    4       600   0.00000   pspcod,pspxc,lmax,lloc,mmax,r2well
    5.99000000000000    5.00000000000000    0.00000000000000   rchrg,fchrg,qchrg
     nproj     2     2     2     2
     extension_switch     1
  pspatm : epsatm=   29.08531775
         --- l  ekb(1:nproj) -->
             0    6.695600    0.639047
             1    6.383649    1.151322
             2    3.612966    0.847811
             3  -13.718437   -4.858923
 pspatm: atomic psp has been read  and splines computed

- pspini: atom type   3  psp file is /scratch/users/j/a/jabreu/pseudos/PBEsol/S.psp8
- pspatm: opening atomic psp file    /scratch/users/j/a/jabreu/pseudos/PBEsol/S.psp8
- S     ONCVPSP-3.3.0  r_core=   1.45376   1.45376   1.61851
- 16.00000   6.00000    180112                znucl, zion, pspdat
    8 -116133    2    4       600   0.00000   pspcod,pspxc,lmax,lloc,mmax,r2well
    5.99000000000000    6.00000000000000    0.00000000000000   rchrg,fchrg,qchrg
     nproj     2     2     2
     extension_switch     1
  pspatm : epsatm=    8.71840985
         --- l  ekb(1:nproj) -->
             0    6.834532    0.579453
             1    3.282851    0.896984
             2   -3.496974   -0.974265
 pspatm: atomic psp has been read  and splines computed

   1.75510450E+03                                ecore*ucvol(ha*bohr**3)

-inwffil : will read wavefunctions from disk file /scratch/users/j/a/jabreu/flow_simple_4atoms/flow/w195/t1/indata/in_WFK

 ==>  initialize data related to q vector <==

 The list of irreducible perturbations for this q vector is:
    1)    idir= 1    ipert=   5
    2)    idir= 2    ipert=   5
    3)    idir= 3    ipert=   5

 Perturbation wavevector (in red.coord.)   0.000000  0.000000  0.000000
 Perturbation : derivative vs k along direction   1

 dfpt_looppert : COMMENT -
  In a d/dk calculation, iscf is set to -3 automatically.
 The set of symmetries contains only one element for this perturbation.
 symkpt : not enough symmetry to change the number of k points.

[...]

 Initialisation of the first-order wave-functions :
  ireadwf=   0

--- !BeginCycle
iteration_state: {dtset: 1, }
solver: {iscf: 7, nstep: 100, nline: 4, wfoptalg: 0, }
tolerances: {tolwfr: 1.00E-20, }
...

     iter   2DEtotal(Ha)        deltaE(Ha) residm    vres2
-ETOT  1  -29.243354456246     -2.924E+01 1.055E-01 0.000E+00
 ETOT  2  -29.343333964555     -9.998E-02 6.777E-02 0.000E+00
 ETOT  3  -29.348803435957     -5.469E-03 1.432E-02 0.000E+00
 ETOT  4  -29.349753294955     -9.499E-04 3.050E-02 0.000E+00
 ETOT  5  -29.349977072203     -2.238E-04 1.049E-02 0.000E+00
 ETOT  6  -29.350033074546     -5.600E-05 1.561E-02 0.000E+00
 ETOT  7  -29.350047664388     -1.459E-05 6.711E-03 0.000E+00
 ETOT  8  -29.350051580458     -3.916E-06 1.069E-02 0.000E+00
 ETOT  9  -29.350052666123     -1.086E-06 4.414E-03 0.000E+00
 ETOT 10  -29.350052975788     -3.097E-07 9.812E-03 0.000E+00
 ETOT 11  -29.350053066493     -9.070E-08 3.506E-03 0.000E+00
 ETOT 12  -29.350053093629     -2.714E-08 7.194E-03 0.000E+00
 ETOT 13  -29.350053101888     -8.260E-09 2.467E-03 0.000E+00
 ETOT 14  -29.350053104435     -2.547E-09 5.033E-03 0.000E+00
 ETOT 15  -29.350053105229     -7.935E-10 1.706E-03 0.000E+00
 ETOT 16  -29.350053105478     -2.490E-10 3.526E-03 0.000E+00
 ETOT 17  -29.350053105556     -7.867E-11 1.184E-03 0.000E+00
 ETOT 18  -29.350053105581     -2.490E-11 2.472E-03 0.000E+00
 ETOT 19  -29.350053105589     -7.987E-12 8.232E-04 0.000E+00
 ETOT 20  -29.350053105592     -2.522E-12 1.733E-03 0.000E+00
 ETOT 21  -29.350053105593     -8.384E-13 5.734E-04 0.000E+00
 ETOT 22  -29.350053105593     -2.522E-13 1.213E-03 0.000E+00
 ETOT 23  -29.350053105593     -9.948E-14 3.999E-04 0.000E+00
 ETOT 24  -29.350053105593     -7.105E-14 8.494E-04 0.000E+00
 ETOT 25  -29.350053105593      3.197E-14 2.791E-04 0.000E+00
 ETOT 26  -29.350053105593     -1.421E-14 5.943E-04 0.000E+00
 ETOT 27  -29.350053105593      1.066E-14 1.949E-04 0.000E+00
 ETOT 28  -29.350053105593      1.066E-14 4.158E-04 0.000E+00
[...]
 symkpt : not enough symmetry to change the number of k points.

[...]

 Perturbation wavevector (in red.coord.)   0.000000  0.000000  0.000000
 Perturbation : derivative vs k along direction   3
 The set of symmetries contains only one element for this perturbation.
 symkpt : not enough symmetry to change the number of k points.

-inwffil : will read wavefunctions from disk file /scratch/users/j/a/jabreu/flow_simple_4atoms/flow/w195/t1/indata/in_WFK

 Initialisation of the first-order wave-functions :
  ireadwf=   0

--- !BeginCycle
iteration_state: {dtset: 1, }
solver: {iscf: 7, nstep: 100, nline: 4, wfoptalg: 0, }
tolerances: {tolwfr: 1.00E-20, }
...

     iter   2DEtotal(Ha)        deltaE(Ha) residm    vres2
-ETOT  1  -28.184125139258     -2.818E+01 1.069E-01 0.000E+00
 ETOT  2  -28.285390478230     -1.013E-01 5.520E-02 0.000E+00
 ETOT  3  -28.291382332200     -5.992E-03 1.461E-02 0.000E+00
 ETOT  4  -28.292292235556     -9.099E-04 2.463E-02 0.000E+00
 ETOT  5  -28.292474293626     -1.821E-04 1.027E-02 0.000E+00
 ETOT  6  -28.292514056962     -3.976E-05 1.828E-02 0.000E+00
 ETOT  7  -28.292523416375     -9.359E-06 6.488E-03 0.000E+00
 ETOT  8  -28.292525727296     -2.311E-06 1.273E-02 0.000E+00
 ETOT  9  -28.292526324083     -5.968E-07 4.167E-03 0.000E+00
 ETOT 10  -28.292526482386     -1.583E-07 1.115E-02 0.000E+00
 ETOT 11  -28.292526525277     -4.289E-08 3.235E-03 0.000E+00
 ETOT 12  -28.292526537033     -1.176E-08 8.145E-03 0.000E+00
 ETOT 13  -28.292526540284     -3.251E-09 2.233E-03 0.000E+00
 ETOT 14  -28.292526541188     -9.034E-10 5.606E-03 0.000E+00
 ETOT 15  -28.292526541440     -2.523E-10 1.514E-03 0.000E+00
 ETOT 16  -28.292526541511     -7.048E-11 3.858E-03 0.000E+00
 ETOT 17  -28.292526541530     -1.983E-11 1.029E-03 0.000E+00
 ETOT 18  -28.292526541536     -5.627E-12 2.656E-03 0.000E+00
 ETOT 19  -28.292526541538     -1.634E-12 7.019E-04 0.000E+00
 ETOT 20  -28.292526541538     -4.547E-13 1.827E-03 0.000E+00
 ETOT 21  -28.292526541538     -1.172E-13 4.794E-04 0.000E+00
 ETOT 22  -28.292526541538     -1.776E-14 1.256E-03 0.000E+00
 ETOT 23  -28.292526541538     -6.395E-14 3.279E-04 0.000E+00
 ETOT 24  -28.292526541538      7.105E-15 8.627E-04 0.000E+00
 ETOT 25  -28.292526541538      2.487E-14 2.244E-04 0.000E+00
 ETOT 26  -28.292526541538     -2.132E-14 5.924E-04 0.000E+00
 ETOT 27  -28.292526541538      1.421E-14 1.537E-04 0.000E+00
 ETOT 28  -28.292526541538      1.066E-14 4.068E-04 0.000E+00
 ETOT 29  -28.292526541538     -2.487E-14 1.054E-04 0.000E+00
 ETOT 30  -28.292526541538      1.776E-14 2.794E-04 0.000E+00
 ETOT 31  -28.292526541538      1.066E-14 7.225E-05 0.000E+00
 ETOT 32  -28.292526541538     -1.066E-14 1.919E-04 0.000E+00
 ETOT 33  -28.292526541538      3.553E-15 4.957E-05 0.000E+00
 ETOT 34  -28.292526541538     -7.105E-15 1.318E-04 0.000E+00
 ETOT 35  -28.292526541538      3.553E-15 3.401E-05 0.000E+00
 ETOT 36  -28.292526541538      1.066E-14 9.059E-05 0.000E+00
 ETOT 37  -28.292526541538     -2.487E-14 2.335E-05 0.000E+00
 ETOT 38  -28.292526541538      3.553E-15 6.225E-05 0.000E+00
 ETOT 39  -28.292526541538     -1.421E-14 1.603E-05 0.000E+00
 ETOT 40  -28.292526541538      2.132E-14 4.278E-05 0.000E+00
 ETOT 41  -28.292526541538     -1.066E-14 1.100E-05 0.000E+00
 ETOT 42  -28.292526541538     -1.421E-14 2.940E-05 0.000E+00
 ETOT 43  -28.292526541538      1.421E-14 7.557E-06 0.000E+00
 ETOT 44  -28.292526541538      7.105E-15 2.021E-05 0.000E+00
 ETOT 45  -28.292526541538      0.000E+00 5.190E-06 0.000E+00
 ETOT 46  -28.292526541538      3.553E-15 1.389E-05 0.000E+00
 ETOT 47  -28.292526541538     -3.553E-15 3.564E-06 0.000E+00
 ETOT 48  -28.292526541538      0.000E+00 9.550E-06 0.000E+00
 ETOT 49  -28.292526541538     -3.553E-15 2.448E-06 0.000E+00
 ETOT 50  -28.292526541538     -1.776E-14 6.565E-06 0.000E+00
 ETOT 51  -28.292526541538      3.553E-15 1.682E-06 0.000E+00
 ETOT 52  -28.292526541538      1.776E-14 4.513E-06 0.000E+00
 ETOT 53  -28.292526541538     -7.105E-15 1.155E-06 0.000E+00
 ETOT 54  -28.292526541538      3.553E-15 3.103E-06 0.000E+00
 ETOT 55  -28.292526541538     -1.066E-14 7.937E-07 0.000E+00
 ETOT 56  -28.292526541538      1.066E-14 2.133E-06 0.000E+00
 ETOT 57  -28.292526541538      3.553E-15 5.453E-07 0.000E+00
 ETOT 58  -28.292526541538     -2.132E-14 1.467E-06 0.000E+00
 ETOT 59  -28.292526541538      0.000E+00 3.746E-07 0.000E+00
 ETOT 60  -28.292526541538      2.132E-14 1.009E-06 0.000E+00
 ETOT 61  -28.292526541538     -1.421E-14 2.574E-07 0.000E+00
[...]
 ETOT 86  -28.292526541538     -3.553E-15 7.766E-09 0.000E+00
 ETOT 87  -28.292526541538     -7.105E-15 1.964E-09 0.000E+00
 ETOT 88  -28.292526541538     -3.553E-15 5.342E-09 0.000E+00
 ETOT 89  -28.292526541538     -1.421E-14 1.350E-09 0.000E+00
 ETOT 90  -28.292526541538      1.421E-14 3.675E-09 0.000E+00
 ETOT 91  -28.292526541538     -1.066E-14 9.280E-10 0.000E+00
 ETOT 92  -28.292526541538     -7.105E-15 2.528E-09 0.000E+00
 ETOT 93  -28.292526541538      3.553E-15 6.379E-10 0.000E+00
 ETOT 94  -28.292526541538      1.421E-14 1.739E-09 0.000E+00
 ETOT 95  -28.292526541538     -1.421E-14 4.385E-10 0.000E+00
 ETOT 96  -28.292526541538      1.066E-14 1.196E-09 0.000E+00
 ETOT 97  -28.292526541538      7.105E-15 3.014E-10 0.000E+00
 ETOT 98  -28.292526541538     -3.553E-15 8.229E-10 0.000E+00
 ETOT 99  -28.292526541538      3.553E-15 2.072E-10 0.000E+00
 ETOT  100  -28.292526541538      3.553E-15 5.661E-10 0.000E+00

 scprqt:  WARNING -
  nstep=  100 was not enough SCF cycles to converge;
  maximum residual=  5.661E-10 exceeds tolwfr=  1.000E-20

 ----iterations are completed or convergence reached----

 Mean square residual over all n,k,spin=   13.485E-12; max=  56.606E-11
 dfpt_looppert : ek2=    5.3945736926E+01
          f-sum rule ratio=    1.0688893682E+00
 prteigrs : about to open file /scratch/users/j/a/jabreu/flow_simple_4atoms/flow/w195/t1/tmpdata/tmp_1WF1_EIG
 Expectation of eigenvalue derivatives (hartree) for nkpt=   2  k points:
  (in case of degenerate eigenvalues, averaged derivative)
 kpt#   1, nband= 25, wtk=  0.50000, kpt=  0.0000  0.0000  0.0000 (reduced coord)
  -0.00000    0.00000    0.00000   -0.00000   -0.00000   -0.00000    0.00000    0.00000
  -0.00000   -0.00000   -0.00000    0.00000    0.00000    0.00000    0.00000    0.00000
  -0.00000   -0.00000   -0.00000    0.00000    0.00000   -0.00000    0.00000   -0.00000
   0.00000
 prteigrs : prtvol=0 or 1, do not print more k-points.

 Eight components of 2nd-order total energy (hartree) are
 1,2,3: 0th-order hamiltonian combined with 1st-order wavefunctions
     kin0=   5.28552804E+01 eigvalue=   6.16969890E-01  local=  -3.33794915E+01
 4,5,6: 1st-order hamiltonian combined with 1st and 0th-order wfs
     kin1=  -5.76620247E+01  Hartree=   0.00000000E+00     xc=   0.00000000E+00
 7,8,9: eventually, occupation + non-local contributions
    edocc=   7.49720474E+00     enl0=   7.02563022E-01   enl1=   1.07697158E+00
 1-9 gives the relaxation energy (to be shifted if some occ is /=2.0)
   erelax=  -2.82925265E+01
  No Ewald or frozen-wf contrib.: the relaxation energy is the total one
 2DEtotal=   -0.2829252654E+02 Ha. Also 2DEtotal=   -0.769878800091E+03 eV
    (  non-var. 2DEtotal :   -2.8292526541E+01 Ha)

 CALCULATION OF EFFECTIVE MASSES
 NOTE : Additional infos (eff. mass eigenvalues, eigenvectors and, if degenerate, average mass) are available in stdout.

 COMMENTS:
 - At k-point ( 0.000, 0.000, 0.000), bands    15 through    16
   are DEGENERATE (effective mass tensor is therefore not defined).
   See Section IIIB Eqs. (67)-(70) and Appendix E of PRB 93 205147 (2016).
 - Angular average effective mass for Frohlich model is to be averaged over degenerate bands. See later.
 - Associated theta integrals calculated with ntheta=   1000 points.

 K-point ( 0.000, 0.000, 0.000) | band =    15
 Transport equivalent effective mass tensor:
             -0.5250179188             -0.1001653361             -0.5678120627
             -0.1001653361             -0.4217680480             -0.3461419971
             -0.5678120627             -0.3461419971             -2.3228728908
 Transport equivalent effective mass tensor eigenvalues:
             -2.5482483923             -0.3607065674             -0.3607038978
 Angular average effective mass 1/(<1/m>)=  -0.4807174679
 Angular average effective mass for Frohlich model (<m**0.5>)**2=  -0.5610741342
 Effective masses along directions: (cart. coord. / red. coord. -> eff. mass)
    1:   1.000000  0.000000  0.000000 /   0.909135  0.416502  0.000000 ->  -0.3656076938
    2:   0.000000  1.000000  0.000000 /   0.000000  1.000000  0.000000 ->  -0.3461995147
    3:   0.000000  0.000000  1.000000 /   0.542407  0.542407  0.641552 ->  -1.3313883368
    4:   0.577350  0.577350  0.577350 /   0.596316  0.676424  0.432270 ->  -0.8061298345
    5:   0.000000  0.707107  0.707107 /   0.454679  0.709965  0.537788 ->  -0.6903390459
    6:   0.707107  0.000000  0.707107 /   0.682003  0.538939  0.494385 ->  -0.8701993105
    7:   0.707107  0.707107  0.000000 /   0.596078  0.802926  0.000000 ->  -0.3842594719

 K-point ( 0.000, 0.000, 0.000) | band =    16
 Transport equivalent effective mass tensor:
             -1.9907049384             -0.0871415523             -0.4939809660
             -0.0871415523             -1.9008791796             -0.3011335246
             -0.4939809660             -0.3011335246             -3.5548192386
 Transport equivalent effective mass tensor eigenvalues:
             -3.7508865422             -1.8477595355             -1.8477572788
 Angular average effective mass 1/(<1/m>)=  -1.7279499835
 Angular average effective mass for Frohlich model (<m**0.5>)**2=  -1.7901683513
 Effective masses along directions: (cart. coord. / red. coord. -> eff. mass)
    1:   1.000000  0.000000  0.000000 /   0.909135  0.416502  0.000000 ->  -1.5566446869
    2:   0.000000  1.000000  0.000000 /   0.000000  1.000000  0.000000 ->  -1.6117909149
    3:   0.000000  0.000000  1.000000 /   0.542407  0.542407  0.641552 ->  -2.9479186221
    4:   0.577350  0.577350  0.577350 /   0.596316  0.676424  0.432270 ->  -1.7910350215
    5:   0.000000  0.707107  0.707107 /   0.454679  0.709965  0.537788 ->  -2.4348703032
    6:   0.707107  0.000000  0.707107 /   0.682003  0.538939  0.494385 ->  -2.7592867906
    7:   0.707107  0.707107  0.000000 /   0.596078  0.802926  0.000000 ->  -1.4017030651

 Angular average effective mass for Frohlich model, averaged over degenerate bands.
 Value of     (<<m**0.5>>)**2 =     1.088914E+00
 Absolute Value of <<m**0.5>> =     1.043510E+00

 K-point ( 0.500, 0.500, 0.000) | band =    17
 Effective mass tensor:
              0.8777043515              0.2328947350             -0.5710995930
              0.2328947350              0.6376370702             -0.3481458046
             -0.5710995930             -0.3481458046              1.3793171862
 Effective mass tensor eigenvalues:
              0.4956630154              0.5068974357              1.8920981568
 Angular average effective mass 1/(<1/m>)=   0.6638931846
 Angular average effective mass for Frohlich model (<m**0.5>)**2=   0.7236022719
 Effective masses along directions: (cart. coord. / red. coord. -> eff. mass)
    1:   1.000000  0.000000  0.000000 /   0.909135  0.416502  0.000000 ->   0.6269172319
    2:   0.000000  1.000000  0.000000 /   0.000000  1.000000  0.000000 ->   0.5374811781
    3:   0.000000  0.000000  1.000000 /   0.542407  0.542407  0.641552 ->   0.9405903841
    4:   0.577350  0.577350  0.577350 /   0.596316  0.676424  0.432270 ->   0.5066964189
    5:   0.000000  0.707107  0.707107 /   0.454679  0.709965  0.537788 ->   0.5479937126
    6:   0.707107  0.000000  0.707107 /   0.682003  0.538939  0.494385 ->   0.5195916436
    7:   0.707107  0.707107  0.000000 /   0.596078  0.802926  0.000000 ->   0.6801215907

 END OF EFFECTIVE MASSES SECTION

 ---- first-order wavefunction calculations are completed ----

 Total localisation tensor (bohr^2) in cartesian coordinates
  WARNING : still subject to testing - especially symmetries.
      direction              matrix element
   alpha     beta       real part   imaginary part
     1        1       2.3992197222    0.0000000000
     1        2       0.8075341534    0.0000000000
     1        3       4.5776898311    0.0000000000
     2        1       0.8075341534    0.0000000000
     2        2       1.5668145330    0.0000000000
     2        3       2.7905866517    0.0000000000
     3        1       4.5776898311    0.0000000000
     3        2       2.7905866517    0.0000000000
     3        3      16.0836482469    0.0000000000

 respfn : d/dk was computed, but no 2DTE, so no DDB output.

== END DATASET(S) ==============================================================

 -outvars: echo values of variables after computation  --------
            acell      1.0000000000E+00  1.0000000000E+00  1.0000000000E+00 Bohr
              amu      3.90983000E+01  1.38905500E+02  3.20660000E+01
             ecut      5.20000000E+01 Hartree
           etotal     -2.8292526542E+01
            fcart      0.0000000000E+00  0.0000000000E+00  0.0000000000E+00
                       0.0000000000E+00  0.0000000000E+00  0.0000000000E+00
                       0.0000000000E+00  0.0000000000E+00  0.0000000000E+00
                       0.0000000000E+00  0.0000000000E+00  0.0000000000E+00
-          fftalg         512
           irdden           1
           irdwfk           1
           istwfk        1    1
              ixc     -116133
              kpt      0.00000000E+00  0.00000000E+00  0.00000000E+00
                       5.00000000E-01  5.00000000E-01  0.00000000E+00
           kptopt           0
P           mkmem           2
P          mkqmem           2
P          mk1mem           2
            natom           4
            nband          25
           nbdbuf           4
            ngfft          96      96      96
             nkpt           2
            nstep         100
             nsym          12
           ntypat           3
              occ      2.000000  2.000000  2.000000  2.000000  2.000000  2.000000
                       2.000000  2.000000  2.000000  2.000000  2.000000  2.000000
                       2.000000  2.000000  2.000000  2.000000  0.000000  0.000000
                       0.000000  0.000000  0.000000  0.000000  0.000000  0.000000
                       0.000000
        optdriver           1
            prtwf          -1
            rfdir           1       1       1
           rfelfd           2
            rprim      7.6992011619E+00  0.0000000000E+00  1.2189031843E+01
                       3.5272366488E+00  6.8437051481E+00  1.2189031843E+01
                       0.0000000000E+00  0.0000000000E+00  1.4417010640E+01
          spgroup         166
           strten      0.0000000000E+00  0.0000000000E+00  0.0000000000E+00
                       0.0000000000E+00  0.0000000000E+00  0.0000000000E+00
           symrel      1  0  0   0  1  0   0  0  1      -1  0  0   0 -1  0   0  0 -1
                       0  1  0   1  0  0   0  0  1       0 -1  0  -1  0  0   0  0 -1
                       0  0  1   1  0  0   0  1  0       0  0 -1  -1  0  0   0 -1  0
                       1  0  0   0  0  1   0  1  0      -1  0  0   0  0 -1   0 -1  0
                       0  1  0   0  0  1   1  0  0       0 -1  0   0  0 -1  -1  0  0
                       0  0  1   0  1  0   1  0  0       0  0 -1   0 -1  0  -1  0  0
           tolwfr      1.00000000E-20
            typat      1  2  3  3
           useylm           1
              wtk        0.50000    0.50000
           xangst      2.9703875115E+00  1.8107663933E+00  1.0264734569E+01
                       0.0000000000E+00  0.0000000000E+00  0.0000000000E+00
                       1.5656674942E+00  9.5444047980E-01  5.4104594735E+00
                       4.3751075288E+00  2.6670923069E+00  1.5119009665E+01
            xcart      5.6132189053E+00  3.4218525740E+00  1.9397537163E+01
                       0.0000000000E+00  0.0000000000E+00  0.0000000000E+00
                       2.9586827793E+00  1.8036311170E+00  1.0224286658E+01
                       8.2677550314E+00  5.0400740311E+00  2.8570787667E+01
             xred      5.0000000000E-01  5.0000000000E-01  5.0000000000E-01
                       0.0000000000E+00  0.0000000000E+00  0.0000000000E+00
                       2.6354600000E-01  2.6354600000E-01  2.6354600000E-01
                       7.3645400000E-01  7.3645400000E-01  7.3645400000E-01
            znucl       19.00000   57.00000   16.00000

- Timing analysis has been suppressed with timopt=0

 Suggested references for the acknowledgment of ABINIT usage.

 Calculation completed.
.Delivered  17 WARNINGs and   9 COMMENTs to log file.