.Version 9.5.2 of ABINIT

 ABINIT is a project of the Universite Catholique de Louvain,
 Corning Inc. and other collaborators, see ~abinit/doc/developers/contributors.txt .
 acknowledgments of the ABINIT effort.

.Starting date : Mon 24 May 2021.
- ( at 11h18 )

- input  file    -> /scratch/users/j/a/jabreu/flow_simple_10atoms/flow/w311/t1/run.abi
- output file    -> /scratch/users/j/a/jabreu/flow_simple_10atoms/flow/w311/t1/run.abo
- root for input  files -> /scratch/users/j/a/jabreu/flow_simple_10atoms/flow/w311/t1/indata/in
- root for output files -> /scratch/users/j/a/jabreu/flow_simple_10atoms/flow/w311/t1/outdata/out

 Symmetries : space group R3 m (#160); Bravais hR (rhombohedral)
     intxc =       0      iscf =       7    lmnmax =      18     lnmax =       6
     mgfft =     144  mpssoang =       3    mqgrid =    3001     natom =      10
  nloc_mem =       1    nspden =       1   nspinor =       1    nsppol =       1
      nsym =       6    n1xccc =    2501    ntypat =       2    occopt =       1
   xclevel =       2
-    mband =          29        mffmem =           1         mkmem =           2
-   mkqmem =           2        mk1mem =           2           mpw =        8835
      nfft =     2985984          nkpt =           2
  Rough estimation (10% accuracy) of disk space for files :

------------- Echo of variables that govern the present computation ------------
-
- outvars: echo of selected default values
-   iomode0 =  0 , fftalg0 =512 , wfoptalg0 =  0
-
- outvars: echo of global parameters not present in the input file
-  max_nthreads =    0
-
 -outvars: echo values of preprocessed input variables --------
            acell      1.0000000000E+00  1.0000000000E+00  1.0000000000E+00 Bohr
              amu      2.80855000E+01  1.20110000E+01
             ecut      4.10000000E+01 Hartree
-          fftalg         512
           irdden           1
           irdwfk           1
           istwfk        1    1
              ixc     -116133
              kpt      0.00000000E+00  0.00000000E+00  0.00000000E+00
                       5.00000000E-01  5.00000000E-01  0.00000000E+00
           kptopt           0
P           mkmem           2
P          mkqmem           2
P          mk1mem           2
            natom          10
            nband          29
           nbdbuf           4
            ngfft         144     144     144
             nkpt           2
            nstep        2000
             nsym           6
           ntypat           2
              occ      2.000000  2.000000  2.000000  2.000000  2.000000  2.000000
                       2.000000  2.000000  2.000000  2.000000  2.000000  2.000000
                       2.000000  2.000000  2.000000  2.000000  2.000000  2.000000
                       2.000000  2.000000  0.000000  0.000000  0.000000  0.000000
                       0.000000  0.000000  0.000000  0.000000  0.000000
        optdriver           1
            prtwf          -1
            rfdir           1       1       1
           rfelfd           2
            rprim      5.7782111701E+00  0.0000000000E+00  2.3314778285E+01
                       2.8460541963E+00  5.0286876855E+00  2.3314778285E+01
                       0.0000000000E+00  0.0000000000E+00  2.4020129284E+01
          spgroup         160
           symrel      1  0  0   0  1  0   0  0  1       0  1  0   1  0  0   0  0  1
                       0  0  1   1  0  0   0  1  0       1  0  0   0  0  1   0  1  0
                       0  1  0   0  0  1   1  0  0       0  0  1   0  1  0   1  0  0
           tolwfr      1.00000000E-20
            typat      1  1  1  1  1  2  2  2  2  2
           useylm           1
              wtk        0.50000    0.50000
           xangst      4.1834798538E+00  2.4393281897E+00  3.4270923365E+01
                       2.9665200575E+00  1.7297360701E+00  2.4301630486E+01
                       2.0539268547E+00  1.1976158249E+00  1.6825698293E+01
                       8.3709940757E-01  4.8810087625E-01  6.8574896134E+00
                       2.2842098563E-01  1.3318906003E-01  1.8712168738E+00
                       3.9551501435E+00  2.3061923510E+00  3.2400454215E+01
                       2.7375422926E+00  1.5962223599E+00  2.2425852495E+01
                       1.8249353985E+00  1.0640941315E+00  1.4949808144E+01
                       6.0876969722E-01  3.5496503756E-01  4.9870204637E+00
                       1.5516799887E-04  9.0476275018E-05  1.2711309206E-03
            xcart      7.9056312062E+00  4.6096622267E+00  6.4762659481E+01
                       5.6059104764E+00  3.2687274546E+00  4.5923426200E+01
                       3.8813592524E+00  2.2631659215E+00  3.1795961768E+01
                       1.5818886263E+00  9.2237698134E-01  1.2958777328E+01
                       4.3165310585E-01  2.5169084735E-01  3.5360874267E+00
                       7.4741505857E+00  4.3580719531E+00  6.1227985048E+01
                       5.1732052102E+00  3.0164231073E+00  4.2378719512E+01
                       3.4486281134E+00  2.0108464882E+00  2.8251043131E+01
                       1.1504080058E+00  6.7078670774E-01  9.4241028955E+00
                       2.9322502246E-04  1.7097538131E-04  2.4020893190E-03
             xred      9.1667300000E-01  9.1667300000E-01  9.1667300000E-01
                       6.5001600000E-01  6.5001600000E-01  6.5001600000E-01
                       4.5005100000E-01  4.5005100000E-01  4.5005100000E-01
                       1.8342300000E-01  1.8342300000E-01  1.8342300000E-01
                       5.0051000000E-02  5.0051000000E-02  5.0051000000E-02
                       8.6664200000E-01  8.6664200000E-01  8.6664200000E-01
                       5.9984300000E-01  5.9984300000E-01  5.9984300000E-01
                       3.9987500000E-01  3.9987500000E-01  3.9987500000E-01
                       1.3339200000E-01  1.3339200000E-01  1.3339200000E-01
                       3.4000000000E-05  3.4000000000E-05  3.4000000000E-05
            znucl       14.00000    6.00000

 chkinp: Checking input parameters for consistency.

== DATASET  1 ==================================================================
-   mpi_nproc: 1, omp_nthreads: -1 (-1 if OMP is not activated)

--- !DatasetInfo
iteration_state: {dtset: 1, }
dimensions: {natom: 10, nkpt: 2, mband: 29, nsppol: 1, nspinor: 1, nspden: 1, mpw: 8835, }
cutoff_energies: {ecut:  41.0, pawecutdg:  -1.0, }
electrons: {nelect:   4.00000000E+01, charge:   0.00000000E+00, occopt:   1.00000000E+00, tsmear:   1.00000000E-02, }
meta: {optdriver: 1, rfelfd: 2, }
...

 Real(R)+Recip(G) space primitive vectors, cartesian coordinates (Bohr,Bohr^-1):
 R(1)=  5.7782112  0.0000000 23.3147783  G(1)=  0.1730639 -0.0979479  0.0000000
 R(2)=  2.8460542  5.0286877 23.3147783  G(2)=  0.0000000  0.1988590  0.0000000
 R(3)=  0.0000000  0.0000000 24.0201293  G(3)= -0.1679819 -0.0979479  0.0416317
 Unit cell volume ucvol=  6.9794856E+02 bohr^3
 Angles (23,13,12)=  1.39194196E+01  1.39194196E+01  1.39194196E+01 degrees

 getcut: wavevector=  0.0000  0.0000  0.0000  ngfft= 144 144 144
         ecut(hartree)=     41.000   => boxcut(ratio)=   2.07990

--- Pseudopotential description ------------------------------------------------
- pspini: atom type   1  psp file is /scratch/users/j/a/jabreu/pseudos/PBEsol/Si.psp8
- pspatm: opening atomic psp file    /scratch/users/j/a/jabreu/pseudos/PBEsol/Si.psp8
- Si    ONCVPSP-3.3.0  r_core=   1.60303   1.72197   1.91712
- 14.00000   4.00000    180112                znucl, zion, pspdat
    8 -116133    2    4       600   0.00000   pspcod,pspxc,lmax,lloc,mmax,r2well
    5.99000000000000    4.00000000000000    0.00000000000000   rchrg,fchrg,qchrg
     nproj     2     2     2
     extension_switch     1
  pspatm : epsatm=    7.86468782
         --- l  ekb(1:nproj) -->
             0    5.384426    0.843824
             1    2.663259    0.615854
             2   -2.267219   -0.458043
 pspatm: atomic psp has been read  and splines computed

- pspini: atom type   2  psp file is /scratch/users/j/a/jabreu/pseudos/PBEsol/C.psp8
- pspatm: opening atomic psp file    /scratch/users/j/a/jabreu/pseudos/PBEsol/C.psp8
- C     ONCVPSP-3.3.0  r_core=   1.20440   1.26326
-  6.00000   4.00000    180112                znucl, zion, pspdat
    8 -116133    1    4       600   0.00000   pspcod,pspxc,lmax,lloc,mmax,r2well
    5.99000000000000    4.00000000000000    0.00000000000000   rchrg,fchrg,qchrg
     nproj     2     2
     extension_switch     1
  pspatm : epsatm=    4.34909529
         --- l  ekb(1:nproj) -->
             0    6.468939    0.390031
             1   -4.179695   -0.878453
 pspatm: atomic psp has been read  and splines computed

   2.44275662E+03                                ecore*ucvol(ha*bohr**3)

 ==>  initialize data related to q vector <==

 The list of irreducible perturbations for this q vector is:
    1)    idir= 1    ipert=  11
    2)    idir= 2    ipert=  11
    3)    idir= 3    ipert=  11

 Perturbation wavevector (in red.coord.)   0.000000  0.000000  0.000000
 Perturbation : derivative vs k along direction   1

 dfpt_looppert : COMMENT -
  In a d/dk calculation, iscf is set to -3 automatically.
 The set of symmetries contains only one element for this perturbation.
 symkpt : not enough symmetry to change the number of k points.

 Initialisation of the first-order wave-functions :
  ireadwf=   0

--- !BeginCycle
iteration_state: {dtset: 1, }
solver: {iscf: 7, nstep: 2000, nline: 4, wfoptalg: 0, }
tolerances: {tolwfr: 1.00E-20, }
...

     iter   2DEtotal(Ha)        deltaE(Ha) residm    vres2
-ETOT  1  -113.08611433959     -1.131E+02 2.172E-01 0.000E+00
 ETOT  2  -113.16516958077     -7.906E-02 1.395E-02 0.000E+00
 ETOT  3  -113.16563955937     -4.700E-04 5.858E-03 0.000E+00
 ETOT  4  -113.16564419707     -4.638E-06 6.613E-04 0.000E+00
 ETOT  5  -113.16564425008     -5.301E-08 2.668E-04 0.000E+00
 ETOT  6  -113.16564425072     -6.371E-10 3.037E-05 0.000E+00
 ETOT  7  -113.16564425073     -7.688E-12 1.207E-05 0.000E+00
 ETOT  8  -113.16564425073     -4.974E-13 1.535E-06 0.000E+00
 ETOT  9  -113.16564425073      1.279E-13 6.229E-07 0.000E+00
 ETOT 10  -113.16564425073      1.705E-13 8.226E-08 0.000E+00
 ETOT 11  -113.16564425073     -1.421E-13 3.401E-08 0.000E+00
 ETOT 12  -113.16564425073      1.421E-14 4.505E-09 0.000E+00
 ETOT 13  -113.16564425073      1.421E-14 1.886E-09 0.000E+00
 ETOT 14  -113.16564425073      0.000E+00 2.492E-10 0.000E+00
 ETOT 15  -113.16564425073      5.684E-14 1.055E-10 0.000E+00
 ETOT 16  -113.16564425073     -2.842E-14 1.387E-11 0.000E+00
 ETOT 17  -113.16564425073     -2.842E-14 5.938E-12 0.000E+00
 ETOT 18  -113.16564425073      0.000E+00 7.766E-13 0.000E+00
 ETOT 19  -113.16564425073      2.842E-14 3.361E-13 0.000E+00
 ETOT 20  -113.16564425073     -2.842E-14 4.366E-14 0.000E+00
 ETOT 21  -113.16564425073     -2.842E-14 1.910E-14 0.000E+00
 ETOT 22  -113.16564425073      5.684E-14 2.464E-15 0.000E+00
 ETOT 23  -113.16564425073     -2.842E-14 1.089E-15 0.000E+00
 ETOT 24  -113.16564425073      2.842E-14 1.396E-16 0.000E+00
 ETOT 25  -113.16564425073     -1.421E-14 6.232E-17 0.000E+00
[...]
   0.00000    0.00000    0.00000    0.00000    0.00000   -0.00000   -0.00000    0.00000
   0.00000    0.00000    0.00000    0.00000    0.00000    0.00000   -0.00000    0.00000
   0.00000    0.00000    0.00000    0.00000    0.00000
 prteigrs : prtvol=0 or 1, do not print more k-points.

 Eight components of 2nd-order total energy (hartree) are
 1,2,3: 0th-order hamiltonian combined with 1st-order wavefunctions
     kin0=   1.06721959E+02 eigvalue=  -1.96771465E+01  local=  -5.00533380E+01
 4,5,6: 1st-order hamiltonian combined with 1st and 0th-order wfs
     kin1=  -2.42602020E+02  Hartree=   0.00000000E+00     xc=   0.00000000E+00
 7,8,9: eventually, occupation + non-local contributions
    edocc=   7.14765521E+01     enl0=   4.69761783E+00   enl1=   1.62707311E+01
 1-9 gives the relaxation energy (to be shifted if some occ is /=2.0)
   erelax=  -1.13165644E+02
  No Ewald or frozen-wf contrib.: the relaxation energy is the total one
 2DEtotal=   -0.1131656443E+03 Ha. Also 2DEtotal=   -0.307939378547E+04 eV
    (  non-var. 2DEtotal :   -1.1316564425E+02 Ha)

 Perturbation wavevector (in red.coord.)   0.000000  0.000000  0.000000
 Perturbation : derivative vs k along direction   2
 The set of symmetries contains only one element for this perturbation.
 symkpt : not enough symmetry to change the number of k points.

[...]

 Perturbation wavevector (in red.coord.)   0.000000  0.000000  0.000000
 Perturbation : derivative vs k along direction   3
 The set of symmetries contains only one element for this perturbation.
 symkpt : not enough symmetry to change the number of k points.

 Initialisation of the first-order wave-functions :
  ireadwf=   0

--- !BeginCycle
iteration_state: {dtset: 1, }
solver: {iscf: 7, nstep: 2000, nline: 4, wfoptalg: 0, }
tolerances: {tolwfr: 1.00E-20, }
...

     iter   2DEtotal(Ha)        deltaE(Ha) residm    vres2
-ETOT  1  -83.767998817591     -8.377E+01 2.172E-01 0.000E+00
 ETOT  2  -83.841996559825     -7.400E-02 1.395E-02 0.000E+00
 ETOT  3  -83.842409754924     -4.132E-04 5.858E-03 0.000E+00
 ETOT  4  -83.842413879297     -4.124E-06 6.613E-04 0.000E+00
 ETOT  5  -83.842413927680     -4.838E-08 2.668E-04 0.000E+00
 ETOT  6  -83.842413928276     -5.957E-10 3.037E-05 0.000E+00
 ETOT  7  -83.842413928283     -7.162E-12 1.207E-05 0.000E+00
 ETOT  8  -83.842413928283     -8.527E-14 1.535E-06 0.000E+00
 ETOT  9  -83.842413928284     -2.274E-13 6.229E-07 0.000E+00
 ETOT 10  -83.842413928284      2.842E-14 8.226E-08 0.000E+00
 ETOT 11  -83.842413928283      1.563E-13 3.401E-08 0.000E+00
 ETOT 12  -83.842413928283      4.263E-14 4.504E-09 0.000E+00
 ETOT 13  -83.842413928283     -2.842E-14 1.886E-09 0.000E+00
 ETOT 14  -83.842413928283      2.842E-14 2.491E-10 0.000E+00
 ETOT 15  -83.842413928283      0.000E+00 1.054E-10 0.000E+00
 ETOT 16  -83.842413928283     -2.842E-14 1.387E-11 0.000E+00
 ETOT 17  -83.842413928283      0.000E+00 5.937E-12 0.000E+00
 ETOT 18  -83.842413928283      2.842E-14 7.765E-13 0.000E+00
 ETOT 19  -83.842413928283     -2.842E-14 3.361E-13 0.000E+00
 ETOT 20  -83.842413928283      0.000E+00 4.365E-14 0.000E+00
 ETOT 21  -83.842413928283      1.421E-14 1.910E-14 0.000E+00
 ETOT 22  -83.842413928283      1.421E-14 2.463E-15 0.000E+00
 ETOT 23  -83.842413928283     -2.842E-14 1.089E-15 0.000E+00
 ETOT 24  -83.842413928283      0.000E+00 1.396E-16 0.000E+00
 ETOT 25  -83.842413928283      0.000E+00 6.230E-17 0.000E+00
 ETOT 26  -83.842413928283      1.421E-14 7.939E-18 0.000E+00
 ETOT 27  -83.842413928283      0.000E+00 3.576E-18 0.000E+00
 ETOT 28  -83.842413928283      0.000E+00 4.538E-19 0.000E+00
 ETOT 29  -83.842413928283     -1.421E-14 2.062E-19 0.000E+00
 ETOT 30  -83.842413928283      1.421E-14 2.610E-20 0.000E+00
 ETOT 31  -83.842413928283     -1.421E-14 1.195E-20 0.000E+00
 ETOT 32  -83.842413928283      0.000E+00 9.906E-21 0.000E+00

 At SCF step   32   max residual=  9.91E-21 < tolwfr=  1.00E-20 =>converged.

 ----iterations are completed or convergence reached----

 dfpt_looppert: DFPT cycle converged with prtwf=-1. Will skip output of the 1st-order WFK file.
 dfpt_looppert : ek2=    1.2489366089E+02
          f-sum rule ratio=    1.4150427147E+00
 prteigrs : about to open file /scratch/users/j/a/jabreu/flow_simple_10atoms/flow/w311/t1/tmpdata/tmp_1WF1_EIG
 Expectation of eigenvalue derivatives (hartree) for nkpt=   2  k points:
  (in case of degenerate eigenvalues, averaged derivative)
 kpt#   1, nband= 29, wtk=  0.50000, kpt=  0.0000  0.0000  0.0000 (reduced coord)
  -0.00000    0.00000   -0.00000   -0.00000    0.00000    0.00000    0.00000    0.00000
  -0.00000   -0.00000   -0.00000    0.00000    0.00000    0.00000    0.00000   -0.00000
  -0.00000    0.00000    0.00000    0.00000    0.00000   -0.00000    0.00000   -0.00000
   0.00000   -0.00000   -0.00000   -0.00000   -0.00000
 prteigrs : prtvol=0 or 1, do not print more k-points.

 Eight components of 2nd-order total energy (hartree) are
 1,2,3: 0th-order hamiltonian combined with 1st-order wavefunctions
     kin0=   1.01958068E+02 eigvalue=  -1.84324542E+01  local=  -4.79509772E+01
 4,5,6: 1st-order hamiltonian combined with 1st and 0th-order wfs
     kin1=  -1.76729865E+02  Hartree=   0.00000000E+00     xc=   0.00000000E+00
 7,8,9: eventually, occupation + non-local contributions
    edocc=   4.38574892E+01     enl0=   4.41028755E+00   enl1=   9.04503709E+00
 1-9 gives the relaxation energy (to be shifted if some occ is /=2.0)
   erelax=  -8.38424139E+01
  No Ewald or frozen-wf contrib.: the relaxation energy is the total one
 2DEtotal=   -0.8384241393E+02 Ha. Also 2DEtotal=   -0.228146810915E+04 eV
    (  non-var. 2DEtotal :   -8.3842413928E+01 Ha)

 CALCULATION OF EFFECTIVE MASSES
 NOTE : Additional infos (eff. mass eigenvalues, eigenvectors and, if degenerate, average mass) are available in stdout.

 COMMENTS:
 - At k-point ( 0.000, 0.000, 0.000), bands    19 through    20
   are DEGENERATE (effective mass tensor is therefore not defined).
   See Section IIIB Eqs. (67)-(70) and Appendix E of PRB 93 205147 (2016).
 - Angular average effective mass for Frohlich model is to be averaged over degenerate bands. See later.
 - Associated theta integrals calculated with ntheta=   1000 points.

 K-point ( 0.000, 0.000, 0.000) | band =    19
 Transport equivalent effective mass tensor:
             -0.3347823142             -0.0114466497             -0.1608162546
             -0.0114466497             -0.3218266408             -0.0937696672
             -0.1608162546             -0.0937696672             -1.6325526312
 Transport equivalent effective mass tensor eigenvalues:
             -1.6588579244             -0.3151523315             -0.3151513303
 Angular average effective mass 1/(<1/m>)=  -0.4171849502
 Angular average effective mass for Frohlich model (<m**0.5>)**2=  -0.4712149430
 Effective masses along directions: (cart. coord. / red. coord. -> eff. mass)
    1:   1.000000  0.000000  0.000000 /   0.897085  0.441859  0.000000 ->  -0.3085654587
    2:   0.000000  1.000000  0.000000 /   0.000000  1.000000  0.000000 ->  -0.3042606700
    3:   0.000000  0.000000  1.000000 /   0.571529  0.571529  0.588820 ->  -1.4022043738
    4:   0.577350  0.577350  0.577350 /   0.594334  0.637164  0.490702 ->  -0.5126207571
    5:   0.000000  0.707107  0.707107 /   0.531545  0.646193  0.547626 ->  -0.5193504303
    6:   0.707107  0.000000  0.707107 /   0.633692  0.569825  0.523197 ->  -0.5905788002
    7:   0.707107  0.707107  0.000000 /   0.591590  0.806239  0.000000 ->  -0.3124501419

 K-point ( 0.000, 0.000, 0.000) | band =    20
 Transport equivalent effective mass tensor:
             -4.8065397798              0.0156867657              0.2203847528
              0.0156867657             -4.8242993124              0.1285054022
              0.2203847528              0.1285054022             -3.0280522212
 Transport equivalent effective mass tensor eigenvalues:
             -4.8334461483             -4.8334422426             -2.9920029225
 Angular average effective mass 1/(<1/m>)=  -2.5033361323
 Angular average effective mass for Frohlich model (<m**0.5>)**2=  -2.6702349056
 Effective masses along directions: (cart. coord. / red. coord. -> eff. mass)
    1:   1.000000  0.000000  0.000000 /   0.897085  0.441859  0.000000 ->  -3.3190877762
    2:   0.000000  1.000000  0.000000 /   0.000000  1.000000  0.000000 ->  -3.5973504136
    3:   0.000000  0.000000  1.000000 /   0.571529  0.571529  0.588820 ->  -1.7557280928
    4:   0.577350  0.577350  0.577350 /   0.594334  0.637164  0.490702 ->  -1.8623451352
    5:   0.000000  0.707107  0.707107 /   0.531545  0.646193  0.547626 ->  -2.9855050262
    6:   0.707107  0.000000  0.707107 /   0.633692  0.569825  0.523197 ->  -2.2769658084
    7:   0.707107  0.707107  0.000000 /   0.591590  0.806239  0.000000 ->  -3.0036859804

 Angular average effective mass for Frohlich model, averaged over degenerate bands.
 Value of     (<<m**0.5>>)**2 =     1.346222E+00
 Absolute Value of <<m**0.5>> =     1.160268E+00

 K-point ( 0.500, 0.500, 0.000) | band =    21
 Effective mass tensor:
              0.5805727959              0.2132801824              0.1355736751
              0.2132801824              0.3391572055              0.0790504468
              0.1355736751              0.0790504468              0.4216600795
 Effective mass tensor eigenvalues:
              0.2147960144              0.3518964155              0.7746976509
 Angular average effective mass 1/(<1/m>)=   0.3413687215
 Angular average effective mass for Frohlich model (<m**0.5>)**2=   0.3675975183
 Effective masses along directions: (cart. coord. / red. coord. -> eff. mass)
    1:   1.000000  0.000000  0.000000 /   0.897085  0.441859  0.000000 ->   0.4281677484
    2:   0.000000  1.000000  0.000000 /   0.000000  1.000000  0.000000 ->   0.2586131206
    3:   0.000000  0.000000  1.000000 /   0.571529  0.571529  0.588820 ->   0.3867217803
    4:   0.577350  0.577350  0.577350 /   0.594334  0.637164  0.490702 ->   0.6654836605
    5:   0.000000  0.707107  0.707107 /   0.531545  0.646193  0.547626 ->   0.3405597339
    6:   0.707107  0.000000  0.707107 /   0.633692  0.569825  0.523197 ->   0.5093281070
    7:   0.707107  0.707107  0.000000 /   0.591590  0.806239  0.000000 ->   0.5719639098

 END OF EFFECTIVE MASSES SECTION

 ---- first-order wavefunction calculations are completed ----

 Total localisation tensor (bohr^2) in cartesian coordinates
  WARNING : still subject to testing - especially symmetries.
      direction              matrix element
   alpha     beta       real part   imaginary part
     1        1       5.0755239521    0.0000000000
     1        2       1.7508930300    0.0000000000
     1        3      24.5988351438    0.0000000000
     2        1       1.7508930300    0.0000000000
     2        2       3.0936495272    0.0000000000
     2        3      14.3432556027    0.0000000000
     3        1      24.5988351438    0.0000000000
     3        2      14.3432556027    0.0000000000
     3        3     179.5474611584    0.0000000000

 respfn : d/dk was computed, but no 2DTE, so no DDB output.

== END DATASET(S) ==============================================================

 -outvars: echo values of variables after computation  --------
            acell      1.0000000000E+00  1.0000000000E+00  1.0000000000E+00 Bohr
              amu      2.80855000E+01  1.20110000E+01
             ecut      4.10000000E+01 Hartree
           etotal     -8.3842413928E+01
            fcart      0.0000000000E+00  0.0000000000E+00  0.0000000000E+00
                       0.0000000000E+00  0.0000000000E+00  0.0000000000E+00
                       0.0000000000E+00  0.0000000000E+00  0.0000000000E+00
                       0.0000000000E+00  0.0000000000E+00  0.0000000000E+00
                       0.0000000000E+00  0.0000000000E+00  0.0000000000E+00
                       0.0000000000E+00  0.0000000000E+00  0.0000000000E+00
                       0.0000000000E+00  0.0000000000E+00  0.0000000000E+00
                       0.0000000000E+00  0.0000000000E+00  0.0000000000E+00
                       0.0000000000E+00  0.0000000000E+00  0.0000000000E+00
                       0.0000000000E+00  0.0000000000E+00  0.0000000000E+00
-          fftalg         512
           irdden           1
           irdwfk           1
           istwfk        1    1
              ixc     -116133
              kpt      0.00000000E+00  0.00000000E+00  0.00000000E+00
                       5.00000000E-01  5.00000000E-01  0.00000000E+00
           kptopt           0
P           mkmem           2
P          mkqmem           2
P          mk1mem           2
            natom          10
            nband          29
           nbdbuf           4
            ngfft         144     144     144
             nkpt           2
            nstep        2000
             nsym           6
           ntypat           2
              occ      2.000000  2.000000  2.000000  2.000000  2.000000  2.000000
                       2.000000  2.000000  2.000000  2.000000  2.000000  2.000000
                       2.000000  2.000000  2.000000  2.000000  2.000000  2.000000
                       2.000000  2.000000  0.000000  0.000000  0.000000  0.000000
                       0.000000  0.000000  0.000000  0.000000  0.000000
        optdriver           1
            prtwf          -1
            rfdir           1       1       1
           rfelfd           2
            rprim      5.7782111701E+00  0.0000000000E+00  2.3314778285E+01
                       2.8460541963E+00  5.0286876855E+00  2.3314778285E+01
                       0.0000000000E+00  0.0000000000E+00  2.4020129284E+01
          spgroup         160
           strten      0.0000000000E+00  0.0000000000E+00  0.0000000000E+00
                       0.0000000000E+00  0.0000000000E+00  0.0000000000E+00
           symrel      1  0  0   0  1  0   0  0  1       0  1  0   1  0  0   0  0  1
                       0  0  1   1  0  0   0  1  0       1  0  0   0  0  1   0  1  0
                       0  1  0   0  0  1   1  0  0       0  0  1   0  1  0   1  0  0
           tolwfr      1.00000000E-20
            typat      1  1  1  1  1  2  2  2  2  2
           useylm           1
              wtk        0.50000    0.50000
           xangst      4.1834798538E+00  2.4393281897E+00  3.4270923365E+01
                       2.9665200575E+00  1.7297360701E+00  2.4301630486E+01
                       2.0539268547E+00  1.1976158249E+00  1.6825698293E+01
                       8.3709940757E-01  4.8810087625E-01  6.8574896134E+00
                       2.2842098563E-01  1.3318906003E-01  1.8712168738E+00
                       3.9551501435E+00  2.3061923510E+00  3.2400454215E+01
                       2.7375422926E+00  1.5962223599E+00  2.2425852495E+01
                       1.8249353985E+00  1.0640941315E+00  1.4949808144E+01
                       6.0876969722E-01  3.5496503756E-01  4.9870204637E+00
                       1.5516799887E-04  9.0476275018E-05  1.2711309206E-03
            xcart      7.9056312062E+00  4.6096622267E+00  6.4762659481E+01
                       5.6059104764E+00  3.2687274546E+00  4.5923426200E+01
                       3.8813592524E+00  2.2631659215E+00  3.1795961768E+01
                       1.5818886263E+00  9.2237698134E-01  1.2958777328E+01
                       4.3165310585E-01  2.5169084735E-01  3.5360874267E+00
                       7.4741505857E+00  4.3580719531E+00  6.1227985048E+01
                       5.1732052102E+00  3.0164231073E+00  4.2378719512E+01
                       3.4486281134E+00  2.0108464882E+00  2.8251043131E+01
                       1.1504080058E+00  6.7078670774E-01  9.4241028955E+00
                       2.9322502246E-04  1.7097538131E-04  2.4020893190E-03
             xred      9.1667300000E-01  9.1667300000E-01  9.1667300000E-01
                       6.5001600000E-01  6.5001600000E-01  6.5001600000E-01
                       4.5005100000E-01  4.5005100000E-01  4.5005100000E-01
                       1.8342300000E-01  1.8342300000E-01  1.8342300000E-01
                       5.0051000000E-02  5.0051000000E-02  5.0051000000E-02
                       8.6664200000E-01  8.6664200000E-01  8.6664200000E-01
                       5.9984300000E-01  5.9984300000E-01  5.9984300000E-01
                       3.9987500000E-01  3.9987500000E-01  3.9987500000E-01
                       1.3339200000E-01  1.3339200000E-01  1.3339200000E-01
                       3.4000000000E-05  3.4000000000E-05  3.4000000000E-05
            znucl       14.00000    6.00000

- Timing analysis has been suppressed with timopt=0

 Suggested references for the acknowledgment of ABINIT usage.

 Calculation completed.
.Delivered   2 WARNINGs and   5 COMMENTs to log file.