.Version 9.5.1 of ABINIT

 ABINIT is a project of the Universite Catholique de Louvain,
 Corning Inc. and other collaborators, see ~abinit/doc/developers/contributors.txt .
 acknowledgments of the ABINIT effort.

.Starting date : Mon 10 May 2021.
- ( at 09h20 )

- input  file    -> /scratch/users/j/a/jabreu/flow_simple_7atoms/flow/w184/t1/run.abi
- output file    -> /scratch/users/j/a/jabreu/flow_simple_7atoms/flow/w184/t1/run.abo
- root for input  files -> /scratch/users/j/a/jabreu/flow_simple_7atoms/flow/w184/t1/indata/in
- root for output files -> /scratch/users/j/a/jabreu/flow_simple_7atoms/flow/w184/t1/outdata/out

 Symmetries : space group I-4 (# 82); Bravais tI (body-center tetrag.)
     intxc =       0      iscf =       7    lmnmax =      18     lnmax =       6
     mgfft =      80  mpssoang =       3    mqgrid =    3001     natom =       7
  nloc_mem =       1    nspden =       1   nspinor =       1    nsppol =       1
      nsym =       4    n1xccc =    2501    ntypat =       3    occopt =       1
   xclevel =       2
-    mband =          64        mffmem =           1         mkmem =           2
-   mkqmem =           2        mk1mem =           2           mpw =       18216
      nfft =      512000          nkpt =           2
  Rough estimation (10% accuracy) of disk space for files :

------------- Echo of variables that govern the present computation ------------
-
- outvars: echo of selected default values
-   iomode0 =  0 , fftalg0 =512 , wfoptalg0 =  0
-
- outvars: echo of global parameters not present in the input file
-  max_nthreads =    0
-
 -outvars: echo values of preprocessed input variables --------
            acell      1.0000000000E+00  1.0000000000E+00  1.0000000000E+00 Bohr
              amu      6.53900000E+01  6.97230000E+01  1.27600000E+02
        autoparal           1
             ecut      4.20000000E+01 Hartree
-          fftalg         512
           irdden           1
           irdwfk           1
           istwfk        1    0
              ixc     -116133
              kpt      0.00000000E+00  0.00000000E+00  0.00000000E+00
                       5.00000000E-01  5.00000000E-01 -5.00000000E-01
           kptopt           0
P           mkmem           2
P          mkqmem           2
P          mk1mem           2
            natom           7
            nband          64
           nbdbuf           4
            ngfft          80      80      80
             nkpt           2
            nstep        2000
             nsym           4
           ntypat           3
              occ      2.000000  2.000000  2.000000  2.000000  2.000000  2.000000
                       2.000000  2.000000  2.000000  2.000000  2.000000  2.000000
                       2.000000  2.000000  2.000000  2.000000  2.000000  2.000000
                       2.000000  2.000000  2.000000  2.000000  2.000000  2.000000
                       2.000000  2.000000  2.000000  2.000000  2.000000  2.000000
                       2.000000  2.000000  2.000000  2.000000  2.000000  2.000000
                       2.000000  2.000000  2.000000  2.000000  2.000000  2.000000
                       2.000000  2.000000  2.000000  2.000000  2.000000  2.000000
                       2.000000  2.000000  2.000000  2.000000  2.000000  2.000000
                       2.000000  0.000000  0.000000  0.000000  0.000000  0.000000
                       0.000000  0.000000  0.000000  0.000000
        optdriver           1
            prtwf          -1
            rfdir           1       1       1
           rfelfd           2
            rprim      1.0224098926E+01  0.0000000000E+00 -9.0790036478E+00
                      -2.0645360044E+00  1.0013485404E+01 -9.0790036478E+00
                       0.0000000000E+00  0.0000000000E+00  1.3673350214E+01
          spgroup          82
           symrel      1  0  0   0  1  0   0  0  1       0  1  0   1  0  0  -1 -1 -1
                       0  0  1  -1 -1 -1   0  1  0      -1 -1 -1   0  0  1   1  0  0
           tolwfr      1.00000000E-20
            typat      1  2  2  3  3  3  3
           useylm           1
              wtk        0.50000    0.50000
           xangst      0.0000000000E+00  0.0000000000E+00  0.0000000000E+00
                       2.1589273650E+00  2.6494541271E+00 -4.8044018071E+00
                       5.3321098257E-01  3.9741811906E+00 -1.1865891579E+00
                       3.2859237229E+00  7.1982621760E-01 -3.4105729497E+00
                       1.7951760923E+00  1.9353202617E+00 -7.7569321737E-02
                       3.6872450779E+00  4.7927538882E+00 -4.8871946125E+00
                      -1.3263543326E-01  3.1499161408E+00  3.6289802522E+00
            xcart      0.0000000000E+00  0.0000000000E+00  0.0000000000E+00
                       4.0797814606E+00  5.0067427018E+00 -9.0790036478E+00
                       1.0076227281E+00  7.5101140527E+00 -2.2423285408E+00
                       6.2094959299E+00  1.3602744145E+00 -6.4450488311E+00
                       3.3923911748E+00  3.6572252740E+00 -1.4658477440E-01
                       6.9678833821E+00  9.0569922711E+00 -9.2354593758E+00
                      -2.5064464438E-01  5.9524788476E+00  6.8577788183E+00
             xred      0.0000000000E+00  0.0000000000E+00  0.0000000000E+00
                       5.0000000000E-01  5.0000000000E-01  0.0000000000E+00
                       2.5000000000E-01  7.5000000000E-01  5.0000000000E-01
                       6.3477000000E-01  1.3584425000E-01  4.0323750000E-02
                       4.0555375000E-01  3.6523000000E-01  5.0107425000E-01
                       8.6415575000E-01  9.0447950000E-01  4.9892575000E-01
                       9.5520500000E-02  5.9444625000E-01  9.5967625000E-01
            znucl       30.00000   31.00000   52.00000

 chkinp: Checking input parameters for consistency.

== DATASET  1 ==================================================================
-   mpi_nproc: 1, omp_nthreads: -1 (-1 if OMP is not activated)

--- !DatasetInfo
iteration_state: {dtset: 1, }
dimensions: {natom: 7, nkpt: 2, mband: 64, nsppol: 1, nspinor: 1, nspden: 1, mpw: 18216, }
cutoff_energies: {ecut:  42.0, pawecutdg:  -1.0, }
electrons: {nelect:   1.10000000E+02, charge:   0.00000000E+00, occopt:   1.00000000E+00, tsmear:   1.00000000E-02, }
meta: {optdriver: 1, rfelfd: 2, }
...

 Real(R)+Recip(G) space primitive vectors, cartesian coordinates (Bohr,Bohr^-1):
 R(1)= 10.2240989  0.0000000 -9.0790036  G(1)=  0.0978081  0.0201656  0.0000000
 R(2)= -2.0645360 10.0134854 -9.0790036  G(2)=  0.0000000  0.0998653  0.0000000
 R(3)=  0.0000000  0.0000000 13.6733502  G(3)=  0.0649439  0.0796997  0.0731350
 Unit cell volume ucvol=  1.3998621E+03 bohr^3
 Angles (23,13,12)=  1.31605088E+02  1.31605088E+02  7.08534666E+01 degrees

 getcut: wavevector=  0.0000  0.0000  0.0000  ngfft=  80  80  80
         ecut(hartree)=     42.000   => boxcut(ratio)=   2.00599

--- Pseudopotential description ------------------------------------------------
- pspini: atom type   1  psp file is /scratch/users/j/a/jabreu/pseudos/PBEsol/Zn.psp8
- pspatm: opening atomic psp file    /scratch/users/j/a/jabreu/pseudos/PBEsol/Zn.psp8
- Zn    ONCVPSP-3.3.0  r_core=   1.35823   1.66358   1.85211
- 30.00000  20.00000    180112                znucl, zion, pspdat
    8 -116133    2    4       600   0.00000   pspcod,pspxc,lmax,lloc,mmax,r2well
    5.99000000000000    2.50000000000000    0.00000000000000   rchrg,fchrg,qchrg
     nproj     2     2     2
     extension_switch     1
  pspatm : epsatm=   26.57343589
         --- l  ekb(1:nproj) -->
             0    2.830835   -1.519107
             1   -4.626739   -1.324150
             2   -6.948510   -2.555500
 pspatm: atomic psp has been read  and splines computed

- pspini: atom type   2  psp file is /scratch/users/j/a/jabreu/pseudos/PBEsol/Ga.psp8
- pspatm: opening atomic psp file    /scratch/users/j/a/jabreu/pseudos/PBEsol/Ga.psp8
- Ga    ONCVPSP-3.3.0  r_core=   1.66857   1.75011   1.90252
- 31.00000  13.00000    180112                znucl, zion, pspdat
    8 -116133    2    4       600   0.00000   pspcod,pspxc,lmax,lloc,mmax,r2well
    5.99000000000000    5.00000000000000    0.00000000000000   rchrg,fchrg,qchrg
     nproj     2     2     2
     extension_switch     1
  pspatm : epsatm=   24.50969055
         --- l  ekb(1:nproj) -->
             0    7.053021    1.156713
             1    6.846070    1.293139
             2   -8.368667   -2.819170
 pspatm: atomic psp has been read  and splines computed

- pspini: atom type   3  psp file is /scratch/users/j/a/jabreu/pseudos/PBEsol/Te.psp8
- pspatm: opening atomic psp file    /scratch/users/j/a/jabreu/pseudos/PBEsol/Te.psp8
- Te    ONCVPSP-3.3.0  r_core=   2.26547   1.91704   1.80604
- 52.00000  16.00000    180112                znucl, zion, pspdat
    8 -116133    2    4       600   0.00000   pspcod,pspxc,lmax,lloc,mmax,r2well
    5.99000000000000    5.00000000000000    0.00000000000000   rchrg,fchrg,qchrg
     nproj     2     2     2
     extension_switch     1
  pspatm : epsatm=   36.82679836
         --- l  ekb(1:nproj) -->
             0    6.345999    0.785432
             1    5.709019    1.070069
             2   -6.035173   -1.870937
 pspatm: atomic psp has been read  and splines computed

   2.45190011E+04                                ecore*ucvol(ha*bohr**3)

-inwffil : will read wavefunctions from disk file /scratch/users/j/a/jabreu/flow_simple_7atoms/flow/w184/t1/indata/in_WFK

 ==>  initialize data related to q vector <==

 The list of irreducible perturbations for this q vector is:
    1)    idir= 1    ipert=   8
    2)    idir= 2    ipert=   8
    3)    idir= 3    ipert=   8

 Perturbation wavevector (in red.coord.)   0.000000  0.000000  0.000000
 Perturbation : derivative vs k along direction   1

 dfpt_looppert : COMMENT -
  In a d/dk calculation, iscf is set to -3 automatically.
 The set of symmetries contains only one element for this perturbation.
 symkpt : not enough symmetry to change the number of k points.

[...]

 Initialisation of the first-order wave-functions :
  ireadwf=   0

--- !BeginCycle
iteration_state: {dtset: 1, }
solver: {iscf: 7, nstep: 2000, nline: 4, wfoptalg: 0, }
tolerances: {tolwfr: 1.00E-20, }
...

     iter   2DEtotal(Ha)        deltaE(Ha) residm    vres2
-ETOT  1  -101.50984029219     -1.015E+02 6.656E-02 0.000E+00
 ETOT  2  -101.59081148840     -8.097E-02 2.927E-03 0.000E+00
 ETOT  3  -101.59114293395     -3.314E-04 8.936E-05 0.000E+00
 ETOT  4  -101.59114827185     -5.338E-06 8.953E-06 0.000E+00
 ETOT  5  -101.59114840044     -1.286E-07 4.516E-07 0.000E+00
 ETOT  6  -101.59114840407     -3.621E-09 5.800E-08 0.000E+00
 ETOT  7  -101.59114840417     -1.093E-10 3.398E-09 0.000E+00
 ETOT  8  -101.59114840418     -3.340E-12 4.541E-10 0.000E+00
 ETOT  9  -101.59114840418     -2.274E-13 2.731E-11 0.000E+00
 ETOT 10  -101.59114840418      1.421E-14 3.693E-12 0.000E+00
 ETOT 11  -101.59114840418     -1.421E-14 2.230E-13 0.000E+00
 ETOT 12  -101.59114840418      1.421E-14 3.036E-14 0.000E+00
 ETOT 13  -101.59114840418      0.000E+00 1.839E-15 0.000E+00
 ETOT 14  -101.59114840418      1.421E-14 2.514E-16 0.000E+00
[...]
 Expectation of eigenvalue derivatives (hartree) for nkpt=   2  k points:
  (in case of degenerate eigenvalues, averaged derivative)
 kpt#   1, nband= 64, wtk=  0.50000, kpt=  0.0000  0.0000  0.0000 (reduced coord)
  -0.00000   -0.00000    0.00000    0.00000   -0.00000   -0.00000   -0.00000   -0.00000
   0.00000   -0.00000   -0.00000   -0.00000   -0.00000    0.00000   -0.00000   -0.00000
  -0.00000    0.00000    0.00000    0.00000    0.00000   -0.00000   -0.00000   -0.00000
   0.00000   -0.00000   -0.00000    0.00000   -0.00000   -0.00000    0.00000   -0.00000
   0.00000    0.00000    0.00000    0.00000    0.00000    0.00000    0.00000   -0.00000
  -0.00000   -0.00000   -0.00000   -0.00000   -0.00000   -0.00000   -0.00000    0.00000
   0.00000    0.00000   -0.00000   -0.00000    0.00000   -0.00000   -0.00000    0.00000
   0.00000    0.00000   -0.00000   -0.00000    0.00000   -0.00000    0.00000    0.00000
 prteigrs : prtvol=0 or 1, do not print more k-points.

 Eight components of 2nd-order total energy (hartree) are
 1,2,3: 0th-order hamiltonian combined with 1st-order wavefunctions
     kin0=   1.06326841E+02 eigvalue=   1.47971601E+01  local=  -4.94667447E+01
 4,5,6: 1st-order hamiltonian combined with 1st and 0th-order wfs
     kin1=  -9.94032014E+01  Hartree=   0.00000000E+00     xc=   0.00000000E+00
 7,8,9: eventually, occupation + non-local contributions
    edocc=   1.71748266E+01     enl0=   1.27590656E+01   enl1=  -1.03779095E+02
 1-9 gives the relaxation energy (to be shifted if some occ is /=2.0)
   erelax=  -1.01591148E+02
  No Ewald or frozen-wf contrib.: the relaxation energy is the total one
 2DEtotal=   -0.1015911484E+03 Ha. Also 2DEtotal=   -0.276443573600E+04 eV
    (  non-var. 2DEtotal :   -1.0159114840E+02 Ha)

 Perturbation wavevector (in red.coord.)   0.000000  0.000000  0.000000
 Perturbation : derivative vs k along direction   2
 The set of symmetries contains only one element for this perturbation.
 symkpt : not enough symmetry to change the number of k points.

[...]

 Perturbation wavevector (in red.coord.)   0.000000  0.000000  0.000000
 Perturbation : derivative vs k along direction   3
 The set of symmetries contains only one element for this perturbation.
 symkpt : not enough symmetry to change the number of k points.

-inwffil : will read wavefunctions from disk file /scratch/users/j/a/jabreu/flow_simple_7atoms/flow/w184/t1/indata/in_WFK

 Initialisation of the first-order wave-functions :
  ireadwf=   0

--- !BeginCycle
iteration_state: {dtset: 1, }
solver: {iscf: 7, nstep: 2000, nline: 4, wfoptalg: 0, }
tolerances: {tolwfr: 1.00E-20, }
...

     iter   2DEtotal(Ha)        deltaE(Ha) residm    vres2
-ETOT  1  -163.34220757042     -1.633E+02 1.601E-01 0.000E+00
 ETOT  2  -163.46876769015     -1.266E-01 6.019E-03 0.000E+00
 ETOT  3  -163.46931513493     -5.474E-04 1.734E-04 0.000E+00
 ETOT  4  -163.46932429733     -9.162E-06 1.817E-05 0.000E+00
 ETOT  5  -163.46932452089     -2.236E-07 8.510E-07 0.000E+00
 ETOT  6  -163.46932452713     -6.242E-09 1.127E-07 0.000E+00
 ETOT  7  -163.46932452731     -1.843E-10 5.866E-09 0.000E+00
 ETOT  8  -163.46932452732     -5.741E-12 7.865E-10 0.000E+00
 ETOT  9  -163.46932452732     -8.527E-14 4.175E-11 0.000E+00
 ETOT 10  -163.46932452732     -2.842E-14 5.637E-12 0.000E+00
 ETOT 11  -163.46932452732     -1.421E-13 3.030E-13 0.000E+00
 ETOT 12  -163.46932452732      2.842E-14 4.103E-14 0.000E+00
 ETOT 13  -163.46932452732      2.842E-14 2.229E-15 0.000E+00
 ETOT 14  -163.46932452732     -2.842E-14 3.015E-16 0.000E+00
 ETOT 15  -163.46932452732     -2.842E-14 1.652E-17 0.000E+00
 ETOT 16  -163.46932452732      0.000E+00 2.225E-18 0.000E+00
 ETOT 17  -163.46932452732      2.842E-14 1.227E-19 0.000E+00
 ETOT 18  -163.46932452732      2.842E-14 1.647E-20 0.000E+00
 ETOT 19  -163.46932452732     -8.527E-14 9.950E-21 0.000E+00

 At SCF step   19   max residual=  9.95E-21 < tolwfr=  1.00E-20 =>converged.

 ----iterations are completed or convergence reached----

 dfpt_looppert: DFPT cycle converged with prtwf=-1. Will skip output of the 1st-order WFK file.
 dfpt_looppert : ek2=    1.3825591718E+02
          f-sum rule ratio=    1.1652716735E+00
 prteigrs : about to open file /scratch/users/j/a/jabreu/flow_simple_7atoms/flow/w184/t1/tmpdata/tmp_1WF1_EIG
 Expectation of eigenvalue derivatives (hartree) for nkpt=   2  k points:
  (in case of degenerate eigenvalues, averaged derivative)
 kpt#   1, nband= 64, wtk=  0.50000, kpt=  0.0000  0.0000  0.0000 (reduced coord)
   0.00000   -0.00000    0.00000    0.00000   -0.00000   -0.00000   -0.00000   -0.00000
  -0.00000    0.00000   -0.00000   -0.00000   -0.00000   -0.00000   -0.00000   -0.00000
  -0.00000    0.00000    0.00000    0.00000   -0.00000   -0.00000   -0.00000   -0.00000
   0.00000    0.00000    0.00000    0.00000   -0.00000   -0.00000    0.00000   -0.00000
  -0.00000    0.00000    0.00000    0.00000    0.00000    0.00000    0.00000   -0.00000
   0.00000    0.00000   -0.00000   -0.00000    0.00000   -0.00000    0.00000    0.00000
   0.00000   -0.00000   -0.00000   -0.00000    0.00000   -0.00000   -0.00000    0.00000
  -0.00000   -0.00000   -0.00000   -0.00000    0.00000    0.00000    0.00000    0.00000
 prteigrs : prtvol=0 or 1, do not print more k-points.

 Eight components of 2nd-order total energy (hartree) are
 1,2,3: 0th-order hamiltonian combined with 1st-order wavefunctions
     kin0=   1.68798424E+02 eigvalue=   2.36673350E+01  local=  -7.82868666E+01
 4,5,6: 1st-order hamiltonian combined with 1st and 0th-order wfs
     kin1=  -1.61105704E+02  Hartree=   0.00000000E+00     xc=   0.00000000E+00
 7,8,9: eventually, occupation + non-local contributions
    edocc=   2.90535996E+01     enl0=   2.02368327E+01   enl1=  -1.65832945E+02
 1-9 gives the relaxation energy (to be shifted if some occ is /=2.0)
   erelax=  -1.63469325E+02
  No Ewald or frozen-wf contrib.: the relaxation energy is the total one
 2DEtotal=   -0.1634693245E+03 Ha. Also 2DEtotal=   -0.444822653905E+04 eV
    (  non-var. 2DEtotal :   -1.6346932453E+02 Ha)

 CALCULATION OF EFFECTIVE MASSES
 NOTE : Additional infos (eff. mass eigenvalues, eigenvectors and, if degenerate, average mass) are available in stdout.

 COMMENTS:
 - At k-point ( 0.000, 0.000, 0.000), bands    54 through    55
   are DEGENERATE (effective mass tensor is therefore not defined).
   See Section IIIB Eqs. (67)-(70) and Appendix E of PRB 93 205147 (2016).
 - Angular average effective mass for Frohlich model is to be averaged over degenerate bands. See later.
 - Associated theta integrals calculated with ntheta=   1000 points.

 K-point ( 0.000, 0.000, 0.000) | band =    54
 Transport equivalent effective mass tensor:
             -0.1305955910             -0.0592277719              0.1074010000
             -0.0592277719             -0.1550182299              0.1318034260
              0.1074010000              0.1318034260             -0.3213398549
 Transport equivalent effective mass tensor eigenvalues:
             -0.4422868731             -0.0823334015             -0.0823334012
 Angular average effective mass 1/(<1/m>)=  -0.1110350775
 Angular average effective mass for Frohlich model (<m**0.5>)**2=  -0.1258385972
 Effective masses along directions: (cart. coord. / red. coord. -> eff. mass)
    1:   1.000000  0.000000  0.000000 /   0.980215 -0.197933  0.000000 ->  -0.0962881754
    2:   0.000000  1.000000  0.000000 /   0.000000  1.000000  0.000000 ->  -0.1053810502
    3:   0.000000  0.000000  1.000000 /  -0.484038 -0.484038  0.728981 ->  -0.1663450585
    4:   0.577350  0.577350  0.577350 /   0.083173 -0.082080  0.993149 ->  -0.0753882304
    5:   0.000000  0.707107  0.707107 /  -0.552263  0.056843  0.831730 ->  -0.0879695869
    6:   0.707107  0.000000  0.707107 /   0.064782 -0.630424  0.773543 ->  -0.0938791425
    7:   0.707107  0.707107  0.000000 /   0.789469  0.613790  0.000000 ->  -0.1042774003

 K-point ( 0.000, 0.000, 0.000) | band =    55
 Transport equivalent effective mass tensor:
             -5.1818070400             -0.0854726522              0.1549923213
             -0.0854726522             -5.2170517756              0.1902078928
              0.1549923213              0.1902078928             -5.4570736350
 Transport equivalent effective mass tensor eigenvalues:
             -5.6316144092             -5.1121590303             -5.1121590113
 Angular average effective mass 1/(<1/m>)=  -0.6357637596
 Angular average effective mass for Frohlich model (<m**0.5>)**2=  -0.7719807730
 Effective masses along directions: (cart. coord. / red. coord. -> eff. mass)
    1:   1.000000  0.000000  0.000000 /   0.980215 -0.197933  0.000000 ->  -0.5082241696
    2:   0.000000  1.000000  0.000000 /   0.000000  1.000000  0.000000 ->  -0.4425444029
    3:   0.000000  0.000000  1.000000 /  -0.484038 -0.484038  0.728981 ->  -0.6159671586
    4:   0.577350  0.577350  0.577350 /   0.083173 -0.082080  0.993149 ->  -3.5433123697
    5:   0.000000  0.707107  0.707107 /  -0.552263  0.056843  0.831730 ->  -0.6310567901
    6:   0.707107  0.000000  0.707107 /   0.064782 -0.630424  0.773543 ->  -0.5003332608
    7:   0.707107  0.707107  0.000000 /   0.789469  0.613790  0.000000 ->  -1.0037401211

 Angular average effective mass for Frohlich model, averaged over degenerate bands.
 Value of     (<<m**0.5>>)**2 =     3.802953E-01
 Absolute Value of <<m**0.5>> =     6.166809E-01

 K-point ( 0.500, 0.500,-0.500) | band =    56
 Effective mass tensor:
              0.3464779938             -0.0135717978              0.0246095805
             -0.0135717978              0.3408813231              0.0302005055
              0.0246095805              0.0302005055              0.3027724513
 Effective mass tensor eigenvalues:
              0.2750587584              0.3575359475              0.3575370623
 Angular average effective mass 1/(<1/m>)=   0.3250474677
 Angular average effective mass for Frohlich model (<m**0.5>)**2=   0.3266052575
 Effective masses along directions: (cart. coord. / red. coord. -> eff. mass)
    1:   1.000000  0.000000  0.000000 /   0.980215 -0.197933  0.000000 ->   0.3437175040
    2:   0.000000  1.000000  0.000000 /   0.000000  1.000000  0.000000 ->   0.3371233076
    3:   0.000000  0.000000  1.000000 /  -0.484038 -0.484038  0.728981 ->   0.2981708775
    4:   0.577350  0.577350  0.577350 /   0.083173 -0.082080  0.993149 ->   0.3575361109
    5:   0.000000  0.707107  0.707107 /  -0.552263  0.056843  0.831730 ->   0.3505162123
    6:   0.707107  0.000000  0.707107 /   0.064782 -0.630424  0.773543 ->   0.3470615987
    7:   0.707107  0.707107  0.000000 /   0.789469  0.613790  0.000000 ->   0.3251162308

 END OF EFFECTIVE MASSES SECTION

 ---- first-order wavefunction calculations are completed ----

 Total localisation tensor (bohr^2) in cartesian coordinates
  WARNING : still subject to testing - especially symmetries.
      direction              matrix element
   alpha     beta       real part   imaginary part
     1        1       2.5480203031    0.0000000000
     1        2      -0.4841765097    0.0000000000
     1        3      -1.7350059839    0.0000000000
     2        1      -0.4841765097    0.0000000000
     2        2       2.3483699982    0.0000000000
     2        3      -2.1292146461    0.0000000000
     3        1      -1.7350059839    0.0000000000
     3        2      -2.1292146461    0.0000000000
     3        3      11.2323223782    0.0000000000

 respfn : d/dk was computed, but no 2DTE, so no DDB output.

== END DATASET(S) ==============================================================

 -outvars: echo values of variables after computation  --------
            acell      1.0000000000E+00  1.0000000000E+00  1.0000000000E+00 Bohr
              amu      6.53900000E+01  6.97230000E+01  1.27600000E+02
        autoparal           1
             ecut      4.20000000E+01 Hartree
           etotal     -1.6346932453E+02
            fcart      0.0000000000E+00  0.0000000000E+00  0.0000000000E+00
                       0.0000000000E+00  0.0000000000E+00  0.0000000000E+00
                       0.0000000000E+00  0.0000000000E+00  0.0000000000E+00
                       0.0000000000E+00  0.0000000000E+00  0.0000000000E+00
                       0.0000000000E+00  0.0000000000E+00  0.0000000000E+00
                       0.0000000000E+00  0.0000000000E+00  0.0000000000E+00
                       0.0000000000E+00  0.0000000000E+00  0.0000000000E+00
-          fftalg         512
           irdden           1
           irdwfk           1
           istwfk        1    0
              ixc     -116133
              kpt      0.00000000E+00  0.00000000E+00  0.00000000E+00
                       5.00000000E-01  5.00000000E-01 -5.00000000E-01
           kptopt           0
P           mkmem           2
P          mkqmem           2
P          mk1mem           2
            natom           7
            nband          64
           nbdbuf           4
            ngfft          80      80      80
             nkpt           2
            nstep        2000
             nsym           4
           ntypat           3
              occ      2.000000  2.000000  2.000000  2.000000  2.000000  2.000000
                       2.000000  2.000000  2.000000  2.000000  2.000000  2.000000
                       2.000000  2.000000  2.000000  2.000000  2.000000  2.000000
                       2.000000  2.000000  2.000000  2.000000  2.000000  2.000000
                       2.000000  2.000000  2.000000  2.000000  2.000000  2.000000
                       2.000000  2.000000  2.000000  2.000000  2.000000  2.000000
                       2.000000  2.000000  2.000000  2.000000  2.000000  2.000000
                       2.000000  2.000000  2.000000  2.000000  2.000000  2.000000
                       2.000000  2.000000  2.000000  2.000000  2.000000  2.000000
                       2.000000  0.000000  0.000000  0.000000  0.000000  0.000000
                       0.000000  0.000000  0.000000  0.000000
        optdriver           1
            prtwf          -1
            rfdir           1       1       1
           rfelfd           2
            rprim      1.0224098926E+01  0.0000000000E+00 -9.0790036478E+00
                      -2.0645360044E+00  1.0013485404E+01 -9.0790036478E+00
                       0.0000000000E+00  0.0000000000E+00  1.3673350214E+01
          spgroup          82
           strten      0.0000000000E+00  0.0000000000E+00  0.0000000000E+00
                       0.0000000000E+00  0.0000000000E+00  0.0000000000E+00
           symrel      1  0  0   0  1  0   0  0  1       0  1  0   1  0  0  -1 -1 -1
                       0  0  1  -1 -1 -1   0  1  0      -1 -1 -1   0  0  1   1  0  0
           tolwfr      1.00000000E-20
            typat      1  2  2  3  3  3  3
           useylm           1
              wtk        0.50000    0.50000
           xangst      0.0000000000E+00  0.0000000000E+00  0.0000000000E+00
                       2.1589273650E+00  2.6494541271E+00 -4.8044018071E+00
                       5.3321098257E-01  3.9741811906E+00 -1.1865891579E+00
                       3.2859237229E+00  7.1982621760E-01 -3.4105729497E+00
                       1.7951760923E+00  1.9353202617E+00 -7.7569321737E-02
                       3.6872450779E+00  4.7927538882E+00 -4.8871946125E+00
                      -1.3263543326E-01  3.1499161408E+00  3.6289802522E+00
            xcart      0.0000000000E+00  0.0000000000E+00  0.0000000000E+00
                       4.0797814606E+00  5.0067427018E+00 -9.0790036478E+00
                       1.0076227281E+00  7.5101140527E+00 -2.2423285408E+00
                       6.2094959299E+00  1.3602744145E+00 -6.4450488311E+00
                       3.3923911748E+00  3.6572252740E+00 -1.4658477440E-01
                       6.9678833821E+00  9.0569922711E+00 -9.2354593758E+00
                      -2.5064464438E-01  5.9524788476E+00  6.8577788183E+00
             xred      0.0000000000E+00  0.0000000000E+00  0.0000000000E+00
                       5.0000000000E-01  5.0000000000E-01  0.0000000000E+00
                       2.5000000000E-01  7.5000000000E-01  5.0000000000E-01
                       6.3477000000E-01  1.3584425000E-01  4.0323750000E-02
                       4.0555375000E-01  3.6523000000E-01  5.0107425000E-01
                       8.6415575000E-01  9.0447950000E-01  4.9892575000E-01
                       9.5520500000E-02  5.9444625000E-01  9.5967625000E-01
            znucl       30.00000   31.00000   52.00000

- Timing analysis has been suppressed with timopt=0

 Suggested references for the acknowledgment of ABINIT usage.

 Calculation completed.
.Delivered  14 WARNINGs and  11 COMMENTs to log file.