.Version 9.5.1 of ABINIT

 ABINIT is a project of the Universite Catholique de Louvain,
 Corning Inc. and other collaborators, see ~abinit/doc/developers/contributors.txt .
 acknowledgments of the ABINIT effort.

.Starting date : Tue 27 Apr 2021.
- ( at 18h39 )

- input  file    -> /scratch/users/j/a/jabreu/flow_simple_4atoms/flow/w228/t1/run.abi
- output file    -> /scratch/users/j/a/jabreu/flow_simple_4atoms/flow/w228/t1/run.abo
- root for input  files -> /scratch/users/j/a/jabreu/flow_simple_4atoms/flow/w228/t1/indata/in
- root for output files -> /scratch/users/j/a/jabreu/flow_simple_4atoms/flow/w228/t1/outdata/out

 Symmetries : space group Fm -3 m (#225); Bravais cF (face-center cubic)
     intxc =       0      iscf =       7    lmnmax =      18     lnmax =       6
     mgfft =      64  mpssoang =       3    mqgrid =    3001     natom =       4
  nloc_mem =       1    nspden =       1   nspinor =       1    nsppol =       1
      nsym =      48    n1xccc =    2501    ntypat =       3    occopt =       1
   xclevel =       2
-    mband =          30        mffmem =           1         mkmem =           1
-   mkqmem =           1        mk1mem =           1           mpw =       10777
      nfft =      262144          nkpt =           1
  Rough estimation (10% accuracy) of disk space for files :

------------- Echo of variables that govern the present computation ------------
-
- outvars: echo of selected default values
-   iomode0 =  0 , fftalg0 =512 , wfoptalg0 =  0
-
- outvars: echo of global parameters not present in the input file
-  max_nthreads =    0
-
 -outvars: echo values of preprocessed input variables --------
            acell      1.0000000000E+00  1.0000000000E+00  1.0000000000E+00 Bohr
              amu      3.90983000E+01  2.29897680E+01  1.21753000E+02
             ecut      4.40000000E+01 Hartree
-          fftalg         512
           irdden           1
           irdwfk           1
           istwfk        1
              ixc     -116133
           kptopt           0
P           mkmem           1
P          mkqmem           1
P          mk1mem           1
            natom           4
            nband          30
           nbdbuf           4
            ngfft          64      64      64
             nkpt           1
            nstep         100
             nsym          48
           ntypat           3
              occ      2.000000  2.000000  2.000000  2.000000  2.000000  2.000000
                       2.000000  2.000000  2.000000  2.000000  2.000000  2.000000
                       2.000000  2.000000  2.000000  2.000000  2.000000  2.000000
                       2.000000  2.000000  2.000000  0.000000  0.000000  0.000000
                       0.000000  0.000000  0.000000  0.000000  0.000000  0.000000
        optdriver           1
            prtwf          -1
            rfdir           1       1       1
           rfelfd           2
            rprim      8.8947977782E+00  0.0000000000E+00  5.1354138916E+00
                       2.9649325927E+00  8.3860957683E+00  5.1354138916E+00
                       0.0000000000E+00  0.0000000000E+00  1.0270827783E+01
          spgroup         225
           symrel      1  0  0   0  1  0   0  0  1      -1  0  0   0 -1  0   0  0 -1
                       0 -1  1   0 -1  0   1 -1  0       0  1 -1   0  1  0  -1  1  0
                      -1  0  0  -1  0  1  -1  1  0       1  0  0   1  0 -1   1 -1  0
                       0  1 -1   1  0 -1   0  0 -1       0 -1  1  -1  0  1   0  0  1
                      -1  0  0  -1  1  0  -1  0  1       1  0  0   1 -1  0   1  0 -1
                       0 -1  1   1 -1  0   0 -1  0       0  1 -1  -1  1  0   0  1  0
                       1  0  0   0  0  1   0  1  0      -1  0  0   0  0 -1   0 -1  0
                       0  1 -1   0  0 -1   1  0 -1       0 -1  1   0  0  1  -1  0  1
                      -1  0  1  -1  1  0  -1  0  0       1  0 -1   1 -1  0   1  0  0
                       0 -1  0   1 -1  0   0 -1  1       0  1  0  -1  1  0   0  1 -1
                       1  0 -1   0  0 -1   0  1 -1      -1  0  1   0  0  1   0 -1  1
                       0  1  0   0  0  1   1  0  0       0 -1  0   0  0 -1  -1  0  0
                       1  0 -1   0  1 -1   0  0 -1      -1  0  1   0 -1  1   0  0  1
                       0 -1  0   0 -1  1   1 -1  0       0  1  0   0  1 -1  -1  1  0
                      -1  0  1  -1  0  0  -1  1  0       1  0 -1   1  0  0   1 -1  0
                       0  1  0   1  0  0   0  0  1       0 -1  0  -1  0  0   0  0 -1
                       0  0 -1   0  1 -1   1  0 -1       0  0  1   0 -1  1  -1  0  1
                       1 -1  0   0 -1  1   0 -1  0      -1  1  0   0  1 -1   0  1  0
                       0  0  1   1  0  0   0  1  0       0  0 -1  -1  0  0   0 -1  0
                      -1  1  0  -1  0  0  -1  0  1       1 -1  0   1  0  0   1  0 -1
                       0  0  1   0  1  0   1  0  0       0  0 -1   0 -1  0  -1  0  0
                       1 -1  0   0 -1  0   0 -1  1      -1  1  0   0  1  0   0  1 -1
                       0  0 -1   1  0 -1   0  1 -1       0  0  1  -1  0  1   0 -1  1
                      -1  1  0  -1  0  1  -1  0  0       1 -1  0   1  0 -1   1  0  0
           tolwfr      1.00000000E-20
            typat      1  2  2  3
           useylm           1
           xangst      3.1379495062E+00  2.2188653748E+00  5.4350879762E+00
                       1.5689747531E+00  1.1094326874E+00  2.7175439881E+00
                       4.7069242592E+00  3.3282980622E+00  8.1526319643E+00
                       0.0000000000E+00  0.0000000000E+00  0.0000000000E+00
            xcart      5.9298651854E+00  4.1930478841E+00  1.0270827783E+01
                       2.9649325927E+00  2.0965239421E+00  5.1354138916E+00
                       8.8947977782E+00  6.2895718262E+00  1.5406241675E+01
                       0.0000000000E+00  0.0000000000E+00  0.0000000000E+00
             xred      5.0000000000E-01  5.0000000000E-01  5.0000000000E-01
                       2.5000000000E-01  2.5000000000E-01  2.5000000000E-01
                       7.5000000000E-01  7.5000000000E-01  7.5000000000E-01
                       0.0000000000E+00  0.0000000000E+00  0.0000000000E+00
            znucl       19.00000   11.00000   51.00000

 chkinp: Checking input parameters for consistency.

== DATASET  1 ==================================================================
-   mpi_nproc: 1, omp_nthreads: -1 (-1 if OMP is not activated)

--- !DatasetInfo
iteration_state: {dtset: 1, }
dimensions: {natom: 4, nkpt: 1, mband: 30, nsppol: 1, nspinor: 1, nspden: 1, mpw: 10777, }
cutoff_energies: {ecut:  44.0, pawecutdg:  -1.0, }
electrons: {nelect:   4.20000000E+01, charge:   0.00000000E+00, occopt:   1.00000000E+00, tsmear:   1.00000000E-02, }
meta: {optdriver: 1, rfelfd: 2, }
...

 Real(R)+Recip(G) space primitive vectors, cartesian coordinates (Bohr,Bohr^-1):
 R(1)=  8.8947978  0.0000000  5.1354139  G(1)=  0.1124253 -0.0397483  0.0000000
 R(2)=  2.9649326  8.3860958  5.1354139  G(2)=  0.0000000  0.1192450  0.0000000
 R(3)=  0.0000000  0.0000000 10.2708278  G(3)= -0.0562126 -0.0397483  0.0973631
 Unit cell volume ucvol=  7.6612802E+02 bohr^3
 Angles (23,13,12)=  6.00000000E+01  6.00000000E+01  6.00000000E+01 degrees

 getcut: wavevector=  0.0000  0.0000  0.0000  ngfft=  64  64  64
         ecut(hartree)=     44.000   => boxcut(ratio)=   2.08681

--- Pseudopotential description ------------------------------------------------
- pspini: atom type   1  psp file is /scratch/users/j/a/jabreu/pseudos/PBEsol/K.psp8
- pspatm: opening atomic psp file    /scratch/users/j/a/jabreu/pseudos/PBEsol/K.psp8
- K     ONCVPSP-3.3.0  r_core=   1.36296   1.46408   1.61068
- 19.00000   9.00000    180112                znucl, zion, pspdat
    8 -116133    2    4       400   0.00000   pspcod,pspxc,lmax,lloc,mmax,r2well
    3.99000000000000    5.00000000000000    0.00000000000000   rchrg,fchrg,qchrg
     nproj     2     2     2
     extension_switch     1
  pspatm : epsatm=    8.32487830
         --- l  ekb(1:nproj) -->
             0   10.921326    0.816676
             1    4.431000    0.560368
             2   -3.384038   -1.043186
 pspatm: atomic psp has been read  and splines computed

- pspini: atom type   2  psp file is /scratch/users/j/a/jabreu/pseudos/PBEsol/Na.psp8
- pspatm: opening atomic psp file    /scratch/users/j/a/jabreu/pseudos/PBEsol/Na.psp8
- Na    ONCVPSP-3.3.0  r_core=   1.20708   1.55069
- 11.00000   9.00000    180112                znucl, zion, pspdat
    8 -116133    1    4       400   0.00000   pspcod,pspxc,lmax,lloc,mmax,r2well
    3.99000000000000    0.00000000000000    0.00000000000000   rchrg,fchrg,qchrg
     nproj     2     2
     extension_switch     1
  pspatm : epsatm=    9.32878306
         --- l  ekb(1:nproj) -->
             0    2.657905   -0.678300
             1   -6.761319   -2.404728
 pspatm: atomic psp has been read  and splines computed

- pspini: atom type   3  psp file is /scratch/users/j/a/jabreu/pseudos/PBEsol/Sb.psp8
- pspatm: opening atomic psp file    /scratch/users/j/a/jabreu/pseudos/PBEsol/Sb.psp8
- Sb    ONCVPSP-3.3.0  r_core=   1.81962   2.12485   1.81962
- 51.00000  15.00000    180112                znucl, zion, pspdat
    8 -116133    2    4       600   0.00000   pspcod,pspxc,lmax,lloc,mmax,r2well
    5.99000000000000    5.00000000000000    0.00000000000000   rchrg,fchrg,qchrg
     nproj     2     2     2
     extension_switch     1
  pspatm : epsatm=   26.35641246
         --- l  ekb(1:nproj) -->
             0    9.727814    1.485032
             1    5.505335    0.704623
             2   -4.710637   -1.436443
 pspatm: atomic psp has been read  and splines computed

   2.24023199E+03                                ecore*ucvol(ha*bohr**3)

-inwffil : will read wavefunctions from disk file /scratch/users/j/a/jabreu/flow_simple_4atoms/flow/w228/t1/indata/in_WFK

 ==>  initialize data related to q vector <==

 The list of irreducible perturbations for this q vector is:
    1)    idir= 1    ipert=   5
    2)    idir= 2    ipert=   5
    3)    idir= 3    ipert=   5

 Perturbation wavevector (in red.coord.)   0.000000  0.000000  0.000000
 Perturbation : derivative vs k along direction   1

 dfpt_looppert : COMMENT -
  In a d/dk calculation, iscf is set to -3 automatically.
 The set of symmetries contains only one element for this perturbation.
 symkpt : not enough symmetry to change the number of k points.

[...]

 Initialisation of the first-order wave-functions :
  ireadwf=   0

--- !BeginCycle
iteration_state: {dtset: 1, }
solver: {iscf: 7, nstep: 100, nline: 4, wfoptalg: 0, }
tolerances: {tolwfr: 1.00E-20, }
...

     iter   2DEtotal(Ha)        deltaE(Ha) residm    vres2
-ETOT  1  -50.328848273361     -5.033E+01 3.045E-02 0.000E+00
 ETOT  2  -50.367141419744     -3.829E-02 4.264E-04 0.000E+00
 ETOT  3  -50.367431096531     -2.897E-04 9.245E-06 0.000E+00
 ETOT  4  -50.367436325866     -5.229E-06 3.138E-08 0.000E+00
 ETOT  5  -50.367436437575     -1.117E-07 3.340E-09 0.000E+00
 ETOT  6  -50.367436440179     -2.604E-09 2.193E-11 0.000E+00
 ETOT  7  -50.367436440243     -6.384E-11 2.504E-12 0.000E+00
 ETOT  8  -50.367436440244     -1.670E-12 1.636E-14 0.000E+00
 ETOT  9  -50.367436440244      1.776E-13 1.892E-15 0.000E+00
 ETOT 10  -50.367436440244     -1.421E-13 1.232E-17 0.000E+00
 ETOT 11  -50.367436440244      2.487E-13 1.434E-18 0.000E+00
 ETOT 12  -50.367436440244     -1.847E-13 9.936E-21 0.000E+00

 At SCF step   12   max residual=  9.94E-21 < tolwfr=  1.00E-20 =>converged.

 ----iterations are completed or convergence reached----

 dfpt_looppert: DFPT cycle converged with prtwf=-1. Will skip output of the 1st-order WFK file.
 dfpt_looppert : ek2=    4.7154092098E+01
          f-sum rule ratio=    1.6245481652E+00
 prteigrs : about to open file /scratch/users/j/a/jabreu/flow_simple_4atoms/flow/w228/t1/tmpdata/tmp_1WF1_EIG
 Expectation of eigenvalue derivatives (hartree) for nkpt=   1  k points:
  (in case of degenerate eigenvalues, averaged derivative)
 kpt#   1, nband= 30, wtk=  1.00000, kpt=  0.0000  0.0000  0.0000 (reduced coord)
   0.00000   -0.00000    0.00000   -0.00000   -0.00000   -0.00000   -0.00000   -0.00000
   0.00000    0.00000    0.00000   -0.00000   -0.00000   -0.00000    0.00000    0.00000
   0.00000    0.00000    0.00000    0.00000    0.00000   -0.00000    0.00000    0.00000
   0.00000    0.00000    0.00000   -0.00000   -0.00000   -0.00000

 Eight components of 2nd-order total energy (hartree) are
 1,2,3: 0th-order hamiltonian combined with 1st-order wavefunctions
     kin0=   4.07388408E+01 eigvalue=   6.61011807E+00  local=  -2.17583910E+01
 4,5,6: 1st-order hamiltonian combined with 1st and 0th-order wfs
     kin1=  -7.66040938E+01  Hartree=   0.00000000E+00     xc=   0.00000000E+00
 7,8,9: eventually, occupation + non-local contributions
    edocc=   2.08828852E+01     enl0=   3.89398331E+00   enl1=  -2.41307791E+01
 1-9 gives the relaxation energy (to be shifted if some occ is /=2.0)
   erelax=  -5.03674364E+01
  No Ewald or frozen-wf contrib.: the relaxation energy is the total one
 2DEtotal=   -0.5036743644E+02 Ha. Also 2DEtotal=   -0.137056764702E+04 eV
    (  non-var. 2DEtotal :   -5.0367436440E+01 Ha)

 Perturbation wavevector (in red.coord.)   0.000000  0.000000  0.000000
 Perturbation : derivative vs k along direction   2
 The set of symmetries contains only one element for this perturbation.
 symkpt : not enough symmetry to change the number of k points.

[...]

 Perturbation wavevector (in red.coord.)   0.000000  0.000000  0.000000
 Perturbation : derivative vs k along direction   3
 The set of symmetries contains only one element for this perturbation.
 symkpt : not enough symmetry to change the number of k points.

-inwffil : will read wavefunctions from disk file /scratch/users/j/a/jabreu/flow_simple_4atoms/flow/w228/t1/indata/in_WFK

 Initialisation of the first-order wave-functions :
  ireadwf=   0

--- !BeginCycle
iteration_state: {dtset: 1, }
solver: {iscf: 7, nstep: 100, nline: 4, wfoptalg: 0, }
tolerances: {tolwfr: 1.00E-20, }
...

     iter   2DEtotal(Ha)        deltaE(Ha) residm    vres2
-ETOT  1  -50.329026273257     -5.033E+01 3.088E-02 0.000E+00
 ETOT  2  -50.367140571494     -3.811E-02 4.689E-04 0.000E+00
 ETOT  3  -50.367431044633     -2.905E-04 8.926E-06 0.000E+00
 ETOT  4  -50.367436327573     -5.283E-06 3.024E-08 0.000E+00
 ETOT  5  -50.367436440902     -1.133E-07 3.513E-09 0.000E+00
 ETOT  6  -50.367436443540     -2.638E-09 2.046E-11 0.000E+00
 ETOT  7  -50.367436443604     -6.405E-11 2.592E-12 0.000E+00
 ETOT  8  -50.367436443606     -1.599E-12 1.503E-14 0.000E+00
 ETOT  9  -50.367436443606      2.132E-14 1.927E-15 0.000E+00
 ETOT 10  -50.367436443606     -6.395E-14 1.113E-17 0.000E+00
 ETOT 11  -50.367436443606      7.816E-14 1.435E-18 0.000E+00
 ETOT 12  -50.367436443606      7.105E-15 9.990E-21 0.000E+00

 At SCF step   12   max residual=  9.99E-21 < tolwfr=  1.00E-20 =>converged.

 ----iterations are completed or convergence reached----

 dfpt_looppert: DFPT cycle converged with prtwf=-1. Will skip output of the 1st-order WFK file.
 dfpt_looppert : ek2=    4.7154092099E+01
          f-sum rule ratio=    1.6245481650E+00
 prteigrs : about to open file /scratch/users/j/a/jabreu/flow_simple_4atoms/flow/w228/t1/tmpdata/tmp_1WF1_EIG
 Expectation of eigenvalue derivatives (hartree) for nkpt=   1  k points:
  (in case of degenerate eigenvalues, averaged derivative)
 kpt#   1, nband= 30, wtk=  1.00000, kpt=  0.0000  0.0000  0.0000 (reduced coord)
   0.00000    0.00000    0.00000    0.00000    0.00000    0.00000    0.00000    0.00000
  -0.00000   -0.00000   -0.00000    0.00000    0.00000    0.00000   -0.00000   -0.00000
  -0.00000   -0.00000    0.00000    0.00000    0.00000    0.00000    0.00000    0.00000
   0.00000   -0.00000   -0.00000   -0.00000    0.00000    0.00000

 Eight components of 2nd-order total energy (hartree) are
 1,2,3: 0th-order hamiltonian combined with 1st-order wavefunctions
     kin0=   4.07568535E+01 eigvalue=   6.62030534E+00  local=  -2.17793628E+01
 4,5,6: 1st-order hamiltonian combined with 1st and 0th-order wfs
     kin1=  -7.66040938E+01  Hartree=   0.00000000E+00     xc=   0.00000000E+00
 7,8,9: eventually, occupation + non-local contributions
    edocc=   2.08683648E+01     enl0=   3.90127563E+00   enl1=  -2.41307791E+01
 1-9 gives the relaxation energy (to be shifted if some occ is /=2.0)
   erelax=  -5.03674364E+01
  No Ewald or frozen-wf contrib.: the relaxation energy is the total one
 2DEtotal=   -0.5036743644E+02 Ha. Also 2DEtotal=   -0.137056764711E+04 eV
    (  non-var. 2DEtotal :   -5.0367436443E+01 Ha)

 CALCULATION OF EFFECTIVE MASSES
 NOTE : Additional infos (eff. mass eigenvalues, eigenvectors and, if degenerate, average mass) are available in stdout.

 COMMENTS:
 - At k-point ( 0.000, 0.000, 0.000), bands    19 through    21
   are DEGENERATE (effective mass tensor is therefore not defined).
   See Section IIIB Eqs. (67)-(70) and Appendix E of PRB 93 205147 (2016).
 - Angular average effective mass for Frohlich model is to be averaged over degenerate bands. See later.
 - Associated theta integrals calculated with ntheta=   1000 points.

 K-point ( 0.000, 0.000, 0.000) | band =    19
 Transport equivalent effective mass tensor:
             -0.0820270857             -0.0000000000             -0.0000000000
             -0.0000000000             -0.0820270857             -0.0000000000
             -0.0000000000             -0.0000000000             -0.0820270857
 Transport equivalent effective mass tensor eigenvalues:
             -0.0820270857             -0.0820270857             -0.0820270857
 Angular average effective mass 1/(<1/m>)=  -0.0818418954
 Angular average effective mass for Frohlich model (<m**0.5>)**2=  -0.0818547537
 Effective masses along directions: (cart. coord. / red. coord. -> eff. mass)
    1:   1.000000  0.000000  0.000000 /   0.948683  0.316228  0.000000 ->  -0.0811575421
    2:   0.000000  1.000000  0.000000 /   0.000000  1.000000  0.000000 ->  -0.0800903336
    3:   0.000000  0.000000  1.000000 /   0.408248  0.408248  0.816497 ->  -0.0811906394
    4:   0.577350  0.577350  0.577350 /   0.585539  0.688047  0.428644 ->  -0.0811249862
    5:   0.000000  0.707107  0.707107 /   0.289489  0.762222  0.578977 ->  -0.0825686905
    6:   0.707107  0.000000  0.707107 /   0.731423  0.422287  0.535439 ->  -0.0811740800
    7:   0.707107  0.707107  0.000000 /   0.616798  0.787122  0.000000 ->  -0.0842577790

[...]

 K-point ( 0.000, 0.000, 0.000) | band =    21
 Transport equivalent effective mass tensor:
             -1.3637349660              0.0000007441             -0.0000000000
              0.0000007441             -1.3637351461             -0.0000000000
             -0.0000000000             -0.0000000000             -1.3637360093
 Transport equivalent effective mass tensor eigenvalues:
             -1.3637360093             -1.3637358056             -1.3637343065
 Angular average effective mass 1/(<1/m>)=  -1.0756764098
 Angular average effective mass for Frohlich model (<m**0.5>)**2=  -1.0910098633
 Effective masses along directions: (cart. coord. / red. coord. -> eff. mass)
    1:   1.000000  0.000000  0.000000 /   0.948683  0.316228  0.000000 ->  -1.0915748646
    2:   0.000000  1.000000  0.000000 /   0.000000  1.000000  0.000000 ->  -1.0856224938
    3:   0.000000  0.000000  1.000000 /   0.408248  0.408248  0.816497 ->  -1.3299287256
    4:   0.577350  0.577350  0.577350 /   0.585539  0.688047  0.428644 ->  -1.1480247765
    5:   0.000000  0.707107  0.707107 /   0.289489  0.762222  0.578977 ->  -1.0306276942
    6:   0.707107  0.000000  0.707107 /   0.731423  0.422287  0.535439 ->  -1.2273732311
    7:   0.707107  0.707107  0.000000 /   0.616798  0.787122  0.000000 ->  -0.8231899998

 Angular average effective mass for Frohlich model, averaged over degenerate bands.
 Value of     (<<m**0.5>>)**2 =     5.640107E-01
 Absolute Value of <<m**0.5>> =     7.510065E-01

 K-point ( 0.000, 0.000, 0.000) | band =    22
 Effective mass tensor:
              0.0823225142              0.0000000000              0.0000000000
              0.0000000000              0.0823225142              0.0000000000
              0.0000000000              0.0000000000              0.0823225143
 Effective mass tensor eigenvalues:
              0.0823225142              0.0823225142              0.0823225143
 Angular average effective mass 1/(<1/m>)=   0.0823225143
 Angular average effective mass for Frohlich model (<m**0.5>)**2=   0.0823225143
 Effective masses along directions: (cart. coord. / red. coord. -> eff. mass)
    1:   1.000000  0.000000  0.000000 /   0.948683  0.316228  0.000000 ->   0.0823225142
    2:   0.000000  1.000000  0.000000 /   0.000000  1.000000  0.000000 ->   0.0823225142
    3:   0.000000  0.000000  1.000000 /   0.408248  0.408248  0.816497 ->   0.0823225143
    4:   0.577350  0.577350  0.577350 /   0.585539  0.688047  0.428644 ->   0.0823225143
    5:   0.000000  0.707107  0.707107 /   0.289489  0.762222  0.578977 ->   0.0823225143
    6:   0.707107  0.000000  0.707107 /   0.731423  0.422287  0.535439 ->   0.0823225143
    7:   0.707107  0.707107  0.000000 /   0.616798  0.787122  0.000000 ->   0.0823225142

 END OF EFFECTIVE MASSES SECTION

 ---- first-order wavefunction calculations are completed ----

 Total localisation tensor (bohr^2) in cartesian coordinates
  WARNING : still subject to testing - especially symmetries.
      direction              matrix element
   alpha     beta       real part   imaginary part
     1        1      13.6098744340    0.0000000000
     1        2       3.8494538007    0.0000000000
     1        3       9.4291976014    0.0000000000
     2        1       3.8494538007    0.0000000000
     2        2      10.8878995456    0.0000000000
     2        3       6.6674495643    0.0000000000
     3        1       9.4291976014    0.0000000000
     3        2       6.6674495643    0.0000000000
     3        3      24.4977739759    0.0000000000

 respfn : d/dk was computed, but no 2DTE, so no DDB output.

== END DATASET(S) ==============================================================

 -outvars: echo values of variables after computation  --------
            acell      1.0000000000E+00  1.0000000000E+00  1.0000000000E+00 Bohr
              amu      3.90983000E+01  2.29897680E+01  1.21753000E+02
             ecut      4.40000000E+01 Hartree
           etotal     -5.0367436444E+01
            fcart      0.0000000000E+00  0.0000000000E+00  0.0000000000E+00
                       0.0000000000E+00  0.0000000000E+00  0.0000000000E+00
                       0.0000000000E+00  0.0000000000E+00  0.0000000000E+00
                       0.0000000000E+00  0.0000000000E+00  0.0000000000E+00
-          fftalg         512
           irdden           1
           irdwfk           1
           istwfk        1
              ixc     -116133
           kptopt           0
P           mkmem           1
P          mkqmem           1
P          mk1mem           1
            natom           4
            nband          30
           nbdbuf           4
            ngfft          64      64      64
             nkpt           1
            nstep         100
             nsym          48
           ntypat           3
              occ      2.000000  2.000000  2.000000  2.000000  2.000000  2.000000
                       2.000000  2.000000  2.000000  2.000000  2.000000  2.000000
                       2.000000  2.000000  2.000000  2.000000  2.000000  2.000000
                       2.000000  2.000000  2.000000  0.000000  0.000000  0.000000
                       0.000000  0.000000  0.000000  0.000000  0.000000  0.000000
        optdriver           1
            prtwf          -1
            rfdir           1       1       1
           rfelfd           2
            rprim      8.8947977782E+00  0.0000000000E+00  5.1354138916E+00
                       2.9649325927E+00  8.3860957683E+00  5.1354138916E+00
                       0.0000000000E+00  0.0000000000E+00  1.0270827783E+01
          spgroup         225
           strten      0.0000000000E+00  0.0000000000E+00  0.0000000000E+00
                       0.0000000000E+00  0.0000000000E+00  0.0000000000E+00
           symrel      1  0  0   0  1  0   0  0  1      -1  0  0   0 -1  0   0  0 -1
                       0 -1  1   0 -1  0   1 -1  0       0  1 -1   0  1  0  -1  1  0
                      -1  0  0  -1  0  1  -1  1  0       1  0  0   1  0 -1   1 -1  0
                       0  1 -1   1  0 -1   0  0 -1       0 -1  1  -1  0  1   0  0  1
                      -1  0  0  -1  1  0  -1  0  1       1  0  0   1 -1  0   1  0 -1
                       0 -1  1   1 -1  0   0 -1  0       0  1 -1  -1  1  0   0  1  0
                       1  0  0   0  0  1   0  1  0      -1  0  0   0  0 -1   0 -1  0
                       0  1 -1   0  0 -1   1  0 -1       0 -1  1   0  0  1  -1  0  1
                      -1  0  1  -1  1  0  -1  0  0       1  0 -1   1 -1  0   1  0  0
                       0 -1  0   1 -1  0   0 -1  1       0  1  0  -1  1  0   0  1 -1
                       1  0 -1   0  0 -1   0  1 -1      -1  0  1   0  0  1   0 -1  1
                       0  1  0   0  0  1   1  0  0       0 -1  0   0  0 -1  -1  0  0
                       1  0 -1   0  1 -1   0  0 -1      -1  0  1   0 -1  1   0  0  1
                       0 -1  0   0 -1  1   1 -1  0       0  1  0   0  1 -1  -1  1  0
                      -1  0  1  -1  0  0  -1  1  0       1  0 -1   1  0  0   1 -1  0
                       0  1  0   1  0  0   0  0  1       0 -1  0  -1  0  0   0  0 -1
                       0  0 -1   0  1 -1   1  0 -1       0  0  1   0 -1  1  -1  0  1
                       1 -1  0   0 -1  1   0 -1  0      -1  1  0   0  1 -1   0  1  0
                       0  0  1   1  0  0   0  1  0       0  0 -1  -1  0  0   0 -1  0
                      -1  1  0  -1  0  0  -1  0  1       1 -1  0   1  0  0   1  0 -1
                       0  0  1   0  1  0   1  0  0       0  0 -1   0 -1  0  -1  0  0
                       1 -1  0   0 -1  0   0 -1  1      -1  1  0   0  1  0   0  1 -1
                       0  0 -1   1  0 -1   0  1 -1       0  0  1  -1  0  1   0 -1  1
                      -1  1  0  -1  0  1  -1  0  0       1 -1  0   1  0 -1   1  0  0
           tolwfr      1.00000000E-20
            typat      1  2  2  3
           useylm           1
           xangst      3.1379495062E+00  2.2188653748E+00  5.4350879762E+00
                       1.5689747531E+00  1.1094326874E+00  2.7175439881E+00
                       4.7069242592E+00  3.3282980622E+00  8.1526319643E+00
                       0.0000000000E+00  0.0000000000E+00  0.0000000000E+00
            xcart      5.9298651854E+00  4.1930478841E+00  1.0270827783E+01
                       2.9649325927E+00  2.0965239421E+00  5.1354138916E+00
                       8.8947977782E+00  6.2895718262E+00  1.5406241675E+01
                       0.0000000000E+00  0.0000000000E+00  0.0000000000E+00
             xred      5.0000000000E-01  5.0000000000E-01  5.0000000000E-01
                       2.5000000000E-01  2.5000000000E-01  2.5000000000E-01
                       7.5000000000E-01  7.5000000000E-01  7.5000000000E-01
                       0.0000000000E+00  0.0000000000E+00  0.0000000000E+00
            znucl       19.00000   11.00000   51.00000

- Timing analysis has been suppressed with timopt=0

 Suggested references for the acknowledgment of ABINIT usage.

 Calculation completed.
.Delivered   6 WARNINGs and   5 COMMENTs to log file.