.Version 9.5.1 of ABINIT

 ABINIT is a project of the Universite Catholique de Louvain,
 Corning Inc. and other collaborators, see ~abinit/doc/developers/contributors.txt .
 acknowledgments of the ABINIT effort.

.Starting date : Sun 25 Apr 2021.
- ( at 18h03 )

- input  file    -> /scratch/users/j/a/jabreu/flow_simple2/flow/w251/t1/run.abi
- output file    -> /scratch/users/j/a/jabreu/flow_simple2/flow/w251/t1/run.abo
- root for input  files -> /scratch/users/j/a/jabreu/flow_simple2/flow/w251/t1/indata/in
- root for output files -> /scratch/users/j/a/jabreu/flow_simple2/flow/w251/t1/outdata/out

 Symmetries : space group P-6 m 2 (#187); Bravais hP (primitive hexag.)
     intxc =       0      iscf =       7    lmnmax =      13     lnmax =       5
     mgfft =      36  mpssoang =       3    mqgrid =    3001     natom =       2
  nloc_mem =       1    nspden =       1   nspinor =       1    nsppol =       1
      nsym =      12    n1xccc =    2501    ntypat =       2    occopt =       1
   xclevel =       2
-    mband =          17        mffmem =           1         mkmem =           2
-   mkqmem =           2        mk1mem =           2           mpw =        1860
      nfft =       38880          nkpt =           2
  Rough estimation (10% accuracy) of disk space for files :

------------- Echo of variables that govern the present computation ------------
-
- outvars: echo of selected default values
-   iomode0 =  0 , fftalg0 =512 , wfoptalg0 =  0
-
- outvars: echo of global parameters not present in the input file
-  max_nthreads =    0
-
 -outvars: echo values of preprocessed input variables --------
            acell      1.0000000000E+00  1.0000000000E+00  1.0000000000E+00 Bohr
              amu      2.43050000E+01  1.59994000E+01
             ecut      4.40000000E+01 Hartree
-          fftalg         512
           irdden           1
           irdwfk           1
           istwfk        0    1
              ixc     -116133
              kpt      3.33333333E-01  3.33333333E-01  0.00000000E+00
                       0.00000000E+00  0.00000000E+00  0.00000000E+00
           kptopt           0
P           mkmem           2
P          mkqmem           2
P          mk1mem           2
            natom           2
            nband          17
           nbdbuf           4
            ngfft          36      36      30
             nkpt           2
            nstep         100
             nsym          12
           ntypat           2
              occ      2.000000  2.000000  2.000000  2.000000  2.000000  2.000000
                       2.000000  2.000000  0.000000  0.000000  0.000000  0.000000
                       0.000000  0.000000  0.000000  0.000000  0.000000
        optdriver           1
            prtwf          -1
            rfdir           1       1       1
           rfelfd           2
            rprim      5.4965290834E+00  0.0000000000E+00  0.0000000000E+00
                      -2.7482645417E+00  4.7601338189E+00  0.0000000000E+00
                       0.0000000000E+00  0.0000000000E+00  5.0207155094E+00
          spgroup         187
           symrel      1  0  0   0  1  0   0  0  1       0 -1  0  -1  0  0   0  0 -1
                      -1 -1  0   1  0  0   0  0 -1      -1  0  0   1  1  0   0  0  1
                       0  1  0  -1 -1  0   0  0  1       1  1  0   0 -1  0   0  0 -1
                       1  0  0   0  1  0   0  0 -1       0 -1  0  -1  0  0   0  0  1
                      -1 -1  0   1  0  0   0  0  1      -1  0  0   1  1  0   0  0 -1
                       0  1  0  -1 -1  0   0  0 -1       1  1  0   0 -1  0   0  0  1
           tolwfr      1.00000000E-20
            typat      1  2
           useylm           1
              wtk        0.50000    0.50000
           xangst      0.0000000000E+00  0.0000000000E+00  0.0000000000E+00
                      -3.5250283265E-16  1.6793028845E+00  1.3284241092E+00
            xcart      0.0000000000E+00  0.0000000000E+00  0.0000000000E+00
                      -6.6613381478E-16  3.1734225459E+00  2.5103577547E+00
             xred      0.0000000000E+00  0.0000000000E+00  0.0000000000E+00
                       3.3333333333E-01  6.6666666667E-01  5.0000000000E-01
            znucl       12.00000    8.00000

 chkinp: Checking input parameters for consistency.

== DATASET  1 ==================================================================
-   mpi_nproc: 1, omp_nthreads: -1 (-1 if OMP is not activated)

--- !DatasetInfo
iteration_state: {dtset: 1, }
dimensions: {natom: 2, nkpt: 2, mband: 17, nsppol: 1, nspinor: 1, nspden: 1, mpw: 1860, }
cutoff_energies: {ecut:  44.0, pawecutdg:  -1.0, }
electrons: {nelect:   1.60000000E+01, charge:   0.00000000E+00, occopt:   1.00000000E+00, tsmear:   1.00000000E-02, }
meta: {optdriver: 1, rfelfd: 2, }
...

 Real(R)+Recip(G) space primitive vectors, cartesian coordinates (Bohr,Bohr^-1):
 R(1)=  5.4965291  0.0000000  0.0000000  G(1)=  0.1819330  0.1050391  0.0000000
 R(2)= -2.7482645  4.7601338  0.0000000  G(2)=  0.0000000  0.2100781  0.0000000
 R(3)=  0.0000000  0.0000000  5.0207155  G(3)=  0.0000000  0.0000000  0.1991748
 Unit cell volume ucvol=  1.3136307E+02 bohr^3
 Angles (23,13,12)=  9.00000000E+01  9.00000000E+01  1.20000000E+02 degrees

 getcut: wavevector=  0.0000  0.0000  0.0000  ngfft=  36  36  30
         ecut(hartree)=     44.000   => boxcut(ratio)=   2.00108

--- Pseudopotential description ------------------------------------------------
- pspini: atom type   1  psp file is /scratch/users/j/a/jabreu/pseudos/PBEsol/Mg.psp8
- pspatm: opening atomic psp file    /scratch/users/j/a/jabreu/pseudos/PBEsol/Mg.psp8
- Mg    ONCVPSP-3.3.0  r_core=   1.16056   1.56380
- 12.00000  10.00000    180112                znucl, zion, pspdat
    8 -116133    1    4       400   0.00000   pspcod,pspxc,lmax,lloc,mmax,r2well
    3.99000000000000    0.00000000000000    0.00000000000000   rchrg,fchrg,qchrg
     nproj     2     2
     extension_switch     1
  pspatm : epsatm=    9.18164846
         --- l  ekb(1:nproj) -->
             0    2.230603   -0.826587
             1   -6.503151   -2.501445
 pspatm: atomic psp has been read  and splines computed

- pspini: atom type   2  psp file is /scratch/users/j/a/jabreu/pseudos/PBEsol/O.psp8
- pspatm: opening atomic psp file    /scratch/users/j/a/jabreu/pseudos/PBEsol/O.psp8
- O     ONCVPSP-3.3.0  r_core=   1.35509   1.45563   1.26150
-  8.00000   6.00000    180112                znucl, zion, pspdat
    8 -116133    2    4       600   0.00000   pspcod,pspxc,lmax,lloc,mmax,r2well
    5.99000000000000    4.00000000000000    0.00000000000000   rchrg,fchrg,qchrg
     nproj     2     2     1
     extension_switch     1
  pspatm : epsatm=    6.22910522
         --- l  ekb(1:nproj) -->
             0    6.050032    0.820363
             1   -4.739617   -1.153841
             2   -1.335834
 pspatm: atomic psp has been read  and splines computed

   2.46572059E+02                                ecore*ucvol(ha*bohr**3)

-inwffil : will read wavefunctions from disk file /scratch/users/j/a/jabreu/flow_simple2/flow/w251/t1/indata/in_WFK

 ==>  initialize data related to q vector <==

 The list of irreducible perturbations for this q vector is:
    1)    idir= 1    ipert=   3
    2)    idir= 2    ipert=   3
    3)    idir= 3    ipert=   3

 Perturbation wavevector (in red.coord.)   0.000000  0.000000  0.000000
 Perturbation : derivative vs k along direction   1

 dfpt_looppert : COMMENT -
  In a d/dk calculation, iscf is set to -3 automatically.
 The set of symmetries contains only one element for this perturbation.
 symkpt : not enough symmetry to change the number of k points.

[...]

 Initialisation of the first-order wave-functions :
  ireadwf=   0

--- !BeginCycle
iteration_state: {dtset: 1, }
solver: {iscf: 7, nstep: 100, nline: 4, wfoptalg: 0, }
tolerances: {tolwfr: 1.00E-20, }
...

     iter   2DEtotal(Ha)        deltaE(Ha) residm    vres2
-ETOT  1  -35.911632823217     -3.591E+01 3.763E-02 0.000E+00
 ETOT  2  -35.913254815904     -1.622E-03 2.589E-05 0.000E+00
 ETOT  3  -35.913255279156     -4.633E-07 1.706E-09 0.000E+00
 ETOT  4  -35.913255279312     -1.564E-10 6.868E-13 0.000E+00
 ETOT  5  -35.913255279312     -1.137E-13 4.010E-16 0.000E+00
 ETOT  6  -35.913255279312     -1.421E-14 3.085E-19 0.000E+00
 ETOT  7  -35.913255279312      3.553E-14 8.278E-21 0.000E+00

 At SCF step    7   max residual=  8.28E-21 < tolwfr=  1.00E-20 =>converged.

 ----iterations are completed or convergence reached----

 dfpt_looppert: DFPT cycle converged with prtwf=-1. Will skip output of the 1st-order WFK file.
 dfpt_looppert : ek2=    5.5753404375E+01
          f-sum rule ratio=    1.1934857472E+00
 prteigrs : about to open file /scratch/users/j/a/jabreu/flow_simple2/flow/w251/t1/tmpdata/tmp_1WF1_EIG
 Expectation of eigenvalue derivatives (hartree) for nkpt=   2  k points:
  (in case of degenerate eigenvalues, averaged derivative)
 kpt#   1, nband= 17, wtk=  0.50000, kpt=  0.3333  0.3333  0.0000 (reduced coord)
   0.00000    0.00000   -0.00000   -0.00000    0.00000    0.00000   -0.00000    0.00000
   0.00000    0.00000   -0.00000    0.00000    0.00000   -0.00000   -0.00000   -0.00000
  -0.00030
 prteigrs : prtvol=0 or 1, do not print more k-points.

 Eight components of 2nd-order total energy (hartree) are
 1,2,3: 0th-order hamiltonian combined with 1st-order wavefunctions
     kin0=   2.91203474E+01 eigvalue=   3.46046321E+00  local=  -9.88862694E+00
 4,5,6: 1st-order hamiltonian combined with 1st and 0th-order wfs
     kin1=  -6.65408935E+01  Hartree=   0.00000000E+00     xc=   0.00000000E+00
 7,8,9: eventually, occupation + non-local contributions
    edocc=   1.38855267E+01     enl0=  -6.64455045E-01   enl1=  -5.28561708E+00
 1-9 gives the relaxation energy (to be shifted if some occ is /=2.0)
   erelax=  -3.59132553E+01
  No Ewald or frozen-wf contrib.: the relaxation energy is the total one
 2DEtotal=   -0.3591325528E+02 Ha. Also 2DEtotal=   -0.977249375068E+03 eV
    (  non-var. 2DEtotal :   -3.5913255279E+01 Ha)

 Perturbation wavevector (in red.coord.)   0.000000  0.000000  0.000000
 Perturbation : derivative vs k along direction   2
 The set of symmetries contains only one element for this perturbation.
 symkpt : not enough symmetry to change the number of k points.

[...]

 Perturbation wavevector (in red.coord.)   0.000000  0.000000  0.000000
 Perturbation : derivative vs k along direction   3
 The set of symmetries contains only one element for this perturbation.
 symkpt : not enough symmetry to change the number of k points.

-inwffil : will read wavefunctions from disk file /scratch/users/j/a/jabreu/flow_simple2/flow/w251/t1/indata/in_WFK

 Initialisation of the first-order wave-functions :
  ireadwf=   0

--- !BeginCycle
iteration_state: {dtset: 1, }
solver: {iscf: 7, nstep: 100, nline: 4, wfoptalg: 0, }
tolerances: {tolwfr: 1.00E-20, }
...

     iter   2DEtotal(Ha)        deltaE(Ha) residm    vres2
-ETOT  1  -35.929751734791     -3.593E+01 2.051E-02 0.000E+00
 ETOT  2  -35.930632532395     -8.808E-04 9.448E-06 0.000E+00
 ETOT  3  -35.930632724149     -1.918E-07 2.276E-09 0.000E+00
 ETOT  4  -35.930632724213     -6.391E-11 2.223E-12 0.000E+00
 ETOT  5  -35.930632724213     -7.816E-14 1.186E-15 0.000E+00
 ETOT  6  -35.930632724213      2.842E-14 1.169E-18 0.000E+00
 ETOT  7  -35.930632724213      2.132E-14 8.106E-21 0.000E+00

 At SCF step    7   max residual=  8.11E-21 < tolwfr=  1.00E-20 =>converged.

 ----iterations are completed or convergence reached----

 dfpt_looppert: DFPT cycle converged with prtwf=-1. Will skip output of the 1st-order WFK file.
 dfpt_looppert : ek2=    5.0116240890E+01
          f-sum rule ratio=    1.3741165913E+00
 prteigrs : about to open file /scratch/users/j/a/jabreu/flow_simple2/flow/w251/t1/tmpdata/tmp_1WF1_EIG
 Expectation of eigenvalue derivatives (hartree) for nkpt=   2  k points:
  (in case of degenerate eigenvalues, averaged derivative)
 kpt#   1, nband= 17, wtk=  0.50000, kpt=  0.3333  0.3333  0.0000 (reduced coord)
   0.00000    0.00000    0.00000   -0.00000   -0.00000    0.00000   -0.00000    0.00000
  -0.00000   -0.00000   -0.00000   -0.00000    0.00000    0.00000   -0.00000    0.00000
   0.00002
 prteigrs : prtvol=0 or 1, do not print more k-points.

 Eight components of 2nd-order total energy (hartree) are
 1,2,3: 0th-order hamiltonian combined with 1st-order wavefunctions
     kin0=   2.59481330E+01 eigvalue=   3.11367976E+00  local=  -8.80286136E+00
 4,5,6: 1st-order hamiltonian combined with 1st and 0th-order wfs
     kin1=  -6.88655581E+01  Hartree=   0.00000000E+00     xc=   0.00000000E+00
 7,8,9: eventually, occupation + non-local contributions
    edocc=   1.61759747E+01     enl0=  -5.04293400E-01   enl1=  -2.99570735E+00
 1-9 gives the relaxation energy (to be shifted if some occ is /=2.0)
   erelax=  -3.59306327E+01
  No Ewald or frozen-wf contrib.: the relaxation energy is the total one
 2DEtotal=   -0.3593063272E+02 Ha. Also 2DEtotal=   -0.977722239391E+03 eV
    (  non-var. 2DEtotal :   -3.5930632724E+01 Ha)

 CALCULATION OF EFFECTIVE MASSES
 NOTE : Additional infos (eff. mass eigenvalues, eigenvectors and, if degenerate, average mass) are available in stdout.

 K-point ( 0.333, 0.333, 0.000) | band =     8
 Effective mass tensor:
            -11.8673206099             -0.0000000259             -0.0000000077
             -0.0000000259            -11.8673205707             -0.0000000867
             -0.0000000077             -0.0000000867             -0.4633423323
 Effective mass tensor eigenvalues:
            -11.8673206228            -11.8673205578             -0.4633423323
 Angular average effective mass 1/(<1/m>)=  -1.2893457266
 Angular average effective mass for Frohlich model (<m**0.5>)**2=  -2.5612787451
 Effective masses along directions: (cart. coord. / red. coord. -> eff. mass)
    1:   1.000000  0.000000  0.000000 /   0.894427 -0.447214  0.000000 -> -11.8673206099
    2:   0.000000  1.000000  0.000000 /   0.000000  1.000000  0.000000 -> -11.8673205707
    3:   0.000000  0.000000  1.000000 /   0.000000  0.000000  1.000000 ->  -0.4633423323
    4:   0.577350  0.577350  0.577350 /   0.712772  0.260893  0.651070 ->  -1.2893457458
    5:   0.000000  0.707107  0.707107 /   0.000000  0.688024  0.725688 ->  -0.8918631726
    6:   0.707107  0.000000  0.707107 /   0.692649 -0.346325  0.632689 ->  -0.8918631613
    7:   0.707107  0.707107  0.000000 /   0.939071  0.343724  0.000000 -> -11.8673206163

 K-point ( 0.000, 0.000, 0.000) | band =     9
 Effective mass tensor:
              0.3113384640             -0.0000000000              0.0000000000
             -0.0000000000              0.3113384641              0.0000000000
              0.0000000000              0.0000000000              0.2920412130
 Effective mass tensor eigenvalues:
              0.2920412130              0.3113384640              0.3113384641
 Angular average effective mass 1/(<1/m>)=   0.3046287965
 Angular average effective mass for Frohlich model (<m**0.5>)**2=   0.3047128697
 Effective masses along directions: (cart. coord. / red. coord. -> eff. mass)
    1:   1.000000  0.000000  0.000000 /   0.894427 -0.447214  0.000000 ->   0.3113384640
    2:   0.000000  1.000000  0.000000 /   0.000000  1.000000  0.000000 ->   0.3113384641
    3:   0.000000  0.000000  1.000000 /   0.000000  0.000000  1.000000 ->   0.2920412130
    4:   0.577350  0.577350  0.577350 /   0.712772  0.260893  0.651070 ->   0.3046287965
    5:   0.000000  0.707107  0.707107 /   0.000000  0.688024  0.725688 ->   0.3013812568
    6:   0.707107  0.000000  0.707107 /   0.692649 -0.346325  0.632689 ->   0.3013812567
    7:   0.707107  0.707107  0.000000 /   0.939071  0.343724  0.000000 ->   0.3113384640

 END OF EFFECTIVE MASSES SECTION

 ---- first-order wavefunction calculations are completed ----

 Total localisation tensor (bohr^2) in cartesian coordinates
  WARNING : still subject to testing - especially symmetries.
      direction              matrix element
   alpha     beta       real part   imaginary part
     1        1       1.5310172422    0.0000000000
     1        2      -0.5303607491    0.0000000000
     1        3       0.0000000000    0.0000000000
     2        1      -0.5303607491    0.0000000000
     2        2       0.9186117637    0.0000000000
     2        3       0.0000000000    0.0000000000
     3        1       0.0000000000    0.0000000000
     3        2       0.0000000000    0.0000000000
     3        3       1.1646635983    0.0000000000

 respfn : d/dk was computed, but no 2DTE, so no DDB output.

== END DATASET(S) ==============================================================

 -outvars: echo values of variables after computation  --------
            acell      1.0000000000E+00  1.0000000000E+00  1.0000000000E+00 Bohr
              amu      2.43050000E+01  1.59994000E+01
             ecut      4.40000000E+01 Hartree
           etotal     -3.5930632724E+01
            fcart      0.0000000000E+00  0.0000000000E+00  0.0000000000E+00
                       0.0000000000E+00  0.0000000000E+00  0.0000000000E+00
-          fftalg         512
           irdden           1
           irdwfk           1
           istwfk        0    1
              ixc     -116133
              kpt      3.33333333E-01  3.33333333E-01  0.00000000E+00
                       0.00000000E+00  0.00000000E+00  0.00000000E+00
           kptopt           0
P           mkmem           2
P          mkqmem           2
P          mk1mem           2
            natom           2
            nband          17
           nbdbuf           4
            ngfft          36      36      30
             nkpt           2
            nstep         100
             nsym          12
           ntypat           2
              occ      2.000000  2.000000  2.000000  2.000000  2.000000  2.000000
                       2.000000  2.000000  0.000000  0.000000  0.000000  0.000000
                       0.000000  0.000000  0.000000  0.000000  0.000000
        optdriver           1
            prtwf          -1
            rfdir           1       1       1
           rfelfd           2
            rprim      5.4965290834E+00  0.0000000000E+00  0.0000000000E+00
                      -2.7482645417E+00  4.7601338189E+00  0.0000000000E+00
                       0.0000000000E+00  0.0000000000E+00  5.0207155094E+00
          spgroup         187
           strten      0.0000000000E+00  0.0000000000E+00  0.0000000000E+00
                       0.0000000000E+00  0.0000000000E+00  0.0000000000E+00
           symrel      1  0  0   0  1  0   0  0  1       0 -1  0  -1  0  0   0  0 -1
                      -1 -1  0   1  0  0   0  0 -1      -1  0  0   1  1  0   0  0  1
                       0  1  0  -1 -1  0   0  0  1       1  1  0   0 -1  0   0  0 -1
                       1  0  0   0  1  0   0  0 -1       0 -1  0  -1  0  0   0  0  1
                      -1 -1  0   1  0  0   0  0  1      -1  0  0   1  1  0   0  0 -1
                       0  1  0  -1 -1  0   0  0 -1       1  1  0   0 -1  0   0  0  1
           tolwfr      1.00000000E-20
            typat      1  2
           useylm           1
              wtk        0.50000    0.50000
           xangst      0.0000000000E+00  0.0000000000E+00  0.0000000000E+00
                      -3.5250283265E-16  1.6793028845E+00  1.3284241092E+00
            xcart      0.0000000000E+00  0.0000000000E+00  0.0000000000E+00
                      -6.6613381478E-16  3.1734225459E+00  2.5103577547E+00
             xred      0.0000000000E+00  0.0000000000E+00  0.0000000000E+00
                       3.3333333333E-01  6.6666666667E-01  5.0000000000E-01
            znucl       12.00000    8.00000

- Timing analysis has been suppressed with timopt=0

 Suggested references for the acknowledgment of ABINIT usage.

 Calculation completed.
.Delivered  14 WARNINGs and   9 COMMENTs to log file.