.Version 9.5.1 of ABINIT

 ABINIT is a project of the Universite Catholique de Louvain,
 Corning Inc. and other collaborators, see ~abinit/doc/developers/contributors.txt .
 acknowledgments of the ABINIT effort.

.Starting date : Wed 19 May 2021.
- ( at 01h24 )

- input  file    -> /scratch/users/j/a/jabreu/flow_simple_8atoms/flow/w434/t1/run.abi
- output file    -> /scratch/users/j/a/jabreu/flow_simple_8atoms/flow/w434/t1/run.abo
- root for input  files -> /scratch/users/j/a/jabreu/flow_simple_8atoms/flow/w434/t1/indata/in
- root for output files -> /scratch/users/j/a/jabreu/flow_simple_8atoms/flow/w434/t1/outdata/out

 Symmetries : space group R-3 (#148); Bravais hR (rhombohedral)
     intxc =       0      iscf =       7    lmnmax =      18     lnmax =       6
     mgfft =      64  mpssoang =       3    mqgrid =    3001     natom =       8
  nloc_mem =       1    nspden =       1   nspinor =       1    nsppol =       1
      nsym =       6    n1xccc =    2501    ntypat =       3    occopt =       1
   xclevel =       2
-    mband =          42        mffmem =           1         mkmem =           2
-   mkqmem =           2        mk1mem =           2           mpw =       10061
      nfft =      262144          nkpt =           2
  Rough estimation (10% accuracy) of disk space for files :

------------- Echo of variables that govern the present computation ------------
-
- outvars: echo of selected default values
-   iomode0 =  0 , fftalg0 =512 , wfoptalg0 =  0
-
- outvars: echo of global parameters not present in the input file
-  max_nthreads =    0
-
 -outvars: echo values of preprocessed input variables --------
            acell      1.0000000000E+00  1.0000000000E+00  1.0000000000E+00 Bohr
              amu      2.43050000E+01  2.07200000E+02  1.89984032E+01
             ecut      4.20000000E+01 Hartree
-          fftalg         512
           irdden           1
           irdwfk           1
           istwfk        0    1
              ixc     -116133
              kpt      1.09121577E-01  1.38777878E-17 -1.09121577E-01
                       0.00000000E+00  0.00000000E+00  0.00000000E+00
           kptopt           0
P           mkmem           2
P          mkqmem           2
P          mk1mem           2
            natom           8
            nband          42
           nbdbuf           4
            ngfft          64      64      64
             nkpt           2
            nstep        2000
             nsym           6
           ntypat           3
              occ      2.000000  2.000000  2.000000  2.000000  2.000000  2.000000
                       2.000000  2.000000  2.000000  2.000000  2.000000  2.000000
                       2.000000  2.000000  2.000000  2.000000  2.000000  2.000000
                       2.000000  2.000000  2.000000  2.000000  2.000000  2.000000
                       2.000000  2.000000  2.000000  2.000000  2.000000  2.000000
                       2.000000  2.000000  2.000000  0.000000  0.000000  0.000000
                       0.000000  0.000000  0.000000  0.000000  0.000000  0.000000
        optdriver           1
            prtwf          -1
            rfdir           1       1       1
           rfelfd           2
            rprim      8.8191233793E+00  0.0000000000E+00  5.9111340050E+00
                       3.1540979639E+00  8.2358122377E+00  5.9111340050E+00
                       0.0000000000E+00  0.0000000000E+00  1.0616894198E+01
          spgroup         148
           symrel      1  0  0   0  1  0   0  0  1      -1  0  0   0 -1  0   0  0 -1
                       0  0  1   1  0  0   0  1  0       0  0 -1  -1  0  0   0 -1  0
                       0  1  0   0  0  1   1  0  0       0 -1  0   0  0 -1  -1  0  0
           tolwfr      1.00000000E-20
            typat      1  2  3  3  3  3  3  3
           useylm           1
              wtk        0.50000    0.50000
           xangst      0.0000000000E+00  0.0000000000E+00  0.0000000000E+00
                       3.1679779241E+00  2.1791020652E+00  5.9371466101E+00
                       4.1475269807E+00  1.6036447918E+00  4.1886430879E+00
                       1.9160803045E+00  5.1924079830E-01  5.7773188290E+00
                       4.5162528199E+00  1.0585336938E+00  7.0660457753E+00
                       4.4198755437E+00  3.8389633321E+00  6.0969743911E+00
                       2.1884288675E+00  2.7545593386E+00  7.6856501323E+00
                       1.8197030283E+00  3.2996704366E+00  4.8082474449E+00
            xcart      0.0000000000E+00  0.0000000000E+00  0.0000000000E+00
                       5.9866106716E+00  4.1179061188E+00  1.1219581104E+01
                       7.8376901224E+00  3.0304494710E+00  7.9153883046E+00
                       3.6208670242E+00  9.8122290581E-01  1.0917550369E+01
                       8.5344809765E+00  2.0003387837E+00  1.3352891358E+01
                       8.3523543190E+00  7.2545893319E+00  1.1521611838E+01
                       4.1355312208E+00  5.2053627667E+00  1.4523773903E+01
                       3.4387403667E+00  6.2354734540E+00  9.0862708499E+00
             xred      0.0000000000E+00  0.0000000000E+00  0.0000000000E+00
                       5.0000000000E-01  5.0000000000E-01  5.0000000000E-01
                       7.5711700000E-01  3.6796000000E-01  1.1914100000E-01
                       3.6796000000E-01  1.1914100000E-01  7.5711700000E-01
                       8.8085900000E-01  2.4288300000E-01  6.3204000000E-01
                       6.3204000000E-01  8.8085900000E-01  2.4288300000E-01
                       2.4288300000E-01  6.3204000000E-01  8.8085900000E-01
                       1.1914100000E-01  7.5711700000E-01  3.6796000000E-01
            znucl       12.00000   82.00000    9.00000

 chkinp: Checking input parameters for consistency.

== DATASET  1 ==================================================================
-   mpi_nproc: 1, omp_nthreads: -1 (-1 if OMP is not activated)

--- !DatasetInfo
iteration_state: {dtset: 1, }
dimensions: {natom: 8, nkpt: 2, mband: 42, nsppol: 1, nspinor: 1, nspden: 1, mpw: 10061, }
cutoff_energies: {ecut:  42.0, pawecutdg:  -1.0, }
electrons: {nelect:   6.60000000E+01, charge:   0.00000000E+00, occopt:   1.00000000E+00, tsmear:   1.00000000E-02, }
meta: {optdriver: 1, rfelfd: 2, }
...

 Real(R)+Recip(G) space primitive vectors, cartesian coordinates (Bohr,Bohr^-1):
 R(1)=  8.8191234  0.0000000  5.9111340  G(1)=  0.1133900 -0.0434253  0.0000000
 R(2)=  3.1540980  8.2358122  5.9111340  G(2)=  0.0000000  0.1214209  0.0000000
 R(3)=  0.0000000  0.0000000 10.6168942  G(3)= -0.0631318 -0.0434253  0.0941895
 Unit cell volume ucvol=  7.7113310E+02 bohr^3
 Angles (23,13,12)=  5.61675073E+01  5.61675073E+01  5.61675073E+01 degrees

 getcut: wavevector=  0.0000  0.0000  0.0000  ngfft=  64  64  64
         ecut(hartree)=     42.000   => boxcut(ratio)=   2.06637

--- Pseudopotential description ------------------------------------------------
- pspini: atom type   1  psp file is /scratch/users/j/a/jabreu/pseudos/PBEsol/Mg.psp8
- pspatm: opening atomic psp file    /scratch/users/j/a/jabreu/pseudos/PBEsol/Mg.psp8
- Mg    ONCVPSP-3.3.0  r_core=   1.16056   1.56380
- 12.00000  10.00000    180112                znucl, zion, pspdat
    8 -116133    1    4       400   0.00000   pspcod,pspxc,lmax,lloc,mmax,r2well
    3.99000000000000    0.00000000000000    0.00000000000000   rchrg,fchrg,qchrg
     nproj     2     2
     extension_switch     1
  pspatm : epsatm=    9.18164846
         --- l  ekb(1:nproj) -->
             0    2.230603   -0.826587
             1   -6.503151   -2.501445
 pspatm: atomic psp has been read  and splines computed

- pspini: atom type   2  psp file is /scratch/users/j/a/jabreu/pseudos/PBEsol/Pb.psp8
- pspatm: opening atomic psp file    /scratch/users/j/a/jabreu/pseudos/PBEsol/Pb.psp8
- Pb    ONCVPSP-3.3.0  r_core=   2.42823   2.42823   2.10438
- 82.00000  14.00000    180112                znucl, zion, pspdat
    8 -116133    2    4       600   0.00000   pspcod,pspxc,lmax,lloc,mmax,r2well
    5.99000000000000    6.00000000000000    0.00000000000000   rchrg,fchrg,qchrg
     nproj     2     2     2
     extension_switch     1
  pspatm : epsatm=   44.32675151
         --- l  ekb(1:nproj) -->
             0    6.256780    1.206521
             1    4.272336    0.573876
             2   -3.251371   -0.847363
 pspatm: atomic psp has been read  and splines computed

- pspini: atom type   3  psp file is /scratch/users/j/a/jabreu/pseudos/PBEsol/F.psp8
- pspatm: opening atomic psp file    /scratch/users/j/a/jabreu/pseudos/PBEsol/F.psp8
- F     ONCVPSP-3.3.0  r_core=   1.30942   1.45782   1.60379
-  9.00000   7.00000    180112                znucl, zion, pspdat
    8 -116133    2    4       600   0.00000   pspcod,pspxc,lmax,lloc,mmax,r2well
    5.99000000000000    2.50000000000000    0.00000000000000   rchrg,fchrg,qchrg
     nproj     2     2     1
     extension_switch     1
  pspatm : epsatm=    4.89824824
         --- l  ekb(1:nproj) -->
             0    6.506434    1.065875
             1   -3.978753   -1.295852
             2   -2.394754
 pspatm: atomic psp has been read  and splines computed

   5.47126070E+03                                ecore*ucvol(ha*bohr**3)

-inwffil : will read wavefunctions from disk file /scratch/users/j/a/jabreu/flow_simple_8atoms/flow/w434/t1/indata/in_WFK

 ==>  initialize data related to q vector <==

 The list of irreducible perturbations for this q vector is:
    1)    idir= 1    ipert=   9
    2)    idir= 2    ipert=   9
    3)    idir= 3    ipert=   9

 Perturbation wavevector (in red.coord.)   0.000000  0.000000  0.000000
 Perturbation : derivative vs k along direction   1

 dfpt_looppert : COMMENT -
  In a d/dk calculation, iscf is set to -3 automatically.
 The set of symmetries contains only one element for this perturbation.
 symkpt : not enough symmetry to change the number of k points.

[...]

 Initialisation of the first-order wave-functions :
  ireadwf=   0

--- !BeginCycle
iteration_state: {dtset: 1, }
solver: {iscf: 7, nstep: 2000, nline: 4, wfoptalg: 0, }
tolerances: {tolwfr: 1.00E-20, }
...

     iter   2DEtotal(Ha)        deltaE(Ha) residm    vres2
-ETOT  1  -52.911979902316     -5.291E+01 7.621E-02 0.000E+00
 ETOT  2  -52.956800322100     -4.482E-02 1.434E-03 0.000E+00
 ETOT  3  -52.956906635633     -1.063E-04 5.624E-05 0.000E+00
 ETOT  4  -52.956907175205     -5.396E-07 1.528E-06 0.000E+00
 ETOT  5  -52.956907179006     -3.801E-09 1.212E-07 0.000E+00
 ETOT  6  -52.956907179037     -3.062E-11 3.590E-09 0.000E+00
 ETOT  7  -52.956907179037     -2.345E-13 3.076E-10 0.000E+00
 ETOT  8  -52.956907179037     -1.421E-14 9.231E-12 0.000E+00
 ETOT  9  -52.956907179037      0.000E+00 8.238E-13 0.000E+00
 ETOT 10  -52.956907179037     -7.105E-15 2.465E-14 0.000E+00
 ETOT 11  -52.956907179037      0.000E+00 2.260E-15 0.000E+00
 ETOT 12  -52.956907179037      1.421E-14 6.726E-17 0.000E+00
 ETOT 13  -52.956907179037     -1.421E-14 6.293E-18 0.000E+00
 ETOT 14  -52.956907179037      1.421E-14 1.863E-19 0.000E+00
 ETOT 15  -52.956907179037      0.000E+00 1.769E-20 0.000E+00
 ETOT 16  -52.956907179037      0.000E+00 9.924E-21 0.000E+00

 At SCF step   16   max residual=  9.92E-21 < tolwfr=  1.00E-20 =>converged.

 ----iterations are completed or convergence reached----

 dfpt_looppert: DFPT cycle converged with prtwf=-1. Will skip output of the 1st-order WFK file.
 dfpt_looppert : ek2=    7.6828224036E+01
          f-sum rule ratio=    1.0237771004E+00
 prteigrs : about to open file /scratch/users/j/a/jabreu/flow_simple_8atoms/flow/w434/t1/tmpdata/tmp_1WF1_EIG
 Expectation of eigenvalue derivatives (hartree) for nkpt=   2  k points:
  (in case of degenerate eigenvalues, averaged derivative)
 kpt#   1, nband= 42, wtk=  0.50000, kpt=  0.1091  0.0000 -0.1091 (reduced coord)
   0.00000   -0.00001   -0.00000   -0.00000    0.01666   -0.00643   -0.00236   -0.00836
  -0.00530    0.00448    0.00004    0.00033    0.00041   -0.00178   -0.00153    0.01814
  -0.02726    0.02555    0.00786   -0.02131    0.02381    0.02968   -0.03354   -0.02544
  -0.01121    0.01202   -0.01944    0.01795   -0.01241   -0.02292    0.00731   -0.01070
   0.00145    0.07360   -0.10710    0.03680   -0.01958    0.14923   -0.05491   -0.13529
  -0.07677   -0.01258
 prteigrs : prtvol=0 or 1, do not print more k-points.

 Eight components of 2nd-order total energy (hartree) are
 1,2,3: 0th-order hamiltonian combined with 1st-order wavefunctions
     kin0=   6.56800614E+01 eigvalue=   7.10722847E+00  local=  -2.85891470E+01
 4,5,6: 1st-order hamiltonian combined with 1st and 0th-order wfs
     kin1=  -7.86549764E+01  Hartree=   0.00000000E+00     xc=   0.00000000E+00
 7,8,9: eventually, occupation + non-local contributions
    edocc=   6.37726581E+00     enl0=   2.38149843E+00   enl1=  -2.72588379E+01
 1-9 gives the relaxation energy (to be shifted if some occ is /=2.0)
   erelax=  -5.29569072E+01
  No Ewald or frozen-wf contrib.: the relaxation energy is the total one
 2DEtotal=   -0.5295690718E+02 Ha. Also 2DEtotal=   -0.144103072929E+04 eV
    (  non-var. 2DEtotal :   -5.2956907179E+01 Ha)

 Perturbation wavevector (in red.coord.)   0.000000  0.000000  0.000000
 Perturbation : derivative vs k along direction   2
 The set of symmetries contains only one element for this perturbation.
 symkpt : not enough symmetry to change the number of k points.

[...]

 Perturbation wavevector (in red.coord.)   0.000000  0.000000  0.000000
 Perturbation : derivative vs k along direction   3
 The set of symmetries contains only one element for this perturbation.
 symkpt : not enough symmetry to change the number of k points.

-inwffil : will read wavefunctions from disk file /scratch/users/j/a/jabreu/flow_simple_8atoms/flow/w434/t1/indata/in_WFK

 Initialisation of the first-order wave-functions :
  ireadwf=   0

--- !BeginCycle
iteration_state: {dtset: 1, }
solver: {iscf: 7, nstep: 2000, nline: 4, wfoptalg: 0, }
tolerances: {tolwfr: 1.00E-20, }
...

     iter   2DEtotal(Ha)        deltaE(Ha) residm    vres2
-ETOT  1  -52.907017502237     -5.291E+01 7.499E-02 0.000E+00
 ETOT  2  -52.954137386503     -4.712E-02 1.371E-03 0.000E+00
 ETOT  3  -52.954249076480     -1.117E-04 6.856E-05 0.000E+00
 ETOT  4  -52.954249617980     -5.415E-07 1.800E-06 0.000E+00
 ETOT  5  -52.954249621662     -3.682E-09 1.372E-07 0.000E+00
 ETOT  6  -52.954249621691     -2.889E-11 5.705E-09 0.000E+00
 ETOT  7  -52.954249621691     -2.629E-13 4.478E-10 0.000E+00
 ETOT  8  -52.954249621691      2.132E-14 2.181E-11 0.000E+00
 ETOT  9  -52.954249621691      2.842E-14 1.660E-12 0.000E+00
 ETOT 10  -52.954249621691     -2.842E-14 8.575E-14 0.000E+00
 ETOT 11  -52.954249621691      1.421E-14 6.400E-15 0.000E+00
 ETOT 12  -52.954249621691     -1.421E-14 3.405E-16 0.000E+00
 ETOT 13  -52.954249621691      0.000E+00 2.511E-17 0.000E+00
 ETOT 14  -52.954249621691      0.000E+00 1.359E-18 0.000E+00
 ETOT 15  -52.954249621691      7.105E-15 9.940E-20 0.000E+00
 ETOT 16  -52.954249621691      0.000E+00 9.956E-21 0.000E+00

 At SCF step   16   max residual=  9.96E-21 < tolwfr=  1.00E-20 =>converged.

 ----iterations are completed or convergence reached----

 dfpt_looppert: DFPT cycle converged with prtwf=-1. Will skip output of the 1st-order WFK file.
 dfpt_looppert : ek2=    7.6828224036E+01
          f-sum rule ratio=    1.0238720542E+00
 prteigrs : about to open file /scratch/users/j/a/jabreu/flow_simple_8atoms/flow/w434/t1/tmpdata/tmp_1WF1_EIG
 Expectation of eigenvalue derivatives (hartree) for nkpt=   2  k points:
  (in case of degenerate eigenvalues, averaged derivative)
 kpt#   1, nband= 42, wtk=  0.50000, kpt=  0.1091  0.0000 -0.1091 (reduced coord)
  -0.00000    0.00001    0.00000    0.00000   -0.01651    0.00464    0.00344    0.01619
  -0.00430   -0.00213   -0.00009   -0.00026   -0.00044    0.00189    0.00141   -0.01809
   0.02552   -0.02311   -0.00910    0.01775   -0.01934   -0.02816    0.03665    0.03407
   0.01174   -0.02399    0.00249   -0.00744    0.02674    0.00593   -0.00287    0.01040
   0.00119   -0.07323    0.09994   -0.04912    0.04596   -0.15168    0.05125    0.14372
  -0.01841    0.08890
 prteigrs : prtvol=0 or 1, do not print more k-points.

 Eight components of 2nd-order total energy (hartree) are
 1,2,3: 0th-order hamiltonian combined with 1st-order wavefunctions
     kin0=   6.57568682E+01 eigvalue=   7.10137168E+00  local=  -2.86499191E+01
 4,5,6: 1st-order hamiltonian combined with 1st and 0th-order wfs
     kin1=  -7.86622716E+01  Hartree=   0.00000000E+00     xc=   0.00000000E+00
 7,8,9: eventually, occupation + non-local contributions
    edocc=   6.38976234E+00     enl0=   2.35616647E+00   enl1=  -2.72462277E+01
 1-9 gives the relaxation energy (to be shifted if some occ is /=2.0)
   erelax=  -5.29542496E+01
  No Ewald or frozen-wf contrib.: the relaxation energy is the total one
 2DEtotal=   -0.5295424962E+02 Ha. Also 2DEtotal=   -0.144095841347E+04 eV
    (  non-var. 2DEtotal :   -5.2954249622E+01 Ha)

 CALCULATION OF EFFECTIVE MASSES
 NOTE : Additional infos (eff. mass eigenvalues, eigenvectors and, if degenerate, average mass) are available in stdout.

 K-point ( 0.109, 0.000,-0.109) | band =    33
 Effective mass tensor:
            -19.1134769405              4.5926799409             -5.6304025984
              4.5926799409             -5.3017077944              3.2622763207
             -5.6304025984              3.2622763207            -10.1783690865
 Effective mass tensor eigenvalues:
            -23.5310069720             -7.6534446644             -3.4091021849
 Angular average effective mass 1/(<1/m>)=  -6.4310115079
 Angular average effective mass for Frohlich model (<m**0.5>)**2=  -7.5256497849
 Effective masses along directions: (cart. coord. / red. coord. -> eff. mass)
    1:   1.000000  0.000000  0.000000 /   0.941593  0.336754  0.000000 -> -14.1724881808
    2:   0.000000  1.000000  0.000000 /   0.000000  1.000000  0.000000 ->  -3.7702441822
    3:   0.000000  0.000000  1.000000 /   0.437440  0.437440  0.785679 ->  -7.6513698234
    4:   0.577350  0.577350  0.577350 /   0.587322  0.689824  0.423315 ->  -4.7665731170
    5:   0.000000  0.707107  0.707107 /   0.316963  0.758578  0.569292 ->  -3.8848951539
    6:   0.707107  0.000000  0.707107 /   0.725816  0.446678  0.523135 -> -13.0872182728
    7:   0.707107  0.707107  0.000000 /   0.612222  0.790686  0.000000 ->  -4.6703076667

 K-point ( 0.000, 0.000, 0.000) | band =    34
 Effective mass tensor:
              0.8317980249             -0.0185002699             -0.0504137756
             -0.0185002699              0.8459863517             -0.0346659957
             -0.0504137756             -0.0346659957              0.7642064353
 Effective mass tensor eigenvalues:
              0.7245900942              0.8586943558              0.8587063620
 Angular average effective mass 1/(<1/m>)=   0.8088015317
 Angular average effective mass for Frohlich model (<m**0.5>)**2=   0.8104021676
 Effective masses along directions: (cart. coord. / red. coord. -> eff. mass)
    1:   1.000000  0.000000  0.000000 /   0.941593  0.336754  0.000000 ->   0.8279605668
    2:   0.000000  1.000000  0.000000 /   0.000000  1.000000  0.000000 ->   0.8438922611
    3:   0.000000  0.000000  1.000000 /   0.437440  0.437440  0.785679 ->   0.7596363232
    4:   0.577350  0.577350  0.577350 /   0.587322  0.689824  0.423315 ->   0.7421818297
    5:   0.000000  0.707107  0.707107 /   0.316963  0.758578  0.569292 ->   0.7654522525
    6:   0.707107  0.000000  0.707107 /   0.725816  0.446678  0.523135 ->   0.7445305826
    7:   0.707107  0.707107  0.000000 /   0.612222  0.790686  0.000000 ->   0.8155818012

 END OF EFFECTIVE MASSES SECTION

 ---- first-order wavefunction calculations are completed ----

 Total localisation tensor (bohr^2) in cartesian coordinates
  WARNING : still subject to testing - especially symmetries.
      direction              matrix element
   alpha     beta       real part   imaginary part
     1        1       0.6964558677    0.0000000000
     1        2       0.2103731522    0.0000000000
     1        3       0.5637996809    0.0000000000
     2        1       0.2103731522    0.0000000000
     2        2       0.5493151454    0.0000000000
     2        3       0.3942629265    0.0000000000
     3        1       0.5637996809    0.0000000000
     3        2       0.3942629265    0.0000000000
     3        3       1.4528216375    0.0000000000

 respfn : d/dk was computed, but no 2DTE, so no DDB output.

== END DATASET(S) ==============================================================

 -outvars: echo values of variables after computation  --------
            acell      1.0000000000E+00  1.0000000000E+00  1.0000000000E+00 Bohr
              amu      2.43050000E+01  2.07200000E+02  1.89984032E+01
             ecut      4.20000000E+01 Hartree
           etotal     -5.2954249622E+01
            fcart      0.0000000000E+00  0.0000000000E+00  0.0000000000E+00
                       0.0000000000E+00  0.0000000000E+00  0.0000000000E+00
                       0.0000000000E+00  0.0000000000E+00  0.0000000000E+00
                       0.0000000000E+00  0.0000000000E+00  0.0000000000E+00
                       0.0000000000E+00  0.0000000000E+00  0.0000000000E+00
                       0.0000000000E+00  0.0000000000E+00  0.0000000000E+00
                       0.0000000000E+00  0.0000000000E+00  0.0000000000E+00
                       0.0000000000E+00  0.0000000000E+00  0.0000000000E+00
-          fftalg         512
           irdden           1
           irdwfk           1
           istwfk        0    1
              ixc     -116133
              kpt      1.09121577E-01  1.38777878E-17 -1.09121577E-01
                       0.00000000E+00  0.00000000E+00  0.00000000E+00
           kptopt           0
P           mkmem           2
P          mkqmem           2
P          mk1mem           2
            natom           8
            nband          42
           nbdbuf           4
            ngfft          64      64      64
             nkpt           2
            nstep        2000
             nsym           6
           ntypat           3
              occ      2.000000  2.000000  2.000000  2.000000  2.000000  2.000000
                       2.000000  2.000000  2.000000  2.000000  2.000000  2.000000
                       2.000000  2.000000  2.000000  2.000000  2.000000  2.000000
                       2.000000  2.000000  2.000000  2.000000  2.000000  2.000000
                       2.000000  2.000000  2.000000  2.000000  2.000000  2.000000
                       2.000000  2.000000  2.000000  0.000000  0.000000  0.000000
                       0.000000  0.000000  0.000000  0.000000  0.000000  0.000000
        optdriver           1
            prtwf          -1
            rfdir           1       1       1
           rfelfd           2
            rprim      8.8191233793E+00  0.0000000000E+00  5.9111340050E+00
                       3.1540979639E+00  8.2358122377E+00  5.9111340050E+00
                       0.0000000000E+00  0.0000000000E+00  1.0616894198E+01
          spgroup         148
           strten      0.0000000000E+00  0.0000000000E+00  0.0000000000E+00
                       0.0000000000E+00  0.0000000000E+00  0.0000000000E+00
           symrel      1  0  0   0  1  0   0  0  1      -1  0  0   0 -1  0   0  0 -1
                       0  0  1   1  0  0   0  1  0       0  0 -1  -1  0  0   0 -1  0
                       0  1  0   0  0  1   1  0  0       0 -1  0   0  0 -1  -1  0  0
           tolwfr      1.00000000E-20
            typat      1  2  3  3  3  3  3  3
           useylm           1
              wtk        0.50000    0.50000
           xangst      0.0000000000E+00  0.0000000000E+00  0.0000000000E+00
                       3.1679779241E+00  2.1791020652E+00  5.9371466101E+00
                       4.1475269807E+00  1.6036447918E+00  4.1886430879E+00
                       1.9160803045E+00  5.1924079830E-01  5.7773188290E+00
                       4.5162528199E+00  1.0585336938E+00  7.0660457753E+00
                       4.4198755437E+00  3.8389633321E+00  6.0969743911E+00
                       2.1884288675E+00  2.7545593386E+00  7.6856501323E+00
                       1.8197030283E+00  3.2996704366E+00  4.8082474449E+00
            xcart      0.0000000000E+00  0.0000000000E+00  0.0000000000E+00
                       5.9866106716E+00  4.1179061188E+00  1.1219581104E+01
                       7.8376901224E+00  3.0304494710E+00  7.9153883046E+00
                       3.6208670242E+00  9.8122290581E-01  1.0917550369E+01
                       8.5344809765E+00  2.0003387837E+00  1.3352891358E+01
                       8.3523543190E+00  7.2545893319E+00  1.1521611838E+01
                       4.1355312208E+00  5.2053627667E+00  1.4523773903E+01
                       3.4387403667E+00  6.2354734540E+00  9.0862708499E+00
             xred      0.0000000000E+00  0.0000000000E+00  0.0000000000E+00
                       5.0000000000E-01  5.0000000000E-01  5.0000000000E-01
                       7.5711700000E-01  3.6796000000E-01  1.1914100000E-01
                       3.6796000000E-01  1.1914100000E-01  7.5711700000E-01
                       8.8085900000E-01  2.4288300000E-01  6.3204000000E-01
                       6.3204000000E-01  8.8085900000E-01  2.4288300000E-01
                       2.4288300000E-01  6.3204000000E-01  8.8085900000E-01
                       1.1914100000E-01  7.5711700000E-01  3.6796000000E-01
            znucl       12.00000   82.00000    9.00000

- Timing analysis has been suppressed with timopt=0

 Suggested references for the acknowledgment of ABINIT usage.

 Calculation completed.
.Delivered  14 WARNINGs and   9 COMMENTs to log file.