.Version 9.5.1 of ABINIT

 ABINIT is a project of the Universite Catholique de Louvain,
 Corning Inc. and other collaborators, see ~abinit/doc/developers/contributors.txt .
 acknowledgments of the ABINIT effort.

.Starting date : Sun 25 Apr 2021.
- ( at 17h22 )

- input  file    -> /scratch/users/j/a/jabreu/flow_simple2/flow/w204/t1/run.abi
- output file    -> /scratch/users/j/a/jabreu/flow_simple2/flow/w204/t1/run.abo
- root for input  files -> /scratch/users/j/a/jabreu/flow_simple2/flow/w204/t1/indata/in
- root for output files -> /scratch/users/j/a/jabreu/flow_simple2/flow/w204/t1/outdata/out

 Symmetries : space group F-4 3 m (#216); Bravais cF (face-center cubic)
     intxc =       0      iscf =       7    lmnmax =      18     lnmax =       6
     mgfft =      40  mpssoang =       3    mqgrid =    3001     natom =       2
  nloc_mem =       1    nspden =       1   nspinor =       1    nsppol =       1
      nsym =      24    n1xccc =    2501    ntypat =       2    occopt =       1
   xclevel =       2
-    mband =          19        mffmem =           1         mkmem =           2
-   mkqmem =           2        mk1mem =           2           mpw =        2200
      nfft =       64000          nkpt =           2
  Rough estimation (10% accuracy) of disk space for files :

------------- Echo of variables that govern the present computation ------------
-
- outvars: echo of selected default values
-   iomode0 =  0 , fftalg0 =512 , wfoptalg0 =  0
-
- outvars: echo of global parameters not present in the input file
-  max_nthreads =    0
-
 -outvars: echo values of preprocessed input variables --------
            acell      1.0000000000E+00  1.0000000000E+00  1.0000000000E+00 Bohr
              amu      1.01070000E+02  1.20110000E+01
             ecut      4.40000000E+01 Hartree
-          fftalg         512
           irdden           1
           irdwfk           1
           istwfk        1    0
              ixc     -116133
              kpt      5.00000000E-01  0.00000000E+00  5.00000000E-01
                       5.00000000E-01  4.25000000E-01  5.75000000E-01
           kptopt           0
P           mkmem           2
P          mkqmem           2
P          mk1mem           2
            natom           2
            nband          19
           nbdbuf           4
            ngfft          40      40      40
             nkpt           2
            nstep         100
             nsym          24
           ntypat           2
              occ      2.000000  2.000000  2.000000  2.000000  2.000000  2.000000
                       2.000000  2.000000  2.000000  2.000000  0.000000  0.000000
                       0.000000  0.000000  0.000000  0.000000  0.000000  0.000000
                       0.000000
        optdriver           1
            prtwf          -1
            rfdir           1       1       1
           rfelfd           2
            rprim      5.2221356368E+00  0.0000000000E+00  3.0150014156E+00
                       1.7407118789E+00  4.9234766947E+00  3.0150014156E+00
                       0.0000000000E+00  0.0000000000E+00  6.0300028313E+00
          spgroup         216
           symrel      1  0  0   0  1  0   0  0  1       0 -1  1   0 -1  0   1 -1  0
                      -1  0  0  -1  0  1  -1  1  0       0  1 -1   1  0 -1   0  0 -1
                      -1  0  0  -1  1  0  -1  0  1       0 -1  1   1 -1  0   0 -1  0
                       1  0  0   0  0  1   0  1  0       0  1 -1   0  0 -1   1  0 -1
                      -1  0  1  -1  1  0  -1  0  0       0 -1  0   1 -1  0   0 -1  1
                       1  0 -1   0  0 -1   0  1 -1       0  1  0   0  0  1   1  0  0
                       1  0 -1   0  1 -1   0  0 -1       0 -1  0   0 -1  1   1 -1  0
                      -1  0  1  -1  0  0  -1  1  0       0  1  0   1  0  0   0  0  1
                       0  0 -1   0  1 -1   1  0 -1       1 -1  0   0 -1  1   0 -1  0
                       0  0  1   1  0  0   0  1  0      -1  1  0  -1  0  0  -1  0  1
                       0  0  1   0  1  0   1  0  0       1 -1  0   0 -1  0   0 -1  1
                       0  0 -1   1  0 -1   0  1 -1      -1  1  0  -1  0  1  -1  0  0
           tolwfr      1.00000000E-20
            typat      1  2
           useylm           1
              wtk        0.50000    0.50000
           xangst      0.0000000000E+00  0.0000000000E+00  0.0000000000E+00
                       2.7634351591E+00  1.9540437404E+00  4.7864100990E+00
            xcart      0.0000000000E+00  0.0000000000E+00  0.0000000000E+00
                       5.2221356368E+00  3.6926075210E+00  9.0450042469E+00
             xred      0.0000000000E+00  0.0000000000E+00  0.0000000000E+00
                       7.5000000000E-01  7.5000000000E-01  7.5000000000E-01
            znucl       44.00000    6.00000

 chkinp: Checking input parameters for consistency.

== DATASET  1 ==================================================================
-   mpi_nproc: 1, omp_nthreads: -1 (-1 if OMP is not activated)

--- !DatasetInfo
iteration_state: {dtset: 1, }
dimensions: {natom: 2, nkpt: 2, mband: 19, nsppol: 1, nspinor: 1, nspden: 1, mpw: 2200, }
cutoff_energies: {ecut:  44.0, pawecutdg:  -1.0, }
electrons: {nelect:   2.00000000E+01, charge:   0.00000000E+00, occopt:   1.00000000E+00, tsmear:   1.00000000E-02, }
meta: {optdriver: 1, rfelfd: 2, }
...

 Real(R)+Recip(G) space primitive vectors, cartesian coordinates (Bohr,Bohr^-1):
 R(1)=  5.2221356  0.0000000  3.0150014  G(1)=  0.1914925 -0.0677028  0.0000000
 R(2)=  1.7407119  4.9234767  3.0150014  G(2)=  0.0000000  0.2031085  0.0000000
 R(3)=  0.0000000  0.0000000  6.0300028  G(3)= -0.0957463 -0.0677028  0.1658374
 Unit cell volume ucvol=  1.5503778E+02 bohr^3
 Angles (23,13,12)=  6.00000000E+01  6.00000000E+01  6.00000000E+01 degrees

 getcut: wavevector=  0.0000  0.0000  0.0000  ngfft=  40  40  40
         ecut(hartree)=     44.000   => boxcut(ratio)=   2.22152

 getcut : COMMENT -
  Note that boxcut > 2.2 ; recall that boxcut=Gcut(box)/Gcut(sphere) = 2
  is sufficient for exact treatment of convolution.
  Such a large boxcut is a waste : you could raise ecut
  e.g. ecut=   54.286858 Hartrees makes boxcut=2

--- Pseudopotential description ------------------------------------------------
- pspini: atom type   1  psp file is /scratch/users/j/a/jabreu/pseudos/PBEsol/Ru.psp8
- pspatm: opening atomic psp file    /scratch/users/j/a/jabreu/pseudos/PBEsol/Ru.psp8
- Ru    ONCVPSP-3.3.0  r_core=   1.35650   1.40592   1.30881
- 44.00000  16.00000    180112                znucl, zion, pspdat
    8 -116133    2    4       600   0.00000   pspcod,pspxc,lmax,lloc,mmax,r2well
    5.99000000000000    7.00000000000000    0.00000000000000   rchrg,fchrg,qchrg
     nproj     2     2     2
     extension_switch     1
  pspatm : epsatm=   20.24388641
         --- l  ekb(1:nproj) -->
             0   14.596908    1.144598
             1    7.305594    1.039251
             2    1.509539    0.405296
 pspatm: atomic psp has been read  and splines computed

- pspini: atom type   2  psp file is /scratch/users/j/a/jabreu/pseudos/PBEsol/C.psp8
- pspatm: opening atomic psp file    /scratch/users/j/a/jabreu/pseudos/PBEsol/C.psp8
- C     ONCVPSP-3.3.0  r_core=   1.20440   1.26326
-  6.00000   4.00000    180112                znucl, zion, pspdat
    8 -116133    1    4       600   0.00000   pspcod,pspxc,lmax,lloc,mmax,r2well
    5.99000000000000    4.00000000000000    0.00000000000000   rchrg,fchrg,qchrg
     nproj     2     2
     extension_switch     1
  pspatm : epsatm=    4.34909529
         --- l  ekb(1:nproj) -->
             0    6.468939    0.390031
             1   -4.179695   -0.878453
 pspatm: atomic psp has been read  and splines computed

   4.91859634E+02                                ecore*ucvol(ha*bohr**3)

-inwffil : will read wavefunctions from disk file /scratch/users/j/a/jabreu/flow_simple2/flow/w204/t1/indata/in_WFK

 ==>  initialize data related to q vector <==

 The list of irreducible perturbations for this q vector is:
    1)    idir= 1    ipert=   3
    2)    idir= 2    ipert=   3
    3)    idir= 3    ipert=   3

 Perturbation wavevector (in red.coord.)   0.000000  0.000000  0.000000
 Perturbation : derivative vs k along direction   1

 dfpt_looppert : COMMENT -
  In a d/dk calculation, iscf is set to -3 automatically.
 The set of symmetries contains only one element for this perturbation.
 symkpt : not enough symmetry to change the number of k points.

[...]

 Initialisation of the first-order wave-functions :
  ireadwf=   0

--- !BeginCycle
iteration_state: {dtset: 1, }
solver: {iscf: 7, nstep: 100, nline: 4, wfoptalg: 0, }
tolerances: {tolwfr: 1.00E-20, }
...

     iter   2DEtotal(Ha)        deltaE(Ha) residm    vres2
-ETOT  1  -39.388829004578     -3.939E+01 8.199E-02 0.000E+00
 ETOT  2  -39.393911722540     -5.083E-03 6.896E-05 0.000E+00
 ETOT  3  -39.393913075201     -1.353E-06 6.785E-08 0.000E+00
 ETOT  4  -39.393913075678     -4.771E-10 2.853E-10 0.000E+00
 ETOT  5  -39.393913075678     -4.192E-13 4.582E-13 0.000E+00
 ETOT  6  -39.393913075678     -1.421E-14 2.116E-15 0.000E+00
 ETOT  7  -39.393913075678      1.421E-14 3.586E-18 0.000E+00
 ETOT  8  -39.393913075678      2.132E-14 1.870E-20 0.000E+00
 ETOT  9  -39.393913075678      7.105E-15 9.141E-21 0.000E+00

 At SCF step    9   max residual=  9.14E-21 < tolwfr=  1.00E-20 =>converged.

 ----iterations are completed or convergence reached----

 dfpt_looppert: DFPT cycle converged with prtwf=-1. Will skip output of the 1st-order WFK file.
 dfpt_looppert : ek2=    6.5144229980E+01
          f-sum rule ratio=    1.2290393600E+00
 prteigrs : about to open file /scratch/users/j/a/jabreu/flow_simple2/flow/w204/t1/tmpdata/tmp_1WF1_EIG
 Expectation of eigenvalue derivatives (hartree) for nkpt=   2  k points:
  (in case of degenerate eigenvalues, averaged derivative)
 kpt#   1, nband= 19, wtk=  0.50000, kpt=  0.5000  0.0000  0.5000 (reduced coord)
  -0.00000   -0.00000    0.00000    0.00000   -0.00000   -0.00000    0.00000    0.00000
  -0.00000    0.00000    0.00000    0.00000   -0.00000    0.00000    0.00000   -0.00000
   0.00000    0.00000   -0.00000
 prteigrs : prtvol=0 or 1, do not print more k-points.

 Eight components of 2nd-order total energy (hartree) are
 1,2,3: 0th-order hamiltonian combined with 1st-order wavefunctions
     kin0=   2.29687385E+01 eigvalue=  -1.64437645E+00  local=  -9.80317393E+00
 4,5,6: 1st-order hamiltonian combined with 1st and 0th-order wfs
     kin1=  -8.00648227E+01  Hartree=   0.00000000E+00     xc=   0.00000000E+00
 7,8,9: eventually, occupation + non-local contributions
    edocc=   2.70956996E+01     enl0=   7.77025276E-01   enl1=   1.27699657E+00
 1-9 gives the relaxation energy (to be shifted if some occ is /=2.0)
   erelax=  -3.93939131E+01
  No Ewald or frozen-wf contrib.: the relaxation energy is the total one
 2DEtotal=   -0.3939391308E+02 Ha. Also 2DEtotal=   -0.107196289045E+04 eV
    (  non-var. 2DEtotal :   -3.9393913076E+01 Ha)

 Perturbation wavevector (in red.coord.)   0.000000  0.000000  0.000000
 Perturbation : derivative vs k along direction   2
 The set of symmetries contains only one element for this perturbation.
 symkpt : not enough symmetry to change the number of k points.

[...]

 Perturbation wavevector (in red.coord.)   0.000000  0.000000  0.000000
 Perturbation : derivative vs k along direction   3
 The set of symmetries contains only one element for this perturbation.
 symkpt : not enough symmetry to change the number of k points.

-inwffil : will read wavefunctions from disk file /scratch/users/j/a/jabreu/flow_simple2/flow/w204/t1/indata/in_WFK

 Initialisation of the first-order wave-functions :
  ireadwf=   0

--- !BeginCycle
iteration_state: {dtset: 1, }
solver: {iscf: 7, nstep: 100, nline: 4, wfoptalg: 0, }
tolerances: {tolwfr: 1.00E-20, }
...

     iter   2DEtotal(Ha)        deltaE(Ha) residm    vres2
-ETOT  1  -37.753926449485     -3.775E+01 5.387E-02 0.000E+00
 ETOT  2  -37.759279163157     -5.353E-03 8.822E-05 0.000E+00
 ETOT  3  -37.759280624554     -1.461E-06 1.232E-07 0.000E+00
 ETOT  4  -37.759280625034     -4.800E-10 4.567E-10 0.000E+00
 ETOT  5  -37.759280625034     -4.263E-13 1.068E-12 0.000E+00
 ETOT  6  -37.759280625034      0.000E+00 4.198E-15 0.000E+00
 ETOT  7  -37.759280625034     -2.842E-14 1.038E-17 0.000E+00
 ETOT  8  -37.759280625034      0.000E+00 4.530E-20 0.000E+00
 ETOT  9  -37.759280625034      0.000E+00 9.141E-21 0.000E+00

 At SCF step    9   max residual=  9.14E-21 < tolwfr=  1.00E-20 =>converged.

 ----iterations are completed or convergence reached----

 dfpt_looppert: DFPT cycle converged with prtwf=-1. Will skip output of the 1st-order WFK file.
 dfpt_looppert : ek2=    6.5144229980E+01
          f-sum rule ratio=    1.1734406226E+00
 prteigrs : about to open file /scratch/users/j/a/jabreu/flow_simple2/flow/w204/t1/tmpdata/tmp_1WF1_EIG
 Expectation of eigenvalue derivatives (hartree) for nkpt=   2  k points:
  (in case of degenerate eigenvalues, averaged derivative)
 kpt#   1, nband= 19, wtk=  0.50000, kpt=  0.5000  0.0000  0.5000 (reduced coord)
   0.00000    0.00000   -0.00000   -0.00000   -0.00000   -0.00000    0.00000    0.00000
  -0.00000   -0.00000    0.00000    0.00000   -0.00000   -0.00000    0.00000   -0.00000
  -0.00000   -0.00000   -0.00000
 prteigrs : prtvol=0 or 1, do not print more k-points.

 Eight components of 2nd-order total energy (hartree) are
 1,2,3: 0th-order hamiltonian combined with 1st-order wavefunctions
     kin0=   2.30064253E+01 eigvalue=  -1.64842344E+00  local=  -9.92251739E+00
 4,5,6: 1st-order hamiltonian combined with 1st and 0th-order wfs
     kin1=  -7.64428858E+01  Hartree=   0.00000000E+00     xc=   0.00000000E+00
 7,8,9: eventually, occupation + non-local contributions
    edocc=   2.54952991E+01     enl0=   8.28497110E-01   enl1=   9.24324534E-01
 1-9 gives the relaxation energy (to be shifted if some occ is /=2.0)
   erelax=  -3.77592806E+01
  No Ewald or frozen-wf contrib.: the relaxation energy is the total one
 2DEtotal=   -0.3775928063E+02 Ha. Also 2DEtotal=   -0.102748227937E+04 eV
    (  non-var. 2DEtotal :   -3.7759280625E+01 Ha)

 CALCULATION OF EFFECTIVE MASSES
 NOTE : Additional infos (eff. mass eigenvalues, eigenvectors and, if degenerate, average mass) are available in stdout.

 K-point ( 0.500, 0.000, 0.500) | band =    10
 Effective mass tensor:
             -1.0370222124              0.4103817481             -0.5026129428
              0.4103817481             -1.3272059324              0.7108020423
             -0.5026129428              0.7108020423             -1.6173896543
 Effective mass tensor eigenvalues:
             -2.4879408064             -0.7468384967             -0.7468384961
 Angular average effective mass 1/(<1/m>)=  -0.9740595043
 Angular average effective mass for Frohlich model (<m**0.5>)**2=  -1.0479767320
 Effective masses along directions: (cart. coord. / red. coord. -> eff. mass)
    1:   1.000000  0.000000  0.000000 /   0.948683  0.316228  0.000000 ->  -0.8454482886
    2:   0.000000  1.000000  0.000000 /   0.000000  1.000000  0.000000 ->  -0.9740595042
    3:   0.000000  0.000000  1.000000 /   0.408248  0.408248  0.816497 ->  -1.1488202441
    4:   0.577350  0.577350  0.577350 /   0.585539  0.688047  0.428644 ->  -0.8009167525
    5:   0.000000  0.707107  0.707107 /   0.289489  0.762222  0.578977 ->  -0.7512644354
    6:   0.707107  0.000000  0.707107 /   0.731423  0.422287  0.535439 ->  -1.3225212156
    7:   0.707107  0.707107  0.000000 /   0.616798  0.787122  0.000000 ->  -0.7543867363

 K-point ( 0.500, 0.425, 0.575) | band =    11
 Effective mass tensor:
              4.5178828959             -3.5573136606             -3.8044242599
             -3.5573136606              4.1182968041              2.9724158883
             -3.8044242599              2.9724158883              3.7012208415
 Effective mass tensor eigenvalues:
              0.2573389802              1.0416678279             11.0383937335
 Angular average effective mass 1/(<1/m>)=   0.6077159369
 Angular average effective mass for Frohlich model (<m**0.5>)**2=   0.9308342878
 Effective masses along directions: (cart. coord. / red. coord. -> eff. mass)
    1:   1.000000  0.000000  0.000000 /   0.948683  0.316228  0.000000 ->   0.4618002282
    2:   0.000000  1.000000  0.000000 /   0.000000  1.000000  0.000000 ->   1.3162457605
    3:   0.000000  0.000000  1.000000 /   0.408248  0.408248  0.816497 ->   0.4971805248
    4:   0.577350  0.577350  0.577350 /   0.585539  0.688047  0.428644 ->   0.3090844203
    5:   0.000000  0.707107  0.707107 /   0.289489  0.762222  0.578977 ->   0.7038007377
    6:   0.707107  0.000000  0.707107 /   0.731423  0.422287  0.535439 ->   0.2624732653
    7:   0.707107  0.707107  0.000000 /   0.616798  0.787122  0.000000 ->   0.4783469170

 END OF EFFECTIVE MASSES SECTION

 ---- first-order wavefunction calculations are completed ----

 Total localisation tensor (bohr^2) in cartesian coordinates
  WARNING : still subject to testing - especially symmetries.
      direction              matrix element
   alpha     beta       real part   imaginary part
     1        1       3.6978149960    0.0000000000
     1        2       0.7932588581    0.0000000000
     1        3       2.4587810560    0.0000000000
     2        1       0.7932588581    0.0000000000
     2        2       2.2436748711    0.0000000000
     2        3       1.3739646457    0.0000000000
     3        1       2.4587810560    0.0000000000
     3        2       1.3739646457    0.0000000000
     3        3       5.3460277217    0.0000000000

 respfn : d/dk was computed, but no 2DTE, so no DDB output.

== END DATASET(S) ==============================================================

 -outvars: echo values of variables after computation  --------
            acell      1.0000000000E+00  1.0000000000E+00  1.0000000000E+00 Bohr
              amu      1.01070000E+02  1.20110000E+01
             ecut      4.40000000E+01 Hartree
           etotal     -3.7759280625E+01
            fcart      0.0000000000E+00  0.0000000000E+00  0.0000000000E+00
                       0.0000000000E+00  0.0000000000E+00  0.0000000000E+00
-          fftalg         512
           irdden           1
           irdwfk           1
           istwfk        1    0
              ixc     -116133
              kpt      5.00000000E-01  0.00000000E+00  5.00000000E-01
                       5.00000000E-01  4.25000000E-01  5.75000000E-01
           kptopt           0
P           mkmem           2
P          mkqmem           2
P          mk1mem           2
            natom           2
            nband          19
           nbdbuf           4
            ngfft          40      40      40
             nkpt           2
            nstep         100
             nsym          24
           ntypat           2
              occ      2.000000  2.000000  2.000000  2.000000  2.000000  2.000000
                       2.000000  2.000000  2.000000  2.000000  0.000000  0.000000
                       0.000000  0.000000  0.000000  0.000000  0.000000  0.000000
                       0.000000
        optdriver           1
            prtwf          -1
            rfdir           1       1       1
           rfelfd           2
            rprim      5.2221356368E+00  0.0000000000E+00  3.0150014156E+00
                       1.7407118789E+00  4.9234766947E+00  3.0150014156E+00
                       0.0000000000E+00  0.0000000000E+00  6.0300028313E+00
          spgroup         216
           strten      0.0000000000E+00  0.0000000000E+00  0.0000000000E+00
                       0.0000000000E+00  0.0000000000E+00  0.0000000000E+00
           symrel      1  0  0   0  1  0   0  0  1       0 -1  1   0 -1  0   1 -1  0
                      -1  0  0  -1  0  1  -1  1  0       0  1 -1   1  0 -1   0  0 -1
                      -1  0  0  -1  1  0  -1  0  1       0 -1  1   1 -1  0   0 -1  0
                       1  0  0   0  0  1   0  1  0       0  1 -1   0  0 -1   1  0 -1
                      -1  0  1  -1  1  0  -1  0  0       0 -1  0   1 -1  0   0 -1  1
                       1  0 -1   0  0 -1   0  1 -1       0  1  0   0  0  1   1  0  0
                       1  0 -1   0  1 -1   0  0 -1       0 -1  0   0 -1  1   1 -1  0
                      -1  0  1  -1  0  0  -1  1  0       0  1  0   1  0  0   0  0  1
                       0  0 -1   0  1 -1   1  0 -1       1 -1  0   0 -1  1   0 -1  0
                       0  0  1   1  0  0   0  1  0      -1  1  0  -1  0  0  -1  0  1
                       0  0  1   0  1  0   1  0  0       1 -1  0   0 -1  0   0 -1  1
                       0  0 -1   1  0 -1   0  1 -1      -1  1  0  -1  0  1  -1  0  0
           tolwfr      1.00000000E-20
            typat      1  2
           useylm           1
              wtk        0.50000    0.50000
           xangst      0.0000000000E+00  0.0000000000E+00  0.0000000000E+00
                       2.7634351591E+00  1.9540437404E+00  4.7864100990E+00
            xcart      0.0000000000E+00  0.0000000000E+00  0.0000000000E+00
                       5.2221356368E+00  3.6926075210E+00  9.0450042469E+00
             xred      0.0000000000E+00  0.0000000000E+00  0.0000000000E+00
                       7.5000000000E-01  7.5000000000E-01  7.5000000000E-01
            znucl       44.00000    6.00000

- Timing analysis has been suppressed with timopt=0

 Suggested references for the acknowledgment of ABINIT usage.

 Calculation completed.
.Delivered  14 WARNINGs and  15 COMMENTs to log file.