.Version 9.5.1 of ABINIT

 ABINIT is a project of the Universite Catholique de Louvain,
 Corning Inc. and other collaborators, see ~abinit/doc/developers/contributors.txt .
 acknowledgments of the ABINIT effort.

.Starting date : Mon 26 Apr 2021.
- ( at 00h47 )

- input  file    -> /scratch/users/j/a/jabreu/flow_simple/flow/w106/t1/run.abi
- output file    -> /scratch/users/j/a/jabreu/flow_simple/flow/w106/t1/run.abo
- root for input  files -> /scratch/users/j/a/jabreu/flow_simple/flow/w106/t1/indata/in
- root for output files -> /scratch/users/j/a/jabreu/flow_simple/flow/w106/t1/outdata/out

 Symmetries : space group F-4 3 m (#216); Bravais cF (face-center cubic)
     intxc =       0      iscf =       7    lmnmax =      32     lnmax =       8
     mgfft =      48  mpssoang =       4    mqgrid =    3001     natom =       3
  nloc_mem =       1    nspden =       1   nspinor =       1    nsppol =       1
      nsym =      24    n1xccc =    2501    ntypat =       3    occopt =       1
   xclevel =       2
-    mband =          31        mffmem =           1         mkmem =           2
-   mkqmem =           2        mk1mem =           2           mpw =        4573
      nfft =      110592          nkpt =           2
  Rough estimation (10% accuracy) of disk space for files :

------------- Echo of variables that govern the present computation ------------
-
- outvars: echo of selected default values
-   iomode0 =  0 , fftalg0 =512 , wfoptalg0 =  0
-
- outvars: echo of global parameters not present in the input file
-  max_nthreads =    0
-
 -outvars: echo values of preprocessed input variables --------
            acell      1.0000000000E+00  1.0000000000E+00  1.0000000000E+00 Bohr
              amu      4.78800000E+01  7.26100000E+01  1.95080000E+02
             ecut      4.20000000E+01 Hartree
-          fftalg         512
           irdden           1
           irdwfk           1
           istwfk        1    1
              ixc     -116133
              kpt      0.00000000E+00  0.00000000E+00  0.00000000E+00
                       5.00000000E-01  0.00000000E+00  5.00000000E-01
           kptopt           0
P           mkmem           2
P          mkqmem           2
P          mk1mem           2
            natom           3
            nband          31
           nbdbuf           4
            ngfft          48      48      48
             nkpt           2
            nstep         100
             nsym          24
           ntypat           3
              occ      2.000000  2.000000  2.000000  2.000000  2.000000  2.000000
                       2.000000  2.000000  2.000000  2.000000  2.000000  2.000000
                       2.000000  2.000000  2.000000  2.000000  2.000000  2.000000
                       2.000000  2.000000  2.000000  2.000000  0.000000  0.000000
                       0.000000  0.000000  0.000000  0.000000  0.000000  0.000000
                       0.000000
        optdriver           1
            prtwf          -1
            rfdir           1       1       1
           rfelfd           2
            rprim      6.8500251853E+00  0.0000000000E+00  3.9548638847E+00
                       2.2833417284E+00  6.4582656798E+00  3.9548638847E+00
                       0.0000000000E+00  0.0000000000E+00  7.9097277694E+00
          spgroup         216
           symrel      1  0  0   0  1  0   0  0  1       0 -1  1   0 -1  0   1 -1  0
                      -1  0  0  -1  0  1  -1  1  0       0  1 -1   1  0 -1   0  0 -1
                      -1  0  0  -1  1  0  -1  0  1       0 -1  1   1 -1  0   0 -1  0
                       1  0  0   0  0  1   0  1  0       0  1 -1   0  0 -1   1  0 -1
                      -1  0  1  -1  1  0  -1  0  0       0 -1  0   1 -1  0   0 -1  1
                       1  0 -1   0  0 -1   0  1 -1       0  1  0   0  0  1   1  0  0
                       1  0 -1   0  1 -1   0  0 -1       0 -1  0   0 -1  1   1 -1  0
                      -1  0  1  -1  0  0  -1  1  0       0  1  0   1  0  0   0  0  1
                       0  0 -1   0  1 -1   1  0 -1       1 -1  0   0 -1  1   0 -1  0
                       0  0  1   1  0  0   0  1  0      -1  1  0  -1  0  0  -1  0  1
                       0  0  1   0  1  0   1  0  0       1 -1  0   0 -1  0   0 -1  1
                       0  0 -1   1  0 -1   0  1 -1      -1  1  0  -1  0  1  -1  0  0
           tolwfr      1.00000000E-20
            typat      1  2  3
           useylm           1
              wtk        0.50000    0.50000
           xangst      0.0000000000E+00  0.0000000000E+00  0.0000000000E+00
                       2.4165848042E+00  1.7087835024E+00  4.1856476617E+00
                       1.2082924021E+00  8.5439175119E-01  2.0928238309E+00
            xcart      0.0000000000E+00  0.0000000000E+00  0.0000000000E+00
                       4.5666834568E+00  3.2291328399E+00  7.9097277694E+00
                       2.2833417284E+00  1.6145664199E+00  3.9548638847E+00
             xred      0.0000000000E+00  0.0000000000E+00  0.0000000000E+00
                       5.0000000000E-01  5.0000000000E-01  5.0000000000E-01
                       2.5000000000E-01  2.5000000000E-01  2.5000000000E-01
            znucl       22.00000   32.00000   78.00000

 chkinp: Checking input parameters for consistency.

== DATASET  1 ==================================================================
-   mpi_nproc: 1, omp_nthreads: -1 (-1 if OMP is not activated)

--- !DatasetInfo
iteration_state: {dtset: 1, }
dimensions: {natom: 3, nkpt: 2, mband: 31, nsppol: 1, nspinor: 1, nspden: 1, mpw: 4573, }
cutoff_energies: {ecut:  42.0, pawecutdg:  -1.0, }
electrons: {nelect:   4.40000000E+01, charge:   0.00000000E+00, occopt:   1.00000000E+00, tsmear:   1.00000000E-02, }
meta: {optdriver: 1, rfelfd: 2, }
...

 Real(R)+Recip(G) space primitive vectors, cartesian coordinates (Bohr,Bohr^-1):
 R(1)=  6.8500252  0.0000000  3.9548639  G(1)=  0.1459849 -0.0516134  0.0000000
 R(2)=  2.2833417  6.4582657  3.9548639  G(2)=  0.0000000  0.1548403  0.0000000
 R(3)=  0.0000000  0.0000000  7.9097278  G(3)= -0.0729924 -0.0516134  0.1264266
 Unit cell volume ucvol=  3.4992068E+02 bohr^3
 Angles (23,13,12)=  6.00000000E+01  6.00000000E+01  6.00000000E+01 degrees

 getcut: wavevector=  0.0000  0.0000  0.0000  ngfft=  48  48  48
         ecut(hartree)=     42.000   => boxcut(ratio)=   2.08013

--- Pseudopotential description ------------------------------------------------
- pspini: atom type   1  psp file is /scratch/users/j/a/jabreu/pseudos/PBEsol/Ti.psp8
- pspatm: opening atomic psp file    /scratch/users/j/a/jabreu/pseudos/PBEsol/Ti.psp8
- Ti    ONCVPSP-3.3.0  r_core=   1.35825   1.31050   1.66360
- 22.00000  12.00000    180112                znucl, zion, pspdat
    8 -116133    2    4       600   0.00000   pspcod,pspxc,lmax,lloc,mmax,r2well
    5.99000000000000    2.50000000000000    0.00000000000000   rchrg,fchrg,qchrg
     nproj     2     2     2
     extension_switch     1
  pspatm : epsatm=   14.76919902
         --- l  ekb(1:nproj) -->
             0   11.321950    1.254474
             1    1.946894   -0.084268
             2   -5.237105   -1.488377
 pspatm: atomic psp has been read  and splines computed

- pspini: atom type   2  psp file is /scratch/users/j/a/jabreu/pseudos/PBEsol/Ge.psp8
- pspatm: opening atomic psp file    /scratch/users/j/a/jabreu/pseudos/PBEsol/Ge.psp8
- Ge    ONCVPSP-3.3.0  r_core=   1.91022   1.82122   1.91022
- 32.00000  14.00000    180112                znucl, zion, pspdat
    8 -116133    2    4       600   0.00000   pspcod,pspxc,lmax,lloc,mmax,r2well
    5.99000000000000    5.00000000000000    0.00000000000000   rchrg,fchrg,qchrg
     nproj     2     2     2
     extension_switch     1
  pspatm : epsatm=   30.86751540
         --- l  ekb(1:nproj) -->
             0    6.339734    0.583066
             1    3.813259    0.738801
             2   -9.332373   -3.602819
 pspatm: atomic psp has been read  and splines computed

- pspini: atom type   3  psp file is /scratch/users/j/a/jabreu/pseudos/PBEsol/Pt.psp8
- pspatm: opening atomic psp file    /scratch/users/j/a/jabreu/pseudos/PBEsol/Pt.psp8
- Pt    ONCVPSP-3.3.0  r_core=   1.45722   1.45722   1.45722   1.91724
- 78.00000  18.00000    180112                znucl, zion, pspdat
    8 -116133    3    4       500   0.00000   pspcod,pspxc,lmax,lloc,mmax,r2well
    4.99000000000000    5.00000000000000    0.00000000000000   rchrg,fchrg,qchrg
     nproj     2     2     2     2
     extension_switch     1
  pspatm : epsatm=   26.54019552
         --- l  ekb(1:nproj) -->
             0   18.149684    1.747248
             1    8.048135    1.208190
             2    2.365973    0.348456
             3    3.491561    0.381218
 pspatm: atomic psp has been read  and splines computed

   3.17578404E+03                                ecore*ucvol(ha*bohr**3)

-inwffil : will read wavefunctions from disk file /scratch/users/j/a/jabreu/flow_simple/flow/w106/t1/indata/in_WFK

 ==>  initialize data related to q vector <==

 The list of irreducible perturbations for this q vector is:
    1)    idir= 1    ipert=   4
    2)    idir= 2    ipert=   4
    3)    idir= 3    ipert=   4

 Perturbation wavevector (in red.coord.)   0.000000  0.000000  0.000000
 Perturbation : derivative vs k along direction   1

 dfpt_looppert : COMMENT -
  In a d/dk calculation, iscf is set to -3 automatically.
 The set of symmetries contains only one element for this perturbation.
 symkpt : not enough symmetry to change the number of k points.

[...]

 Initialisation of the first-order wave-functions :
  ireadwf=   0

--- !BeginCycle
iteration_state: {dtset: 1, }
solver: {iscf: 7, nstep: 100, nline: 4, wfoptalg: 0, }
tolerances: {tolwfr: 1.00E-20, }
...

     iter   2DEtotal(Ha)        deltaE(Ha) residm    vres2
-ETOT  1  -68.702843034349     -6.870E+01 1.243E-01 0.000E+00
 ETOT  2  -68.759775871404     -5.693E-02 1.763E-02 0.000E+00
 ETOT  3  -68.760101957002     -3.261E-04 1.052E-03 0.000E+00
 ETOT  4  -68.760111377186     -9.420E-06 1.398E-04 0.000E+00
 ETOT  5  -68.760111866401     -4.892E-07 1.202E-05 0.000E+00
 ETOT  6  -68.760111896087     -2.969E-08 1.605E-06 0.000E+00
 ETOT  7  -68.760111897997     -1.910E-09 1.454E-07 0.000E+00
 ETOT  8  -68.760111898122     -1.254E-10 1.972E-08 0.000E+00
 ETOT  9  -68.760111898131     -8.384E-12 2.010E-09 0.000E+00
 ETOT 10  -68.760111898131     -5.258E-13 2.715E-10 0.000E+00
 ETOT 11  -68.760111898131     -4.263E-14 2.800E-11 0.000E+00
 ETOT 12  -68.760111898131     -2.842E-14 3.773E-12 0.000E+00
 ETOT 13  -68.760111898131      1.421E-14 3.916E-13 0.000E+00
 ETOT 14  -68.760111898131      2.842E-14 5.269E-14 0.000E+00
 ETOT 15  -68.760111898131      4.263E-14 5.489E-15 0.000E+00
 ETOT 16  -68.760111898131     -2.842E-14 7.376E-16 0.000E+00
 ETOT 17  -68.760111898131      0.000E+00 7.704E-17 0.000E+00
 ETOT 18  -68.760111898131      1.421E-14 1.034E-17 0.000E+00
 ETOT 19  -68.760111898131     -1.421E-14 1.082E-18 0.000E+00
 ETOT 20  -68.760111898131      0.000E+00 1.451E-19 0.000E+00
 ETOT 21  -68.760111898131      0.000E+00 1.522E-20 0.000E+00
 ETOT 22  -68.760111898131      1.421E-14 9.803E-21 0.000E+00

 At SCF step   22   max residual=  9.80E-21 < tolwfr=  1.00E-20 =>converged.

 ----iterations are completed or convergence reached----

 dfpt_looppert: DFPT cycle converged with prtwf=-1. Will skip output of the 1st-order WFK file.
 dfpt_looppert : ek2=    8.3293400891E+01
          f-sum rule ratio=    1.1313048214E+00
 prteigrs : about to open file /scratch/users/j/a/jabreu/flow_simple/flow/w106/t1/tmpdata/tmp_1WF1_EIG
 Expectation of eigenvalue derivatives (hartree) for nkpt=   2  k points:
  (in case of degenerate eigenvalues, averaged derivative)
 kpt#   1, nband= 31, wtk=  0.50000, kpt=  0.0000  0.0000  0.0000 (reduced coord)
  -0.00000   -0.00000    0.00000    0.00000    0.00000   -0.00000   -0.00000   -0.00000
   0.00000    0.00000    0.00000   -0.00000   -0.00000    0.00000   -0.00000   -0.00000
  -0.00000    0.00000    0.00000    0.00000    0.00000    0.00000   -0.00000   -0.00000
   0.00000    0.00000    0.00000    0.00000    0.00018    0.00000    0.00000
 prteigrs : prtvol=0 or 1, do not print more k-points.

 Eight components of 2nd-order total energy (hartree) are
 1,2,3: 0th-order hamiltonian combined with 1st-order wavefunctions
     kin0=   6.58880023E+01 eigvalue=   1.40320077E+00  local=  -2.48672028E+01
 4,5,6: 1st-order hamiltonian combined with 1st and 0th-order wfs
     kin1=  -9.42302260E+01  Hartree=   0.00000000E+00     xc=   0.00000000E+00
 7,8,9: eventually, occupation + non-local contributions
    edocc=   2.17136366E+01     enl0=   4.62247496E+00   enl1=  -4.32899978E+01
 1-9 gives the relaxation energy (to be shifted if some occ is /=2.0)
   erelax=  -6.87601119E+01
  No Ewald or frozen-wf contrib.: the relaxation energy is the total one
 2DEtotal=   -0.6876011190E+02 Ha. Also 2DEtotal=   -0.187105779912E+04 eV
    (  non-var. 2DEtotal :   -6.8760111898E+01 Ha)

 Perturbation wavevector (in red.coord.)   0.000000  0.000000  0.000000
 Perturbation : derivative vs k along direction   2
 The set of symmetries contains only one element for this perturbation.
 symkpt : not enough symmetry to change the number of k points.

[...]

 Perturbation wavevector (in red.coord.)   0.000000  0.000000  0.000000
 Perturbation : derivative vs k along direction   3
 The set of symmetries contains only one element for this perturbation.
 symkpt : not enough symmetry to change the number of k points.

-inwffil : will read wavefunctions from disk file /scratch/users/j/a/jabreu/flow_simple/flow/w106/t1/indata/in_WFK

 Initialisation of the first-order wave-functions :
  ireadwf=   0

--- !BeginCycle
iteration_state: {dtset: 1, }
solver: {iscf: 7, nstep: 100, nline: 4, wfoptalg: 0, }
tolerances: {tolwfr: 1.00E-20, }
...

     iter   2DEtotal(Ha)        deltaE(Ha) residm    vres2
-ETOT  1  -68.701926892123     -6.870E+01 1.683E-01 0.000E+00
 ETOT  2  -68.759790652987     -5.786E-02 2.394E-02 0.000E+00
 ETOT  3  -68.760103215096     -3.126E-04 1.536E-03 0.000E+00
 ETOT  4  -68.760112012244     -8.797E-06 1.873E-04 0.000E+00
 ETOT  5  -68.760112466334     -4.541E-07 1.921E-05 0.000E+00
 ETOT  6  -68.760112493608     -2.727E-08 2.114E-06 0.000E+00
 ETOT  7  -68.760112495339     -1.731E-09 2.450E-07 0.000E+00
 ETOT  8  -68.760112495452     -1.123E-10 2.886E-08 0.000E+00
 ETOT  9  -68.760112495459     -7.432E-12 3.723E-09 0.000E+00
 ETOT 10  -68.760112495460     -4.405E-13 4.361E-10 0.000E+00
 ETOT 11  -68.760112495460     -8.527E-14 5.713E-11 0.000E+00
 ETOT 12  -68.760112495460      1.421E-14 6.672E-12 0.000E+00
 ETOT 13  -68.760112495460      2.842E-14 8.810E-13 0.000E+00
 ETOT 14  -68.760112495460     -2.842E-14 1.027E-13 0.000E+00
 ETOT 15  -68.760112495460      0.000E+00 1.362E-14 0.000E+00
 ETOT 16  -68.760112495460      2.842E-14 1.586E-15 0.000E+00
 ETOT 17  -68.760112495460      0.000E+00 2.109E-16 0.000E+00
 ETOT 18  -68.760112495460      0.000E+00 2.453E-17 0.000E+00
 ETOT 19  -68.760112495460      0.000E+00 3.268E-18 0.000E+00
 ETOT 20  -68.760112495460      0.000E+00 3.799E-19 0.000E+00
 ETOT 21  -68.760112495460     -1.421E-14 5.069E-20 0.000E+00
 ETOT 22  -68.760112495460      1.421E-14 9.544E-21 0.000E+00

 At SCF step   22   max residual=  9.54E-21 < tolwfr=  1.00E-20 =>converged.

 ----iterations are completed or convergence reached----

 dfpt_looppert: DFPT cycle converged with prtwf=-1. Will skip output of the 1st-order WFK file.
 dfpt_looppert : ek2=    8.3293400891E+01
          f-sum rule ratio=    1.1313048260E+00
 prteigrs : about to open file /scratch/users/j/a/jabreu/flow_simple/flow/w106/t1/tmpdata/tmp_1WF1_EIG
 Expectation of eigenvalue derivatives (hartree) for nkpt=   2  k points:
  (in case of degenerate eigenvalues, averaged derivative)
 kpt#   1, nband= 31, wtk=  0.50000, kpt=  0.0000  0.0000  0.0000 (reduced coord)
   0.00000    0.00000   -0.00000   -0.00000   -0.00000    0.00000    0.00000    0.00000
   0.00000    0.00000    0.00000   -0.00000   -0.00000   -0.00000    0.00000    0.00000
   0.00000    0.00000    0.00000   -0.00000   -0.00000   -0.00000    0.00000    0.00000
  -0.00000    0.00000    0.00000    0.00000   -0.00013   -0.00000   -0.00000
 prteigrs : prtvol=0 or 1, do not print more k-points.

 Eight components of 2nd-order total energy (hartree) are
 1,2,3: 0th-order hamiltonian combined with 1st-order wavefunctions
     kin0=   6.59113454E+01 eigvalue=   1.39620780E+00  local=  -2.48898450E+01
 4,5,6: 1st-order hamiltonian combined with 1st and 0th-order wfs
     kin1=  -9.42302264E+01  Hartree=   0.00000000E+00     xc=   0.00000000E+00
 7,8,9: eventually, occupation + non-local contributions
    edocc=   2.17196545E+01     enl0=   4.62274983E+00   enl1=  -4.32899986E+01
 1-9 gives the relaxation energy (to be shifted if some occ is /=2.0)
   erelax=  -6.87601125E+01
  No Ewald or frozen-wf contrib.: the relaxation energy is the total one
 2DEtotal=   -0.6876011250E+02 Ha. Also 2DEtotal=   -0.187105781537E+04 eV
    (  non-var. 2DEtotal :   -6.8760112495E+01 Ha)

 CALCULATION OF EFFECTIVE MASSES
 NOTE : Additional infos (eff. mass eigenvalues, eigenvectors and, if degenerate, average mass) are available in stdout.

 COMMENTS:
 - At k-point ( 0.000, 0.000, 0.000), bands    20 through    22
   are DEGENERATE (effective mass tensor is therefore not defined).
   See Section IIIB Eqs. (67)-(70) and Appendix E of PRB 93 205147 (2016).
 - Angular average effective mass for Frohlich model is to be averaged over degenerate bands. See later.
 - Associated theta integrals calculated with ntheta=   1000 points.

 K-point ( 0.000, 0.000, 0.000) | band =    20
 Transport equivalent effective mass tensor:
             -0.3100801966             -0.0000000124             -0.0000000585
             -0.0000000124             -0.3100804646             -0.0000000688
             -0.0000000585             -0.0000000688             -0.3100799202
 Transport equivalent effective mass tensor eigenvalues:
             -0.3100804746             -0.3100802060             -0.3100799009
 Angular average effective mass 1/(<1/m>)=  -0.2854493385
 Angular average effective mass for Frohlich model (<m**0.5>)**2=  -0.2870289250
 Effective masses along directions: (cart. coord. / red. coord. -> eff. mass)
    1:   1.000000  0.000000  0.000000 /   0.948683  0.316228  0.000000 ->  -0.2710157852
    2:   0.000000  1.000000  0.000000 /   0.000000  1.000000  0.000000 ->  -0.2543803572
    3:   0.000000  0.000000  1.000000 /   0.408248  0.408248  0.816497 ->  -0.2748757973
    4:   0.577350  0.577350  0.577350 /   0.585539  0.688047  0.428644 ->  -0.2709797877
    5:   0.000000  0.707107  0.707107 /   0.289489  0.762222  0.578977 ->  -0.2992963024
    6:   0.707107  0.000000  0.707107 /   0.731423  0.422287  0.535439 ->  -0.2729001688
    7:   0.707107  0.707107  0.000000 /   0.616798  0.787122  0.000000 ->  -0.3452764713

[...]

 K-point ( 0.000, 0.000, 0.000) | band =    22
 Transport equivalent effective mass tensor:
            -59.8396253625              0.0000542995             -0.0000044838
              0.0000542995            -59.8396259179             -0.0000052468
             -0.0000044838             -0.0000052468            -59.8395052493
 Transport equivalent effective mass tensor eigenvalues:
            -59.8396799422            -59.8395720484            -59.8395045391
 Angular average effective mass 1/(<1/m>)=  -2.8051922705
 Angular average effective mass for Frohlich model (<m**0.5>)**2=  -3.6587310179
 Effective masses along directions: (cart. coord. / red. coord. -> eff. mass)
    1:   1.000000  0.000000  0.000000 /   0.948683  0.316228  0.000000 ->  -3.1073899501
    2:   0.000000  1.000000  0.000000 /   0.000000  1.000000  0.000000 ->  -2.6764310157
    3:   0.000000  0.000000  1.000000 /   0.408248  0.408248  0.816497 -> -12.4206694456
    4:   0.577350  0.577350  0.577350 /   0.585539  0.688047  0.428644 ->  -3.8703972722
    5:   0.000000  0.707107  0.707107 /   0.289489  0.762222  0.578977 ->  -2.4916797736
    6:   0.707107  0.000000  0.707107 /   0.731423  0.422287  0.535439 ->  -5.7359602272
    7:   0.707107  0.707107  0.000000 /   0.616798  0.787122  0.000000 ->  -1.1800400669

 Angular average effective mass for Frohlich model, averaged over degenerate bands.
 Value of     (<<m**0.5>>)**2 =     1.415513E+00
 Absolute Value of <<m**0.5>> =     1.189753E+00

 K-point ( 0.500, 0.000, 0.500) | band =    23
 Effective mass tensor:
              0.5668092476             -0.2218975925              0.2717679392
             -0.2218975925              0.7237145367             -0.3843379068
              0.2717679392             -0.3843379068              0.8806198286
 Effective mass tensor eigenvalues:
              0.4099039492              0.4099039547              1.3513357090
 Angular average effective mass 1/(<1/m>)=   0.5338837924
 Angular average effective mass for Frohlich model (<m**0.5>)**2=   0.5737911878
 Effective masses along directions: (cart. coord. / red. coord. -> eff. mass)
    1:   1.000000  0.000000  0.000000 /   0.948683  0.316228  0.000000 ->   0.4637506243
    2:   0.000000  1.000000  0.000000 /   0.000000  1.000000  0.000000 ->   0.5338837906
    3:   0.000000  0.000000  1.000000 /   0.408248  0.408248  0.816497 ->   0.6290090520
    4:   0.577350  0.577350  0.577350 /   0.585539  0.688047  0.428644 ->   0.4394417377
    5:   0.000000  0.707107  0.707107 /   0.289489  0.762222  0.578977 ->   0.4123221401
    6:   0.707107  0.000000  0.707107 /   0.731423  0.422287  0.535439 ->   0.7233596494
    7:   0.707107  0.707107  0.000000 /   0.616798  0.787122  0.000000 ->   0.4140279918

 END OF EFFECTIVE MASSES SECTION

 ---- first-order wavefunction calculations are completed ----

 Total localisation tensor (bohr^2) in cartesian coordinates
  WARNING : still subject to testing - especially symmetries.
      direction              matrix element
   alpha     beta       real part   imaginary part
     1        1       1.9379895296    0.0000000000
     1        2       0.5481461471    0.0000000000
     1        3       1.3426785041    0.0000000000
     2        1       0.5481461471    0.0000000000
     2        2       1.5503914309    0.0000000000
     2        3       0.9494169768    0.0000000000
     3        1       1.3426785041    0.0000000000
     3        2       0.9494169768    0.0000000000
     3        3       3.4883812960    0.0000000000

 respfn : d/dk was computed, but no 2DTE, so no DDB output.

== END DATASET(S) ==============================================================

 -outvars: echo values of variables after computation  --------
            acell      1.0000000000E+00  1.0000000000E+00  1.0000000000E+00 Bohr
              amu      4.78800000E+01  7.26100000E+01  1.95080000E+02
             ecut      4.20000000E+01 Hartree
           etotal     -6.8760112495E+01
            fcart      0.0000000000E+00  0.0000000000E+00  0.0000000000E+00
                       0.0000000000E+00  0.0000000000E+00  0.0000000000E+00
                       0.0000000000E+00  0.0000000000E+00  0.0000000000E+00
-          fftalg         512
           irdden           1
           irdwfk           1
           istwfk        1    1
              ixc     -116133
              kpt      0.00000000E+00  0.00000000E+00  0.00000000E+00
                       5.00000000E-01  0.00000000E+00  5.00000000E-01
           kptopt           0
P           mkmem           2
P          mkqmem           2
P          mk1mem           2
            natom           3
            nband          31
           nbdbuf           4
            ngfft          48      48      48
             nkpt           2
            nstep         100
             nsym          24
           ntypat           3
              occ      2.000000  2.000000  2.000000  2.000000  2.000000  2.000000
                       2.000000  2.000000  2.000000  2.000000  2.000000  2.000000
                       2.000000  2.000000  2.000000  2.000000  2.000000  2.000000
                       2.000000  2.000000  2.000000  2.000000  0.000000  0.000000
                       0.000000  0.000000  0.000000  0.000000  0.000000  0.000000
                       0.000000
        optdriver           1
            prtwf          -1
            rfdir           1       1       1
           rfelfd           2
            rprim      6.8500251853E+00  0.0000000000E+00  3.9548638847E+00
                       2.2833417284E+00  6.4582656798E+00  3.9548638847E+00
                       0.0000000000E+00  0.0000000000E+00  7.9097277694E+00
          spgroup         216
           strten      0.0000000000E+00  0.0000000000E+00  0.0000000000E+00
                       0.0000000000E+00  0.0000000000E+00  0.0000000000E+00
           symrel      1  0  0   0  1  0   0  0  1       0 -1  1   0 -1  0   1 -1  0
                      -1  0  0  -1  0  1  -1  1  0       0  1 -1   1  0 -1   0  0 -1
                      -1  0  0  -1  1  0  -1  0  1       0 -1  1   1 -1  0   0 -1  0
                       1  0  0   0  0  1   0  1  0       0  1 -1   0  0 -1   1  0 -1
                      -1  0  1  -1  1  0  -1  0  0       0 -1  0   1 -1  0   0 -1  1
                       1  0 -1   0  0 -1   0  1 -1       0  1  0   0  0  1   1  0  0
                       1  0 -1   0  1 -1   0  0 -1       0 -1  0   0 -1  1   1 -1  0
                      -1  0  1  -1  0  0  -1  1  0       0  1  0   1  0  0   0  0  1
                       0  0 -1   0  1 -1   1  0 -1       1 -1  0   0 -1  1   0 -1  0
                       0  0  1   1  0  0   0  1  0      -1  1  0  -1  0  0  -1  0  1
                       0  0  1   0  1  0   1  0  0       1 -1  0   0 -1  0   0 -1  1
                       0  0 -1   1  0 -1   0  1 -1      -1  1  0  -1  0  1  -1  0  0
           tolwfr      1.00000000E-20
            typat      1  2  3
           useylm           1
              wtk        0.50000    0.50000
           xangst      0.0000000000E+00  0.0000000000E+00  0.0000000000E+00
                       2.4165848042E+00  1.7087835024E+00  4.1856476617E+00
                       1.2082924021E+00  8.5439175119E-01  2.0928238309E+00
            xcart      0.0000000000E+00  0.0000000000E+00  0.0000000000E+00
                       4.5666834568E+00  3.2291328399E+00  7.9097277694E+00
                       2.2833417284E+00  1.6145664199E+00  3.9548638847E+00
             xred      0.0000000000E+00  0.0000000000E+00  0.0000000000E+00
                       5.0000000000E-01  5.0000000000E-01  5.0000000000E-01
                       2.5000000000E-01  2.5000000000E-01  2.5000000000E-01
            znucl       22.00000   32.00000   78.00000

- Timing analysis has been suppressed with timopt=0

 Suggested references for the acknowledgment of ABINIT usage.

 Calculation completed.
.Delivered  14 WARNINGs and   9 COMMENTs to log file.