.Version 9.5.1 of ABINIT

 ABINIT is a project of the Universite Catholique de Louvain,
 Corning Inc. and other collaborators, see ~abinit/doc/developers/contributors.txt .
 acknowledgments of the ABINIT effort.

.Starting date : Tue 18 May 2021.
- ( at 17h44 )

- input  file    -> /scratch/users/j/a/jabreu/flow_simple_8atoms/flow/w398/t1/run.abi
- output file    -> /scratch/users/j/a/jabreu/flow_simple_8atoms/flow/w398/t1/run.abo
- root for input  files -> /scratch/users/j/a/jabreu/flow_simple_8atoms/flow/w398/t1/indata/in
- root for output files -> /scratch/users/j/a/jabreu/flow_simple_8atoms/flow/w398/t1/outdata/out

 Symmetries : space group P6_3/m m c (#194); Bravais hP (primitive hexag.)
     intxc =       0      iscf =       7    lmnmax =      18     lnmax =       6
     mgfft =     120  mpssoang =       3    mqgrid =    5944     natom =       8
  nloc_mem =       1    nspden =       1   nspinor =       1    nsppol =       1
      nsym =      24    n1xccc =    2501    ntypat =       2    occopt =       1
   xclevel =       2
-    mband =          59        mffmem =           1         mkmem =           2
-   mkqmem =           2        mk1mem =           2           mpw =       18653
      nfft =      349920          nkpt =           2
  Rough estimation (10% accuracy) of disk space for files :

------------- Echo of variables that govern the present computation ------------
-
- outvars: echo of selected default values
-   iomode0 =  0 , fftalg0 =512 , wfoptalg0 =  0
-
- outvars: echo of global parameters not present in the input file
-  max_nthreads =    0
-
 -outvars: echo values of preprocessed input variables --------
            acell      1.0000000000E+00  1.0000000000E+00  1.0000000000E+00 Bohr
              amu      2.29897680E+01  7.89600000E+01
             ecut      4.40000000E+01 Hartree
-          fftalg         512
           irdden           1
           irdwfk           1
           istwfk        0    1
              ixc     -116133
              kpt      8.33333333E-02 -6.93889390E-18  0.00000000E+00
                       0.00000000E+00  0.00000000E+00  0.00000000E+00
           kptopt           0
P           mkmem           2
P          mkqmem           2
P          mk1mem           2
            natom           8
            nband          59
           nbdbuf           4
            ngfft          54      54     120
             nkpt           2
            nstep        2000
             nsym          24
           ntypat           2
              occ      2.000000  2.000000  2.000000  2.000000  2.000000  2.000000
                       2.000000  2.000000  2.000000  2.000000  2.000000  2.000000
                       2.000000  2.000000  2.000000  2.000000  2.000000  2.000000
                       2.000000  2.000000  2.000000  2.000000  2.000000  2.000000
                       2.000000  2.000000  2.000000  2.000000  2.000000  2.000000
                       2.000000  2.000000  2.000000  2.000000  2.000000  2.000000
                       2.000000  2.000000  2.000000  2.000000  2.000000  2.000000
                       2.000000  2.000000  2.000000  2.000000  2.000000  2.000000
                       2.000000  2.000000  0.000000  0.000000  0.000000  0.000000
                       0.000000  0.000000  0.000000  0.000000  0.000000
        optdriver           1
            prtwf          -1
            rfdir           1       1       1
           rfelfd           2
            rprim      8.8062528846E+00  0.0000000000E+00  0.0000000000E+00
                      -4.4031264423E+00  7.6264387102E+00  0.0000000000E+00
                       0.0000000000E+00  0.0000000000E+00  1.9905327767E+01
          spgroup         194
           symrel      1  0  0   0  1  0   0  0  1      -1  0  0   0 -1  0   0  0 -1
                       0  1  0   1  0  0   0  0  1       0 -1  0  -1  0  0   0  0 -1
                       1  1  0  -1  0  0   0  0  1      -1 -1  0   1  0  0   0  0 -1
                      -1  0  0   1  1  0   0  0  1       1  0  0  -1 -1  0   0  0 -1
                       0  1  0  -1 -1  0   0  0  1       0 -1  0   1  1  0   0  0 -1
                      -1 -1  0   0  1  0   0  0  1       1  1  0   0 -1  0   0  0 -1
                      -1  0  0   0 -1  0   0  0  1       1  0  0   0  1  0   0  0 -1
                       0 -1  0  -1  0  0   0  0  1       0  1  0   1  0  0   0  0 -1
                      -1 -1  0   1  0  0   0  0  1       1  1  0  -1  0  0   0  0 -1
                       1  0  0  -1 -1  0   0  0  1      -1  0  0   1  1  0   0  0 -1
                       0 -1  0   1  1  0   0  0  1       0  1  0  -1 -1  0   0  0 -1
                       1  1  0   0 -1  0   0  0  1      -1 -1  0   0  1  0   0  0 -1
            tnons      0.0000000  0.0000000  0.0000000     0.0000000  0.0000000 -0.0000000
                       0.0000000  0.0000000  0.5000000     0.0000000  0.0000000  0.5000000
                       0.0000000  0.0000000  0.5000000     0.0000000  0.0000000  0.5000000
                       0.0000000  0.0000000  0.0000000     0.0000000  0.0000000 -0.0000000
                       0.0000000  0.0000000  0.0000000     0.0000000  0.0000000 -0.0000000
                       0.0000000  0.0000000  0.5000000     0.0000000  0.0000000  0.5000000
                       0.0000000  0.0000000  0.5000000     0.0000000  0.0000000  0.5000000
                       0.0000000  0.0000000  0.0000000     0.0000000  0.0000000 -0.0000000
                       0.0000000  0.0000000  0.0000000     0.0000000  0.0000000 -0.0000000
                       0.0000000  0.0000000  0.5000000     0.0000000  0.0000000  0.5000000
                       0.0000000  0.0000000  0.5000000     0.0000000  0.0000000  0.5000000
                       0.0000000  0.0000000  0.0000000     0.0000000  0.0000000 -0.0000000
           tolwfr      1.00000000E-20
            typat      1  1  1  1  2  2  2  2
           useylm           1
              wtk        0.50000    0.50000
           xangst      0.0000000000E+00  0.0000000000E+00 -1.4618092548E-16
                       0.0000000000E+00  0.0000000000E+00  5.2667228920E+00
                       0.0000000000E+00  2.6904916988E+00  2.6333614460E+00
                       2.3300341598E+00  1.3452458494E+00  7.9000843380E+00
                       0.0000000000E+00  2.6904916988E+00  6.6732855079E+00
                       2.3300341598E+00  1.3452458494E+00  1.4065626159E+00
                       2.3300341598E+00  1.3452458494E+00  3.8601602761E+00
                       0.0000000000E+00  2.6904916988E+00  9.1268831681E+00
            xcart      0.0000000000E+00  0.0000000000E+00 -2.7624191500E-16
                       0.0000000000E+00  0.0000000000E+00  9.9526638837E+00
                       0.0000000000E+00  5.0842924735E+00  4.9763319418E+00
                       4.4031264423E+00  2.5421462367E+00  1.4928995825E+01
                       0.0000000000E+00  5.0842924735E+00  1.2610682016E+01
                       4.4031264423E+00  2.5421462367E+00  2.6580181328E+00
                       4.4031264423E+00  2.5421462367E+00  7.2946457509E+00
                       0.0000000000E+00  5.0842924735E+00  1.7247309635E+01
             xred      0.0000000000E+00  0.0000000000E+00 -1.3877787808E-17
                       0.0000000000E+00  0.0000000000E+00  5.0000000000E-01
                       3.3333333333E-01  6.6666666667E-01  2.5000000000E-01
                       6.6666666667E-01  3.3333333333E-01  7.5000000000E-01
                       3.3333333333E-01  6.6666666667E-01  6.3353300000E-01
                       6.6666666667E-01  3.3333333333E-01  1.3353300000E-01
                       6.6666666667E-01  3.3333333333E-01  3.6646700000E-01
                       3.3333333333E-01  6.6666666667E-01  8.6646700000E-01
            znucl       11.00000   34.00000

 chkinp: Checking input parameters for consistency.

== DATASET  1 ==================================================================
-   mpi_nproc: 1, omp_nthreads: -1 (-1 if OMP is not activated)

--- !DatasetInfo
iteration_state: {dtset: 1, }
dimensions: {natom: 8, nkpt: 2, mband: 59, nsppol: 1, nspinor: 1, nspden: 1, mpw: 18653, }
cutoff_energies: {ecut:  44.0, pawecutdg:  -1.0, }
electrons: {nelect:   1.00000000E+02, charge:   0.00000000E+00, occopt:   1.00000000E+00, tsmear:   1.00000000E-02, }
meta: {optdriver: 1, rfelfd: 2, }
...

 Real(R)+Recip(G) space primitive vectors, cartesian coordinates (Bohr,Bohr^-1):
 R(1)=  8.8062529  0.0000000  0.0000000  G(1)=  0.1135557  0.0655614  0.0000000
 R(2)= -4.4031264  7.6264387  0.0000000  G(2)=  0.0000000  0.1311228  0.0000000
 R(3)=  0.0000000  0.0000000 19.9053278  G(3)=  0.0000000  0.0000000  0.0502378
 Unit cell volume ucvol=  1.3368487E+03 bohr^3
 Angles (23,13,12)=  9.00000000E+01  9.00000000E+01  1.20000000E+02 degrees

 getcut: wavevector=  0.0000  0.0000  0.0000  ngfft=  54  54 120
         ecut(hartree)=     44.000   => boxcut(ratio)=   2.01893

--- Pseudopotential description ------------------------------------------------
- pspini: atom type   1  psp file is /scratch/users/j/a/jabreu/pseudos/PBEsol/Na.psp8
- pspatm: opening atomic psp file    /scratch/users/j/a/jabreu/pseudos/PBEsol/Na.psp8
- Na    ONCVPSP-3.3.0  r_core=   1.20708   1.55069
- 11.00000   9.00000    180112                znucl, zion, pspdat
    8 -116133    1    4       400   0.00000   pspcod,pspxc,lmax,lloc,mmax,r2well
    3.99000000000000    0.00000000000000    0.00000000000000   rchrg,fchrg,qchrg
     nproj     2     2
     extension_switch     1
  pspatm : epsatm=    9.32878306
         --- l  ekb(1:nproj) -->
             0    2.657905   -0.678300
             1   -6.761319   -2.404728
 pspatm: atomic psp has been read  and splines computed

- pspini: atom type   2  psp file is /scratch/users/j/a/jabreu/pseudos/PBEsol/Se.psp8
- pspatm: opening atomic psp file    /scratch/users/j/a/jabreu/pseudos/PBEsol/Se.psp8
- Se    ONCVPSP-3.3.0  r_core=   1.81943   1.50330   1.90835
- 34.00000  16.00000    180112                znucl, zion, pspdat
    8 -116133    2    4       600   0.00000   pspcod,pspxc,lmax,lloc,mmax,r2well
    5.99000000000000    5.00000000000000    0.00000000000000   rchrg,fchrg,qchrg
     nproj     2     2     2
     extension_switch     1
  pspatm : epsatm=   29.17862020
         --- l  ekb(1:nproj) -->
             0    8.973804    1.019550
             1    6.849857    1.297308
             2   -9.203962   -3.731027
 pspatm: atomic psp has been read  and splines computed

   1.54029613E+04                                ecore*ucvol(ha*bohr**3)

-inwffil : will read wavefunctions from disk file /scratch/users/j/a/jabreu/flow_simple_8atoms/flow/w398/t1/indata/in_WFK

 ==>  initialize data related to q vector <==

 The list of irreducible perturbations for this q vector is:
    1)    idir= 1    ipert=   9
    2)    idir= 2    ipert=   9
    3)    idir= 3    ipert=   9

 Perturbation wavevector (in red.coord.)   0.000000  0.000000  0.000000
 Perturbation : derivative vs k along direction   1

 dfpt_looppert : COMMENT -
  In a d/dk calculation, iscf is set to -3 automatically.
 The set of symmetries contains only one element for this perturbation.
[...]

 dfpt_looppert: DFPT cycle converged with prtwf=-1. Will skip output of the 1st-order WFK file.
 dfpt_looppert : ek2=    1.3575197715E+02
          f-sum rule ratio=    1.1719946306E+00
 prteigrs : about to open file /scratch/users/j/a/jabreu/flow_simple_8atoms/flow/w398/t1/tmpdata/tmp_1WF1_EIG
 Expectation of eigenvalue derivatives (hartree) for nkpt=   2  k points:
  (in case of degenerate eigenvalues, averaged derivative)
 kpt#   1, nband= 59, wtk=  0.50000, kpt=  0.0833  0.0000  0.0000 (reduced coord)
   0.00000    0.00000    0.00000    0.00000    0.00000   -0.00000    0.00000    0.00000
  -0.00000    0.00000   -0.00000    0.00000   -0.00000    0.00000   -0.00000    0.00000
  -0.00000   -0.00000    0.00000    0.00000   -0.00000   -0.00000    0.00000    0.00000
  -0.00043   -0.00042   -0.00009   -0.00006    0.00014    0.00000    0.00013   -0.00003
  -0.00021   -0.00029   -0.00005   -0.00004    0.01097    0.00422    0.01408   -0.00218
   0.01646   -0.04811   -0.06135   -0.02469   -0.09880   -0.00861   -0.09443   -0.03273
  -0.15879   -0.00009    0.12750    0.17934    0.03287    0.15329    0.10930   -0.13197
   0.10196   -0.16128    0.06849
 prteigrs : prtvol=0 or 1, do not print more k-points.

 Eight components of 2nd-order total energy (hartree) are
 1,2,3: 0th-order hamiltonian combined with 1st-order wavefunctions
     kin0=   1.63849641E+02 eigvalue=   2.68426328E+01  local=  -6.40131106E+01
 4,5,6: 1st-order hamiltonian combined with 1st and 0th-order wfs
     kin1=  -1.59100588E+02  Hartree=   0.00000000E+00     xc=   0.00000000E+00
 7,8,9: eventually, occupation + non-local contributions
    edocc=   1.88867254E+01     enl0=   7.04944525E+00   enl1=  -1.46130079E+02
 1-9 gives the relaxation energy (to be shifted if some occ is /=2.0)
   erelax=  -1.52615334E+02
  No Ewald or frozen-wf contrib.: the relaxation energy is the total one
 2DEtotal=   -0.1526153338E+03 Ha. Also 2DEtotal=   -0.415287443042E+04 eV
    (  non-var. 2DEtotal :   -1.5261533378E+02 Ha)

 Perturbation wavevector (in red.coord.)   0.000000  0.000000  0.000000
 Perturbation : derivative vs k along direction   2
 The set of symmetries contains only one element for this perturbation.
 symkpt : not enough symmetry to change the number of k points.

[...]

 Perturbation wavevector (in red.coord.)   0.000000  0.000000  0.000000
 Perturbation : derivative vs k along direction   3
 The set of symmetries contains only one element for this perturbation.
 symkpt : not enough symmetry to change the number of k points.

-inwffil : will read wavefunctions from disk file /scratch/users/j/a/jabreu/flow_simple_8atoms/flow/w398/t1/indata/in_WFK

 Initialisation of the first-order wave-functions :
  ireadwf=   0

--- !BeginCycle
iteration_state: {dtset: 1, }
solver: {iscf: 7, nstep: 2000, nline: 4, wfoptalg: 0, }
tolerances: {tolwfr: 1.00E-20, }
...

     iter   2DEtotal(Ha)        deltaE(Ha) residm    vres2
-ETOT  1  -20.902743179002     -2.090E+01 3.295E-02 0.000E+00
 ETOT  2  -20.914994973884     -1.225E-02 3.885E-05 0.000E+00
 ETOT  3  -20.915001307469     -6.334E-06 6.333E-07 0.000E+00
 ETOT  4  -20.915001320337     -1.287E-08 8.588E-09 0.000E+00
 ETOT  5  -20.915001320380     -4.340E-11 1.696E-10 0.000E+00
 ETOT  6  -20.915001320380     -1.812E-13 5.461E-12 0.000E+00
 ETOT  7  -20.915001320380      2.842E-14 9.694E-14 0.000E+00
 ETOT  8  -20.915001320380     -1.776E-14 4.645E-15 0.000E+00
 ETOT  9  -20.915001320380      0.000E+00 3.275E-16 0.000E+00
 ETOT 10  -20.915001320380      0.000E+00 2.718E-17 0.000E+00
 ETOT 11  -20.915001320380     -3.553E-15 3.139E-18 0.000E+00
 ETOT 12  -20.915001320380      3.553E-15 2.923E-19 0.000E+00
 ETOT 13  -20.915001320380     -3.553E-15 3.363E-20 0.000E+00
 ETOT 14  -20.915001320380      1.776E-14 9.756E-21 0.000E+00

 At SCF step   14   max residual=  9.76E-21 < tolwfr=  1.00E-20 =>converged.

 ----iterations are completed or convergence reached----

 dfpt_looppert: DFPT cycle converged with prtwf=-1. Will skip output of the 1st-order WFK file.
 dfpt_looppert : ek2=    1.9927419618E+01
          f-sum rule ratio=    1.0211851667E+00
 prteigrs : about to open file /scratch/users/j/a/jabreu/flow_simple_8atoms/flow/w398/t1/tmpdata/tmp_1WF1_EIG
 Expectation of eigenvalue derivatives (hartree) for nkpt=   2  k points:
  (in case of degenerate eigenvalues, averaged derivative)
 kpt#   1, nband= 59, wtk=  0.50000, kpt=  0.0833  0.0000  0.0000 (reduced coord)
  -0.00000   -0.00000    0.00000   -0.00000    0.00000   -0.00000   -0.00000    0.00000
  -0.00000   -0.00000    0.00000   -0.00000    0.00000    0.00000    0.00000   -0.00000
   0.00000    0.00000   -0.00000    0.00000   -0.00000    0.00000   -0.00000    0.00000
   0.00000   -0.00000    0.00000    0.00000    0.00000    0.00000   -0.00000   -0.00000
  -0.00000    0.00000   -0.00000    0.00000    0.00000   -0.00000   -0.00000    0.00000
   0.00000   -0.00000    0.00000    0.00000    0.00000   -0.00000    0.00000   -0.00000
  -0.00000    0.00000   -0.00000   -0.00000    0.00000   -0.00000    0.00000    0.00000
  -0.00000   -0.00000    0.00001
 prteigrs : prtvol=0 or 1, do not print more k-points.

 Eight components of 2nd-order total energy (hartree) are
 1,2,3: 0th-order hamiltonian combined with 1st-order wavefunctions
     kin0=   2.36673440E+01 eigvalue=   3.88509443E+00  local=  -9.34333343E+00
 4,5,6: 1st-order hamiltonian combined with 1st and 0th-order wfs
     kin1=  -2.03495853E+01  Hartree=   0.00000000E+00     xc=   0.00000000E+00
 7,8,9: eventually, occupation + non-local contributions
    edocc=   1.66201007E+00     enl0=   1.04388621E+00   enl1=  -2.14804173E+01
 1-9 gives the relaxation energy (to be shifted if some occ is /=2.0)
   erelax=  -2.09150013E+01
  No Ewald or frozen-wf contrib.: the relaxation energy is the total one
 2DEtotal=   -0.2091500132E+02 Ha. Also 2DEtotal=   -0.569126129361E+03 eV
    (  non-var. 2DEtotal :   -2.0915001320E+01 Ha)

 CALCULATION OF EFFECTIVE MASSES
 NOTE : Additional infos (eff. mass eigenvalues, eigenvectors and, if degenerate, average mass) are available in stdout.

 K-point ( 0.083,-0.000, 0.000) | band =    50
 Effective mass tensor:
            -14.9621465789             -7.0011791777              0.0001445179
             -7.0011791777             -6.8776335071             -0.0002438121
              0.0001445179             -0.0002438121             -0.9389744521
 Effective mass tensor eigenvalues:
            -19.0042173360             -2.8355627924             -0.9389744098
 Angular average effective mass 1/(<1/m>)=  -2.0404341601
 Angular average effective mass for Frohlich model (<m**0.5>)**2=  -2.7769708774
 Effective masses along directions: (cart. coord. / red. coord. -> eff. mass)
    1:   1.000000  0.000000  0.000000 /   0.894427 -0.447214  0.000000 ->  -7.8352022663
    2:   0.000000  1.000000  0.000000 /   0.000000  1.000000  0.000000 ->  -3.6015988041
    3:   0.000000  0.000000  1.000000 /   0.000000  0.000000  1.000000 ->  -0.9389744238
    4:   0.577350  0.577350  0.577350 /   0.400217  0.146490  0.904636 ->  -2.4786129914
    5:   0.000000  0.707107  0.707107 /   0.000000  0.357775  0.933808 ->  -1.4898000623
    6:   0.707107  0.000000  0.707107 /   0.396549 -0.198275  0.896346 ->  -1.6768287866
    7:   0.707107  0.707107  0.000000 /   0.939071  0.343724  0.000000 -> -13.7513718419

 K-point ( 0.000, 0.000, 0.000) | band =    51
 Effective mass tensor:
              0.1888590161             -0.0000000001             -0.0000000003
             -0.0000000001              0.1888590159              0.0000000001
             -0.0000000003              0.0000000001              0.2998175388
 Effective mass tensor eigenvalues:
              0.1888590159              0.1888590161              0.2998175388
 Angular average effective mass 1/(<1/m>)=   0.2154356481
 Angular average effective mass for Frohlich model (<m**0.5>)**2=   0.2182523950
 Effective masses along directions: (cart. coord. / red. coord. -> eff. mass)
    1:   1.000000  0.000000  0.000000 /   0.894427 -0.447214  0.000000 ->   0.1888590161
    2:   0.000000  1.000000  0.000000 /   0.000000  1.000000  0.000000 ->   0.1888590159
    3:   0.000000  0.000000  1.000000 /   0.000000  0.000000  1.000000 ->   0.2998175388
    4:   0.577350  0.577350  0.577350 /   0.400217  0.146490  0.904636 ->   0.2154356479
    5:   0.000000  0.707107  0.707107 /   0.000000  0.357775  0.933808 ->   0.2317411990
    6:   0.707107  0.000000  0.707107 /   0.396549 -0.198275  0.896346 ->   0.2317411987
    7:   0.707107  0.707107  0.000000 /   0.939071  0.343724  0.000000 ->   0.1888590159

 END OF EFFECTIVE MASSES SECTION

 ---- first-order wavefunction calculations are completed ----

 Total localisation tensor (bohr^2) in cartesian coordinates
  WARNING : still subject to testing - especially symmetries.
      direction              matrix element
   alpha     beta       real part   imaginary part
     1        1       4.2169756752    0.0000000000
     1        2      -1.6157359199    0.0000000000
     1        3       0.0000000000    0.0000000000
     2        1      -1.6157359199    0.0000000000
     2        2       2.7985367049    0.0000000000
     2        3       0.0000000000    0.0000000000
     3        1       0.0000000000    0.0000000000
     3        2       0.0000000000    0.0000000000
     3        3       0.8627795568    0.0000000000

 respfn : d/dk was computed, but no 2DTE, so no DDB output.

== END DATASET(S) ==============================================================

 -outvars: echo values of variables after computation  --------
            acell      1.0000000000E+00  1.0000000000E+00  1.0000000000E+00 Bohr
              amu      2.29897680E+01  7.89600000E+01
             ecut      4.40000000E+01 Hartree
           etotal     -2.0915001320E+01
            fcart      0.0000000000E+00  0.0000000000E+00  0.0000000000E+00
                       0.0000000000E+00  0.0000000000E+00  0.0000000000E+00
                       0.0000000000E+00  0.0000000000E+00  0.0000000000E+00
                       0.0000000000E+00  0.0000000000E+00  0.0000000000E+00
                       0.0000000000E+00  0.0000000000E+00  0.0000000000E+00
                       0.0000000000E+00  0.0000000000E+00  0.0000000000E+00
                       0.0000000000E+00  0.0000000000E+00  0.0000000000E+00
                       0.0000000000E+00  0.0000000000E+00  0.0000000000E+00
-          fftalg         512
           irdden           1
           irdwfk           1
           istwfk        0    1
              ixc     -116133
              kpt      8.33333333E-02 -6.93889390E-18  0.00000000E+00
                       0.00000000E+00  0.00000000E+00  0.00000000E+00
           kptopt           0
P           mkmem           2
P          mkqmem           2
P          mk1mem           2
            natom           8
            nband          59
           nbdbuf           4
            ngfft          54      54     120
             nkpt           2
            nstep        2000
             nsym          24
           ntypat           2
              occ      2.000000  2.000000  2.000000  2.000000  2.000000  2.000000
                       2.000000  2.000000  2.000000  2.000000  2.000000  2.000000
                       2.000000  2.000000  2.000000  2.000000  2.000000  2.000000
                       2.000000  2.000000  2.000000  2.000000  2.000000  2.000000
                       2.000000  2.000000  2.000000  2.000000  2.000000  2.000000
                       2.000000  2.000000  2.000000  2.000000  2.000000  2.000000
                       2.000000  2.000000  2.000000  2.000000  2.000000  2.000000
                       2.000000  2.000000  2.000000  2.000000  2.000000  2.000000
                       2.000000  2.000000  0.000000  0.000000  0.000000  0.000000
                       0.000000  0.000000  0.000000  0.000000  0.000000
        optdriver           1
            prtwf          -1
            rfdir           1       1       1
           rfelfd           2
            rprim      8.8062528846E+00  0.0000000000E+00  0.0000000000E+00
                      -4.4031264423E+00  7.6264387102E+00  0.0000000000E+00
                       0.0000000000E+00  0.0000000000E+00  1.9905327767E+01
          spgroup         194
           strten      0.0000000000E+00  0.0000000000E+00  0.0000000000E+00
                       0.0000000000E+00  0.0000000000E+00  0.0000000000E+00
           symrel      1  0  0   0  1  0   0  0  1      -1  0  0   0 -1  0   0  0 -1
                       0  1  0   1  0  0   0  0  1       0 -1  0  -1  0  0   0  0 -1
                       1  1  0  -1  0  0   0  0  1      -1 -1  0   1  0  0   0  0 -1
                      -1  0  0   1  1  0   0  0  1       1  0  0  -1 -1  0   0  0 -1
                       0  1  0  -1 -1  0   0  0  1       0 -1  0   1  1  0   0  0 -1
                      -1 -1  0   0  1  0   0  0  1       1  1  0   0 -1  0   0  0 -1
                      -1  0  0   0 -1  0   0  0  1       1  0  0   0  1  0   0  0 -1
                       0 -1  0  -1  0  0   0  0  1       0  1  0   1  0  0   0  0 -1
                      -1 -1  0   1  0  0   0  0  1       1  1  0  -1  0  0   0  0 -1
                       1  0  0  -1 -1  0   0  0  1      -1  0  0   1  1  0   0  0 -1
                       0 -1  0   1  1  0   0  0  1       0  1  0  -1 -1  0   0  0 -1
                       1  1  0   0 -1  0   0  0  1      -1 -1  0   0  1  0   0  0 -1
            tnons      0.0000000  0.0000000  0.0000000     0.0000000  0.0000000 -0.0000000
                       0.0000000  0.0000000  0.5000000     0.0000000  0.0000000  0.5000000
                       0.0000000  0.0000000  0.5000000     0.0000000  0.0000000  0.5000000
                       0.0000000  0.0000000  0.0000000     0.0000000  0.0000000 -0.0000000
                       0.0000000  0.0000000  0.0000000     0.0000000  0.0000000 -0.0000000
                       0.0000000  0.0000000  0.5000000     0.0000000  0.0000000  0.5000000
                       0.0000000  0.0000000  0.5000000     0.0000000  0.0000000  0.5000000
                       0.0000000  0.0000000  0.0000000     0.0000000  0.0000000 -0.0000000
                       0.0000000  0.0000000  0.0000000     0.0000000  0.0000000 -0.0000000
                       0.0000000  0.0000000  0.5000000     0.0000000  0.0000000  0.5000000
                       0.0000000  0.0000000  0.5000000     0.0000000  0.0000000  0.5000000
                       0.0000000  0.0000000  0.0000000     0.0000000  0.0000000 -0.0000000
           tolwfr      1.00000000E-20
            typat      1  1  1  1  2  2  2  2
           useylm           1
              wtk        0.50000    0.50000
           xangst      0.0000000000E+00  0.0000000000E+00 -1.4618092548E-16
                       0.0000000000E+00  0.0000000000E+00  5.2667228920E+00
                       0.0000000000E+00  2.6904916988E+00  2.6333614460E+00
                       2.3300341598E+00  1.3452458494E+00  7.9000843380E+00
                       0.0000000000E+00  2.6904916988E+00  6.6732855079E+00
                       2.3300341598E+00  1.3452458494E+00  1.4065626159E+00
                       2.3300341598E+00  1.3452458494E+00  3.8601602761E+00
                       0.0000000000E+00  2.6904916988E+00  9.1268831681E+00
            xcart      0.0000000000E+00  0.0000000000E+00 -2.7624191500E-16
                       0.0000000000E+00  0.0000000000E+00  9.9526638837E+00
                       0.0000000000E+00  5.0842924735E+00  4.9763319418E+00
                       4.4031264423E+00  2.5421462367E+00  1.4928995825E+01
                       0.0000000000E+00  5.0842924735E+00  1.2610682016E+01
                       4.4031264423E+00  2.5421462367E+00  2.6580181328E+00
                       4.4031264423E+00  2.5421462367E+00  7.2946457509E+00
                       0.0000000000E+00  5.0842924735E+00  1.7247309635E+01
             xred      0.0000000000E+00  0.0000000000E+00 -1.3877787808E-17
                       0.0000000000E+00  0.0000000000E+00  5.0000000000E-01
                       3.3333333333E-01  6.6666666667E-01  2.5000000000E-01
                       6.6666666667E-01  3.3333333333E-01  7.5000000000E-01
                       3.3333333333E-01  6.6666666667E-01  6.3353300000E-01
                       6.6666666667E-01  3.3333333333E-01  1.3353300000E-01
                       6.6666666667E-01  3.3333333333E-01  3.6646700000E-01
                       3.3333333333E-01  6.6666666667E-01  8.6646700000E-01
            znucl       11.00000   34.00000

- Timing analysis has been suppressed with timopt=0

 Suggested references for the acknowledgment of ABINIT usage.

 Calculation completed.
.Delivered  14 WARNINGs and  11 COMMENTs to log file.