.Version 9.5.1 of ABINIT

 ABINIT is a project of the Universite Catholique de Louvain,
 Corning Inc. and other collaborators, see ~abinit/doc/developers/contributors.txt .
 acknowledgments of the ABINIT effort.

.Starting date : Tue 27 Apr 2021.
- ( at 18h21 )

- input  file    -> /scratch/users/j/a/jabreu/flow_simple_4atoms/flow/w134/t1/run.abi
- output file    -> /scratch/users/j/a/jabreu/flow_simple_4atoms/flow/w134/t1/run.abo
- root for input  files -> /scratch/users/j/a/jabreu/flow_simple_4atoms/flow/w134/t1/indata/in
- root for output files -> /scratch/users/j/a/jabreu/flow_simple_4atoms/flow/w134/t1/outdata/out

 Symmetries : space group P3 m 1 (#156); Bravais hP (primitive hexag.)
     intxc =       0      iscf =       7    lmnmax =      18     lnmax =       6
     mgfft =      60  mpssoang =       3    mqgrid =    3001     natom =       4
  nloc_mem =       1    nspden =       1   nspinor =       1    nsppol =       1
      nsym =       6    n1xccc =    2501    ntypat =       3    occopt =       1
   xclevel =       2
-    mband =          30        mffmem =           1         mkmem =           2
-   mkqmem =           2        mk1mem =           2           mpw =        4224
      nfft =       77760          nkpt =           2
  Rough estimation (10% accuracy) of disk space for files :

------------- Echo of variables that govern the present computation ------------
-
- outvars: echo of selected default values
-   iomode0 =  0 , fftalg0 =512 , wfoptalg0 =  0
-
- outvars: echo of global parameters not present in the input file
-  max_nthreads =    0
-
 -outvars: echo values of preprocessed input variables --------
            acell      1.0000000000E+00  1.0000000000E+00  1.0000000000E+00 Bohr
              amu      9.12240000E+01  6.53900000E+01  1.40067400E+01
             ecut      4.20000000E+01 Hartree
-          fftalg         512
           irdden           1
           irdwfk           1
           istwfk        1    1
              ixc     -116133
              kpt      0.00000000E+00  0.00000000E+00  0.00000000E+00
                       5.00000000E-01 -2.77555756E-17  5.00000000E-01
           kptopt           0
P           mkmem           2
P          mkqmem           2
P          mk1mem           2
            natom           4
            nband          30
           nbdbuf           4
            ngfft          36      36      60
             nkpt           2
            nstep         100
             nsym           6
           ntypat           3
              occ      2.000000  2.000000  2.000000  2.000000  2.000000  2.000000
                       2.000000  2.000000  2.000000  2.000000  2.000000  2.000000
                       2.000000  2.000000  2.000000  2.000000  2.000000  2.000000
                       2.000000  2.000000  2.000000  0.000000  0.000000  0.000000
                       0.000000  0.000000  0.000000  0.000000  0.000000  0.000000
        optdriver           1
            prtwf          -1
            rfdir           1       1       1
           rfelfd           2
            rprim      6.1643037017E+00  0.0000000000E+00  0.0000000000E+00
                      -3.0821518508E+00  5.3384436023E+00  0.0000000000E+00
                       0.0000000000E+00  0.0000000000E+00  9.9002182673E+00
          spgroup         156
           symrel      1  0  0   0  1  0   0  0  1      -1  0  0   1  1  0   0  0  1
                       0  1  0  -1 -1  0   0  0  1       0 -1  0  -1  0  0   0  0  1
                      -1 -1  0   1  0  0   0  0  1       1  1  0   0 -1  0   0  0  1
           tolwfr      1.00000000E-20
            typat      1  2  3  3
           useylm           1
              wtk        0.50000    0.50000
           xangst      0.0000000000E+00  0.0000000000E+00  5.2218174798E+00
                       1.6310045129E+00  9.4166089456E-01  2.8854621947E+00
                       1.7639241746E-11  1.8833217891E+00  3.8721540626E+00
                       1.6310045129E+00  9.4166089456E-01  9.6097900376E-01
            xcart      0.0000000000E+00  0.0000000000E+00  9.8678049527E+00
                       3.0821518509E+00  1.7794812008E+00  5.4527333149E+00
                       3.3333336091E-11  3.5589624015E+00  7.3173107227E+00
                       3.0821518509E+00  1.7794812008E+00  1.8159871366E+00
             xred      0.0000000000E+00  0.0000000000E+00  9.9672600000E-01
                       6.6666666667E-01  3.3333333333E-01  5.5076900000E-01
                       3.3333333333E-01  6.6666666667E-01  7.3910600000E-01
                       6.6666666667E-01  3.3333333333E-01  1.8342900000E-01
            znucl       40.00000   30.00000    7.00000

 chkinp: Checking input parameters for consistency.

== DATASET  1 ==================================================================
-   mpi_nproc: 1, omp_nthreads: -1 (-1 if OMP is not activated)

--- !DatasetInfo
iteration_state: {dtset: 1, }
dimensions: {natom: 4, nkpt: 2, mband: 30, nsppol: 1, nspinor: 1, nspden: 1, mpw: 4224, }
cutoff_energies: {ecut:  42.0, pawecutdg:  -1.0, }
electrons: {nelect:   4.20000000E+01, charge:   0.00000000E+00, occopt:   1.00000000E+00, tsmear:   1.00000000E-02, }
meta: {optdriver: 1, rfelfd: 2, }
...

 Real(R)+Recip(G) space primitive vectors, cartesian coordinates (Bohr,Bohr^-1):
 R(1)=  6.1643037  0.0000000  0.0000000  G(1)=  0.1622243  0.0936603  0.0000000
 R(2)= -3.0821519  5.3384436  0.0000000  G(2)=  0.0000000  0.1873205  0.0000000
 R(3)=  0.0000000  0.0000000  9.9002183  G(3)=  0.0000000  0.0000000  0.1010079
 Unit cell volume ucvol=  3.2579428E+02 bohr^3
 Angles (23,13,12)=  9.00000000E+01  9.00000000E+01  1.20000000E+02 degrees

 getcut: wavevector=  0.0000  0.0000  0.0000  ngfft=  36  36  60
         ecut(hartree)=     42.000   => boxcut(ratio)=   2.00184

--- Pseudopotential description ------------------------------------------------
- pspini: atom type   1  psp file is /scratch/users/j/a/jabreu/pseudos/PBEsol/Zr.psp8
- pspatm: opening atomic psp file    /scratch/users/j/a/jabreu/pseudos/PBEsol/Zr.psp8
- Zr    ONCVPSP-3.3.0  r_core=   1.56507   1.56507   1.51006
- 40.00000  12.00000    180112                znucl, zion, pspdat
    8 -116133    2    4       600   0.00000   pspcod,pspxc,lmax,lloc,mmax,r2well
    5.99000000000000    5.00000000000000    0.00000000000000   rchrg,fchrg,qchrg
     nproj     2     2     2
     extension_switch     1
  pspatm : epsatm=   18.88750170
         --- l  ekb(1:nproj) -->
             0   10.584966    0.890424
             1    5.814585    0.741293
             2    1.525459    0.487901
 pspatm: atomic psp has been read  and splines computed

- pspini: atom type   2  psp file is /scratch/users/j/a/jabreu/pseudos/PBEsol/Zn.psp8
- pspatm: opening atomic psp file    /scratch/users/j/a/jabreu/pseudos/PBEsol/Zn.psp8
- Zn    ONCVPSP-3.3.0  r_core=   1.35823   1.66358   1.85211
- 30.00000  20.00000    180112                znucl, zion, pspdat
    8 -116133    2    4       600   0.00000   pspcod,pspxc,lmax,lloc,mmax,r2well
    5.99000000000000    2.50000000000000    0.00000000000000   rchrg,fchrg,qchrg
     nproj     2     2     2
     extension_switch     1
  pspatm : epsatm=   26.57343589
         --- l  ekb(1:nproj) -->
             0    2.830835   -1.519107
             1   -4.626739   -1.324150
             2   -6.948510   -2.555500
 pspatm: atomic psp has been read  and splines computed

- pspini: atom type   3  psp file is /scratch/users/j/a/jabreu/pseudos/PBEsol/N.psp8
- pspatm: opening atomic psp file    /scratch/users/j/a/jabreu/pseudos/PBEsol/N.psp8
- N     ONCVPSP-3.3.0  r_core=   1.20551   1.35824
-  7.00000   5.00000    180112                znucl, zion, pspdat
    8 -116133    1    4       600   0.00000   pspcod,pspxc,lmax,lloc,mmax,r2well
    5.99000000000000    4.00000000000000    0.00000000000000   rchrg,fchrg,qchrg
     nproj     2     2
     extension_switch     1
  pspatm : epsatm=    5.26508895
         --- l  ekb(1:nproj) -->
             0    7.464189    0.625868
             1   -4.309714   -1.012941
 pspatm: atomic psp has been read  and splines computed

   2.35162685E+03                                ecore*ucvol(ha*bohr**3)

-inwffil : will read wavefunctions from disk file /scratch/users/j/a/jabreu/flow_simple_4atoms/flow/w134/t1/indata/in_WFK

 ==>  initialize data related to q vector <==

 The list of irreducible perturbations for this q vector is:
    1)    idir= 1    ipert=   5
    2)    idir= 2    ipert=   5
    3)    idir= 3    ipert=   5

 Perturbation wavevector (in red.coord.)   0.000000  0.000000  0.000000
 Perturbation : derivative vs k along direction   1

 dfpt_looppert : COMMENT -
  In a d/dk calculation, iscf is set to -3 automatically.
 The set of symmetries contains only one element for this perturbation.
 symkpt : not enough symmetry to change the number of k points.

[...]

 Initialisation of the first-order wave-functions :
  ireadwf=   0

--- !BeginCycle
iteration_state: {dtset: 1, }
solver: {iscf: 7, nstep: 100, nline: 4, wfoptalg: 0, }
tolerances: {tolwfr: 1.00E-20, }
...

     iter   2DEtotal(Ha)        deltaE(Ha) residm    vres2
-ETOT  1  -71.611435141056     -7.161E+01 7.538E-02 0.000E+00
 ETOT  2  -71.658597384152     -4.716E-02 1.111E-03 0.000E+00
 ETOT  3  -71.658753281797     -1.559E-04 8.483E-06 0.000E+00
 ETOT  4  -71.658754359016     -1.077E-06 2.520E-07 0.000E+00
 ETOT  5  -71.658754368837     -9.821E-09 2.651E-09 0.000E+00
 ETOT  6  -71.658754368944     -1.072E-10 1.119E-10 0.000E+00
 ETOT  7  -71.658754368946     -1.293E-12 1.255E-12 0.000E+00
 ETOT  8  -71.658754368946      4.263E-14 5.409E-14 0.000E+00
 ETOT  9  -71.658754368946     -4.263E-14 6.195E-16 0.000E+00
 ETOT 10  -71.658754368946      1.421E-14 2.693E-17 0.000E+00
 ETOT 11  -71.658754368946     -2.842E-14 3.132E-19 0.000E+00
 ETOT 12  -71.658754368946      0.000E+00 1.366E-20 0.000E+00
 ETOT 13  -71.658754368946      2.842E-14 9.805E-21 0.000E+00

 At SCF step   13   max residual=  9.81E-21 < tolwfr=  1.00E-20 =>converged.

 ----iterations are completed or convergence reached----

 dfpt_looppert: DFPT cycle converged with prtwf=-1. Will skip output of the 1st-order WFK file.
 dfpt_looppert : ek2=    1.1636160549E+02
          f-sum rule ratio=    1.1227788862E+00
 prteigrs : about to open file /scratch/users/j/a/jabreu/flow_simple_4atoms/flow/w134/t1/tmpdata/tmp_1WF1_EIG
 Expectation of eigenvalue derivatives (hartree) for nkpt=   2  k points:
  (in case of degenerate eigenvalues, averaged derivative)
 kpt#   1, nband= 30, wtk=  0.50000, kpt=  0.0000  0.0000  0.0000 (reduced coord)
   0.00000    0.00000   -0.00000   -0.00000   -0.00000   -0.00000    0.00000    0.00000
   0.00000    0.00000   -0.00000   -0.00000   -0.00000   -0.00000   -0.00000   -0.00000
  -0.00000   -0.00000   -0.00000    0.00000    0.00000    0.00000   -0.00000   -0.00000
   0.00000    0.00000    0.00000    0.00000    0.00001   -0.00001
 prteigrs : prtvol=0 or 1, do not print more k-points.

 Eight components of 2nd-order total energy (hartree) are
 1,2,3: 0th-order hamiltonian combined with 1st-order wavefunctions
     kin0=   7.38405303E+01 eigvalue=  -1.40592630E+00  local=  -2.61594486E+01
 4,5,6: 1st-order hamiltonian combined with 1st and 0th-order wfs
     kin1=  -1.30648354E+02  Hartree=   0.00000000E+00     xc=   0.00000000E+00
 7,8,9: eventually, occupation + non-local contributions
    edocc=   2.68682431E+01     enl0=  -1.48464412E+00   enl1=  -1.26691549E+01
 1-9 gives the relaxation energy (to be shifted if some occ is /=2.0)
   erelax=  -7.16587544E+01
  No Ewald or frozen-wf contrib.: the relaxation energy is the total one
 2DEtotal=   -0.7165875437E+02 Ha. Also 2DEtotal=   -0.194993387206E+04 eV
    (  non-var. 2DEtotal :   -7.1658754369E+01 Ha)

 Perturbation wavevector (in red.coord.)   0.000000  0.000000  0.000000
 Perturbation : derivative vs k along direction   2
 The set of symmetries contains only one element for this perturbation.
 symkpt : not enough symmetry to change the number of k points.

[...]

 Perturbation wavevector (in red.coord.)   0.000000  0.000000  0.000000
 Perturbation : derivative vs k along direction   3
 The set of symmetries contains only one element for this perturbation.
 symkpt : not enough symmetry to change the number of k points.

-inwffil : will read wavefunctions from disk file /scratch/users/j/a/jabreu/flow_simple_4atoms/flow/w134/t1/indata/in_WFK

 Initialisation of the first-order wave-functions :
  ireadwf=   0

--- !BeginCycle
iteration_state: {dtset: 1, }
solver: {iscf: 7, nstep: 100, nline: 4, wfoptalg: 0, }
tolerances: {tolwfr: 1.00E-20, }
...

     iter   2DEtotal(Ha)        deltaE(Ha) residm    vres2
-ETOT  1  -21.408122638125     -2.141E+01 1.747E-02 0.000E+00
 ETOT  2  -21.427210292364     -1.909E-02 2.719E-04 0.000E+00
 ETOT  3  -21.427259217411     -4.893E-05 2.271E-06 0.000E+00
 ETOT  4  -21.427259474006     -2.566E-07 9.649E-08 0.000E+00
 ETOT  5  -21.427259475986     -1.980E-09 1.324E-09 0.000E+00
 ETOT  6  -21.427259476008     -2.129E-11 5.771E-11 0.000E+00
 ETOT  7  -21.427259476008     -2.665E-13 8.354E-13 0.000E+00
 ETOT  8  -21.427259476008     -1.421E-14 3.680E-14 0.000E+00
 ETOT  9  -21.427259476008     -1.066E-14 5.455E-16 0.000E+00
 ETOT 10  -21.427259476008     -3.553E-15 2.425E-17 0.000E+00
 ETOT 11  -21.427259476008      3.553E-15 3.639E-19 0.000E+00
 ETOT 12  -21.427259476008      3.553E-15 1.632E-20 0.000E+00
 ETOT 13  -21.427259476008     -1.066E-14 9.969E-21 0.000E+00

 At SCF step   13   max residual=  9.97E-21 < tolwfr=  1.00E-20 =>converged.

 ----iterations are completed or convergence reached----

 dfpt_looppert: DFPT cycle converged with prtwf=-1. Will skip output of the 1st-order WFK file.
 dfpt_looppert : ek2=    3.3833699197E+01
          f-sum rule ratio=    1.1637702304E+00
 prteigrs : about to open file /scratch/users/j/a/jabreu/flow_simple_4atoms/flow/w134/t1/tmpdata/tmp_1WF1_EIG
 Expectation of eigenvalue derivatives (hartree) for nkpt=   2  k points:
  (in case of degenerate eigenvalues, averaged derivative)
 kpt#   1, nband= 30, wtk=  0.50000, kpt=  0.0000  0.0000  0.0000 (reduced coord)
  -0.00000   -0.00000   -0.00000   -0.00000   -0.00000   -0.00000   -0.00000   -0.00000
  -0.00000   -0.00000    0.00000    0.00000   -0.00000    0.00000   -0.00000   -0.00000
   0.00000    0.00000    0.00000    0.00000    0.00000   -0.00000    0.00000    0.00000
   0.00000   -0.00000   -0.00000   -0.00000   -0.00000    0.00000
 prteigrs : prtvol=0 or 1, do not print more k-points.

 Eight components of 2nd-order total energy (hartree) are
 1,2,3: 0th-order hamiltonian combined with 1st-order wavefunctions
     kin0=   2.17203667E+01 eigvalue=  -5.11719194E-01  local=  -7.67094181E+00
 4,5,6: 1st-order hamiltonian combined with 1st and 0th-order wfs
     kin1=  -3.93746519E+01  Hartree=   0.00000000E+00     xc=   0.00000000E+00
 7,8,9: eventually, occupation + non-local contributions
    edocc=   8.30793392E+00     enl0=  -4.18380114E-01   enl1=  -3.47986704E+00
 1-9 gives the relaxation energy (to be shifted if some occ is /=2.0)
   erelax=  -2.14272595E+01
  No Ewald or frozen-wf contrib.: the relaxation energy is the total one
 2DEtotal=   -0.2142725948E+02 Ha. Also 2DEtotal=   -0.583065382669E+03 eV
    (  non-var. 2DEtotal :   -2.1427259476E+01 Ha)

 CALCULATION OF EFFECTIVE MASSES
 NOTE : Additional infos (eff. mass eigenvalues, eigenvectors and, if degenerate, average mass) are available in stdout.

 COMMENTS:
 - At k-point ( 0.000, 0.000, 0.000), bands    20 through    21
   are DEGENERATE (effective mass tensor is therefore not defined).
   See Section IIIB Eqs. (67)-(70) and Appendix E of PRB 93 205147 (2016).
 - Angular average effective mass for Frohlich model is to be averaged over degenerate bands. See later.
 - Associated theta integrals calculated with ntheta=   1000 points.

 K-point ( 0.000, 0.000, 0.000) | band =    20
 Transport equivalent effective mass tensor:
             -0.2444688896             -0.0000001518              0.0000001372
             -0.0000001518             -0.2444697040              0.0000015139
              0.0000001372              0.0000015139             -1.4032305511
 Transport equivalent effective mass tensor eigenvalues:
             -1.4032305511             -0.2444697313             -0.2444688622
 Angular average effective mass 1/(<1/m>)=  -0.3059007898
 Angular average effective mass for Frohlich model (<m**0.5>)**2=  -0.3488675781
 Effective masses along directions: (cart. coord. / red. coord. -> eff. mass)
    1:   1.000000  0.000000  0.000000 /   0.894427 -0.447214  0.000000 ->  -0.2227326620
    2:   0.000000  1.000000  0.000000 /   0.000000  1.000000  0.000000 ->  -0.2227320600
    3:   0.000000  0.000000  1.000000 /   0.000000  0.000000  1.000000 ->  -1.4173861611
    4:   0.577350  0.577350  0.577350 /   0.518937  0.189944  0.833442 ->  -0.2825304536
    5:   0.000000  0.707107  0.707107 /   0.000000  0.474621  0.880190 ->  -0.4595006882
    6:   0.707107  0.000000  0.707107 /   0.511015 -0.255508  0.820719 ->  -0.3694022312
    7:   0.707107  0.707107  0.000000 /   0.939071  0.343724  0.000000 ->  -0.2227325304

 K-point ( 0.000, 0.000, 0.000) | band =    21
 Transport equivalent effective mass tensor:
             -1.0243807502             -0.0000000794              0.0000007333
             -0.0000000794             -1.0243763532             -0.0000020767
              0.0000007333             -0.0000020767             -2.9942935847
 Transport equivalent effective mass tensor eigenvalues:
             -2.9942935847             -1.0243807516             -1.0243763517
 Angular average effective mass 1/(<1/m>)=  -0.8537414332
 Angular average effective mass for Frohlich model (<m**0.5>)**2=  -0.9216980635
 Effective masses along directions: (cart. coord. / red. coord. -> eff. mass)
    1:   1.000000  0.000000  0.000000 /   0.894427 -0.447214  0.000000 ->  -0.6824515509
    2:   0.000000  1.000000  0.000000 /   0.000000  1.000000  0.000000 ->  -0.6824515550
    3:   0.000000  0.000000  1.000000 /   0.000000  0.000000  1.000000 ->  -1.4173862620
    4:   0.577350  0.577350  0.577350 /   0.518937  0.189944  0.833442 ->  -1.1099944434
    5:   0.000000  0.707107  0.707107 /   0.000000  0.474621  0.880190 ->  -0.6636796755
    6:   0.707107  0.000000  0.707107 /   0.511015 -0.255508  0.820719 ->  -1.0246480712
    7:   0.707107  0.707107  0.000000 /   0.939071  0.343724  0.000000 ->  -0.6824513821

 Angular average effective mass for Frohlich model, averaged over degenerate bands.
 Value of     (<<m**0.5>>)**2 =     6.011686E-01
 Absolute Value of <<m**0.5>> =     7.753506E-01

 K-point ( 0.500,-0.000, 0.500) | band =    22
 Effective mass tensor:
              2.2023695153              0.8754763437              0.0652964676
              0.8754763437              1.1914162863              0.0377145067
              0.0652964676              0.0377145067              7.9145816584
 Effective mass tensor eigenvalues:
              0.6859698394              2.7067241481              7.9156734725
 Angular average effective mass 1/(<1/m>)=   1.5356485758
 Angular average effective mass for Frohlich model (<m**0.5>)**2=   2.0166457070
 Effective masses along directions: (cart. coord. / red. coord. -> eff. mass)
    1:   1.000000  0.000000  0.000000 /   0.894427 -0.447214  0.000000 ->   1.5588736211
    2:   0.000000  1.000000  0.000000 /   0.000000  1.000000  0.000000 ->   0.8433832683
    3:   0.000000  0.000000  1.000000 /   0.000000  0.000000  1.000000 ->   7.9124818062
    4:   0.577350  0.577350  0.577350 /   0.518937  0.189944  0.833442 ->   2.9958350100
    5:   0.000000  0.707107  0.707107 /   0.000000  0.474621  0.880190 ->   1.5283984984
    6:   0.707107  0.000000  0.707107 /   0.511015 -0.255508  0.820719 ->   2.6254362417
    7:   0.707107  0.707107  0.000000 /   0.939071  0.343724  0.000000 ->   2.2608454953

 END OF EFFECTIVE MASSES SECTION

 ---- first-order wavefunction calculations are completed ----

 Total localisation tensor (bohr^2) in cartesian coordinates
  WARNING : still subject to testing - especially symmetries.
      direction              matrix element
   alpha     beta       real part   imaginary part
     1        1       2.0635169937    0.0000000000
     1        2      -0.7595828930    0.0000000000
     1        3       0.0000000000    0.0000000000
     2        1      -0.7595828930    0.0000000000
     2        2       1.3156361632    0.0000000000
     2        3       0.0000000000    0.0000000000
     3        1       0.0000000000    0.0000000000
     3        2       0.0000000000    0.0000000000
     3        3       1.1538036386    0.0000000000

 respfn : d/dk was computed, but no 2DTE, so no DDB output.

== END DATASET(S) ==============================================================

 -outvars: echo values of variables after computation  --------
            acell      1.0000000000E+00  1.0000000000E+00  1.0000000000E+00 Bohr
              amu      9.12240000E+01  6.53900000E+01  1.40067400E+01
             ecut      4.20000000E+01 Hartree
           etotal     -2.1427259476E+01
            fcart      0.0000000000E+00  0.0000000000E+00  0.0000000000E+00
                       0.0000000000E+00  0.0000000000E+00  0.0000000000E+00
                       0.0000000000E+00  0.0000000000E+00  0.0000000000E+00
                       0.0000000000E+00  0.0000000000E+00  0.0000000000E+00
-          fftalg         512
           irdden           1
           irdwfk           1
           istwfk        1    1
              ixc     -116133
              kpt      0.00000000E+00  0.00000000E+00  0.00000000E+00
                       5.00000000E-01 -2.77555756E-17  5.00000000E-01
           kptopt           0
P           mkmem           2
P          mkqmem           2
P          mk1mem           2
            natom           4
            nband          30
           nbdbuf           4
            ngfft          36      36      60
             nkpt           2
            nstep         100
             nsym           6
           ntypat           3
              occ      2.000000  2.000000  2.000000  2.000000  2.000000  2.000000
                       2.000000  2.000000  2.000000  2.000000  2.000000  2.000000
                       2.000000  2.000000  2.000000  2.000000  2.000000  2.000000
                       2.000000  2.000000  2.000000  0.000000  0.000000  0.000000
                       0.000000  0.000000  0.000000  0.000000  0.000000  0.000000
        optdriver           1
            prtwf          -1
            rfdir           1       1       1
           rfelfd           2
            rprim      6.1643037017E+00  0.0000000000E+00  0.0000000000E+00
                      -3.0821518508E+00  5.3384436023E+00  0.0000000000E+00
                       0.0000000000E+00  0.0000000000E+00  9.9002182673E+00
          spgroup         156
           strten      0.0000000000E+00  0.0000000000E+00  0.0000000000E+00
                       0.0000000000E+00  0.0000000000E+00  0.0000000000E+00
           symrel      1  0  0   0  1  0   0  0  1      -1  0  0   1  1  0   0  0  1
                       0  1  0  -1 -1  0   0  0  1       0 -1  0  -1  0  0   0  0  1
                      -1 -1  0   1  0  0   0  0  1       1  1  0   0 -1  0   0  0  1
           tolwfr      1.00000000E-20
            typat      1  2  3  3
           useylm           1
              wtk        0.50000    0.50000
           xangst      0.0000000000E+00  0.0000000000E+00  5.2218174798E+00
                       1.6310045129E+00  9.4166089456E-01  2.8854621947E+00
                       1.7639241746E-11  1.8833217891E+00  3.8721540626E+00
                       1.6310045129E+00  9.4166089456E-01  9.6097900376E-01
            xcart      0.0000000000E+00  0.0000000000E+00  9.8678049527E+00
                       3.0821518509E+00  1.7794812008E+00  5.4527333149E+00
                       3.3333336091E-11  3.5589624015E+00  7.3173107227E+00
                       3.0821518509E+00  1.7794812008E+00  1.8159871366E+00
             xred      0.0000000000E+00  0.0000000000E+00  9.9672600000E-01
                       6.6666666667E-01  3.3333333333E-01  5.5076900000E-01
                       3.3333333333E-01  6.6666666667E-01  7.3910600000E-01
                       6.6666666667E-01  3.3333333333E-01  1.8342900000E-01
            znucl       40.00000   30.00000    7.00000

- Timing analysis has been suppressed with timopt=0

 Suggested references for the acknowledgment of ABINIT usage.

 Calculation completed.
.Delivered  14 WARNINGs and   9 COMMENTs to log file.