.Version 9.5.1 of ABINIT

 ABINIT is a project of the Universite Catholique de Louvain,
 Corning Inc. and other collaborators, see ~abinit/doc/developers/contributors.txt .
 acknowledgments of the ABINIT effort.

.Starting date : Tue 27 Apr 2021.
- ( at 15h32 )

- input  file    -> /scratch/users/j/a/jabreu/flow_simple/flow/w151/t1/run.abi
- output file    -> /scratch/users/j/a/jabreu/flow_simple/flow/w151/t1/run.abo
- root for input  files -> /scratch/users/j/a/jabreu/flow_simple/flow/w151/t1/indata/in
- root for output files -> /scratch/users/j/a/jabreu/flow_simple/flow/w151/t1/outdata/out

 Symmetries : space group Fm -3 m (#225); Bravais cF (face-center cubic)
     intxc =       0      iscf =       7    lmnmax =      18     lnmax =       6
     mgfft =      54  mpssoang =       3    mqgrid =    3001     natom =       3
  nloc_mem =       1    nspden =       1   nspinor =       1    nsppol =       1
      nsym =      48    n1xccc =    2501    ntypat =       2    occopt =       1
   xclevel =       2
-    mband =          21        mffmem =           1         mkmem =           1
-   mkqmem =           1        mk1mem =           1           mpw =        6218
      nfft =      157464          nkpt =           1
  Rough estimation (10% accuracy) of disk space for files :

------------- Echo of variables that govern the present computation ------------
-
- outvars: echo of selected default values
-   iomode0 =  0 , fftalg0 =512 , wfoptalg0 =  0
-
- outvars: echo of global parameters not present in the input file
-  max_nthreads =    0
-
 -outvars: echo values of preprocessed input variables --------
            acell      1.0000000000E+00  1.0000000000E+00  1.0000000000E+00 Bohr
              amu      4.00780000E+01  2.80855000E+01
             ecut      3.60000000E+01 Hartree
-          fftalg         512
           irdden           1
           irdwfk           1
           istwfk        1
              ixc     -116133
              kpt      5.00000000E-01 -3.13151123E-17  5.00000000E-01
           kptopt           0
P           mkmem           1
P          mkqmem           1
P          mk1mem           1
            natom           3
            nband          21
           nbdbuf           4
            ngfft          54      54      54
             nkpt           1
            nstep         100
             nsym          48
           ntypat           2
              occ      2.000000  2.000000  2.000000  2.000000  2.000000  2.000000
                       2.000000  2.000000  2.000000  2.000000  2.000000  2.000000
                       0.000000  0.000000  0.000000  0.000000  0.000000  0.000000
                       0.000000  0.000000  0.000000
        optdriver           1
            prtwf          -1
            rfdir           1       1       1
           rfelfd           2
            rprim      8.2034796431E+00  0.0000000000E+00  4.7362811802E+00
                       2.7344932144E+00  7.7343147799E+00  4.7362811802E+00
                       0.0000000000E+00  0.0000000000E+00  9.4725623604E+00
          spgroup         225
           symrel      1  0  0   0  1  0   0  0  1      -1  0  0   0 -1  0   0  0 -1
                       0 -1  1   0 -1  0   1 -1  0       0  1 -1   0  1  0  -1  1  0
                      -1  0  0  -1  0  1  -1  1  0       1  0  0   1  0 -1   1 -1  0
                       0  1 -1   1  0 -1   0  0 -1       0 -1  1  -1  0  1   0  0  1
                      -1  0  0  -1  1  0  -1  0  1       1  0  0   1 -1  0   1  0 -1
                       0 -1  1   1 -1  0   0 -1  0       0  1 -1  -1  1  0   0  1  0
                       1  0  0   0  0  1   0  1  0      -1  0  0   0  0 -1   0 -1  0
                       0  1 -1   0  0 -1   1  0 -1       0 -1  1   0  0  1  -1  0  1
                      -1  0  1  -1  1  0  -1  0  0       1  0 -1   1 -1  0   1  0  0
                       0 -1  0   1 -1  0   0 -1  1       0  1  0  -1  1  0   0  1 -1
                       1  0 -1   0  0 -1   0  1 -1      -1  0  1   0  0  1   0 -1  1
                       0  1  0   0  0  1   1  0  0       0 -1  0   0  0 -1  -1  0  0
                       1  0 -1   0  1 -1   0  0 -1      -1  0  1   0 -1  1   0  0  1
                       0 -1  0   0 -1  1   1 -1  0       0  1  0   0  1 -1  -1  1  0
                      -1  0  1  -1  0  0  -1  1  0       1  0 -1   1  0  0   1 -1  0
                       0  1  0   1  0  0   0  0  1       0 -1  0  -1  0  0   0  0 -1
                       0  0 -1   0  1 -1   1  0 -1       0  0  1   0 -1  1  -1  0  1
                       1 -1  0   0 -1  1   0 -1  0      -1  1  0   0  1 -1   0  1  0
                       0  0  1   1  0  0   0  1  0       0  0 -1  -1  0  0   0 -1  0
                      -1  1  0  -1  0  0  -1  0  1       1 -1  0   1  0  0   1  0 -1
                       0  0  1   0  1  0   1  0  0       0  0 -1   0 -1  0  -1  0  0
                       1 -1  0   0 -1  0   0 -1  1      -1  1  0   0  1  0   0  1 -1
                       0  0 -1   1  0 -1   0  1 -1       0  0  1  -1  0  1   0 -1  1
                      -1  1  0  -1  0  1  -1  0  0       1 -1  0   1  0 -1   1  0  0
           tolwfr      1.00000000E-20
            typat      1  1  2
           useylm           1
           xangst      1.4470314861E+00  1.0232057764E+00  2.5063320540E+00
                       4.3410944583E+00  3.0696173292E+00  7.5189961621E+00
                       0.0000000000E+00  0.0000000000E+00  0.0000000000E+00
            xcart      2.7344932144E+00  1.9335786950E+00  4.7362811802E+00
                       8.2034796431E+00  5.8007360849E+00  1.4208843541E+01
                       0.0000000000E+00  0.0000000000E+00  0.0000000000E+00
             xred      2.5000000000E-01  2.5000000000E-01  2.5000000000E-01
                       7.5000000000E-01  7.5000000000E-01  7.5000000000E-01
                       0.0000000000E+00  0.0000000000E+00  0.0000000000E+00
            znucl       20.00000   14.00000

 chkinp: Checking input parameters for consistency.

== DATASET  1 ==================================================================
-   mpi_nproc: 1, omp_nthreads: -1 (-1 if OMP is not activated)

--- !DatasetInfo
iteration_state: {dtset: 1, }
dimensions: {natom: 3, nkpt: 1, mband: 21, nsppol: 1, nspinor: 1, nspden: 1, mpw: 6218, }
cutoff_energies: {ecut:  36.0, pawecutdg:  -1.0, }
electrons: {nelect:   2.40000000E+01, charge:   0.00000000E+00, occopt:   1.00000000E+00, tsmear:   1.00000000E-02, }
meta: {optdriver: 1, rfelfd: 2, }
...

 Real(R)+Recip(G) space primitive vectors, cartesian coordinates (Bohr,Bohr^-1):
 R(1)=  8.2034796  0.0000000  4.7362812  G(1)=  0.1218995 -0.0430980  0.0000000
 R(2)=  2.7344932  7.7343148  4.7362812  G(2)=  0.0000000  0.1292939  0.0000000
 R(3)=  0.0000000  0.0000000  9.4725624  G(3)= -0.0609497 -0.0430980  0.1055681
 Unit cell volume ucvol=  6.0101792E+02 bohr^3
 Angles (23,13,12)=  6.00000000E+01  6.00000000E+01  6.00000000E+01 degrees

 getcut: wavevector=  0.0000  0.0000  0.0000  ngfft=  54  54  54
         ecut(hartree)=     36.000   => boxcut(ratio)=   2.11134

--- Pseudopotential description ------------------------------------------------
- pspini: atom type   1  psp file is /scratch/users/j/a/jabreu/pseudos/PBEsol/Ca.psp8
- pspatm: opening atomic psp file    /scratch/users/j/a/jabreu/pseudos/PBEsol/Ca.psp8
- Ca    ONCVPSP-3.3.0  r_core=   1.45885   1.45885   1.85192
- 20.00000  10.00000    180112                znucl, zion, pspdat
    8 -116133    2    4       400   0.00000   pspcod,pspxc,lmax,lloc,mmax,r2well
    3.99000000000000    6.00000000000000    0.00000000000000   rchrg,fchrg,qchrg
     nproj     2     2     2
     extension_switch     1
  pspatm : epsatm=   12.46045226
         --- l  ekb(1:nproj) -->
             0   10.054847    0.973777
             1    2.998958    0.458102
             2   -3.447298   -1.091650
 pspatm: atomic psp has been read  and splines computed

- pspini: atom type   2  psp file is /scratch/users/j/a/jabreu/pseudos/PBEsol/Si.psp8
- pspatm: opening atomic psp file    /scratch/users/j/a/jabreu/pseudos/PBEsol/Si.psp8
- Si    ONCVPSP-3.3.0  r_core=   1.60303   1.72197   1.91712
- 14.00000   4.00000    180112                znucl, zion, pspdat
    8 -116133    2    4       600   0.00000   pspcod,pspxc,lmax,lloc,mmax,r2well
    5.99000000000000    4.00000000000000    0.00000000000000   rchrg,fchrg,qchrg
     nproj     2     2     2
     extension_switch     1
  pspatm : epsatm=    7.86468782
         --- l  ekb(1:nproj) -->
             0    5.384426    0.843824
             1    2.663259    0.615854
             2   -2.267219   -0.458043
 pspatm: atomic psp has been read  and splines computed

   7.86854216E+02                                ecore*ucvol(ha*bohr**3)

-inwffil : will read wavefunctions from disk file /scratch/users/j/a/jabreu/flow_simple/flow/w151/t1/indata/in_WFK

 ==>  initialize data related to q vector <==

 The list of irreducible perturbations for this q vector is:
    1)    idir= 1    ipert=   4
    2)    idir= 2    ipert=   4
    3)    idir= 3    ipert=   4

 Perturbation wavevector (in red.coord.)   0.000000  0.000000  0.000000
 Perturbation : derivative vs k along direction   1

 dfpt_looppert : COMMENT -
  In a d/dk calculation, iscf is set to -3 automatically.
 The set of symmetries contains only one element for this perturbation.
 symkpt : not enough symmetry to change the number of k points.

[...]

 Initialisation of the first-order wave-functions :
  ireadwf=   0

--- !BeginCycle
iteration_state: {dtset: 1, }
solver: {iscf: 7, nstep: 100, nline: 4, wfoptalg: 0, }
tolerances: {tolwfr: 1.00E-20, }
...

     iter   2DEtotal(Ha)        deltaE(Ha) residm    vres2
-ETOT  1  -18.456264827153     -1.846E+01 1.288E-01 0.000E+00
 ETOT  2  -18.541669637307     -8.540E-02 2.501E-02 0.000E+00
 ETOT  3  -18.549108818845     -7.439E-03 2.804E-03 0.000E+00
 ETOT  4  -18.549920959899     -8.121E-04 1.683E-03 0.000E+00
 ETOT  5  -18.550014161419     -9.320E-05 2.809E-04 0.000E+00
 ETOT  6  -18.550025116485     -1.096E-05 1.921E-04 0.000E+00
 ETOT  7  -18.550026428281     -1.312E-06 3.100E-05 0.000E+00
 ETOT  8  -18.550026587658     -1.594E-07 2.278E-05 0.000E+00
 ETOT  9  -18.550026607266     -1.961E-08 3.539E-06 0.000E+00
 ETOT 10  -18.550026609703     -2.437E-09 2.740E-06 0.000E+00
 ETOT 11  -18.550026610009     -3.055E-10 4.124E-07 0.000E+00
 ETOT 12  -18.550026610047     -3.849E-11 3.329E-07 0.000E+00
 ETOT 13  -18.550026610052     -4.821E-12 4.897E-08 0.000E+00
 ETOT 14  -18.550026610053     -6.999E-13 4.065E-08 0.000E+00
 ETOT 15  -18.550026610053     -6.395E-14 6.105E-09 0.000E+00
 ETOT 16  -18.550026610053      7.105E-15 4.974E-09 0.000E+00
 ETOT 17  -18.550026610053     -2.132E-14 7.649E-10 0.000E+00
 ETOT 18  -18.550026610053      4.619E-14 6.212E-10 0.000E+00
 ETOT 19  -18.550026610053     -4.263E-14 9.618E-11 0.000E+00
 ETOT 20  -18.550026610053      3.197E-14 7.889E-11 0.000E+00
 ETOT 21  -18.550026610053     -9.237E-14 1.213E-11 0.000E+00
 ETOT 22  -18.550026610053      3.197E-14 1.002E-11 0.000E+00
 ETOT 23  -18.550026610053     -3.553E-15 1.533E-12 0.000E+00
 ETOT 24  -18.550026610053     -7.105E-15 1.275E-12 0.000E+00
[...]
  -0.00000    0.00000   -0.00000    0.00000    0.00000    0.00000    0.00000    0.00000
   0.00000    0.00000   -0.00000   -0.00000   -0.00000   -0.00000   -0.00000    0.00000
   0.00000    0.00000    0.00000   -0.00000    0.00000

 Eight components of 2nd-order total energy (hartree) are
 1,2,3: 0th-order hamiltonian combined with 1st-order wavefunctions
     kin0=   2.27194199E+01 eigvalue=   2.76167766E-01  local=  -1.57454999E+01
 4,5,6: 1st-order hamiltonian combined with 1st and 0th-order wfs
     kin1=  -4.05018239E+01  Hartree=   0.00000000E+00     xc=   0.00000000E+00
 7,8,9: eventually, occupation + non-local contributions
    edocc=   1.16647672E+01     enl0=  -3.64828313E-01   enl1=   3.40177064E+00
 1-9 gives the relaxation energy (to be shifted if some occ is /=2.0)
   erelax=  -1.85500266E+01
  No Ewald or frozen-wf contrib.: the relaxation energy is the total one
 2DEtotal=   -0.1855002661E+02 Ha. Also 2DEtotal=   -0.504771894699E+03 eV
    (  non-var. 2DEtotal :   -1.8550026610E+01 Ha)

 Perturbation wavevector (in red.coord.)   0.000000  0.000000  0.000000
 Perturbation : derivative vs k along direction   2
 The set of symmetries contains only one element for this perturbation.
 symkpt : not enough symmetry to change the number of k points.

[...]

 Perturbation wavevector (in red.coord.)   0.000000  0.000000  0.000000
 Perturbation : derivative vs k along direction   3
 The set of symmetries contains only one element for this perturbation.
 symkpt : not enough symmetry to change the number of k points.

-inwffil : will read wavefunctions from disk file /scratch/users/j/a/jabreu/flow_simple/flow/w151/t1/indata/in_WFK

 Initialisation of the first-order wave-functions :
  ireadwf=   0

--- !BeginCycle
iteration_state: {dtset: 1, }
solver: {iscf: 7, nstep: 100, nline: 4, wfoptalg: 0, }
tolerances: {tolwfr: 1.00E-20, }
...

     iter   2DEtotal(Ha)        deltaE(Ha) residm    vres2
-ETOT  1  -18.456271240727     -1.846E+01 1.288E-01 0.000E+00
 ETOT  2  -18.541676072282     -8.540E-02 2.501E-02 0.000E+00
 ETOT  3  -18.549115253896     -7.439E-03 2.804E-03 0.000E+00
 ETOT  4  -18.549927394958     -8.121E-04 1.683E-03 0.000E+00
 ETOT  5  -18.550020596479     -9.320E-05 2.809E-04 0.000E+00
 ETOT  6  -18.550031551545     -1.096E-05 1.921E-04 0.000E+00
 ETOT  7  -18.550032863341     -1.312E-06 3.100E-05 0.000E+00
 ETOT  8  -18.550033022718     -1.594E-07 2.278E-05 0.000E+00
 ETOT  9  -18.550033042326     -1.961E-08 3.539E-06 0.000E+00
 ETOT 10  -18.550033044763     -2.437E-09 2.740E-06 0.000E+00
 ETOT 11  -18.550033045069     -3.054E-10 4.124E-07 0.000E+00
 ETOT 12  -18.550033045107     -3.843E-11 3.329E-07 0.000E+00
 ETOT 13  -18.550033045112     -4.889E-12 4.897E-08 0.000E+00
 ETOT 14  -18.550033045113     -7.319E-13 4.065E-08 0.000E+00
 ETOT 15  -18.550033045113     -3.553E-14 6.105E-09 0.000E+00
 ETOT 16  -18.550033045113     -7.105E-15 4.974E-09 0.000E+00
 ETOT 17  -18.550033045113      2.132E-14 7.649E-10 0.000E+00
 ETOT 18  -18.550033045113     -2.487E-14 6.212E-10 0.000E+00
 ETOT 19  -18.550033045113     -1.776E-14 9.618E-11 0.000E+00
 ETOT 20  -18.550033045113     -4.619E-14 7.889E-11 0.000E+00
 ETOT 21  -18.550033045113      5.329E-14 1.213E-11 0.000E+00
 ETOT 22  -18.550033045113     -1.066E-14 1.002E-11 0.000E+00
 ETOT 23  -18.550033045113      7.105E-15 1.533E-12 0.000E+00
 ETOT 24  -18.550033045113      0.000E+00 1.275E-12 0.000E+00
 ETOT 25  -18.550033045113      3.553E-15 1.941E-13 0.000E+00
 ETOT 26  -18.550033045113     -7.105E-15 1.621E-13 0.000E+00
 ETOT 27  -18.550033045113     -3.553E-15 2.462E-14 0.000E+00
 ETOT 28  -18.550033045113      3.553E-15 2.063E-14 0.000E+00
 ETOT 29  -18.550033045113      0.000E+00 3.125E-15 0.000E+00
 ETOT 30  -18.550033045113      0.000E+00 2.627E-15 0.000E+00
 ETOT 31  -18.550033045113      0.000E+00 3.972E-16 0.000E+00
 ETOT 32  -18.550033045113      1.421E-14 3.345E-16 0.000E+00
 ETOT 33  -18.550033045113     -1.066E-14 5.051E-17 0.000E+00
 ETOT 34  -18.550033045113     -3.553E-15 4.261E-17 0.000E+00
 ETOT 35  -18.550033045113      3.553E-15 6.428E-18 0.000E+00
 ETOT 36  -18.550033045113      7.105E-15 5.428E-18 0.000E+00
 ETOT 37  -18.550033045113     -1.066E-14 8.185E-19 0.000E+00
 ETOT 38  -18.550033045113      7.105E-15 6.916E-19 0.000E+00
 ETOT 39  -18.550033045113      0.000E+00 1.043E-19 0.000E+00
 ETOT 40  -18.550033045113     -3.553E-15 8.814E-20 0.000E+00
 ETOT 41  -18.550033045113     -1.066E-14 1.329E-20 0.000E+00
 ETOT 42  -18.550033045113      1.066E-14 8.481E-21 0.000E+00

 At SCF step   42   max residual=  8.48E-21 < tolwfr=  1.00E-20 =>converged.

 ----iterations are completed or convergence reached----

 dfpt_looppert: DFPT cycle converged with prtwf=-1. Will skip output of the 1st-order WFK file.
 dfpt_looppert : ek2=    3.1677965908E+01
          f-sum rule ratio=    1.2785491599E+00
 prteigrs : about to open file /scratch/users/j/a/jabreu/flow_simple/flow/w151/t1/tmpdata/tmp_1WF1_EIG
 Expectation of eigenvalue derivatives (hartree) for nkpt=   1  k points:
  (in case of degenerate eigenvalues, averaged derivative)
 kpt#   1, nband= 21, wtk=  1.00000, kpt=  0.5000  0.0000  0.5000 (reduced coord)
  -0.00000   -0.00000    0.00000   -0.00000   -0.00000   -0.00000   -0.00000    0.00000
   0.00000    0.00000    0.00000    0.00000   -0.00000   -0.00000    0.00000   -0.00000
  -0.00000    0.00000    0.00000   -0.00000    0.00001

 Eight components of 2nd-order total energy (hartree) are
 1,2,3: 0th-order hamiltonian combined with 1st-order wavefunctions
     kin0=   2.27194132E+01 eigvalue=   2.76168086E-01  local=  -1.57454945E+01
 4,5,6: 1st-order hamiltonian combined with 1st and 0th-order wfs
     kin1=  -4.05018367E+01  Hartree=   0.00000000E+00     xc=   0.00000000E+00
 7,8,9: eventually, occupation + non-local contributions
    edocc=   1.16647753E+01     enl0=  -3.64829004E-01   enl1=   3.40177061E+00
 1-9 gives the relaxation energy (to be shifted if some occ is /=2.0)
   erelax=  -1.85500330E+01
  No Ewald or frozen-wf contrib.: the relaxation energy is the total one
 2DEtotal=   -0.1855003305E+02 Ha. Also 2DEtotal=   -0.504772069806E+03 eV
    (  non-var. 2DEtotal :   -1.8550033045E+01 Ha)

 CALCULATION OF EFFECTIVE MASSES
 NOTE : Additional infos (eff. mass eigenvalues, eigenvectors and, if degenerate, average mass) are available in stdout.

 COMMENTS:
 - At k-point ( 0.500,-0.000, 0.500), bands    11 through    12
   are DEGENERATE (effective mass tensor is therefore not defined).
   See Section IIIB Eqs. (67)-(70) and Appendix E of PRB 93 205147 (2016).
 - Angular average effective mass for Frohlich model is to be averaged over degenerate bands. See later.
 - Associated theta integrals calculated with ntheta=   1000 points.

 K-point ( 0.500,-0.000, 0.500) | band =    11
 Transport equivalent effective mass tensor:
             -0.8656743179              0.8733739380             -1.0696635359
              0.8733739380             -1.4832463357              1.5127354399
             -1.0696635359              1.5127354399             -2.1008276880
 Transport equivalent effective mass tensor eigenvalues:
             -3.9535346099             -0.2481069200             -0.2481068117
 Angular average effective mass 1/(<1/m>)=  -0.3055696807
 Angular average effective mass for Frohlich model (<m**0.5>)**2=  -0.3917664374
 Effective masses along directions: (cart. coord. / red. coord. -> eff. mass)
    1:   1.000000  0.000000  0.000000 /   0.948683  0.316228  0.000000 ->  -0.2301448069
    2:   0.000000  1.000000  0.000000 /   0.000000  1.000000  0.000000 ->  -0.2559939195
    3:   0.000000  0.000000  1.000000 /   0.408248  0.408248  0.816497 ->  -0.5381996059
    4:   0.577350  0.577350  0.577350 /   0.585539  0.688047  0.428644 ->  -0.2027478197
    5:   0.000000  0.707107  0.707107 /   0.289489  0.762222  0.578977 ->  -0.2013148414
    6:   0.707107  0.000000  0.707107 /   0.731423  0.422287  0.535439 ->  -0.5015471063
    7:   0.707107  0.707107  0.000000 /   0.616798  0.787122  0.000000 ->  -0.2733762973

 K-point ( 0.500,-0.000, 0.500) | band =    12
 Transport equivalent effective mass tensor:
           -775.5695604275            593.7310318396           -727.1696558879
            593.7310318396          -1195.4019436231           1028.3720979666
           -727.1696558879           1028.3720979666          -1615.2324587298
 Transport equivalent effective mass tensor eigenvalues:
          -2874.7265283382           -355.7395444203           -355.7378900219
 Angular average effective mass 1/(<1/m>)=  -1.3379830494
 Angular average effective mass for Frohlich model (<m**0.5>)**2=  -2.7922034610
 Effective masses along directions: (cart. coord. / red. coord. -> eff. mass)
    1:   1.000000  0.000000  0.000000 /   0.948683  0.316228  0.000000 ->  -1.9428935289
    2:   0.000000  1.000000  0.000000 /   0.000000  1.000000  0.000000 ->  -8.8007368887
    3:   0.000000  0.000000  1.000000 /   0.408248  0.408248  0.816497 ->  -0.7563691049
    4:   0.577350  0.577350  0.577350 /   0.585539  0.688047  0.428644 ->  -3.5561953674
    5:   0.000000  0.707107  0.707107 /   0.289489  0.762222  0.578977 ->  -1.4496108795
    6:   0.707107  0.000000  0.707107 /   0.731423  0.422287  0.535439 ->  -1.7496790639
    7:   0.707107  0.707107  0.000000 /   0.616798  0.787122  0.000000 ->  -0.5077180243

 Angular average effective mass for Frohlich model, averaged over degenerate bands.
 Value of     (<<m**0.5>>)**2 =     1.318939E+00
 Absolute Value of <<m**0.5>> =     1.148451E+00

 K-point ( 0.500,-0.000, 0.500) | band =    13
 Effective mass tensor:
              0.3512536156             -0.0423048041              0.0518126384
             -0.0423048041              0.3811675118             -0.0732740398
              0.0518126384             -0.0732740398              0.4110816475
 Effective mass tensor eigenvalues:
              0.3213395624              0.3213395625              0.5008236499
 Angular average effective mass 1/(<1/m>)=   0.3649343553
 Angular average effective mass for Frohlich model (<m**0.5>)**2=   0.3693488165
 Effective masses along directions: (cart. coord. / red. coord. -> eff. mass)
    1:   1.000000  0.000000  0.000000 /   0.948683  0.316228  0.000000 ->   0.3417523313
    2:   0.000000  1.000000  0.000000 /   0.000000  1.000000  0.000000 ->   0.3649342892
    3:   0.000000  0.000000  1.000000 /   0.408248  0.408248  0.816497 ->   0.3914903179
    4:   0.577350  0.577350  0.577350 /   0.585539  0.688047  0.428644 ->   0.3328486332
    5:   0.000000  0.707107  0.707107 /   0.289489  0.762222  0.578977 ->   0.3223119728
    6:   0.707107  0.000000  0.707107 /   0.731423  0.422287  0.535439 ->   0.4135187722
    7:   0.707107  0.707107  0.000000 /   0.616798  0.787122  0.000000 ->   0.3229945716

 END OF EFFECTIVE MASSES SECTION

 ---- first-order wavefunction calculations are completed ----

 Total localisation tensor (bohr^2) in cartesian coordinates
  WARNING : still subject to testing - especially symmetries.
      direction              matrix element
   alpha     beta       real part   imaginary part
     1        1       8.2775455008    0.0000000000
     1        2       2.3412436038    0.0000000000
     1        3       5.7348518219    0.0000000000
     2        1       2.3412436038    0.0000000000
     2        2       6.6220369144    0.0000000000
     2        3       4.0551528745    0.0000000000
     3        1       5.7348518219    0.0000000000
     3        2       4.0551528745    0.0000000000
     3        3      14.8995828335    0.0000000000

 respfn : d/dk was computed, but no 2DTE, so no DDB output.

== END DATASET(S) ==============================================================

 -outvars: echo values of variables after computation  --------
            acell      1.0000000000E+00  1.0000000000E+00  1.0000000000E+00 Bohr
              amu      4.00780000E+01  2.80855000E+01
             ecut      3.60000000E+01 Hartree
           etotal     -1.8550033045E+01
            fcart      0.0000000000E+00  0.0000000000E+00  0.0000000000E+00
                       0.0000000000E+00  0.0000000000E+00  0.0000000000E+00
                       0.0000000000E+00  0.0000000000E+00  0.0000000000E+00
-          fftalg         512
           irdden           1
           irdwfk           1
           istwfk        1
              ixc     -116133
              kpt      5.00000000E-01 -3.13151123E-17  5.00000000E-01
           kptopt           0
P           mkmem           1
P          mkqmem           1
P          mk1mem           1
            natom           3
            nband          21
           nbdbuf           4
            ngfft          54      54      54
             nkpt           1
            nstep         100
             nsym          48
           ntypat           2
              occ      2.000000  2.000000  2.000000  2.000000  2.000000  2.000000
                       2.000000  2.000000  2.000000  2.000000  2.000000  2.000000
                       0.000000  0.000000  0.000000  0.000000  0.000000  0.000000
                       0.000000  0.000000  0.000000
        optdriver           1
            prtwf          -1
            rfdir           1       1       1
           rfelfd           2
            rprim      8.2034796431E+00  0.0000000000E+00  4.7362811802E+00
                       2.7344932144E+00  7.7343147799E+00  4.7362811802E+00
                       0.0000000000E+00  0.0000000000E+00  9.4725623604E+00
          spgroup         225
           strten      0.0000000000E+00  0.0000000000E+00  0.0000000000E+00
                       0.0000000000E+00  0.0000000000E+00  0.0000000000E+00
           symrel      1  0  0   0  1  0   0  0  1      -1  0  0   0 -1  0   0  0 -1
                       0 -1  1   0 -1  0   1 -1  0       0  1 -1   0  1  0  -1  1  0
                      -1  0  0  -1  0  1  -1  1  0       1  0  0   1  0 -1   1 -1  0
                       0  1 -1   1  0 -1   0  0 -1       0 -1  1  -1  0  1   0  0  1
                      -1  0  0  -1  1  0  -1  0  1       1  0  0   1 -1  0   1  0 -1
                       0 -1  1   1 -1  0   0 -1  0       0  1 -1  -1  1  0   0  1  0
                       1  0  0   0  0  1   0  1  0      -1  0  0   0  0 -1   0 -1  0
                       0  1 -1   0  0 -1   1  0 -1       0 -1  1   0  0  1  -1  0  1
                      -1  0  1  -1  1  0  -1  0  0       1  0 -1   1 -1  0   1  0  0
                       0 -1  0   1 -1  0   0 -1  1       0  1  0  -1  1  0   0  1 -1
                       1  0 -1   0  0 -1   0  1 -1      -1  0  1   0  0  1   0 -1  1
                       0  1  0   0  0  1   1  0  0       0 -1  0   0  0 -1  -1  0  0
                       1  0 -1   0  1 -1   0  0 -1      -1  0  1   0 -1  1   0  0  1
                       0 -1  0   0 -1  1   1 -1  0       0  1  0   0  1 -1  -1  1  0
                      -1  0  1  -1  0  0  -1  1  0       1  0 -1   1  0  0   1 -1  0
                       0  1  0   1  0  0   0  0  1       0 -1  0  -1  0  0   0  0 -1
                       0  0 -1   0  1 -1   1  0 -1       0  0  1   0 -1  1  -1  0  1
                       1 -1  0   0 -1  1   0 -1  0      -1  1  0   0  1 -1   0  1  0
                       0  0  1   1  0  0   0  1  0       0  0 -1  -1  0  0   0 -1  0
                      -1  1  0  -1  0  0  -1  0  1       1 -1  0   1  0  0   1  0 -1
                       0  0  1   0  1  0   1  0  0       0  0 -1   0 -1  0  -1  0  0
                       1 -1  0   0 -1  0   0 -1  1      -1  1  0   0  1  0   0  1 -1
                       0  0 -1   1  0 -1   0  1 -1       0  0  1  -1  0  1   0 -1  1
                      -1  1  0  -1  0  1  -1  0  0       1 -1  0   1  0 -1   1  0  0
           tolwfr      1.00000000E-20
            typat      1  1  2
           useylm           1
           xangst      1.4470314861E+00  1.0232057764E+00  2.5063320540E+00
                       4.3410944583E+00  3.0696173292E+00  7.5189961621E+00
                       0.0000000000E+00  0.0000000000E+00  0.0000000000E+00
            xcart      2.7344932144E+00  1.9335786950E+00  4.7362811802E+00
                       8.2034796431E+00  5.8007360849E+00  1.4208843541E+01
                       0.0000000000E+00  0.0000000000E+00  0.0000000000E+00
             xred      2.5000000000E-01  2.5000000000E-01  2.5000000000E-01
                       7.5000000000E-01  7.5000000000E-01  7.5000000000E-01
                       0.0000000000E+00  0.0000000000E+00  0.0000000000E+00
            znucl       20.00000   14.00000

- Timing analysis has been suppressed with timopt=0

 Suggested references for the acknowledgment of ABINIT usage.

 Calculation completed.
.Delivered   6 WARNINGs and   5 COMMENTs to log file.