.Version 9.5.1 of ABINIT

 ABINIT is a project of the Universite Catholique de Louvain,
 Corning Inc. and other collaborators, see ~abinit/doc/developers/contributors.txt .
 acknowledgments of the ABINIT effort.

.Starting date : Wed  5 May 2021.
- ( at 19h58 )

- input  file    -> /scratch/users/j/a/jabreu/flow_simple_7atoms/flow/w160/t1/run.abi
- output file    -> /scratch/users/j/a/jabreu/flow_simple_7atoms/flow/w160/t1/run.abo
- root for input  files -> /scratch/users/j/a/jabreu/flow_simple_7atoms/flow/w160/t1/indata/in
- root for output files -> /scratch/users/j/a/jabreu/flow_simple_7atoms/flow/w160/t1/outdata/out

 Symmetries : space group I4/m m m (#139); Bravais tI (body-center tetrag.)
     intxc =       0      iscf =       7    lmnmax =      18     lnmax =       6
     mgfft =     100  mpssoang =       3    mqgrid =    3001     natom =       7
  nloc_mem =       1    nspden =       1   nspinor =       1    nsppol =       1
      nsym =      16    n1xccc =    2501    ntypat =       3    occopt =       1
   xclevel =       2
-    mband =          47        mffmem =           1         mkmem =           2
-   mkqmem =           2        mk1mem =           2           mpw =       16345
      nfft =     1000000          nkpt =           2
  Rough estimation (10% accuracy) of disk space for files :

------------- Echo of variables that govern the present computation ------------
-
- outvars: echo of selected default values
-   iomode0 =  0 , fftalg0 =512 , wfoptalg0 =  0
-
- outvars: echo of global parameters not present in the input file
-  max_nthreads =    0
-
 -outvars: echo values of preprocessed input variables --------
            acell      1.0000000000E+00  1.0000000000E+00  1.0000000000E+00 Bohr
              amu      4.00780000E+01  1.21753000E+02  1.59994000E+01
             ecut      4.40000000E+01 Hartree
-          fftalg         512
           irdden           1
           irdwfk           1
           istwfk        1    0
              ixc     -116133
              kpt      0.00000000E+00  0.00000000E+00  0.00000000E+00
                       5.00000000E-01  5.00000000E-01 -5.00000000E-01
           kptopt           0
P           mkmem           2
P          mkqmem           2
P          mk1mem           2
            natom           7
            nband          47
           nbdbuf           4
            ngfft         100     100     100
             nkpt           2
            nstep        2000
             nsym          16
           ntypat           3
              occ      2.000000  2.000000  2.000000  2.000000  2.000000  2.000000
                       2.000000  2.000000  2.000000  2.000000  2.000000  2.000000
                       2.000000  2.000000  2.000000  2.000000  2.000000  2.000000
                       2.000000  2.000000  2.000000  2.000000  2.000000  2.000000
                       2.000000  2.000000  2.000000  2.000000  2.000000  2.000000
                       2.000000  2.000000  2.000000  2.000000  2.000000  2.000000
                       2.000000  2.000000  0.000000  0.000000  0.000000  0.000000
                       0.000000  0.000000  0.000000  0.000000  0.000000
        optdriver           1
            prtwf          -1
            rfdir           1       1       1
           rfelfd           2
            rprim      8.4482408581E+00  0.0000000000E+00 -1.4104571372E+01
                      -6.4624595240E-01  8.4234873874E+00 -1.4104571372E+01
                       0.0000000000E+00  0.0000000000E+00  1.6441158936E+01
          spgroup         139
           symrel      1  0  0   0  1  0   0  0  1      -1  0  0   0 -1  0   0  0 -1
                      -1 -1 -1   0  0  1   0  1  0       1  1  1   0  0 -1   0 -1  0
                       0  1  0   1  0  0  -1 -1 -1       0 -1  0  -1  0  0   1  1  1
                       0  0  1  -1 -1 -1   1  0  0       0  0 -1   1  1  1  -1  0  0
                       0  1  0   1  0  0   0  0  1       0 -1  0  -1  0  0   0  0 -1
                      -1 -1 -1   0  0  1   1  0  0       1  1  1   0  0 -1  -1  0  0
                       1  0  0   0  1  0  -1 -1 -1      -1  0  0   0 -1  0   1  1  1
                       0  0  1  -1 -1 -1   0  1  0       0  0 -1   1  1  1   0 -1  0
           tolwfr      1.00000000E-20
            typat      1  1  1  1  2  2  3
           useylm           1
              wtk        0.50000    0.50000
           xangst      2.7448877405E+00  2.9635404203E+00 -9.9245040560E+00
                       1.3837501451E+00  1.4939771219E+00 -5.0031313576E+00
                       2.2353082574E+00  0.0000000000E+00  6.1823444258E-01
                      -1.7098931458E-01  2.2287587711E+00  6.1823444258E-01
                       3.5528621747E+00  3.8358766033E+00 -1.2845842306E+01
                       5.7577571089E-01  6.2164093893E-01 -2.0817931071E+00
                       2.0643189428E+00  2.2287587711E+00 -7.4638177068E+00
            xcart      5.1870860951E+00  5.6002797781E+00 -1.8754594671E+01
                       2.6149088106E+00  2.8232076093E+00 -9.4545480727E+00
                       4.2241204290E+00  0.0000000000E+00  1.1682937824E+00
                      -3.2312297620E-01  4.2117436937E+00  1.1682937824E+00
                       6.7139364981E+00  7.2487562598E+00 -2.4275123905E+01
                       1.0880584076E+00  1.1747311276E+00 -3.9340188378E+00
                       3.9009974528E+00  4.2117436937E+00 -1.4104571372E+01
             xred      6.6484100000E-01  6.6484100000E-01  0.0000000000E+00
                       3.3515900000E-01  3.3515900000E-01  5.5511151231E-17
                       5.0000000000E-01  0.0000000000E+00  5.0000000000E-01
                       0.0000000000E+00  5.0000000000E-01  5.0000000000E-01
                       8.6054100000E-01  8.6054100000E-01 -1.1102230246E-16
                       1.3945900000E-01  1.3945900000E-01 -2.7755575616E-17
                       5.0000000000E-01  5.0000000000E-01 -5.5511151231E-17
            znucl       20.00000   51.00000    8.00000

 chkinp: Checking input parameters for consistency.

== DATASET  1 ==================================================================
-   mpi_nproc: 1, omp_nthreads: -1 (-1 if OMP is not activated)

--- !DatasetInfo
iteration_state: {dtset: 1, }
dimensions: {natom: 7, nkpt: 2, mband: 47, nsppol: 1, nspinor: 1, nspden: 1, mpw: 16345, }
cutoff_energies: {ecut:  44.0, pawecutdg:  -1.0, }
electrons: {nelect:   7.60000000E+01, charge:   0.00000000E+00, occopt:   1.00000000E+00, tsmear:   1.00000000E-02, }
meta: {optdriver: 1, rfelfd: 2, }
...

 Real(R)+Recip(G) space primitive vectors, cartesian coordinates (Bohr,Bohr^-1):
 R(1)=  8.4482409  0.0000000-14.1045714  G(1)=  0.1183678  0.0090811  0.0000000
 R(2)= -0.6462460  8.4234874-14.1045714  G(2)=  0.0000000  0.1187157  0.0000000
 R(3)=  0.0000000  0.0000000 16.4411589  G(3)=  0.1015456  0.1096346  0.0608230
 Unit cell volume ucvol=  1.1700129E+03 bohr^3
 Angles (23,13,12)=  1.49079579E+02  1.49079579E+02  4.42941826E+01 degrees

 getcut: wavevector=  0.0000  0.0000  0.0000  ngfft= 100 100 100
         ecut(hartree)=     44.000   => boxcut(ratio)=   2.03697

--- Pseudopotential description ------------------------------------------------
- pspini: atom type   1  psp file is /scratch/users/j/a/jabreu/pseudos/PBEsol/Ca.psp8
- pspatm: opening atomic psp file    /scratch/users/j/a/jabreu/pseudos/PBEsol/Ca.psp8
- Ca    ONCVPSP-3.3.0  r_core=   1.45885   1.45885   1.85192
- 20.00000  10.00000    180112                znucl, zion, pspdat
    8 -116133    2    4       400   0.00000   pspcod,pspxc,lmax,lloc,mmax,r2well
    3.99000000000000    6.00000000000000    0.00000000000000   rchrg,fchrg,qchrg
     nproj     2     2     2
     extension_switch     1
  pspatm : epsatm=   12.46045226
         --- l  ekb(1:nproj) -->
             0   10.054847    0.973777
             1    2.998958    0.458102
             2   -3.447298   -1.091650
 pspatm: atomic psp has been read  and splines computed

- pspini: atom type   2  psp file is /scratch/users/j/a/jabreu/pseudos/PBEsol/Sb.psp8
- pspatm: opening atomic psp file    /scratch/users/j/a/jabreu/pseudos/PBEsol/Sb.psp8
- Sb    ONCVPSP-3.3.0  r_core=   1.81962   2.12485   1.81962
- 51.00000  15.00000    180112                znucl, zion, pspdat
    8 -116133    2    4       600   0.00000   pspcod,pspxc,lmax,lloc,mmax,r2well
    5.99000000000000    5.00000000000000    0.00000000000000   rchrg,fchrg,qchrg
     nproj     2     2     2
     extension_switch     1
  pspatm : epsatm=   26.35641246
         --- l  ekb(1:nproj) -->
             0    9.727814    1.485032
             1    5.505335    0.704623
             2   -4.710637   -1.436443
 pspatm: atomic psp has been read  and splines computed

- pspini: atom type   3  psp file is /scratch/users/j/a/jabreu/pseudos/PBEsol/O.psp8
- pspatm: opening atomic psp file    /scratch/users/j/a/jabreu/pseudos/PBEsol/O.psp8
- O     ONCVPSP-3.3.0  r_core=   1.35509   1.45563   1.26150
-  8.00000   6.00000    180112                znucl, zion, pspdat
    8 -116133    2    4       600   0.00000   pspcod,pspxc,lmax,lloc,mmax,r2well
    5.99000000000000    4.00000000000000    0.00000000000000   rchrg,fchrg,qchrg
     nproj     2     2     1
     extension_switch     1
  pspatm : epsatm=    6.22910522
         --- l  ekb(1:nproj) -->
             0    6.050032    0.820363
             1   -4.739617   -1.153841
             2   -1.335834
 pspatm: atomic psp has been read  and splines computed

   8.26756418E+03                                ecore*ucvol(ha*bohr**3)

-inwffil : will read wavefunctions from disk file /scratch/users/j/a/jabreu/flow_simple_7atoms/flow/w160/t1/indata/in_WFK

 ==>  initialize data related to q vector <==

 The list of irreducible perturbations for this q vector is:
    1)    idir= 1    ipert=   8
    2)    idir= 2    ipert=   8
    3)    idir= 3    ipert=   8

 Perturbation wavevector (in red.coord.)   0.000000  0.000000  0.000000
 Perturbation : derivative vs k along direction   1

 dfpt_looppert : COMMENT -
  In a d/dk calculation, iscf is set to -3 automatically.
 The set of symmetries contains only one element for this perturbation.
 symkpt : not enough symmetry to change the number of k points.

[...]

 Initialisation of the first-order wave-functions :
  ireadwf=   0

--- !BeginCycle
iteration_state: {dtset: 1, }
solver: {iscf: 7, nstep: 2000, nline: 4, wfoptalg: 0, }
tolerances: {tolwfr: 1.00E-20, }
...

     iter   2DEtotal(Ha)        deltaE(Ha) residm    vres2
-ETOT  1  -74.253670793703     -7.425E+01 2.059E-01 0.000E+00
 ETOT  2  -74.871478772900     -6.178E-01 7.130E-02 0.000E+00
 ETOT  3  -74.922954503674     -5.148E-02 1.170E-02 0.000E+00
 ETOT  4  -74.928976502545     -6.022E-03 7.677E-03 0.000E+00
 ETOT  5  -74.929810986761     -8.345E-04 2.627E-03 0.000E+00
 ETOT  6  -74.929936643925     -1.257E-04 2.332E-03 0.000E+00
 ETOT  7  -74.929956376307     -1.973E-05 1.016E-03 0.000E+00
 ETOT  8  -74.929959534249     -3.158E-06 9.516E-04 0.000E+00
 ETOT  9  -74.929960068440     -5.342E-07 4.333E-04 0.000E+00
 ETOT 10  -74.929960159892     -9.145E-08 4.134E-04 0.000E+00
[...]
 ETOT 15  -140.51751118559     -2.055E-11 1.165E-05 0.000E+00
 ETOT 16  -140.51751118559     -3.553E-12 6.084E-06 0.000E+00
 ETOT 17  -140.51751118559     -1.165E-12 4.094E-06 0.000E+00
 ETOT 18  -140.51751118559     -1.137E-13 2.131E-06 0.000E+00
 ETOT 19  -140.51751118559     -5.684E-14 1.440E-06 0.000E+00
 ETOT 20  -140.51751118559      3.979E-13 7.484E-07 0.000E+00
 ETOT 21  -140.51751118559     -1.705E-13 5.063E-07 0.000E+00
 ETOT 22  -140.51751118559      5.684E-14 2.634E-07 0.000E+00
 ETOT 23  -140.51751118559     -1.137E-13 1.780E-07 0.000E+00
 ETOT 24  -140.51751118559      2.842E-14 9.283E-08 0.000E+00
 ETOT 25  -140.51751118559     -8.527E-14 6.255E-08 0.000E+00
 ETOT 26  -140.51751118559      0.000E+00 3.274E-08 0.000E+00
 ETOT 27  -140.51751118559     -1.137E-13 2.198E-08 0.000E+00
 ETOT 28  -140.51751118559      5.684E-14 1.155E-08 0.000E+00
 ETOT 29  -140.51751118559     -2.842E-14 7.720E-09 0.000E+00
 ETOT 30  -140.51751118559      8.527E-14 4.076E-09 0.000E+00
 ETOT 31  -140.51751118559     -5.684E-14 2.711E-09 0.000E+00
 ETOT 32  -140.51751118559      5.684E-14 1.439E-09 0.000E+00
 ETOT 33  -140.51751118559     -1.137E-13 9.522E-10 0.000E+00
 ETOT 34  -140.51751118559      5.684E-14 5.078E-10 0.000E+00
 ETOT 35  -140.51751118559     -5.684E-14 3.344E-10 0.000E+00
 ETOT 36  -140.51751118559      0.000E+00 1.792E-10 0.000E+00
 ETOT 37  -140.51751118559      0.000E+00 1.175E-10 0.000E+00
 ETOT 38  -140.51751118559      5.684E-14 6.325E-11 0.000E+00
 ETOT 39  -140.51751118559      2.842E-14 4.126E-11 0.000E+00
 ETOT 40  -140.51751118559     -8.527E-14 2.232E-11 0.000E+00
 ETOT 41  -140.51751118559      2.842E-14 1.450E-11 0.000E+00
 ETOT 42  -140.51751118559     -2.842E-14 7.875E-12 0.000E+00
 ETOT 43  -140.51751118559      2.842E-14 5.093E-12 0.000E+00
 ETOT 44  -140.51751118559     -5.684E-14 2.778E-12 0.000E+00
 ETOT 45  -140.51751118559      2.842E-14 1.790E-12 0.000E+00
 ETOT 46  -140.51751118559      2.842E-14 9.802E-13 0.000E+00
 ETOT 47  -140.51751118559     -2.842E-14 6.291E-13 0.000E+00
 ETOT 48  -140.51751118559      0.000E+00 3.457E-13 0.000E+00
 ETOT 49  -140.51751118559      2.842E-14 2.212E-13 0.000E+00
 ETOT 50  -140.51751118559     -2.842E-14 1.219E-13 0.000E+00
 ETOT 51  -140.51751118559      2.842E-14 7.776E-14 0.000E+00
 ETOT 52  -140.51751118559      0.000E+00 4.300E-14 0.000E+00
 ETOT 53  -140.51751118559      2.842E-14 2.734E-14 0.000E+00
 ETOT 54  -140.51751118559     -5.684E-14 1.516E-14 0.000E+00
 ETOT 55  -140.51751118559      5.684E-14 9.616E-15 0.000E+00
 ETOT 56  -140.51751118559      2.842E-14 5.347E-15 0.000E+00
 ETOT 57  -140.51751118559      2.842E-14 3.382E-15 0.000E+00
 ETOT 58  -140.51751118559      0.000E+00 1.885E-15 0.000E+00
 ETOT 59  -140.51751118559     -5.684E-14 1.190E-15 0.000E+00
 ETOT 60  -140.51751118559      5.684E-14 6.645E-16 0.000E+00
 ETOT 61  -140.51751118559     -8.527E-14 4.186E-16 0.000E+00
[...]
 ETOT 68  -140.51751118559      0.000E+00 1.025E-17 0.000E+00
 ETOT 69  -140.51751118559      0.000E+00 6.421E-18 0.000E+00
 ETOT 70  -140.51751118559      0.000E+00 3.614E-18 0.000E+00
 ETOT 71  -140.51751118559      0.000E+00 2.260E-18 0.000E+00
 ETOT 72  -140.51751118559      0.000E+00 1.273E-18 0.000E+00
 ETOT 73  -140.51751118559      0.000E+00 7.957E-19 0.000E+00
 ETOT 74  -140.51751118559      0.000E+00 4.487E-19 0.000E+00
 ETOT 75  -140.51751118559      0.000E+00 2.801E-19 0.000E+00
 ETOT 76  -140.51751118559     -2.842E-14 1.581E-19 0.000E+00
 ETOT 77  -140.51751118559      0.000E+00 9.864E-20 0.000E+00
 ETOT 78  -140.51751118559     -2.842E-14 5.570E-20 0.000E+00
 ETOT 79  -140.51751118559      5.684E-14 3.473E-20 0.000E+00
 ETOT 80  -140.51751118559     -2.842E-14 1.962E-20 0.000E+00
 ETOT 81  -140.51751118559      2.842E-14 1.223E-20 0.000E+00
 ETOT 82  -140.51751118559      5.684E-14 9.985E-21 0.000E+00

 At SCF step   82   max residual=  9.98E-21 < tolwfr=  1.00E-20 =>converged.

 ----iterations are completed or convergence reached----

 dfpt_looppert: DFPT cycle converged with prtwf=-1. Will skip output of the 1st-order WFK file.
 dfpt_looppert : ek2=    1.5620280772E+02
          f-sum rule ratio=    1.3868279170E+00
 prteigrs : about to open file /scratch/users/j/a/jabreu/flow_simple_7atoms/flow/w160/t1/tmpdata/tmp_1WF1_EIG
 Expectation of eigenvalue derivatives (hartree) for nkpt=   2  k points:
  (in case of degenerate eigenvalues, averaged derivative)
 kpt#   1, nband= 47, wtk=  0.50000, kpt=  0.0000  0.0000  0.0000 (reduced coord)
   0.00000    0.00000    0.00000   -0.00000   -0.00000   -0.00000   -0.00000    0.00000
   0.00000    0.00000    0.00000    0.00000   -0.00000   -0.00000   -0.00000    0.00000
  -0.00000   -0.00000   -0.00000   -0.00000   -0.00000   -0.00000    0.00000   -0.00000
  -0.00000   -0.00000   -0.00000    0.00000    0.00000    0.00000   -0.00000   -0.00000
  -0.00000    0.00000    0.00000    0.00000   -0.00000   -0.00000    0.00000   -0.00000
  -0.00000    0.00000    0.00000    0.00000   -0.00000    0.00005    0.00001
 prteigrs : prtvol=0 or 1, do not print more k-points.

 Eight components of 2nd-order total energy (hartree) are
 1,2,3: 0th-order hamiltonian combined with 1st-order wavefunctions
     kin0=   2.16550490E+02 eigvalue=   9.86355788E+00  local=  -1.37366653E+02
 4,5,6: 1st-order hamiltonian combined with 1st and 0th-order wfs
     kin1=  -2.16626414E+02  Hartree=   0.00000000E+00     xc=   0.00000000E+00
 7,8,9: eventually, occupation + non-local contributions
    edocc=   4.36181421E+01     enl0=   7.85197506E+00   enl1=  -6.44086079E+01
 1-9 gives the relaxation energy (to be shifted if some occ is /=2.0)
   erelax=  -1.40517511E+02
  No Ewald or frozen-wf contrib.: the relaxation energy is the total one
 2DEtotal=   -0.1405175112E+03 Ha. Also 2DEtotal=   -0.382367593592E+04 eV
    (  non-var. 2DEtotal :   -1.4051751118E+02 Ha)

 CALCULATION OF EFFECTIVE MASSES
 NOTE : Additional infos (eff. mass eigenvalues, eigenvectors and, if degenerate, average mass) are available in stdout.

 COMMENTS:
 - At k-point ( 0.000, 0.000, 0.000), bands    37 through    38
   are DEGENERATE (effective mass tensor is therefore not defined).
   See Section IIIB Eqs. (67)-(70) and Appendix E of PRB 93 205147 (2016).
 - Angular average effective mass for Frohlich model is to be averaged over degenerate bands. See later.
 - Associated theta integrals calculated with ntheta=   1000 points.

 K-point ( 0.000, 0.000, 0.000) | band =    37
 Transport equivalent effective mass tensor:
             -0.1727464846             -0.0508683999              0.1704041037
             -0.0508683999             -0.1805493203              0.1839739362
              0.1704041037              0.1839739362             -0.7417077056
 Transport equivalent effective mass tensor eigenvalues:
             -0.8437741060             -0.1256301098             -0.1255992947
 Angular average effective mass 1/(<1/m>)=  -0.1644783828
 Angular average effective mass for Frohlich model (<m**0.5>)**2=  -0.1913875748
 Effective masses along directions: (cart. coord. / red. coord. -> eff. mass)
    1:   1.000000  0.000000  0.000000 /   0.997087 -0.076272  0.000000 ->  -0.1108662334
    2:   0.000000  1.000000  0.000000 /   0.000000  1.000000  0.000000 ->  -0.1115122522
    3:   0.000000  0.000000  1.000000 /  -0.545645 -0.545645  0.636037 ->  -0.4720699923
    4:   0.577350  0.577350  0.577350 /  -0.305707 -0.341972  0.888593 ->  -0.1486090497
    5:   0.000000  0.707107  0.707107 /  -0.629816 -0.253679  0.734152 ->  -0.1314693235
    6:   0.707107  0.000000  0.707107 /  -0.248072 -0.646933  0.721067 ->  -0.1313809536
    7:   0.707107  0.707107  0.000000 /   0.735720  0.677286  0.000000 ->  -0.1606520220

 K-point ( 0.000, 0.000, 0.000) | band =    38
 Transport equivalent effective mass tensor:
             -0.6021049849             -0.0683277966              0.2289378304
             -0.0683277966             -0.6125736442              0.2471447080
              0.2289378304              0.2471447080             -1.3664299746
 Transport equivalent effective mass tensor eigenvalues:
             -1.5035512077             -0.5388113241             -0.5387460718
 Angular average effective mass 1/(<1/m>)=  -0.4249101000
 Angular average effective mass for Frohlich model (<m**0.5>)**2=  -0.4605017827
 Effective masses along directions: (cart. coord. / red. coord. -> eff. mass)
    1:   1.000000  0.000000  0.000000 /   0.997087 -0.076272  0.000000 ->  -0.5719720459
    2:   0.000000  1.000000  0.000000 /   0.000000  1.000000  0.000000 ->  -0.5861780384
    3:   0.000000  0.000000  1.000000 /  -0.545645 -0.545645  0.636037 ->  -0.5748252607
    4:   0.577350  0.577350  0.577350 /  -0.305707 -0.341972  0.888593 ->  -0.2402419992
    5:   0.000000  0.707107  0.707107 /  -0.629816 -0.253679  0.734152 ->  -0.5279509071
    6:   0.707107  0.000000  0.707107 /  -0.248072 -0.646933  0.721067 ->  -0.5644728550
    7:   0.707107  0.707107  0.000000 /   0.735720  0.677286  0.000000 ->  -0.2577920176

 Angular average effective mass for Frohlich model, averaged over degenerate bands.
 Value of     (<<m**0.5>>)**2 =     3.114095E-01
 Absolute Value of <<m**0.5>> =     5.580407E-01

 K-point ( 0.500, 0.500,-0.500) | band =    39
 Effective mass tensor:
              0.2026332878              0.0642275764             -0.2150896406
              0.0642275764              0.2124883061             -0.2322232835
             -0.2150896406             -0.2322232835              0.9208294752
 Effective mass tensor eigenvalues:
              0.1431444795              0.1431444798              1.0496621098
 Angular average effective mass 1/(<1/m>)=   0.2010106137
 Angular average effective mass for Frohlich model (<m**0.5>)**2=   0.2357248881
 Effective masses along directions: (cart. coord. / red. coord. -> eff. mass)
    1:   1.000000  0.000000  0.000000 /   0.997087 -0.076272  0.000000 ->   0.1517444838
    2:   0.000000  1.000000  0.000000 /   0.000000  1.000000  0.000000 ->   0.1532699523
    3:   0.000000  0.000000  1.000000 /  -0.545645 -0.545645  0.636037 ->   0.5524484545
    4:   0.577350  0.577350  0.577350 /  -0.305707 -0.341972  0.888593 ->   0.1498218796
    5:   0.000000  0.707107  0.707107 /  -0.629816 -0.253679  0.734152 ->   0.1750447528
    6:   0.707107  0.000000  0.707107 /  -0.248072 -0.646933  0.721067 ->   0.1775698160
    7:   0.707107  0.707107  0.000000 /   0.735720  0.677286  0.000000 ->   0.1631382895

 END OF EFFECTIVE MASSES SECTION

 ---- first-order wavefunction calculations are completed ----

 Total localisation tensor (bohr^2) in cartesian coordinates
  WARNING : still subject to testing - especially symmetries.
      direction              matrix element
   alpha     beta       real part   imaginary part
     1        1       3.8638741296    0.0000000000
     1        2      -0.2929864147    0.0000000000
     1        3      -5.9227309362    0.0000000000
     2        1      -0.2929864147    0.0000000000
     2        2       3.8189289388    0.0000000000
     2        3      -6.3945434121    0.0000000000
     3        1      -5.9227309362    0.0000000000
     3        2      -6.3945434121    0.0000000000
     3        3      49.6205502947    0.0000000000

 respfn : d/dk was computed, but no 2DTE, so no DDB output.

== END DATASET(S) ==============================================================

 -outvars: echo values of variables after computation  --------
            acell      1.0000000000E+00  1.0000000000E+00  1.0000000000E+00 Bohr
              amu      4.00780000E+01  1.21753000E+02  1.59994000E+01
             ecut      4.40000000E+01 Hartree
           etotal     -1.4051751119E+02
            fcart      0.0000000000E+00  0.0000000000E+00  0.0000000000E+00
                       0.0000000000E+00  0.0000000000E+00  0.0000000000E+00
                       0.0000000000E+00  0.0000000000E+00  0.0000000000E+00
                       0.0000000000E+00  0.0000000000E+00  0.0000000000E+00
                       0.0000000000E+00  0.0000000000E+00  0.0000000000E+00
                       0.0000000000E+00  0.0000000000E+00  0.0000000000E+00
                       0.0000000000E+00  0.0000000000E+00  0.0000000000E+00
-          fftalg         512
           irdden           1
           irdwfk           1
           istwfk        1    0
              ixc     -116133
              kpt      0.00000000E+00  0.00000000E+00  0.00000000E+00
                       5.00000000E-01  5.00000000E-01 -5.00000000E-01
           kptopt           0
P           mkmem           2
P          mkqmem           2
P          mk1mem           2
            natom           7
            nband          47
           nbdbuf           4
            ngfft         100     100     100
             nkpt           2
            nstep        2000
             nsym          16
           ntypat           3
              occ      2.000000  2.000000  2.000000  2.000000  2.000000  2.000000
                       2.000000  2.000000  2.000000  2.000000  2.000000  2.000000
                       2.000000  2.000000  2.000000  2.000000  2.000000  2.000000
                       2.000000  2.000000  2.000000  2.000000  2.000000  2.000000
                       2.000000  2.000000  2.000000  2.000000  2.000000  2.000000
                       2.000000  2.000000  2.000000  2.000000  2.000000  2.000000
                       2.000000  2.000000  0.000000  0.000000  0.000000  0.000000
                       0.000000  0.000000  0.000000  0.000000  0.000000
        optdriver           1
            prtwf          -1
            rfdir           1       1       1
           rfelfd           2
            rprim      8.4482408581E+00  0.0000000000E+00 -1.4104571372E+01
                      -6.4624595240E-01  8.4234873874E+00 -1.4104571372E+01
                       0.0000000000E+00  0.0000000000E+00  1.6441158936E+01
          spgroup         139
           strten      0.0000000000E+00  0.0000000000E+00  0.0000000000E+00
                       0.0000000000E+00  0.0000000000E+00  0.0000000000E+00
           symrel      1  0  0   0  1  0   0  0  1      -1  0  0   0 -1  0   0  0 -1
                      -1 -1 -1   0  0  1   0  1  0       1  1  1   0  0 -1   0 -1  0
                       0  1  0   1  0  0  -1 -1 -1       0 -1  0  -1  0  0   1  1  1
                       0  0  1  -1 -1 -1   1  0  0       0  0 -1   1  1  1  -1  0  0
                       0  1  0   1  0  0   0  0  1       0 -1  0  -1  0  0   0  0 -1
                      -1 -1 -1   0  0  1   1  0  0       1  1  1   0  0 -1  -1  0  0
                       1  0  0   0  1  0  -1 -1 -1      -1  0  0   0 -1  0   1  1  1
                       0  0  1  -1 -1 -1   0  1  0       0  0 -1   1  1  1   0 -1  0
           tolwfr      1.00000000E-20
            typat      1  1  1  1  2  2  3
           useylm           1
              wtk        0.50000    0.50000
           xangst      2.7448877405E+00  2.9635404203E+00 -9.9245040560E+00
                       1.3837501451E+00  1.4939771219E+00 -5.0031313576E+00
                       2.2353082574E+00  0.0000000000E+00  6.1823444258E-01
                      -1.7098931458E-01  2.2287587711E+00  6.1823444258E-01
                       3.5528621747E+00  3.8358766033E+00 -1.2845842306E+01
                       5.7577571089E-01  6.2164093893E-01 -2.0817931071E+00
                       2.0643189428E+00  2.2287587711E+00 -7.4638177068E+00
            xcart      5.1870860951E+00  5.6002797781E+00 -1.8754594671E+01
                       2.6149088106E+00  2.8232076093E+00 -9.4545480727E+00
                       4.2241204290E+00  0.0000000000E+00  1.1682937824E+00
                      -3.2312297620E-01  4.2117436937E+00  1.1682937824E+00
                       6.7139364981E+00  7.2487562598E+00 -2.4275123905E+01
                       1.0880584076E+00  1.1747311276E+00 -3.9340188378E+00
                       3.9009974528E+00  4.2117436937E+00 -1.4104571372E+01
             xred      6.6484100000E-01  6.6484100000E-01  0.0000000000E+00
                       3.3515900000E-01  3.3515900000E-01  5.5511151231E-17
                       5.0000000000E-01  0.0000000000E+00  5.0000000000E-01
                       0.0000000000E+00  5.0000000000E-01  5.0000000000E-01
                       8.6054100000E-01  8.6054100000E-01 -1.1102230246E-16
                       1.3945900000E-01  1.3945900000E-01 -2.7755575616E-17
                       5.0000000000E-01  5.0000000000E-01 -5.5511151231E-17
            znucl       20.00000   51.00000    8.00000

- Timing analysis has been suppressed with timopt=0

 Suggested references for the acknowledgment of ABINIT usage.

 Calculation completed.
.Delivered  14 WARNINGs and   9 COMMENTs to log file.