.Version 9.5.1 of ABINIT

 ABINIT is a project of the Universite Catholique de Louvain,
 Corning Inc. and other collaborators, see ~abinit/doc/developers/contributors.txt .
 acknowledgments of the ABINIT effort.

.Starting date : Tue 11 May 2021.
- ( at 22h00 )

- input  file    -> /scratch/users/j/a/jabreu/flow_simple_8atoms/flow/w379/t1/run.abi
- output file    -> /scratch/users/j/a/jabreu/flow_simple_8atoms/flow/w379/t1/run.abo
- root for input  files -> /scratch/users/j/a/jabreu/flow_simple_8atoms/flow/w379/t1/indata/in
- root for output files -> /scratch/users/j/a/jabreu/flow_simple_8atoms/flow/w379/t1/outdata/out

 Symmetries : space group R-3 m (#166); Bravais hR (rhombohedral)
     intxc =       0      iscf =       7    lmnmax =      18     lnmax =       6
     mgfft =      54  mpssoang =       3    mqgrid =    3001     natom =       8
  nloc_mem =       1    nspden =       1   nspinor =       1    nsppol =       1
      nsym =      12    n1xccc =    2501    ntypat =       3    occopt =       1
   xclevel =       2
-    mband =          42        mffmem =           1         mkmem =           1
-   mkqmem =           1        mk1mem =           1           mpw =        9679
      nfft =      157464          nkpt =           1
  Rough estimation (10% accuracy) of disk space for files :

------------- Echo of variables that govern the present computation ------------
-
- outvars: echo of selected default values
-   iomode0 =  0 , fftalg0 =512 , wfoptalg0 =  0
-
- outvars: echo of global parameters not present in the input file
-  max_nthreads =    0
-
 -outvars: echo values of preprocessed input variables --------
            acell      1.0000000000E+00  1.0000000000E+00  1.0000000000E+00 Bohr
              amu      1.37327000E+02  7.26100000E+01  1.89984032E+01
             ecut      4.20000000E+01 Hartree
-          fftalg         512
           irdden           1
           irdwfk           1
           istwfk        1
              ixc     -116133
           kptopt           0
P           mkmem           1
P          mkqmem           1
P          mk1mem           1
            natom           8
            nband          42
           nbdbuf           4
            ngfft          54      54      54
             nkpt           1
            nstep        2000
             nsym          12
           ntypat           3
              occ      2.000000  2.000000  2.000000  2.000000  2.000000  2.000000
                       2.000000  2.000000  2.000000  2.000000  2.000000  2.000000
                       2.000000  2.000000  2.000000  2.000000  2.000000  2.000000
                       2.000000  2.000000  2.000000  2.000000  2.000000  2.000000
                       2.000000  2.000000  2.000000  2.000000  2.000000  2.000000
                       2.000000  2.000000  2.000000  0.000000  0.000000  0.000000
                       0.000000  0.000000  0.000000  0.000000  0.000000  0.000000
        optdriver           1
            prtwf          -1
            rfdir           1       1       1
           rfelfd           2
            rprim      9.0720326447E+00  0.0000000000E+00 -1.3364027219E+00
                      -1.5476907811E+00  8.9390396326E+00 -1.3364027219E+00
                       0.0000000000E+00  0.0000000000E+00  9.1699372158E+00
          spgroup         166
           symrel      1  0  0   0  1  0   0  0  1      -1  0  0   0 -1  0   0  0 -1
                       0  1  0   1  0  0   0  0  1       0 -1  0  -1  0  0   0  0 -1
                       0  0  1   1  0  0   0  1  0       0  0 -1  -1  0  0   0 -1  0
                       1  0  0   0  0  1   0  1  0      -1  0  0   0  0 -1   0 -1  0
                       0  1  0   0  0  1   1  0  0       0 -1  0   0  0 -1  -1  0  0
                       0  0  1   0  1  0   1  0  0       0  0 -1   0 -1  0  -1  0  0
           tolwfr      1.00000000E-20
            typat      1  2  3  3  3  3  3  3
           useylm           1
           xangst      1.9908551119E+00  2.3651680201E+00  1.7190670275E+00
                       0.0000000000E+00  0.0000000000E+00  0.0000000000E+00
                       4.2247081793E+00  1.2654926098E+00  4.5436819297E-01
                       1.0652149911E+00  1.2654926098E+00  4.1133838476E+00
                       2.9164952328E+00  3.4648434304E+00 -6.7524979265E-01
                      -2.4299795542E-01  3.4648434304E+00  2.9837658620E+00
                       3.4555054714E+00  3.5166737224E-01  2.9837658620E+00
                       5.2620475246E-01  4.3786686680E+00  4.5436819297E-01
            xcart      3.7621709318E+00  4.4695198163E+00  3.2485658860E+00
                       0.0000000000E+00  0.0000000000E+00  0.0000000000E+00
                       7.9835414502E+00  2.3914344558E+00  8.5863144820E-01
                       2.0129646057E+00  2.3914344558E+00  7.7731689514E+00
                       5.5113772579E+00  6.5476051768E+00 -1.2760371794E+00
                      -4.5919958660E-01  6.5476051768E+00  5.6385003238E+00
                       6.5299589916E+00  6.6455502341E-01  5.6385003238E+00
                       9.9438287198E-01  8.2744846092E+00  8.5863144820E-01
             xred      5.0000000000E-01  5.0000000000E-01  5.0000000000E-01
                       0.0000000000E+00  0.0000000000E+00  0.0000000000E+00
                       9.2565700000E-01  2.6752700000E-01  2.6752700000E-01
                       2.6752700000E-01  2.6752700000E-01  9.2565700000E-01
                       7.3247300000E-01  7.3247300000E-01  7.4343000000E-02
                       7.4343000000E-02  7.3247300000E-01  7.3247300000E-01
                       7.3247300000E-01  7.4343000000E-02  7.3247300000E-01
                       2.6752700000E-01  9.2565700000E-01  2.6752700000E-01
            znucl       56.00000   32.00000    9.00000

 chkinp: Checking input parameters for consistency.

== DATASET  1 ==================================================================
-   mpi_nproc: 1, omp_nthreads: -1 (-1 if OMP is not activated)

--- !DatasetInfo
iteration_state: {dtset: 1, }
dimensions: {natom: 8, nkpt: 1, mband: 42, nsppol: 1, nspinor: 1, nspden: 1, mpw: 9679, }
cutoff_energies: {ecut:  42.0, pawecutdg:  -1.0, }
electrons: {nelect:   6.60000000E+01, charge:   0.00000000E+00, occopt:   1.00000000E+00, tsmear:   1.00000000E-02, }
meta: {optdriver: 1, rfelfd: 2, }
...

 Real(R)+Recip(G) space primitive vectors, cartesian coordinates (Bohr,Bohr^-1):
 R(1)=  9.0720326  0.0000000 -1.3364027  G(1)=  0.1102289  0.0190848  0.0000000
 R(2)= -1.5476908  8.9390396 -1.3364027  G(2)=  0.0000000  0.1118688  0.0000000
 R(3)=  0.0000000  0.0000000  9.1699372  G(3)=  0.0160645  0.0190848  0.1090520
 Unit cell volume ucvol=  7.4363844E+02 bohr^3
 Angles (23,13,12)=  9.83799822E+01  9.83799822E+01  9.83799822E+01 degrees

 getcut: wavevector=  0.0000  0.0000  0.0000  ngfft=  54  54  54
         ecut(hartree)=     42.000   => boxcut(ratio)=   2.01856

--- Pseudopotential description ------------------------------------------------
- pspini: atom type   1  psp file is /scratch/users/j/a/jabreu/pseudos/PBEsol/Ba.psp8
- pspatm: opening atomic psp file    /scratch/users/j/a/jabreu/pseudos/PBEsol/Ba.psp8
- Ba    ONCVPSP-3.3.0  r_core=   2.15444   1.91218   2.15444
- 56.00000  10.00000    180112                znucl, zion, pspdat
    8 -116133    2    4       600   0.00000   pspcod,pspxc,lmax,lloc,mmax,r2well
    5.99000000000000    5.00000000000000    0.00000000000000   rchrg,fchrg,qchrg
     nproj     2     2     2
     extension_switch     1
  pspatm : epsatm=   26.37418029
         --- l  ekb(1:nproj) -->
             0    6.652372    0.677024
             1    5.027722    0.408462
             2    2.543237    0.416854
 pspatm: atomic psp has been read  and splines computed

- pspini: atom type   2  psp file is /scratch/users/j/a/jabreu/pseudos/PBEsol/Ge.psp8
- pspatm: opening atomic psp file    /scratch/users/j/a/jabreu/pseudos/PBEsol/Ge.psp8
- Ge    ONCVPSP-3.3.0  r_core=   1.91022   1.82122   1.91022
- 32.00000  14.00000    180112                znucl, zion, pspdat
    8 -116133    2    4       600   0.00000   pspcod,pspxc,lmax,lloc,mmax,r2well
    5.99000000000000    5.00000000000000    0.00000000000000   rchrg,fchrg,qchrg
     nproj     2     2     2
     extension_switch     1
  pspatm : epsatm=   30.86751540
         --- l  ekb(1:nproj) -->
             0    6.339734    0.583066
             1    3.813259    0.738801
             2   -9.332373   -3.602819
 pspatm: atomic psp has been read  and splines computed

- pspini: atom type   3  psp file is /scratch/users/j/a/jabreu/pseudos/PBEsol/F.psp8
- pspatm: opening atomic psp file    /scratch/users/j/a/jabreu/pseudos/PBEsol/F.psp8
- F     ONCVPSP-3.3.0  r_core=   1.30942   1.45782   1.60379
-  9.00000   7.00000    180112                znucl, zion, pspdat
    8 -116133    2    4       600   0.00000   pspcod,pspxc,lmax,lloc,mmax,r2well
    5.99000000000000    2.50000000000000    0.00000000000000   rchrg,fchrg,qchrg
     nproj     2     2     1
     extension_switch     1
  pspatm : epsatm=    4.89824824
         --- l  ekb(1:nproj) -->
             0    6.506434    1.065875
             1   -3.978753   -1.295852
             2   -2.394754
 pspatm: atomic psp has been read  and splines computed

   5.71765822E+03                                ecore*ucvol(ha*bohr**3)

-inwffil : will read wavefunctions from disk file /scratch/users/j/a/jabreu/flow_simple_8atoms/flow/w379/t1/indata/in_WFK

 ==>  initialize data related to q vector <==

 The list of irreducible perturbations for this q vector is:
    1)    idir= 1    ipert=   9
    2)    idir= 2    ipert=   9
    3)    idir= 3    ipert=   9

 Perturbation wavevector (in red.coord.)   0.000000  0.000000  0.000000
 Perturbation : derivative vs k along direction   1

 dfpt_looppert : COMMENT -
  In a d/dk calculation, iscf is set to -3 automatically.
 The set of symmetries contains only one element for this perturbation.
 symkpt : not enough symmetry to change the number of k points.

[...]

 Initialisation of the first-order wave-functions :
  ireadwf=   0

--- !BeginCycle
iteration_state: {dtset: 1, }
solver: {iscf: 7, nstep: 2000, nline: 4, wfoptalg: 0, }
tolerances: {tolwfr: 1.00E-20, }
...

     iter   2DEtotal(Ha)        deltaE(Ha) residm    vres2
-ETOT  1  -45.742232652771     -4.574E+01 5.060E-02 0.000E+00
 ETOT  2  -45.780261217545     -3.803E-02 6.505E-04 0.000E+00
 ETOT  3  -45.780350161219     -8.894E-05 5.694E-05 0.000E+00
 ETOT  4  -45.780350740618     -5.794E-07 1.571E-06 0.000E+00
 ETOT  5  -45.780350745669     -5.051E-09 1.968E-07 0.000E+00
 ETOT  6  -45.780350745720     -5.085E-11 1.029E-08 0.000E+00
 ETOT  7  -45.780350745721     -5.898E-13 1.764E-09 0.000E+00
 ETOT  8  -45.780350745721     -7.105E-15 1.015E-10 0.000E+00
 ETOT  9  -45.780350745721      1.421E-14 1.742E-11 0.000E+00
 ETOT 10  -45.780350745721     -1.421E-14 1.035E-12 0.000E+00
 ETOT 11  -45.780350745721     -2.842E-14 1.765E-13 0.000E+00
 ETOT 12  -45.780350745721      0.000E+00 1.073E-14 0.000E+00
 ETOT 13  -45.780350745721      0.000E+00 1.816E-15 0.000E+00
 ETOT 14  -45.780350745721      0.000E+00 1.122E-16 0.000E+00
 ETOT 15  -45.780350745721      0.000E+00 1.888E-17 0.000E+00
 ETOT 16  -45.780350745721      0.000E+00 1.178E-18 0.000E+00
 ETOT 17  -45.780350745721      0.000E+00 1.975E-19 0.000E+00
 ETOT 18  -45.780350745721      0.000E+00 1.242E-20 0.000E+00
 ETOT 19  -45.780350745721      7.105E-15 9.996E-21 0.000E+00

 At SCF step   19   max residual=  1.00E-20 < tolwfr=  1.00E-20 =>converged.

 ----iterations are completed or convergence reached----

 dfpt_looppert: DFPT cycle converged with prtwf=-1. Will skip output of the 1st-order WFK file.
 dfpt_looppert : ek2=    6.5215667287E+01
          f-sum rule ratio=    1.0087224315E+00
 prteigrs : about to open file /scratch/users/j/a/jabreu/flow_simple_8atoms/flow/w379/t1/tmpdata/tmp_1WF1_EIG
 Expectation of eigenvalue derivatives (hartree) for nkpt=   1  k points:
  (in case of degenerate eigenvalues, averaged derivative)
 kpt#   1, nband= 42, wtk=  1.00000, kpt=  0.0000  0.0000  0.0000 (reduced coord)
  -0.00000   -0.00000   -0.00000   -0.00000   -0.00000   -0.00000   -0.00000    0.00000
  -0.00000   -0.00000   -0.00000   -0.00000   -0.00000   -0.00000   -0.00000   -0.00000
   0.00000   -0.00000   -0.00000   -0.00000   -0.00000    0.00000   -0.00000   -0.00000
  -0.00000    0.00000    0.00000    0.00000    0.00000    0.00000   -0.00000   -0.00000
   0.00000    0.00000   -0.00000   -0.00000    0.00000   -0.00000   -0.00000   -0.00000
  -0.00000   -0.00000

 Eight components of 2nd-order total energy (hartree) are
 1,2,3: 0th-order hamiltonian combined with 1st-order wavefunctions
     kin0=   5.39038225E+01 eigvalue=   3.48009827E+00  local=  -2.00830769E+01
 4,5,6: 1st-order hamiltonian combined with 1st and 0th-order wfs
     kin1=  -6.57845065E+01  Hartree=   0.00000000E+00     xc=   0.00000000E+00
 7,8,9: eventually, occupation + non-local contributions
    edocc=   7.11319335E+00     enl0=   1.36631343E+00   enl1=  -2.57761950E+01
 1-9 gives the relaxation energy (to be shifted if some occ is /=2.0)
   erelax=  -4.57803507E+01
  No Ewald or frozen-wf contrib.: the relaxation energy is the total one
 2DEtotal=   -0.4578035075E+02 Ha. Also 2DEtotal=   -0.124574669739E+04 eV
    (  non-var. 2DEtotal :   -4.5780350745E+01 Ha)

 Perturbation wavevector (in red.coord.)   0.000000  0.000000  0.000000
 Perturbation : derivative vs k along direction   2
 The set of symmetries contains only one element for this perturbation.
 symkpt : not enough symmetry to change the number of k points.

[...]

 Perturbation wavevector (in red.coord.)   0.000000  0.000000  0.000000
 Perturbation : derivative vs k along direction   3
 The set of symmetries contains only one element for this perturbation.
 symkpt : not enough symmetry to change the number of k points.

-inwffil : will read wavefunctions from disk file /scratch/users/j/a/jabreu/flow_simple_8atoms/flow/w379/t1/indata/in_WFK

 Initialisation of the first-order wave-functions :
  ireadwf=   0

--- !BeginCycle
iteration_state: {dtset: 1, }
solver: {iscf: 7, nstep: 2000, nline: 4, wfoptalg: 0, }
tolerances: {tolwfr: 1.00E-20, }
...

     iter   2DEtotal(Ha)        deltaE(Ha) residm    vres2
-ETOT  1  -45.742692352558     -4.574E+01 5.059E-02 0.000E+00
 ETOT  2  -45.780262044875     -3.757E-02 1.236E-03 0.000E+00
 ETOT  3  -45.780348442104     -8.640E-05 5.849E-05 0.000E+00
 ETOT  4  -45.780349004222     -5.621E-07 3.287E-06 0.000E+00
 ETOT  5  -45.780349009116     -4.894E-09 2.156E-07 0.000E+00
 ETOT  6  -45.780349009166     -4.949E-11 2.682E-08 0.000E+00
 ETOT  7  -45.780349009166     -5.116E-13 2.068E-09 0.000E+00
 ETOT  8  -45.780349009166      1.421E-14 2.952E-10 0.000E+00
 ETOT  9  -45.780349009166     -1.421E-14 2.407E-11 0.000E+00
 ETOT 10  -45.780349009166     -1.421E-14 3.415E-12 0.000E+00
 ETOT 11  -45.780349009166      0.000E+00 2.875E-13 0.000E+00
 ETOT 12  -45.780349009166     -7.105E-15 4.067E-14 0.000E+00
 ETOT 13  -45.780349009166      1.421E-14 3.507E-15 0.000E+00
 ETOT 14  -45.780349009166     -7.105E-15 4.935E-16 0.000E+00
 ETOT 15  -45.780349009166      2.132E-14 4.330E-17 0.000E+00
 ETOT 16  -45.780349009166     -7.105E-15 6.058E-18 0.000E+00
 ETOT 17  -45.780349009166      0.000E+00 5.378E-19 0.000E+00
 ETOT 18  -45.780349009166     -1.421E-14 7.492E-20 0.000E+00
 ETOT 19  -45.780349009166      0.000E+00 9.975E-21 0.000E+00

 At SCF step   19   max residual=  9.97E-21 < tolwfr=  1.00E-20 =>converged.

 ----iterations are completed or convergence reached----

 dfpt_looppert: DFPT cycle converged with prtwf=-1. Will skip output of the 1st-order WFK file.
 dfpt_looppert : ek2=    6.5215667287E+01
          f-sum rule ratio=    1.0087222233E+00
 prteigrs : about to open file /scratch/users/j/a/jabreu/flow_simple_8atoms/flow/w379/t1/tmpdata/tmp_1WF1_EIG
 Expectation of eigenvalue derivatives (hartree) for nkpt=   1  k points:
  (in case of degenerate eigenvalues, averaged derivative)
 kpt#   1, nband= 42, wtk=  1.00000, kpt=  0.0000  0.0000  0.0000 (reduced coord)
   0.00000    0.00000    0.00000   -0.00000   -0.00000   -0.00000    0.00000   -0.00000
  -0.00000   -0.00000    0.00000    0.00000    0.00000    0.00000   -0.00000    0.00000
   0.00000   -0.00000   -0.00000   -0.00000   -0.00000   -0.00000   -0.00000   -0.00000
  -0.00000    0.00000    0.00000   -0.00000   -0.00000   -0.00000    0.00000    0.00000
   0.00000    0.00000    0.00000    0.00000    0.00000    0.00000    0.00000   -0.00000
  -0.00000    0.00000

 Eight components of 2nd-order total energy (hartree) are
 1,2,3: 0th-order hamiltonian combined with 1st-order wavefunctions
     kin0=   5.39038370E+01 eigvalue=   3.48007992E+00  local=  -2.00831124E+01
 4,5,6: 1st-order hamiltonian combined with 1st and 0th-order wfs
     kin1=  -6.57844929E+01  Hartree=   0.00000000E+00     xc=   0.00000000E+00
 7,8,9: eventually, occupation + non-local contributions
    edocc=   7.11317630E+00     enl0=   1.36636817E+00   enl1=  -2.57762051E+01
 1-9 gives the relaxation energy (to be shifted if some occ is /=2.0)
   erelax=  -4.57803490E+01
  No Ewald or frozen-wf contrib.: the relaxation energy is the total one
 2DEtotal=   -0.4578034901E+02 Ha. Also 2DEtotal=   -0.124574665013E+04 eV
    (  non-var. 2DEtotal :   -4.5780349009E+01 Ha)

 CALCULATION OF EFFECTIVE MASSES
 NOTE : Additional infos (eff. mass eigenvalues, eigenvectors and, if degenerate, average mass) are available in stdout.

 K-point ( 0.000, 0.000, 0.000) | band =    33
 Effective mass tensor:
             -4.5015344429             -2.5268137881             -1.8365010139
             -2.5268137881             -5.3766066790             -2.1818547356
             -1.8365010139             -2.1818547356             -3.9605307082
 Effective mass tensor eigenvalues:
             -9.0892927242             -2.3747258700             -2.3746532360
 Angular average effective mass 1/(<1/m>)=  -3.1504830938
 Angular average effective mass for Frohlich model (<m**0.5>)**2=  -3.4387399950
 Effective masses along directions: (cart. coord. / red. coord. -> eff. mass)
    1:   1.000000  0.000000  0.000000 /   0.985758 -0.168171  0.000000 ->  -3.1000810140
    2:   0.000000  1.000000  0.000000 /   0.000000  1.000000  0.000000 ->  -3.5457144957
    3:   0.000000  0.000000  1.000000 /  -0.142737 -0.142737  0.979414 ->  -2.8766043539
    4:   0.577350  0.577350  0.577350 /   0.575637  0.450571  0.682369 ->  -8.6765785435
    5:   0.000000  0.707107  0.707107 /  -0.111493  0.634272  0.765028 ->  -4.6784410089
    6:   0.707107  0.000000  0.707107 /   0.626936 -0.233742  0.743180 ->  -3.9996929603
    7:   0.707107  0.707107  0.000000 /   0.775263  0.631638  0.000000 ->  -5.3986627853

 K-point ( 0.000, 0.000, 0.000) | band =    34
 Effective mass tensor:
              0.6018839390              0.0182561867              0.0132697949
              0.0182561867              0.6082035675              0.0157665885
              0.0132697949              0.0157665885              0.5979727793
 Effective mass tensor eigenvalues:
              0.5865125106              0.5865167862              0.6350309890
 Angular average effective mass 1/(<1/m>)=   0.6018415377
 Angular average effective mass for Frohlich model (<m**0.5>)**2=   0.6020914437
 Effective masses along directions: (cart. coord. / red. coord. -> eff. mass)
    1:   1.000000  0.000000  0.000000 /   0.985758 -0.168171  0.000000 ->   0.6010619194
    2:   0.000000  1.000000  0.000000 /   0.000000  1.000000  0.000000 ->   0.6072548731
    3:   0.000000  0.000000  1.000000 /  -0.142737 -0.142737  0.979414 ->   0.5972917461
    4:   0.577350  0.577350  0.577350 /   0.575637  0.450571  0.682369 ->   0.6341488793
    5:   0.000000  0.707107  0.707107 /  -0.111493  0.634272  0.765028 ->   0.6179868055
    6:   0.707107  0.000000  0.707107 /   0.626936 -0.233742  0.743180 ->   0.6122404778
    7:   0.707107  0.707107  0.000000 /   0.775263  0.631638  0.000000 ->   0.6225785962

 END OF EFFECTIVE MASSES SECTION

 ---- first-order wavefunction calculations are completed ----

 Total localisation tensor (bohr^2) in cartesian coordinates
  WARNING : still subject to testing - especially symmetries.
      direction              matrix element
   alpha     beta       real part   imaginary part
     1        1       0.5349769758    0.0000000000
     1        2      -0.0873859284    0.0000000000
     1        3      -0.0635144147    0.0000000000
     2        1      -0.0873859284    0.0000000000
     2        2       0.5047172777    0.0000000000
     2        3      -0.0754561532    0.0000000000
     3        1      -0.0635144147    0.0000000000
     3        2      -0.0754561532    0.0000000000
     3        3       0.5536892911    0.0000000000

 respfn : d/dk was computed, but no 2DTE, so no DDB output.

== END DATASET(S) ==============================================================

 -outvars: echo values of variables after computation  --------
            acell      1.0000000000E+00  1.0000000000E+00  1.0000000000E+00 Bohr
              amu      1.37327000E+02  7.26100000E+01  1.89984032E+01
             ecut      4.20000000E+01 Hartree
           etotal     -4.5780349009E+01
            fcart      0.0000000000E+00  0.0000000000E+00  0.0000000000E+00
                       0.0000000000E+00  0.0000000000E+00  0.0000000000E+00
                       0.0000000000E+00  0.0000000000E+00  0.0000000000E+00
                       0.0000000000E+00  0.0000000000E+00  0.0000000000E+00
                       0.0000000000E+00  0.0000000000E+00  0.0000000000E+00
                       0.0000000000E+00  0.0000000000E+00  0.0000000000E+00
                       0.0000000000E+00  0.0000000000E+00  0.0000000000E+00
                       0.0000000000E+00  0.0000000000E+00  0.0000000000E+00
-          fftalg         512
           irdden           1
           irdwfk           1
           istwfk        1
              ixc     -116133
           kptopt           0
P           mkmem           1
P          mkqmem           1
P          mk1mem           1
            natom           8
            nband          42
           nbdbuf           4
            ngfft          54      54      54
             nkpt           1
            nstep        2000
             nsym          12
           ntypat           3
              occ      2.000000  2.000000  2.000000  2.000000  2.000000  2.000000
                       2.000000  2.000000  2.000000  2.000000  2.000000  2.000000
                       2.000000  2.000000  2.000000  2.000000  2.000000  2.000000
                       2.000000  2.000000  2.000000  2.000000  2.000000  2.000000
                       2.000000  2.000000  2.000000  2.000000  2.000000  2.000000
                       2.000000  2.000000  2.000000  0.000000  0.000000  0.000000
                       0.000000  0.000000  0.000000  0.000000  0.000000  0.000000
        optdriver           1
            prtwf          -1
            rfdir           1       1       1
           rfelfd           2
            rprim      9.0720326447E+00  0.0000000000E+00 -1.3364027219E+00
                      -1.5476907811E+00  8.9390396326E+00 -1.3364027219E+00
                       0.0000000000E+00  0.0000000000E+00  9.1699372158E+00
          spgroup         166
           strten      0.0000000000E+00  0.0000000000E+00  0.0000000000E+00
                       0.0000000000E+00  0.0000000000E+00  0.0000000000E+00
           symrel      1  0  0   0  1  0   0  0  1      -1  0  0   0 -1  0   0  0 -1
                       0  1  0   1  0  0   0  0  1       0 -1  0  -1  0  0   0  0 -1
                       0  0  1   1  0  0   0  1  0       0  0 -1  -1  0  0   0 -1  0
                       1  0  0   0  0  1   0  1  0      -1  0  0   0  0 -1   0 -1  0
                       0  1  0   0  0  1   1  0  0       0 -1  0   0  0 -1  -1  0  0
                       0  0  1   0  1  0   1  0  0       0  0 -1   0 -1  0  -1  0  0
           tolwfr      1.00000000E-20
            typat      1  2  3  3  3  3  3  3
           useylm           1
           xangst      1.9908551119E+00  2.3651680201E+00  1.7190670275E+00
                       0.0000000000E+00  0.0000000000E+00  0.0000000000E+00
                       4.2247081793E+00  1.2654926098E+00  4.5436819297E-01
                       1.0652149911E+00  1.2654926098E+00  4.1133838476E+00
                       2.9164952328E+00  3.4648434304E+00 -6.7524979265E-01
                      -2.4299795542E-01  3.4648434304E+00  2.9837658620E+00
                       3.4555054714E+00  3.5166737224E-01  2.9837658620E+00
                       5.2620475246E-01  4.3786686680E+00  4.5436819297E-01
            xcart      3.7621709318E+00  4.4695198163E+00  3.2485658860E+00
                       0.0000000000E+00  0.0000000000E+00  0.0000000000E+00
                       7.9835414502E+00  2.3914344558E+00  8.5863144820E-01
                       2.0129646057E+00  2.3914344558E+00  7.7731689514E+00
                       5.5113772579E+00  6.5476051768E+00 -1.2760371794E+00
                      -4.5919958660E-01  6.5476051768E+00  5.6385003238E+00
                       6.5299589916E+00  6.6455502341E-01  5.6385003238E+00
                       9.9438287198E-01  8.2744846092E+00  8.5863144820E-01
             xred      5.0000000000E-01  5.0000000000E-01  5.0000000000E-01
                       0.0000000000E+00  0.0000000000E+00  0.0000000000E+00
                       9.2565700000E-01  2.6752700000E-01  2.6752700000E-01
                       2.6752700000E-01  2.6752700000E-01  9.2565700000E-01
                       7.3247300000E-01  7.3247300000E-01  7.4343000000E-02
                       7.4343000000E-02  7.3247300000E-01  7.3247300000E-01
                       7.3247300000E-01  7.4343000000E-02  7.3247300000E-01
                       2.6752700000E-01  9.2565700000E-01  2.6752700000E-01
            znucl       56.00000   32.00000    9.00000

- Timing analysis has been suppressed with timopt=0

 Suggested references for the acknowledgment of ABINIT usage.

 Calculation completed.
.Delivered   6 WARNINGs and   5 COMMENTs to log file.