.Version 9.5.1 of ABINIT

 ABINIT is a project of the Universite Catholique de Louvain,
 Corning Inc. and other collaborators, see ~abinit/doc/developers/contributors.txt .
 acknowledgments of the ABINIT effort.

.Starting date : Sun 25 Apr 2021.
- ( at 17h26 )

- input  file    -> /scratch/users/j/a/jabreu/flow_simple2/flow/w236/t1/run.abi
- output file    -> /scratch/users/j/a/jabreu/flow_simple2/flow/w236/t1/run.abo
- root for input  files -> /scratch/users/j/a/jabreu/flow_simple2/flow/w236/t1/indata/in
- root for output files -> /scratch/users/j/a/jabreu/flow_simple2/flow/w236/t1/outdata/out

 Symmetries : space group F-4 3 m (#216); Bravais cF (face-center cubic)
     intxc =       0      iscf =       7    lmnmax =      18     lnmax =       6
     mgfft =      36  mpssoang =       3    mqgrid =    3001     natom =       2
  nloc_mem =       1    nspden =       1   nspinor =       1    nsppol =       1
      nsym =      24    n1xccc =    2501    ntypat =       2    occopt =       1
   xclevel =       2
-    mband =          13        mffmem =           1         mkmem =           2
-   mkqmem =           2        mk1mem =           2           mpw =        1807
      nfft =       46656          nkpt =           2
  Rough estimation (10% accuracy) of disk space for files :

------------- Echo of variables that govern the present computation ------------
-
- outvars: echo of selected default values
-   iomode0 =  0 , fftalg0 =512 , wfoptalg0 =  0
-
- outvars: echo of global parameters not present in the input file
-  max_nthreads =    0
-
 -outvars: echo values of preprocessed input variables --------
            acell      1.0000000000E+00  1.0000000000E+00  1.0000000000E+00 Bohr
              amu      1.08110000E+01  3.09737620E+01
             ecut      3.80000000E+01 Hartree
-          fftalg         512
           irdden           1
           irdwfk           1
           istwfk        1    0
              ixc     -116133
              kpt      0.00000000E+00  0.00000000E+00  0.00000000E+00
                       4.10714286E-01  1.23259516E-32  4.10714286E-01
           kptopt           0
P           mkmem           2
P          mkqmem           2
P          mk1mem           2
            natom           2
            nband          13
           nbdbuf           4
            ngfft          36      36      36
             nkpt           2
            nstep         100
             nsym          24
           ntypat           2
              occ      2.000000  2.000000  2.000000  2.000000  0.000000  0.000000
                       0.000000  0.000000  0.000000  0.000000  0.000000  0.000000
                       0.000000
        optdriver           1
            prtwf          -1
            rfdir           1       1       1
           rfelfd           2
            rprim      5.2316857128E+00  0.0000000000E+00  3.0205151546E+00
                       1.7438952376E+00  4.9324805927E+00  3.0205151546E+00
                       0.0000000000E+00  0.0000000000E+00  6.0410303092E+00
          spgroup         216
           symrel      1  0  0   0  1  0   0  0  1       0 -1  1   0 -1  0   1 -1  0
                      -1  0  0  -1  0  1  -1  1  0       0  1 -1   1  0 -1   0  0 -1
                      -1  0  0  -1  1  0  -1  0  1       0 -1  1   1 -1  0   0 -1  0
                       1  0  0   0  0  1   0  1  0       0  1 -1   0  0 -1   1  0 -1
                      -1  0  1  -1  1  0  -1  0  0       0 -1  0   1 -1  0   0 -1  1
                       1  0 -1   0  0 -1   0  1 -1       0  1  0   0  0  1   1  0  0
                       1  0 -1   0  1 -1   0  0 -1       0 -1  0   0 -1  1   1 -1  0
                      -1  0  1  -1  0  0  -1  1  0       0  1  0   1  0  0   0  0  1
                       0  0 -1   0  1 -1   1  0 -1       1 -1  0   0 -1  1   0 -1  0
                       0  0  1   1  0  0   0  1  0      -1  1  0  -1  0  0  -1  0  1
                       0  0  1   0  1  0   1  0  0       1 -1  0   0 -1  0   0 -1  1
                       0  0 -1   1  0 -1   0  1 -1      -1  1  0  -1  0  1  -1  0  0
           tolwfr      1.00000000E-20
            typat      1  2
           useylm           1
              wtk        0.50000    0.50000
           xangst      0.0000000000E+00  0.0000000000E+00  0.0000000000E+00
                       9.2282961391E-01  6.5253907787E-01  1.5983877780E+00
            xcart      0.0000000000E+00  0.0000000000E+00  0.0000000000E+00
                       1.7438952376E+00  1.2331201482E+00  3.0205151546E+00
             xred      0.0000000000E+00  0.0000000000E+00  0.0000000000E+00
                       2.5000000000E-01  2.5000000000E-01  2.5000000000E-01
            znucl        5.00000   15.00000

 chkinp: Checking input parameters for consistency.

== DATASET  1 ==================================================================
-   mpi_nproc: 1, omp_nthreads: -1 (-1 if OMP is not activated)

--- !DatasetInfo
iteration_state: {dtset: 1, }
dimensions: {natom: 2, nkpt: 2, mband: 13, nsppol: 1, nspinor: 1, nspden: 1, mpw: 1807, }
cutoff_energies: {ecut:  38.0, pawecutdg:  -1.0, }
electrons: {nelect:   8.00000000E+00, charge:   0.00000000E+00, occopt:   1.00000000E+00, tsmear:   1.00000000E-02, }
meta: {optdriver: 1, rfelfd: 2, }
...

 Real(R)+Recip(G) space primitive vectors, cartesian coordinates (Bohr,Bohr^-1):
 R(1)=  5.2316857  0.0000000  3.0205152  G(1)=  0.1911430 -0.0675792  0.0000000
 R(2)=  1.7438952  4.9324806  3.0205152  G(2)=  0.0000000  0.2027377  0.0000000
 R(3)=  0.0000000  0.0000000  6.0410303  G(3)= -0.0955715 -0.0675792  0.1655347
 Unit cell volume ucvol=  1.5588992E+02 bohr^3
 Angles (23,13,12)=  6.00000000E+01  6.00000000E+01  6.00000000E+01 degrees

 getcut: wavevector=  0.0000  0.0000  0.0000  ngfft=  36  36  36
         ecut(hartree)=     38.000   => boxcut(ratio)=   2.14751

--- Pseudopotential description ------------------------------------------------
- pspini: atom type   1  psp file is /scratch/users/j/a/jabreu/pseudos/PBEsol/B.psp8
- pspatm: opening atomic psp file    /scratch/users/j/a/jabreu/pseudos/PBEsol/B.psp8
- B     ONCVPSP-3.3.0  r_core=   1.20849   1.20849
-  5.00000   3.00000    180112                znucl, zion, pspdat
    8 -116133    1    4       600   0.00000   pspcod,pspxc,lmax,lloc,mmax,r2well
    5.99000000000000    2.90000000000000    0.00000000000000   rchrg,fchrg,qchrg
     nproj     2     2
     extension_switch     1
  pspatm : epsatm=    3.20154566
         --- l  ekb(1:nproj) -->
             0    8.466603    1.247630
             1   -3.609180   -0.822621
 pspatm: atomic psp has been read  and splines computed

- pspini: atom type   2  psp file is /scratch/users/j/a/jabreu/pseudos/PBEsol/P.psp8
- pspatm: opening atomic psp file    /scratch/users/j/a/jabreu/pseudos/PBEsol/P.psp8
- P     ONCVPSP-3.3.0  r_core=   1.46089   1.55067   1.70594
- 15.00000   5.00000    180112                znucl, zion, pspdat
    8 -116133    2    4       600   0.00000   pspcod,pspxc,lmax,lloc,mmax,r2well
    5.99000000000000    5.00000000000000    0.00000000000000   rchrg,fchrg,qchrg
     nproj     2     2     2
     extension_switch     1
  pspatm : epsatm=    7.31221086
         --- l  ekb(1:nproj) -->
             0    6.742364    1.063650
             1    3.449117    0.910422
             2   -3.077645   -0.799176
 pspatm: atomic psp has been read  and splines computed

   8.41100522E+01                                ecore*ucvol(ha*bohr**3)

-inwffil : will read wavefunctions from disk file /scratch/users/j/a/jabreu/flow_simple2/flow/w236/t1/indata/in_WFK

 ==>  initialize data related to q vector <==

 The list of irreducible perturbations for this q vector is:
    1)    idir= 1    ipert=   3
    2)    idir= 2    ipert=   3
    3)    idir= 3    ipert=   3

 Perturbation wavevector (in red.coord.)   0.000000  0.000000  0.000000
 Perturbation : derivative vs k along direction   1

 dfpt_looppert : COMMENT -
  In a d/dk calculation, iscf is set to -3 automatically.
 The set of symmetries contains only one element for this perturbation.
 symkpt : not enough symmetry to change the number of k points.

[...]

 Initialisation of the first-order wave-functions :
  ireadwf=   0

--- !BeginCycle
iteration_state: {dtset: 1, }
solver: {iscf: 7, nstep: 100, nline: 4, wfoptalg: 0, }
tolerances: {tolwfr: 1.00E-20, }
...

     iter   2DEtotal(Ha)        deltaE(Ha) residm    vres2
-ETOT  1  -32.031457482223     -3.203E+01 2.364E-02 0.000E+00
 ETOT  2  -32.032002096390     -5.446E-04 1.930E-04 0.000E+00
 ETOT  3  -32.032002530459     -4.341E-07 9.020E-07 0.000E+00
 ETOT  4  -32.032002530953     -4.943E-10 1.367E-08 0.000E+00
 ETOT  5  -32.032002530953     -5.187E-13 1.077E-10 0.000E+00
 ETOT  6  -32.032002530953      1.421E-14 1.831E-12 0.000E+00
 ETOT  7  -32.032002530953     -4.263E-14 1.592E-14 0.000E+00
 ETOT  8  -32.032002530953     -2.842E-14 2.749E-16 0.000E+00
 ETOT  9  -32.032002530953      7.105E-15 2.432E-18 0.000E+00
 ETOT 10  -32.032002530953     -1.421E-14 4.270E-20 0.000E+00
 ETOT 11  -32.032002530953      7.105E-15 9.747E-21 0.000E+00

 At SCF step   11   max residual=  9.75E-21 < tolwfr=  1.00E-20 =>converged.

 ----iterations are completed or convergence reached----

 dfpt_looppert: DFPT cycle converged with prtwf=-1. Will skip output of the 1st-order WFK file.
 dfpt_looppert : ek2=    2.5962645836E+01
          f-sum rule ratio=    2.6679666049E+00
 prteigrs : about to open file /scratch/users/j/a/jabreu/flow_simple2/flow/w236/t1/tmpdata/tmp_1WF1_EIG
 Expectation of eigenvalue derivatives (hartree) for nkpt=   2  k points:
  (in case of degenerate eigenvalues, averaged derivative)
 kpt#   1, nband= 13, wtk=  0.50000, kpt=  0.0000  0.0000  0.0000 (reduced coord)
   0.00000   -0.00000   -0.00000   -0.00000   -0.00000   -0.00000   -0.00000   -0.00000
  -0.00000    0.00000    0.00000   -0.00000   -0.00000
 prteigrs : prtvol=0 or 1, do not print more k-points.

 Eight components of 2nd-order total energy (hartree) are
 1,2,3: 0th-order hamiltonian combined with 1st-order wavefunctions
     kin0=   3.02630502E+00 eigvalue=  -1.54223074E-01  local=  -1.09127172E+00
 4,5,6: 1st-order hamiltonian combined with 1st and 0th-order wfs
     kin1=  -6.92674721E+01  Hartree=   0.00000000E+00     xc=   0.00000000E+00
 7,8,9: eventually, occupation + non-local contributions
    edocc=   3.03060462E+01     enl0=  -5.48538583E-02   enl1=   5.20346700E+00
 1-9 gives the relaxation energy (to be shifted if some occ is /=2.0)
   erelax=  -3.20320025E+01
  No Ewald or frozen-wf contrib.: the relaxation energy is the total one
 2DEtotal=   -0.3203200253E+02 Ha. Also 2DEtotal=   -0.871635116674E+03 eV
    (  non-var. 2DEtotal :   -3.2032002531E+01 Ha)

 Perturbation wavevector (in red.coord.)   0.000000  0.000000  0.000000
 Perturbation : derivative vs k along direction   2
 The set of symmetries contains only one element for this perturbation.
 symkpt : not enough symmetry to change the number of k points.

[...]

 Perturbation wavevector (in red.coord.)   0.000000  0.000000  0.000000
 Perturbation : derivative vs k along direction   3
 The set of symmetries contains only one element for this perturbation.
 symkpt : not enough symmetry to change the number of k points.

-inwffil : will read wavefunctions from disk file /scratch/users/j/a/jabreu/flow_simple2/flow/w236/t1/indata/in_WFK

 Initialisation of the first-order wave-functions :
  ireadwf=   0

--- !BeginCycle
iteration_state: {dtset: 1, }
solver: {iscf: 7, nstep: 100, nline: 4, wfoptalg: 0, }
tolerances: {tolwfr: 1.00E-20, }
...

     iter   2DEtotal(Ha)        deltaE(Ha) residm    vres2
-ETOT  1  -32.031578162160     -3.203E+01 2.364E-02 0.000E+00
 ETOT  2  -32.032002209169     -4.240E-04 1.930E-04 0.000E+00
 ETOT  3  -32.032002530851     -3.217E-07 9.020E-07 0.000E+00
 ETOT  4  -32.032002531192     -3.409E-10 1.367E-08 0.000E+00
 ETOT  5  -32.032002531193     -4.690E-13 1.077E-10 0.000E+00
 ETOT  6  -32.032002531193      5.684E-14 1.831E-12 0.000E+00
 ETOT  7  -32.032002531193      0.000E+00 1.592E-14 0.000E+00
 ETOT  8  -32.032002531193      1.421E-14 2.749E-16 0.000E+00
 ETOT  9  -32.032002531193      0.000E+00 2.432E-18 0.000E+00
 ETOT 10  -32.032002531192      7.105E-15 4.270E-20 0.000E+00
 ETOT 11  -32.032002531192      7.105E-15 9.447E-21 0.000E+00

 At SCF step   11   max residual=  9.45E-21 < tolwfr=  1.00E-20 =>converged.

 ----iterations are completed or convergence reached----

 dfpt_looppert: DFPT cycle converged with prtwf=-1. Will skip output of the 1st-order WFK file.
 dfpt_looppert : ek2=    2.5962645836E+01
          f-sum rule ratio=    2.6679666043E+00
 prteigrs : about to open file /scratch/users/j/a/jabreu/flow_simple2/flow/w236/t1/tmpdata/tmp_1WF1_EIG
 Expectation of eigenvalue derivatives (hartree) for nkpt=   2  k points:
  (in case of degenerate eigenvalues, averaged derivative)
 kpt#   1, nband= 13, wtk=  0.50000, kpt=  0.0000  0.0000  0.0000 (reduced coord)
  -0.00000    0.00000    0.00000    0.00000   -0.00000   -0.00000   -0.00000    0.00000
  -0.00000   -0.00000   -0.00000   -0.00000   -0.00000
 prteigrs : prtvol=0 or 1, do not print more k-points.

 Eight components of 2nd-order total energy (hartree) are
 1,2,3: 0th-order hamiltonian combined with 1st-order wavefunctions
     kin0=   2.93542311E+00 eigvalue=  -1.38507849E-01  local=  -1.05275591E+00
 4,5,6: 1st-order hamiltonian combined with 1st and 0th-order wfs
     kin1=  -6.92674721E+01  Hartree=   0.00000000E+00     xc=   0.00000000E+00
 7,8,9: eventually, occupation + non-local contributions
    edocc=   3.03400535E+01     enl0=  -5.22103677E-02   enl1=   5.20346699E+00
 1-9 gives the relaxation energy (to be shifted if some occ is /=2.0)
   erelax=  -3.20320025E+01
  No Ewald or frozen-wf contrib.: the relaxation energy is the total one
 2DEtotal=   -0.3203200253E+02 Ha. Also 2DEtotal=   -0.871635116681E+03 eV
    (  non-var. 2DEtotal :   -3.2032002531E+01 Ha)

 CALCULATION OF EFFECTIVE MASSES
 NOTE : Additional infos (eff. mass eigenvalues, eigenvectors and, if degenerate, average mass) are available in stdout.

 COMMENTS:
 - At k-point ( 0.000, 0.000, 0.000), bands     2 through     4
   are DEGENERATE (effective mass tensor is therefore not defined).
   See Section IIIB Eqs. (67)-(70) and Appendix E of PRB 93 205147 (2016).
 - Angular average effective mass for Frohlich model is to be averaged over degenerate bands. See later.
 - Associated theta integrals calculated with ntheta=   1000 points.

 K-point ( 0.000, 0.000, 0.000) | band =     2
 Transport equivalent effective mass tensor:
             -0.1997642215             -0.0000000059              0.0000000000
             -0.0000000059             -0.1997642198             -0.0000000000
              0.0000000000             -0.0000000000             -0.1997642383
 Transport equivalent effective mass tensor eigenvalues:
             -0.1997642383             -0.1997642266             -0.1997642146
 Angular average effective mass 1/(<1/m>)=  -0.1563895842
 Angular average effective mass for Frohlich model (<m**0.5>)**2=  -0.1587237590
 Effective masses along directions: (cart. coord. / red. coord. -> eff. mass)
    1:   1.000000  0.000000  0.000000 /   0.948683  0.316228  0.000000 ->  -0.1419237153
    2:   0.000000  1.000000  0.000000 /   0.000000  1.000000  0.000000 ->  -0.1295696559
    3:   0.000000  0.000000  1.000000 /   0.408248  0.408248  0.816497 ->  -0.1534658250
    4:   0.577350  0.577350  0.577350 /   0.585539  0.688047  0.428644 ->  -0.1428587076
    5:   0.000000  0.707107  0.707107 /   0.289489  0.762222  0.578977 ->  -0.1696932212
    6:   0.707107  0.000000  0.707107 /   0.731423  0.422287  0.535439 ->  -0.1467701326
    7:   0.707107  0.707107  0.000000 /   0.616798  0.787122  0.000000 ->  -0.2140128494

[...]

 K-point ( 0.000, 0.000, 0.000) | band =     4
 Transport equivalent effective mass tensor:
             -7.3454888638              0.0000088258             -0.0000000002
              0.0000088258             -7.3454858519             -0.0000000000
             -0.0000000002             -0.0000000000             -7.3454739135
 Transport equivalent effective mass tensor eigenvalues:
             -7.3454963112             -7.3454784044             -7.3454739135
 Angular average effective mass 1/(<1/m>)=  -0.8874770274
 Angular average effective mass for Frohlich model (<m**0.5>)**2=  -1.0318226473
 Effective masses along directions: (cart. coord. / red. coord. -> eff. mass)
    1:   1.000000  0.000000  0.000000 /   0.948683  0.316228  0.000000 ->  -0.9384495653
    2:   0.000000  1.000000  0.000000 /   0.000000  1.000000  0.000000 ->  -0.6267559284
    3:   0.000000  0.000000  1.000000 /   0.408248  0.408248  0.816497 ->  -2.5395553592
    4:   0.577350  0.577350  0.577350 /   0.585539  0.688047  0.428644 ->  -1.0979972734
    5:   0.000000  0.707107  0.707107 /   0.289489  0.762222  0.578977 ->  -0.8764922368
    6:   0.707107  0.000000  0.707107 /   0.731423  0.422287  0.535439 ->  -1.4932199613
    7:   0.707107  0.707107  0.000000 /   0.616798  0.787122  0.000000 ->  -0.4272855211

 Angular average effective mass for Frohlich model, averaged over degenerate bands.
 Value of     (<<m**0.5>>)**2 =     4.290119E-01
 Absolute Value of <<m**0.5>> =     6.549900E-01

 K-point ( 0.411, 0.000, 0.411) | band =     5
 Effective mass tensor:
              0.3941979317             -0.2446111808              0.2995862892
             -0.2446111808              0.5671641567             -0.4236789935
              0.2995862892             -0.4236789935              0.7401303814
 Effective mass tensor eigenvalues:
              0.2212317071              0.2212317071              1.2590290556
 Angular average effective mass 1/(<1/m>)=   0.3050467446
 Angular average effective mass for Frohlich model (<m**0.5>)**2=   0.3477322411
 Effective masses along directions: (cart. coord. / red. coord. -> eff. mass)
    1:   1.000000  0.000000  0.000000 /   0.948683  0.316228  0.000000 ->   0.2564650398
    2:   0.000000  1.000000  0.000000 /   0.000000  1.000000  0.000000 ->   0.3050467447
    3:   0.000000  0.000000  1.000000 /   0.408248  0.408248  0.816497 ->   0.3763352434
    4:   0.577350  0.577350  0.577350 /   0.585539  0.688047  0.428644 ->   0.2403463115
    5:   0.000000  0.707107  0.707107 /   0.289489  0.762222  0.578977 ->   0.2227775901
    6:   0.707107  0.000000  0.707107 /   0.731423  0.422287  0.535439 ->   0.4540056451
    7:   0.707107  0.707107  0.000000 /   0.616798  0.787122  0.000000 ->   0.2238701050

 END OF EFFECTIVE MASSES SECTION

 ---- first-order wavefunction calculations are completed ----

 Total localisation tensor (bohr^2) in cartesian coordinates
  WARNING : still subject to testing - especially symmetries.
      direction              matrix element
   alpha     beta       real part   imaginary part
     1        1       8.8879549674    0.0000000000
     1        2       2.5138932912    0.0000000000
     1        3       6.1577558315    0.0000000000
     2        1       2.5138932912    0.0000000000
     2        2       7.1103639734    0.0000000000
     2        3       4.3541909051    0.0000000000
     3        1       6.1577558315    0.0000000000
     3        2       4.3541909051    0.0000000000
     3        3      15.9983189413    0.0000000000

 respfn : d/dk was computed, but no 2DTE, so no DDB output.

== END DATASET(S) ==============================================================

 -outvars: echo values of variables after computation  --------
            acell      1.0000000000E+00  1.0000000000E+00  1.0000000000E+00 Bohr
              amu      1.08110000E+01  3.09737620E+01
             ecut      3.80000000E+01 Hartree
           etotal     -3.2032002531E+01
            fcart      0.0000000000E+00  0.0000000000E+00  0.0000000000E+00
                       0.0000000000E+00  0.0000000000E+00  0.0000000000E+00
-          fftalg         512
           irdden           1
           irdwfk           1
           istwfk        1    0
              ixc     -116133
              kpt      0.00000000E+00  0.00000000E+00  0.00000000E+00
                       4.10714286E-01  1.23259516E-32  4.10714286E-01
           kptopt           0
P           mkmem           2
P          mkqmem           2
P          mk1mem           2
            natom           2
            nband          13
           nbdbuf           4
            ngfft          36      36      36
             nkpt           2
            nstep         100
             nsym          24
           ntypat           2
              occ      2.000000  2.000000  2.000000  2.000000  0.000000  0.000000
                       0.000000  0.000000  0.000000  0.000000  0.000000  0.000000
                       0.000000
        optdriver           1
            prtwf          -1
            rfdir           1       1       1
           rfelfd           2
            rprim      5.2316857128E+00  0.0000000000E+00  3.0205151546E+00
                       1.7438952376E+00  4.9324805927E+00  3.0205151546E+00
                       0.0000000000E+00  0.0000000000E+00  6.0410303092E+00
          spgroup         216
           strten      0.0000000000E+00  0.0000000000E+00  0.0000000000E+00
                       0.0000000000E+00  0.0000000000E+00  0.0000000000E+00
           symrel      1  0  0   0  1  0   0  0  1       0 -1  1   0 -1  0   1 -1  0
                      -1  0  0  -1  0  1  -1  1  0       0  1 -1   1  0 -1   0  0 -1
                      -1  0  0  -1  1  0  -1  0  1       0 -1  1   1 -1  0   0 -1  0
                       1  0  0   0  0  1   0  1  0       0  1 -1   0  0 -1   1  0 -1
                      -1  0  1  -1  1  0  -1  0  0       0 -1  0   1 -1  0   0 -1  1
                       1  0 -1   0  0 -1   0  1 -1       0  1  0   0  0  1   1  0  0
                       1  0 -1   0  1 -1   0  0 -1       0 -1  0   0 -1  1   1 -1  0
                      -1  0  1  -1  0  0  -1  1  0       0  1  0   1  0  0   0  0  1
                       0  0 -1   0  1 -1   1  0 -1       1 -1  0   0 -1  1   0 -1  0
                       0  0  1   1  0  0   0  1  0      -1  1  0  -1  0  0  -1  0  1
                       0  0  1   0  1  0   1  0  0       1 -1  0   0 -1  0   0 -1  1
                       0  0 -1   1  0 -1   0  1 -1      -1  1  0  -1  0  1  -1  0  0
           tolwfr      1.00000000E-20
            typat      1  2
           useylm           1
              wtk        0.50000    0.50000
           xangst      0.0000000000E+00  0.0000000000E+00  0.0000000000E+00
                       9.2282961391E-01  6.5253907787E-01  1.5983877780E+00
            xcart      0.0000000000E+00  0.0000000000E+00  0.0000000000E+00
                       1.7438952376E+00  1.2331201482E+00  3.0205151546E+00
             xred      0.0000000000E+00  0.0000000000E+00  0.0000000000E+00
                       2.5000000000E-01  2.5000000000E-01  2.5000000000E-01
            znucl        5.00000   15.00000

- Timing analysis has been suppressed with timopt=0

 Suggested references for the acknowledgment of ABINIT usage.

 Calculation completed.
.Delivered  14 WARNINGs and   9 COMMENTs to log file.