.Version 9.7.2 of ABINIT

 ABINIT is a project of the Universite Catholique de Louvain,
 Corning Inc. and other collaborators, see ~abinit/doc/developers/contributors.txt .
 acknowledgments of the ABINIT effort.

.Starting date : Wed  1 Dec 2021.
- ( at 21h57 )

- input  file    -> /scratch/users/j/a/jabreu/flow_simple_remain_atoms/flow/w265/t1/run.abi
- output file    -> /scratch/users/j/a/jabreu/flow_simple_remain_atoms/flow/w265/t1/run.abo
- root for input  files -> /scratch/users/j/a/jabreu/flow_simple_remain_atoms/flow/w265/t1/indata/in
- root for output files -> /scratch/users/j/a/jabreu/flow_simple_remain_atoms/flow/w265/t1/outdata/out

 Symmetries : space group P-3 m 1 (#164); Bravais hP (primitive hexag.)
     intxc =       0      iscf =       7    lmnmax =      32     lnmax =       8
     mgfft =      72  mpssoang =       4    mqgrid =    3019     natom =       9
  nloc_mem =       1    nspden =       1   nspinor =       1    nsppol =       1
      nsym =      12    n1xccc =    2501    ntypat =       3    occopt =       1
   xclevel =       2
-    mband =          45        mffmem =           1         mkmem =           2
-   mkqmem =           2        mk1mem =           2           mpw =       15129
      nfft =      311040          nkpt =           2
  Rough estimation (10% accuracy) of disk space for files :

------------- Echo of variables that govern the present computation ------------
-
- outvars: echo of selected default values
-   iomode0 =  0 , fftalg0 =512 , wfoptalg0 =  0
-
- outvars: echo of global parameters not present in the input file
-  max_nthreads =    0
-
 -outvars: echo values of preprocessed input variables --------
            acell      1.0000000000E+00  1.0000000000E+00  1.0000000000E+00 Bohr
              amu      1.32905430E+02  1.78490000E+02  1.89984032E+01
             ecut      4.20000000E+01 Hartree
-          fftalg         512
           irdden           1
           irdwfk           1
           istwfk        0    1
              ixc     -116133
              kpt      0.00000000E+00  0.00000000E+00  2.10526316E-01
                       0.00000000E+00  0.00000000E+00  0.00000000E+00
           kptopt           0
P           mkmem           2
P          mkqmem           2
P          mk1mem           2
            natom           9
            nband          45
           nbdbuf           4
            ngfft          72      72      60
             nkpt           2
            nstep        2000
             nsym          12
           ntypat           3
              occ      2.000000  2.000000  2.000000  2.000000  2.000000  2.000000
                       2.000000  2.000000  2.000000  2.000000  2.000000  2.000000
                       2.000000  2.000000  2.000000  2.000000  2.000000  2.000000
                       2.000000  2.000000  2.000000  2.000000  2.000000  2.000000
                       2.000000  2.000000  2.000000  2.000000  2.000000  2.000000
                       2.000000  2.000000  2.000000  2.000000  2.000000  2.000000
                       0.000000  0.000000  0.000000  0.000000  0.000000  0.000000
                       0.000000  0.000000  0.000000
        optdriver           1
            prtwf          -1
            rfdir           1       1       1
           rfelfd           2
            rprim      1.1947516729E+01  0.0000000000E+00  0.0000000000E+00
                      -5.9737583646E+00  1.0346853000E+01  0.0000000000E+00
                       0.0000000000E+00  0.0000000000E+00  9.4384060521E+00
          spgroup         164
           symrel      1  0  0   0  1  0   0  0  1      -1  0  0   0 -1  0   0  0 -1
                      -1  0  0   1  1  0   0  0  1       1  0  0  -1 -1  0   0  0 -1
                       0  1  0  -1 -1  0   0  0  1       0 -1  0   1  1  0   0  0 -1
                       0 -1  0  -1  0  0   0  0  1       0  1  0   1  0  0   0  0 -1
                      -1 -1  0   1  0  0   0  0  1       1  1  0  -1  0  0   0  0 -1
                       1  1  0   0 -1  0   0  0  1      -1 -1  0   0  1  0   0  0 -1
           tolwfr      1.00000000E-20
            typat      1  1  2  3  3  3  3  3  3
           useylm           1
              wtk        0.50000    0.50000
           xangst      3.1611767762E+00  1.8251062627E+00  3.4730926035E+00
                       0.0000000000E+00  3.6502125254E+00  1.5214967646E+00
                       0.0000000000E+00  0.0000000000E+00  0.0000000000E+00
                       1.7213650735E+00  4.6440431139E+00  3.8918040141E+00
                      -1.7213650735E+00  4.6440431139E+00  3.8918040141E+00
                       1.1750094422E-16  1.6625513483E+00  3.8918040141E+00
                       1.4398117027E+00  8.3127567415E-01  1.1027853541E+00
                       4.8825418496E+00  8.3127567415E-01  1.1027853541E+00
                       3.1611767762E+00  3.8127674398E+00  1.1027853541E+00
            xcart      5.9737583646E+00  3.4489509999E+00  6.5631938549E+00
                       0.0000000000E+00  6.8979019998E+00  2.8752121972E+00
                       0.0000000000E+00  0.0000000000E+00  0.0000000000E+00
                       3.2529085636E+00  8.7759696346E+00  7.3544437494E+00
                      -3.2529085636E+00  8.7759696346E+00  7.3544437494E+00
                       2.2204460493E-16  3.1417667301E+00  7.3544437494E+00
                       2.7208498010E+00  1.5708833651E+00  2.0839623027E+00
                       9.2266669282E+00  1.5708833651E+00  2.0839623027E+00
                       5.9737583646E+00  7.2050862696E+00  2.0839623027E+00
             xred      6.6666666667E-01  3.3333333333E-01  6.9537100000E-01
                       3.3333333333E-01  6.6666666667E-01  3.0462900000E-01
                       0.0000000000E+00  0.0000000000E+00  0.0000000000E+00
                       6.9635533333E-01  8.4817766667E-01  7.7920400000E-01
                       1.5182233333E-01  8.4817766667E-01  7.7920400000E-01
                       1.5182233333E-01  3.0364466667E-01  7.7920400000E-01
                       3.0364466667E-01  1.5182233333E-01  2.2079600000E-01
                       8.4817766667E-01  1.5182233333E-01  2.2079600000E-01
                       8.4817766667E-01  6.9635533333E-01  2.2079600000E-01
            znucl       55.00000   72.00000    9.00000

 chkinp: Checking input parameters for consistency.

== DATASET  1 ==================================================================
-   mpi_nproc: 1, omp_nthreads: -1 (-1 if OMP is not activated)

--- !DatasetInfo
iteration_state: {dtset: 1, }
dimensions: {natom: 9, nkpt: 2, mband: 45, nsppol: 1, nspinor: 1, nspden: 1, mpw: 15129, }
cutoff_energies: {ecut:  42.0, pawecutdg:  -1.0, }
electrons: {nelect:   7.20000000E+01, charge:   0.00000000E+00, occopt:   1.00000000E+00, tsmear:   1.00000000E-02, }
meta: {optdriver: 1, rfelfd: 2, }
...

 Real(R)+Recip(G) space primitive vectors, cartesian coordinates (Bohr,Bohr^-1):
 R(1)= 11.9475167  0.0000000  0.0000000  G(1)=  0.0836994  0.0483239  0.0000000
 R(2)= -5.9737584 10.3468530  0.0000000  G(2)=  0.0000000  0.0966477  0.0000000
 R(3)=  0.0000000  0.0000000  9.4384061  G(3)=  0.0000000  0.0000000  0.1059501
 Unit cell volume ucvol=  1.1667682E+03 bohr^3
 Angles (23,13,12)=  9.00000000E+01  9.00000000E+01  1.20000000E+02 degrees

 getcut: wavevector=  0.0000  0.0000  0.0000  ngfft=  72  72  60
         ecut(hartree)=     42.000   => boxcut(ratio)=   2.06569

--- Pseudopotential description ------------------------------------------------
- pspini: atom type   1  psp file is /scratch/users/j/a/jabreu/pseudos/PBEsol/Cs.psp8
- pspatm: opening atomic psp file    /scratch/users/j/a/jabreu/pseudos/PBEsol/Cs.psp8
- Cs    ONCVPSP-3.3.0  r_core=   2.27353   1.85623   2.01788   1.90105
- 55.00000   9.00000    180112                znucl, zion, pspdat
    8 -116133    3    4       600   0.00000   pspcod,pspxc,lmax,lloc,mmax,r2well
    5.99000000000000    5.00000000000000    0.00000000000000   rchrg,fchrg,qchrg
     nproj     2     2     2     2
     extension_switch     1
  pspatm : epsatm=   22.12462445
         --- l  ekb(1:nproj) -->
             0    6.214110    0.767882
             1    6.311966    0.793598
             2    3.769790    0.913105
             3   -9.247129   -2.432478
 pspatm: atomic psp has been read  and splines computed

- pspini: atom type   2  psp file is /scratch/users/j/a/jabreu/pseudos/PBEsol/Hf.psp8
- pspatm: opening atomic psp file    /scratch/users/j/a/jabreu/pseudos/PBEsol/Hf.psp8
- Hf    ONCVPSP-3.3.0  r_core=   1.71613   1.71613   1.71613   2.42541
- 72.00000  12.00000    180112                znucl, zion, pspdat
    8 -116133    3    4       600   0.00000   pspcod,pspxc,lmax,lloc,mmax,r2well
    5.99000000000000    5.40000000000000    0.00000000000000   rchrg,fchrg,qchrg
     nproj     2     2     2     2
     extension_switch     1
  pspatm : epsatm=   21.99082902
         --- l  ekb(1:nproj) -->
             0    5.882750   -0.519107
             1    2.555685   -1.768609
             2    1.383259    0.138001
             3    9.464546    0.347497
 pspatm: atomic psp has been read  and splines computed

- pspini: atom type   3  psp file is /scratch/users/j/a/jabreu/pseudos/PBEsol/F.psp8
- pspatm: opening atomic psp file    /scratch/users/j/a/jabreu/pseudos/PBEsol/F.psp8
- F     ONCVPSP-3.3.0  r_core=   1.30942   1.45782   1.60379
-  9.00000   7.00000    180112                znucl, zion, pspdat
    8 -116133    2    4       600   0.00000   pspcod,pspxc,lmax,lloc,mmax,r2well
    5.99000000000000    2.50000000000000    0.00000000000000   rchrg,fchrg,qchrg
     nproj     2     2     1
     extension_switch     1
  pspatm : epsatm=    4.89824824
         --- l  ekb(1:nproj) -->
             0    6.506434    1.065875
             1   -3.978753   -1.295852
             2   -2.394754
 pspatm: atomic psp has been read  and splines computed

   6.88532885E+03                                ecore*ucvol(ha*bohr**3)

 ==>  initialize data related to q vector <==

 The list of irreducible perturbations for this q vector is:
    1)    idir= 1    ipert=  10
    2)    idir= 2    ipert=  10
    3)    idir= 3    ipert=  10

 Perturbation wavevector (in red.coord.)   0.000000  0.000000  0.000000
 Perturbation : derivative vs k along direction   1

 dfpt_looppert : COMMENT -
  In a d/dk calculation, iscf is set to -3 automatically.
 The set of symmetries contains only one element for this perturbation.
 symkpt : not enough symmetry to change the number of k points.

 Initialisation of the first-order wave-functions :
  ireadwf=   0

--- !BeginCycle
iteration_state: {dtset: 1, }
solver: {iscf: 7, nstep: 2000, nline: 4, wfoptalg: 0, }
tolerances: {tolwfr: 1.00E-20, }
...

     iter   2DEtotal(Ha)        deltaE(Ha) residm    vres2
-ETOT  1  -29.717018458738     -2.972E+01 9.518E-02 0.000E+00
 ETOT  2  -29.754110367594     -3.709E-02 1.772E-03 0.000E+00
 ETOT  3  -29.754497221508     -3.869E-04 2.387E-04 0.000E+00
 ETOT  4  -29.754509216459     -1.199E-05 3.514E-05 0.000E+00
 ETOT  5  -29.754509671521     -4.551E-07 3.434E-06 0.000E+00
 ETOT  6  -29.754509690533     -1.901E-08 6.966E-07 0.000E+00
[...]
 prteigrs : prtvol=0 or 1, do not print more k-points.

 Eight components of 2nd-order total energy (hartree) are
 1,2,3: 0th-order hamiltonian combined with 1st-order wavefunctions
     kin0=   3.85311700E+01 eigvalue=   2.33746777E+00  local=  -1.97203171E+01
 4,5,6: 1st-order hamiltonian combined with 1st and 0th-order wfs
     kin1=  -5.53031965E+01  Hartree=   0.00000000E+00     xc=   0.00000000E+00
 7,8,9: eventually, occupation + non-local contributions
    edocc=   6.56107035E+00     enl0=   2.04511859E+00   enl1=  -4.20582284E+00
 1-9 gives the relaxation energy (to be shifted if some occ is /=2.0)
   erelax=  -2.97545097E+01
  No Ewald or frozen-wf contrib.: the relaxation energy is the total one
 2DEtotal=   -0.2975450969E+02 Ha. Also 2DEtotal=   -0.809661384779E+03 eV
    (  non-var. 2DEtotal :   -2.9754509691E+01 Ha)

 Perturbation wavevector (in red.coord.)   0.000000  0.000000  0.000000
 Perturbation : derivative vs k along direction   2
 The set of symmetries contains only one element for this perturbation.
 symkpt : not enough symmetry to change the number of k points.

[...]

 Perturbation wavevector (in red.coord.)   0.000000  0.000000  0.000000
 Perturbation : derivative vs k along direction   3
 The set of symmetries contains only one element for this perturbation.
 symkpt : not enough symmetry to change the number of k points.

 Initialisation of the first-order wave-functions :
  ireadwf=   0

--- !BeginCycle
iteration_state: {dtset: 1, }
solver: {iscf: 7, nstep: 2000, nline: 4, wfoptalg: 0, }
tolerances: {tolwfr: 1.00E-20, }
...

     iter   2DEtotal(Ha)        deltaE(Ha) residm    vres2
-ETOT  1  -34.486307000255     -3.449E+01 1.720E-02 0.000E+00
 ETOT  2  -34.520428747659     -3.412E-02 2.559E-03 0.000E+00
 ETOT  3  -34.520791361239     -3.626E-04 6.485E-05 0.000E+00
 ETOT  4  -34.520801585318     -1.022E-05 1.464E-05 0.000E+00
 ETOT  5  -34.520801923870     -3.386E-07 4.114E-07 0.000E+00
 ETOT  6  -34.520801936457     -1.259E-08 8.969E-08 0.000E+00
 ETOT  7  -34.520801936958     -5.013E-10 2.965E-09 0.000E+00
 ETOT  8  -34.520801936979     -2.129E-11 9.538E-10 0.000E+00
 ETOT  9  -34.520801936980     -9.024E-13 4.396E-11 0.000E+00
 ETOT 10  -34.520801936980     -8.527E-14 1.404E-11 0.000E+00
 ETOT 11  -34.520801936980     -3.553E-14 8.761E-13 0.000E+00
 ETOT 12  -34.520801936980      0.000E+00 2.121E-13 0.000E+00
 ETOT 13  -34.520801936980      1.421E-14 1.751E-14 0.000E+00
 ETOT 14  -34.520801936980     -7.105E-15 3.452E-15 0.000E+00
 ETOT 15  -34.520801936980     -7.105E-15 3.505E-16 0.000E+00
 ETOT 16  -34.520801936980      2.132E-14 6.963E-17 0.000E+00
 ETOT 17  -34.520801936980     -1.421E-14 7.023E-18 0.000E+00
 ETOT 18  -34.520801936980     -7.105E-15 1.404E-18 0.000E+00
 ETOT 19  -34.520801936980      0.000E+00 1.408E-19 0.000E+00
 ETOT 20  -34.520801936980      1.421E-14 2.830E-20 0.000E+00
 ETOT 21  -34.520801936980      0.000E+00 9.981E-21 0.000E+00

 At SCF step   21   max residual=  9.98E-21 < tolwfr=  1.00E-20 =>converged.

 ----iterations are completed or convergence reached----

 dfpt_looppert: DFPT cycle converged with prtwf=-1. Will skip output of the 1st-order WFK file.
 dfpt_looppert : ek2=    6.3815314544E+01
          f-sum rule ratio=    9.9942044216E-01
 prteigrs : about to open file /scratch/users/j/a/jabreu/flow_simple_remain_atoms/flow/w265/t1/tmpdata/tmp_1WF1_EIG
 Expectation of eigenvalue derivatives (hartree) for nkpt=   2  k points:
  (in case of degenerate eigenvalues, averaged derivative)
 kpt#   1, nband= 45, wtk=  0.50000, kpt=  0.0000  0.0000  0.2105 (reduced coord)
   0.00000    0.00010    0.00010   -0.00039    0.01041   -0.00307   -0.00307   -0.00975
   0.00328    0.00328   -0.00131   -0.00000    0.01557    0.01557    0.02119   -0.03725
  -0.03725   -0.04412   -0.00543   -0.00543    0.01028    0.02784   -0.00959   -0.00959
   0.02711    0.03871    0.03871    0.01060    0.02559    0.02559   -0.06778   -0.01191
  -0.01191   -0.01175   -0.00005   -0.00005    0.09212    0.01979    0.01979    0.09745
  -0.10787   -0.10787    0.08161   -0.12982   -0.12982
 prteigrs : prtvol=0 or 1, do not print more k-points.

 Eight components of 2nd-order total energy (hartree) are
 1,2,3: 0th-order hamiltonian combined with 1st-order wavefunctions
     kin0=   4.60613246E+01 eigvalue=   2.90035349E+00  local=  -2.32779720E+01
 4,5,6: 1st-order hamiltonian combined with 1st and 0th-order wfs
     kin1=  -6.37783299E+01  Hartree=   0.00000000E+00     xc=   0.00000000E+00
 7,8,9: eventually, occupation + non-local contributions
    edocc=   6.40861448E+00     enl0=   2.42848140E+00   enl1=  -5.26327400E+00
 1-9 gives the relaxation energy (to be shifted if some occ is /=2.0)
   erelax=  -3.45208019E+01
  No Ewald or frozen-wf contrib.: the relaxation energy is the total one
 2DEtotal=   -0.3452080194E+02 Ha. Also 2DEtotal=   -0.939358792662E+03 eV
    (  non-var. 2DEtotal :   -3.4520801937E+01 Ha)

 CALCULATION OF EFFECTIVE MASSES
 NOTE : Additional infos (eff. mass eigenvalues, eigenvectors and, if degenerate, average mass) are available in stdout.

--- !WARNING
src_file: m_efmas.F90
src_line: 0
message: |
    Effective masses calculations require given k-point(s) to be band extrema for given bands, but max abs gradient of band(s) was found to be greater than 1e-5. Abinit will continue anyway.
...

[...]

--- !WARNING
src_file: m_efmas.F90
src_line: 0
message: |
    Effective masses calculations require given k-point(s) to be band extrema for given bands, but max abs gradient of band(s) was found to be greater than 1e-5. Abinit will continue anyway.
...

 COMMENTS:
 - At k-point ( 0.000, 0.000, 0.211), bands    35 through    36
   are DEGENERATE (effective mass tensor is therefore not defined).
   See Section IIIB Eqs. (67)-(70) and Appendix E of PRB 93 205147 (2016).
 - Angular average effective mass for Frohlich model is to be averaged over degenerate bands. See later.
 - Associated theta integrals calculated with ntheta=   1000 points.

 K-point ( 0.000, 0.000, 0.211) | band =    35
 Transport equivalent effective mass tensor:
             -6.7083125012              0.0000000061             -0.0000000060
              0.0000000061             -6.7083130087              0.0000026733
             -0.0000000060              0.0000026733            -12.4982862532
 Transport equivalent effective mass tensor eigenvalues:
            -12.4982862532             -6.7083130088             -6.7083125011
 Angular average effective mass 1/(<1/m>)=  -7.8112886428
 Angular average effective mass for Frohlich model (<m**0.5>)**2=  -7.9928216243
 Effective masses along directions: (cart. coord. / red. coord. -> eff. mass)
    1:   1.000000  0.000000  0.000000 /   0.894427 -0.447214  0.000000 ->  -6.6167144690
    2:   0.000000  1.000000  0.000000 /   0.000000  1.000000  0.000000 ->  -6.6167144626
    3:   0.000000  0.000000  1.000000 /   0.000000  0.000000  1.000000 -> -12.3788133520
    4:   0.577350  0.577350  0.577350 /   0.754195  0.276054  0.595806 ->  -7.5156835957
    5:   0.000000  0.707107  0.707107 /   0.000000  0.738795  0.673930 ->  -9.2304834121
    6:   0.707107  0.000000  0.707107 /   0.730475 -0.365238  0.577068 ->  -8.5518482912
    7:   0.707107  0.707107  0.000000 /   0.939071  0.343724  0.000000 ->  -6.6167144558

 K-point ( 0.000, 0.000, 0.211) | band =    36
 Transport equivalent effective mass tensor:
            -31.2227573475              0.0000001542              0.0000000004
              0.0000001542            -31.2227505063             -0.0000027033
              0.0000000004             -0.0000027033            -13.8761330508
 Transport equivalent effective mass tensor eigenvalues:
            -31.2227573510            -31.2227505028            -13.8761330508
 Angular average effective mass 1/(<1/m>)= -20.2840815602
 Angular average effective mass for Frohlich model (<m**0.5>)**2= -21.4962513699
 Effective masses along directions: (cart. coord. / red. coord. -> eff. mass)
    1:   1.000000  0.000000  0.000000 /   0.894427 -0.447214  0.000000 -> -29.3566849121
    2:   0.000000  1.000000  0.000000 /   0.000000  1.000000  0.000000 -> -29.3566845881
    3:   0.000000  0.000000  1.000000 /   0.000000  0.000000  1.000000 -> -12.3788133566
    4:   0.577350  0.577350  0.577350 /   0.754195  0.276054  0.595806 -> -22.5914687101
    5:   0.000000  0.707107  0.707107 /   0.000000  0.738795  0.673930 -> -15.3740662941
    6:   0.707107  0.000000  0.707107 /   0.730475 -0.365238  0.577068 -> -17.7155758831
    7:   0.707107  0.707107  0.000000 /   0.939071  0.343724  0.000000 -> -29.3566846787

 Angular average effective mass for Frohlich model, averaged over degenerate bands.
 Value of     (<<m**0.5>>)**2 =     1.392619E+01
 Absolute Value of <<m**0.5>> =     3.731781E+00

 K-point ( 0.000, 0.000, 0.000) | band =    37
 Effective mass tensor:
              0.5217422407             -0.0000000607             -0.0000000382
             -0.0000000607              0.5217422608             -0.0000000246
             -0.0000000382             -0.0000000246              0.5250691863
 Effective mass tensor eigenvalues:
              0.5217421893              0.5217423123              0.5250691864
 Angular average effective mass 1/(<1/m>)=   0.5228465349
 Angular average effective mass for Frohlich model (<m**0.5>)**2=   0.5228479417
 Effective masses along directions: (cart. coord. / red. coord. -> eff. mass)
    1:   1.000000  0.000000  0.000000 /   0.894427 -0.447214  0.000000 ->   0.5217422407
    2:   0.000000  1.000000  0.000000 /   0.000000  1.000000  0.000000 ->   0.5217422608
    3:   0.000000  0.000000  1.000000 /   0.000000  0.000000  1.000000 ->   0.5250691863
    4:   0.577350  0.577350  0.577350 /   0.754195  0.276054  0.595806 ->   0.5228464525
    5:   0.000000  0.707107  0.707107 /   0.000000  0.738795  0.673930 ->   0.5234004123
    6:   0.707107  0.000000  0.707107 /   0.730475 -0.365238  0.577068 ->   0.5234003886
    7:   0.707107  0.707107  0.000000 /   0.939071  0.343724  0.000000 ->   0.5217421901

 END OF EFFECTIVE MASSES SECTION

 ---- first-order wavefunction calculations are completed ----

 Total localisation tensor (bohr^2) in cartesian coordinates
  WARNING : still subject to testing - especially symmetries.
      direction              matrix element
   alpha     beta       real part   imaginary part
     1        1       1.0950374521    0.0000000000
     1        2      -0.3793320016    0.0000000000
     1        3       0.0000000000    0.0000000000
     2        1      -0.3793320016    0.0000000000
     2        2       0.6570222998    0.0000000000
     2        3       0.0000000000    0.0000000000
     3        1       0.0000000000    0.0000000000
     3        2       0.0000000000    0.0000000000
     3        3       0.5855936328    0.0000000000

 respfn : d/dk was computed, but no 2DTE, so no DDB output.

== END DATASET(S) ==============================================================

 -outvars: echo values of variables after computation  --------
            acell      1.0000000000E+00  1.0000000000E+00  1.0000000000E+00 Bohr
              amu      1.32905430E+02  1.78490000E+02  1.89984032E+01
             ecut      4.20000000E+01 Hartree
           etotal     -3.4520801937E+01
            fcart      0.0000000000E+00  0.0000000000E+00  0.0000000000E+00
                       0.0000000000E+00  0.0000000000E+00  0.0000000000E+00
                       0.0000000000E+00  0.0000000000E+00  0.0000000000E+00
                       0.0000000000E+00  0.0000000000E+00  0.0000000000E+00
                       0.0000000000E+00  0.0000000000E+00  0.0000000000E+00
                       0.0000000000E+00  0.0000000000E+00  0.0000000000E+00
                       0.0000000000E+00  0.0000000000E+00  0.0000000000E+00
                       0.0000000000E+00  0.0000000000E+00  0.0000000000E+00
                       0.0000000000E+00  0.0000000000E+00  0.0000000000E+00
-          fftalg         512
           irdden           1
           irdwfk           1
           istwfk        0    1
              ixc     -116133
              kpt      0.00000000E+00  0.00000000E+00  2.10526316E-01
                       0.00000000E+00  0.00000000E+00  0.00000000E+00
           kptopt           0
P           mkmem           2
P          mkqmem           2
P          mk1mem           2
            natom           9
            nband          45
           nbdbuf           4
            ngfft          72      72      60
             nkpt           2
            nstep        2000
             nsym          12
           ntypat           3
              occ      2.000000  2.000000  2.000000  2.000000  2.000000  2.000000
                       2.000000  2.000000  2.000000  2.000000  2.000000  2.000000
                       2.000000  2.000000  2.000000  2.000000  2.000000  2.000000
                       2.000000  2.000000  2.000000  2.000000  2.000000  2.000000
                       2.000000  2.000000  2.000000  2.000000  2.000000  2.000000
                       2.000000  2.000000  2.000000  2.000000  2.000000  2.000000
                       0.000000  0.000000  0.000000  0.000000  0.000000  0.000000
                       0.000000  0.000000  0.000000
        optdriver           1
            prtwf          -1
            rfdir           1       1       1
           rfelfd           2
            rprim      1.1947516729E+01  0.0000000000E+00  0.0000000000E+00
                      -5.9737583646E+00  1.0346853000E+01  0.0000000000E+00
                       0.0000000000E+00  0.0000000000E+00  9.4384060521E+00
          spgroup         164
           strten      0.0000000000E+00  0.0000000000E+00  0.0000000000E+00
                       0.0000000000E+00  0.0000000000E+00  0.0000000000E+00
           symrel      1  0  0   0  1  0   0  0  1      -1  0  0   0 -1  0   0  0 -1
                      -1  0  0   1  1  0   0  0  1       1  0  0  -1 -1  0   0  0 -1
                       0  1  0  -1 -1  0   0  0  1       0 -1  0   1  1  0   0  0 -1
                       0 -1  0  -1  0  0   0  0  1       0  1  0   1  0  0   0  0 -1
                      -1 -1  0   1  0  0   0  0  1       1  1  0  -1  0  0   0  0 -1
                       1  1  0   0 -1  0   0  0  1      -1 -1  0   0  1  0   0  0 -1
           tolwfr      1.00000000E-20
            typat      1  1  2  3  3  3  3  3  3
           useylm           1
              wtk        0.50000    0.50000
           xangst      3.1611767762E+00  1.8251062627E+00  3.4730926035E+00
                       0.0000000000E+00  3.6502125254E+00  1.5214967646E+00
                       0.0000000000E+00  0.0000000000E+00  0.0000000000E+00
                       1.7213650735E+00  4.6440431139E+00  3.8918040141E+00
                      -1.7213650735E+00  4.6440431139E+00  3.8918040141E+00
                       1.1750094422E-16  1.6625513483E+00  3.8918040141E+00
                       1.4398117027E+00  8.3127567415E-01  1.1027853541E+00
                       4.8825418496E+00  8.3127567415E-01  1.1027853541E+00
                       3.1611767762E+00  3.8127674398E+00  1.1027853541E+00
            xcart      5.9737583646E+00  3.4489509999E+00  6.5631938549E+00
                       0.0000000000E+00  6.8979019998E+00  2.8752121972E+00
                       0.0000000000E+00  0.0000000000E+00  0.0000000000E+00
                       3.2529085636E+00  8.7759696346E+00  7.3544437494E+00
                      -3.2529085636E+00  8.7759696346E+00  7.3544437494E+00
                       2.2204460493E-16  3.1417667301E+00  7.3544437494E+00
                       2.7208498010E+00  1.5708833651E+00  2.0839623027E+00
                       9.2266669282E+00  1.5708833651E+00  2.0839623027E+00
                       5.9737583646E+00  7.2050862696E+00  2.0839623027E+00
             xred      6.6666666667E-01  3.3333333333E-01  6.9537100000E-01
                       3.3333333333E-01  6.6666666667E-01  3.0462900000E-01
                       0.0000000000E+00  0.0000000000E+00  0.0000000000E+00
                       6.9635533333E-01  8.4817766667E-01  7.7920400000E-01
                       1.5182233333E-01  8.4817766667E-01  7.7920400000E-01
                       1.5182233333E-01  3.0364466667E-01  7.7920400000E-01
                       3.0364466667E-01  1.5182233333E-01  2.2079600000E-01
                       8.4817766667E-01  1.5182233333E-01  2.2079600000E-01
                       8.4817766667E-01  6.9635533333E-01  2.2079600000E-01
            znucl       55.00000   72.00000    9.00000

- Timing analysis has been suppressed with timopt=0

 Suggested references for the acknowledgment of ABINIT usage.

 Calculation completed.
.Delivered   8 WARNINGs and   5 COMMENTs to log file.