.Version 9.5.1 of ABINIT

 ABINIT is a project of the Universite Catholique de Louvain,
 Corning Inc. and other collaborators, see ~abinit/doc/developers/contributors.txt .
 acknowledgments of the ABINIT effort.

.Starting date : Sun 25 Apr 2021.
- ( at 18h04 )

- input  file    -> /scratch/users/j/a/jabreu/flow_simple2/flow/w258/t1/run.abi
- output file    -> /scratch/users/j/a/jabreu/flow_simple2/flow/w258/t1/run.abo
- root for input  files -> /scratch/users/j/a/jabreu/flow_simple2/flow/w258/t1/indata/in
- root for output files -> /scratch/users/j/a/jabreu/flow_simple2/flow/w258/t1/outdata/out

 Symmetries : space group Pm -3 m (#221); Bravais cP (primitive cubic)
     intxc =       0      iscf =       7    lmnmax =      18     lnmax =       6
     mgfft =      36  mpssoang =       3    mqgrid =    3001     natom =       2
  nloc_mem =       1    nspden =       1   nspinor =       1    nsppol =       1
      nsym =      48    n1xccc =    2501    ntypat =       2    occopt =       1
   xclevel =       2
-    mband =          17        mffmem =           1         mkmem =           2
-   mkqmem =           2        mk1mem =           2           mpw =        2777
      nfft =       46656          nkpt =           2
  Rough estimation (10% accuracy) of disk space for files :

------------- Echo of variables that govern the present computation ------------
-
- outvars: echo of selected default values
-   iomode0 =  0 , fftalg0 =512 , wfoptalg0 =  0
-
- outvars: echo of global parameters not present in the input file
-  max_nthreads =    0
-
 -outvars: echo values of preprocessed input variables --------
            acell      1.0000000000E+00  1.0000000000E+00  1.0000000000E+00 Bohr
              amu      8.76200000E+01  1.59994000E+01
             ecut      4.40000000E+01 Hartree
-          fftalg         512
           irdden           1
           irdwfk           1
           istwfk        1    1
              ixc     -116133
              kpt      5.00000000E-01  5.00000000E-01  0.00000000E+00
                       0.00000000E+00  0.00000000E+00  0.00000000E+00
           kptopt           0
P           mkmem           2
P          mkqmem           2
P          mk1mem           2
            natom           2
            nband          17
           nbdbuf           4
            ngfft          36      36      36
             nkpt           2
            nstep         100
             nsym          48
           ntypat           2
              occ      2.000000  2.000000  2.000000  2.000000  2.000000  2.000000
                       2.000000  2.000000  0.000000  0.000000  0.000000  0.000000
                       0.000000  0.000000  0.000000  0.000000  0.000000
        optdriver           1
            prtwf          -1
            rfdir           1       1       1
           rfelfd           2
            rprim      5.8155279868E+00  0.0000000000E+00  0.0000000000E+00
                       0.0000000000E+00  5.8155279868E+00  0.0000000000E+00
                       0.0000000000E+00  0.0000000000E+00  5.8155279868E+00
          spgroup         221
           symrel      1  0  0   0  1  0   0  0  1      -1  0  0   0 -1  0   0  0 -1
                      -1  0  0   0  1  0   0  0 -1       1  0  0   0 -1  0   0  0  1
                      -1  0  0   0 -1  0   0  0  1       1  0  0   0  1  0   0  0 -1
                       1  0  0   0 -1  0   0  0 -1      -1  0  0   0  1  0   0  0  1
                       0  1  0   1  0  0   0  0  1       0 -1  0  -1  0  0   0  0 -1
                       0 -1  0   1  0  0   0  0 -1       0  1  0  -1  0  0   0  0  1
                       0 -1  0  -1  0  0   0  0  1       0  1  0   1  0  0   0  0 -1
                       0  1  0  -1  0  0   0  0 -1       0 -1  0   1  0  0   0  0  1
                       0  0  1   1  0  0   0  1  0       0  0 -1  -1  0  0   0 -1  0
                       0  0 -1   1  0  0   0 -1  0       0  0  1  -1  0  0   0  1  0
                       0  0 -1  -1  0  0   0  1  0       0  0  1   1  0  0   0 -1  0
                       0  0  1  -1  0  0   0 -1  0       0  0 -1   1  0  0   0  1  0
                       1  0  0   0  0  1   0  1  0      -1  0  0   0  0 -1   0 -1  0
                      -1  0  0   0  0  1   0 -1  0       1  0  0   0  0 -1   0  1  0
                      -1  0  0   0  0 -1   0  1  0       1  0  0   0  0  1   0 -1  0
                       1  0  0   0  0 -1   0 -1  0      -1  0  0   0  0  1   0  1  0
                       0  1  0   0  0  1   1  0  0       0 -1  0   0  0 -1  -1  0  0
                       0 -1  0   0  0  1  -1  0  0       0  1  0   0  0 -1   1  0  0
                       0 -1  0   0  0 -1   1  0  0       0  1  0   0  0  1  -1  0  0
                       0  1  0   0  0 -1  -1  0  0       0 -1  0   0  0  1   1  0  0
                       0  0  1   0  1  0   1  0  0       0  0 -1   0 -1  0  -1  0  0
                       0  0 -1   0  1  0  -1  0  0       0  0  1   0 -1  0   1  0  0
                       0  0 -1   0 -1  0   1  0  0       0  0  1   0  1  0  -1  0  0
                       0  0  1   0 -1  0  -1  0  0       0  0 -1   0  1  0   1  0  0
           tolwfr      1.00000000E-20
            typat      1  2
           useylm           1
              wtk        0.50000    0.50000
           xangst      0.0000000000E+00  0.0000000000E+00  0.0000000000E+00
                       1.5387224333E+00  1.5387224333E+00  1.5387224333E+00
            xcart      0.0000000000E+00  0.0000000000E+00  0.0000000000E+00
                       2.9077639934E+00  2.9077639934E+00  2.9077639934E+00
             xred      0.0000000000E+00  0.0000000000E+00  0.0000000000E+00
                       5.0000000000E-01  5.0000000000E-01  5.0000000000E-01
            znucl       38.00000    8.00000

 chkinp: Checking input parameters for consistency.

== DATASET  1 ==================================================================
-   mpi_nproc: 1, omp_nthreads: -1 (-1 if OMP is not activated)

--- !DatasetInfo
iteration_state: {dtset: 1, }
dimensions: {natom: 2, nkpt: 2, mband: 17, nsppol: 1, nspinor: 1, nspden: 1, mpw: 2777, }
cutoff_energies: {ecut:  44.0, pawecutdg:  -1.0, }
electrons: {nelect:   1.60000000E+01, charge:   0.00000000E+00, occopt:   1.00000000E+00, tsmear:   1.00000000E-02, }
meta: {optdriver: 1, rfelfd: 2, }
...

 Real(R)+Recip(G) space primitive vectors, cartesian coordinates (Bohr,Bohr^-1):
 R(1)=  5.8155280  0.0000000  0.0000000  G(1)=  0.1719534  0.0000000  0.0000000
 R(2)=  0.0000000  5.8155280  0.0000000  G(2)=  0.0000000  0.1719534  0.0000000
 R(3)=  0.0000000  0.0000000  5.8155280  G(3)=  0.0000000  0.0000000  0.1719534
 Unit cell volume ucvol=  1.9668328E+02 bohr^3
 Angles (23,13,12)=  9.00000000E+01  9.00000000E+01  9.00000000E+01 degrees

 getcut: wavevector=  0.0000  0.0000  0.0000  ngfft=  36  36  36
         ecut(hartree)=     44.000   => boxcut(ratio)=   2.07311

--- Pseudopotential description ------------------------------------------------
- pspini: atom type   1  psp file is /scratch/users/j/a/jabreu/pseudos/PBEsol/Sr.psp8
- pspatm: opening atomic psp file    /scratch/users/j/a/jabreu/pseudos/PBEsol/Sr.psp8
- Sr    ONCVPSP-3.3.0  r_core=   1.66721   1.31335   1.51547
- 38.00000  10.00000    180112                znucl, zion, pspdat
    8 -116133    2    4       600   0.00000   pspcod,pspxc,lmax,lloc,mmax,r2well
    5.99000000000000    6.00000000000000    0.00000000000000   rchrg,fchrg,qchrg
     nproj     2     2     2
     extension_switch     1
  pspatm : epsatm=   12.46450977
         --- l  ekb(1:nproj) -->
             0   10.029206    1.044171
             1    7.472414    1.670829
             2    4.142950    0.968140
 pspatm: atomic psp has been read  and splines computed

- pspini: atom type   2  psp file is /scratch/users/j/a/jabreu/pseudos/PBEsol/O.psp8
- pspatm: opening atomic psp file    /scratch/users/j/a/jabreu/pseudos/PBEsol/O.psp8
- O     ONCVPSP-3.3.0  r_core=   1.35509   1.45563   1.26150
-  8.00000   6.00000    180112                znucl, zion, pspdat
    8 -116133    2    4       600   0.00000   pspcod,pspxc,lmax,lloc,mmax,r2well
    5.99000000000000    4.00000000000000    0.00000000000000   rchrg,fchrg,qchrg
     nproj     2     2     1
     extension_switch     1
  pspatm : epsatm=    6.22910522
         --- l  ekb(1:nproj) -->
             0    6.050032    0.820363
             1   -4.739617   -1.153841
             2   -1.335834
 pspatm: atomic psp has been read  and splines computed

   2.99097840E+02                                ecore*ucvol(ha*bohr**3)

-inwffil : will read wavefunctions from disk file /scratch/users/j/a/jabreu/flow_simple2/flow/w258/t1/indata/in_WFK

 ==>  initialize data related to q vector <==

 The list of irreducible perturbations for this q vector is:
    1)    idir= 1    ipert=   3
    2)    idir= 2    ipert=   3
    3)    idir= 3    ipert=   3

 Perturbation wavevector (in red.coord.)   0.000000  0.000000  0.000000
 Perturbation : derivative vs k along direction   1

 dfpt_looppert : COMMENT -
  In a d/dk calculation, iscf is set to -3 automatically.
 The set of symmetries contains only one element for this perturbation.
 symkpt : not enough symmetry to change the number of k points.

[...]

 Initialisation of the first-order wave-functions :
  ireadwf=   0

--- !BeginCycle
iteration_state: {dtset: 1, }
solver: {iscf: 7, nstep: 100, nline: 4, wfoptalg: 0, }
tolerances: {tolwfr: 1.00E-20, }
...

     iter   2DEtotal(Ha)        deltaE(Ha) residm    vres2
-ETOT  1  -24.956711796952     -2.496E+01 4.943E-02 0.000E+00
 ETOT  2  -24.958182400459     -1.471E-03 1.262E-04 0.000E+00
 ETOT  3  -24.958183054055     -6.536E-07 1.829E-07 0.000E+00
 ETOT  4  -24.958183054285     -2.302E-10 7.639E-09 0.000E+00
 ETOT  5  -24.958183054285     -4.263E-14 1.118E-11 0.000E+00
 ETOT  6  -24.958183054285     -2.132E-14 4.937E-13 0.000E+00
 ETOT  7  -24.958183054286     -7.105E-15 1.068E-15 0.000E+00
 ETOT  8  -24.958183054286      0.000E+00 3.868E-17 0.000E+00
 ETOT  9  -24.958183054286     -7.105E-15 1.127E-19 0.000E+00
 ETOT 10  -24.958183054286      7.105E-15 9.838E-21 0.000E+00

 At SCF step   10   max residual=  9.84E-21 < tolwfr=  1.00E-20 =>converged.

 ----iterations are completed or convergence reached----

 dfpt_looppert: DFPT cycle converged with prtwf=-1. Will skip output of the 1st-order WFK file.
 dfpt_looppert : ek2=    3.7353509779E+01
          f-sum rule ratio=    1.3565798887E+00
 prteigrs : about to open file /scratch/users/j/a/jabreu/flow_simple2/flow/w258/t1/tmpdata/tmp_1WF1_EIG
 Expectation of eigenvalue derivatives (hartree) for nkpt=   2  k points:
  (in case of degenerate eigenvalues, averaged derivative)
 kpt#   1, nband= 17, wtk=  0.50000, kpt=  0.5000  0.5000  0.0000 (reduced coord)
   0.00000    0.00000    0.00000    0.00000   -0.00000   -0.00000   -0.00000   -0.00000
  -0.00000    0.00000   -0.00000   -0.00000   -0.00000   -0.00000   -0.00000   -0.00000
   0.00000
 prteigrs : prtvol=0 or 1, do not print more k-points.

 Eight components of 2nd-order total energy (hartree) are
 1,2,3: 0th-order hamiltonian combined with 1st-order wavefunctions
     kin0=   1.02172634E+01 eigvalue=  -5.40796071E-01  local=  -3.18797791E+00
 4,5,6: 1st-order hamiltonian combined with 1st and 0th-order wfs
     kin1=  -5.06730201E+01  Hartree=   0.00000000E+00     xc=   0.00000000E+00
 7,8,9: eventually, occupation + non-local contributions
    edocc=   1.82981759E+01     enl0=   1.71517790E-01   enl1=   7.56654030E-01
 1-9 gives the relaxation energy (to be shifted if some occ is /=2.0)
   erelax=  -2.49581831E+01
  No Ewald or frozen-wf contrib.: the relaxation energy is the total one
 2DEtotal=   -0.2495818305E+02 Ha. Also 2DEtotal=   -0.679146699538E+03 eV
    (  non-var. 2DEtotal :   -2.4958183054E+01 Ha)

 Perturbation wavevector (in red.coord.)   0.000000  0.000000  0.000000
 Perturbation : derivative vs k along direction   2
 The set of symmetries contains only one element for this perturbation.
 symkpt : not enough symmetry to change the number of k points.

[...]

 Perturbation wavevector (in red.coord.)   0.000000  0.000000  0.000000
 Perturbation : derivative vs k along direction   3
 The set of symmetries contains only one element for this perturbation.
 symkpt : not enough symmetry to change the number of k points.

-inwffil : will read wavefunctions from disk file /scratch/users/j/a/jabreu/flow_simple2/flow/w258/t1/indata/in_WFK

 Initialisation of the first-order wave-functions :
  ireadwf=   0

--- !BeginCycle
iteration_state: {dtset: 1, }
solver: {iscf: 7, nstep: 100, nline: 4, wfoptalg: 0, }
tolerances: {tolwfr: 1.00E-20, }
...

     iter   2DEtotal(Ha)        deltaE(Ha) residm    vres2
-ETOT  1  -31.377699556664     -3.138E+01 4.995E-02 0.000E+00
 ETOT  2  -31.379806608372     -2.107E-03 2.632E-05 0.000E+00
 ETOT  3  -31.379806937724     -3.294E-07 1.478E-08 0.000E+00
 ETOT  4  -31.379806937827     -1.027E-10 7.344E-11 0.000E+00
 ETOT  5  -31.379806937827     -5.329E-14 2.986E-14 0.000E+00
 ETOT  6  -31.379806937827     -9.237E-14 1.398E-16 0.000E+00
 ETOT  7  -31.379806937827      2.487E-14 1.285E-19 0.000E+00
 ETOT  8  -31.379806937827      7.105E-15 9.097E-21 0.000E+00

 At SCF step    8   max residual=  9.10E-21 < tolwfr=  1.00E-20 =>converged.

 ----iterations are completed or convergence reached----

 dfpt_looppert: DFPT cycle converged with prtwf=-1. Will skip output of the 1st-order WFK file.
 dfpt_looppert : ek2=    3.7353509779E+01
          f-sum rule ratio=    1.7336392152E+00
 prteigrs : about to open file /scratch/users/j/a/jabreu/flow_simple2/flow/w258/t1/tmpdata/tmp_1WF1_EIG
 Expectation of eigenvalue derivatives (hartree) for nkpt=   2  k points:
  (in case of degenerate eigenvalues, averaged derivative)
 kpt#   1, nband= 17, wtk=  0.50000, kpt=  0.5000  0.5000  0.0000 (reduced coord)
   0.00000   -0.00000   -0.00000    0.00000   -0.00000   -0.00000   -0.00000   -0.00000
   0.00000   -0.00000    0.00000    0.00000   -0.00000   -0.00000   -0.00000    0.00000
   0.00000
 prteigrs : prtvol=0 or 1, do not print more k-points.

 Eight components of 2nd-order total energy (hartree) are
 1,2,3: 0th-order hamiltonian combined with 1st-order wavefunctions
     kin0=   1.08540144E+01 eigvalue=  -6.62911273E-01  local=  -3.54170297E+00
 4,5,6: 1st-order hamiltonian combined with 1st and 0th-order wfs
     kin1=  -6.47575094E+01  Hartree=   0.00000000E+00     xc=   0.00000000E+00
 7,8,9: eventually, occupation + non-local contributions
    edocc=   2.44347538E+01     enl0=   2.95653003E-01   enl1=   1.99789550E+00
 1-9 gives the relaxation energy (to be shifted if some occ is /=2.0)
   erelax=  -3.13798069E+01
  No Ewald or frozen-wf contrib.: the relaxation energy is the total one
 2DEtotal=   -0.3137980694E+02 Ha. Also 2DEtotal=   -0.853887972038E+03 eV
    (  non-var. 2DEtotal :   -3.1379806938E+01 Ha)

 CALCULATION OF EFFECTIVE MASSES
 NOTE : Additional infos (eff. mass eigenvalues, eigenvectors and, if degenerate, average mass) are available in stdout.

 K-point ( 0.500, 0.500, 0.000) | band =     8
 Effective mass tensor:
             -2.0647738536              0.0000000000              0.0000000000
              0.0000000000             -2.0647738536              0.0000000000
              0.0000000000              0.0000000000             -0.3088264781
 Effective mass tensor eigenvalues:
             -2.0647738536             -2.0647738536             -0.3088264781
 Angular average effective mass 1/(<1/m>)=  -0.7131491919
 Angular average effective mass for Frohlich model (<m**0.5>)**2=  -0.9336692821
 Effective masses along directions: (cart. coord. / red. coord. -> eff. mass)
    1:   1.000000  0.000000  0.000000 /   1.000000  0.000000  0.000000 ->  -2.0647738536
    2:   0.000000  1.000000  0.000000 /   0.000000  1.000000  0.000000 ->  -2.0647738536
    3:   0.000000  0.000000  1.000000 /   0.000000  0.000000  1.000000 ->  -0.3088264781
    4:   0.577350  0.577350  0.577350 /   0.577350  0.577350  0.577350 ->  -0.7131491919
    5:   0.000000  0.707107  0.707107 /   0.000000  0.707107  0.707107 ->  -0.5372908225
    6:   0.707107  0.000000  0.707107 /   0.707107  0.000000  0.707107 ->  -0.5372908225
    7:   0.707107  0.707107  0.000000 /   0.707107  0.707107  0.000000 ->  -2.0647738536

 COMMENTS:
 - At k-point ( 0.000, 0.000, 0.000), bands     9 through    10
   are DEGENERATE (effective mass tensor is therefore not defined).
   See Section IIIB Eqs. (67)-(70) and Appendix E of PRB 93 205147 (2016).
 - Angular average effective mass for Frohlich model is to be averaged over degenerate bands. See later.
 - Associated theta integrals calculated with ntheta=   1000 points.

 K-point ( 0.000, 0.000, 0.000) | band =     9
 Transport equivalent effective mass tensor:
              1.8217474483             -0.0000000651              0.0000003246
             -0.0000000651              1.8217458218              0.0000003573
              0.0000003246              0.0000003573              1.8217519472
 Transport equivalent effective mass tensor eigenvalues:
              1.8217519905              1.8217474300              1.8217457967
 Angular average effective mass 1/(<1/m>)=   0.8443043355
 Angular average effective mass for Frohlich model (<m**0.5>)**2=   0.8964235374
 Effective masses along directions: (cart. coord. / red. coord. -> eff. mass)
    1:   1.000000  0.000000  0.000000 /   1.000000  0.000000  0.000000 ->   1.6890560122
    2:   0.000000  1.000000  0.000000 /   0.000000  1.000000  0.000000 ->   1.6890560126
    3:   0.000000  0.000000  1.000000 /   0.000000  0.000000  1.000000 ->   1.6890560123
    4:   0.577350  0.577350  0.577350 /   0.577350  0.577350  0.577350 ->   0.4882241650
    5:   0.000000  0.707107  0.707107 /   0.000000  0.707107  0.707107 ->   0.7574935747
    6:   0.707107  0.000000  0.707107 /   0.707107  0.000000  0.707107 ->   0.7574935655
    7:   0.707107  0.707107  0.000000 /   0.707107  0.707107  0.000000 ->   0.7574936979

 K-point ( 0.000, 0.000, 0.000) | band =    10
 Transport equivalent effective mass tensor:
              0.4015707794             -0.0000000793              0.0000000177
             -0.0000000793              0.4015711710              0.0000000629
              0.0000000177              0.0000000629              0.4015683651
 Transport equivalent effective mass tensor eigenvalues:
              0.4015711877              0.4015707643              0.4015683635
 Angular average effective mass 1/(<1/m>)=   0.3433978833
 Angular average effective mass for Frohlich model (<m**0.5>)**2=   0.3465971840
 Effective masses along directions: (cart. coord. / red. coord. -> eff. mass)
    1:   1.000000  0.000000  0.000000 /   1.000000  0.000000  0.000000 ->   0.2853527949
    2:   0.000000  1.000000  0.000000 /   0.000000  1.000000  0.000000 ->   0.2853528261
    3:   0.000000  0.000000  1.000000 /   0.000000  0.000000  1.000000 ->   0.2853526776
    4:   0.577350  0.577350  0.577350 /   0.577350  0.577350  0.577350 ->   0.4882238492
    5:   0.000000  0.707107  0.707107 /   0.000000  0.707107  0.707107 ->   0.3601868073
    6:   0.707107  0.000000  0.707107 /   0.707107  0.000000  0.707107 ->   0.3601867604
    7:   0.707107  0.707107  0.000000 /   0.707107  0.707107  0.000000 ->   0.3601867306

 Angular average effective mass for Frohlich model, averaged over degenerate bands.
 Value of     (<<m**0.5>>)**2 =     5.894566E-01
 Absolute Value of <<m**0.5>> =     7.677608E-01

 END OF EFFECTIVE MASSES SECTION

 ---- first-order wavefunction calculations are completed ----

 Total localisation tensor (bohr^2) in cartesian coordinates
  WARNING : still subject to testing - especially symmetries.
      direction              matrix element
   alpha     beta       real part   imaginary part
     1        1       1.5560140314    0.0000000000
     1        2       0.0000000000    0.0000000000
     1        3       0.0000000000    0.0000000000
     2        1       0.0000000000    0.0000000000
     2        2       1.5560270002    0.0000000000
     2        3       0.0000000000    0.0000000000
     3        1       0.0000000000    0.0000000000
     3        2       0.0000000000    0.0000000000
     3        3       2.2652666203    0.0000000000

 respfn : d/dk was computed, but no 2DTE, so no DDB output.

== END DATASET(S) ==============================================================

 -outvars: echo values of variables after computation  --------
            acell      1.0000000000E+00  1.0000000000E+00  1.0000000000E+00 Bohr
              amu      8.76200000E+01  1.59994000E+01
             ecut      4.40000000E+01 Hartree
           etotal     -3.1379806938E+01
            fcart      0.0000000000E+00  0.0000000000E+00  0.0000000000E+00
                       0.0000000000E+00  0.0000000000E+00  0.0000000000E+00
-          fftalg         512
           irdden           1
           irdwfk           1
           istwfk        1    1
              ixc     -116133
              kpt      5.00000000E-01  5.00000000E-01  0.00000000E+00
                       0.00000000E+00  0.00000000E+00  0.00000000E+00
           kptopt           0
P           mkmem           2
P          mkqmem           2
P          mk1mem           2
            natom           2
            nband          17
           nbdbuf           4
            ngfft          36      36      36
             nkpt           2
            nstep         100
             nsym          48
           ntypat           2
              occ      2.000000  2.000000  2.000000  2.000000  2.000000  2.000000
                       2.000000  2.000000  0.000000  0.000000  0.000000  0.000000
                       0.000000  0.000000  0.000000  0.000000  0.000000
        optdriver           1
            prtwf          -1
            rfdir           1       1       1
           rfelfd           2
            rprim      5.8155279868E+00  0.0000000000E+00  0.0000000000E+00
                       0.0000000000E+00  5.8155279868E+00  0.0000000000E+00
                       0.0000000000E+00  0.0000000000E+00  5.8155279868E+00
          spgroup         221
           strten      0.0000000000E+00  0.0000000000E+00  0.0000000000E+00
                       0.0000000000E+00  0.0000000000E+00  0.0000000000E+00
           symrel      1  0  0   0  1  0   0  0  1      -1  0  0   0 -1  0   0  0 -1
                      -1  0  0   0  1  0   0  0 -1       1  0  0   0 -1  0   0  0  1
                      -1  0  0   0 -1  0   0  0  1       1  0  0   0  1  0   0  0 -1
                       1  0  0   0 -1  0   0  0 -1      -1  0  0   0  1  0   0  0  1
                       0  1  0   1  0  0   0  0  1       0 -1  0  -1  0  0   0  0 -1
                       0 -1  0   1  0  0   0  0 -1       0  1  0  -1  0  0   0  0  1
                       0 -1  0  -1  0  0   0  0  1       0  1  0   1  0  0   0  0 -1
                       0  1  0  -1  0  0   0  0 -1       0 -1  0   1  0  0   0  0  1
                       0  0  1   1  0  0   0  1  0       0  0 -1  -1  0  0   0 -1  0
                       0  0 -1   1  0  0   0 -1  0       0  0  1  -1  0  0   0  1  0
                       0  0 -1  -1  0  0   0  1  0       0  0  1   1  0  0   0 -1  0
                       0  0  1  -1  0  0   0 -1  0       0  0 -1   1  0  0   0  1  0
                       1  0  0   0  0  1   0  1  0      -1  0  0   0  0 -1   0 -1  0
                      -1  0  0   0  0  1   0 -1  0       1  0  0   0  0 -1   0  1  0
                      -1  0  0   0  0 -1   0  1  0       1  0  0   0  0  1   0 -1  0
                       1  0  0   0  0 -1   0 -1  0      -1  0  0   0  0  1   0  1  0
                       0  1  0   0  0  1   1  0  0       0 -1  0   0  0 -1  -1  0  0
                       0 -1  0   0  0  1  -1  0  0       0  1  0   0  0 -1   1  0  0
                       0 -1  0   0  0 -1   1  0  0       0  1  0   0  0  1  -1  0  0
                       0  1  0   0  0 -1  -1  0  0       0 -1  0   0  0  1   1  0  0
                       0  0  1   0  1  0   1  0  0       0  0 -1   0 -1  0  -1  0  0
                       0  0 -1   0  1  0  -1  0  0       0  0  1   0 -1  0   1  0  0
                       0  0 -1   0 -1  0   1  0  0       0  0  1   0  1  0  -1  0  0
                       0  0  1   0 -1  0  -1  0  0       0  0 -1   0  1  0   1  0  0
           tolwfr      1.00000000E-20
            typat      1  2
           useylm           1
              wtk        0.50000    0.50000
           xangst      0.0000000000E+00  0.0000000000E+00  0.0000000000E+00
                       1.5387224333E+00  1.5387224333E+00  1.5387224333E+00
            xcart      0.0000000000E+00  0.0000000000E+00  0.0000000000E+00
                       2.9077639934E+00  2.9077639934E+00  2.9077639934E+00
             xred      0.0000000000E+00  0.0000000000E+00  0.0000000000E+00
                       5.0000000000E-01  5.0000000000E-01  5.0000000000E-01
            znucl       38.00000    8.00000

- Timing analysis has been suppressed with timopt=0

 Suggested references for the acknowledgment of ABINIT usage.

 Calculation completed.
.Delivered  14 WARNINGs and   9 COMMENTs to log file.