.Version 9.5.1 of ABINIT

 ABINIT is a project of the Universite Catholique de Louvain,
 Corning Inc. and other collaborators, see ~abinit/doc/developers/contributors.txt .
 acknowledgments of the ABINIT effort.

.Starting date : Tue 11 May 2021.
- ( at 21h49 )

- input  file    -> /scratch/users/j/a/jabreu/flow_simple_8atoms/flow/w358/t1/run.abi
- output file    -> /scratch/users/j/a/jabreu/flow_simple_8atoms/flow/w358/t1/run.abo
- root for input  files -> /scratch/users/j/a/jabreu/flow_simple_8atoms/flow/w358/t1/indata/in
- root for output files -> /scratch/users/j/a/jabreu/flow_simple_8atoms/flow/w358/t1/outdata/out

 Symmetries : space group P6_3/m m c (#194); Bravais hP (primitive hexag.)
     intxc =       0      iscf =       7    lmnmax =      18     lnmax =       6
     mgfft =     135  mpssoang =       3    mqgrid =    6580     natom =       8
  nloc_mem =       1    nspden =       1   nspinor =       1    nsppol =       1
      nsym =      24    n1xccc =    2501    ntypat =       3    occopt =       1
   xclevel =       2
-    mband =          53        mffmem =           1         mkmem =           2
-   mkqmem =           2        mk1mem =           2           mpw =        8747
      nfft =      174960          nkpt =           2
  Rough estimation (10% accuracy) of disk space for files :

------------- Echo of variables that govern the present computation ------------
-
- outvars: echo of selected default values
-   iomode0 =  0 , fftalg0 =512 , wfoptalg0 =  0
-
- outvars: echo of global parameters not present in the input file
-  max_nthreads =    0
-
 -outvars: echo values of preprocessed input variables --------
            acell      1.0000000000E+00  1.0000000000E+00  1.0000000000E+00 Bohr
              amu      6.97230000E+01  6.35460000E+01  1.59994000E+01
             ecut      4.60000000E+01 Hartree
-          fftalg         512
           irdden           1
           irdwfk           1
           istwfk        0    1
              ixc     -116133
              kpt      5.00000000E-01  0.00000000E+00  5.55555556E-02
                       0.00000000E+00  0.00000000E+00  0.00000000E+00
           kptopt           0
P           mkmem           2
P          mkqmem           2
P          mk1mem           2
            natom           8
            nband          53
           nbdbuf           4
            ngfft          36      36     135
             nkpt           2
            nstep        2000
             nsym          24
           ntypat           3
              occ      2.000000  2.000000  2.000000  2.000000  2.000000  2.000000
                       2.000000  2.000000  2.000000  2.000000  2.000000  2.000000
                       2.000000  2.000000  2.000000  2.000000  2.000000  2.000000
                       2.000000  2.000000  2.000000  2.000000  2.000000  2.000000
                       2.000000  2.000000  2.000000  2.000000  2.000000  2.000000
                       2.000000  2.000000  2.000000  2.000000  2.000000  2.000000
                       2.000000  2.000000  2.000000  2.000000  2.000000  2.000000
                       2.000000  2.000000  0.000000  0.000000  0.000000  0.000000
                       0.000000  0.000000  0.000000  0.000000  0.000000
        optdriver           1
            prtwf          -1
            rfdir           1       1       1
           rfelfd           2
            rprim      5.6112210217E+00  0.0000000000E+00  0.0000000000E+00
                      -2.8056105108E+00  4.8594599510E+00  0.0000000000E+00
                       0.0000000000E+00  0.0000000000E+00  2.1549792404E+01
          spgroup         194
           symrel      1  0  0   0  1  0   0  0  1      -1  0  0   0 -1  0   0  0 -1
                       0  1  0   1  0  0   0  0  1       0 -1  0  -1  0  0   0  0 -1
                       1  1  0  -1  0  0   0  0  1      -1 -1  0   1  0  0   0  0 -1
                      -1  0  0   1  1  0   0  0  1       1  0  0  -1 -1  0   0  0 -1
                       0  1  0  -1 -1  0   0  0  1       0 -1  0   1  1  0   0  0 -1
                      -1 -1  0   0  1  0   0  0  1       1  1  0   0 -1  0   0  0 -1
                      -1  0  0   0 -1  0   0  0  1       1  0  0   0  1  0   0  0 -1
                       0 -1  0  -1  0  0   0  0  1       0  1  0   1  0  0   0  0 -1
                      -1 -1  0   1  0  0   0  0  1       1  1  0  -1  0  0   0  0 -1
                       1  0  0  -1 -1  0   0  0  1      -1  0  0   1  1  0   0  0 -1
                       0 -1  0   1  1  0   0  0  1       0  1  0  -1 -1  0   0  0 -1
                       1  1  0   0 -1  0   0  0  1      -1 -1  0   0  1  0   0  0 -1
            tnons      0.0000000  0.0000000  0.0000000     0.0000000  0.0000000  0.0000000
                       0.0000000  0.0000000  0.5000000     0.0000000  0.0000000  0.5000000
                       0.0000000  0.0000000  0.5000000     0.0000000  0.0000000  0.5000000
                       0.0000000  0.0000000  0.0000000     0.0000000  0.0000000  0.0000000
                       0.0000000  0.0000000  0.0000000     0.0000000  0.0000000  0.0000000
                       0.0000000  0.0000000  0.5000000     0.0000000  0.0000000  0.5000000
                       0.0000000  0.0000000  0.5000000     0.0000000  0.0000000  0.5000000
                       0.0000000  0.0000000  0.0000000     0.0000000  0.0000000  0.0000000
                       0.0000000  0.0000000  0.0000000     0.0000000  0.0000000  0.0000000
                       0.0000000  0.0000000  0.5000000     0.0000000  0.0000000  0.5000000
                       0.0000000  0.0000000  0.5000000     0.0000000  0.0000000  0.5000000
                       0.0000000  0.0000000  0.0000000     0.0000000  0.0000000  0.0000000
           tolwfr      1.00000000E-20
            typat      1  1  2  2  3  3  3  3
           useylm           1
              wtk        0.50000    0.50000
           xangst      0.0000000000E+00  0.0000000000E+00  6.3303023879E-16
                       0.0000000000E+00  0.0000000000E+00  5.7018294951E+00
                       1.4846651385E+00  8.5717181738E-01  8.5527442426E+00
                       1.7639241746E-11  1.7143436348E+00  2.8509147475E+00
                       1.7639241746E-11  1.7143436348E+00  4.6914539049E+00
                       1.4846651385E+00  8.5717181738E-01  1.0393283400E+01
                       1.7639241746E-11  1.7143436348E+00  1.0103755902E+00
                       1.4846651385E+00  8.5717181738E-01  6.7122050853E+00
            xcart      0.0000000000E+00  0.0000000000E+00  1.1962537852E-15
                       0.0000000000E+00  0.0000000000E+00  1.0774896202E+01
                       2.8056105109E+00  1.6198199837E+00  1.6162344303E+01
                       3.3333336091E-11  3.2396399673E+00  5.3874481011E+00
                       3.3333336091E-11  3.2396399673E+00  8.8655630453E+00
                       2.8056105109E+00  1.6198199837E+00  1.9640459247E+01
                       3.3333336091E-11  3.2396399673E+00  1.9093331568E+00
                       2.8056105109E+00  1.6198199837E+00  1.2684229359E+01
             xred      0.0000000000E+00  0.0000000000E+00  5.5511151231E-17
                       0.0000000000E+00  0.0000000000E+00  5.0000000000E-01
                       6.6666666667E-01  3.3333333333E-01  7.5000000000E-01
                       3.3333333333E-01  6.6666666667E-01  2.5000000000E-01
                       3.3333333333E-01  6.6666666667E-01  4.1139900000E-01
                       6.6666666667E-01  3.3333333333E-01  9.1139900000E-01
                       3.3333333333E-01  6.6666666667E-01  8.8601000000E-02
                       6.6666666667E-01  3.3333333333E-01  5.8860100000E-01
            znucl       31.00000   29.00000    8.00000

 chkinp: Checking input parameters for consistency.

== DATASET  1 ==================================================================
-   mpi_nproc: 1, omp_nthreads: -1 (-1 if OMP is not activated)

--- !DatasetInfo
iteration_state: {dtset: 1, }
dimensions: {natom: 8, nkpt: 2, mband: 53, nsppol: 1, nspinor: 1, nspden: 1, mpw: 8747, }
cutoff_energies: {ecut:  46.0, pawecutdg:  -1.0, }
electrons: {nelect:   8.80000000E+01, charge:   0.00000000E+00, occopt:   1.00000000E+00, tsmear:   1.00000000E-02, }
meta: {optdriver: 1, rfelfd: 2, }
...

 Real(R)+Recip(G) space primitive vectors, cartesian coordinates (Bohr,Bohr^-1):
 R(1)=  5.6112210  0.0000000  0.0000000  G(1)=  0.1782143  0.1028921  0.0000000
 R(2)= -2.8056105  4.8594600  0.0000000  G(2)=  0.0000000  0.2057842  0.0000000
 R(3)=  0.0000000  0.0000000 21.5497924  G(3)=  0.0000000  0.0000000  0.0464042
 Unit cell volume ucvol=  5.8760905E+02 bohr^3
 Angles (23,13,12)=  9.00000000E+01  9.00000000E+01  1.20000000E+02 degrees

 getcut: wavevector=  0.0000  0.0000  0.0000  ngfft=  36  36 135
         ecut(hartree)=     46.000   => boxcut(ratio)=   2.03666

--- Pseudopotential description ------------------------------------------------
- pspini: atom type   1  psp file is /scratch/users/j/a/jabreu/pseudos/PBEsol/Ga.psp8
- pspatm: opening atomic psp file    /scratch/users/j/a/jabreu/pseudos/PBEsol/Ga.psp8
- Ga    ONCVPSP-3.3.0  r_core=   1.66857   1.75011   1.90252
- 31.00000  13.00000    180112                znucl, zion, pspdat
    8 -116133    2    4       600   0.00000   pspcod,pspxc,lmax,lloc,mmax,r2well
    5.99000000000000    5.00000000000000    0.00000000000000   rchrg,fchrg,qchrg
     nproj     2     2     2
     extension_switch     1
  pspatm : epsatm=   24.50969055
         --- l  ekb(1:nproj) -->
             0    7.053021    1.156713
             1    6.846070    1.293139
             2   -8.368667   -2.819170
 pspatm: atomic psp has been read  and splines computed

- pspini: atom type   2  psp file is /scratch/users/j/a/jabreu/pseudos/PBEsol/Cu.psp8
- pspatm: opening atomic psp file    /scratch/users/j/a/jabreu/pseudos/PBEsol/Cu.psp8
- Cu    ONCVPSP-3.3.0  r_core=   1.26204   1.45626   1.76249
- 29.00000  19.00000    180112                znucl, zion, pspdat
    8 -116133    2    4       600   0.00000   pspcod,pspxc,lmax,lloc,mmax,r2well
    5.99000000000000    3.50000000000000    0.00000000000000   rchrg,fchrg,qchrg
     nproj     2     2     2
     extension_switch     1
  pspatm : epsatm=   21.63488701
         --- l  ekb(1:nproj) -->
             0    5.008230   -0.401634
             1   -3.496700   -0.765945
             2   -6.895851   -2.521180
 pspatm: atomic psp has been read  and splines computed

- pspini: atom type   3  psp file is /scratch/users/j/a/jabreu/pseudos/PBEsol/O.psp8
- pspatm: opening atomic psp file    /scratch/users/j/a/jabreu/pseudos/PBEsol/O.psp8
- O     ONCVPSP-3.3.0  r_core=   1.35509   1.45563   1.26150
-  8.00000   6.00000    180112                znucl, zion, pspdat
    8 -116133    2    4       600   0.00000   pspcod,pspxc,lmax,lloc,mmax,r2well
    5.99000000000000    4.00000000000000    0.00000000000000   rchrg,fchrg,qchrg
     nproj     2     2     1
     extension_switch     1
  pspatm : epsatm=    6.22910522
         --- l  ekb(1:nproj) -->
             0    6.050032    0.820363
             1   -4.739617   -1.153841
             2   -1.335834
[...]

 At SCF step   15   max residual=  9.90E-21 < tolwfr=  1.00E-20 =>converged.

 ----iterations are completed or convergence reached----

 dfpt_looppert: DFPT cycle converged with prtwf=-1. Will skip output of the 1st-order WFK file.
 dfpt_looppert : ek2=    2.9423639437E+02
          f-sum rule ratio=    1.1163469189E+00
 prteigrs : about to open file /scratch/users/j/a/jabreu/flow_simple_8atoms/flow/w358/t1/tmpdata/tmp_1WF1_EIG
 Expectation of eigenvalue derivatives (hartree) for nkpt=   2  k points:
  (in case of degenerate eigenvalues, averaged derivative)
 kpt#   1, nband= 53, wtk=  0.50000, kpt=  0.5000  0.0000  0.0556 (reduced coord)
  -0.00000   -0.00000   -0.00000    0.00000    0.00000   -0.00000   -0.00000   -0.00000
   0.00000   -0.00000    0.00000   -0.00000   -0.00000    0.00000   -0.00000    0.00000
  -0.00000    0.00000   -0.00000    0.00000   -0.00000    0.00000    0.00000   -0.00000
   0.00000   -0.00000   -0.00000   -0.00000    0.00000    0.00000   -0.00000    0.00000
  -0.00000    0.00000   -0.00000   -0.00000   -0.00000    0.00000   -0.00000    0.00000
  -0.00000    0.00000   -0.00000    0.00000   -0.00000    0.00000    0.00000   -0.00000
   0.00000    0.00000   -0.00000    0.00004   -0.00053
 prteigrs : prtvol=0 or 1, do not print more k-points.

 Eight components of 2nd-order total energy (hartree) are
 1,2,3: 0th-order hamiltonian combined with 1st-order wavefunctions
     kin0=   3.06884247E+02 eigvalue=   1.92769052E+00  local=  -1.08567759E+02
 4,5,6: 1st-order hamiltonian combined with 1st and 0th-order wfs
     kin1=  -3.28469892E+02  Hartree=   0.00000000E+00     xc=   0.00000000E+00
 7,8,9: eventually, occupation + non-local contributions
    edocc=   3.33718419E+01     enl0=   5.78794206E+00   enl1=  -1.50338033E+02
 1-9 gives the relaxation energy (to be shifted if some occ is /=2.0)
   erelax=  -2.39403963E+02
  No Ewald or frozen-wf contrib.: the relaxation energy is the total one
 2DEtotal=   -0.2394039628E+03 Ha. Also 2DEtotal=   -0.651451312826E+04 eV
    (  non-var. 2DEtotal :   -2.3940396276E+02 Ha)

 Perturbation wavevector (in red.coord.)   0.000000  0.000000  0.000000
 Perturbation : derivative vs k along direction   2
 The set of symmetries contains only one element for this perturbation.
 symkpt : not enough symmetry to change the number of k points.

[...]

 Perturbation wavevector (in red.coord.)   0.000000  0.000000  0.000000
 Perturbation : derivative vs k along direction   3
 The set of symmetries contains only one element for this perturbation.
 symkpt : not enough symmetry to change the number of k points.

-inwffil : will read wavefunctions from disk file /scratch/users/j/a/jabreu/flow_simple_8atoms/flow/w358/t1/indata/in_WFK

 Initialisation of the first-order wave-functions :
  ireadwf=   0

--- !BeginCycle
iteration_state: {dtset: 1, }
solver: {iscf: 7, nstep: 2000, nline: 4, wfoptalg: 0, }
tolerances: {tolwfr: 1.00E-20, }
...

     iter   2DEtotal(Ha)        deltaE(Ha) residm    vres2
-ETOT  1  -11.486009969160     -1.149E+01 5.992E-02 0.000E+00
 ETOT  2  -11.507225056617     -2.122E-02 3.699E-04 0.000E+00
 ETOT  3  -11.507494568420     -2.695E-04 2.047E-05 0.000E+00
 ETOT  4  -11.507501308193     -6.740E-06 6.313E-07 0.000E+00
 ETOT  5  -11.507501511492     -2.033E-07 4.137E-08 0.000E+00
 ETOT  6  -11.507501518188     -6.696E-09 1.418E-09 0.000E+00
 ETOT  7  -11.507501518424     -2.364E-10 1.036E-10 0.000E+00
 ETOT  8  -11.507501518433     -8.784E-12 3.889E-12 0.000E+00
 ETOT  9  -11.507501518434     -3.428E-13 2.884E-13 0.000E+00
 ETOT 10  -11.507501518434     -1.066E-14 1.113E-14 0.000E+00
 ETOT 11  -11.507501518434     -1.776E-15 8.191E-16 0.000E+00
 ETOT 12  -11.507501518434     -1.776E-15 3.187E-17 0.000E+00
 ETOT 13  -11.507501518434      0.000E+00 2.330E-18 0.000E+00
 ETOT 14  -11.507501518434      0.000E+00 9.108E-20 0.000E+00
 ETOT 15  -11.507501518434      3.553E-15 9.555E-21 0.000E+00

 At SCF step   15   max residual=  9.56E-21 < tolwfr=  1.00E-20 =>converged.

 ----iterations are completed or convergence reached----

 dfpt_looppert: DFPT cycle converged with prtwf=-1. Will skip output of the 1st-order WFK file.
 dfpt_looppert : ek2=    1.4961881918E+01
          f-sum rule ratio=    1.0098106907E+00
 prteigrs : about to open file /scratch/users/j/a/jabreu/flow_simple_8atoms/flow/w358/t1/tmpdata/tmp_1WF1_EIG
 Expectation of eigenvalue derivatives (hartree) for nkpt=   2  k points:
  (in case of degenerate eigenvalues, averaged derivative)
 kpt#   1, nband= 53, wtk=  0.50000, kpt=  0.5000  0.0000  0.0556 (reduced coord)
   0.00000    0.00000   -0.00000   -0.00000    0.00000   -0.00000   -0.00000   -0.00000
   0.00056   -0.00632    0.00648   -0.00072    0.00005   -0.00004    0.00001   -0.00001
   0.00002   -0.00002    0.00000   -0.00000    0.00070   -0.00074    0.00041   -0.00170
   0.00516   -0.00293    0.00035    0.00185   -0.05408   -0.00290    0.06007   -0.00523
   0.00607   -0.00756    0.00006   -0.00002   -0.00060   -0.00606    0.00657    0.00000
  -0.00000   -0.00406    0.00370   -0.00000    0.00693   -0.00504   -0.01330   -0.00414
   0.02335   -0.06126    0.06870   -0.02371    0.00243
 prteigrs : prtvol=0 or 1, do not print more k-points.

 Eight components of 2nd-order total energy (hartree) are
 1,2,3: 0th-order hamiltonian combined with 1st-order wavefunctions
     kin0=   1.58717019E+01 eigvalue=   6.65341635E-02  local=  -5.74911827E+00
 4,5,6: 1st-order hamiltonian combined with 1st and 0th-order wfs
     kin1=  -1.51086683E+01  Hartree=   0.00000000E+00     xc=   0.00000000E+00
 7,8,9: eventually, occupation + non-local contributions
    edocc=   1.16765155E+00     enl0=   1.50732147E-01   enl1=  -7.90633472E+00
 1-9 gives the relaxation energy (to be shifted if some occ is /=2.0)
   erelax=  -1.15075015E+01
  No Ewald or frozen-wf contrib.: the relaxation energy is the total one
 2DEtotal=   -0.1150750152E+02 Ha. Also 2DEtotal=   -0.313135041088E+03 eV
    (  non-var. 2DEtotal :   -1.1507501518E+01 Ha)

 CALCULATION OF EFFECTIVE MASSES
 NOTE : Additional infos (eff. mass eigenvalues, eigenvectors and, if degenerate, average mass) are available in stdout.

 K-point ( 0.500, 0.000, 0.056) | band =    44
 Effective mass tensor:
            -31.1717246095             51.7565797161             -0.0196927221
             51.7565797161            -90.9350139159              0.0514501561
             -0.0196927221              0.0514501561            -66.1952055888
 Effective mass tensor eigenvalues:
           -120.8167586227            -66.1951525608             -1.2900329306
 Angular average effective mass 1/(<1/m>)=  -3.7567722682
 Angular average effective mass for Frohlich model (<m**0.5>)**2= -10.2490404876
 Effective masses along directions: (cart. coord. / red. coord. -> eff. mass)
    1:   1.000000  0.000000  0.000000 /   0.894427 -0.447214  0.000000 ->  -1.7139442132
    2:   0.000000  1.000000  0.000000 /   0.000000  1.000000  0.000000 ->  -4.9999640247
    3:   0.000000  0.000000  1.000000 /   0.000000  0.000000  1.000000 -> -66.1951228128
    4:   0.577350  0.577350  0.577350 /   0.250917  0.091842  0.963642 ->  -2.0505911843
    5:   0.000000  0.707107  0.707107 /   0.000000  0.219976  0.975505 ->  -9.2927470426
    6:   0.707107  0.000000  0.707107 /   0.250005 -0.125003  0.960141 ->  -3.3404290704
    7:   0.707107  0.707107  0.000000 /   0.939071  0.343724  0.000000 ->  -1.3815937918

 K-point ( 0.000, 0.000, 0.000) | band =    45
 Effective mass tensor:
              0.5201959653              0.0000065360              0.0000140815
              0.0000065360              0.5201779714             -0.0000067392
              0.0000140815             -0.0000067392              0.4047585238
 Effective mass tensor eigenvalues:
              0.4047585217              0.5201758489              0.5201980900
 Angular average effective mass 1/(<1/m>)=   0.4750307738
 Angular average effective mass for Frohlich model (<m**0.5>)**2=   0.4771106291
 Effective masses along directions: (cart. coord. / red. coord. -> eff. mass)
    1:   1.000000  0.000000  0.000000 /   0.894427 -0.447214  0.000000 ->   0.5201959648
    2:   0.000000  1.000000  0.000000 /   0.000000  1.000000  0.000000 ->   0.5201779712
    3:   0.000000  0.000000  1.000000 /   0.000000  0.000000  1.000000 ->   0.4047585234
    4:   0.577350  0.577350  0.577350 /   0.250917  0.091842  0.963642 ->   0.4750396534
    5:   0.000000  0.707107  0.707107 /   0.000000  0.219976  0.975505 ->   0.4552602272
    6:   0.707107  0.000000  0.707107 /   0.250005 -0.125003  0.960141 ->   0.4552876156
    7:   0.707107  0.707107  0.000000 /   0.939071  0.343724  0.000000 ->   0.5201935042

 END OF EFFECTIVE MASSES SECTION

 ---- first-order wavefunction calculations are completed ----

 Total localisation tensor (bohr^2) in cartesian coordinates
  WARNING : still subject to testing - especially symmetries.
      direction              matrix element
   alpha     beta       real part   imaginary part
     1        1       1.4263061224    0.0000000000
     1        2      -0.4469090882    0.0000000000
     1        3       0.0000000000    0.0000000000
     2        1      -0.4469090882    0.0000000000
     2        2       0.7740692471    0.0000000000
     2        3       0.0000000000    0.0000000000
     3        1       0.0000000000    0.0000000000
     3        2       0.0000000000    0.0000000000
     3        3       0.5256515114    0.0000000000

 respfn : d/dk was computed, but no 2DTE, so no DDB output.

== END DATASET(S) ==============================================================

 -outvars: echo values of variables after computation  --------
            acell      1.0000000000E+00  1.0000000000E+00  1.0000000000E+00 Bohr
              amu      6.97230000E+01  6.35460000E+01  1.59994000E+01
             ecut      4.60000000E+01 Hartree
           etotal     -1.1507501518E+01
            fcart      0.0000000000E+00  0.0000000000E+00  0.0000000000E+00
                       0.0000000000E+00  0.0000000000E+00  0.0000000000E+00
                       0.0000000000E+00  0.0000000000E+00  0.0000000000E+00
                       0.0000000000E+00  0.0000000000E+00  0.0000000000E+00
                       0.0000000000E+00  0.0000000000E+00  0.0000000000E+00
                       0.0000000000E+00  0.0000000000E+00  0.0000000000E+00
                       0.0000000000E+00  0.0000000000E+00  0.0000000000E+00
                       0.0000000000E+00  0.0000000000E+00  0.0000000000E+00
-          fftalg         512
           irdden           1
           irdwfk           1
           istwfk        0    1
              ixc     -116133
              kpt      5.00000000E-01  0.00000000E+00  5.55555556E-02
                       0.00000000E+00  0.00000000E+00  0.00000000E+00
           kptopt           0
P           mkmem           2
P          mkqmem           2
P          mk1mem           2
            natom           8
            nband          53
           nbdbuf           4
            ngfft          36      36     135
             nkpt           2
            nstep        2000
             nsym          24
           ntypat           3
              occ      2.000000  2.000000  2.000000  2.000000  2.000000  2.000000
                       2.000000  2.000000  2.000000  2.000000  2.000000  2.000000
                       2.000000  2.000000  2.000000  2.000000  2.000000  2.000000
                       2.000000  2.000000  2.000000  2.000000  2.000000  2.000000
                       2.000000  2.000000  2.000000  2.000000  2.000000  2.000000
                       2.000000  2.000000  2.000000  2.000000  2.000000  2.000000
                       2.000000  2.000000  2.000000  2.000000  2.000000  2.000000
                       2.000000  2.000000  0.000000  0.000000  0.000000  0.000000
                       0.000000  0.000000  0.000000  0.000000  0.000000
        optdriver           1
            prtwf          -1
            rfdir           1       1       1
           rfelfd           2
            rprim      5.6112210217E+00  0.0000000000E+00  0.0000000000E+00
                      -2.8056105108E+00  4.8594599510E+00  0.0000000000E+00
                       0.0000000000E+00  0.0000000000E+00  2.1549792404E+01
          spgroup         194
           strten      0.0000000000E+00  0.0000000000E+00  0.0000000000E+00
                       0.0000000000E+00  0.0000000000E+00  0.0000000000E+00
           symrel      1  0  0   0  1  0   0  0  1      -1  0  0   0 -1  0   0  0 -1
                       0  1  0   1  0  0   0  0  1       0 -1  0  -1  0  0   0  0 -1
                       1  1  0  -1  0  0   0  0  1      -1 -1  0   1  0  0   0  0 -1
                      -1  0  0   1  1  0   0  0  1       1  0  0  -1 -1  0   0  0 -1
                       0  1  0  -1 -1  0   0  0  1       0 -1  0   1  1  0   0  0 -1
                      -1 -1  0   0  1  0   0  0  1       1  1  0   0 -1  0   0  0 -1
                      -1  0  0   0 -1  0   0  0  1       1  0  0   0  1  0   0  0 -1
                       0 -1  0  -1  0  0   0  0  1       0  1  0   1  0  0   0  0 -1
                      -1 -1  0   1  0  0   0  0  1       1  1  0  -1  0  0   0  0 -1
                       1  0  0  -1 -1  0   0  0  1      -1  0  0   1  1  0   0  0 -1
                       0 -1  0   1  1  0   0  0  1       0  1  0  -1 -1  0   0  0 -1
                       1  1  0   0 -1  0   0  0  1      -1 -1  0   0  1  0   0  0 -1
            tnons      0.0000000  0.0000000  0.0000000     0.0000000  0.0000000  0.0000000
                       0.0000000  0.0000000  0.5000000     0.0000000  0.0000000  0.5000000
                       0.0000000  0.0000000  0.5000000     0.0000000  0.0000000  0.5000000
                       0.0000000  0.0000000  0.0000000     0.0000000  0.0000000  0.0000000
                       0.0000000  0.0000000  0.0000000     0.0000000  0.0000000  0.0000000
                       0.0000000  0.0000000  0.5000000     0.0000000  0.0000000  0.5000000
                       0.0000000  0.0000000  0.5000000     0.0000000  0.0000000  0.5000000
                       0.0000000  0.0000000  0.0000000     0.0000000  0.0000000  0.0000000
                       0.0000000  0.0000000  0.0000000     0.0000000  0.0000000  0.0000000
                       0.0000000  0.0000000  0.5000000     0.0000000  0.0000000  0.5000000
                       0.0000000  0.0000000  0.5000000     0.0000000  0.0000000  0.5000000
                       0.0000000  0.0000000  0.0000000     0.0000000  0.0000000  0.0000000
           tolwfr      1.00000000E-20
            typat      1  1  2  2  3  3  3  3
           useylm           1
              wtk        0.50000    0.50000
           xangst      0.0000000000E+00  0.0000000000E+00  6.3303023879E-16
                       0.0000000000E+00  0.0000000000E+00  5.7018294951E+00
                       1.4846651385E+00  8.5717181738E-01  8.5527442426E+00
                       1.7639241746E-11  1.7143436348E+00  2.8509147475E+00
                       1.7639241746E-11  1.7143436348E+00  4.6914539049E+00
                       1.4846651385E+00  8.5717181738E-01  1.0393283400E+01
                       1.7639241746E-11  1.7143436348E+00  1.0103755902E+00
                       1.4846651385E+00  8.5717181738E-01  6.7122050853E+00
            xcart      0.0000000000E+00  0.0000000000E+00  1.1962537852E-15
                       0.0000000000E+00  0.0000000000E+00  1.0774896202E+01
                       2.8056105109E+00  1.6198199837E+00  1.6162344303E+01
                       3.3333336091E-11  3.2396399673E+00  5.3874481011E+00
                       3.3333336091E-11  3.2396399673E+00  8.8655630453E+00
                       2.8056105109E+00  1.6198199837E+00  1.9640459247E+01
                       3.3333336091E-11  3.2396399673E+00  1.9093331568E+00
                       2.8056105109E+00  1.6198199837E+00  1.2684229359E+01
             xred      0.0000000000E+00  0.0000000000E+00  5.5511151231E-17
                       0.0000000000E+00  0.0000000000E+00  5.0000000000E-01
                       6.6666666667E-01  3.3333333333E-01  7.5000000000E-01
                       3.3333333333E-01  6.6666666667E-01  2.5000000000E-01
                       3.3333333333E-01  6.6666666667E-01  4.1139900000E-01
                       6.6666666667E-01  3.3333333333E-01  9.1139900000E-01
                       3.3333333333E-01  6.6666666667E-01  8.8601000000E-02
                       6.6666666667E-01  3.3333333333E-01  5.8860100000E-01
            znucl       31.00000   29.00000    8.00000

- Timing analysis has been suppressed with timopt=0

 Suggested references for the acknowledgment of ABINIT usage.

 Calculation completed.
.Delivered  14 WARNINGs and   9 COMMENTs to log file.