.Version 9.5.2 of ABINIT

 ABINIT is a project of the Universite Catholique de Louvain,
 Corning Inc. and other collaborators, see ~abinit/doc/developers/contributors.txt .
 acknowledgments of the ABINIT effort.

.Starting date : Wed 26 May 2021.
- ( at 03h05 )

- input  file    -> /scratch/users/j/a/jabreu/flow_simple_11atoms/flow/w280/t1/run.abi
- output file    -> /scratch/users/j/a/jabreu/flow_simple_11atoms/flow/w280/t1/run.abo
- root for input  files -> /scratch/users/j/a/jabreu/flow_simple_11atoms/flow/w280/t1/indata/in
- root for output files -> /scratch/users/j/a/jabreu/flow_simple_11atoms/flow/w280/t1/outdata/out

 Symmetries : space group P2_1/c (# 14); Bravais mP (primitive monocl.)
     intxc =       0      iscf =       7    lmnmax =      18     lnmax =       6
     mgfft =      72  mpssoang =       3    mqgrid =    3428     natom =      12
  nloc_mem =       1    nspden =       1   nspinor =       1    nsppol =       1
      nsym =       4    n1xccc =    2501    ntypat =       2    occopt =       1
   xclevel =       2
-    mband =         103        mffmem =           1         mkmem =           2
-   mkqmem =           2        mk1mem =           2           mpw =       19386
      nfft =      373248          nkpt =           2
  Rough estimation (10% accuracy) of disk space for files :

------------- Echo of variables that govern the present computation ------------
-
- outvars: echo of selected default values
-   iomode0 =  0 , fftalg0 =512 , wfoptalg0 =  0
-
- outvars: echo of global parameters not present in the input file
-  max_nthreads =    0
-
 -outvars: echo values of preprocessed input variables --------
            acell      1.0000000000E+00  1.0000000000E+00  1.0000000000E+00 Bohr
              amu      7.49215900E+01  1.02905500E+02
             ecut      4.40000000E+01 Hartree
-          fftalg         512
           irdden           1
           irdwfk           1
           istwfk        1    1
              ixc     -116133
              kpt      0.00000000E+00  5.00000000E-01  0.00000000E+00
                       5.00000000E-01  5.00000000E-01  5.00000000E-01
           kptopt           0
P           mkmem           2
P          mkqmem           2
P          mk1mem           2
            natom          12
            nband         103
           nbdbuf           4
            ngfft          72      72      72
             nkpt           2
            nstep        2000
             nsym           4
           ntypat           2
              occ      2.000000  2.000000  2.000000  2.000000  2.000000  2.000000
                       2.000000  2.000000  2.000000  2.000000  2.000000  2.000000
                       2.000000  2.000000  2.000000  2.000000  2.000000  2.000000
                       2.000000  2.000000  2.000000  2.000000  2.000000  2.000000
                       2.000000  2.000000  2.000000  2.000000  2.000000  2.000000
                       2.000000  2.000000  2.000000  2.000000  2.000000  2.000000
                       2.000000  2.000000  2.000000  2.000000  2.000000  2.000000
                       2.000000  2.000000  2.000000  2.000000  2.000000  2.000000
                       2.000000  2.000000  2.000000  2.000000  2.000000  2.000000
                       2.000000  2.000000  2.000000  2.000000  2.000000  2.000000
                       2.000000  2.000000  2.000000  2.000000  2.000000  2.000000
                       2.000000  2.000000  2.000000  2.000000  2.000000  2.000000
                       2.000000  2.000000  2.000000  2.000000  2.000000  2.000000
                       2.000000  2.000000  2.000000  2.000000  2.000000  2.000000
                       2.000000  2.000000  2.000000  2.000000  2.000000  2.000000
                       2.000000  2.000000  2.000000  2.000000  0.000000  0.000000
                       0.000000  0.000000  0.000000  0.000000  0.000000  0.000000
                       0.000000
        optdriver           1
            prtwf          -1
            rfdir           1       1       1
           rfelfd           2
            rprim      1.1477002287E+01  0.0000000000E+00  0.0000000000E+00
                       0.0000000000E+00  1.0412933133E+01  4.7298704479E+00
                       0.0000000000E+00  0.0000000000E+00  1.1624489572E+01
          spgroup          14
           symrel      1  0  0   0  1  0   0  0  1      -1  0  0   0 -1  0   0  0 -1
                       1  0  0   0 -1  0   0  0 -1      -1  0  0   0  1  0   0  0  1
            tnons      0.0000000  0.0000000  0.0000000    -0.0000000  0.0000000  0.0000000
                       0.5000000  0.0000000  0.5000000     0.5000000  0.0000000  0.5000000
           tolwfr      1.00000000E-20
            typat      1  1  1  1  1  1  1  1  2  2  2  2
           useylm           1
              wtk        0.50000    0.50000
           xangst      5.2875288702E+00  4.6490676198E+00  7.4756708003E+00
                       2.2508448535E+00  8.6121926866E-01  4.2543912550E+00
                       7.8583916321E-01  8.6121926866E-01  1.1786837834E+00
                       3.8225231799E+00  4.6490676198E+00  4.3999633287E+00
                       2.2462412405E+00  3.6446249743E+00  2.7871751501E+00
                       5.2829252572E+00  1.8656619141E+00  2.7914719621E+00
                       3.8271267929E+00  1.8656619141E+00  5.8671794337E+00
                       7.9044277618E-01  3.6446249743E+00  5.8628826216E+00
                       3.0347769792E+00  4.0083369707E+00  6.6857394271E+00
                       6.0714609959E+00  1.5019499178E+00  5.0443226282E+00
                       3.0385910543E+00  1.5019499178E+00  1.9686151566E+00
                       1.9070375625E-03  4.0083369707E+00  3.6100319555E+00
            xcart      9.9919814844E+00  8.7854645747E+00  1.4126970472E+01
                       4.2534803407E+00  1.6274685581E+00  8.0396343341E+00
                       1.4850208030E+00  1.6274685581E+00  2.2273895480E+00
                       7.2235219467E+00  8.7854645747E+00  8.3147256860E+00
                       4.2447807730E+00  6.8873430586E+00  5.2669977180E+00
                       9.9832819167E+00  3.5255900742E+00  5.2751175160E+00
                       7.2322215144E+00  3.5255900742E+00  1.1087362302E+01
                       1.4937203707E+00  6.8873430586E+00  1.1079242504E+01
                       5.7348973650E+00  7.5746591229E+00  1.2634216513E+01
                       1.1473398509E+01  2.8382740099E+00  9.5323882932E+00
                       5.7421049224E+00  2.8382740099E+00  3.7201435071E+00
                       3.6037787182E-03  7.5746591229E+00  6.8219717269E+00
             xred      8.7060900000E-01  8.4370700000E-01  8.7198200000E-01
                       3.7060900000E-01  1.5629300000E-01  6.2801800000E-01
                       1.2939100000E-01  1.5629300000E-01  1.2801800000E-01
                       6.2939100000E-01  8.4370700000E-01  3.7198200000E-01
                       3.6985100000E-01  6.6142200000E-01  1.8397000000E-01
                       8.6985100000E-01  3.3857800000E-01  3.1603000000E-01
                       6.3014900000E-01  3.3857800000E-01  8.1603000000E-01
                       1.3014900000E-01  6.6142200000E-01  6.8397000000E-01
                       4.9968600000E-01  7.2742800000E-01  7.9088000000E-01
                       9.9968600000E-01  2.7257200000E-01  7.0912000000E-01
                       5.0031400000E-01  2.7257200000E-01  2.0912000000E-01
                       3.1400000000E-04  7.2742800000E-01  2.9088000000E-01
            znucl       33.00000   45.00000

 chkinp: Checking input parameters for consistency.

== DATASET  1 ==================================================================
-   mpi_nproc: 1, omp_nthreads: -1 (-1 if OMP is not activated)

--- !DatasetInfo
iteration_state: {dtset: 1, }
dimensions: {natom: 12, nkpt: 2, mband: 103, nsppol: 1, nspinor: 1, nspden: 1, mpw: 19386, }
cutoff_energies: {ecut:  44.0, pawecutdg:  -1.0, }
electrons: {nelect:   1.88000000E+02, charge:   0.00000000E+00, occopt:   1.00000000E+00, tsmear:   1.00000000E-02, }
meta: {optdriver: 1, rfelfd: 2, }
...

 Real(R)+Recip(G) space primitive vectors, cartesian coordinates (Bohr,Bohr^-1):
 R(1)= 11.4770023  0.0000000  0.0000000  G(1)=  0.0871308  0.0000000  0.0000000
 R(2)=  0.0000000 10.4129331  4.7298704  G(2)=  0.0000000  0.0960344  0.0000000
 R(3)=  0.0000000  0.0000000 11.6244896  G(3)=  0.0000000 -0.0390753  0.0860253
 Unit cell volume ucvol=  1.3892341E+03 bohr^3
 Angles (23,13,12)=  6.55710088E+01  9.00000000E+01  9.00000000E+01 degrees

 getcut: wavevector=  0.0000  0.0000  0.0000  ngfft=  72  72  72
         ecut(hartree)=     44.000   => boxcut(ratio)=   2.07440

--- Pseudopotential description ------------------------------------------------
- pspini: atom type   1  psp file is /scratch/users/j/a/jabreu/pseudos/PBEsol/As.psp8
- pspatm: opening atomic psp file    /scratch/users/j/a/jabreu/pseudos/PBEsol/As.psp8
- As    ONCVPSP-3.3.0  r_core=   1.76603   1.70395   1.80867
- 33.00000  15.00000    180112                znucl, zion, pspdat
    8 -116133    2    4       600   0.00000   pspcod,pspxc,lmax,lloc,mmax,r2well
    5.99000000000000    5.00000000000000    0.00000000000000   rchrg,fchrg,qchrg
     nproj     2     2     2
     extension_switch     1
  pspatm : epsatm=   28.79155382
         --- l  ekb(1:nproj) -->
             0    8.270760    0.868950
             1    4.919053    0.756587
             2  -10.048665   -4.076802
 pspatm: atomic psp has been read  and splines computed

- pspini: atom type   2  psp file is /scratch/users/j/a/jabreu/pseudos/PBEsol/Rh.psp8
- pspatm: opening atomic psp file    /scratch/users/j/a/jabreu/pseudos/PBEsol/Rh.psp8
- Rh    ONCVPSP-3.3.0  r_core=   1.40787   1.40787   1.35838
- 45.00000  17.00000    180112                znucl, zion, pspdat
    8 -116133    2    4       600   0.00000   pspcod,pspxc,lmax,lloc,mmax,r2well
    5.99000000000000    7.00000000000000    0.00000000000000   rchrg,fchrg,qchrg
     nproj     2     2     2
     extension_switch     1
  pspatm : epsatm=   21.51201928
         --- l  ekb(1:nproj) -->
             0   16.263264    1.496972
             1    7.329212    1.051636
             2    0.393200    0.129871
 pspatm: atomic psp has been read  and splines computed

   5.94795354E+04                                ecore*ucvol(ha*bohr**3)

 ==>  initialize data related to q vector <==

 The list of irreducible perturbations for this q vector is:
    1)    idir= 1    ipert=  13
    2)    idir= 2    ipert=  13
    3)    idir= 3    ipert=  13

 Perturbation wavevector (in red.coord.)   0.000000  0.000000  0.000000
 Perturbation : derivative vs k along direction   1

 dfpt_looppert : COMMENT -
  In a d/dk calculation, iscf is set to -3 automatically.
 The set of symmetries contains only one element for this perturbation.
 symkpt : not enough symmetry to change the number of k points.

 Initialisation of the first-order wave-functions :
  ireadwf=   0

--- !BeginCycle
iteration_state: {dtset: 1, }
solver: {iscf: 7, nstep: 2000, nline: 4, wfoptalg: 0, }
tolerances: {tolwfr: 1.00E-20, }
...

[...]
 ETOT 39  -131.65004262605     -2.842E-14 2.512E-15 0.000E+00
 ETOT 40  -131.65004262605      2.842E-14 1.510E-15 0.000E+00
 ETOT 41  -131.65004262605     -2.842E-14 5.289E-16 0.000E+00
 ETOT 42  -131.65004262605      2.842E-14 3.181E-16 0.000E+00
 ETOT 43  -131.65004262605      2.842E-14 1.114E-16 0.000E+00
 ETOT 44  -131.65004262605      0.000E+00 6.701E-17 0.000E+00
 ETOT 45  -131.65004262605      0.000E+00 2.346E-17 0.000E+00
 ETOT 46  -131.65004262605      0.000E+00 1.412E-17 0.000E+00
 ETOT 47  -131.65004262605      0.000E+00 4.942E-18 0.000E+00
 ETOT 48  -131.65004262605      0.000E+00 2.975E-18 0.000E+00
 ETOT 49  -131.65004262605      0.000E+00 1.041E-18 0.000E+00
 ETOT 50  -131.65004262605      0.000E+00 6.271E-19 0.000E+00
 ETOT 51  -131.65004262605     -2.842E-14 2.194E-19 0.000E+00
 ETOT 52  -131.65004262605      2.842E-14 1.322E-19 0.000E+00
 ETOT 53  -131.65004262605     -2.842E-14 4.623E-20 0.000E+00
 ETOT 54  -131.65004262605      2.842E-14 2.787E-20 0.000E+00
 ETOT 55  -131.65004262605     -2.842E-14 9.912E-21 0.000E+00

 At SCF step   55   max residual=  9.91E-21 < tolwfr=  1.00E-20 =>converged.

 ----iterations are completed or convergence reached----

 dfpt_looppert: DFPT cycle converged with prtwf=-1. Will skip output of the 1st-order WFK file.
 dfpt_looppert : ek2=    1.3251474562E+02
          f-sum rule ratio=    9.9008862455E-01
 prteigrs : about to open file /scratch/users/j/a/jabreu/flow_simple_11atoms/flow/w280/t1/tmpdata/tmp_1WF1_EIG
 Expectation of eigenvalue derivatives (hartree) for nkpt=   2  k points:
  (in case of degenerate eigenvalues, averaged derivative)
 kpt#   1, nband=103, wtk=  0.50000, kpt=  0.0000  0.5000  0.0000 (reduced coord)
  -0.00000    0.00000    0.00000    0.00000    0.00000    0.00000   -0.00000   -0.00000
  -0.00000    0.00000    0.00000    0.00000    0.00000   -0.00000   -0.00000   -0.00000
   0.00000    0.00000    0.00000    0.00000    0.00000    0.00000    0.00000   -0.00000
  -0.00000    0.00000    0.00000    0.00000   -0.00000    0.00000    0.00000    0.00000
   0.00000   -0.00000   -0.00000    0.00000    0.00000    0.00000   -0.00000    0.00000
   0.00000   -0.00000   -0.00000   -0.00000   -0.00000   -0.00000    0.00000    0.00000
   0.00000    0.00000    0.00000    0.00000    0.00000   -0.00000    0.00000   -0.00000
  -0.00000    0.00000   -0.00000   -0.00000   -0.00000   -0.00000    0.00000   -0.00000
   0.00000   -0.00000    0.00000    0.00000    0.00000   -0.00000    0.00000    0.00000
   0.00000   -0.00000   -0.00000    0.00000    0.00000    0.00000   -0.00000    0.00000
   0.00000    0.00000    0.00000   -0.00000    0.00000    0.00000    0.00000    0.00000
   0.00000    0.00000   -0.00000    0.00000    0.00000   -0.00000   -0.00000    0.00000
  -0.00000    0.00000    0.00000    0.00000   -0.00000    0.00000   -0.00000
 prteigrs : prtvol=0 or 1, do not print more k-points.

 Eight components of 2nd-order total energy (hartree) are
 1,2,3: 0th-order hamiltonian combined with 1st-order wavefunctions
     kin0=   1.76289111E+02 eigvalue=   5.80794563E+00  local=  -7.55509357E+01
 4,5,6: 1st-order hamiltonian combined with 1st and 0th-order wfs
     kin1=  -1.31201342E+02  Hartree=   0.00000000E+00     xc=   0.00000000E+00
 7,8,9: eventually, occupation + non-local contributions
    edocc=   1.12110085E+01     enl0=   1.38929135E+01   enl1=  -1.32098743E+02
 1-9 gives the relaxation energy (to be shifted if some occ is /=2.0)
   erelax=  -1.31650043E+02
  No Ewald or frozen-wf contrib.: the relaxation energy is the total one
 2DEtotal=   -0.1316500426E+03 Ha. Also 2DEtotal=   -0.358237984508E+04 eV
    (  non-var. 2DEtotal :   -1.3165004263E+02 Ha)

 CALCULATION OF EFFECTIVE MASSES
 NOTE : Additional infos (eff. mass eigenvalues, eigenvectors and, if degenerate, average mass) are available in stdout.

--- !WARNING
src_file: m_efmas.F90
src_line: 0
message: |
    Effective masses calculations require given k-point(s) to be band extrema for given bands, but max abs gradient of band(s) was found to be greater than 1e-5. Abinit will continue anyway.
...

 K-point ( 0.000, 0.500, 0.000) | band =    94
 Effective mass tensor:
             -1.0151382155              0.0000000064             -0.0000000003
              0.0000000064             -0.2192962979             -0.0226326998
             -0.0000000003             -0.0226326998             -1.1058008381
 Effective mass tensor eigenvalues:
             -1.1063782809             -1.0151382155             -0.2187188551
 Angular average effective mass 1/(<1/m>)=  -0.4643231824
 Angular average effective mass for Frohlich model (<m**0.5>)**2=  -0.5603297533
 Effective masses along directions: (cart. coord. / red. coord. -> eff. mass)
    1:   1.000000  0.000000  0.000000 /   1.000000  0.000000  0.000000 ->  -1.0151382155
    2:   0.000000  1.000000  0.000000 /   0.000000  1.000000  0.000000 ->  -0.2188330688
    3:   0.000000  0.000000  1.000000 /   0.000000  0.376885  0.926260 ->  -1.1034650071
    4:   0.577350  0.577350  0.577350 /   0.515252  0.679826  0.521874 ->  -0.4781669740
    5:   0.000000  0.707107  0.707107 /   0.000000  0.793227  0.608927 ->  -0.3781525086
    6:   0.707107  0.000000  0.707107 /   0.674859  0.278121  0.683531 ->  -1.0574603940
    7:   0.707107  0.707107  0.000000 /   0.740605  0.671941  0.000000 ->  -0.3600502077

 COMMENTS:
 - At k-point ( 0.500, 0.500, 0.500), bands    95 through    96
   are DEGENERATE (effective mass tensor is therefore not defined).
   See Section IIIB Eqs. (67)-(70) and Appendix E of PRB 93 205147 (2016).
 - Angular average effective mass for Frohlich model is to be averaged over degenerate bands. See later.
 - Associated theta integrals calculated with ntheta=   1000 points.

--- !WARNING
src_file: m_efmas.F90
src_line: 0
message: |

    Band(s)    95,
    are not band extrema, but saddle points;
    the transport equivalent formalism breaks down in these conditions.
    The associated tensor(s) will therefore not be printed.
...

 K-point ( 0.500, 0.500, 0.500) | band =    95
 Transport equivalent effective mass tensor:
     *** SADDLE POINT: TRANSPORT EQV. EFF. MASS NOT DEFINED (see WARNING above) ***
 Angular average effective mass 1/(<1/m>)=  12.3833147376
 Angular average effective mass for Frohlich model (<m**0.5>)**2=   3.2650949342
 Effective masses along directions: (cart. coord. / red. coord. -> eff. mass)
    1:   1.000000  0.000000  0.000000 /   1.000000  0.000000  0.000000 ->   0.7106186027
    2:   0.000000  1.000000  0.000000 /   0.000000  1.000000  0.000000 ->   1.2549478921
    3:   0.000000  0.000000  1.000000 /   0.000000  0.376885  0.926260 ->   0.3277679525
    4:   0.577350  0.577350  0.577350 /   0.515252  0.679826  0.521874 ->  -1.1913909691
    5:   0.000000  0.707107  0.707107 /   0.000000  0.793227  0.608927 ->   0.3392838169
    6:   0.707107  0.000000  0.707107 /   0.674859  0.278121  0.683531 ->  -1.0520186618
    7:   0.707107  0.707107  0.000000 /   0.740605  0.671941  0.000000 ->  -1.1275857916

 K-point ( 0.500, 0.500, 0.500) | band =    96
 Transport equivalent effective mass tensor:
              0.3506287351             -0.0000001349              0.0000000267
             -0.0000001349              2.9985055876             -1.1956518781
              0.0000000267             -1.1956518781              0.9362740828
 Transport equivalent effective mass tensor eigenvalues:
              3.5462448344              0.3885348360              0.3506287351
 Angular average effective mass 1/(<1/m>)=   0.2921767154
 Angular average effective mass for Frohlich model (<m**0.5>)**2=   0.3550192730
 Effective masses along directions: (cart. coord. / red. coord. -> eff. mass)
    1:   1.000000  0.000000  0.000000 /   1.000000  0.000000  0.000000 ->   0.7106185950
    2:   0.000000  1.000000  0.000000 /   0.000000  1.000000  0.000000 ->   1.2549468261
    3:   0.000000  0.000000  1.000000 /   0.000000  0.376885  0.926260 ->   0.3277678787
    4:   0.577350  0.577350  0.577350 /   0.515252  0.679826  0.521874 ->   0.1752126233
    5:   0.000000  0.707107  0.707107 /   0.000000  0.793227  0.608927 ->   0.3392838119
    6:   0.707107  0.000000  0.707107 /   0.674859  0.278121  0.683531 ->   0.1848867203
    7:   0.707107  0.707107  0.000000 /   0.740605  0.671941  0.000000 ->   0.3235281282

 Angular average effective mass for Frohlich model, averaged over degenerate bands.
 Value of     (<<m**0.5>>)**2 =     1.443353E+00
 Absolute Value of <<m**0.5>> =     1.201396E+00

 END OF EFFECTIVE MASSES SECTION

 ---- first-order wavefunction calculations are completed ----

 Total localisation tensor (bohr^2) in cartesian coordinates
  WARNING : still subject to testing - especially symmetries.
      direction              matrix element
   alpha     beta       real part   imaginary part
     1        1       1.8053888640    0.0000000000
     1        2       0.0000000000    0.0000000000
     1        3       0.0000000000    0.0000000000
     2        1       0.0000000000    0.0000000000
     2        2       1.3331112199    0.0000000000
     2        3       0.6055395999    0.0000000000
     3        1       0.0000000000    0.0000000000
     3        2       0.6055395999    0.0000000000
     3        3       1.7541395534    0.0000000000

 respfn : d/dk was computed, but no 2DTE, so no DDB output.

== END DATASET(S) ==============================================================

 -outvars: echo values of variables after computation  --------
            acell      1.0000000000E+00  1.0000000000E+00  1.0000000000E+00 Bohr
              amu      7.49215900E+01  1.02905500E+02
             ecut      4.40000000E+01 Hartree
           etotal     -1.3165004263E+02
            fcart      0.0000000000E+00  0.0000000000E+00  0.0000000000E+00
                       0.0000000000E+00  0.0000000000E+00  0.0000000000E+00
                       0.0000000000E+00  0.0000000000E+00  0.0000000000E+00
                       0.0000000000E+00  0.0000000000E+00  0.0000000000E+00
                       0.0000000000E+00  0.0000000000E+00  0.0000000000E+00
                       0.0000000000E+00  0.0000000000E+00  0.0000000000E+00
                       0.0000000000E+00  0.0000000000E+00  0.0000000000E+00
                       0.0000000000E+00  0.0000000000E+00  0.0000000000E+00
                       0.0000000000E+00  0.0000000000E+00  0.0000000000E+00
                       0.0000000000E+00  0.0000000000E+00  0.0000000000E+00
                       0.0000000000E+00  0.0000000000E+00  0.0000000000E+00
                       0.0000000000E+00  0.0000000000E+00  0.0000000000E+00
-          fftalg         512
           irdden           1
           irdwfk           1
           istwfk        1    1
              ixc     -116133
              kpt      0.00000000E+00  5.00000000E-01  0.00000000E+00
                       5.00000000E-01  5.00000000E-01  5.00000000E-01
           kptopt           0
P           mkmem           2
P          mkqmem           2
P          mk1mem           2
            natom          12
            nband         103
           nbdbuf           4
            ngfft          72      72      72
             nkpt           2
            nstep        2000
             nsym           4
           ntypat           2
              occ      2.000000  2.000000  2.000000  2.000000  2.000000  2.000000
                       2.000000  2.000000  2.000000  2.000000  2.000000  2.000000
                       2.000000  2.000000  2.000000  2.000000  2.000000  2.000000
                       2.000000  2.000000  2.000000  2.000000  2.000000  2.000000
                       2.000000  2.000000  2.000000  2.000000  2.000000  2.000000
                       2.000000  2.000000  2.000000  2.000000  2.000000  2.000000
                       2.000000  2.000000  2.000000  2.000000  2.000000  2.000000
                       2.000000  2.000000  2.000000  2.000000  2.000000  2.000000
                       2.000000  2.000000  2.000000  2.000000  2.000000  2.000000
                       2.000000  2.000000  2.000000  2.000000  2.000000  2.000000
                       2.000000  2.000000  2.000000  2.000000  2.000000  2.000000
                       2.000000  2.000000  2.000000  2.000000  2.000000  2.000000
                       2.000000  2.000000  2.000000  2.000000  2.000000  2.000000
                       2.000000  2.000000  2.000000  2.000000  2.000000  2.000000
                       2.000000  2.000000  2.000000  2.000000  2.000000  2.000000
                       2.000000  2.000000  2.000000  2.000000  0.000000  0.000000
                       0.000000  0.000000  0.000000  0.000000  0.000000  0.000000
                       0.000000
        optdriver           1
            prtwf          -1
            rfdir           1       1       1
           rfelfd           2
            rprim      1.1477002287E+01  0.0000000000E+00  0.0000000000E+00
                       0.0000000000E+00  1.0412933133E+01  4.7298704479E+00
                       0.0000000000E+00  0.0000000000E+00  1.1624489572E+01
          spgroup          14
           strten      0.0000000000E+00  0.0000000000E+00  0.0000000000E+00
                       0.0000000000E+00  0.0000000000E+00  0.0000000000E+00
           symrel      1  0  0   0  1  0   0  0  1      -1  0  0   0 -1  0   0  0 -1
                       1  0  0   0 -1  0   0  0 -1      -1  0  0   0  1  0   0  0  1
            tnons      0.0000000  0.0000000  0.0000000    -0.0000000  0.0000000  0.0000000
                       0.5000000  0.0000000  0.5000000     0.5000000  0.0000000  0.5000000
           tolwfr      1.00000000E-20
            typat      1  1  1  1  1  1  1  1  2  2  2  2
           useylm           1
              wtk        0.50000    0.50000
           xangst      5.2875288702E+00  4.6490676198E+00  7.4756708003E+00
                       2.2508448535E+00  8.6121926866E-01  4.2543912550E+00
                       7.8583916321E-01  8.6121926866E-01  1.1786837834E+00
                       3.8225231799E+00  4.6490676198E+00  4.3999633287E+00
                       2.2462412405E+00  3.6446249743E+00  2.7871751501E+00
                       5.2829252572E+00  1.8656619141E+00  2.7914719621E+00
                       3.8271267929E+00  1.8656619141E+00  5.8671794337E+00
                       7.9044277618E-01  3.6446249743E+00  5.8628826216E+00
                       3.0347769792E+00  4.0083369707E+00  6.6857394271E+00
                       6.0714609959E+00  1.5019499178E+00  5.0443226282E+00
                       3.0385910543E+00  1.5019499178E+00  1.9686151566E+00
                       1.9070375625E-03  4.0083369707E+00  3.6100319555E+00
            xcart      9.9919814844E+00  8.7854645747E+00  1.4126970472E+01
                       4.2534803407E+00  1.6274685581E+00  8.0396343341E+00
                       1.4850208030E+00  1.6274685581E+00  2.2273895480E+00
                       7.2235219467E+00  8.7854645747E+00  8.3147256860E+00
                       4.2447807730E+00  6.8873430586E+00  5.2669977180E+00
                       9.9832819167E+00  3.5255900742E+00  5.2751175160E+00
                       7.2322215144E+00  3.5255900742E+00  1.1087362302E+01
                       1.4937203707E+00  6.8873430586E+00  1.1079242504E+01
                       5.7348973650E+00  7.5746591229E+00  1.2634216513E+01
                       1.1473398509E+01  2.8382740099E+00  9.5323882932E+00
                       5.7421049224E+00  2.8382740099E+00  3.7201435071E+00
                       3.6037787182E-03  7.5746591229E+00  6.8219717269E+00
             xred      8.7060900000E-01  8.4370700000E-01  8.7198200000E-01
                       3.7060900000E-01  1.5629300000E-01  6.2801800000E-01
                       1.2939100000E-01  1.5629300000E-01  1.2801800000E-01
                       6.2939100000E-01  8.4370700000E-01  3.7198200000E-01
                       3.6985100000E-01  6.6142200000E-01  1.8397000000E-01
                       8.6985100000E-01  3.3857800000E-01  3.1603000000E-01
                       6.3014900000E-01  3.3857800000E-01  8.1603000000E-01
                       1.3014900000E-01  6.6142200000E-01  6.8397000000E-01
                       4.9968600000E-01  7.2742800000E-01  7.9088000000E-01
                       9.9968600000E-01  2.7257200000E-01  7.0912000000E-01
                       5.0031400000E-01  2.7257200000E-01  2.0912000000E-01
                       3.1400000000E-04  7.2742800000E-01  2.9088000000E-01
            znucl       33.00000   45.00000

- Timing analysis has been suppressed with timopt=0

 Suggested references for the acknowledgment of ABINIT usage.

 Calculation completed.
.Delivered   5 WARNINGs and   5 COMMENTs to log file.