.Version 9.5.2 of ABINIT

 ABINIT is a project of the Universite Catholique de Louvain,
 Corning Inc. and other collaborators, see ~abinit/doc/developers/contributors.txt .
 acknowledgments of the ABINIT effort.

.Starting date : Mon 24 May 2021.
- ( at 22h49 )

- input  file    -> /scratch/users/j/a/jabreu/flow_simple_10atoms/flow/w437/t1/run.abi
- output file    -> /scratch/users/j/a/jabreu/flow_simple_10atoms/flow/w437/t1/run.abo
- root for input  files -> /scratch/users/j/a/jabreu/flow_simple_10atoms/flow/w437/t1/indata/in
- root for output files -> /scratch/users/j/a/jabreu/flow_simple_10atoms/flow/w437/t1/outdata/out

 Symmetries : space group Fm -3 m (#225); Bravais cF (face-center cubic)
     intxc =       0      iscf =       7    lmnmax =      18     lnmax =       6
     mgfft =      72  mpssoang =       3    mqgrid =    3001     natom =      10
  nloc_mem =       1    nspden =       1   nspinor =       1    nsppol =       1
      nsym =      48    n1xccc =    2501    ntypat =       4    occopt =       1
   xclevel =       2
-    mband =          49        mffmem =           1         mkmem =           1
-   mkqmem =           1        mk1mem =           1           mpw =       16361
      nfft =      373248          nkpt =           1
  Rough estimation (10% accuracy) of disk space for files :

------------- Echo of variables that govern the present computation ------------
-
- outvars: echo of selected default values
-   iomode0 =  0 , fftalg0 =512 , wfoptalg0 =  0
-
- outvars: echo of global parameters not present in the input file
-  max_nthreads =    0
-
 -outvars: echo values of preprocessed input variables --------
            acell      1.0000000000E+00  1.0000000000E+00  1.0000000000E+00 Bohr
              amu      8.54678000E+01  2.29897680E+01  8.89058500E+01
                       1.89984032E+01
             ecut      4.40000000E+01 Hartree
-          fftalg         512
           irdden           1
           irdwfk           1
           istwfk        1
              ixc     -116133
           kptopt           0
P           mkmem           1
P          mkqmem           1
P          mk1mem           1
            natom          10
            nband          49
           nbdbuf           4
            ngfft          72      72      72
             nkpt           1
            nstep        2000
             nsym          48
           ntypat           4
              occ      2.000000  2.000000  2.000000  2.000000  2.000000  2.000000
                       2.000000  2.000000  2.000000  2.000000  2.000000  2.000000
                       2.000000  2.000000  2.000000  2.000000  2.000000  2.000000
                       2.000000  2.000000  2.000000  2.000000  2.000000  2.000000
                       2.000000  2.000000  2.000000  2.000000  2.000000  2.000000
                       2.000000  2.000000  2.000000  2.000000  2.000000  2.000000
                       2.000000  2.000000  2.000000  2.000000  0.000000  0.000000
                       0.000000  0.000000  0.000000  0.000000  0.000000  0.000000
                       0.000000
        optdriver           1
            prtwf          -1
            rfdir           1       1       1
           rfelfd           2
            rprim      1.0222966576E+01  0.0000000000E+00  5.9022325048E+00
                       3.4076555255E+00  9.6383053200E+00  5.9022325048E+00
                       0.0000000000E+00  0.0000000000E+00  1.1804465010E+01
          spgroup         225
           symrel      1  0  0   0  1  0   0  0  1      -1  0  0   0 -1  0   0  0 -1
                       0 -1  1   0 -1  0   1 -1  0       0  1 -1   0  1  0  -1  1  0
                      -1  0  0  -1  0  1  -1  1  0       1  0  0   1  0 -1   1 -1  0
                       0  1 -1   1  0 -1   0  0 -1       0 -1  1  -1  0  1   0  0  1
                      -1  0  0  -1  1  0  -1  0  1       1  0  0   1 -1  0   1  0 -1
                       0 -1  1   1 -1  0   0 -1  0       0  1 -1  -1  1  0   0  1  0
                       1  0  0   0  0  1   0  1  0      -1  0  0   0  0 -1   0 -1  0
                       0  1 -1   0  0 -1   1  0 -1       0 -1  1   0  0  1  -1  0  1
                      -1  0  1  -1  1  0  -1  0  0       1  0 -1   1 -1  0   1  0  0
                       0 -1  0   1 -1  0   0 -1  1       0  1  0  -1  1  0   0  1 -1
                       1  0 -1   0  0 -1   0  1 -1      -1  0  1   0  0  1   0 -1  1
                       0  1  0   0  0  1   1  0  0       0 -1  0   0  0 -1  -1  0  0
                       1  0 -1   0  1 -1   0  0 -1      -1  0  1   0 -1  1   0  0  1
                       0 -1  0   0 -1  1   1 -1  0       0  1  0   0  1 -1  -1  1  0
                      -1  0  1  -1  0  0  -1  1  0       1  0 -1   1  0  0   1 -1  0
                       0  1  0   1  0  0   0  0  1       0 -1  0  -1  0  0   0  0 -1
                       0  0 -1   0  1 -1   1  0 -1       0  0  1   0 -1  1  -1  0  1
                       1 -1  0   0 -1  1   0 -1  0      -1  1  0   0  1 -1   0  1  0
                       0  0  1   1  0  0   0  1  0       0  0 -1  -1  0  0   0 -1  0
                      -1  1  0  -1  0  0  -1  0  1       1 -1  0   1  0  0   1  0 -1
                       0  0  1   0  1  0   1  0  0       0  0 -1   0 -1  0  -1  0  0
                       1 -1  0   0 -1  0   0 -1  1      -1  1  0   0  1  0   0  1 -1
                       0  0 -1   1  0 -1   0  1 -1       0  0  1  -1  0  1   0 -1  1
                      -1  1  0  -1  0  1  -1  0  0       1 -1  0   1  0 -1   1  0  0
           tolwfr      1.00000000E-20
            typat      1  1  2  3  4  4  4  4  4  4
           useylm           1
           xangst      5.4097609164E+00  3.8252786286E+00  9.3699807640E+00
                       1.8032536388E+00  1.2750928762E+00  3.1233269213E+00
                       3.6065072776E+00  2.5501857524E+00  6.2466538427E+00
                       0.0000000000E+00  0.0000000000E+00  0.0000000000E+00
                       2.6811784924E+00  3.8587982701E+00  7.8493703124E+00
                       1.7558497072E+00  1.2415732347E+00  6.2466538427E+00
                       5.4571648481E+00  3.8587982701E+00  6.2466538427E+00
                       4.5318360628E+00  1.2415732347E+00  7.8493703124E+00
                       4.5318360628E+00  1.2415732347E+00  4.6439373730E+00
                       2.6811784924E+00  3.8587982701E+00  4.6439373730E+00
            xcart      1.0222966576E+01  7.2287289900E+00  1.7706697514E+01
                       3.4076555255E+00  2.4095763300E+00  5.9022325048E+00
                       6.8153110509E+00  4.8191526600E+00  1.1804465010E+01
                       0.0000000000E+00  0.0000000000E+00  0.0000000000E+00
                       5.0666930640E+00  7.2920719326E+00  1.4833160206E+01
                       3.3180750770E+00  2.3462333874E+00  1.1804465010E+01
                       1.0312547025E+01  7.2920719326E+00  1.1804465010E+01
                       8.5639290379E+00  2.3462333874E+00  1.4833160206E+01
                       8.5639290379E+00  2.3462333874E+00  8.7757698132E+00
                       5.0666930640E+00  7.2920719326E+00  8.7757698132E+00
             xred      7.5000000000E-01  7.5000000000E-01  7.5000000000E-01
                       2.5000000000E-01  2.5000000000E-01  2.5000000000E-01
                       5.0000000000E-01  5.0000000000E-01  5.0000000000E-01
                       0.0000000000E+00  0.0000000000E+00  0.0000000000E+00
                       2.4342800000E-01  7.5657200000E-01  7.5657200000E-01
                       2.4342800000E-01  2.4342800000E-01  7.5657200000E-01
                       7.5657200000E-01  7.5657200000E-01  2.4342800000E-01
                       7.5657200000E-01  2.4342800000E-01  7.5657200000E-01
                       7.5657200000E-01  2.4342800000E-01  2.4342800000E-01
                       2.4342800000E-01  7.5657200000E-01  2.4342800000E-01
            znucl       37.00000   11.00000   39.00000    9.00000

 chkinp: Checking input parameters for consistency.

== DATASET  1 ==================================================================
-   mpi_nproc: 1, omp_nthreads: -1 (-1 if OMP is not activated)

--- !DatasetInfo
iteration_state: {dtset: 1, }
dimensions: {natom: 10, nkpt: 1, mband: 49, nsppol: 1, nspinor: 1, nspden: 1, mpw: 16361, }
cutoff_energies: {ecut:  44.0, pawecutdg:  -1.0, }
electrons: {nelect:   8.00000000E+01, charge:   0.00000000E+00, occopt:   1.00000000E+00, tsmear:   1.00000000E-02, }
meta: {optdriver: 1, rfelfd: 2, }
...

 Real(R)+Recip(G) space primitive vectors, cartesian coordinates (Bohr,Bohr^-1):
 R(1)= 10.2229666  0.0000000  5.9022325  G(1)=  0.0978190 -0.0345842  0.0000000
 R(2)=  3.4076555  9.6383053  5.9022325  G(2)=  0.0000000  0.1037527  0.0000000
 R(3)=  0.0000000  0.0000000 11.8044650  G(3)= -0.0489095 -0.0345842  0.0847137
 Unit cell volume ucvol=  1.1631184E+03 bohr^3
 Angles (23,13,12)=  6.00000000E+01  6.00000000E+01  6.00000000E+01 degrees

 getcut: wavevector=  0.0000  0.0000  0.0000  ngfft=  72  72  72
         ecut(hartree)=     44.000   => boxcut(ratio)=   2.04265

--- Pseudopotential description ------------------------------------------------
- pspini: atom type   1  psp file is /scratch/users/j/a/jabreu/pseudos/PBEsol/Rb.psp8
- pspatm: opening atomic psp file    /scratch/users/j/a/jabreu/pseudos/PBEsol/Rb.psp8
- Rb    ONCVPSP-3.3.0  r_core=   1.71227   1.75361   1.90633
- 37.00000   9.00000    180112                znucl, zion, pspdat
    8 -116133    2    4       600   0.00000   pspcod,pspxc,lmax,lloc,mmax,r2well
    5.99000000000000    7.00000000000000    0.00000000000000   rchrg,fchrg,qchrg
     nproj     2     2     2
     extension_switch     1
  pspatm : epsatm=   34.48400912
         --- l  ekb(1:nproj) -->
             0    8.196957   -0.477221
             1    3.231347   -0.378736
             2   -1.047201    0.996637
 pspatm: atomic psp has been read  and splines computed

- pspini: atom type   2  psp file is /scratch/users/j/a/jabreu/pseudos/PBEsol/Na.psp8
- pspatm: opening atomic psp file    /scratch/users/j/a/jabreu/pseudos/PBEsol/Na.psp8
- Na    ONCVPSP-3.3.0  r_core=   1.20708   1.55069
- 11.00000   9.00000    180112                znucl, zion, pspdat
    8 -116133    1    4       400   0.00000   pspcod,pspxc,lmax,lloc,mmax,r2well
    3.99000000000000    0.00000000000000    0.00000000000000   rchrg,fchrg,qchrg
     nproj     2     2
     extension_switch     1
  pspatm : epsatm=    9.32878306
         --- l  ekb(1:nproj) -->
             0    2.657905   -0.678300
             1   -6.761319   -2.404728
 pspatm: atomic psp has been read  and splines computed

[...]

- pspini: atom type   4  psp file is /scratch/users/j/a/jabreu/pseudos/PBEsol/F.psp8
- pspatm: opening atomic psp file    /scratch/users/j/a/jabreu/pseudos/PBEsol/F.psp8
- F     ONCVPSP-3.3.0  r_core=   1.30942   1.45782   1.60379
-  9.00000   7.00000    180112                znucl, zion, pspdat
    8 -116133    2    4       600   0.00000   pspcod,pspxc,lmax,lloc,mmax,r2well
    5.99000000000000    2.50000000000000    0.00000000000000   rchrg,fchrg,qchrg
     nproj     2     2     1
     extension_switch     1
[...]

 Perturbation wavevector (in red.coord.)   0.000000  0.000000  0.000000
 Perturbation : derivative vs k along direction   2
 The set of symmetries contains only one element for this perturbation.
 symkpt : not enough symmetry to change the number of k points.

[...]

 Perturbation wavevector (in red.coord.)   0.000000  0.000000  0.000000
 Perturbation : derivative vs k along direction   3
 The set of symmetries contains only one element for this perturbation.
 symkpt : not enough symmetry to change the number of k points.

 Initialisation of the first-order wave-functions :
  ireadwf=   0

--- !BeginCycle
iteration_state: {dtset: 1, }
solver: {iscf: 7, nstep: 2000, nline: 4, wfoptalg: 0, }
tolerances: {tolwfr: 1.00E-20, }
...

     iter   2DEtotal(Ha)        deltaE(Ha) residm    vres2
-ETOT  1  -37.432579792155     -3.743E+01 2.949E-02 0.000E+00
 ETOT  2  -37.491726845028     -5.915E-02 9.616E-04 0.000E+00
 ETOT  3  -37.492361090356     -6.342E-04 8.740E-06 0.000E+00
 ETOT  4  -37.492372123031     -1.103E-05 5.285E-07 0.000E+00
 ETOT  5  -37.492372338978     -2.159E-07 8.186E-09 0.000E+00
 ETOT  6  -37.492372343371     -4.393E-09 5.250E-10 0.000E+00
 ETOT  7  -37.492372343463     -9.216E-11 9.064E-12 0.000E+00
 ETOT  8  -37.492372343465     -1.947E-12 5.880E-13 0.000E+00
 ETOT  9  -37.492372343465     -9.237E-14 1.118E-14 0.000E+00
 ETOT 10  -37.492372343465      5.684E-14 1.793E-15 0.000E+00
 ETOT 11  -37.492372343465      7.105E-15 3.492E-17 0.000E+00
 ETOT 12  -37.492372343465     -7.105E-15 4.672E-18 0.000E+00
 ETOT 13  -37.492372343465      0.000E+00 1.068E-19 0.000E+00
 ETOT 14  -37.492372343465      7.105E-15 1.428E-20 0.000E+00
 ETOT 15  -37.492372343465      0.000E+00 9.842E-21 0.000E+00

 At SCF step   15   max residual=  9.84E-21 < tolwfr=  1.00E-20 =>converged.

 ----iterations are completed or convergence reached----

 dfpt_looppert: DFPT cycle converged with prtwf=-1. Will skip output of the 1st-order WFK file.
 dfpt_looppert : ek2=    6.7995216361E+01
          f-sum rule ratio=    1.0509442076E+00
 prteigrs : about to open file /scratch/users/j/a/jabreu/flow_simple_10atoms/flow/w437/t1/tmpdata/tmp_1WF1_EIG
 Expectation of eigenvalue derivatives (hartree) for nkpt=   1  k points:
  (in case of degenerate eigenvalues, averaged derivative)
 kpt#   1, nband= 49, wtk=  1.00000, kpt=  0.0000  0.0000  0.0000 (reduced coord)
   0.00000    0.00000   -0.00000    0.00000   -0.00000   -0.00000   -0.00000   -0.00000
  -0.00000   -0.00000   -0.00000   -0.00000   -0.00000    0.00000    0.00000    0.00000
  -0.00000   -0.00000   -0.00000    0.00000    0.00000    0.00000   -0.00000    0.00000
   0.00000    0.00000    0.00000    0.00000    0.00000    0.00000    0.00000    0.00000
   0.00000    0.00000    0.00000    0.00000    0.00000   -0.00000   -0.00000   -0.00000
  -0.00000    0.00000    0.00000    0.00000   -0.00000   -0.00000   -0.00000   -0.00000
  -0.00000

 Eight components of 2nd-order total energy (hartree) are
 1,2,3: 0th-order hamiltonian combined with 1st-order wavefunctions
     kin0=   4.86501684E+01 eigvalue=   4.37433796E+00  local=  -2.23783427E+01
 4,5,6: 1st-order hamiltonian combined with 1st and 0th-order wfs
     kin1=  -7.14591788E+01  Hartree=   0.00000000E+00     xc=   0.00000000E+00
 7,8,9: eventually, occupation + non-local contributions
    edocc=   6.78798928E+00     enl0=   5.82193445E-02   enl1=  -3.52556591E+00
 1-9 gives the relaxation energy (to be shifted if some occ is /=2.0)
   erelax=  -3.74923723E+01
  No Ewald or frozen-wf contrib.: the relaxation energy is the total one
 2DEtotal=   -0.3749237234E+02 Ha. Also 2DEtotal=   -0.102021933566E+04 eV
    (  non-var. 2DEtotal :   -3.7492372343E+01 Ha)

 CALCULATION OF EFFECTIVE MASSES
 NOTE : Additional infos (eff. mass eigenvalues, eigenvectors and, if degenerate, average mass) are available in stdout.

 COMMENTS:
 - At k-point ( 0.000, 0.000, 0.000), bands    38 through    40
   are DEGENERATE (effective mass tensor is therefore not defined).
   See Section IIIB Eqs. (67)-(70) and Appendix E of PRB 93 205147 (2016).
 - Angular average effective mass for Frohlich model is to be averaged over degenerate bands. See later.
 - Associated theta integrals calculated with ntheta=   1000 points.

 K-point ( 0.000, 0.000, 0.000) | band =    38
 Transport equivalent effective mass tensor:
             -3.4722935320             -0.0000012659              0.0000000011
             -0.0000012659             -3.4722921969              0.0000000016
              0.0000000011              0.0000000016             -3.4722857927
 Transport equivalent effective mass tensor eigenvalues:
             -3.4722942955             -3.4722914334             -3.4722857927
 Angular average effective mass 1/(<1/m>)=  -3.2243787327
 Angular average effective mass for Frohlich model (<m**0.5>)**2=  -3.2335033017
 Effective masses along directions: (cart. coord. / red. coord. -> eff. mass)
    1:   1.000000  0.000000  0.000000 /   0.948683  0.316228  0.000000 ->  -3.4765782940
    2:   0.000000  1.000000  0.000000 /   0.000000  1.000000  0.000000 ->  -4.0317168792
    3:   0.000000  0.000000  1.000000 /   0.408248  0.408248  0.816497 ->  -3.0558144864
    4:   0.577350  0.577350  0.577350 /   0.585539  0.688047  0.428644 ->  -3.3264434134
    5:   0.000000  0.707107  0.707107 /   0.289489  0.762222  0.578977 ->  -3.0781878221
    6:   0.707107  0.000000  0.707107 /   0.731423  0.422287  0.535439 ->  -3.1776099201
    7:   0.707107  0.707107  0.000000 /   0.616798  0.787122  0.000000 ->  -3.0878745703

[...]

 K-point ( 0.000, 0.000, 0.000) | band =    40
 Transport equivalent effective mass tensor:
           -121.3485437515              0.0000000180              0.0000000199
              0.0000000180           -121.3485437799              0.0000000101
              0.0000000199              0.0000000101           -121.3485437735
 Transport equivalent effective mass tensor eigenvalues:
           -121.3485437887           -121.3485437851           -121.3485437311
 Angular average effective mass 1/(<1/m>)= -10.2264149128
 Angular average effective mass for Frohlich model (<m**0.5>)**2= -12.7700216363
 Effective masses along directions: (cart. coord. / red. coord. -> eff. mass)
    1:   1.000000  0.000000  0.000000 /   0.948683  0.316228  0.000000 ->  -8.9649886626
    2:   0.000000  1.000000  0.000000 /   0.000000  1.000000  0.000000 ->  -5.7426258673
    3:   0.000000  0.000000  1.000000 /   0.408248  0.408248  0.816497 ->  -7.4332579288
    4:   0.577350  0.577350  0.577350 /   0.585539  0.688047  0.428644 ->  -8.6111913635
    5:   0.000000  0.707107  0.707107 /   0.289489  0.762222  0.578977 -> -15.0381497593
    6:   0.707107  0.000000  0.707107 /   0.731423  0.422287  0.535439 ->  -8.2526400341
    7:   0.707107  0.707107  0.000000 /   0.616798  0.787122  0.000000 -> -41.4736483785

 Angular average effective mass for Frohlich model, averaged over degenerate bands.
 Value of     (<<m**0.5>>)**2 =     5.979518E+00
 Absolute Value of <<m**0.5>> =     2.445305E+00

 K-point ( 0.000, 0.000, 0.000) | band =    41
 Effective mass tensor:
              0.5037934962             -0.0000000000             -0.0000000001
             -0.0000000000              0.5037934963              0.0000000000
             -0.0000000001              0.0000000000              0.5037934962
 Effective mass tensor eigenvalues:
              0.5037934961              0.5037934963              0.5037934963
 Angular average effective mass 1/(<1/m>)=   0.5037934962
 Angular average effective mass for Frohlich model (<m**0.5>)**2=   0.5037934962
 Effective masses along directions: (cart. coord. / red. coord. -> eff. mass)
    1:   1.000000  0.000000  0.000000 /   0.948683  0.316228  0.000000 ->   0.5037934962
    2:   0.000000  1.000000  0.000000 /   0.000000  1.000000  0.000000 ->   0.5037934963
    3:   0.000000  0.000000  1.000000 /   0.408248  0.408248  0.816497 ->   0.5037934962
    4:   0.577350  0.577350  0.577350 /   0.585539  0.688047  0.428644 ->   0.5037934962
    5:   0.000000  0.707107  0.707107 /   0.289489  0.762222  0.578977 ->   0.5037934963
    6:   0.707107  0.000000  0.707107 /   0.731423  0.422287  0.535439 ->   0.5037934962
    7:   0.707107  0.707107  0.000000 /   0.616798  0.787122  0.000000 ->   0.5037934962

 END OF EFFECTIVE MASSES SECTION

 ---- first-order wavefunction calculations are completed ----

 Total localisation tensor (bohr^2) in cartesian coordinates
  WARNING : still subject to testing - especially symmetries.
      direction              matrix element
   alpha     beta       real part   imaginary part
     1        1       0.7022836238    0.0000000000
     1        2       0.1986358051    0.0000000000
     1        3       0.4865563671    0.0000000000
     2        1       0.1986358051    0.0000000000
     2        2       0.5618268990    0.0000000000
     2        3       0.3440473066    0.0000000000
     3        1       0.4865563671    0.0000000000
     3        2       0.3440473066    0.0000000000
     3        3       1.2641105228    0.0000000000

 respfn : d/dk was computed, but no 2DTE, so no DDB output.

== END DATASET(S) ==============================================================

 -outvars: echo values of variables after computation  --------
            acell      1.0000000000E+00  1.0000000000E+00  1.0000000000E+00 Bohr
              amu      8.54678000E+01  2.29897680E+01  8.89058500E+01
                       1.89984032E+01
             ecut      4.40000000E+01 Hartree
           etotal     -3.7492372343E+01
            fcart      0.0000000000E+00  0.0000000000E+00  0.0000000000E+00
                       0.0000000000E+00  0.0000000000E+00  0.0000000000E+00
                       0.0000000000E+00  0.0000000000E+00  0.0000000000E+00
                       0.0000000000E+00  0.0000000000E+00  0.0000000000E+00
                       0.0000000000E+00  0.0000000000E+00  0.0000000000E+00
                       0.0000000000E+00  0.0000000000E+00  0.0000000000E+00
                       0.0000000000E+00  0.0000000000E+00  0.0000000000E+00
                       0.0000000000E+00  0.0000000000E+00  0.0000000000E+00
                       0.0000000000E+00  0.0000000000E+00  0.0000000000E+00
                       0.0000000000E+00  0.0000000000E+00  0.0000000000E+00
-          fftalg         512
           irdden           1
           irdwfk           1
           istwfk        1
              ixc     -116133
           kptopt           0
P           mkmem           1
P          mkqmem           1
P          mk1mem           1
            natom          10
            nband          49
           nbdbuf           4
            ngfft          72      72      72
             nkpt           1
            nstep        2000
             nsym          48
           ntypat           4
              occ      2.000000  2.000000  2.000000  2.000000  2.000000  2.000000
                       2.000000  2.000000  2.000000  2.000000  2.000000  2.000000
                       2.000000  2.000000  2.000000  2.000000  2.000000  2.000000
                       2.000000  2.000000  2.000000  2.000000  2.000000  2.000000
                       2.000000  2.000000  2.000000  2.000000  2.000000  2.000000
                       2.000000  2.000000  2.000000  2.000000  2.000000  2.000000
                       2.000000  2.000000  2.000000  2.000000  0.000000  0.000000
                       0.000000  0.000000  0.000000  0.000000  0.000000  0.000000
                       0.000000
        optdriver           1
            prtwf          -1
            rfdir           1       1       1
           rfelfd           2
            rprim      1.0222966576E+01  0.0000000000E+00  5.9022325048E+00
                       3.4076555255E+00  9.6383053200E+00  5.9022325048E+00
                       0.0000000000E+00  0.0000000000E+00  1.1804465010E+01
          spgroup         225
           strten      0.0000000000E+00  0.0000000000E+00  0.0000000000E+00
                       0.0000000000E+00  0.0000000000E+00  0.0000000000E+00
           symrel      1  0  0   0  1  0   0  0  1      -1  0  0   0 -1  0   0  0 -1
                       0 -1  1   0 -1  0   1 -1  0       0  1 -1   0  1  0  -1  1  0
                      -1  0  0  -1  0  1  -1  1  0       1  0  0   1  0 -1   1 -1  0
                       0  1 -1   1  0 -1   0  0 -1       0 -1  1  -1  0  1   0  0  1
                      -1  0  0  -1  1  0  -1  0  1       1  0  0   1 -1  0   1  0 -1
                       0 -1  1   1 -1  0   0 -1  0       0  1 -1  -1  1  0   0  1  0
                       1  0  0   0  0  1   0  1  0      -1  0  0   0  0 -1   0 -1  0
                       0  1 -1   0  0 -1   1  0 -1       0 -1  1   0  0  1  -1  0  1
                      -1  0  1  -1  1  0  -1  0  0       1  0 -1   1 -1  0   1  0  0
                       0 -1  0   1 -1  0   0 -1  1       0  1  0  -1  1  0   0  1 -1
                       1  0 -1   0  0 -1   0  1 -1      -1  0  1   0  0  1   0 -1  1
                       0  1  0   0  0  1   1  0  0       0 -1  0   0  0 -1  -1  0  0
                       1  0 -1   0  1 -1   0  0 -1      -1  0  1   0 -1  1   0  0  1
                       0 -1  0   0 -1  1   1 -1  0       0  1  0   0  1 -1  -1  1  0
                      -1  0  1  -1  0  0  -1  1  0       1  0 -1   1  0  0   1 -1  0
                       0  1  0   1  0  0   0  0  1       0 -1  0  -1  0  0   0  0 -1
                       0  0 -1   0  1 -1   1  0 -1       0  0  1   0 -1  1  -1  0  1
                       1 -1  0   0 -1  1   0 -1  0      -1  1  0   0  1 -1   0  1  0
                       0  0  1   1  0  0   0  1  0       0  0 -1  -1  0  0   0 -1  0
                      -1  1  0  -1  0  0  -1  0  1       1 -1  0   1  0  0   1  0 -1
                       0  0  1   0  1  0   1  0  0       0  0 -1   0 -1  0  -1  0  0
                       1 -1  0   0 -1  0   0 -1  1      -1  1  0   0  1  0   0  1 -1
                       0  0 -1   1  0 -1   0  1 -1       0  0  1  -1  0  1   0 -1  1
                      -1  1  0  -1  0  1  -1  0  0       1 -1  0   1  0 -1   1  0  0
           tolwfr      1.00000000E-20
            typat      1  1  2  3  4  4  4  4  4  4
           useylm           1
           xangst      5.4097609164E+00  3.8252786286E+00  9.3699807640E+00
                       1.8032536388E+00  1.2750928762E+00  3.1233269213E+00
                       3.6065072776E+00  2.5501857524E+00  6.2466538427E+00
                       0.0000000000E+00  0.0000000000E+00  0.0000000000E+00
                       2.6811784924E+00  3.8587982701E+00  7.8493703124E+00
                       1.7558497072E+00  1.2415732347E+00  6.2466538427E+00
                       5.4571648481E+00  3.8587982701E+00  6.2466538427E+00
                       4.5318360628E+00  1.2415732347E+00  7.8493703124E+00
                       4.5318360628E+00  1.2415732347E+00  4.6439373730E+00
                       2.6811784924E+00  3.8587982701E+00  4.6439373730E+00
            xcart      1.0222966576E+01  7.2287289900E+00  1.7706697514E+01
                       3.4076555255E+00  2.4095763300E+00  5.9022325048E+00
                       6.8153110509E+00  4.8191526600E+00  1.1804465010E+01
                       0.0000000000E+00  0.0000000000E+00  0.0000000000E+00
                       5.0666930640E+00  7.2920719326E+00  1.4833160206E+01
                       3.3180750770E+00  2.3462333874E+00  1.1804465010E+01
                       1.0312547025E+01  7.2920719326E+00  1.1804465010E+01
                       8.5639290379E+00  2.3462333874E+00  1.4833160206E+01
                       8.5639290379E+00  2.3462333874E+00  8.7757698132E+00
                       5.0666930640E+00  7.2920719326E+00  8.7757698132E+00
             xred      7.5000000000E-01  7.5000000000E-01  7.5000000000E-01
                       2.5000000000E-01  2.5000000000E-01  2.5000000000E-01
                       5.0000000000E-01  5.0000000000E-01  5.0000000000E-01
                       0.0000000000E+00  0.0000000000E+00  0.0000000000E+00
                       2.4342800000E-01  7.5657200000E-01  7.5657200000E-01
                       2.4342800000E-01  2.4342800000E-01  7.5657200000E-01
                       7.5657200000E-01  7.5657200000E-01  2.4342800000E-01
                       7.5657200000E-01  2.4342800000E-01  7.5657200000E-01
                       7.5657200000E-01  2.4342800000E-01  2.4342800000E-01
                       2.4342800000E-01  7.5657200000E-01  2.4342800000E-01
            znucl       37.00000   11.00000   39.00000    9.00000

- Timing analysis has been suppressed with timopt=0

 Suggested references for the acknowledgment of ABINIT usage.

 Calculation completed.
.Delivered   2 WARNINGs and   5 COMMENTs to log file.