.Version 9.5.2 of ABINIT

 ABINIT is a project of the Universite Catholique de Louvain,
 Corning Inc. and other collaborators, see ~abinit/doc/developers/contributors.txt .
 acknowledgments of the ABINIT effort.

.Starting date : Mon 24 May 2021.
- ( at 18h28 )

- input  file    -> /scratch/users/j/a/jabreu/flow_simple_10atoms/flow/w416/t1/run.abi
- output file    -> /scratch/users/j/a/jabreu/flow_simple_10atoms/flow/w416/t1/run.abo
- root for input  files -> /scratch/users/j/a/jabreu/flow_simple_10atoms/flow/w416/t1/indata/in
- root for output files -> /scratch/users/j/a/jabreu/flow_simple_10atoms/flow/w416/t1/outdata/out

 Symmetries : space group Fm -3 m (#225); Bravais cF (face-center cubic)
     intxc =       0      iscf =       7    lmnmax =      32     lnmax =       8
     mgfft =      72  mpssoang =       4    mqgrid =    3001     natom =      10
  nloc_mem =       1    nspden =       1   nspinor =       1    nsppol =       1
      nsym =      48    n1xccc =    2501    ntypat =       4    occopt =       1
   xclevel =       2
-    mband =          49        mffmem =           1         mkmem =           1
-   mkqmem =           1        mk1mem =           1           mpw =       17153
      nfft =      373248          nkpt =           1
  Rough estimation (10% accuracy) of disk space for files :

------------- Echo of variables that govern the present computation ------------
-
- outvars: echo of selected default values
-   iomode0 =  0 , fftalg0 =512 , wfoptalg0 =  0
-
- outvars: echo of global parameters not present in the input file
-  max_nthreads =    0
-
 -outvars: echo values of preprocessed input variables --------
            acell      1.0000000000E+00  1.0000000000E+00  1.0000000000E+00 Bohr
              amu      1.32905430E+02  2.29897680E+01  8.89058500E+01
                       1.89984032E+01
             ecut      4.40000000E+01 Hartree
-          fftalg         512
           irdden           1
           irdwfk           1
           istwfk        1
              ixc     -116133
           kptopt           0
P           mkmem           1
P          mkqmem           1
P          mk1mem           1
            natom          10
            nband          49
           nbdbuf           4
            ngfft          72      72      72
             nkpt           1
            nstep        2000
             nsym          48
           ntypat           4
              occ      2.000000  2.000000  2.000000  2.000000  2.000000  2.000000
                       2.000000  2.000000  2.000000  2.000000  2.000000  2.000000
                       2.000000  2.000000  2.000000  2.000000  2.000000  2.000000
                       2.000000  2.000000  2.000000  2.000000  2.000000  2.000000
                       2.000000  2.000000  2.000000  2.000000  2.000000  2.000000
                       2.000000  2.000000  2.000000  2.000000  2.000000  2.000000
                       2.000000  2.000000  2.000000  2.000000  0.000000  0.000000
                       0.000000  0.000000  0.000000  0.000000  0.000000  0.000000
                       0.000000
        optdriver           1
            prtwf          -1
            rfdir           1       1       1
           rfelfd           2
            rprim      1.0412724891E+01  0.0000000000E+00  6.0117895186E+00
                       3.4709082969E+00  9.8172111744E+00  6.0117895186E+00
                       0.0000000000E+00  0.0000000000E+00  1.2023579037E+01
          spgroup         225
           symrel      1  0  0   0  1  0   0  0  1      -1  0  0   0 -1  0   0  0 -1
                       0 -1  1   0 -1  0   1 -1  0       0  1 -1   0  1  0  -1  1  0
                      -1  0  0  -1  0  1  -1  1  0       1  0  0   1  0 -1   1 -1  0
                       0  1 -1   1  0 -1   0  0 -1       0 -1  1  -1  0  1   0  0  1
                      -1  0  0  -1  1  0  -1  0  1       1  0  0   1 -1  0   1  0 -1
                       0 -1  1   1 -1  0   0 -1  0       0  1 -1  -1  1  0   0  1  0
                       1  0  0   0  0  1   0  1  0      -1  0  0   0  0 -1   0 -1  0
                       0  1 -1   0  0 -1   1  0 -1       0 -1  1   0  0  1  -1  0  1
                      -1  0  1  -1  1  0  -1  0  0       1  0 -1   1 -1  0   1  0  0
                       0 -1  0   1 -1  0   0 -1  1       0  1  0  -1  1  0   0  1 -1
                       1  0 -1   0  0 -1   0  1 -1      -1  0  1   0  0  1   0 -1  1
                       0  1  0   0  0  1   1  0  0       0 -1  0   0  0 -1  -1  0  0
                       1  0 -1   0  1 -1   0  0 -1      -1  0  1   0 -1  1   0  0  1
                       0 -1  0   0 -1  1   1 -1  0       0  1  0   0  1 -1  -1  1  0
                      -1  0  1  -1  0  0  -1  1  0       1  0 -1   1  0  0   1 -1  0
                       0  1  0   1  0  0   0  0  1       0 -1  0  -1  0  0   0  0 -1
                       0  0 -1   0  1 -1   1  0 -1       0  0  1   0 -1  1  -1  0  1
                       1 -1  0   0 -1  1   0 -1  0      -1  1  0   0  1 -1   0  1  0
                       0  0  1   1  0  0   0  1  0       0  0 -1  -1  0  0   0 -1  0
                      -1  1  0  -1  0  0  -1  0  1       1 -1  0   1  0  0   1  0 -1
                       0  0  1   0  1  0   1  0  0       0  0 -1   0 -1  0  -1  0  0
                       1 -1  0   0 -1  0   0 -1  1      -1  1  0   0  1  0   0  1 -1
                       0  0 -1   1  0 -1   0  1 -1       0  0  1  -1  0  1   0 -1  1
                      -1  1  0  -1  0  1  -1  0  0       1 -1  0   1  0 -1   1  0  0
           tolwfr      1.00000000E-20
            typat      1  1  2  3  4  4  4  4  4  4
           useylm           1
           xangst      1.8367255638E+00  1.2987611014E+00  3.1813019961E+00
                       5.5101766915E+00  3.8962833041E+00  9.5439059883E+00
                       3.6734511277E+00  2.5975222027E+00  6.3626039922E+00
                       0.0000000000E+00  0.0000000000E+00  0.0000000000E+00
                       2.7200362751E+00  3.9458544178E+00  8.0139669575E+00
                       5.5802808328E+00  3.9458544178E+00  6.3626039922E+00
                       1.7666214225E+00  1.2491899876E+00  6.3626039922E+00
                       2.7200362751E+00  3.9458544178E+00  4.7112410268E+00
                       4.6268659802E+00  1.2491899876E+00  4.7112410268E+00
                       4.6268659802E+00  1.2491899876E+00  8.0139669575E+00
            xcart      3.4709082969E+00  2.4543027936E+00  6.0117895186E+00
                       1.0412724891E+01  7.3629083808E+00  1.8035368556E+01
                       6.9418165938E+00  4.9086055872E+00  1.2023579037E+01
                       0.0000000000E+00  0.0000000000E+00  0.0000000000E+00
                       5.1401236314E+00  7.4565842098E+00  1.5144202788E+01
                       1.0545202519E+01  7.4565842098E+00  1.2023579037E+01
                       3.3384306690E+00  2.3606269646E+00  1.2023579037E+01
                       5.1401236314E+00  7.4565842098E+00  8.9029552867E+00
                       8.7435095562E+00  2.3606269646E+00  8.9029552867E+00
                       8.7435095562E+00  2.3606269646E+00  1.5144202788E+01
             xred      2.5000000000E-01  2.5000000000E-01  2.5000000000E-01
                       7.5000000000E-01  7.5000000000E-01  7.5000000000E-01
                       5.0000000000E-01  5.0000000000E-01  5.0000000000E-01
                       0.0000000000E+00  0.0000000000E+00  0.0000000000E+00
                       2.4045800000E-01  7.5954200000E-01  7.5954200000E-01
                       7.5954200000E-01  7.5954200000E-01  2.4045800000E-01
                       2.4045800000E-01  2.4045800000E-01  7.5954200000E-01
                       2.4045800000E-01  7.5954200000E-01  2.4045800000E-01
                       7.5954200000E-01  2.4045800000E-01  2.4045800000E-01
                       7.5954200000E-01  2.4045800000E-01  7.5954200000E-01
            znucl       55.00000   11.00000   39.00000    9.00000

 chkinp: Checking input parameters for consistency.

== DATASET  1 ==================================================================
-   mpi_nproc: 1, omp_nthreads: -1 (-1 if OMP is not activated)

--- !DatasetInfo
iteration_state: {dtset: 1, }
dimensions: {natom: 10, nkpt: 1, mband: 49, nsppol: 1, nspinor: 1, nspden: 1, mpw: 17153, }
cutoff_energies: {ecut:  44.0, pawecutdg:  -1.0, }
electrons: {nelect:   8.00000000E+01, charge:   0.00000000E+00, occopt:   1.00000000E+00, tsmear:   1.00000000E-02, }
meta: {optdriver: 1, rfelfd: 2, }
...

 Real(R)+Recip(G) space primitive vectors, cartesian coordinates (Bohr,Bohr^-1):
 R(1)= 10.4127249  0.0000000  6.0117895  G(1)=  0.0960363 -0.0339540  0.0000000
 R(2)=  3.4709083  9.8172112  6.0117895  G(2)=  0.0000000  0.1018619  0.0000000
 R(3)=  0.0000000  0.0000000 12.0235790  G(3)= -0.0480182 -0.0339540  0.0831699
 Unit cell volume ucvol=  1.2290974E+03 bohr^3
 Angles (23,13,12)=  6.00000000E+01  6.00000000E+01  6.00000000E+01 degrees

 getcut: wavevector=  0.0000  0.0000  0.0000  ngfft=  72  72  72
         ecut(hartree)=     44.000   => boxcut(ratio)=   2.00543

--- Pseudopotential description ------------------------------------------------
- pspini: atom type   1  psp file is /scratch/users/j/a/jabreu/pseudos/PBEsol/Cs.psp8
- pspatm: opening atomic psp file    /scratch/users/j/a/jabreu/pseudos/PBEsol/Cs.psp8
- Cs    ONCVPSP-3.3.0  r_core=   2.27353   1.85623   2.01788   1.90105
- 55.00000   9.00000    180112                znucl, zion, pspdat
    8 -116133    3    4       600   0.00000   pspcod,pspxc,lmax,lloc,mmax,r2well
    5.99000000000000    5.00000000000000    0.00000000000000   rchrg,fchrg,qchrg
     nproj     2     2     2     2
     extension_switch     1
  pspatm : epsatm=   22.12462445
         --- l  ekb(1:nproj) -->
             0    6.214110    0.767882
             1    6.311966    0.793598
             2    3.769790    0.913105
             3   -9.247129   -2.432478
 pspatm: atomic psp has been read  and splines computed

- pspini: atom type   2  psp file is /scratch/users/j/a/jabreu/pseudos/PBEsol/Na.psp8
- pspatm: opening atomic psp file    /scratch/users/j/a/jabreu/pseudos/PBEsol/Na.psp8
- Na    ONCVPSP-3.3.0  r_core=   1.20708   1.55069
- 11.00000   9.00000    180112                znucl, zion, pspdat
    8 -116133    1    4       400   0.00000   pspcod,pspxc,lmax,lloc,mmax,r2well
    3.99000000000000    0.00000000000000    0.00000000000000   rchrg,fchrg,qchrg
     nproj     2     2
     extension_switch     1
  pspatm : epsatm=    9.32878306
         --- l  ekb(1:nproj) -->
             0    2.657905   -0.678300
             1   -6.761319   -2.404728
 pspatm: atomic psp has been read  and splines computed

[...]

- pspini: atom type   4  psp file is /scratch/users/j/a/jabreu/pseudos/PBEsol/F.psp8
- pspatm: opening atomic psp file    /scratch/users/j/a/jabreu/pseudos/PBEsol/F.psp8
- F     ONCVPSP-3.3.0  r_core=   1.30942   1.45782   1.60379
-  9.00000   7.00000    180112                znucl, zion, pspdat
    8 -116133    2    4       600   0.00000   pspcod,pspxc,lmax,lloc,mmax,r2well
    5.99000000000000    2.50000000000000    0.00000000000000   rchrg,fchrg,qchrg
[...]
 symkpt : not enough symmetry to change the number of k points.

 Initialisation of the first-order wave-functions :
  ireadwf=   0

--- !BeginCycle
iteration_state: {dtset: 1, }
solver: {iscf: 7, nstep: 2000, nline: 4, wfoptalg: 0, }
tolerances: {tolwfr: 1.00E-20, }
...

     iter   2DEtotal(Ha)        deltaE(Ha) residm    vres2
-ETOT  1  -37.684096482131     -3.768E+01 2.431E-02 0.000E+00
 ETOT  2  -37.724465009881     -4.037E-02 7.843E-04 0.000E+00
 ETOT  3  -37.724734843410     -2.698E-04 5.366E-05 0.000E+00
 ETOT  4  -37.724738956516     -4.113E-06 7.188E-06 0.000E+00
 ETOT  5  -37.724739074778     -1.183E-07 8.223E-07 0.000E+00
 ETOT  6  -37.724739080963     -6.185E-09 1.004E-07 0.000E+00
 ETOT  7  -37.724739081333     -3.698E-10 1.336E-08 0.000E+00
 ETOT  8  -37.724739081356     -2.316E-11 1.544E-09 0.000E+00
 ETOT  9  -37.724739081358     -1.450E-12 2.231E-10 0.000E+00
 ETOT 10  -37.724739081358     -1.137E-13 2.577E-11 0.000E+00
 ETOT 11  -37.724739081358      4.263E-14 3.863E-12 0.000E+00
 ETOT 12  -37.724739081358     -3.553E-14 4.545E-13 0.000E+00
 ETOT 13  -37.724739081358      1.421E-14 6.919E-14 0.000E+00
 ETOT 14  -37.724739081358      7.105E-15 8.552E-15 0.000E+00
 ETOT 15  -37.724739081358     -1.421E-14 1.755E-15 0.000E+00
 ETOT 16  -37.724739081358      7.105E-15 1.959E-16 0.000E+00
 ETOT 17  -37.724739081358      0.000E+00 3.775E-17 0.000E+00
 ETOT 18  -37.724739081358      0.000E+00 4.266E-18 0.000E+00
 ETOT 19  -37.724739081358      0.000E+00 8.174E-19 0.000E+00
 ETOT 20  -37.724739081358      0.000E+00 9.326E-20 0.000E+00
 ETOT 21  -37.724739081358      0.000E+00 1.778E-20 0.000E+00
 ETOT 22  -37.724739081358      0.000E+00 9.630E-21 0.000E+00

 At SCF step   22   max residual=  9.63E-21 < tolwfr=  1.00E-20 =>converged.

 ----iterations are completed or convergence reached----

 dfpt_looppert: DFPT cycle converged with prtwf=-1. Will skip output of the 1st-order WFK file.
 dfpt_looppert : ek2=    6.5539549718E+01
          f-sum rule ratio=    1.0696069991E+00
 prteigrs : about to open file /scratch/users/j/a/jabreu/flow_simple_10atoms/flow/w416/t1/tmpdata/tmp_1WF1_EIG
 Expectation of eigenvalue derivatives (hartree) for nkpt=   1  k points:
  (in case of degenerate eigenvalues, averaged derivative)
 kpt#   1, nband= 49, wtk=  1.00000, kpt=  0.0000  0.0000  0.0000 (reduced coord)
  -0.00000   -0.00000    0.00000    0.00000    0.00000    0.00000    0.00000    0.00000
  -0.00000   -0.00000   -0.00000    0.00000    0.00000   -0.00000   -0.00000   -0.00000
  -0.00000   -0.00000   -0.00000   -0.00000   -0.00000   -0.00000   -0.00000   -0.00000
  -0.00000   -0.00000   -0.00000   -0.00000    0.00000    0.00000    0.00000    0.00000
   0.00000    0.00000   -0.00000   -0.00000   -0.00000    0.00000    0.00000    0.00000
   0.00000    0.00000    0.00000    0.00000    0.00000    0.00000   -0.00000   -0.00000
  -0.00000

 Eight components of 2nd-order total energy (hartree) are
 1,2,3: 0th-order hamiltonian combined with 1st-order wavefunctions
     kin0=   4.73330825E+01 eigvalue=   2.67712815E+00  local=  -2.26303661E+01
 4,5,6: 1st-order hamiltonian combined with 1st and 0th-order wfs
     kin1=  -7.01015611E+01  Hartree=   0.00000000E+00     xc=   0.00000000E+00
 7,8,9: eventually, occupation + non-local contributions
    edocc=   7.75134531E+00     enl0=   2.59354929E+00   enl1=  -5.34791707E+00
 1-9 gives the relaxation energy (to be shifted if some occ is /=2.0)
   erelax=  -3.77247391E+01
  No Ewald or frozen-wf contrib.: the relaxation energy is the total one
 2DEtotal=   -0.3772473908E+02 Ha. Also 2DEtotal=   -0.102654235616E+04 eV
    (  non-var. 2DEtotal :   -3.7724739081E+01 Ha)

 CALCULATION OF EFFECTIVE MASSES
 NOTE : Additional infos (eff. mass eigenvalues, eigenvectors and, if degenerate, average mass) are available in stdout.

 COMMENTS:
 - At k-point ( 0.000, 0.000, 0.000), bands    38 through    40
   are DEGENERATE (effective mass tensor is therefore not defined).
   See Section IIIB Eqs. (67)-(70) and Appendix E of PRB 93 205147 (2016).
 - Angular average effective mass for Frohlich model is to be averaged over degenerate bands. See later.
 - Associated theta integrals calculated with ntheta=   1000 points.

 K-point ( 0.000, 0.000, 0.000) | band =    38
 Transport equivalent effective mass tensor:
             -6.7485092363             -0.0000003614              0.0000000303
             -0.0000003614             -6.7485092119             -0.0000000075
              0.0000000303             -0.0000000075             -6.7485103803
 Transport equivalent effective mass tensor eigenvalues:
             -6.7485103811             -6.7485095854             -6.7485088620
 Angular average effective mass 1/(<1/m>)=  -6.5101314347
 Angular average effective mass for Frohlich model (<m**0.5>)**2=  -6.5199503322
 Effective masses along directions: (cart. coord. / red. coord. -> eff. mass)
    1:   1.000000  0.000000  0.000000 /   0.948683  0.316228  0.000000 ->  -6.2143649764
    2:   0.000000  1.000000  0.000000 /   0.000000  1.000000  0.000000 ->  -5.9668223031
    3:   0.000000  0.000000  1.000000 /   0.408248  0.408248  0.816497 ->  -6.9079238118
    4:   0.577350  0.577350  0.577350 /   0.585539  0.688047  0.428644 ->  -6.2709715587
    5:   0.000000  0.707107  0.707107 /   0.289489  0.762222  0.578977 ->  -6.7711327310
    6:   0.707107  0.000000  0.707107 /   0.731423  0.422287  0.535439 ->  -6.4472649178
    7:   0.707107  0.707107  0.000000 /   0.616798  0.787122  0.000000 ->  -6.8279073467

[...]

 K-point ( 0.000, 0.000, 0.000) | band =    40
 Transport equivalent effective mass tensor:
            -97.2701312010              0.0001052978              0.0000041139
              0.0001052978            -97.2701135512              0.0000000194
              0.0000041139              0.0000000194            -97.2700338085
 Transport equivalent effective mass tensor eigenvalues:
            -97.2702280898            -97.2700342093            -97.2700162615
 Angular average effective mass 1/(<1/m>)= -32.9728511982
 Angular average effective mass for Frohlich model (<m**0.5>)**2= -36.1193146499
 Effective masses along directions: (cart. coord. / red. coord. -> eff. mass)
    1:   1.000000  0.000000  0.000000 /   0.948683  0.316228  0.000000 -> -27.7344915766
    2:   0.000000  1.000000  0.000000 /   0.000000  1.000000  0.000000 -> -14.7404322313
    3:   0.000000  0.000000  1.000000 /   0.408248  0.408248  0.816497 -> -34.0364385840
    4:   0.577350  0.577350  0.577350 /   0.585539  0.688047  0.428644 -> -28.3448898172
    5:   0.000000  0.707107  0.707107 /   0.289489  0.762222  0.578977 -> -44.1518646143
    6:   0.707107  0.000000  0.707107 /   0.731423  0.422287  0.535439 -> -30.7757312307
    7:   0.707107  0.707107  0.000000 /   0.616798  0.787122  0.000000 -> -65.1255692976

 Angular average effective mass for Frohlich model, averaged over degenerate bands.
 Value of     (<<m**0.5>>)**2 =     1.465290E+01
 Absolute Value of <<m**0.5>> =     3.827911E+00

 K-point ( 0.000, 0.000, 0.000) | band =    41
 Effective mass tensor:
              0.4496233759             -0.0000000001             -0.0000000003
             -0.0000000001              0.4496233760             -0.0000000002
             -0.0000000003             -0.0000000002              0.4496233756
 Effective mass tensor eigenvalues:
              0.4496233754              0.4496233761              0.4496233761
 Angular average effective mass 1/(<1/m>)=   0.4496233758
 Angular average effective mass for Frohlich model (<m**0.5>)**2=   0.4496233758
 Effective masses along directions: (cart. coord. / red. coord. -> eff. mass)
    1:   1.000000  0.000000  0.000000 /   0.948683  0.316228  0.000000 ->   0.4496233759
    2:   0.000000  1.000000  0.000000 /   0.000000  1.000000  0.000000 ->   0.4496233760
    3:   0.000000  0.000000  1.000000 /   0.408248  0.408248  0.816497 ->   0.4496233756
    4:   0.577350  0.577350  0.577350 /   0.585539  0.688047  0.428644 ->   0.4496233755
    5:   0.000000  0.707107  0.707107 /   0.289489  0.762222  0.578977 ->   0.4496233756
    6:   0.707107  0.000000  0.707107 /   0.731423  0.422287  0.535439 ->   0.4496233755
    7:   0.707107  0.707107  0.000000 /   0.616798  0.787122  0.000000 ->   0.4496233758

 END OF EFFECTIVE MASSES SECTION

 ---- first-order wavefunction calculations are completed ----

 Total localisation tensor (bohr^2) in cartesian coordinates
  WARNING : still subject to testing - especially symmetries.
      direction              matrix element
   alpha     beta       real part   imaginary part
     1        1       0.8258114939    0.0000000000
     1        2       0.2335747629    0.0000000000
     1        3       0.5721389859    0.0000000000
     2        1       0.2335747629    0.0000000000
     2        2       0.6606491951    0.0000000000
     2        3       0.4045633567    0.0000000000
     3        1       0.5721389859    0.0000000000
     3        2       0.4045633567    0.0000000000
     3        3       1.4864606889    0.0000000000

 respfn : d/dk was computed, but no 2DTE, so no DDB output.

== END DATASET(S) ==============================================================

 -outvars: echo values of variables after computation  --------
            acell      1.0000000000E+00  1.0000000000E+00  1.0000000000E+00 Bohr
              amu      1.32905430E+02  2.29897680E+01  8.89058500E+01
                       1.89984032E+01
             ecut      4.40000000E+01 Hartree
           etotal     -3.7724739081E+01
            fcart      0.0000000000E+00  0.0000000000E+00  0.0000000000E+00
                       0.0000000000E+00  0.0000000000E+00  0.0000000000E+00
                       0.0000000000E+00  0.0000000000E+00  0.0000000000E+00
                       0.0000000000E+00  0.0000000000E+00  0.0000000000E+00
                       0.0000000000E+00  0.0000000000E+00  0.0000000000E+00
                       0.0000000000E+00  0.0000000000E+00  0.0000000000E+00
                       0.0000000000E+00  0.0000000000E+00  0.0000000000E+00
                       0.0000000000E+00  0.0000000000E+00  0.0000000000E+00
                       0.0000000000E+00  0.0000000000E+00  0.0000000000E+00
                       0.0000000000E+00  0.0000000000E+00  0.0000000000E+00
-          fftalg         512
           irdden           1
           irdwfk           1
           istwfk        1
              ixc     -116133
           kptopt           0
P           mkmem           1
P          mkqmem           1
P          mk1mem           1
            natom          10
            nband          49
           nbdbuf           4
            ngfft          72      72      72
             nkpt           1
            nstep        2000
             nsym          48
           ntypat           4
              occ      2.000000  2.000000  2.000000  2.000000  2.000000  2.000000
                       2.000000  2.000000  2.000000  2.000000  2.000000  2.000000
                       2.000000  2.000000  2.000000  2.000000  2.000000  2.000000
                       2.000000  2.000000  2.000000  2.000000  2.000000  2.000000
                       2.000000  2.000000  2.000000  2.000000  2.000000  2.000000
                       2.000000  2.000000  2.000000  2.000000  2.000000  2.000000
                       2.000000  2.000000  2.000000  2.000000  0.000000  0.000000
                       0.000000  0.000000  0.000000  0.000000  0.000000  0.000000
                       0.000000
        optdriver           1
            prtwf          -1
            rfdir           1       1       1
           rfelfd           2
            rprim      1.0412724891E+01  0.0000000000E+00  6.0117895186E+00
                       3.4709082969E+00  9.8172111744E+00  6.0117895186E+00
                       0.0000000000E+00  0.0000000000E+00  1.2023579037E+01
          spgroup         225
           strten      0.0000000000E+00  0.0000000000E+00  0.0000000000E+00
                       0.0000000000E+00  0.0000000000E+00  0.0000000000E+00
           symrel      1  0  0   0  1  0   0  0  1      -1  0  0   0 -1  0   0  0 -1
                       0 -1  1   0 -1  0   1 -1  0       0  1 -1   0  1  0  -1  1  0
                      -1  0  0  -1  0  1  -1  1  0       1  0  0   1  0 -1   1 -1  0
                       0  1 -1   1  0 -1   0  0 -1       0 -1  1  -1  0  1   0  0  1
                      -1  0  0  -1  1  0  -1  0  1       1  0  0   1 -1  0   1  0 -1
                       0 -1  1   1 -1  0   0 -1  0       0  1 -1  -1  1  0   0  1  0
                       1  0  0   0  0  1   0  1  0      -1  0  0   0  0 -1   0 -1  0
                       0  1 -1   0  0 -1   1  0 -1       0 -1  1   0  0  1  -1  0  1
                      -1  0  1  -1  1  0  -1  0  0       1  0 -1   1 -1  0   1  0  0
                       0 -1  0   1 -1  0   0 -1  1       0  1  0  -1  1  0   0  1 -1
                       1  0 -1   0  0 -1   0  1 -1      -1  0  1   0  0  1   0 -1  1
                       0  1  0   0  0  1   1  0  0       0 -1  0   0  0 -1  -1  0  0
                       1  0 -1   0  1 -1   0  0 -1      -1  0  1   0 -1  1   0  0  1
                       0 -1  0   0 -1  1   1 -1  0       0  1  0   0  1 -1  -1  1  0
                      -1  0  1  -1  0  0  -1  1  0       1  0 -1   1  0  0   1 -1  0
                       0  1  0   1  0  0   0  0  1       0 -1  0  -1  0  0   0  0 -1
                       0  0 -1   0  1 -1   1  0 -1       0  0  1   0 -1  1  -1  0  1
                       1 -1  0   0 -1  1   0 -1  0      -1  1  0   0  1 -1   0  1  0
                       0  0  1   1  0  0   0  1  0       0  0 -1  -1  0  0   0 -1  0
                      -1  1  0  -1  0  0  -1  0  1       1 -1  0   1  0  0   1  0 -1
                       0  0  1   0  1  0   1  0  0       0  0 -1   0 -1  0  -1  0  0
                       1 -1  0   0 -1  0   0 -1  1      -1  1  0   0  1  0   0  1 -1
                       0  0 -1   1  0 -1   0  1 -1       0  0  1  -1  0  1   0 -1  1
                      -1  1  0  -1  0  1  -1  0  0       1 -1  0   1  0 -1   1  0  0
           tolwfr      1.00000000E-20
            typat      1  1  2  3  4  4  4  4  4  4
           useylm           1
           xangst      1.8367255638E+00  1.2987611014E+00  3.1813019961E+00
                       5.5101766915E+00  3.8962833041E+00  9.5439059883E+00
                       3.6734511277E+00  2.5975222027E+00  6.3626039922E+00
                       0.0000000000E+00  0.0000000000E+00  0.0000000000E+00
                       2.7200362751E+00  3.9458544178E+00  8.0139669575E+00
                       5.5802808328E+00  3.9458544178E+00  6.3626039922E+00
                       1.7666214225E+00  1.2491899876E+00  6.3626039922E+00
                       2.7200362751E+00  3.9458544178E+00  4.7112410268E+00
                       4.6268659802E+00  1.2491899876E+00  4.7112410268E+00
                       4.6268659802E+00  1.2491899876E+00  8.0139669575E+00
            xcart      3.4709082969E+00  2.4543027936E+00  6.0117895186E+00
                       1.0412724891E+01  7.3629083808E+00  1.8035368556E+01
                       6.9418165938E+00  4.9086055872E+00  1.2023579037E+01
                       0.0000000000E+00  0.0000000000E+00  0.0000000000E+00
                       5.1401236314E+00  7.4565842098E+00  1.5144202788E+01
                       1.0545202519E+01  7.4565842098E+00  1.2023579037E+01
                       3.3384306690E+00  2.3606269646E+00  1.2023579037E+01
                       5.1401236314E+00  7.4565842098E+00  8.9029552867E+00
                       8.7435095562E+00  2.3606269646E+00  8.9029552867E+00
                       8.7435095562E+00  2.3606269646E+00  1.5144202788E+01
             xred      2.5000000000E-01  2.5000000000E-01  2.5000000000E-01
                       7.5000000000E-01  7.5000000000E-01  7.5000000000E-01
                       5.0000000000E-01  5.0000000000E-01  5.0000000000E-01
                       0.0000000000E+00  0.0000000000E+00  0.0000000000E+00
                       2.4045800000E-01  7.5954200000E-01  7.5954200000E-01
                       7.5954200000E-01  7.5954200000E-01  2.4045800000E-01
                       2.4045800000E-01  2.4045800000E-01  7.5954200000E-01
                       2.4045800000E-01  7.5954200000E-01  2.4045800000E-01
                       7.5954200000E-01  2.4045800000E-01  2.4045800000E-01
                       7.5954200000E-01  2.4045800000E-01  7.5954200000E-01
            znucl       55.00000   11.00000   39.00000    9.00000

- Timing analysis has been suppressed with timopt=0

 Suggested references for the acknowledgment of ABINIT usage.

 Calculation completed.
.Delivered   2 WARNINGs and   5 COMMENTs to log file.