.Version 9.5.1 of ABINIT

 ABINIT is a project of the Universite Catholique de Louvain,
 Corning Inc. and other collaborators, see ~abinit/doc/developers/contributors.txt .
 acknowledgments of the ABINIT effort.

.Starting date : Tue 27 Apr 2021.
- ( at 15h34 )

- input  file    -> /scratch/users/j/a/jabreu/flow_simple/flow/w159/t1/run.abi
- output file    -> /scratch/users/j/a/jabreu/flow_simple/flow/w159/t1/run.abo
- root for input  files -> /scratch/users/j/a/jabreu/flow_simple/flow/w159/t1/indata/in
- root for output files -> /scratch/users/j/a/jabreu/flow_simple/flow/w159/t1/outdata/out

 Symmetries : space group P-6 m 2 (#187); Bravais hP (primitive hexag.)
     intxc =       0      iscf =       7    lmnmax =      18     lnmax =       6
     mgfft =      45  mpssoang =       3    mqgrid =    3001     natom =       3
  nloc_mem =       1    nspden =       1   nspinor =       1    nsppol =       1
      nsym =      12    n1xccc =    2501    ntypat =       3    occopt =       1
   xclevel =       2
-    mband =          18        mffmem =           1         mkmem =           2
-   mkqmem =           2        mk1mem =           2           mpw =        4732
      nfft =       91125          nkpt =           2
  Rough estimation (10% accuracy) of disk space for files :

------------- Echo of variables that govern the present computation ------------
-
- outvars: echo of selected default values
-   iomode0 =  0 , fftalg0 =512 , wfoptalg0 =  0
-
- outvars: echo of global parameters not present in the input file
-  max_nthreads =    0
-
 -outvars: echo values of preprocessed input variables --------
            acell      1.0000000000E+00  1.0000000000E+00  1.0000000000E+00 Bohr
              amu      8.76200000E+01  6.94100000E+00  3.09737620E+01
             ecut      3.70000000E+01 Hartree
-          fftalg         512
           irdden           1
           irdwfk           1
           istwfk        1    1
              ixc     -116133
              kpt      0.00000000E+00  0.00000000E+00  5.00000000E-01
                       5.00000000E-01  0.00000000E+00  5.00000000E-01
           kptopt           0
P           mkmem           2
P          mkqmem           2
P          mk1mem           2
            natom           3
            nband          18
           nbdbuf           4
            ngfft          45      45      45
             nkpt           2
            nstep         100
             nsym          12
           ntypat           3
              occ      2.000000  2.000000  2.000000  2.000000  2.000000  2.000000
                       2.000000  2.000000  2.000000  0.000000  0.000000  0.000000
                       0.000000  0.000000  0.000000  0.000000  0.000000  0.000000
        optdriver           1
            prtwf          -1
            rfdir           1       1       1
           rfelfd           2
            rprim      8.0228187506E+00  0.0000000000E+00  0.0000000000E+00
                      -4.0114093753E+00  6.9479648479E+00  0.0000000000E+00
                       0.0000000000E+00  0.0000000000E+00  7.9157289537E+00
          spgroup         187
           symrel      1  0  0   0  1  0   0  0  1       0 -1  0  -1  0  0   0  0 -1
                      -1 -1  0   1  0  0   0  0 -1      -1  0  0   1  1  0   0  0  1
                       0  1  0  -1 -1  0   0  0  1       1  1  0   0 -1  0   0  0 -1
                       1  0  0   0  1  0   0  0 -1       0 -1  0  -1  0  0   0  0  1
                      -1 -1  0   1  0  0   0  0  1      -1  0  0   1  1  0   0  0 -1
                       0  1  0  -1 -1  0   0  0 -1       1  1  0   0 -1  0   0  0  1
            tnons      0.0000000  0.0000000  0.0000000     0.0000000  0.0000000  0.0000000
                      -0.0000000  0.0000000  0.0000000    -0.0000000  0.0000000  0.0000000
                       0.0000000  0.0000000  0.0000000     0.0000000  0.0000000  0.0000000
                       0.0000000  0.0000000  0.0000000     0.0000000  0.0000000  0.0000000
                      -0.0000000  0.0000000  0.0000000    -0.0000000  0.0000000  0.0000000
                       0.0000000  0.0000000  0.0000000     0.0000000  0.0000000  0.0000000
           tolwfr      1.00000000E-20
            typat      1  2  3
           useylm           1
              wtk        0.50000    0.50000
           xangst     -2.1227462080E-10  2.4511364292E+00  0.0000000000E+00
                      -2.1227465914E-10  1.2255683159E-10  2.0944116758E+00
                       2.1227464155E+00  1.2255682147E+00  2.0944116758E+00
            xcart     -4.0114089828E-10  4.6319765655E+00  0.0000000000E+00
                      -4.0114097072E-10  2.3159884743E-10  3.9578644769E+00
                       4.0114093749E+00  2.3159882829E+00  3.9578644769E+00
             xred      3.3333333330E-01  6.6666666670E-01  0.0000000000E+00
                      -3.3333336091E-11  3.3333336091E-11  5.0000000000E-01
                       6.6666666663E-01  3.3333333337E-01  5.0000000000E-01
            znucl       38.00000    3.00000   15.00000

 chkinp: Checking input parameters for consistency.

== DATASET  1 ==================================================================
-   mpi_nproc: 1, omp_nthreads: -1 (-1 if OMP is not activated)

--- !DatasetInfo
iteration_state: {dtset: 1, }
dimensions: {natom: 3, nkpt: 2, mband: 18, nsppol: 1, nspinor: 1, nspden: 1, mpw: 4732, }
cutoff_energies: {ecut:  37.0, pawecutdg:  -1.0, }
electrons: {nelect:   1.80000000E+01, charge:   0.00000000E+00, occopt:   1.00000000E+00, tsmear:   1.00000000E-02, }
meta: {optdriver: 1, rfelfd: 2, }
...

 Real(R)+Recip(G) space primitive vectors, cartesian coordinates (Bohr,Bohr^-1):
 R(1)=  8.0228188  0.0000000  0.0000000  G(1)=  0.1246445  0.0719635  0.0000000
 R(2)= -4.0114094  6.9479648  0.0000000  G(2)=  0.0000000  0.1439270  0.0000000
 R(3)=  0.0000000  0.0000000  7.9157290  G(3)=  0.0000000  0.0000000  0.1263308
 Unit cell volume ucvol=  4.4124064E+02 bohr^3
 Angles (23,13,12)=  9.00000000E+01  9.00000000E+01  1.20000000E+02 degrees

 getcut: wavevector=  0.0000  0.0000  0.0000  ngfft=  45  45  45
         ecut(hartree)=     37.000   => boxcut(ratio)=   2.00290

--- Pseudopotential description ------------------------------------------------
- pspini: atom type   1  psp file is /scratch/users/j/a/jabreu/pseudos/PBEsol/Sr.psp8
- pspatm: opening atomic psp file    /scratch/users/j/a/jabreu/pseudos/PBEsol/Sr.psp8
- Sr    ONCVPSP-3.3.0  r_core=   1.66721   1.31335   1.51547
- 38.00000  10.00000    180112                znucl, zion, pspdat
    8 -116133    2    4       600   0.00000   pspcod,pspxc,lmax,lloc,mmax,r2well
    5.99000000000000    6.00000000000000    0.00000000000000   rchrg,fchrg,qchrg
     nproj     2     2     2
     extension_switch     1
  pspatm : epsatm=   12.46450977
         --- l  ekb(1:nproj) -->
             0   10.029206    1.044171
             1    7.472414    1.670829
             2    4.142950    0.968140
 pspatm: atomic psp has been read  and splines computed

- pspini: atom type   2  psp file is /scratch/users/j/a/jabreu/pseudos/PBEsol/Li.psp8
- pspatm: opening atomic psp file    /scratch/users/j/a/jabreu/pseudos/PBEsol/Li.psp8
- Li    ONCVPSP-3.3.0  r_core=   1.40824   1.10935
-  3.00000   3.00000    180112                znucl, zion, pspdat
    8 -116133    1    4       400   0.00000   pspcod,pspxc,lmax,lloc,mmax,r2well
    3.99000000000000    0.00000000000000    0.00000000000000   rchrg,fchrg,qchrg
     nproj     2     2
     extension_switch     1
  pspatm : epsatm=    2.60859637
         --- l  ekb(1:nproj) -->
             0   -4.855856   -1.482423
             1   -2.171544   -0.427615
 pspatm: atomic psp has been read  and splines computed

- pspini: atom type   3  psp file is /scratch/users/j/a/jabreu/pseudos/PBEsol/P.psp8
- pspatm: opening atomic psp file    /scratch/users/j/a/jabreu/pseudos/PBEsol/P.psp8
- P     ONCVPSP-3.3.0  r_core=   1.46089   1.55067   1.70594
- 15.00000   5.00000    180112                znucl, zion, pspdat
    8 -116133    2    4       600   0.00000   pspcod,pspxc,lmax,lloc,mmax,r2well
    5.99000000000000    5.00000000000000    0.00000000000000   rchrg,fchrg,qchrg
     nproj     2     2     2
     extension_switch     1
  pspatm : epsatm=    7.31221086
         --- l  ekb(1:nproj) -->
             0    6.742364    1.063650
             1    3.449117    0.910422
             2   -3.077645   -0.799176
 pspatm: atomic psp has been read  and splines computed

   4.02935706E+02                                ecore*ucvol(ha*bohr**3)

-inwffil : will read wavefunctions from disk file /scratch/users/j/a/jabreu/flow_simple/flow/w159/t1/indata/in_WFK

 ==>  initialize data related to q vector <==

 The list of irreducible perturbations for this q vector is:
    1)    idir= 1    ipert=   4
    2)    idir= 2    ipert=   4
    3)    idir= 3    ipert=   4

 Perturbation wavevector (in red.coord.)   0.000000  0.000000  0.000000
 Perturbation : derivative vs k along direction   1

 dfpt_looppert : COMMENT -
  In a d/dk calculation, iscf is set to -3 automatically.
 The set of symmetries contains only one element for this perturbation.
 symkpt : not enough symmetry to change the number of k points.

[...]

 Initialisation of the first-order wave-functions :
  ireadwf=   0

--- !BeginCycle
iteration_state: {dtset: 1, }
solver: {iscf: 7, nstep: 100, nline: 4, wfoptalg: 0, }
tolerances: {tolwfr: 1.00E-20, }
...

     iter   2DEtotal(Ha)        deltaE(Ha) residm    vres2
-ETOT  1  -17.536866852239     -1.754E+01 2.521E-02 0.000E+00
 ETOT  2  -17.539896778146     -3.030E-03 2.175E-05 0.000E+00
 ETOT  3  -17.539897843544     -1.065E-06 5.938E-08 0.000E+00
 ETOT  4  -17.539897844560     -1.015E-09 2.307E-10 0.000E+00
 ETOT  5  -17.539897844561     -1.684E-12 7.913E-13 0.000E+00
 ETOT  6  -17.539897844561      1.421E-14 9.263E-15 0.000E+00
 ETOT  7  -17.539897844561     -2.132E-14 4.758E-16 0.000E+00
 ETOT  8  -17.539897844561     -1.421E-14 5.637E-18 0.000E+00
 ETOT  9  -17.539897844561      0.000E+00 4.206E-19 0.000E+00
 ETOT 10  -17.539897844561      0.000E+00 9.388E-21 0.000E+00

 At SCF step   10   max residual=  9.39E-21 < tolwfr=  1.00E-20 =>converged.

 ----iterations are completed or convergence reached----

 dfpt_looppert: DFPT cycle converged with prtwf=-1. Will skip output of the 1st-order WFK file.
 dfpt_looppert : ek2=    2.9440624114E+01
          f-sum rule ratio=    1.1958219570E+00
 prteigrs : about to open file /scratch/users/j/a/jabreu/flow_simple/flow/w159/t1/tmpdata/tmp_1WF1_EIG
 Expectation of eigenvalue derivatives (hartree) for nkpt=   2  k points:
  (in case of degenerate eigenvalues, averaged derivative)
 kpt#   1, nband= 18, wtk=  0.50000, kpt=  0.0000  0.0000  0.5000 (reduced coord)
  -0.00000   -0.00000   -0.00000   -0.00000   -0.00000    0.00000    0.00000    0.00000
   0.00000   -0.00000   -0.00000    0.00000    0.00000   -0.00000   -0.00000   -0.00000
   0.00003   -0.00019
 prteigrs : prtvol=0 or 1, do not print more k-points.

 Eight components of 2nd-order total energy (hartree) are
 1,2,3: 0th-order hamiltonian combined with 1st-order wavefunctions
     kin0=   6.43246143E+00 eigvalue=   1.06910449E+00  local=  -3.39970812E+00
 4,5,6: 1st-order hamiltonian combined with 1st and 0th-order wfs
     kin1=  -3.52057447E+01  Hartree=   0.00000000E+00     xc=   0.00000000E+00
 7,8,9: eventually, occupation + non-local contributions
    edocc=   1.26759980E+01     enl0=   7.62042065E-01   enl1=   1.25949055E-01
 1-9 gives the relaxation energy (to be shifted if some occ is /=2.0)
   erelax=  -1.75398978E+01
  No Ewald or frozen-wf contrib.: the relaxation energy is the total one
 2DEtotal=   -0.1753989784E+02 Ha. Also 2DEtotal=   -0.477284893114E+03 eV
    (  non-var. 2DEtotal :   -1.7539897845E+01 Ha)

 Perturbation wavevector (in red.coord.)   0.000000  0.000000  0.000000
 Perturbation : derivative vs k along direction   2
 The set of symmetries contains only one element for this perturbation.
 symkpt : not enough symmetry to change the number of k points.

[...]

 Perturbation wavevector (in red.coord.)   0.000000  0.000000  0.000000
 Perturbation : derivative vs k along direction   3
 The set of symmetries contains only one element for this perturbation.
 symkpt : not enough symmetry to change the number of k points.

-inwffil : will read wavefunctions from disk file /scratch/users/j/a/jabreu/flow_simple/flow/w159/t1/indata/in_WFK

 Initialisation of the first-order wave-functions :
  ireadwf=   0

--- !BeginCycle
iteration_state: {dtset: 1, }
solver: {iscf: 7, nstep: 100, nline: 4, wfoptalg: 0, }
tolerances: {tolwfr: 1.00E-20, }
...

     iter   2DEtotal(Ha)        deltaE(Ha) residm    vres2
-ETOT  1  -10.769902204793     -1.077E+01 2.709E-02 0.000E+00
 ETOT  2  -10.771477674001     -1.575E-03 1.062E-03 0.000E+00
 ETOT  3  -10.771478313107     -6.391E-07 3.701E-06 0.000E+00
 ETOT  4  -10.771478313617     -5.102E-10 1.511E-07 0.000E+00
 ETOT  5  -10.771478313617     -6.146E-13 7.977E-10 0.000E+00
 ETOT  6  -10.771478313617     -7.105E-15 3.839E-11 0.000E+00
 ETOT  7  -10.771478313617     -3.553E-15 6.051E-13 0.000E+00
 ETOT  8  -10.771478313617      1.776E-15 1.873E-14 0.000E+00
 ETOT  9  -10.771478313617      3.553E-15 3.895E-16 0.000E+00
 ETOT 10  -10.771478313617     -1.776E-15 1.137E-17 0.000E+00
 ETOT 11  -10.771478313617     -1.776E-15 2.660E-19 0.000E+00
 ETOT 12  -10.771478313617      1.776E-15 9.614E-21 0.000E+00

 At SCF step   12   max residual=  9.61E-21 < tolwfr=  1.00E-20 =>converged.

 ----iterations are completed or convergence reached----

 dfpt_looppert: DFPT cycle converged with prtwf=-1. Will skip output of the 1st-order WFK file.
 dfpt_looppert : ek2=    2.2681950989E+01
          f-sum rule ratio=    9.4401518897E-01
 prteigrs : about to open file /scratch/users/j/a/jabreu/flow_simple/flow/w159/t1/tmpdata/tmp_1WF1_EIG
 Expectation of eigenvalue derivatives (hartree) for nkpt=   2  k points:
  (in case of degenerate eigenvalues, averaged derivative)
 kpt#   1, nband= 18, wtk=  0.50000, kpt=  0.0000  0.0000  0.5000 (reduced coord)
  -0.00000   -0.00000    0.00000   -0.00000   -0.00000   -0.00000   -0.00000   -0.00000
  -0.00000   -0.00000   -0.00000    0.00000    0.00000   -0.00000    0.00000   -0.00000
  -0.00000   -0.00392
 prteigrs : prtvol=0 or 1, do not print more k-points.

 Eight components of 2nd-order total energy (hartree) are
 1,2,3: 0th-order hamiltonian combined with 1st-order wavefunctions
     kin0=   4.68787343E+00 eigvalue=   7.52314654E-01  local=  -2.41084329E+00
 4,5,6: 1st-order hamiltonian combined with 1st and 0th-order wfs
     kin1=  -2.14121062E+01  Hartree=   0.00000000E+00     xc=   0.00000000E+00
 7,8,9: eventually, occupation + non-local contributions
    edocc=   7.17495309E+00     enl0=   5.67180428E-01   enl1=  -1.30850378E-01
 1-9 gives the relaxation energy (to be shifted if some occ is /=2.0)
   erelax=  -1.07714783E+01
  No Ewald or frozen-wf contrib.: the relaxation energy is the total one
 2DEtotal=   -0.1077147831E+02 Ha. Also 2DEtotal=   -0.293106831132E+03 eV
    (  non-var. 2DEtotal :   -1.0771478314E+01 Ha)

 CALCULATION OF EFFECTIVE MASSES
 NOTE : Additional infos (eff. mass eigenvalues, eigenvectors and, if degenerate, average mass) are available in stdout.

 COMMENTS:
 - At k-point ( 0.000, 0.000, 0.500), bands     8 through     9
   are DEGENERATE (effective mass tensor is therefore not defined).
   See Section IIIB Eqs. (67)-(70) and Appendix E of PRB 93 205147 (2016).
 - Angular average effective mass for Frohlich model is to be averaged over degenerate bands. See later.
 - Associated theta integrals calculated with ntheta=   1000 points.

 K-point ( 0.000, 0.000, 0.500) | band =     8
 Transport equivalent effective mass tensor:
             -0.3455486054              0.0000029325              0.0000167193
              0.0000029325             -0.3455375903              0.0000266240
              0.0000167193              0.0000266240             -1.8014515575
 Transport equivalent effective mass tensor eigenvalues:
             -1.8014515582             -0.3455493374             -0.3455368577
 Angular average effective mass 1/(<1/m>)=  -0.4729550158
 Angular average effective mass for Frohlich model (<m**0.5>)**2=  -0.5338955908
 Effective masses along directions: (cart. coord. / red. coord. -> eff. mass)
    1:   1.000000  0.000000  0.000000 /   0.894427 -0.447214  0.000000 ->  -0.3455489220
    2:   0.000000  1.000000  0.000000 /   0.000000  1.000000  0.000000 ->  -0.3455378973
    3:   0.000000  0.000000  1.000000 /   0.000000  0.000000  1.000000 ->  -1.8014439733
    4:   0.577350  0.577350  0.577350 /   0.688844  0.252134  0.679649 ->  -0.4729469015
    5:   0.000000  0.707107  0.707107 /   0.000000  0.659671  0.751555 ->  -0.5798206222
    6:   0.707107  0.000000  0.707107 /   0.670630 -0.335315  0.661679 ->  -0.5798642852
    7:   0.707107  0.707107  0.000000 /   0.939071  0.343724  0.000000 ->  -0.3455397641

 K-point ( 0.000, 0.000, 0.500) | band =     9
 Transport equivalent effective mass tensor:
             -0.5512948197             -0.0000002555              0.0000270078
             -0.0000002555             -0.5512945084              0.0000419649
              0.0000270078              0.0000419649             -1.8014516429
 Transport equivalent effective mass tensor eigenvalues:
             -1.8014516449             -0.5512949616             -0.5512943644
 Angular average effective mass 1/(<1/m>)=  -0.7172002961
 Angular average effective mass for Frohlich model (<m**0.5>)**2=  -0.7701224865
 Effective masses along directions: (cart. coord. / red. coord. -> eff. mass)
    1:   1.000000  0.000000  0.000000 /   0.894427 -0.447214  0.000000 ->  -0.5512940060
    2:   0.000000  1.000000  0.000000 /   0.000000  1.000000  0.000000 ->  -0.5512937102
    3:   0.000000  0.000000  1.000000 /   0.000000  0.000000  1.000000 ->  -1.8014591737
    4:   0.577350  0.577350  0.577350 /   0.688844  0.252134  0.679649 ->  -0.7171630386
    5:   0.000000  0.707107  0.707107 /   0.000000  0.659671  0.751555 ->  -0.8442391808
    6:   0.707107  0.000000  0.707107 /   0.670630 -0.335315  0.661679 ->  -0.8442019507
    7:   0.707107  0.707107  0.000000 /   0.939071  0.343724  0.000000 ->  -0.5512958472

 Angular average effective mass for Frohlich model, averaged over degenerate bands.
 Value of     (<<m**0.5>>)**2 =     6.466153E-01
 Absolute Value of <<m**0.5>> =     8.041239E-01

 K-point ( 0.500, 0.000, 0.500) | band =    10
 Effective mass tensor:
              1.0995700026             -0.0874964644             -0.0000000012
             -0.0874964644              1.2006022198             -0.0000000007
             -0.0000000012             -0.0000000007              0.6488495458
 Effective mass tensor eigenvalues:
              0.6488495458              1.0490538960              1.2511183264
 Angular average effective mass 1/(<1/m>)=   0.9108258622
 Angular average effective mass for Frohlich model (<m**0.5>)**2=   0.9333296085
 Effective masses along directions: (cart. coord. / red. coord. -> eff. mass)
    1:   1.000000  0.000000  0.000000 /   0.894427 -0.447214  0.000000 ->   1.0931935099
    2:   0.000000  1.000000  0.000000 /   0.000000  1.000000  0.000000 ->   1.1936398334
    3:   0.000000  0.000000  1.000000 /   0.000000  0.000000  1.000000 ->   0.6488495458
    4:   0.577350  0.577350  0.577350 /   0.688844  0.252134  0.679649 ->   0.8753902348
    5:   0.000000  0.707107  0.707107 /   0.000000  0.659671  0.751555 ->   0.8407024451
    6:   0.707107  0.000000  0.707107 /   0.670630 -0.335315  0.661679 ->   0.8143519863
    7:   0.707107  0.707107  0.000000 /   0.939071  0.343724  0.000000 ->   1.0605276614

 END OF EFFECTIVE MASSES SECTION

 ---- first-order wavefunction calculations are completed ----

 Total localisation tensor (bohr^2) in cartesian coordinates
  WARNING : still subject to testing - especially symmetries.
      direction              matrix element
   alpha     beta       real part   imaginary part
     1        1       4.0162083737    0.0000000000
     1        2      -1.3406402323    0.0000000000
     1        3       0.0000000000    0.0000000000
     2        1      -1.3406402323    0.0000000000
     2        2       2.3220569970    0.0000000000
     2        3       0.0000000000    0.0000000000
     3        1       0.0000000000    0.0000000000
     3        2       0.0000000000    0.0000000000
     3        3       1.3992467115    0.0000000000

 respfn : d/dk was computed, but no 2DTE, so no DDB output.

== END DATASET(S) ==============================================================

 -outvars: echo values of variables after computation  --------
            acell      1.0000000000E+00  1.0000000000E+00  1.0000000000E+00 Bohr
              amu      8.76200000E+01  6.94100000E+00  3.09737620E+01
             ecut      3.70000000E+01 Hartree
           etotal     -1.0771478314E+01
            fcart      0.0000000000E+00  0.0000000000E+00  0.0000000000E+00
                       0.0000000000E+00  0.0000000000E+00  0.0000000000E+00
                       0.0000000000E+00  0.0000000000E+00  0.0000000000E+00
-          fftalg         512
           irdden           1
           irdwfk           1
           istwfk        1    1
              ixc     -116133
              kpt      0.00000000E+00  0.00000000E+00  5.00000000E-01
                       5.00000000E-01  0.00000000E+00  5.00000000E-01
           kptopt           0
P           mkmem           2
P          mkqmem           2
P          mk1mem           2
            natom           3
            nband          18
           nbdbuf           4
            ngfft          45      45      45
             nkpt           2
            nstep         100
             nsym          12
           ntypat           3
              occ      2.000000  2.000000  2.000000  2.000000  2.000000  2.000000
                       2.000000  2.000000  2.000000  0.000000  0.000000  0.000000
                       0.000000  0.000000  0.000000  0.000000  0.000000  0.000000
        optdriver           1
            prtwf          -1
            rfdir           1       1       1
           rfelfd           2
            rprim      8.0228187506E+00  0.0000000000E+00  0.0000000000E+00
                      -4.0114093753E+00  6.9479648479E+00  0.0000000000E+00
                       0.0000000000E+00  0.0000000000E+00  7.9157289537E+00
          spgroup         187
           strten      0.0000000000E+00  0.0000000000E+00  0.0000000000E+00
                       0.0000000000E+00  0.0000000000E+00  0.0000000000E+00
           symrel      1  0  0   0  1  0   0  0  1       0 -1  0  -1  0  0   0  0 -1
                      -1 -1  0   1  0  0   0  0 -1      -1  0  0   1  1  0   0  0  1
                       0  1  0  -1 -1  0   0  0  1       1  1  0   0 -1  0   0  0 -1
                       1  0  0   0  1  0   0  0 -1       0 -1  0  -1  0  0   0  0  1
                      -1 -1  0   1  0  0   0  0  1      -1  0  0   1  1  0   0  0 -1
                       0  1  0  -1 -1  0   0  0 -1       1  1  0   0 -1  0   0  0  1
            tnons      0.0000000  0.0000000  0.0000000     0.0000000  0.0000000  0.0000000
                      -0.0000000  0.0000000  0.0000000    -0.0000000  0.0000000  0.0000000
                       0.0000000  0.0000000  0.0000000     0.0000000  0.0000000  0.0000000
                       0.0000000  0.0000000  0.0000000     0.0000000  0.0000000  0.0000000
                      -0.0000000  0.0000000  0.0000000    -0.0000000  0.0000000  0.0000000
                       0.0000000  0.0000000  0.0000000     0.0000000  0.0000000  0.0000000
           tolwfr      1.00000000E-20
            typat      1  2  3
           useylm           1
              wtk        0.50000    0.50000
           xangst     -2.1227462080E-10  2.4511364292E+00  0.0000000000E+00
                      -2.1227465914E-10  1.2255683159E-10  2.0944116758E+00
                       2.1227464155E+00  1.2255682147E+00  2.0944116758E+00
            xcart     -4.0114089828E-10  4.6319765655E+00  0.0000000000E+00
                      -4.0114097072E-10  2.3159884743E-10  3.9578644769E+00
                       4.0114093749E+00  2.3159882829E+00  3.9578644769E+00
             xred      3.3333333330E-01  6.6666666670E-01  0.0000000000E+00
                      -3.3333336091E-11  3.3333336091E-11  5.0000000000E-01
                       6.6666666663E-01  3.3333333337E-01  5.0000000000E-01
            znucl       38.00000    3.00000   15.00000

- Timing analysis has been suppressed with timopt=0

 Suggested references for the acknowledgment of ABINIT usage.

 Calculation completed.
.Delivered  14 WARNINGs and   9 COMMENTs to log file.