.Version 9.7.2 of ABINIT

 ABINIT is a project of the Universite Catholique de Louvain,
 Corning Inc. and other collaborators, see ~abinit/doc/developers/contributors.txt .
 acknowledgments of the ABINIT effort.

.Starting date : Wed  1 Dec 2021.
- ( at 21h53 )

- input  file    -> /scratch/users/j/a/jabreu/flow_simple_remain_atoms/flow/w261/t1/run.abi
- output file    -> /scratch/users/j/a/jabreu/flow_simple_remain_atoms/flow/w261/t1/run.abo
- root for input  files -> /scratch/users/j/a/jabreu/flow_simple_remain_atoms/flow/w261/t1/indata/in
- root for output files -> /scratch/users/j/a/jabreu/flow_simple_remain_atoms/flow/w261/t1/outdata/out

 Symmetries : space group P-3 m 1 (#164); Bravais hP (primitive hexag.)
     intxc =       0      iscf =       7    lmnmax =       8     lnmax =       4
     mgfft =      60  mpssoang =       2    mqgrid =    3001     natom =       5
  nloc_mem =       1    nspden =       1   nspinor =       1    nsppol =       1
      nsym =      12    n1xccc =    2501    ntypat =       3    occopt =       1
   xclevel =       2
-    mband =          23        mffmem =           1         mkmem =           2
-   mkqmem =           2        mk1mem =           2           mpw =        3590
      nfft =       77760          nkpt =           2
  Rough estimation (10% accuracy) of disk space for files :

------------- Echo of variables that govern the present computation ------------
-
- outvars: echo of selected default values
-   iomode0 =  0 , fftalg0 =512 , wfoptalg0 =  0
-
- outvars: echo of global parameters not present in the input file
-  max_nthreads =    0
-
 -outvars: echo values of preprocessed input variables --------
            acell      1.0000000000E+00  1.0000000000E+00  1.0000000000E+00 Bohr
              amu      2.43050000E+01  9.01218200E+00  1.40067400E+01
             ecut      4.40000000E+01 Hartree
-          fftalg         512
           irdden           1
           irdwfk           1
           istwfk        1    0
              ixc     -116133
              kpt      0.00000000E+00  0.00000000E+00  0.00000000E+00
                       5.00000000E-01  0.00000000E+00  4.47368421E-01
           kptopt           0
P           mkmem           2
P          mkqmem           2
P          mk1mem           2
            natom           5
            nband          23
           nbdbuf           4
            ngfft          36      36      60
             nkpt           2
            nstep        2000
             nsym          12
           ntypat           3
              occ      2.000000  2.000000  2.000000  2.000000  2.000000  2.000000
                       2.000000  2.000000  2.000000  2.000000  2.000000  2.000000
                       2.000000  2.000000  0.000000  0.000000  0.000000  0.000000
                       0.000000  0.000000  0.000000  0.000000  0.000000
        optdriver           1
            prtwf          -1
            rfdir           1       1       1
           rfelfd           2
            rprim      5.5558536525E+00  0.0000000000E+00  0.0000000000E+00
                      -2.7779268262E+00  4.8115104027E+00  0.0000000000E+00
                       0.0000000000E+00  0.0000000000E+00  9.5807847835E+00
          spgroup         164
           symrel      1  0  0   0  1  0   0  0  1      -1  0  0   0 -1  0   0  0 -1
                      -1  0  0   1  1  0   0  0  1       1  0  0  -1 -1  0   0  0 -1
                       0  1  0  -1 -1  0   0  0  1       0 -1  0   1  1  0   0  0 -1
                       0 -1  0  -1  0  0   0  0  1       0  1  0   1  0  0   0  0 -1
                      -1 -1  0   1  0  0   0  0  1       1  1  0  -1  0  0   0  0 -1
                       1  1  0   0 -1  0   0  0  1      -1 -1  0   0  1  0   0  0 -1
           tolwfr      1.00000000E-20
            typat      1  2  2  3  3
           useylm           1
              wtk        0.50000    0.50000
           xangst      0.0000000000E+00  0.0000000000E+00  0.0000000000E+00
                       1.4700155636E+00  8.4871388133E-01  1.8843926781E+00
                       1.7639241746E-11  1.6974277627E+00  3.1855402698E+00
                       1.4700155636E+00  8.4871388133E-01  3.6623725335E+00
                       1.7639241746E-11  1.6974277627E+00  1.4075604144E+00
            xcart      0.0000000000E+00  0.0000000000E+00  0.0000000000E+00
                       2.7779268263E+00  1.6038368009E+00  3.5609860883E+00
                       3.3333336091E-11  3.2076736018E+00  6.0197986952E+00
                       2.7779268263E+00  1.6038368009E+00  6.9208810848E+00
                       3.3333336091E-11  3.2076736018E+00  2.6599036987E+00
             xred      0.0000000000E+00  0.0000000000E+00  0.0000000000E+00
                       6.6666666667E-01  3.3333333333E-01  3.7168000000E-01
                       3.3333333333E-01  6.6666666667E-01  6.2832000000E-01
                       6.6666666667E-01  3.3333333333E-01  7.2237100000E-01
                       3.3333333333E-01  6.6666666667E-01  2.7762900000E-01
            znucl       12.00000    4.00000    7.00000

 chkinp: Checking input parameters for consistency.

== DATASET  1 ==================================================================
-   mpi_nproc: 1, omp_nthreads: -1 (-1 if OMP is not activated)

--- !DatasetInfo
iteration_state: {dtset: 1, }
dimensions: {natom: 5, nkpt: 2, mband: 23, nsppol: 1, nspinor: 1, nspden: 1, mpw: 3590, }
cutoff_energies: {ecut:  44.0, pawecutdg:  -1.0, }
electrons: {nelect:   2.80000000E+01, charge:   0.00000000E+00, occopt:   1.00000000E+00, tsmear:   1.00000000E-02, }
meta: {optdriver: 1, rfelfd: 2, }
...

 Real(R)+Recip(G) space primitive vectors, cartesian coordinates (Bohr,Bohr^-1):
 R(1)=  5.5558537  0.0000000  0.0000000  G(1)=  0.1799903  0.1039175  0.0000000
 R(2)= -2.7779268  4.8115104  0.0000000  G(2)=  0.0000000  0.2078349  0.0000000
 R(3)=  0.0000000  0.0000000  9.5807848  G(3)=  0.0000000  0.0000000  0.1043756
 Unit cell volume ucvol=  2.5611400E+02 bohr^3
 Angles (23,13,12)=  9.00000000E+01  9.00000000E+01  1.20000000E+02 degrees

 getcut: wavevector=  0.0000  0.0000  0.0000  ngfft=  36  36  60
         ecut(hartree)=     44.000   => boxcut(ratio)=   2.09729

--- Pseudopotential description ------------------------------------------------
- pspini: atom type   1  psp file is /scratch/users/j/a/jabreu/pseudos/PBEsol/Mg.psp8
- pspatm: opening atomic psp file    /scratch/users/j/a/jabreu/pseudos/PBEsol/Mg.psp8
- Mg    ONCVPSP-3.3.0  r_core=   1.16056   1.56380
- 12.00000  10.00000    180112                znucl, zion, pspdat
    8 -116133    1    4       400   0.00000   pspcod,pspxc,lmax,lloc,mmax,r2well
    3.99000000000000    0.00000000000000    0.00000000000000   rchrg,fchrg,qchrg
     nproj     2     2
     extension_switch     1
  pspatm : epsatm=    9.18164846
         --- l  ekb(1:nproj) -->
             0    2.230603   -0.826587
             1   -6.503151   -2.501445
 pspatm: atomic psp has been read  and splines computed

- pspini: atom type   2  psp file is /scratch/users/j/a/jabreu/pseudos/PBEsol/Be.psp8
- pspatm: opening atomic psp file    /scratch/users/j/a/jabreu/pseudos/PBEsol/Be.psp8
- Be    ONCVPSP-3.3.0  r_core=   1.35684   1.10780
-  4.00000   4.00000    180112                znucl, zion, pspdat
    8 -116133    1    4       400   0.00000   pspcod,pspxc,lmax,lloc,mmax,r2well
    3.99000000000000    0.00000000000000    0.00000000000000   rchrg,fchrg,qchrg
     nproj     2     2
     extension_switch     1
  pspatm : epsatm=    3.86293307
         --- l  ekb(1:nproj) -->
             0   -7.966826   -2.672546
             1   -3.431835   -0.651830
 pspatm: atomic psp has been read  and splines computed

- pspini: atom type   3  psp file is /scratch/users/j/a/jabreu/pseudos/PBEsol/N.psp8
- pspatm: opening atomic psp file    /scratch/users/j/a/jabreu/pseudos/PBEsol/N.psp8
- N     ONCVPSP-3.3.0  r_core=   1.20551   1.35824
-  7.00000   5.00000    180112                znucl, zion, pspdat
    8 -116133    1    4       600   0.00000   pspcod,pspxc,lmax,lloc,mmax,r2well
    5.99000000000000    4.00000000000000    0.00000000000000   rchrg,fchrg,qchrg
     nproj     2     2
     extension_switch     1
  pspatm : epsatm=    5.26508895
         --- l  ekb(1:nproj) -->
             0    7.464189    0.625868
             1   -4.309714   -1.012941
 pspatm: atomic psp has been read  and splines computed

   7.68255390E+02                                ecore*ucvol(ha*bohr**3)

 ==>  initialize data related to q vector <==

 The list of irreducible perturbations for this q vector is:
    1)    idir= 1    ipert=   6
    2)    idir= 2    ipert=   6
    3)    idir= 3    ipert=   6

 Perturbation wavevector (in red.coord.)   0.000000  0.000000  0.000000
 Perturbation : derivative vs k along direction   1

 dfpt_looppert : COMMENT -
  In a d/dk calculation, iscf is set to -3 automatically.
 The set of symmetries contains only one element for this perturbation.
 symkpt : not enough symmetry to change the number of k points.

 Initialisation of the first-order wave-functions :
  ireadwf=   0

--- !BeginCycle
iteration_state: {dtset: 1, }
solver: {iscf: 7, nstep: 2000, nline: 4, wfoptalg: 0, }
tolerances: {tolwfr: 1.00E-20, }
...

     iter   2DEtotal(Ha)        deltaE(Ha) residm    vres2
-ETOT  1  -61.421086414960     -6.142E+01 9.837E-02 0.000E+00
 ETOT  2  -61.431442825300     -1.036E-02 2.726E-04 0.000E+00
 ETOT  3  -61.431445254001     -2.429E-06 7.303E-07 0.000E+00
 ETOT  4  -61.431445254711     -7.099E-10 1.789E-08 0.000E+00
 ETOT  5  -61.431445254712     -4.761E-13 9.258E-11 0.000E+00
 ETOT  6  -61.431445254712     -1.421E-14 8.625E-12 0.000E+00
 ETOT  7  -61.431445254712     -1.421E-14 1.493E-13 0.000E+00
 ETOT  8  -61.431445254712      0.000E+00 1.565E-14 0.000E+00
 ETOT  9  -61.431445254712      7.105E-15 2.805E-16 0.000E+00
 ETOT 10  -61.431445254712      1.421E-14 2.918E-17 0.000E+00
 ETOT 11  -61.431445254712     -7.105E-15 5.309E-19 0.000E+00
 ETOT 12  -61.431445254712     -2.132E-14 5.516E-20 0.000E+00
 ETOT 13  -61.431445254712      0.000E+00 9.228E-21 0.000E+00

 At SCF step   13   max residual=  9.23E-21 < tolwfr=  1.00E-20 =>converged.

 ----iterations are completed or convergence reached----

 dfpt_looppert: DFPT cycle converged with prtwf=-1. Will skip output of the 1st-order WFK file.
 dfpt_looppert : ek2=    9.5495939456E+01
          f-sum rule ratio=    1.1812058811E+00
 prteigrs : about to open file /scratch/users/j/a/jabreu/flow_simple_remain_atoms/flow/w261/t1/tmpdata/tmp_1WF1_EIG
 Expectation of eigenvalue derivatives (hartree) for nkpt=   2  k points:
  (in case of degenerate eigenvalues, averaged derivative)
 kpt#   1, nband= 23, wtk=  0.50000, kpt=  0.0000  0.0000  0.0000 (reduced coord)
  -0.00000   -0.00000    0.00000   -0.00000   -0.00000   -0.00000   -0.00000    0.00000
   0.00000   -0.00000   -0.00000    0.00000    0.00000    0.00000    0.00000    0.00000
   0.00000   -0.00000   -0.00000    0.00000    0.00000   -0.00000   -0.00012
 prteigrs : prtvol=0 or 1, do not print more k-points.

 Eight components of 2nd-order total energy (hartree) are
 1,2,3: 0th-order hamiltonian combined with 1st-order wavefunctions
     kin0=   4.70462989E+01 eigvalue=   7.10981560E+00  local=  -1.59193484E+01
 4,5,6: 1st-order hamiltonian combined with 1st and 0th-order wfs
     kin1=  -1.12800365E+02  Hartree=   0.00000000E+00     xc=   0.00000000E+00
 7,8,9: eventually, occupation + non-local contributions
    edocc=   2.60331972E+01     enl0=  -2.83851802E+00   enl1=  -1.00625252E+01
 1-9 gives the relaxation energy (to be shifted if some occ is /=2.0)
   erelax=  -6.14314453E+01
  No Ewald or frozen-wf contrib.: the relaxation energy is the total one
 2DEtotal=   -0.6143144525E+02 Ha. Also 2DEtotal=   -0.167163463790E+04 eV
    (  non-var. 2DEtotal :   -6.1431445255E+01 Ha)

 Perturbation wavevector (in red.coord.)   0.000000  0.000000  0.000000
 Perturbation : derivative vs k along direction   2
 The set of symmetries contains only one element for this perturbation.
 symkpt : not enough symmetry to change the number of k points.

[...]

 Perturbation wavevector (in red.coord.)   0.000000  0.000000  0.000000
 Perturbation : derivative vs k along direction   3
 The set of symmetries contains only one element for this perturbation.
 symkpt : not enough symmetry to change the number of k points.

 Initialisation of the first-order wave-functions :
  ireadwf=   0

--- !BeginCycle
iteration_state: {dtset: 1, }
solver: {iscf: 7, nstep: 2000, nline: 4, wfoptalg: 0, }
tolerances: {tolwfr: 1.00E-20, }
...

     iter   2DEtotal(Ha)        deltaE(Ha) residm    vres2
-ETOT  1  -15.407811699579     -1.541E+01 2.571E-02 0.000E+00
 ETOT  2  -15.410625016443     -2.813E-03 1.679E-03 0.000E+00
 ETOT  3  -15.410625680040     -6.636E-07 9.944E-06 0.000E+00
 ETOT  4  -15.410625680349     -3.092E-10 1.090E-06 0.000E+00
 ETOT  5  -15.410625680349     -1.705E-13 8.077E-09 0.000E+00
 ETOT  6  -15.410625680349      0.000E+00 1.079E-09 0.000E+00
 ETOT  7  -15.410625680349      5.329E-15 8.496E-12 0.000E+00
 ETOT  8  -15.410625680349     -3.553E-15 1.185E-12 0.000E+00
 ETOT  9  -15.410625680349     -1.776E-15 9.680E-15 0.000E+00
 ETOT 10  -15.410625680349     -3.553E-15 1.355E-15 0.000E+00
 ETOT 11  -15.410625680349     -1.776E-15 1.135E-17 0.000E+00
 ETOT 12  -15.410625680349      1.776E-15 1.580E-18 0.000E+00
 ETOT 13  -15.410625680349      7.105E-15 1.351E-20 0.000E+00
 ETOT 14  -15.410625680349      0.000E+00 7.763E-21 0.000E+00

 At SCF step   14   max residual=  7.76E-21 < tolwfr=  1.00E-20 =>converged.

 ----iterations are completed or convergence reached----

 dfpt_looppert: DFPT cycle converged with prtwf=-1. Will skip output of the 1st-order WFK file.
 dfpt_looppert : ek2=    2.4084941433E+01
          f-sum rule ratio=    1.1761064508E+00
 prteigrs : about to open file /scratch/users/j/a/jabreu/flow_simple_remain_atoms/flow/w261/t1/tmpdata/tmp_1WF1_EIG
 Expectation of eigenvalue derivatives (hartree) for nkpt=   2  k points:
  (in case of degenerate eigenvalues, averaged derivative)
 kpt#   1, nband= 23, wtk=  0.50000, kpt=  0.0000  0.0000  0.0000 (reduced coord)
   0.00000    0.00000    0.00000   -0.00000   -0.00000   -0.00000   -0.00000    0.00000
   0.00000   -0.00000   -0.00000    0.00000    0.00000    0.00000   -0.00000   -0.00000
  -0.00000    0.00000    0.00000    0.00000    0.00000   -0.00000    0.00000
 prteigrs : prtvol=0 or 1, do not print more k-points.

 Eight components of 2nd-order total energy (hartree) are
 1,2,3: 0th-order hamiltonian combined with 1st-order wavefunctions
     kin0=   1.24851306E+01 eigvalue=   1.77623144E+00  local=  -4.23257882E+00
 4,5,6: 1st-order hamiltonian combined with 1st and 0th-order wfs
     kin1=  -2.83264550E+01  Hartree=   0.00000000E+00     xc=   0.00000000E+00
 7,8,9: eventually, occupation + non-local contributions
    edocc=   6.15484929E+00     enl0=  -7.73006789E-01   enl1=  -2.49479638E+00
 1-9 gives the relaxation energy (to be shifted if some occ is /=2.0)
   erelax=  -1.54106257E+01
  No Ewald or frozen-wf contrib.: the relaxation energy is the total one
 2DEtotal=   -0.1541062568E+02 Ha. Also 2DEtotal=   -0.419344450911E+03 eV
    (  non-var. 2DEtotal :   -1.5410625680E+01 Ha)

 CALCULATION OF EFFECTIVE MASSES
 NOTE : Additional infos (eff. mass eigenvalues, eigenvectors and, if degenerate, average mass) are available in stdout.

 COMMENTS:
 - At k-point ( 0.000, 0.000, 0.000), bands    13 through    14
   are DEGENERATE (effective mass tensor is therefore not defined).
   See Section IIIB Eqs. (67)-(70) and Appendix E of PRB 93 205147 (2016).
 - Angular average effective mass for Frohlich model is to be averaged over degenerate bands. See later.
 - Associated theta integrals calculated with ntheta=   1000 points.

 K-point ( 0.000, 0.000, 0.000) | band =    13
 Transport equivalent effective mass tensor:
             -0.3217772601             -0.0000000147             -0.0000015715
             -0.0000000147             -0.3217768042              0.0000002604
             -0.0000015715              0.0000002604             -2.7980464182
 Transport equivalent effective mass tensor eigenvalues:
             -2.7980464182             -0.3217772606             -0.3217768037
 Angular average effective mass 1/(<1/m>)=  -0.4524734173
 Angular average effective mass for Frohlich model (<m**0.5>)**2=  -0.5406170180
 Effective masses along directions: (cart. coord. / red. coord. -> eff. mass)
    1:   1.000000  0.000000  0.000000 /   0.894427 -0.447214  0.000000 ->  -0.3190847080
    2:   0.000000  1.000000  0.000000 /   0.000000  1.000000  0.000000 ->  -0.3190845763
    3:   0.000000  0.000000  1.000000 /   0.000000  0.000000  1.000000 ->  -2.7792407214
    4:   0.577350  0.577350  0.577350 /   0.493402  0.180598  0.850846 ->  -0.4603374611
    5:   0.000000  0.707107  0.707107 /   0.000000  0.448789  0.893638 ->  -0.5544546349
    6:   0.707107  0.000000  0.707107 /   0.486578 -0.243289  0.839078 ->  -0.5716408251
    7:   0.707107  0.707107  0.000000 /   0.939071  0.343724  0.000000 ->  -0.3190845416

 K-point ( 0.000, 0.000, 0.000) | band =    14
 Transport equivalent effective mass tensor:
             -1.9585853454             -0.0000006012             -0.0000028872
             -0.0000006012             -1.9585869468              0.0000039896
             -0.0000028872              0.0000039896             -3.0363823216
 Transport equivalent effective mass tensor eigenvalues:
             -3.0363823216             -1.9585871474             -1.9585851448
 Angular average effective mass 1/(<1/m>)=  -2.0979213991
 Angular average effective mass for Frohlich model (<m**0.5>)**2=  -2.1261283081
 Effective masses along directions: (cart. coord. / red. coord. -> eff. mass)
    1:   1.000000  0.000000  0.000000 /   0.894427 -0.447214  0.000000 ->  -1.8645173806
    2:   0.000000  1.000000  0.000000 /   0.000000  1.000000  0.000000 ->  -1.8645173752
    3:   0.000000  0.000000  1.000000 /   0.000000  0.000000  1.000000 ->  -2.7792671179
    4:   0.577350  0.577350  0.577350 /   0.493402  0.180598  0.850846 ->  -1.9439523123
    5:   0.000000  0.707107  0.707107 /   0.000000  0.448789  0.893638 ->  -2.5550337488
    6:   0.707107  0.000000  0.707107 /   0.486578 -0.243289  0.839078 ->  -2.2441433725
    7:   0.707107  0.707107  0.000000 /   0.939071  0.343724  0.000000 ->  -1.8645246417

 Angular average effective mass for Frohlich model, averaged over degenerate bands.
 Value of     (<<m**0.5>>)**2 =     1.202742E+00
 Absolute Value of <<m**0.5>> =     1.096696E+00

 K-point ( 0.500, 0.000, 0.447) | band =    15
 Effective mass tensor:
           3557.8741008499           2053.7950018982          10222.0078400682
           2053.7950018982           1186.0726575291           5901.3265250428
          10222.0078400682           5901.3265250428          29373.3280276381
 Effective mass tensor eigenvalues:
              0.3843693780              0.5602898681          34116.3301267710
 Angular average effective mass 1/(<1/m>)=   0.6839190849
 Angular average effective mass for Frohlich model (<m**0.5>)**2=   1.1346309701
 Effective masses along directions: (cart. coord. / red. coord. -> eff. mass)
    1:   1.000000  0.000000  0.000000 /   0.894427 -0.447214  0.000000 ->   0.5546555992
    2:   0.000000  1.000000  0.000000 /   0.000000  1.000000  0.000000 ->   0.4281913456
    3:   0.000000  0.000000  1.000000 /   0.000000  0.000000  1.000000 ->   4.0296790716
    4:   0.577350  0.577350  0.577350 /   0.493402  0.180598  0.850846 ->   1.6880622296
    5:   0.000000  0.707107  0.707107 /   0.000000  0.448789  0.893638 ->   1.0172238718
    6:   0.707107  0.000000  0.707107 /   0.486578 -0.243289  0.839078 ->   2.0376170647
    7:   0.707107  0.707107  0.000000 /   0.939071  0.343724  0.000000 ->   0.6218914646

 END OF EFFECTIVE MASSES SECTION

 ---- first-order wavefunction calculations are completed ----

 Total localisation tensor (bohr^2) in cartesian coordinates
  WARNING : still subject to testing - especially symmetries.
      direction              matrix element
   alpha     beta       real part   imaginary part
     1        1       1.5704944546    0.0000000000
     1        2      -0.6393965612    0.0000000000
     1        3       0.0000000000    0.0000000000
     2        1      -0.6393965612    0.0000000000
     2        2       1.1074673303    0.0000000000
     2        3       0.0000000000    0.0000000000
     3        1       0.0000000000    0.0000000000
     3        2       0.0000000000    0.0000000000
     3        3       0.9553068757    0.0000000000

 respfn : d/dk was computed, but no 2DTE, so no DDB output.

== END DATASET(S) ==============================================================

 -outvars: echo values of variables after computation  --------
            acell      1.0000000000E+00  1.0000000000E+00  1.0000000000E+00 Bohr
              amu      2.43050000E+01  9.01218200E+00  1.40067400E+01
             ecut      4.40000000E+01 Hartree
           etotal     -1.5410625680E+01
            fcart      0.0000000000E+00  0.0000000000E+00  0.0000000000E+00
                       0.0000000000E+00  0.0000000000E+00  0.0000000000E+00
                       0.0000000000E+00  0.0000000000E+00  0.0000000000E+00
                       0.0000000000E+00  0.0000000000E+00  0.0000000000E+00
                       0.0000000000E+00  0.0000000000E+00  0.0000000000E+00
-          fftalg         512
           irdden           1
           irdwfk           1
           istwfk        1    0
              ixc     -116133
              kpt      0.00000000E+00  0.00000000E+00  0.00000000E+00
                       5.00000000E-01  0.00000000E+00  4.47368421E-01
           kptopt           0
P           mkmem           2
P          mkqmem           2
P          mk1mem           2
            natom           5
            nband          23
           nbdbuf           4
            ngfft          36      36      60
             nkpt           2
            nstep        2000
             nsym          12
           ntypat           3
              occ      2.000000  2.000000  2.000000  2.000000  2.000000  2.000000
                       2.000000  2.000000  2.000000  2.000000  2.000000  2.000000
                       2.000000  2.000000  0.000000  0.000000  0.000000  0.000000
                       0.000000  0.000000  0.000000  0.000000  0.000000
        optdriver           1
            prtwf          -1
            rfdir           1       1       1
           rfelfd           2
            rprim      5.5558536525E+00  0.0000000000E+00  0.0000000000E+00
                      -2.7779268262E+00  4.8115104027E+00  0.0000000000E+00
                       0.0000000000E+00  0.0000000000E+00  9.5807847835E+00
          spgroup         164
           strten      0.0000000000E+00  0.0000000000E+00  0.0000000000E+00
                       0.0000000000E+00  0.0000000000E+00  0.0000000000E+00
           symrel      1  0  0   0  1  0   0  0  1      -1  0  0   0 -1  0   0  0 -1
                      -1  0  0   1  1  0   0  0  1       1  0  0  -1 -1  0   0  0 -1
                       0  1  0  -1 -1  0   0  0  1       0 -1  0   1  1  0   0  0 -1
                       0 -1  0  -1  0  0   0  0  1       0  1  0   1  0  0   0  0 -1
                      -1 -1  0   1  0  0   0  0  1       1  1  0  -1  0  0   0  0 -1
                       1  1  0   0 -1  0   0  0  1      -1 -1  0   0  1  0   0  0 -1
           tolwfr      1.00000000E-20
            typat      1  2  2  3  3
           useylm           1
              wtk        0.50000    0.50000
           xangst      0.0000000000E+00  0.0000000000E+00  0.0000000000E+00
                       1.4700155636E+00  8.4871388133E-01  1.8843926781E+00
                       1.7639241746E-11  1.6974277627E+00  3.1855402698E+00
                       1.4700155636E+00  8.4871388133E-01  3.6623725335E+00
                       1.7639241746E-11  1.6974277627E+00  1.4075604144E+00
            xcart      0.0000000000E+00  0.0000000000E+00  0.0000000000E+00
                       2.7779268263E+00  1.6038368009E+00  3.5609860883E+00
                       3.3333336091E-11  3.2076736018E+00  6.0197986952E+00
                       2.7779268263E+00  1.6038368009E+00  6.9208810848E+00
                       3.3333336091E-11  3.2076736018E+00  2.6599036987E+00
             xred      0.0000000000E+00  0.0000000000E+00  0.0000000000E+00
                       6.6666666667E-01  3.3333333333E-01  3.7168000000E-01
                       3.3333333333E-01  6.6666666667E-01  6.2832000000E-01
                       6.6666666667E-01  3.3333333333E-01  7.2237100000E-01
                       3.3333333333E-01  6.6666666667E-01  2.7762900000E-01
            znucl       12.00000    4.00000    7.00000

- Timing analysis has been suppressed with timopt=0

 Suggested references for the acknowledgment of ABINIT usage.

 Calculation completed.
.Delivered   2 WARNINGs and   5 COMMENTs to log file.