.Version 9.5.1 of ABINIT

 ABINIT is a project of the Universite Catholique de Louvain,
 Corning Inc. and other collaborators, see ~abinit/doc/developers/contributors.txt .
 acknowledgments of the ABINIT effort.

.Starting date : Wed 19 May 2021.
- ( at 07h48 )

- input  file    -> /scratch/users/j/a/jabreu/flow_simple_9atoms/flow/w114/t1/run.abi
- output file    -> /scratch/users/j/a/jabreu/flow_simple_9atoms/flow/w114/t1/run.abo
- root for input  files -> /scratch/users/j/a/jabreu/flow_simple_9atoms/flow/w114/t1/indata/in
- root for output files -> /scratch/users/j/a/jabreu/flow_simple_9atoms/flow/w114/t1/outdata/out

 Symmetries : space group P3 1 2 (#149); Bravais hP (primitive hexag.)
     intxc =       0      iscf =       7    lmnmax =      18     lnmax =       6
     mgfft =      64  mpssoang =       3    mqgrid =    3052     natom =       9
  nloc_mem =       1    nspden =       1   nspinor =       1    nsppol =       1
      nsym =       6    n1xccc =    2501    ntypat =       4    occopt =       1
   xclevel =       2
-    mband =          47        mffmem =           1         mkmem =           2
-   mkqmem =           2        mk1mem =           2           mpw =       11479
      nfft =      230400          nkpt =           2
  Rough estimation (10% accuracy) of disk space for files :

------------- Echo of variables that govern the present computation ------------
-
- outvars: echo of selected default values
-   iomode0 =  0 , fftalg0 =512 , wfoptalg0 =  0
-
- outvars: echo of global parameters not present in the input file
-  max_nthreads =    0
-
 -outvars: echo values of preprocessed input variables --------
            acell      1.0000000000E+00  1.0000000000E+00  1.0000000000E+00 Bohr
              amu      8.76200000E+01  7.26100000E+01  1.27600000E+02
                       1.59994000E+01
             ecut      4.40000000E+01 Hartree
-          fftalg         512
           irdden           1
           irdwfk           1
           istwfk        0    1
              ixc     -116133
              kpt      1.73333333E-01  1.73333333E-01  0.00000000E+00
                       0.00000000E+00  0.00000000E+00  0.00000000E+00
           kptopt           0
P           mkmem           2
P          mkqmem           2
P          mk1mem           2
            natom           9
            nband          47
           nbdbuf           4
            ngfft          60      60      64
             nkpt           2
            nstep        2000
             nsym           6
           ntypat           4
              occ      2.000000  2.000000  2.000000  2.000000  2.000000  2.000000
                       2.000000  2.000000  2.000000  2.000000  2.000000  2.000000
                       2.000000  2.000000  2.000000  2.000000  2.000000  2.000000
                       2.000000  2.000000  2.000000  2.000000  2.000000  2.000000
                       2.000000  2.000000  2.000000  2.000000  2.000000  2.000000
                       2.000000  2.000000  2.000000  2.000000  2.000000  2.000000
                       2.000000  2.000000  0.000000  0.000000  0.000000  0.000000
                       0.000000  0.000000  0.000000  0.000000  0.000000
        optdriver           1
            prtwf          -1
            rfdir           1       1       1
           rfelfd           2
            rprim      9.6444335940E+00  0.0000000000E+00  0.0000000000E+00
                      -4.8222167970E+00  8.3523244975E+00  0.0000000000E+00
                       0.0000000000E+00  0.0000000000E+00  1.0219952822E+01
          spgroup         149
           symrel      1  0  0   0  1  0   0  0  1       0 -1  0  -1  0  0   0  0 -1
                       0  1  0  -1 -1  0   0  0  1       1  1  0   0 -1  0   0  0 -1
                      -1 -1  0   1  0  0   0  0  1      -1  0  0   1  1  0   0  0 -1
           tolwfr      1.00000000E-20
            typat      1  2  3  4  4  4  4  4  4
           useylm           1
              wtk        0.50000    0.50000
           xangst      0.0000000000E+00  0.0000000000E+00  0.0000000000E+00
                       2.5518072239E+00  1.4732865876E+00  2.7040830532E+00
                       0.0000000000E+00  2.9465731752E+00  2.7040830532E+00
                       3.1666473118E+00  2.6505898998E-02  3.7929469925E+00
                       3.4973360099E+00  2.7291440673E+00  3.7929469925E+00
                       9.9143834984E-01  1.6642097965E+00  3.7929469925E+00
                       4.1121760979E+00  1.6642097965E+00  1.6152191138E+00
                       1.6062784378E+00  2.7291440673E+00  1.6152191138E+00
                       1.9369671359E+00  2.6505898998E-02  1.6152191138E+00
            xcart      0.0000000000E+00  0.0000000000E+00  0.0000000000E+00
                       4.8222167970E+00  2.7841081658E+00  5.1099764111E+00
                       0.0000000000E+00  5.5682163317E+00  5.1099764111E+00
                       5.9840961787E+00  5.0088890012E-02  7.1676310525E+00
                       6.6090072534E+00  5.1573348644E+00  7.1676310525E+00
                       1.8735469588E+00  3.1449007430E+00  7.1676310525E+00
                       7.7708866352E+00  3.1449007430E+00  3.0523217697E+00
                       3.0354263406E+00  5.1573348644E+00  3.0523217697E+00
                       3.6603374153E+00  5.0088890012E-02  3.0523217697E+00
             xred      0.0000000000E+00  0.0000000000E+00  0.0000000000E+00
                       6.6666666667E-01  3.3333333333E-01  5.0000000000E-01
                       3.3333333333E-01  6.6666666667E-01  5.0000000000E-01
                       6.2347000000E-01  5.9970000000E-03  7.0133700000E-01
                       9.9400300000E-01  6.1747300000E-01  7.0133700000E-01
                       3.8252700000E-01  3.7653000000E-01  7.0133700000E-01
                       9.9400300000E-01  3.7653000000E-01  2.9866300000E-01
                       6.2347000000E-01  6.1747300000E-01  2.9866300000E-01
                       3.8252700000E-01  5.9970000000E-03  2.9866300000E-01
            znucl       38.00000   32.00000   52.00000    8.00000

 chkinp: Checking input parameters for consistency.

== DATASET  1 ==================================================================
-   mpi_nproc: 1, omp_nthreads: -1 (-1 if OMP is not activated)

--- !DatasetInfo
iteration_state: {dtset: 1, }
dimensions: {natom: 9, nkpt: 2, mband: 47, nsppol: 1, nspinor: 1, nspden: 1, mpw: 11479, }
cutoff_energies: {ecut:  44.0, pawecutdg:  -1.0, }
electrons: {nelect:   7.60000000E+01, charge:   0.00000000E+00, occopt:   1.00000000E+00, tsmear:   1.00000000E-02, }
meta: {optdriver: 1, rfelfd: 2, }
...

 Real(R)+Recip(G) space primitive vectors, cartesian coordinates (Bohr,Bohr^-1):
 R(1)=  9.6444336  0.0000000  0.0000000  G(1)=  0.1036868  0.0598636  0.0000000
 R(2)= -4.8222168  8.3523245  0.0000000  G(2)=  0.0000000  0.1197271  0.0000000
 R(3)=  0.0000000  0.0000000 10.2199528  G(3)=  0.0000000  0.0000000  0.0978478
 Unit cell volume ucvol=  8.2325235E+02 bohr^3
 Angles (23,13,12)=  9.00000000E+01  9.00000000E+01  1.20000000E+02 degrees

 getcut: wavevector=  0.0000  0.0000  0.0000  ngfft=  60  60  64
         ecut(hartree)=     44.000   => boxcut(ratio)=   2.08345

--- Pseudopotential description ------------------------------------------------
- pspini: atom type   1  psp file is /scratch/users/j/a/jabreu/pseudos/PBEsol/Sr.psp8
- pspatm: opening atomic psp file    /scratch/users/j/a/jabreu/pseudos/PBEsol/Sr.psp8
- Sr    ONCVPSP-3.3.0  r_core=   1.66721   1.31335   1.51547
- 38.00000  10.00000    180112                znucl, zion, pspdat
    8 -116133    2    4       600   0.00000   pspcod,pspxc,lmax,lloc,mmax,r2well
    5.99000000000000    6.00000000000000    0.00000000000000   rchrg,fchrg,qchrg
     nproj     2     2     2
     extension_switch     1
  pspatm : epsatm=   12.46450977
         --- l  ekb(1:nproj) -->
             0   10.029206    1.044171
             1    7.472414    1.670829
             2    4.142950    0.968140
 pspatm: atomic psp has been read  and splines computed

- pspini: atom type   2  psp file is /scratch/users/j/a/jabreu/pseudos/PBEsol/Ge.psp8
- pspatm: opening atomic psp file    /scratch/users/j/a/jabreu/pseudos/PBEsol/Ge.psp8
- Ge    ONCVPSP-3.3.0  r_core=   1.91022   1.82122   1.91022
- 32.00000  14.00000    180112                znucl, zion, pspdat
    8 -116133    2    4       600   0.00000   pspcod,pspxc,lmax,lloc,mmax,r2well
    5.99000000000000    5.00000000000000    0.00000000000000   rchrg,fchrg,qchrg
     nproj     2     2     2
     extension_switch     1
  pspatm : epsatm=   30.86751540
         --- l  ekb(1:nproj) -->
             0    6.339734    0.583066
             1    3.813259    0.738801
             2   -9.332373   -3.602819
 pspatm: atomic psp has been read  and splines computed

[...]

- pspini: atom type   4  psp file is /scratch/users/j/a/jabreu/pseudos/PBEsol/O.psp8
- pspatm: opening atomic psp file    /scratch/users/j/a/jabreu/pseudos/PBEsol/O.psp8
- O     ONCVPSP-3.3.0  r_core=   1.35509   1.45563   1.26150
-  8.00000   6.00000    180112                znucl, zion, pspdat
    8 -116133    2    4       600   0.00000   pspcod,pspxc,lmax,lloc,mmax,r2well
    5.99000000000000    4.00000000000000    0.00000000000000   rchrg,fchrg,qchrg
     nproj     2     2     1
     extension_switch     1
  pspatm : epsatm=    6.22910522
         --- l  ekb(1:nproj) -->
             0    6.050032    0.820363
             1   -4.739617   -1.153841
             2   -1.335834
 pspatm: atomic psp has been read  and splines computed

   8.93254257E+03                                ecore*ucvol(ha*bohr**3)

-inwffil : will read wavefunctions from disk file /scratch/users/j/a/jabreu/flow_simple_9atoms/flow/w114/t1/indata/in_WFK

 ==>  initialize data related to q vector <==

 The list of irreducible perturbations for this q vector is:
    1)    idir= 1    ipert=  10
    2)    idir= 2    ipert=  10
    3)    idir= 3    ipert=  10

 Perturbation wavevector (in red.coord.)   0.000000  0.000000  0.000000
 Perturbation : derivative vs k along direction   1

 dfpt_looppert : COMMENT -
  In a d/dk calculation, iscf is set to -3 automatically.
 The set of symmetries contains only one element for this perturbation.
 symkpt : not enough symmetry to change the number of k points.

[...]

 Initialisation of the first-order wave-functions :
  ireadwf=   0

--- !BeginCycle
iteration_state: {dtset: 1, }
solver: {iscf: 7, nstep: 2000, nline: 4, wfoptalg: 0, }
tolerances: {tolwfr: 1.00E-20, }
...

     iter   2DEtotal(Ha)        deltaE(Ha) residm    vres2
-ETOT  1  -69.576641724698     -6.958E+01 1.101E-01 0.000E+00
 ETOT  2  -69.658270152715     -8.163E-02 1.672E-02 0.000E+00
 ETOT  3  -69.658827595422     -5.574E-04 1.541E-03 0.000E+00
 ETOT  4  -69.658835814777     -8.219E-06 4.436E-04 0.000E+00
 ETOT  5  -69.658835962505     -1.477E-07 6.188E-05 0.000E+00
 ETOT  6  -69.658835965413     -2.909E-09 2.083E-05 0.000E+00
 ETOT  7  -69.658835965474     -6.098E-11 2.963E-06 0.000E+00
 ETOT  8  -69.658835965476     -1.265E-12 1.021E-06 0.000E+00
 ETOT  9  -69.658835965476     -1.279E-13 1.453E-07 0.000E+00
[...]
 ETOT 16  -69.658835965476      4.263E-14 5.975E-12 0.000E+00
 ETOT 17  -69.658835965476     -4.263E-14 8.585E-13 0.000E+00
 ETOT 18  -69.658835965476      0.000E+00 2.942E-13 0.000E+00
 ETOT 19  -69.658835965476      1.421E-14 4.243E-14 0.000E+00
 ETOT 20  -69.658835965476      1.421E-14 1.450E-14 0.000E+00
 ETOT 21  -69.658835965476     -1.421E-14 2.100E-15 0.000E+00
 ETOT 22  -69.658835965476      2.842E-14 7.154E-16 0.000E+00
 ETOT 23  -69.658835965476     -1.421E-14 1.040E-16 0.000E+00
 ETOT 24  -69.658835965476      0.000E+00 3.534E-17 0.000E+00
 ETOT 25  -69.658835965476     -2.842E-14 5.163E-18 0.000E+00
 ETOT 26  -69.658835965476      0.000E+00 1.748E-18 0.000E+00
 ETOT 27  -69.658835965476      1.421E-14 2.565E-19 0.000E+00
 ETOT 28  -69.658835965476      1.421E-14 8.656E-20 0.000E+00
 ETOT 29  -69.658835965476      0.000E+00 1.276E-20 0.000E+00
 ETOT 30  -69.658835965476      1.421E-14 9.960E-21 0.000E+00

 At SCF step   30   max residual=  9.96E-21 < tolwfr=  1.00E-20 =>converged.

 ----iterations are completed or convergence reached----

 dfpt_looppert: DFPT cycle converged with prtwf=-1. Will skip output of the 1st-order WFK file.
 dfpt_looppert : ek2=    8.6017854705E+01
          f-sum rule ratio=    1.0259868503E+00
 prteigrs : about to open file /scratch/users/j/a/jabreu/flow_simple_9atoms/flow/w114/t1/tmpdata/tmp_1WF1_EIG
 Expectation of eigenvalue derivatives (hartree) for nkpt=   2  k points:
  (in case of degenerate eigenvalues, averaged derivative)
 kpt#   1, nband= 47, wtk=  0.50000, kpt=  0.1733  0.1733  0.0000 (reduced coord)
  -0.00000    0.00000   -0.00000    0.00000    0.00001    0.00015   -0.00074    0.00063
  -0.00032    0.00003    0.00031    0.05986   -0.10512   -0.02262    0.05140   -0.03092
   0.01200   -0.01612   -0.01102    0.00189    0.13205   -0.06279    0.03012    0.01180
   0.05619    0.03411    0.08459   -0.11765   -0.15443    0.02651    0.08017   -0.03770
  -0.04539   -0.03138   -0.01390    0.02626   -0.01095    0.00014    0.09628    0.03430
  -0.06914    0.04758   -0.06026    0.00428    0.02988   -0.00607    0.04974
 prteigrs : prtvol=0 or 1, do not print more k-points.

 Eight components of 2nd-order total energy (hartree) are
 1,2,3: 0th-order hamiltonian combined with 1st-order wavefunctions
     kin0=   8.69478608E+01 eigvalue=   7.15144708E+00  local=  -3.72563073E+01
 4,5,6: 1st-order hamiltonian combined with 1st and 0th-order wfs
     kin1=  -8.82531878E+01  Hartree=   0.00000000E+00     xc=   0.00000000E+00
 7,8,9: eventually, occupation + non-local contributions
    edocc=   9.90474877E+00     enl0=   2.91108662E+00   enl1=  -5.10644841E+01
 1-9 gives the relaxation energy (to be shifted if some occ is /=2.0)
   erelax=  -6.96588360E+01
  No Ewald or frozen-wf contrib.: the relaxation energy is the total one
 2DEtotal=   -0.6965883597E+02 Ha. Also 2DEtotal=   -0.189551332470E+04 eV
    (  non-var. 2DEtotal :   -6.9658835965E+01 Ha)

 Perturbation wavevector (in red.coord.)   0.000000  0.000000  0.000000
 Perturbation : derivative vs k along direction   2
 The set of symmetries contains only one element for this perturbation.
 symkpt : not enough symmetry to change the number of k points.

[...]

 Perturbation wavevector (in red.coord.)   0.000000  0.000000  0.000000
 Perturbation : derivative vs k along direction   3
 The set of symmetries contains only one element for this perturbation.
 symkpt : not enough symmetry to change the number of k points.

-inwffil : will read wavefunctions from disk file /scratch/users/j/a/jabreu/flow_simple_9atoms/flow/w114/t1/indata/in_WFK

 Initialisation of the first-order wave-functions :
  ireadwf=   0

--- !BeginCycle
iteration_state: {dtset: 1, }
solver: {iscf: 7, nstep: 2000, nline: 4, wfoptalg: 0, }
tolerances: {tolwfr: 1.00E-20, }
...

     iter   2DEtotal(Ha)        deltaE(Ha) residm    vres2
-ETOT  1  -46.550048909256     -4.655E+01 8.159E-02 0.000E+00
 ETOT  2  -46.601597921272     -5.155E-02 6.589E-03 0.000E+00
 ETOT  3  -46.601934556387     -3.366E-04 3.862E-04 0.000E+00
 ETOT  4  -46.601939636243     -5.080E-06 7.219E-05 0.000E+00
 ETOT  5  -46.601939734421     -9.818E-08 6.670E-06 0.000E+00
 ETOT  6  -46.601939736532     -2.110E-09 1.717E-06 0.000E+00
 ETOT  7  -46.601939736580     -4.840E-11 1.893E-07 0.000E+00
 ETOT  8  -46.601939736581     -1.180E-12 5.179E-08 0.000E+00
 ETOT  9  -46.601939736581      7.105E-15 5.749E-09 0.000E+00
 ETOT 10  -46.601939736581     -7.105E-15 1.618E-09 0.000E+00
 ETOT 11  -46.601939736581      0.000E+00 1.787E-10 0.000E+00
 ETOT 12  -46.601939736581      0.000E+00 5.123E-11 0.000E+00
 ETOT 13  -46.601939736581     -7.105E-15 5.611E-12 0.000E+00
 ETOT 14  -46.601939736581      7.105E-15 1.812E-12 0.000E+00
 ETOT 15  -46.601939736581      0.000E+00 2.457E-13 0.000E+00
 ETOT 16  -46.601939736581      0.000E+00 9.474E-14 0.000E+00
 ETOT 17  -46.601939736581      0.000E+00 1.262E-14 0.000E+00
 ETOT 18  -46.601939736581      1.421E-14 5.008E-15 0.000E+00
 ETOT 19  -46.601939736581     -1.421E-14 6.621E-16 0.000E+00
 ETOT 20  -46.601939736581      0.000E+00 2.662E-16 0.000E+00
 ETOT 21  -46.601939736581      1.421E-14 3.520E-17 0.000E+00
 ETOT 22  -46.601939736581     -1.421E-14 1.419E-17 0.000E+00
 ETOT 23  -46.601939736581     -7.105E-15 1.886E-18 0.000E+00
 ETOT 24  -46.601939736581      0.000E+00 7.579E-19 0.000E+00
 ETOT 25  -46.601939736581     -7.105E-15 1.016E-19 0.000E+00
 ETOT 26  -46.601939736581      1.421E-14 4.054E-20 0.000E+00
 ETOT 27  -46.601939736581      0.000E+00 9.729E-21 0.000E+00

 At SCF step   27   max residual=  9.73E-21 < tolwfr=  1.00E-20 =>converged.

 ----iterations are completed or convergence reached----

 dfpt_looppert: DFPT cycle converged with prtwf=-1. Will skip output of the 1st-order WFK file.
 dfpt_looppert : ek2=    5.7452051707E+01
          f-sum rule ratio=    1.0285260772E+00
 prteigrs : about to open file /scratch/users/j/a/jabreu/flow_simple_9atoms/flow/w114/t1/tmpdata/tmp_1WF1_EIG
 Expectation of eigenvalue derivatives (hartree) for nkpt=   2  k points:
  (in case of degenerate eigenvalues, averaged derivative)
 kpt#   1, nband= 47, wtk=  0.50000, kpt=  0.1733  0.1733  0.0000 (reduced coord)
  -0.00000   -0.00000    0.00000   -0.00000    0.00000    0.00000   -0.00002    0.00003
   0.00000   -0.00000   -0.00000   -0.00034   -0.00482    0.00224   -0.00318    0.01496
   0.00204    0.01049   -0.01653   -0.01368    0.00573    0.00557    0.00260   -0.00416
   0.01488    0.01242    0.00722   -0.01320    0.01179   -0.01315   -0.00125    0.01250
   0.02161   -0.03369   -0.04195    0.00784   -0.01185    0.00247    0.00266   -0.00029
   0.00982   -0.02418    0.02312   -0.00277    0.02211    0.04310    0.03375
 prteigrs : prtvol=0 or 1, do not print more k-points.

 Eight components of 2nd-order total energy (hartree) are
 1,2,3: 0th-order hamiltonian combined with 1st-order wavefunctions
     kin0=   5.92563146E+01 eigvalue=   4.82006857E+00  local=  -2.56895570E+01
 4,5,6: 1st-order hamiltonian combined with 1st and 0th-order wfs
     kin1=  -5.90909334E+01  Hartree=   0.00000000E+00     xc=   0.00000000E+00
 7,8,9: eventually, occupation + non-local contributions
    edocc=   6.27527419E+00     enl0=   1.93983945E+00   enl1=  -3.41129461E+01
 1-9 gives the relaxation energy (to be shifted if some occ is /=2.0)
   erelax=  -4.66019397E+01
  No Ewald or frozen-wf contrib.: the relaxation energy is the total one
 2DEtotal=   -0.4660193974E+02 Ha. Also 2DEtotal=   -0.126810327079E+04 eV
    (  non-var. 2DEtotal :   -4.6601939736E+01 Ha)

 CALCULATION OF EFFECTIVE MASSES
 NOTE : Additional infos (eff. mass eigenvalues, eigenvectors and, if degenerate, average mass) are available in stdout.

 K-point ( 0.173, 0.173, 0.000) | band =    38
 Effective mass tensor:
             -9.7709430552              4.3617069669              0.1394821945
              4.3617069669             -4.7344778441              0.2415904716
              0.1394821945              0.2415904716             -4.7897651075
 Effective mass tensor eigenvalues:
            -12.2891757897             -4.8196571254             -2.1863530917
 Angular average effective mass 1/(<1/m>)=  -4.0201612447
 Angular average effective mass for Frohlich model (<m**0.5>)**2=  -4.5897839939
 Effective masses along directions: (cart. coord. / red. coord. -> eff. mass)
    1:   1.000000  0.000000  0.000000 /   0.894427 -0.447214  0.000000 ->  -5.7252192207
    2:   0.000000  1.000000  0.000000 /   0.000000  1.000000  0.000000 ->  -2.7681465542
    3:   0.000000  0.000000  1.000000 /   0.000000  0.000000  1.000000 ->  -4.7546511040
    4:   0.577350  0.577350  0.577350 /   0.665649  0.243645  0.705371 ->  -2.6275601185
    5:   0.000000  0.707107  0.707107 /   0.000000  0.632809  0.774308 ->  -3.2392519284
    6:   0.707107  0.000000  0.707107 /   0.649172 -0.324586  0.687910 ->  -4.8607427689
    7:   0.707107  0.707107  0.000000 /   0.939071  0.343724  0.000000 ->  -2.3280282911

 K-point ( 0.000, 0.000, 0.000) | band =    39
 Effective mass tensor:
              0.4157219406             -0.0000000001             -0.0000000000
             -0.0000000001              0.4157219406             -0.0000000000
             -0.0000000000             -0.0000000000              0.6241515952
 Effective mass tensor eigenvalues:
              0.4157219405              0.4157219407              0.6241515952
 Angular average effective mass 1/(<1/m>)=   0.4677937386
 Angular average effective mass for Frohlich model (<m**0.5>)**2=   0.4725736846
 Effective masses along directions: (cart. coord. / red. coord. -> eff. mass)
    1:   1.000000  0.000000  0.000000 /   0.894427 -0.447214  0.000000 ->   0.4157219406
    2:   0.000000  1.000000  0.000000 /   0.000000  1.000000  0.000000 ->   0.4157219406
    3:   0.000000  0.000000  1.000000 /   0.000000  0.000000  1.000000 ->   0.6241515952
    4:   0.577350  0.577350  0.577350 /   0.665649  0.243645  0.705371 ->   0.4677937385
    5:   0.000000  0.707107  0.707107 /   0.000000  0.632809  0.774308 ->   0.4990482082
    6:   0.707107  0.000000  0.707107 /   0.649172 -0.324586  0.687910 ->   0.4990482082
    7:   0.707107  0.707107  0.000000 /   0.939071  0.343724  0.000000 ->   0.4157219405

 END OF EFFECTIVE MASSES SECTION

 ---- first-order wavefunction calculations are completed ----

 Total localisation tensor (bohr^2) in cartesian coordinates
  WARNING : still subject to testing - especially symmetries.
      direction              matrix element
   alpha     beta       real part   imaginary part
     1        1       1.1833883853    0.0000000000
     1        2      -0.4099377614    0.0000000000
     1        3       0.0000000000    0.0000000000
     2        1      -0.4099377614    0.0000000000
     2        2       0.7100330306    0.0000000000
     2        3       0.0000000000    0.0000000000
     3        1       0.0000000000    0.0000000000
     3        2       0.0000000000    0.0000000000
     3        3       0.6763386352    0.0000000000

 respfn : d/dk was computed, but no 2DTE, so no DDB output.

== END DATASET(S) ==============================================================

 -outvars: echo values of variables after computation  --------
            acell      1.0000000000E+00  1.0000000000E+00  1.0000000000E+00 Bohr
              amu      8.76200000E+01  7.26100000E+01  1.27600000E+02
                       1.59994000E+01
             ecut      4.40000000E+01 Hartree
           etotal     -4.6601939737E+01
            fcart      0.0000000000E+00  0.0000000000E+00  0.0000000000E+00
                       0.0000000000E+00  0.0000000000E+00  0.0000000000E+00
                       0.0000000000E+00  0.0000000000E+00  0.0000000000E+00
                       0.0000000000E+00  0.0000000000E+00  0.0000000000E+00
                       0.0000000000E+00  0.0000000000E+00  0.0000000000E+00
                       0.0000000000E+00  0.0000000000E+00  0.0000000000E+00
                       0.0000000000E+00  0.0000000000E+00  0.0000000000E+00
                       0.0000000000E+00  0.0000000000E+00  0.0000000000E+00
                       0.0000000000E+00  0.0000000000E+00  0.0000000000E+00
-          fftalg         512
           irdden           1
           irdwfk           1
           istwfk        0    1
              ixc     -116133
              kpt      1.73333333E-01  1.73333333E-01  0.00000000E+00
                       0.00000000E+00  0.00000000E+00  0.00000000E+00
           kptopt           0
P           mkmem           2
P          mkqmem           2
P          mk1mem           2
            natom           9
            nband          47
           nbdbuf           4
            ngfft          60      60      64
             nkpt           2
            nstep        2000
             nsym           6
           ntypat           4
              occ      2.000000  2.000000  2.000000  2.000000  2.000000  2.000000
                       2.000000  2.000000  2.000000  2.000000  2.000000  2.000000
                       2.000000  2.000000  2.000000  2.000000  2.000000  2.000000
                       2.000000  2.000000  2.000000  2.000000  2.000000  2.000000
                       2.000000  2.000000  2.000000  2.000000  2.000000  2.000000
                       2.000000  2.000000  2.000000  2.000000  2.000000  2.000000
                       2.000000  2.000000  0.000000  0.000000  0.000000  0.000000
                       0.000000  0.000000  0.000000  0.000000  0.000000
        optdriver           1
            prtwf          -1
            rfdir           1       1       1
           rfelfd           2
            rprim      9.6444335940E+00  0.0000000000E+00  0.0000000000E+00
                      -4.8222167970E+00  8.3523244975E+00  0.0000000000E+00
                       0.0000000000E+00  0.0000000000E+00  1.0219952822E+01
          spgroup         149
           strten      0.0000000000E+00  0.0000000000E+00  0.0000000000E+00
                       0.0000000000E+00  0.0000000000E+00  0.0000000000E+00
           symrel      1  0  0   0  1  0   0  0  1       0 -1  0  -1  0  0   0  0 -1
                       0  1  0  -1 -1  0   0  0  1       1  1  0   0 -1  0   0  0 -1
                      -1 -1  0   1  0  0   0  0  1      -1  0  0   1  1  0   0  0 -1
           tolwfr      1.00000000E-20
            typat      1  2  3  4  4  4  4  4  4
           useylm           1
              wtk        0.50000    0.50000
           xangst      0.0000000000E+00  0.0000000000E+00  0.0000000000E+00
                       2.5518072239E+00  1.4732865876E+00  2.7040830532E+00
                       0.0000000000E+00  2.9465731752E+00  2.7040830532E+00
                       3.1666473118E+00  2.6505898998E-02  3.7929469925E+00
                       3.4973360099E+00  2.7291440673E+00  3.7929469925E+00
                       9.9143834984E-01  1.6642097965E+00  3.7929469925E+00
                       4.1121760979E+00  1.6642097965E+00  1.6152191138E+00
                       1.6062784378E+00  2.7291440673E+00  1.6152191138E+00
                       1.9369671359E+00  2.6505898998E-02  1.6152191138E+00
            xcart      0.0000000000E+00  0.0000000000E+00  0.0000000000E+00
                       4.8222167970E+00  2.7841081658E+00  5.1099764111E+00
                       0.0000000000E+00  5.5682163317E+00  5.1099764111E+00
                       5.9840961787E+00  5.0088890012E-02  7.1676310525E+00
                       6.6090072534E+00  5.1573348644E+00  7.1676310525E+00
                       1.8735469588E+00  3.1449007430E+00  7.1676310525E+00
                       7.7708866352E+00  3.1449007430E+00  3.0523217697E+00
                       3.0354263406E+00  5.1573348644E+00  3.0523217697E+00
                       3.6603374153E+00  5.0088890012E-02  3.0523217697E+00
             xred      0.0000000000E+00  0.0000000000E+00  0.0000000000E+00
                       6.6666666667E-01  3.3333333333E-01  5.0000000000E-01
                       3.3333333333E-01  6.6666666667E-01  5.0000000000E-01
                       6.2347000000E-01  5.9970000000E-03  7.0133700000E-01
                       9.9400300000E-01  6.1747300000E-01  7.0133700000E-01
                       3.8252700000E-01  3.7653000000E-01  7.0133700000E-01
                       9.9400300000E-01  3.7653000000E-01  2.9866300000E-01
                       6.2347000000E-01  6.1747300000E-01  2.9866300000E-01
                       3.8252700000E-01  5.9970000000E-03  2.9866300000E-01
            znucl       38.00000   32.00000   52.00000    8.00000

- Timing analysis has been suppressed with timopt=0

 Suggested references for the acknowledgment of ABINIT usage.

 Calculation completed.
.Delivered  14 WARNINGs and   9 COMMENTs to log file.