.Version 9.7.2 of ABINIT

 ABINIT is a project of the Universite Catholique de Louvain,
 Corning Inc. and other collaborators, see ~abinit/doc/developers/contributors.txt .
 acknowledgments of the ABINIT effort.

.Starting date : Wed  1 Dec 2021.
- ( at 22h09 )

- input  file    -> /scratch/users/j/a/jabreu/flow_simple_remain_atoms/flow/w288/t1/run.abi
- output file    -> /scratch/users/j/a/jabreu/flow_simple_remain_atoms/flow/w288/t1/run.abo
- root for input  files -> /scratch/users/j/a/jabreu/flow_simple_remain_atoms/flow/w288/t1/indata/in
- root for output files -> /scratch/users/j/a/jabreu/flow_simple_remain_atoms/flow/w288/t1/outdata/out

 Symmetries : space group P-3 m 1 (#164); Bravais hP (primitive hexag.)
     intxc =       0      iscf =       7    lmnmax =      18     lnmax =       6
     mgfft =      75  mpssoang =       3    mqgrid =    3688     natom =       5
  nloc_mem =       1    nspden =       1   nspinor =       1    nsppol =       1
      nsym =      12    n1xccc =    2501    ntypat =       3    occopt =       1
   xclevel =       2
-    mband =          29        mffmem =           1         mkmem =           2
-   mkqmem =           2        mk1mem =           2           mpw =        7572
      nfft =      151875          nkpt =           2
  Rough estimation (10% accuracy) of disk space for files :

------------- Echo of variables that govern the present computation ------------
-
- outvars: echo of selected default values
-   iomode0 =  0 , fftalg0 =512 , wfoptalg0 =  0
-
- outvars: echo of global parameters not present in the input file
-  max_nthreads =    0
-
 -outvars: echo values of preprocessed input variables --------
            acell      1.0000000000E+00  1.0000000000E+00  1.0000000000E+00 Bohr
              amu      8.89058500E+01  3.20660000E+01  1.59994000E+01
             ecut      4.40000000E+01 Hartree
-          fftalg         512
           irdden           1
           irdwfk           1
           istwfk        1    0
              ixc     -116133
              kpt      0.00000000E+00  0.00000000E+00  5.00000000E-01
                       3.33333333E-01  3.33333333E-01  0.00000000E+00
           kptopt           0
P           mkmem           2
P          mkqmem           2
P          mk1mem           2
            natom           5
            nband          29
           nbdbuf           4
            ngfft          45      45      75
             nkpt           2
            nstep        2000
             nsym          12
           ntypat           3
              occ      2.000000  2.000000  2.000000  2.000000  2.000000  2.000000
                       2.000000  2.000000  2.000000  2.000000  2.000000  2.000000
                       2.000000  2.000000  2.000000  2.000000  2.000000  2.000000
                       2.000000  2.000000  0.000000  0.000000  0.000000  0.000000
                       0.000000  0.000000  0.000000  0.000000  0.000000
        optdriver           1
            prtwf          -1
            rfdir           1       1       1
           rfelfd           2
            rprim      7.1064411742E+00  0.0000000000E+00  0.0000000000E+00
                      -3.5532205871E+00  6.1543585873E+00  0.0000000000E+00
                       0.0000000000E+00  0.0000000000E+00  1.2348309499E+01
          spgroup         164
           symrel      1  0  0   0  1  0   0  0  1      -1  0  0   0 -1  0   0  0 -1
                      -1  0  0   1  1  0   0  0  1       1  0  0  -1 -1  0   0  0 -1
                       0  1  0  -1 -1  0   0  0  1       0 -1  0   1  1  0   0  0 -1
                       0 -1  0  -1  0  0   0  0  1       0  1  0   1  0  0   0  0 -1
                      -1 -1  0   1  0  0   0  0  1       1  1  0  -1  0  0   0  0 -1
                       1  1  0   0 -1  0   0  0  1      -1 -1  0   0  1  0   0  0 -1
           tolwfr      1.00000000E-20
            typat      1  1  2  3  3
           useylm           1
              wtk        0.50000    0.50000
           xangst      1.8802833518E+00  1.0855820993E+00  1.8449414397E+00
                       0.0000000000E+00  2.1711641986E+00  4.6895025117E+00
                       0.0000000000E+00  0.0000000000E+00  0.0000000000E+00
                       0.0000000000E+00  2.1711641986E+00  2.4193974764E+00
                       1.8802833518E+00  1.0855820993E+00  4.1150464751E+00
            xcart      3.5532205871E+00  2.0514528624E+00  3.4864340522E+00
                       0.0000000000E+00  4.1029057249E+00  8.8618754467E+00
                       0.0000000000E+00  0.0000000000E+00  0.0000000000E+00
                       0.0000000000E+00  4.1029057249E+00  4.5719986369E+00
                       3.5532205871E+00  2.0514528624E+00  7.7763108620E+00
             xred      6.6666666667E-01  3.3333333333E-01  2.8234100000E-01
                       3.3333333333E-01  6.6666666667E-01  7.1765900000E-01
                       0.0000000000E+00  0.0000000000E+00  0.0000000000E+00
                       3.3333333333E-01  6.6666666667E-01  3.7025300000E-01
                       6.6666666667E-01  3.3333333333E-01  6.2974700000E-01
            znucl       39.00000   16.00000    8.00000

 chkinp: Checking input parameters for consistency.

== DATASET  1 ==================================================================
-   mpi_nproc: 1, omp_nthreads: -1 (-1 if OMP is not activated)

--- !DatasetInfo
iteration_state: {dtset: 1, }
dimensions: {natom: 5, nkpt: 2, mband: 29, nsppol: 1, nspinor: 1, nspden: 1, mpw: 7572, }
cutoff_energies: {ecut:  44.0, pawecutdg:  -1.0, }
electrons: {nelect:   4.00000000E+01, charge:   0.00000000E+00, occopt:   1.00000000E+00, tsmear:   1.00000000E-02, }
meta: {optdriver: 1, rfelfd: 2, }
...

 Real(R)+Recip(G) space primitive vectors, cartesian coordinates (Bohr,Bohr^-1):
 R(1)=  7.1064412  0.0000000  0.0000000  G(1)=  0.1407174  0.0812432  0.0000000
 R(2)= -3.5532206  6.1543586  0.0000000  G(2)=  0.0000000  0.1624865  0.0000000
 R(3)=  0.0000000  0.0000000 12.3483095  G(3)=  0.0000000  0.0000000  0.0809827
 Unit cell volume ucvol=  5.4006057E+02 bohr^3
 Angles (23,13,12)=  9.00000000E+01  9.00000000E+01  1.20000000E+02 degrees

 getcut: wavevector=  0.0000  0.0000  0.0000  ngfft=  45  45  75
         ecut(hartree)=     44.000   => boxcut(ratio)=   2.00693

--- Pseudopotential description ------------------------------------------------
- pspini: atom type   1  psp file is /scratch/users/j/a/jabreu/pseudos/PBEsol/Y.psp8
- pspatm: opening atomic psp file    /scratch/users/j/a/jabreu/pseudos/PBEsol/Y.psp8
- Y     ONCVPSP-3.3.0  r_core=   1.60520   1.51226   1.56736
- 39.00000  11.00000    180112                znucl, zion, pspdat
    8 -116133    2    4       600   0.00000   pspcod,pspxc,lmax,lloc,mmax,r2well
    5.99000000000000    4.00000000000000    0.00000000000000   rchrg,fchrg,qchrg
     nproj     2     2     2
     extension_switch     1
  pspatm : epsatm=   18.54790046
         --- l  ekb(1:nproj) -->
             0   10.130768    0.866504
             1    5.598307    0.427135
             2    1.217602    0.315447
 pspatm: atomic psp has been read  and splines computed

- pspini: atom type   2  psp file is /scratch/users/j/a/jabreu/pseudos/PBEsol/S.psp8
- pspatm: opening atomic psp file    /scratch/users/j/a/jabreu/pseudos/PBEsol/S.psp8
- S     ONCVPSP-3.3.0  r_core=   1.45376   1.45376   1.61851
- 16.00000   6.00000    180112                znucl, zion, pspdat
    8 -116133    2    4       600   0.00000   pspcod,pspxc,lmax,lloc,mmax,r2well
    5.99000000000000    6.00000000000000    0.00000000000000   rchrg,fchrg,qchrg
     nproj     2     2     2
     extension_switch     1
  pspatm : epsatm=    8.71840985
         --- l  ekb(1:nproj) -->
             0    6.834532    0.579453
             1    3.282851    0.896984
             2   -3.496974   -0.974265
 pspatm: atomic psp has been read  and splines computed

- pspini: atom type   3  psp file is /scratch/users/j/a/jabreu/pseudos/PBEsol/O.psp8
- pspatm: opening atomic psp file    /scratch/users/j/a/jabreu/pseudos/PBEsol/O.psp8
- O     ONCVPSP-3.3.0  r_core=   1.35509   1.45563   1.26150
-  8.00000   6.00000    180112                znucl, zion, pspdat
    8 -116133    2    4       600   0.00000   pspcod,pspxc,lmax,lloc,mmax,r2well
    5.99000000000000    4.00000000000000    0.00000000000000   rchrg,fchrg,qchrg
     nproj     2     2     1
     extension_switch     1
  pspatm : epsatm=    6.22910522
         --- l  ekb(1:nproj) -->
             0    6.050032    0.820363
             1   -4.739617   -1.153841
             2   -1.335834
 pspatm: atomic psp has been read  and splines computed

   2.33089685E+03                                ecore*ucvol(ha*bohr**3)

 ==>  initialize data related to q vector <==

 The list of irreducible perturbations for this q vector is:
    1)    idir= 1    ipert=   6
    2)    idir= 2    ipert=   6
    3)    idir= 3    ipert=   6

 Perturbation wavevector (in red.coord.)   0.000000  0.000000  0.000000
 Perturbation : derivative vs k along direction   1

 dfpt_looppert : COMMENT -
  In a d/dk calculation, iscf is set to -3 automatically.
 The set of symmetries contains only one element for this perturbation.
 symkpt : not enough symmetry to change the number of k points.

 Initialisation of the first-order wave-functions :
  ireadwf=   0

--- !BeginCycle
iteration_state: {dtset: 1, }
solver: {iscf: 7, nstep: 2000, nline: 4, wfoptalg: 0, }
tolerances: {tolwfr: 1.00E-20, }
...

     iter   2DEtotal(Ha)        deltaE(Ha) residm    vres2
-ETOT  1  -42.839849577416     -4.284E+01 1.675E-01 0.000E+00
 ETOT  2  -42.865306636897     -2.546E-02 2.761E-02 0.000E+00
 ETOT  3  -42.865403615141     -9.698E-05 1.561E-03 0.000E+00
 ETOT  4  -42.865404239145     -6.240E-07 2.698E-04 0.000E+00
 ETOT  5  -42.865404244108     -4.963E-09 2.523E-05 0.000E+00
 ETOT  6  -42.865404244152     -4.437E-11 5.135E-06 0.000E+00
 ETOT  7  -42.865404244153     -3.979E-13 5.885E-07 0.000E+00
 ETOT  8  -42.865404244153      1.421E-14 1.513E-07 0.000E+00
 ETOT  9  -42.865404244153     -7.816E-14 1.506E-08 0.000E+00
 ETOT 10  -42.865404244153      3.553E-14 3.744E-09 0.000E+00
 ETOT 11  -42.865404244153      7.105E-15 3.670E-10 0.000E+00
 ETOT 12  -42.865404244153     -1.421E-14 9.379E-11 0.000E+00
 ETOT 13  -42.865404244153      7.105E-15 9.214E-12 0.000E+00
 ETOT 14  -42.865404244153     -7.105E-15 2.399E-12 0.000E+00
 ETOT 15  -42.865404244153     -7.105E-15 2.359E-13 0.000E+00
 ETOT 16  -42.865404244153      0.000E+00 6.219E-14 0.000E+00
 ETOT 17  -42.865404244153      7.105E-15 6.116E-15 0.000E+00
 ETOT 18  -42.865404244153      0.000E+00 1.624E-15 0.000E+00
 ETOT 19  -42.865404244153     -7.105E-15 1.597E-16 0.000E+00
 ETOT 20  -42.865404244153      0.000E+00 4.264E-17 0.000E+00
 ETOT 21  -42.865404244153      0.000E+00 4.191E-18 0.000E+00
 ETOT 22  -42.865404244153      1.421E-14 1.123E-18 0.000E+00
 ETOT 23  -42.865404244153      7.105E-15 1.103E-19 0.000E+00
 ETOT 24  -42.865404244153     -2.132E-14 2.965E-20 0.000E+00
 ETOT 25  -42.865404244153      0.000E+00 9.703E-21 0.000E+00

 At SCF step   25   max residual=  9.70E-21 < tolwfr=  1.00E-20 =>converged.

 ----iterations are completed or convergence reached----

 dfpt_looppert: DFPT cycle converged with prtwf=-1. Will skip output of the 1st-order WFK file.
 dfpt_looppert : ek2=    8.3384269721E+01
          f-sum rule ratio=    1.0324029281E+00
 prteigrs : about to open file /scratch/users/j/a/jabreu/flow_simple_remain_atoms/flow/w288/t1/tmpdata/tmp_1WF1_EIG
 Expectation of eigenvalue derivatives (hartree) for nkpt=   2  k points:
  (in case of degenerate eigenvalues, averaged derivative)
 kpt#   1, nband= 29, wtk=  0.50000, kpt=  0.0000  0.0000  0.5000 (reduced coord)
   0.00000    0.00000    0.00000    0.00000    0.00000    0.00000    0.00000    0.00000
   0.00000   -0.00000    0.00000    0.00000   -0.00000   -0.00000   -0.00000   -0.00000
  -0.00000   -0.00000    0.00000    0.00000    0.00000    0.00000    0.00000   -0.00000
   0.00000    0.00000   -0.00000   -0.00000    0.00000
 prteigrs : prtvol=0 or 1, do not print more k-points.

 Eight components of 2nd-order total energy (hartree) are
 1,2,3: 0th-order hamiltonian combined with 1st-order wavefunctions
     kin0=   4.03255838E+01 eigvalue=  -5.77618173E-01  local=  -1.90260902E+01
 4,5,6: 1st-order hamiltonian combined with 1st and 0th-order wfs
     kin1=  -8.60861642E+01  Hartree=   0.00000000E+00     xc=   0.00000000E+00
 7,8,9: eventually, occupation + non-local contributions
    edocc=   2.07867773E+01     enl0=   1.35675156E+00   enl1=   3.55355732E-01
 1-9 gives the relaxation energy (to be shifted if some occ is /=2.0)
   erelax=  -4.28654042E+01
  No Ewald or frozen-wf contrib.: the relaxation energy is the total one
 2DEtotal=   -0.4286540424E+02 Ha. Also 2DEtotal=   -0.116642696920E+04 eV
    (  non-var. 2DEtotal :   -4.2865404244E+01 Ha)

 Perturbation wavevector (in red.coord.)   0.000000  0.000000  0.000000
 Perturbation : derivative vs k along direction   2
 The set of symmetries contains only one element for this perturbation.
 symkpt : not enough symmetry to change the number of k points.

[...]

 Perturbation wavevector (in red.coord.)   0.000000  0.000000  0.000000
 Perturbation : derivative vs k along direction   3
 The set of symmetries contains only one element for this perturbation.
 symkpt : not enough symmetry to change the number of k points.

 Initialisation of the first-order wave-functions :
  ireadwf=   0

--- !BeginCycle
iteration_state: {dtset: 1, }
solver: {iscf: 7, nstep: 2000, nline: 4, wfoptalg: 0, }
tolerances: {tolwfr: 1.00E-20, }
...

     iter   2DEtotal(Ha)        deltaE(Ha) residm    vres2
-ETOT  1  -10.003186329725     -1.000E+01 8.280E-02 0.000E+00
 ETOT  2  -10.010867543950     -7.681E-03 1.284E-03 0.000E+00
 ETOT  3  -10.010912610546     -4.507E-05 1.707E-04 0.000E+00
 ETOT  4  -10.010913087301     -4.768E-07 4.846E-06 0.000E+00
 ETOT  5  -10.010913093166     -5.865E-09 1.220E-06 0.000E+00
 ETOT  6  -10.010913093240     -7.438E-11 4.516E-08 0.000E+00
 ETOT  7  -10.010913093241     -9.521E-13 1.134E-08 0.000E+00
 ETOT  8  -10.010913093241     -2.487E-14 4.942E-10 0.000E+00
 ETOT  9  -10.010913093241      5.329E-15 1.321E-10 0.000E+00
 ETOT 10  -10.010913093241     -5.329E-15 5.758E-12 0.000E+00
 ETOT 11  -10.010913093241      1.776E-15 1.516E-12 0.000E+00
 ETOT 12  -10.010913093241      0.000E+00 6.257E-14 0.000E+00
 ETOT 13  -10.010913093241      0.000E+00 1.451E-14 0.000E+00
 ETOT 14  -10.010913093241      0.000E+00 6.782E-16 0.000E+00
 ETOT 15  -10.010913093241      0.000E+00 1.806E-16 0.000E+00
 ETOT 16  -10.010913093241      0.000E+00 9.765E-18 0.000E+00
 ETOT 17  -10.010913093241     -1.776E-15 2.541E-18 0.000E+00
 ETOT 18  -10.010913093241     -1.776E-15 1.375E-19 0.000E+00
 ETOT 19  -10.010913093241      5.329E-15 3.591E-20 0.000E+00
 ETOT 20  -10.010913093241     -3.553E-15 9.951E-21 0.000E+00

 At SCF step   20   max residual=  9.95E-21 < tolwfr=  1.00E-20 =>converged.

 ----iterations are completed or convergence reached----

 dfpt_looppert: DFPT cycle converged with prtwf=-1. Will skip output of the 1st-order WFK file.
 dfpt_looppert : ek2=    2.0712604447E+01
          f-sum rule ratio=    9.6451266500E-01
 prteigrs : about to open file /scratch/users/j/a/jabreu/flow_simple_remain_atoms/flow/w288/t1/tmpdata/tmp_1WF1_EIG
 Expectation of eigenvalue derivatives (hartree) for nkpt=   2  k points:
  (in case of degenerate eigenvalues, averaged derivative)
 kpt#   1, nband= 29, wtk=  0.50000, kpt=  0.0000  0.0000  0.5000 (reduced coord)
  -0.00000   -0.00000    0.00000   -0.00000    0.00000    0.00000    0.00000    0.00000
  -0.00000    0.00000    0.00000    0.00000    0.00000    0.00000   -0.00000   -0.00000
   0.00000   -0.00000    0.00000    0.00000    0.00000    0.00000    0.00000   -0.00000
   0.00000    0.00000   -0.00000   -0.00000   -0.00000
 prteigrs : prtvol=0 or 1, do not print more k-points.

 Eight components of 2nd-order total energy (hartree) are
 1,2,3: 0th-order hamiltonian combined with 1st-order wavefunctions
     kin0=   1.06749856E+01 eigvalue=  -4.91042057E-02  local=  -5.26587760E+00
 4,5,6: 1st-order hamiltonian combined with 1st and 0th-order wfs
     kin1=  -1.99775693E+01  Hartree=   0.00000000E+00     xc=   0.00000000E+00
 7,8,9: eventually, occupation + non-local contributions
    edocc=   4.22731722E+00     enl0=   4.23592066E-01   enl1=  -4.42568721E-02
 1-9 gives the relaxation energy (to be shifted if some occ is /=2.0)
   erelax=  -1.00109131E+01
  No Ewald or frozen-wf contrib.: the relaxation energy is the total one
 2DEtotal=   -0.1001091309E+02 Ha. Also 2DEtotal=   -0.272410798969E+03 eV
    (  non-var. 2DEtotal :   -1.0010913093E+01 Ha)

 CALCULATION OF EFFECTIVE MASSES
 NOTE : Additional infos (eff. mass eigenvalues, eigenvectors and, if degenerate, average mass) are available in stdout.

 COMMENTS:
 - At k-point ( 0.000, 0.000, 0.500), bands    19 through    20
   are DEGENERATE (effective mass tensor is therefore not defined).
   See Section IIIB Eqs. (67)-(70) and Appendix E of PRB 93 205147 (2016).
 - Angular average effective mass for Frohlich model is to be averaged over degenerate bands. See later.
 - Associated theta integrals calculated with ntheta=   1000 points.

 K-point ( 0.000, 0.000, 0.500) | band =    19
 Transport equivalent effective mass tensor:
             -0.5959604127              0.0000000025              0.0000000397
              0.0000000025             -0.5959611203             -0.0000002892
              0.0000000397             -0.0000002892             -3.0750189699
 Transport equivalent effective mass tensor eigenvalues:
             -3.0750189699             -0.5959611203             -0.5959604127
 Angular average effective mass 1/(<1/m>)=  -0.6892454307
 Angular average effective mass for Frohlich model (<m**0.5>)**2=  -0.7666014815
 Effective masses along directions: (cart. coord. / red. coord. -> eff. mass)
    1:   1.000000  0.000000  0.000000 /   0.894427 -0.447214  0.000000 ->  -0.5278747073
    2:   0.000000  1.000000  0.000000 /   0.000000  1.000000  0.000000 ->  -0.5278747374
    3:   0.000000  0.000000  1.000000 /   0.000000  0.000000  1.000000 ->  -4.2379998795
    4:   0.577350  0.577350  0.577350 /   0.490685  0.179603  0.852626 ->  -0.6006934218
    5:   0.000000  0.707107  0.707107 /   0.000000  0.446065  0.895000 ->  -0.9849828720
    6:   0.707107  0.000000  0.707107 /   0.483972 -0.241986  0.840960 ->  -0.7711305000
    7:   0.707107  0.707107  0.000000 /   0.939071  0.343724  0.000000 ->  -0.5278747134

 K-point ( 0.000, 0.000, 0.500) | band =    20
 Transport equivalent effective mass tensor:
             -6.6425597875              0.0000000481              0.0000007193
              0.0000000481             -6.6425582395              0.0000017005
              0.0000007193              0.0000017005            -39.5408460635
 Transport equivalent effective mass tensor eigenvalues:
            -39.5408460635             -6.6425597890             -6.6425582380
 Angular average effective mass 1/(<1/m>)=  -1.5687770286
 Angular average effective mass for Frohlich model (<m**0.5>)**2=  -2.2908847309
 Effective masses along directions: (cart. coord. / red. coord. -> eff. mass)
    1:   1.000000  0.000000  0.000000 /   0.894427 -0.447214  0.000000 ->  -0.9979018155
    2:   0.000000  1.000000  0.000000 /   0.000000  1.000000  0.000000 ->  -0.9979018160
    3:   0.000000  0.000000  1.000000 /   0.000000  0.000000  1.000000 ->  -4.2380005140
    4:   0.577350  0.577350  0.577350 /   0.490685  0.179603  0.852626 ->  -2.3609483490
    5:   0.000000  0.707107  0.707107 /   0.000000  0.446065  0.895000 ->  -1.4948574596
    6:   0.707107  0.000000  0.707107 /   0.483972 -0.241986  0.840960 ->  -2.5812527771
    7:   0.707107  0.707107  0.000000 /   0.939071  0.343724  0.000000 ->  -0.9979018398

 Angular average effective mass for Frohlich model, averaged over degenerate bands.
 Value of     (<<m**0.5>>)**2 =     1.426979E+00
 Absolute Value of <<m**0.5>> =     1.194562E+00

 K-point ( 0.333, 0.333, 0.000) | band =    21
 Effective mass tensor:
              0.5909692641             -0.0000000047              0.0000000302
             -0.0000000047              0.5909692337             -0.0000000084
              0.0000000302             -0.0000000084              0.8258073030
 Effective mass tensor eigenvalues:
              0.5909692330              0.5909692648              0.8258073030
 Angular average effective mass 1/(<1/m>)=   0.6528541448
 Angular average effective mass for Frohlich model (<m**0.5>)**2=   0.6574389620
 Effective masses along directions: (cart. coord. / red. coord. -> eff. mass)
    1:   1.000000  0.000000  0.000000 /   0.894427 -0.447214  0.000000 ->   0.5909692641
    2:   0.000000  1.000000  0.000000 /   0.000000  1.000000  0.000000 ->   0.5909692337
    3:   0.000000  0.000000  1.000000 /   0.000000  0.000000  1.000000 ->   0.8258073030
    4:   0.577350  0.577350  0.577350 /   0.490685  0.179603  0.852626 ->   0.6528541536
    5:   0.000000  0.707107  0.707107 /   0.000000  0.446065  0.895000 ->   0.6889254453
    6:   0.707107  0.000000  0.707107 /   0.483972 -0.241986  0.840960 ->   0.6889255035
    7:   0.707107  0.707107  0.000000 /   0.939071  0.343724  0.000000 ->   0.5909692442

 END OF EFFECTIVE MASSES SECTION

 ---- first-order wavefunction calculations are completed ----

 Total localisation tensor (bohr^2) in cartesian coordinates
  WARNING : still subject to testing - especially symmetries.
      direction              matrix element
   alpha     beta       real part   imaginary part
     1        1       1.6586611330    0.0000000000
     1        2      -0.5745769893    0.0000000000
     1        3       0.0000000000    0.0000000000
     2        1      -0.5745769893    0.0000000000
     2        2       0.9951965384    0.0000000000
     2        3       0.0000000000    0.0000000000
     3        1       0.0000000000    0.0000000000
     3        2       0.0000000000    0.0000000000
     3        3       0.8033693033    0.0000000000

 respfn : d/dk was computed, but no 2DTE, so no DDB output.

== END DATASET(S) ==============================================================

 -outvars: echo values of variables after computation  --------
            acell      1.0000000000E+00  1.0000000000E+00  1.0000000000E+00 Bohr
              amu      8.89058500E+01  3.20660000E+01  1.59994000E+01
             ecut      4.40000000E+01 Hartree
           etotal     -1.0010913093E+01
            fcart      0.0000000000E+00  0.0000000000E+00  0.0000000000E+00
                       0.0000000000E+00  0.0000000000E+00  0.0000000000E+00
                       0.0000000000E+00  0.0000000000E+00  0.0000000000E+00
                       0.0000000000E+00  0.0000000000E+00  0.0000000000E+00
                       0.0000000000E+00  0.0000000000E+00  0.0000000000E+00
-          fftalg         512
           irdden           1
           irdwfk           1
           istwfk        1    0
              ixc     -116133
              kpt      0.00000000E+00  0.00000000E+00  5.00000000E-01
                       3.33333333E-01  3.33333333E-01  0.00000000E+00
           kptopt           0
P           mkmem           2
P          mkqmem           2
P          mk1mem           2
            natom           5
            nband          29
           nbdbuf           4
            ngfft          45      45      75
             nkpt           2
            nstep        2000
             nsym          12
           ntypat           3
              occ      2.000000  2.000000  2.000000  2.000000  2.000000  2.000000
                       2.000000  2.000000  2.000000  2.000000  2.000000  2.000000
                       2.000000  2.000000  2.000000  2.000000  2.000000  2.000000
                       2.000000  2.000000  0.000000  0.000000  0.000000  0.000000
                       0.000000  0.000000  0.000000  0.000000  0.000000
        optdriver           1
            prtwf          -1
            rfdir           1       1       1
           rfelfd           2
            rprim      7.1064411742E+00  0.0000000000E+00  0.0000000000E+00
                      -3.5532205871E+00  6.1543585873E+00  0.0000000000E+00
                       0.0000000000E+00  0.0000000000E+00  1.2348309499E+01
          spgroup         164
           strten      0.0000000000E+00  0.0000000000E+00  0.0000000000E+00
                       0.0000000000E+00  0.0000000000E+00  0.0000000000E+00
           symrel      1  0  0   0  1  0   0  0  1      -1  0  0   0 -1  0   0  0 -1
                      -1  0  0   1  1  0   0  0  1       1  0  0  -1 -1  0   0  0 -1
                       0  1  0  -1 -1  0   0  0  1       0 -1  0   1  1  0   0  0 -1
                       0 -1  0  -1  0  0   0  0  1       0  1  0   1  0  0   0  0 -1
                      -1 -1  0   1  0  0   0  0  1       1  1  0  -1  0  0   0  0 -1
                       1  1  0   0 -1  0   0  0  1      -1 -1  0   0  1  0   0  0 -1
           tolwfr      1.00000000E-20
            typat      1  1  2  3  3
           useylm           1
              wtk        0.50000    0.50000
           xangst      1.8802833518E+00  1.0855820993E+00  1.8449414397E+00
                       0.0000000000E+00  2.1711641986E+00  4.6895025117E+00
                       0.0000000000E+00  0.0000000000E+00  0.0000000000E+00
                       0.0000000000E+00  2.1711641986E+00  2.4193974764E+00
                       1.8802833518E+00  1.0855820993E+00  4.1150464751E+00
            xcart      3.5532205871E+00  2.0514528624E+00  3.4864340522E+00
                       0.0000000000E+00  4.1029057249E+00  8.8618754467E+00
                       0.0000000000E+00  0.0000000000E+00  0.0000000000E+00
                       0.0000000000E+00  4.1029057249E+00  4.5719986369E+00
                       3.5532205871E+00  2.0514528624E+00  7.7763108620E+00
             xred      6.6666666667E-01  3.3333333333E-01  2.8234100000E-01
                       3.3333333333E-01  6.6666666667E-01  7.1765900000E-01
                       0.0000000000E+00  0.0000000000E+00  0.0000000000E+00
                       3.3333333333E-01  6.6666666667E-01  3.7025300000E-01
                       6.6666666667E-01  3.3333333333E-01  6.2974700000E-01
            znucl       39.00000   16.00000    8.00000

- Timing analysis has been suppressed with timopt=0

 Suggested references for the acknowledgment of ABINIT usage.

 Calculation completed.
.Delivered   2 WARNINGs and   5 COMMENTs to log file.