.Version 9.5.1 of ABINIT

 ABINIT is a project of the Universite Catholique de Louvain,
 Corning Inc. and other collaborators, see ~abinit/doc/developers/contributors.txt .
 acknowledgments of the ABINIT effort.

.Starting date : Tue 27 Apr 2021.
- ( at 18h40 )

- input  file    -> /scratch/users/j/a/jabreu/flow_simple_4atoms/flow/w222/t1/run.abi
- output file    -> /scratch/users/j/a/jabreu/flow_simple_4atoms/flow/w222/t1/run.abo
- root for input  files -> /scratch/users/j/a/jabreu/flow_simple_4atoms/flow/w222/t1/indata/in
- root for output files -> /scratch/users/j/a/jabreu/flow_simple_4atoms/flow/w222/t1/outdata/out

 Symmetries : space group P6_3 m c (#186); Bravais hP (primitive hexag.)
     intxc =       0      iscf =       7    lmnmax =      18     lnmax =       6
     mgfft =      96  mpssoang =       3    mqgrid =    4569     natom =       4
  nloc_mem =       1    nspden =       1   nspinor =       1    nsppol =       1
      nsym =      12    n1xccc =    2501    ntypat =       2    occopt =       1
   xclevel =       2
-    mband =          45        mffmem =           1         mkmem =           1
-   mkqmem =           1        mk1mem =           1           mpw =       15993
      nfft =      345600          nkpt =           1
  Rough estimation (10% accuracy) of disk space for files :

------------- Echo of variables that govern the present computation ------------
-
- outvars: echo of selected default values
-   iomode0 =  0 , fftalg0 =512 , wfoptalg0 =  0
-
- outvars: echo of global parameters not present in the input file
-  max_nthreads =    0
-
 -outvars: echo values of preprocessed input variables --------
            acell      1.0000000000E+00  1.0000000000E+00  1.0000000000E+00 Bohr
              amu      1.12411000E+02  1.27600000E+02
             ecut      5.10000000E+01 Hartree
-          fftalg         512
           irdden           1
           irdwfk           1
           istwfk        1
              ixc     -116133
           kptopt           0
P           mkmem           1
P          mkqmem           1
P          mk1mem           1
            natom           4
            nband          45
           nbdbuf           4
            ngfft          60      60      96
             nkpt           1
            nstep         100
             nsym          12
           ntypat           2
              occ      2.000000  2.000000  2.000000  2.000000  2.000000  2.000000
                       2.000000  2.000000  2.000000  2.000000  2.000000  2.000000
                       2.000000  2.000000  2.000000  2.000000  2.000000  2.000000
                       2.000000  2.000000  2.000000  2.000000  2.000000  2.000000
                       2.000000  2.000000  2.000000  2.000000  2.000000  2.000000
                       2.000000  2.000000  2.000000  2.000000  2.000000  2.000000
                       0.000000  0.000000  0.000000  0.000000  0.000000  0.000000
                       0.000000  0.000000  0.000000
        optdriver           1
            prtwf          -1
            rfdir           1       1       1
           rfelfd           2
            rprim      8.6656973043E+00  0.0000000000E+00  0.0000000000E+00
                      -4.3328486521E+00  7.5047140070E+00  0.0000000000E+00
                       0.0000000000E+00  0.0000000000E+00  1.4211490244E+01
          spgroup         186
           symrel      1  0  0   0  1  0   0  0  1       0  1  0   1  0  0   0  0  1
                       1  1  0  -1  0  0   0  0  1      -1  0  0   1  1  0   0  0  1
                       0  1  0  -1 -1  0   0  0  1      -1 -1  0   0  1  0   0  0  1
                      -1  0  0   0 -1  0   0  0  1       0 -1  0  -1  0  0   0  0  1
                      -1 -1  0   1  0  0   0  0  1       1  0  0  -1 -1  0   0  0  1
                       0 -1  0   1  1  0   0  0  1       1  1  0   0 -1  0   0  0  1
            tnons      0.0000000  0.0000000  0.0000000    -0.0000000  0.0000000  0.5000000
                       0.0000000  0.0000000  0.5000000    -0.0000000  0.0000000  0.0000000
                       0.0000000  0.0000000  0.0000000     0.0000000  0.0000000  0.5000000
                       0.0000000  0.0000000  0.5000000     0.0000000  0.0000000  0.0000000
                      -0.0000000  0.0000000  0.0000000     0.0000000  0.0000000  0.5000000
                      -0.0000000  0.0000000  0.5000000     0.0000000  0.0000000  0.0000000
           tolwfr      1.00000000E-20
            typat      1  1  2  2
           useylm           1
           xangst      2.2928447550E+00  1.3237745365E+00  7.5182910260E+00
                       1.7638771742E-11  2.6475490730E+00  3.7580926575E+00
                       2.2928447550E+00  1.3237745365E+00  4.7023536718E+00
                       1.7638771742E-11  2.6475490730E+00  9.4215530323E-01
            xcart      4.3328486522E+00  2.5015713357E+00  1.4207511027E+01
                       3.3332447913E-11  5.0031426713E+00  7.1017659046E+00
                       4.3328486522E+00  2.5015713357E+00  8.8861606196E+00
                       3.3332447913E-11  5.0031426713E+00  1.7804154977E+00
             xred      6.6666666667E-01  3.3333333333E-01  9.9972000000E-01
                       3.3333333333E-01  6.6666666667E-01  4.9972000000E-01
                       6.6666666667E-01  3.3333333333E-01  6.2528000000E-01
                       3.3333333333E-01  6.6666666667E-01  1.2528000000E-01
            znucl       48.00000   52.00000

 chkinp: Checking input parameters for consistency.

== DATASET  1 ==================================================================
-   mpi_nproc: 1, omp_nthreads: -1 (-1 if OMP is not activated)

--- !DatasetInfo
iteration_state: {dtset: 1, }
dimensions: {natom: 4, nkpt: 1, mband: 45, nsppol: 1, nspinor: 1, nspden: 1, mpw: 15993, }
cutoff_energies: {ecut:  51.0, pawecutdg:  -1.0, }
electrons: {nelect:   7.20000000E+01, charge:   0.00000000E+00, occopt:   1.00000000E+00, tsmear:   1.00000000E-02, }
meta: {optdriver: 1, rfelfd: 2, }
...

 Real(R)+Recip(G) space primitive vectors, cartesian coordinates (Bohr,Bohr^-1):
 R(1)=  8.6656973  0.0000000  0.0000000  G(1)=  0.1153975  0.0666248  0.0000000
 R(2)= -4.3328487  7.5047140  0.0000000  G(2)=  0.0000000  0.1332496  0.0000000
 R(3)=  0.0000000  0.0000000 14.2114902  G(3)=  0.0000000  0.0000000  0.0703656
 Unit cell volume ucvol=  9.2422409E+02 bohr^3
 Angles (23,13,12)=  9.00000000E+01  9.00000000E+01  1.20000000E+02 degrees

 getcut: wavevector=  0.0000  0.0000  0.0000  ngfft=  60  60  96
         ecut(hartree)=     51.000   => boxcut(ratio)=   2.10127

--- Pseudopotential description ------------------------------------------------
- pspini: atom type   1  psp file is /scratch/users/j/a/jabreu/pseudos/PBEsol/Cd.psp8
- pspatm: opening atomic psp file    /scratch/users/j/a/jabreu/pseudos/PBEsol/Cd.psp8
- Cd    ONCVPSP-3.3.0  r_core=   1.25838   1.30423   1.35174
- 48.00000  20.00000    180112                znucl, zion, pspdat
    8 -116133    2    4       600   0.00000   pspcod,pspxc,lmax,lloc,mmax,r2well
    5.99000000000000    6.00000000000000    0.00000000000000   rchrg,fchrg,qchrg
     nproj     2     2     2
     extension_switch     1
  pspatm : epsatm=   23.26728021
         --- l  ekb(1:nproj) -->
             0   63.701523    3.700425
             1    8.703569    1.290373
             2    0.983656   -0.721725
 pspatm: atomic psp has been read  and splines computed

- pspini: atom type   2  psp file is /scratch/users/j/a/jabreu/pseudos/PBEsol/Te.psp8
- pspatm: opening atomic psp file    /scratch/users/j/a/jabreu/pseudos/PBEsol/Te.psp8
- Te    ONCVPSP-3.3.0  r_core=   2.26547   1.91704   1.80604
- 52.00000  16.00000    180112                znucl, zion, pspdat
    8 -116133    2    4       600   0.00000   pspcod,pspxc,lmax,lloc,mmax,r2well
    5.99000000000000    5.00000000000000    0.00000000000000   rchrg,fchrg,qchrg
     nproj     2     2     2
     extension_switch     1
  pspatm : epsatm=   36.82679836
         --- l  ekb(1:nproj) -->
             0    6.345999    0.785432
             1    5.709019    1.070069
             2   -6.035173   -1.870937
 pspatm: atomic psp has been read  and splines computed

   8.65354731E+03                                ecore*ucvol(ha*bohr**3)

-inwffil : will read wavefunctions from disk file /scratch/users/j/a/jabreu/flow_simple_4atoms/flow/w222/t1/indata/in_WFK

 ==>  initialize data related to q vector <==

 The list of irreducible perturbations for this q vector is:
    1)    idir= 1    ipert=   5
    2)    idir= 2    ipert=   5
    3)    idir= 3    ipert=   5

 Perturbation wavevector (in red.coord.)   0.000000  0.000000  0.000000
 Perturbation : derivative vs k along direction   1

 dfpt_looppert : COMMENT -
  In a d/dk calculation, iscf is set to -3 automatically.
 The set of symmetries contains only one element for this perturbation.
 symkpt : not enough symmetry to change the number of k points.

[...]

 Initialisation of the first-order wave-functions :
  ireadwf=   0

--- !BeginCycle
iteration_state: {dtset: 1, }
solver: {iscf: 7, nstep: 100, nline: 4, wfoptalg: 0, }
tolerances: {tolwfr: 1.00E-20, }
...

     iter   2DEtotal(Ha)        deltaE(Ha) residm    vres2
-ETOT  1  -116.77696159825     -1.168E+02 1.729E-01 0.000E+00
 ETOT  2  -116.93778976505     -1.608E-01 4.567E-03 0.000E+00
 ETOT  3  -116.93901934701     -1.230E-03 4.474E-05 0.000E+00
 ETOT  4  -116.93904155284     -2.221E-05 2.231E-06 0.000E+00
 ETOT  5  -116.93904204747     -4.946E-07 1.530E-08 0.000E+00
 ETOT  6  -116.93904206003     -1.255E-08 1.561E-09 0.000E+00
 ETOT  7  -116.93904206036     -3.321E-10 1.083E-11 0.000E+00
 ETOT  8  -116.93904206037     -8.299E-12 2.685E-12 0.000E+00
 ETOT  9  -116.93904206037     -4.832E-13 2.534E-14 0.000E+00
 ETOT 10  -116.93904206037     -9.948E-14 5.658E-15 0.000E+00
 ETOT 11  -116.93904206037     -4.263E-14 9.698E-17 0.000E+00
 ETOT 12  -116.93904206037      4.263E-14 2.006E-17 0.000E+00
 ETOT 13  -116.93904206037     -2.842E-14 3.667E-19 0.000E+00
 ETOT 14  -116.93904206037      2.842E-14 7.520E-20 0.000E+00
 ETOT 15  -116.93904206037      0.000E+00 9.638E-21 0.000E+00

 At SCF step   15   max residual=  9.64E-21 < tolwfr=  1.00E-20 =>converged.

 ----iterations are completed or convergence reached----

 dfpt_looppert: DFPT cycle converged with prtwf=-1. Will skip output of the 1st-order WFK file.
 dfpt_looppert : ek2=    1.0093782343E+02
          f-sum rule ratio=    1.6599063386E+00
 prteigrs : about to open file /scratch/users/j/a/jabreu/flow_simple_4atoms/flow/w222/t1/tmpdata/tmp_1WF1_EIG
 Expectation of eigenvalue derivatives (hartree) for nkpt=   1  k points:
  (in case of degenerate eigenvalues, averaged derivative)
 kpt#   1, nband= 45, wtk=  1.00000, kpt=  0.0000  0.0000  0.0000 (reduced coord)
   0.00000    0.00000    0.00000    0.00000    0.00000    0.00000    0.00000   -0.00000
  -0.00000   -0.00000   -0.00000   -0.00000    0.00000    0.00000   -0.00000   -0.00000
   0.00000    0.00000    0.00000    0.00000   -0.00000   -0.00000   -0.00000    0.00000
   0.00000    0.00000    0.00000   -0.00000   -0.00000   -0.00000   -0.00000    0.00000
   0.00000    0.00000    0.00000    0.00000   -0.00000   -0.00000    0.00000    0.00000
  -0.00000    0.00000    0.00000   -0.00003    0.00006

 Eight components of 2nd-order total energy (hartree) are
 1,2,3: 0th-order hamiltonian combined with 1st-order wavefunctions
     kin0=   1.06346923E+02 eigvalue=   1.21836845E+01  local=  -5.64640900E+01
 4,5,6: 1st-order hamiltonian combined with 1st and 0th-order wfs
     kin1=  -1.67547333E+02  Hartree=   0.00000000E+00     xc=   0.00000000E+00
 7,8,9: eventually, occupation + non-local contributions
    edocc=   4.56480328E+01     enl0=   9.22449139E+00   enl1=  -6.63307512E+01
 1-9 gives the relaxation energy (to be shifted if some occ is /=2.0)
   erelax=  -1.16939042E+02
  No Ewald or frozen-wf contrib.: the relaxation energy is the total one
 2DEtotal=   -0.1169390421E+03 Ha. Also 2DEtotal=   -0.318207316173E+04 eV
    (  non-var. 2DEtotal :   -1.1693904206E+02 Ha)

 Perturbation wavevector (in red.coord.)   0.000000  0.000000  0.000000
 Perturbation : derivative vs k along direction   2
 The set of symmetries contains only one element for this perturbation.
 symkpt : not enough symmetry to change the number of k points.

[...]

 Perturbation wavevector (in red.coord.)   0.000000  0.000000  0.000000
 Perturbation : derivative vs k along direction   3
 The set of symmetries contains only one element for this perturbation.
 symkpt : not enough symmetry to change the number of k points.

-inwffil : will read wavefunctions from disk file /scratch/users/j/a/jabreu/flow_simple_4atoms/flow/w222/t1/indata/in_WFK

 Initialisation of the first-order wave-functions :
  ireadwf=   0

--- !BeginCycle
iteration_state: {dtset: 1, }
solver: {iscf: 7, nstep: 100, nline: 4, wfoptalg: 0, }
tolerances: {tolwfr: 1.00E-20, }
...

     iter   2DEtotal(Ha)        deltaE(Ha) residm    vres2
-ETOT  1  -29.276189161856     -2.928E+01 7.695E-02 0.000E+00
 ETOT  2  -29.299477869802     -2.329E-02 4.118E-03 0.000E+00
 ETOT  3  -29.299648776312     -1.709E-04 1.887E-05 0.000E+00
 ETOT  4  -29.299651151274     -2.375E-06 1.110E-06 0.000E+00
 ETOT  5  -29.299651195353     -4.408E-08 8.103E-09 0.000E+00
 ETOT  6  -29.299651196259     -9.066E-10 5.636E-10 0.000E+00
 ETOT  7  -29.299651196279     -1.971E-11 5.848E-12 0.000E+00
 ETOT  8  -29.299651196280     -4.690E-13 4.435E-13 0.000E+00
 ETOT  9  -29.299651196280     -6.395E-14 1.667E-14 0.000E+00
 ETOT 10  -29.299651196280     -2.132E-14 9.833E-16 0.000E+00
 ETOT 11  -29.299651196280     -7.105E-15 6.013E-17 0.000E+00
 ETOT 12  -29.299651196280     -1.066E-14 3.510E-18 0.000E+00
 ETOT 13  -29.299651196280      0.000E+00 2.186E-19 0.000E+00
 ETOT 14  -29.299651196280      7.105E-15 1.264E-20 0.000E+00
 ETOT 15  -29.299651196280      3.553E-15 9.913E-21 0.000E+00

 At SCF step   15   max residual=  9.91E-21 < tolwfr=  1.00E-20 =>converged.

 ----iterations are completed or convergence reached----

 dfpt_looppert: DFPT cycle converged with prtwf=-1. Will skip output of the 1st-order WFK file.
 dfpt_looppert : ek2=    2.8147704709E+01
          f-sum rule ratio=    1.4386109009E+00
 prteigrs : about to open file /scratch/users/j/a/jabreu/flow_simple_4atoms/flow/w222/t1/tmpdata/tmp_1WF1_EIG
 Expectation of eigenvalue derivatives (hartree) for nkpt=   1  k points:
  (in case of degenerate eigenvalues, averaged derivative)
 kpt#   1, nband= 45, wtk=  1.00000, kpt=  0.0000  0.0000  0.0000 (reduced coord)
   0.00000   -0.00000    0.00000    0.00000   -0.00000   -0.00000    0.00000   -0.00000
  -0.00000   -0.00000   -0.00000   -0.00000    0.00000    0.00000    0.00000    0.00000
  -0.00000   -0.00000   -0.00000    0.00000    0.00000   -0.00000   -0.00000    0.00000
   0.00000   -0.00000   -0.00000    0.00000    0.00000   -0.00000   -0.00000    0.00000
   0.00000    0.00000   -0.00000   -0.00000   -0.00000    0.00000   -0.00000   -0.00000
   0.00000   -0.00000   -0.00000   -0.00000    0.00007

 Eight components of 2nd-order total energy (hartree) are
 1,2,3: 0th-order hamiltonian combined with 1st-order wavefunctions
     kin0=   3.11127744E+01 eigvalue=   3.23098061E+00  local=  -1.63469364E+01
 4,5,6: 1st-order hamiltonian combined with 1st and 0th-order wfs
     kin1=  -4.04935948E+01  Hartree=   0.00000000E+00     xc=   0.00000000E+00
 7,8,9: eventually, occupation + non-local contributions
    edocc=   9.05069863E+00     enl0=   2.25213394E+00   enl1=  -1.81057076E+01
 1-9 gives the relaxation energy (to be shifted if some occ is /=2.0)
   erelax=  -2.92996512E+01
  No Ewald or frozen-wf contrib.: the relaxation energy is the total one
 2DEtotal=   -0.2929965120E+02 Ha. Also 2DEtotal=   -0.797284055666E+03 eV
    (  non-var. 2DEtotal :   -2.9299651196E+01 Ha)

 CALCULATION OF EFFECTIVE MASSES
 NOTE : Additional infos (eff. mass eigenvalues, eigenvectors and, if degenerate, average mass) are available in stdout.

 COMMENTS:
 - At k-point ( 0.000, 0.000, 0.000), bands    35 through    36
   are DEGENERATE (effective mass tensor is therefore not defined).
   See Section IIIB Eqs. (67)-(70) and Appendix E of PRB 93 205147 (2016).
 - Angular average effective mass for Frohlich model is to be averaged over degenerate bands. See later.
 - Associated theta integrals calculated with ntheta=   1000 points.

 K-point ( 0.000, 0.000, 0.000) | band =    35
 Transport equivalent effective mass tensor:
             -0.0595518510             -0.0000001558              0.0000000327
             -0.0000001558             -0.0595516083             -0.0000000330
              0.0000000327             -0.0000000330             -1.1662538084
 Transport equivalent effective mass tensor eigenvalues:
             -1.1662538084             -0.0595519272             -0.0595515322
 Angular average effective mass 1/(<1/m>)=  -0.0871037311
 Angular average effective mass for Frohlich model (<m**0.5>)**2=  -0.1131661991
 Effective masses along directions: (cart. coord. / red. coord. -> eff. mass)
    1:   1.000000  0.000000  0.000000 /   0.894427 -0.447214  0.000000 ->  -0.0595517295
    2:   0.000000  1.000000  0.000000 /   0.000000  1.000000  0.000000 ->  -0.0595517296
    3:   0.000000  0.000000  1.000000 /   0.000000  0.000000  1.000000 ->  -1.1662337312
    4:   0.577350  0.577350  0.577350 /   0.511412  0.187190  0.838700 ->  -0.0871037555
    5:   0.000000  0.707107  0.707107 /   0.000000  0.466963  0.884277 ->  -0.1133171717
    6:   0.707107  0.000000  0.707107 /   0.503824 -0.251912  0.826257 ->  -0.1133172428
    7:   0.707107  0.707107  0.000000 /   0.939071  0.343724  0.000000 ->  -0.0595517295

 K-point ( 0.000, 0.000, 0.000) | band =    36
 Transport equivalent effective mass tensor:
             -1.1827095943              0.0000030965             -0.0000003357
              0.0000030965             -1.1827144154              0.0000004950
             -0.0000003357              0.0000004950             -1.1662538172
 Transport equivalent effective mass tensor eigenvalues:
             -1.1827159291             -1.1827080807             -1.1662538172
 Angular average effective mass 1/(<1/m>)=  -1.1771745690
 Angular average effective mass for Frohlich model (<m**0.5>)**2=  -1.1771900178
 Effective masses along directions: (cart. coord. / red. coord. -> eff. mass)
    1:   1.000000  0.000000  0.000000 /   0.894427 -0.447214  0.000000 ->  -1.1827120015
    2:   0.000000  1.000000  0.000000 /   0.000000  1.000000  0.000000 ->  -1.1827120018
    3:   0.000000  0.000000  1.000000 /   0.000000  0.000000  1.000000 ->  -1.1662738987
    4:   0.577350  0.577350  0.577350 /   0.511412  0.187190  0.838700 ->  -1.1771700093
    5:   0.000000  0.707107  0.707107 /   0.000000  0.466963  0.884277 ->  -1.1744294568
    6:   0.707107  0.000000  0.707107 /   0.503824 -0.251912  0.826257 ->  -1.1744213427
    7:   0.707107  0.707107  0.000000 /   0.939071  0.343724  0.000000 ->  -1.1827120033

 Angular average effective mass for Frohlich model, averaged over degenerate bands.
 Value of     (<<m**0.5>>)**2 =     5.050843E-01
 Absolute Value of <<m**0.5>> =     7.106929E-01

 K-point ( 0.000, 0.000, 0.000) | band =    37
 Effective mass tensor:
              0.0595500401             -0.0000000004             -0.0000000014
             -0.0000000004              0.0595500406             -0.0000000027
             -0.0000000014             -0.0000000027              0.0552997230
 Effective mass tensor eigenvalues:
              0.0552997230              0.0595500399              0.0595500409
 Angular average effective mass 1/(<1/m>)=   0.0580624862
 Angular average effective mass for Frohlich model (<m**0.5>)**2=   0.0580839846
 Effective masses along directions: (cart. coord. / red. coord. -> eff. mass)
    1:   1.000000  0.000000  0.000000 /   0.894427 -0.447214  0.000000 ->   0.0595500401
    2:   0.000000  1.000000  0.000000 /   0.000000  1.000000  0.000000 ->   0.0595500406
    3:   0.000000  0.000000  1.000000 /   0.000000  0.000000  1.000000 ->   0.0552997230
    4:   0.577350  0.577350  0.577350 /   0.511412  0.187190  0.838700 ->   0.0580624831
    5:   0.000000  0.707107  0.707107 /   0.000000  0.466963  0.884277 ->   0.0573462320
    6:   0.707107  0.000000  0.707107 /   0.503824 -0.251912  0.826257 ->   0.0573462330
    7:   0.707107  0.707107  0.000000 /   0.939071  0.343724  0.000000 ->   0.0595500399

 END OF EFFECTIVE MASSES SECTION

 ---- first-order wavefunction calculations are completed ----

 Total localisation tensor (bohr^2) in cartesian coordinates
  WARNING : still subject to testing - especially symmetries.
      direction              matrix element
   alpha     beta       real part   imaginary part
     1        1      17.9916783517    0.0000000000
     1        2      -6.2324996520    0.0000000000
     1        3       0.0000000000    0.0000000000
     2        1      -6.2324996520    0.0000000000
     2        2      10.7950060554    0.0000000000
     2        3       0.0000000000    0.0000000000
     3        1       0.0000000000    0.0000000000
     3        2       0.0000000000    0.0000000000
     3        3       9.2953051536    0.0000000000

 respfn : d/dk was computed, but no 2DTE, so no DDB output.

== END DATASET(S) ==============================================================

 -outvars: echo values of variables after computation  --------
            acell      1.0000000000E+00  1.0000000000E+00  1.0000000000E+00 Bohr
              amu      1.12411000E+02  1.27600000E+02
             ecut      5.10000000E+01 Hartree
           etotal     -2.9299651196E+01
            fcart      0.0000000000E+00  0.0000000000E+00  0.0000000000E+00
                       0.0000000000E+00  0.0000000000E+00  0.0000000000E+00
                       0.0000000000E+00  0.0000000000E+00  0.0000000000E+00
                       0.0000000000E+00  0.0000000000E+00  0.0000000000E+00
-          fftalg         512
           irdden           1
           irdwfk           1
           istwfk        1
              ixc     -116133
           kptopt           0
P           mkmem           1
P          mkqmem           1
P          mk1mem           1
            natom           4
            nband          45
           nbdbuf           4
            ngfft          60      60      96
             nkpt           1
            nstep         100
             nsym          12
           ntypat           2
              occ      2.000000  2.000000  2.000000  2.000000  2.000000  2.000000
                       2.000000  2.000000  2.000000  2.000000  2.000000  2.000000
                       2.000000  2.000000  2.000000  2.000000  2.000000  2.000000
                       2.000000  2.000000  2.000000  2.000000  2.000000  2.000000
                       2.000000  2.000000  2.000000  2.000000  2.000000  2.000000
                       2.000000  2.000000  2.000000  2.000000  2.000000  2.000000
                       0.000000  0.000000  0.000000  0.000000  0.000000  0.000000
                       0.000000  0.000000  0.000000
        optdriver           1
            prtwf          -1
            rfdir           1       1       1
           rfelfd           2
            rprim      8.6656973043E+00  0.0000000000E+00  0.0000000000E+00
                      -4.3328486521E+00  7.5047140070E+00  0.0000000000E+00
                       0.0000000000E+00  0.0000000000E+00  1.4211490244E+01
          spgroup         186
           strten      0.0000000000E+00  0.0000000000E+00  0.0000000000E+00
                       0.0000000000E+00  0.0000000000E+00  0.0000000000E+00
           symrel      1  0  0   0  1  0   0  0  1       0  1  0   1  0  0   0  0  1
                       1  1  0  -1  0  0   0  0  1      -1  0  0   1  1  0   0  0  1
                       0  1  0  -1 -1  0   0  0  1      -1 -1  0   0  1  0   0  0  1
                      -1  0  0   0 -1  0   0  0  1       0 -1  0  -1  0  0   0  0  1
                      -1 -1  0   1  0  0   0  0  1       1  0  0  -1 -1  0   0  0  1
                       0 -1  0   1  1  0   0  0  1       1  1  0   0 -1  0   0  0  1
            tnons      0.0000000  0.0000000  0.0000000    -0.0000000  0.0000000  0.5000000
                       0.0000000  0.0000000  0.5000000    -0.0000000  0.0000000  0.0000000
                       0.0000000  0.0000000  0.0000000     0.0000000  0.0000000  0.5000000
                       0.0000000  0.0000000  0.5000000     0.0000000  0.0000000  0.0000000
                      -0.0000000  0.0000000  0.0000000     0.0000000  0.0000000  0.5000000
                      -0.0000000  0.0000000  0.5000000     0.0000000  0.0000000  0.0000000
           tolwfr      1.00000000E-20
            typat      1  1  2  2
           useylm           1
           xangst      2.2928447550E+00  1.3237745365E+00  7.5182910260E+00
                       1.7638771742E-11  2.6475490730E+00  3.7580926575E+00
                       2.2928447550E+00  1.3237745365E+00  4.7023536718E+00
                       1.7638771742E-11  2.6475490730E+00  9.4215530323E-01
            xcart      4.3328486522E+00  2.5015713357E+00  1.4207511027E+01
                       3.3332447913E-11  5.0031426713E+00  7.1017659046E+00
                       4.3328486522E+00  2.5015713357E+00  8.8861606196E+00
                       3.3332447913E-11  5.0031426713E+00  1.7804154977E+00
             xred      6.6666666667E-01  3.3333333333E-01  9.9972000000E-01
                       3.3333333333E-01  6.6666666667E-01  4.9972000000E-01
                       6.6666666667E-01  3.3333333333E-01  6.2528000000E-01
                       3.3333333333E-01  6.6666666667E-01  1.2528000000E-01
            znucl       48.00000   52.00000

- Timing analysis has been suppressed with timopt=0

 Suggested references for the acknowledgment of ABINIT usage.

 Calculation completed.
.Delivered   6 WARNINGs and   5 COMMENTs to log file.