.Version 9.7.2 of ABINIT

 ABINIT is a project of the Universite Catholique de Louvain,
 Corning Inc. and other collaborators, see ~abinit/doc/developers/contributors.txt .
 acknowledgments of the ABINIT effort.

.Starting date : Wed  1 Dec 2021.
- ( at 22h09 )

- input  file    -> /scratch/users/j/a/jabreu/flow_simple_remain_atoms/flow/w285/t1/run.abi
- output file    -> /scratch/users/j/a/jabreu/flow_simple_remain_atoms/flow/w285/t1/run.abo
- root for input  files -> /scratch/users/j/a/jabreu/flow_simple_remain_atoms/flow/w285/t1/indata/in
- root for output files -> /scratch/users/j/a/jabreu/flow_simple_remain_atoms/flow/w285/t1/outdata/out

 Symmetries : space group P-3 m 1 (#164); Bravais hP (primitive hexag.)
     intxc =       0      iscf =       7    lmnmax =      32     lnmax =       8
     mgfft =      80  mpssoang =       4    mqgrid =    3702     natom =       5
  nloc_mem =       1    nspden =       1   nspinor =       1    nsppol =       1
      nsym =      12    n1xccc =    2501    ntypat =       2    occopt =       1
   xclevel =       2
-    mband =          29        mffmem =           1         mkmem =           2
-   mkqmem =           2        mk1mem =           2           mpw =        9648
      nfft =      184320          nkpt =           2
  Rough estimation (10% accuracy) of disk space for files :

------------- Echo of variables that govern the present computation ------------
-
- outvars: echo of selected default values
-   iomode0 =  0 , fftalg0 =512 , wfoptalg0 =  0
-
- outvars: echo of global parameters not present in the input file
-  max_nthreads =    0
-
 -outvars: echo values of preprocessed input variables --------
            acell      1.0000000000E+00  1.0000000000E+00  1.0000000000E+00 Bohr
              amu      1.38905500E+02  1.59994000E+01
             ecut      5.20000000E+01 Hartree
-          fftalg         512
           irdden           1
           irdwfk           1
              ixc     -116133
              kpt      2.52525253E-01  2.52525253E-01  5.00000000E-01
                       3.33333333E-01  3.33333333E-01  0.00000000E+00
           kptopt           0
P           mkmem           2
P          mkqmem           2
P          mk1mem           2
            natom           5
            nband          29
           nbdbuf           4
            ngfft          48      48      80
             nkpt           2
            nstep        2000
             nsym          12
           ntypat           2
              occ      2.000000  2.000000  2.000000  2.000000  2.000000  2.000000
                       2.000000  2.000000  2.000000  2.000000  2.000000  2.000000
                       2.000000  2.000000  2.000000  2.000000  2.000000  2.000000
                       2.000000  2.000000  0.000000  0.000000  0.000000  0.000000
                       0.000000  0.000000  0.000000  0.000000  0.000000
        optdriver           1
            prtwf          -1
            rfdir           1       1       1
           rfelfd           2
            rprim      7.3742740231E+00  0.0000000000E+00  0.0000000000E+00
                      -3.6871370116E+00  6.3863086385E+00  0.0000000000E+00
                       0.0000000000E+00  0.0000000000E+00  1.1403034684E+01
          spgroup         164
           symrel      1  0  0   0  1  0   0  0  1      -1  0  0   0 -1  0   0  0 -1
                      -1  0  0   1  1  0   0  0  1       1  0  0  -1 -1  0   0  0 -1
                       0  1  0  -1 -1  0   0  0  1       0 -1  0   1  1  0   0  0 -1
                       0 -1  0  -1  0  0   0  0  1       0  1  0   1  0  0   0  0 -1
                      -1 -1  0   1  0  0   0  0  1       1  1  0  -1  0  0   0  0 -1
                       1  1  0   0 -1  0   0  0  1      -1 -1  0   0  1  0   0  0 -1
           tolwfr      1.00000000E-20
            typat      1  1  2  2  2
           useylm           1
              wtk        0.50000    0.50000
           xangst     -1.7639711750E-11  2.2529926523E+00  4.5535175010E+00
                       1.9511488715E+00  1.1264963262E+00  1.4807085626E+00
                      -1.7639711750E-11  2.2529926523E+00  2.1359531024E+00
                       1.9511488715E+00  1.1264963262E+00  3.8982729612E+00
                      -2.8882805354E-16 -2.5013243169E-16  0.0000000000E+00
            xcart     -3.3334224270E-11  4.2575390923E+00  8.6049010182E+00
                       3.6871370115E+00  2.1287695462E+00  2.7981336660E+00
                      -3.3334224270E-11  4.2575390923E+00  4.0363663963E+00
                       3.6871370115E+00  2.1287695462E+00  7.3666682879E+00
                      -5.4580592069E-16 -4.7268179286E-16  0.0000000000E+00
             xred      3.3333333333E-01  6.6666666667E-01  7.5461500000E-01
                       6.6666666667E-01  3.3333333333E-01  2.4538500000E-01
                       3.3333333333E-01  6.6666666667E-01  3.5397300000E-01
                       6.6666666667E-01  3.3333333333E-01  6.4602700000E-01
                      -1.1102230246E-16 -7.4014868308E-17  0.0000000000E+00
            znucl       57.00000    8.00000

 chkinp: Checking input parameters for consistency.

== DATASET  1 ==================================================================
-   mpi_nproc: 1, omp_nthreads: -1 (-1 if OMP is not activated)

--- !DatasetInfo
iteration_state: {dtset: 1, }
dimensions: {natom: 5, nkpt: 2, mband: 29, nsppol: 1, nspinor: 1, nspden: 1, mpw: 9648, }
cutoff_energies: {ecut:  52.0, pawecutdg:  -1.0, }
electrons: {nelect:   4.00000000E+01, charge:   0.00000000E+00, occopt:   1.00000000E+00, tsmear:   1.00000000E-02, }
meta: {optdriver: 1, rfelfd: 2, }
...

 Real(R)+Recip(G) space primitive vectors, cartesian coordinates (Bohr,Bohr^-1):
 R(1)=  7.3742740  0.0000000  0.0000000  G(1)=  0.1356066  0.0782925  0.0000000
 R(2)= -3.6871370  6.3863086  0.0000000  G(2)=  0.0000000  0.1565850  0.0000000
 R(3)=  0.0000000  0.0000000 11.4030347  G(3)=  0.0000000  0.0000000  0.0876960
 Unit cell volume ucvol=  5.3701896E+02 bohr^3
 Angles (23,13,12)=  9.00000000E+01  9.00000000E+01  1.20000000E+02 degrees

 getcut: wavevector=  0.0000  0.0000  0.0000  ngfft=  48  48  80
         ecut(hartree)=     52.000   => boxcut(ratio)=   2.00519

--- Pseudopotential description ------------------------------------------------
- pspini: atom type   1  psp file is /scratch/users/j/a/jabreu/pseudos/PBEsol/La.psp8
- pspatm: opening atomic psp file    /scratch/users/j/a/jabreu/pseudos/PBEsol/La.psp8
- La    ONCVPSP-3.3.0  r_core=   2.11664   1.60878   1.85636   1.66739
- 57.00000  11.00000    180112                znucl, zion, pspdat
    8 -116133    3    4       600   0.00000   pspcod,pspxc,lmax,lloc,mmax,r2well
    5.99000000000000    5.00000000000000    0.00000000000000   rchrg,fchrg,qchrg
     nproj     2     2     2     2
     extension_switch     1
  pspatm : epsatm=   29.08531775
         --- l  ekb(1:nproj) -->
             0    6.695600    0.639047
             1    6.383649    1.151322
             2    3.612966    0.847811
             3  -13.718437   -4.858923
 pspatm: atomic psp has been read  and splines computed

- pspini: atom type   2  psp file is /scratch/users/j/a/jabreu/pseudos/PBEsol/O.psp8
- pspatm: opening atomic psp file    /scratch/users/j/a/jabreu/pseudos/PBEsol/O.psp8
- O     ONCVPSP-3.3.0  r_core=   1.35509   1.45563   1.26150
-  8.00000   6.00000    180112                znucl, zion, pspdat
    8 -116133    2    4       600   0.00000   pspcod,pspxc,lmax,lloc,mmax,r2well
    5.99000000000000    4.00000000000000    0.00000000000000   rchrg,fchrg,qchrg
     nproj     2     2     1
     extension_switch     1
  pspatm : epsatm=    6.22910522
         --- l  ekb(1:nproj) -->
             0    6.050032    0.820363
             1   -4.739617   -1.153841
             2   -1.335834
 pspatm: atomic psp has been read  and splines computed

   3.07431805E+03                                ecore*ucvol(ha*bohr**3)

 ==>  initialize data related to q vector <==

 The list of irreducible perturbations for this q vector is:
    1)    idir= 1    ipert=   6
    2)    idir= 2    ipert=   6
    3)    idir= 3    ipert=   6

 Perturbation wavevector (in red.coord.)   0.000000  0.000000  0.000000
 Perturbation : derivative vs k along direction   1

 dfpt_looppert : COMMENT -
  In a d/dk calculation, iscf is set to -3 automatically.
 The set of symmetries contains only one element for this perturbation.
 symkpt : not enough symmetry to change the number of k points.

 Initialisation of the first-order wave-functions :
  ireadwf=   0

--- !BeginCycle
iteration_state: {dtset: 1, }
solver: {iscf: 7, nstep: 2000, nline: 4, wfoptalg: 0, }
tolerances: {tolwfr: 1.00E-20, }
...

     iter   2DEtotal(Ha)        deltaE(Ha) residm    vres2
-ETOT  1  -43.262993142087     -4.326E+01 9.615E-02 0.000E+00
 ETOT  2  -43.596913618440     -3.339E-01 4.695E-02 0.000E+00
 ETOT  3  -43.648061049425     -5.115E-02 1.388E-02 0.000E+00
 ETOT  4  -43.661712773991     -1.365E-02 1.421E-02 0.000E+00
 ETOT  5  -43.665914026745     -4.201E-03 4.870E-03 0.000E+00
 ETOT  6  -43.667272535389     -1.359E-03 5.323E-03 0.000E+00
 ETOT  7  -43.667722063904     -4.495E-04 2.566E-03 0.000E+00
 ETOT  8  -43.667873410240     -1.513E-04 2.522E-03 0.000E+00
 ETOT  9  -43.667924937159     -5.153E-05 1.777E-03 0.000E+00
 ETOT 10  -43.667942641634     -1.770E-05 1.643E-03 0.000E+00
 ETOT 11  -43.667948770054     -6.128E-06 1.541E-03 0.000E+00
 ETOT 12  -43.667950905190     -2.135E-06 1.445E-03 0.000E+00
 ETOT 13  -43.667951653494     -7.483E-07 1.353E-03 0.000E+00
 ETOT 14  -43.667951917167     -2.637E-07 1.276E-03 0.000E+00
 ETOT 15  -43.667952010559     -9.339E-08 1.192E-03 0.000E+00
 ETOT 16  -43.667952043798     -3.324E-08 1.128E-03 0.000E+00
 ETOT 17  -43.667952055684     -1.189E-08 1.053E-03 0.000E+00
 ETOT 18  -43.667952059954     -4.270E-09 9.973E-04 0.000E+00
 ETOT 19  -43.667952061494     -1.540E-09 9.313E-04 0.000E+00
 ETOT 20  -43.667952062052     -5.581E-10 8.821E-04 0.000E+00
 ETOT 21  -43.667952062255     -2.031E-10 8.246E-04 0.000E+00
 ETOT 22  -43.667952062330     -7.429E-11 7.806E-04 0.000E+00
 ETOT 23  -43.667952062357     -2.709E-11 7.309E-04 0.000E+00
 ETOT 24  -43.667952062367     -1.006E-11 6.912E-04 0.000E+00
 ETOT 25  -43.667952062371     -3.688E-12 6.487E-04 0.000E+00
 ETOT 26  -43.667952062372     -1.386E-12 6.125E-04 0.000E+00
 ETOT 27  -43.667952062373     -5.258E-13 5.764E-04 0.000E+00
 ETOT 28  -43.667952062373     -1.421E-13 5.432E-04 0.000E+00
 ETOT 29  -43.667952062373     -1.634E-13 5.128E-04 0.000E+00
 ETOT 30  -43.667952062373     -2.132E-14 4.822E-04 0.000E+00
 ETOT 31  -43.667952062373      4.974E-14 4.566E-04 0.000E+00
 ETOT 32  -43.667952062373     -3.553E-14 4.285E-04 0.000E+00
 ETOT 33  -43.667952062373      4.263E-14 4.071E-04 0.000E+00
 ETOT 34  -43.667952062373     -7.816E-14 3.811E-04 0.000E+00
 ETOT 35  -43.667952062373      4.263E-14 3.633E-04 0.000E+00
 ETOT 36  -43.667952062373      2.842E-14 3.392E-04 0.000E+00
 ETOT 37  -43.667952062373     -6.395E-14 3.244E-04 0.000E+00
 ETOT 38  -43.667952062373      1.421E-14 3.022E-04 0.000E+00
[...]
          f-sum rule ratio=    1.0539820213E+00
 prteigrs : about to open file /scratch/users/j/a/jabreu/flow_simple_remain_atoms/flow/w285/t1/tmpdata/tmp_1WF1_EIG
 Expectation of eigenvalue derivatives (hartree) for nkpt=   2  k points:
  (in case of degenerate eigenvalues, averaged derivative)
 kpt#   1, nband= 29, wtk=  0.50000, kpt=  0.2525  0.2525  0.5000 (reduced coord)
   0.00989    0.00756   -0.01906   -0.05331   -0.06637   -0.05715    0.04755    0.00974
   0.01855    0.02554    0.00803   -0.01103    0.01796    0.07115    0.04246    0.02634
   0.02903    0.09528   -0.02821    0.00127   -0.07464    0.02098    0.01943   -0.03484
  -0.00194    0.00844   -0.01654   -0.02032    0.00010
 prteigrs : prtvol=0 or 1, do not print more k-points.

 Eight components of 2nd-order total energy (hartree) are
 1,2,3: 0th-order hamiltonian combined with 1st-order wavefunctions
     kin0=   1.19068131E+02 eigvalue=  -4.97552981E+00  local=  -6.14075462E+01
 4,5,6: 1st-order hamiltonian combined with 1st and 0th-order wfs
     kin1=  -8.16174684E+01  Hartree=   0.00000000E+00     xc=   0.00000000E+00
 7,8,9: eventually, occupation + non-local contributions
    edocc=   4.72148431E+00     enl0=  -1.37385875E+01   enl1=  -5.71843572E+00
 1-9 gives the relaxation energy (to be shifted if some occ is /=2.0)
   erelax=  -4.36679521E+01
  No Ewald or frozen-wf contrib.: the relaxation energy is the total one
 2DEtotal=   -0.4366795206E+02 Ha. Also 2DEtotal=   -0.118826540595E+04 eV
    (  non-var. 2DEtotal :   -4.3667952062E+01 Ha)

 Perturbation wavevector (in red.coord.)   0.000000  0.000000  0.000000
 Perturbation : derivative vs k along direction   2
 The set of symmetries contains only one element for this perturbation.
 symkpt : not enough symmetry to change the number of k points.

[...]

 Perturbation wavevector (in red.coord.)   0.000000  0.000000  0.000000
 Perturbation : derivative vs k along direction   3
 The set of symmetries contains only one element for this perturbation.
 symkpt : not enough symmetry to change the number of k points.

 Initialisation of the first-order wave-functions :
  ireadwf=   0

--- !BeginCycle
iteration_state: {dtset: 1, }
solver: {iscf: 7, nstep: 2000, nline: 4, wfoptalg: 0, }
tolerances: {tolwfr: 1.00E-20, }
...

     iter   2DEtotal(Ha)        deltaE(Ha) residm    vres2
-ETOT  1  -12.982720160448     -1.298E+01 5.774E-02 0.000E+00
 ETOT  2  -13.087914902807     -1.052E-01 2.752E-02 0.000E+00
 ETOT  3  -13.099954095763     -1.204E-02 4.264E-03 0.000E+00
 ETOT  4  -13.103085903801     -3.132E-03 4.278E-03 0.000E+00
 ETOT  5  -13.104024947741     -9.390E-04 1.207E-03 0.000E+00
 ETOT  6  -13.104327005847     -3.021E-04 1.576E-03 0.000E+00
 ETOT  7  -13.104426516800     -9.951E-05 6.481E-04 0.000E+00
 ETOT  8  -13.104459803277     -3.329E-05 7.485E-04 0.000E+00
 ETOT  9  -13.104471035383     -1.123E-05 4.395E-04 0.000E+00
 ETOT 10  -13.104474857347     -3.822E-06 3.855E-04 0.000E+00
 ETOT 11  -13.104476165458     -1.308E-06 3.511E-04 0.000E+00
 ETOT 12  -13.104476615853     -4.504E-07 2.347E-04 0.000E+00
 ETOT 13  -13.104476771630     -1.558E-07 2.884E-04 0.000E+00
 ETOT 14  -13.104476825767     -5.414E-08 1.841E-04 0.000E+00
 ETOT 15  -13.104476844653     -1.889E-08 2.409E-04 0.000E+00
 ETOT 16  -13.104476851269     -6.616E-09 1.557E-04 0.000E+00
 ETOT 17  -13.104476853594     -2.325E-09 2.035E-04 0.000E+00
 ETOT 18  -13.104476854414     -8.203E-10 1.327E-04 0.000E+00
 ETOT 19  -13.104476854705     -2.902E-10 1.731E-04 0.000E+00
 ETOT 20  -13.104476854808     -1.031E-10 1.137E-04 0.000E+00
 ETOT 21  -13.104476854844     -3.668E-11 1.478E-04 0.000E+00
 ETOT 22  -13.104476854857     -1.313E-11 9.758E-05 0.000E+00
 ETOT 23  -13.104476854862     -4.686E-12 1.266E-04 0.000E+00
 ETOT 24  -13.104476854864     -1.648E-12 8.392E-05 0.000E+00
 ETOT 25  -13.104476854864     -6.395E-13 1.087E-04 0.000E+00
 ETOT 26  -13.104476854865     -1.972E-13 7.224E-05 0.000E+00
 ETOT 27  -13.104476854865     -9.237E-14 9.343E-05 0.000E+00
 ETOT 28  -13.104476854865     -2.842E-14 6.223E-05 0.000E+00
 ETOT 29  -13.104476854865     -3.553E-15 8.039E-05 0.000E+00
 ETOT 30  -13.104476854865     -7.105E-15 5.364E-05 0.000E+00
 ETOT 31  -13.104476854865      0.000E+00 6.923E-05 0.000E+00
 ETOT 32  -13.104476854865     -3.553E-15 4.625E-05 0.000E+00
 ETOT 33  -13.104476854865     -3.553E-15 5.966E-05 0.000E+00
 ETOT 34  -13.104476854865     -3.553E-15 3.990E-05 0.000E+00
 ETOT 35  -13.104476854865      1.776E-14 5.144E-05 0.000E+00
 ETOT 36  -13.104476854865      5.329E-15 3.443E-05 0.000E+00
 ETOT 37  -13.104476854865     -1.954E-14 4.437E-05 0.000E+00
 ETOT 38  -13.104476854865      1.599E-14 2.972E-05 0.000E+00
 ETOT 39  -13.104476854865     -1.066E-14 3.829E-05 0.000E+00
 ETOT 40  -13.104476854865      1.776E-15 2.566E-05 0.000E+00
 ETOT 41  -13.104476854865     -8.882E-15 3.306E-05 0.000E+00
 ETOT 42  -13.104476854865      1.421E-14 2.216E-05 0.000E+00
 ETOT 43  -13.104476854865     -3.553E-15 2.855E-05 0.000E+00
 ETOT 44  -13.104476854865     -3.553E-15 1.915E-05 0.000E+00
 ETOT 45  -13.104476854865      3.553E-15 2.466E-05 0.000E+00
 ETOT 46  -13.104476854865      1.776E-15 1.655E-05 0.000E+00
 ETOT 47  -13.104476854865     -7.105E-15 2.131E-05 0.000E+00
 ETOT 48  -13.104476854865      7.105E-15 1.430E-05 0.000E+00
 ETOT 49  -13.104476854865      3.553E-15 1.842E-05 0.000E+00
 ETOT 50  -13.104476854865     -5.329E-15 1.236E-05 0.000E+00
 ETOT 51  -13.104476854865      1.776E-15 1.592E-05 0.000E+00
 ETOT 52  -13.104476854865      3.553E-15 1.069E-05 0.000E+00
 ETOT 53  -13.104476854865      1.776E-15 1.377E-05 0.000E+00
 ETOT 54  -13.104476854865     -1.776E-15 9.244E-06 0.000E+00
 ETOT 55  -13.104476854865      0.000E+00 1.191E-05 0.000E+00
 ETOT 56  -13.104476854865      5.329E-15 7.996E-06 0.000E+00
 ETOT 57  -13.104476854865     -7.105E-15 1.030E-05 0.000E+00
 ETOT 58  -13.104476854865      0.000E+00 6.917E-06 0.000E+00
 ETOT 59  -13.104476854865      0.000E+00 8.909E-06 0.000E+00
 ETOT 60  -13.104476854865      0.000E+00 5.985E-06 0.000E+00
 ETOT 61  -13.104476854865     -1.776E-15 7.708E-06 0.000E+00
[...]
 ETOT  524  -13.104476854865      5.329E-15 2.661E-20 0.000E+00
 ETOT  525  -13.104476854865      8.882E-15 2.999E-20 0.000E+00
 ETOT  526  -13.104476854865     -1.066E-14 2.308E-20 0.000E+00
 ETOT  527  -13.104476854865      5.329E-15 2.600E-20 0.000E+00
 ETOT  528  -13.104476854865     -1.776E-15 2.002E-20 0.000E+00
 ETOT  529  -13.104476854865     -1.776E-15 2.255E-20 0.000E+00
 ETOT  530  -13.104476854865      0.000E+00 1.736E-20 0.000E+00
 ETOT  531  -13.104476854865     -1.776E-15 1.956E-20 0.000E+00
 ETOT  532  -13.104476854865     -5.329E-15 1.506E-20 0.000E+00
 ETOT  533  -13.104476854865      1.066E-14 1.696E-20 0.000E+00
 ETOT  534  -13.104476854865     -5.329E-15 1.306E-20 0.000E+00
 ETOT  535  -13.104476854865      7.105E-15 1.471E-20 0.000E+00
 ETOT  536  -13.104476854865     -5.329E-15 1.133E-20 0.000E+00
 ETOT  537  -13.104476854865     -1.776E-15 1.276E-20 0.000E+00
 ETOT  538  -13.104476854865      3.553E-15 9.951E-21 0.000E+00

 At SCF step  538   max residual=  9.95E-21 < tolwfr=  1.00E-20 =>converged.

 ----iterations are completed or convergence reached----

 dfpt_looppert: DFPT cycle converged with prtwf=-1. Will skip output of the 1st-order WFK file.
 dfpt_looppert : ek2=    2.4288955159E+01
          f-sum rule ratio=    1.0029053051E+00
 prteigrs : about to open file /scratch/users/j/a/jabreu/flow_simple_remain_atoms/flow/w285/t1/tmpdata/tmp_1WF1_EIG
 Expectation of eigenvalue derivatives (hartree) for nkpt=   2  k points:
  (in case of degenerate eigenvalues, averaged derivative)
 kpt#   1, nband= 29, wtk=  0.50000, kpt=  0.2525  0.2525  0.5000 (reduced coord)
  -0.00000    0.00000   -0.00000    0.00000   -0.00000    0.00000    0.00000   -0.00000
   0.00000    0.00000   -0.00000    0.00000    0.00000   -0.00000   -0.00000   -0.00000
   0.00000    0.00000   -0.00000   -0.00000    0.00000   -0.00000    0.00000   -0.00000
   0.00000   -0.00000    0.00000    0.00000    0.00007
 prteigrs : prtvol=0 or 1, do not print more k-points.

 Eight components of 2nd-order total energy (hartree) are
 1,2,3: 0th-order hamiltonian combined with 1st-order wavefunctions
     kin0=   3.78185953E+01 eigvalue=  -1.08435804E+00  local=  -1.84658284E+01
 4,5,6: 1st-order hamiltonian combined with 1st and 0th-order wfs
     kin1=  -2.43595220E+01  Hartree=   0.00000000E+00     xc=   0.00000000E+00
 7,8,9: eventually, occupation + non-local contributions
    edocc=   1.50637808E+00     enl0=  -6.67031010E+00   enl1=  -1.84943173E+00
 1-9 gives the relaxation energy (to be shifted if some occ is /=2.0)
   erelax=  -1.31044769E+01
  No Ewald or frozen-wf contrib.: the relaxation energy is the total one
 2DEtotal=   -0.1310447685E+02 Ha. Also 2DEtotal=   -0.356590949982E+03 eV
    (  non-var. 2DEtotal :   -1.3104476855E+01 Ha)

 CALCULATION OF EFFECTIVE MASSES
 NOTE : Additional infos (eff. mass eigenvalues, eigenvectors and, if degenerate, average mass) are available in stdout.

 K-point ( 0.253, 0.253, 0.500) | band =    20
 Effective mass tensor:
             -3.2344394710              1.2379208524              0.6834950307
              1.2379208524             -1.8050093027             -0.3946150509
              0.6834950307             -0.3946150509             -1.5297583931
 Effective mass tensor eigenvalues:
             -4.1838426334             -1.2950685946             -1.0902959387
 Angular average effective mass 1/(<1/m>)=  -1.5557287133
 Angular average effective mass for Frohlich model (<m**0.5>)**2=  -1.6870440277
 Effective masses along directions: (cart. coord. / red. coord. -> eff. mass)
    1:   1.000000  0.000000  0.000000 /   0.894427 -0.447214  0.000000 ->  -2.2673587836
    2:   0.000000  1.000000  0.000000 /   0.000000  1.000000  0.000000 ->  -1.3184456536
    3:   0.000000  0.000000  1.000000 /   0.000000  0.000000  1.000000 ->  -1.3720317815
    4:   0.577350  0.577350  0.577350 /   0.532616  0.194951  0.823598 ->  -1.1606373182
    5:   0.000000  0.707107  0.707107 /   0.000000  0.488639  0.872486 ->  -1.4906939010
    6:   0.707107  0.000000  0.707107 /   0.524061 -0.262031  0.810370 ->  -1.4062951604
    7:   0.707107  0.707107  0.000000 /   0.939071  0.343724  0.000000 ->  -1.1433079703

 K-point ( 0.333, 0.333, 0.000) | band =    21
 Effective mass tensor:
              1.3467903736              0.0000000645             -0.0000000200
              0.0000000645              1.3467902890             -0.0000000114
             -0.0000000200             -0.0000000114              1.3127280465
 Effective mass tensor eigenvalues:
              1.3127280465              1.3467902542              1.3467904084
 Angular average effective mass 1/(<1/m>)=   1.3352415121
 Angular average effective mass for Frohlich model (<m**0.5>)**2=   1.3353001872
 Effective masses along directions: (cart. coord. / red. coord. -> eff. mass)
    1:   1.000000  0.000000  0.000000 /   0.894427 -0.447214  0.000000 ->   1.3467903736
    2:   0.000000  1.000000  0.000000 /   0.000000  1.000000  0.000000 ->   1.3467902890
    3:   0.000000  0.000000  1.000000 /   0.000000  0.000000  1.000000 ->   1.3127280465
    4:   0.577350  0.577350  0.577350 /   0.532616  0.194951  0.823598 ->   1.3352415332
    5:   0.000000  0.707107  0.707107 /   0.000000  0.488639  0.872486 ->   1.3295410273
    6:   0.707107  0.000000  0.707107 /   0.524061 -0.262031  0.810370 ->   1.3295410599
    7:   0.707107  0.707107  0.000000 /   0.939071  0.343724  0.000000 ->   1.3467903957

 END OF EFFECTIVE MASSES SECTION

 ---- first-order wavefunction calculations are completed ----

 Total localisation tensor (bohr^2) in cartesian coordinates
  WARNING : still subject to testing - especially symmetries.
      direction              matrix element
   alpha     beta       real part   imaginary part
     1        1       1.5424208933    0.0000000000
     1        2      -0.5343099653    0.0000000000
     1        3       0.0000000000    0.0000000000
     2        1      -0.5343099653    0.0000000000
     2        2       0.9254520068    0.0000000000
     2        3       0.0000000000    0.0000000000
     3        1       0.0000000000    0.0000000000
     3        2       0.0000000000    0.0000000000
     3        3       0.8502007840    0.0000000000

 respfn : d/dk was computed, but no 2DTE, so no DDB output.

== END DATASET(S) ==============================================================

 -outvars: echo values of variables after computation  --------
            acell      1.0000000000E+00  1.0000000000E+00  1.0000000000E+00 Bohr
              amu      1.38905500E+02  1.59994000E+01
             ecut      5.20000000E+01 Hartree
           etotal     -1.3104476855E+01
            fcart      0.0000000000E+00  0.0000000000E+00  0.0000000000E+00
                       0.0000000000E+00  0.0000000000E+00  0.0000000000E+00
                       0.0000000000E+00  0.0000000000E+00  0.0000000000E+00
                       0.0000000000E+00  0.0000000000E+00  0.0000000000E+00
                       0.0000000000E+00  0.0000000000E+00  0.0000000000E+00
-          fftalg         512
           irdden           1
           irdwfk           1
              ixc     -116133
              kpt      2.52525253E-01  2.52525253E-01  5.00000000E-01
                       3.33333333E-01  3.33333333E-01  0.00000000E+00
           kptopt           0
P           mkmem           2
P          mkqmem           2
P          mk1mem           2
            natom           5
            nband          29
           nbdbuf           4
            ngfft          48      48      80
             nkpt           2
            nstep        2000
             nsym          12
           ntypat           2
              occ      2.000000  2.000000  2.000000  2.000000  2.000000  2.000000
                       2.000000  2.000000  2.000000  2.000000  2.000000  2.000000
                       2.000000  2.000000  2.000000  2.000000  2.000000  2.000000
                       2.000000  2.000000  0.000000  0.000000  0.000000  0.000000
                       0.000000  0.000000  0.000000  0.000000  0.000000
        optdriver           1
            prtwf          -1
            rfdir           1       1       1
           rfelfd           2
            rprim      7.3742740231E+00  0.0000000000E+00  0.0000000000E+00
                      -3.6871370116E+00  6.3863086385E+00  0.0000000000E+00
                       0.0000000000E+00  0.0000000000E+00  1.1403034684E+01
          spgroup         164
           strten      0.0000000000E+00  0.0000000000E+00  0.0000000000E+00
                       0.0000000000E+00  0.0000000000E+00  0.0000000000E+00
           symrel      1  0  0   0  1  0   0  0  1      -1  0  0   0 -1  0   0  0 -1
                      -1  0  0   1  1  0   0  0  1       1  0  0  -1 -1  0   0  0 -1
                       0  1  0  -1 -1  0   0  0  1       0 -1  0   1  1  0   0  0 -1
                       0 -1  0  -1  0  0   0  0  1       0  1  0   1  0  0   0  0 -1
                      -1 -1  0   1  0  0   0  0  1       1  1  0  -1  0  0   0  0 -1
                       1  1  0   0 -1  0   0  0  1      -1 -1  0   0  1  0   0  0 -1
           tolwfr      1.00000000E-20
            typat      1  1  2  2  2
           useylm           1
              wtk        0.50000    0.50000
           xangst     -1.7639711750E-11  2.2529926523E+00  4.5535175010E+00
                       1.9511488715E+00  1.1264963262E+00  1.4807085626E+00
                      -1.7639711750E-11  2.2529926523E+00  2.1359531024E+00
                       1.9511488715E+00  1.1264963262E+00  3.8982729612E+00
                      -2.8882805354E-16 -2.5013243169E-16  0.0000000000E+00
            xcart     -3.3334224270E-11  4.2575390923E+00  8.6049010182E+00
                       3.6871370115E+00  2.1287695462E+00  2.7981336660E+00
                      -3.3334224270E-11  4.2575390923E+00  4.0363663963E+00
                       3.6871370115E+00  2.1287695462E+00  7.3666682879E+00
                      -5.4580592069E-16 -4.7268179286E-16  0.0000000000E+00
             xred      3.3333333333E-01  6.6666666667E-01  7.5461500000E-01
                       6.6666666667E-01  3.3333333333E-01  2.4538500000E-01
                       3.3333333333E-01  6.6666666667E-01  3.5397300000E-01
                       6.6666666667E-01  3.3333333333E-01  6.4602700000E-01
                      -1.1102230246E-16 -7.4014868308E-17  0.0000000000E+00
            znucl       57.00000    8.00000

- Timing analysis has been suppressed with timopt=0

 Suggested references for the acknowledgment of ABINIT usage.

 Calculation completed.
.Delivered   2 WARNINGs and   5 COMMENTs to log file.