.Version 9.5.2 of ABINIT

 ABINIT is a project of the Universite Catholique de Louvain,
 Corning Inc. and other collaborators, see ~abinit/doc/developers/contributors.txt .
 acknowledgments of the ABINIT effort.

.Starting date : Mon 31 May 2021.
- ( at 21h58 )

- input  file    -> /scratch/users/j/a/jabreu/flow_simple_11atoms/flow/w318/t1/run.abi
- output file    -> /scratch/users/j/a/jabreu/flow_simple_11atoms/flow/w318/t1/run.abo
- root for input  files -> /scratch/users/j/a/jabreu/flow_simple_11atoms/flow/w318/t1/indata/in
- root for output files -> /scratch/users/j/a/jabreu/flow_simple_11atoms/flow/w318/t1/outdata/out

 Symmetries : space group Pa -3 (#205); Bravais cP (primitive cubic)
     intxc =       0      iscf =       7    lmnmax =      18     lnmax =       6
     mgfft =      72  mpssoang =       3    mqgrid =    3340     natom =      12
  nloc_mem =       1    nspden =       1   nspinor =       1    nsppol =       1
      nsym =      24    n1xccc =    2501    ntypat =       2    occopt =       1
   xclevel =       2
-    mband =         105        mffmem =           1         mkmem =           2
-   mkqmem =           2        mk1mem =           2           mpw =       19549
      nfft =      373248          nkpt =           2
  Rough estimation (10% accuracy) of disk space for files :

------------- Echo of variables that govern the present computation ------------
-
- outvars: echo of selected default values
-   iomode0 =  0 , fftalg0 =512 , wfoptalg0 =  0
-
- outvars: echo of global parameters not present in the input file
-  max_nthreads =    0
-
 -outvars: echo values of preprocessed input variables --------
            acell      1.0000000000E+00  1.0000000000E+00  1.0000000000E+00 Bohr
              amu      1.01070000E+02  7.89600000E+01
             ecut      4.40000000E+01 Hartree
-          fftalg         512
           irdden           1
           irdwfk           1
           istwfk        0    1
              ixc     -116133
              kpt      0.00000000E+00  4.06250000E-01  0.00000000E+00
                       0.00000000E+00  0.00000000E+00  0.00000000E+00
           kptopt           0
P           mkmem           2
P          mkqmem           2
P          mk1mem           2
            natom          12
            nband         105
           nbdbuf           4
            ngfft          72      72      72
             nkpt           2
            nstep        2000
             nsym          24
           ntypat           2
              occ      2.000000  2.000000  2.000000  2.000000  2.000000  2.000000
                       2.000000  2.000000  2.000000  2.000000  2.000000  2.000000
                       2.000000  2.000000  2.000000  2.000000  2.000000  2.000000
                       2.000000  2.000000  2.000000  2.000000  2.000000  2.000000
                       2.000000  2.000000  2.000000  2.000000  2.000000  2.000000
                       2.000000  2.000000  2.000000  2.000000  2.000000  2.000000
                       2.000000  2.000000  2.000000  2.000000  2.000000  2.000000
                       2.000000  2.000000  2.000000  2.000000  2.000000  2.000000
                       2.000000  2.000000  2.000000  2.000000  2.000000  2.000000
                       2.000000  2.000000  2.000000  2.000000  2.000000  2.000000
                       2.000000  2.000000  2.000000  2.000000  2.000000  2.000000
                       2.000000  2.000000  2.000000  2.000000  2.000000  2.000000
                       2.000000  2.000000  2.000000  2.000000  2.000000  2.000000
                       2.000000  2.000000  2.000000  2.000000  2.000000  2.000000
                       2.000000  2.000000  2.000000  2.000000  2.000000  2.000000
                       2.000000  2.000000  2.000000  2.000000  2.000000  2.000000
                       0.000000  0.000000  0.000000  0.000000  0.000000  0.000000
                       0.000000  0.000000  0.000000
        optdriver           1
            prtwf          -1
            rfdir           1       1       1
           rfelfd           2
            rprim      1.1182519557E+01  0.0000000000E+00  0.0000000000E+00
                       0.0000000000E+00  1.1182519557E+01  0.0000000000E+00
                       0.0000000000E+00  0.0000000000E+00  1.1182519557E+01
          spgroup         205
           symrel      1  0  0   0  1  0   0  0  1      -1  0  0   0 -1  0   0  0 -1
                      -1  0  0   0  1  0   0  0 -1       1  0  0   0 -1  0   0  0  1
                      -1  0  0   0 -1  0   0  0  1       1  0  0   0  1  0   0  0 -1
                       1  0  0   0 -1  0   0  0 -1      -1  0  0   0  1  0   0  0  1
                       0  0  1   1  0  0   0  1  0       0  0 -1  -1  0  0   0 -1  0
                       0  0 -1   1  0  0   0 -1  0       0  0  1  -1  0  0   0  1  0
                       0  0 -1  -1  0  0   0  1  0       0  0  1   1  0  0   0 -1  0
                       0  0  1  -1  0  0   0 -1  0       0  0 -1   1  0  0   0  1  0
                       0  1  0   0  0  1   1  0  0       0 -1  0   0  0 -1  -1  0  0
                       0 -1  0   0  0  1  -1  0  0       0  1  0   0  0 -1   1  0  0
                       0 -1  0   0  0 -1   1  0  0       0  1  0   0  0  1  -1  0  0
                       0  1  0   0  0 -1  -1  0  0       0 -1  0   0  0  1   1  0  0
            tnons      0.0000000  0.0000000  0.0000000     0.0000000 -0.0000000 -0.0000000
                       0.0000000  0.5000000  0.5000000     0.0000000  0.5000000  0.5000000
                       0.5000000 -0.0000000  0.5000000     0.5000000  0.0000000  0.5000000
                       0.5000000  0.5000000 -0.0000000     0.5000000  0.5000000  0.0000000
                       0.0000000  0.0000000  0.0000000    -0.0000000 -0.0000000  0.0000000
                       0.5000000  0.5000000  0.0000000     0.5000000  0.5000000  0.0000000
                      -0.0000000  0.5000000  0.5000000     0.0000000  0.5000000  0.5000000
                       0.5000000 -0.0000000  0.5000000     0.5000000  0.0000000  0.5000000
                       0.0000000  0.0000000  0.0000000    -0.0000000  0.0000000 -0.0000000
                       0.5000000  0.0000000  0.5000000     0.5000000  0.0000000  0.5000000
                       0.5000000  0.5000000 -0.0000000     0.5000000  0.5000000  0.0000000
                      -0.0000000  0.5000000  0.5000000     0.0000000  0.5000000  0.5000000
           tolwfr      1.00000000E-20
            typat      1  1  1  1  2  2  2  2  2  2  2  2
           useylm           1
              wtk        0.50000    0.50000
           xangst      0.0000000000E+00  2.9587672421E+00  2.9587672421E+00
                       2.9587672421E+00  2.9587672421E+00  0.0000000000E+00
                       2.9587672421E+00  0.0000000000E+00  2.9587672421E+00
                       0.0000000000E+00  0.0000000000E+00  0.0000000000E+00
                       2.2413253612E+00  7.1744188086E-01  5.2000926033E+00
                       7.1744188086E-01  5.2000926033E+00  2.2413253612E+00
                       5.2000926033E+00  2.2413253612E+00  7.1744188086E-01
                       3.6762091229E+00  3.6762091229E+00  3.6762091229E+00
                       2.2413253612E+00  2.2413253612E+00  2.2413253612E+00
                       7.1744188086E-01  3.6762091229E+00  5.2000926033E+00
                       5.2000926033E+00  7.1744188086E-01  3.6762091229E+00
                       3.6762091229E+00  5.2000926033E+00  7.1744188086E-01
            xcart      0.0000000000E+00  5.5912597784E+00  5.5912597784E+00
                       5.5912597784E+00  5.5912597784E+00  0.0000000000E+00
                       5.5912597784E+00  0.0000000000E+00  5.5912597784E+00
                       0.0000000000E+00  0.0000000000E+00  0.0000000000E+00
                       4.2354911074E+00  1.3557686711E+00  9.8267508858E+00
                       1.3557686711E+00  9.8267508858E+00  4.2354911074E+00
                       9.8267508858E+00  4.2354911074E+00  1.3557686711E+00
                       6.9470284495E+00  6.9470284495E+00  6.9470284495E+00
                       4.2354911074E+00  4.2354911074E+00  4.2354911074E+00
                       1.3557686711E+00  6.9470284495E+00  9.8267508858E+00
                       9.8267508858E+00  1.3557686711E+00  6.9470284495E+00
                       6.9470284495E+00  9.8267508858E+00  1.3557686711E+00
             xred      0.0000000000E+00  5.0000000000E-01  5.0000000000E-01
                       5.0000000000E-01  5.0000000000E-01  0.0000000000E+00
                       5.0000000000E-01  0.0000000000E+00  5.0000000000E-01
                       0.0000000000E+00  0.0000000000E+00  0.0000000000E+00
                       3.7876000000E-01  1.2124000000E-01  8.7876000000E-01
                       1.2124000000E-01  8.7876000000E-01  3.7876000000E-01
                       8.7876000000E-01  3.7876000000E-01  1.2124000000E-01
                       6.2124000000E-01  6.2124000000E-01  6.2124000000E-01
                       3.7876000000E-01  3.7876000000E-01  3.7876000000E-01
                       1.2124000000E-01  6.2124000000E-01  8.7876000000E-01
                       8.7876000000E-01  1.2124000000E-01  6.2124000000E-01
                       6.2124000000E-01  8.7876000000E-01  1.2124000000E-01
            znucl       44.00000   34.00000

 chkinp: Checking input parameters for consistency.

== DATASET  1 ==================================================================
-   mpi_nproc: 1, omp_nthreads: -1 (-1 if OMP is not activated)

--- !DatasetInfo
iteration_state: {dtset: 1, }
dimensions: {natom: 12, nkpt: 2, mband: 105, nsppol: 1, nspinor: 1, nspden: 1, mpw: 19549, }
cutoff_energies: {ecut:  44.0, pawecutdg:  -1.0, }
electrons: {nelect:   1.92000000E+02, charge:   0.00000000E+00, occopt:   1.00000000E+00, tsmear:   1.00000000E-02, }
meta: {optdriver: 1, rfelfd: 2, }
...

 Real(R)+Recip(G) space primitive vectors, cartesian coordinates (Bohr,Bohr^-1):
 R(1)= 11.1825196  0.0000000  0.0000000  G(1)=  0.0894253  0.0000000  0.0000000
 R(2)=  0.0000000 11.1825196  0.0000000  G(2)=  0.0000000  0.0894253  0.0000000
 R(3)=  0.0000000  0.0000000 11.1825196  G(3)=  0.0000000  0.0000000  0.0894253
 Unit cell volume ucvol=  1.3983600E+03 bohr^3
 Angles (23,13,12)=  9.00000000E+01  9.00000000E+01  9.00000000E+01 degrees

 getcut: wavevector=  0.0000  0.0000  0.0000  ngfft=  72  72  72
         ecut(hartree)=     44.000   => boxcut(ratio)=   2.15626

--- Pseudopotential description ------------------------------------------------
- pspini: atom type   1  psp file is /scratch/users/j/a/jabreu/pseudos/PBEsol/Ru.psp8
- pspatm: opening atomic psp file    /scratch/users/j/a/jabreu/pseudos/PBEsol/Ru.psp8
- Ru    ONCVPSP-3.3.0  r_core=   1.35650   1.40592   1.30881
- 44.00000  16.00000    180112                znucl, zion, pspdat
    8 -116133    2    4       600   0.00000   pspcod,pspxc,lmax,lloc,mmax,r2well
    5.99000000000000    7.00000000000000    0.00000000000000   rchrg,fchrg,qchrg
     nproj     2     2     2
     extension_switch     1
  pspatm : epsatm=   20.24388641
         --- l  ekb(1:nproj) -->
[...]
 ETOT 28  -122.60949262786     -1.421E-14 6.694E-13 0.000E+00
 ETOT 29  -122.60949262786      4.263E-14 3.660E-13 0.000E+00
 ETOT 30  -122.60949262786     -4.263E-14 1.209E-13 0.000E+00
 ETOT 31  -122.60949262786      0.000E+00 6.648E-14 0.000E+00
 ETOT 32  -122.60949262786      0.000E+00 2.188E-14 0.000E+00
 ETOT 33  -122.60949262786      0.000E+00 1.210E-14 0.000E+00
 ETOT 34  -122.60949262786      1.421E-14 3.966E-15 0.000E+00
 ETOT 35  -122.60949262786     -2.842E-14 2.205E-15 0.000E+00
 ETOT 36  -122.60949262786      5.684E-14 7.205E-16 0.000E+00
 ETOT 37  -122.60949262786     -2.842E-14 4.024E-16 0.000E+00
 ETOT 38  -122.60949262786      2.842E-14 1.311E-16 0.000E+00
 ETOT 39  -122.60949262786     -1.421E-14 7.353E-17 0.000E+00
 ETOT 40  -122.60949262786     -1.421E-14 2.388E-17 0.000E+00
 ETOT 41  -122.60949262786      1.421E-14 1.345E-17 0.000E+00
 ETOT 42  -122.60949262786      1.421E-14 4.358E-18 0.000E+00
 ETOT 43  -122.60949262786     -2.842E-14 2.463E-18 0.000E+00
 ETOT 44  -122.60949262786      0.000E+00 7.961E-19 0.000E+00
 ETOT 45  -122.60949262786      0.000E+00 4.514E-19 0.000E+00
 ETOT 46  -122.60949262786      4.263E-14 1.456E-19 0.000E+00
 ETOT 47  -122.60949262786     -1.421E-14 8.279E-20 0.000E+00
 ETOT 48  -122.60949262786      0.000E+00 2.664E-20 0.000E+00
 ETOT 49  -122.60949262786     -1.421E-14 1.519E-20 0.000E+00
 ETOT 50  -122.60949262786      4.263E-14 9.806E-21 0.000E+00

 At SCF step   50   max residual=  9.81E-21 < tolwfr=  1.00E-20 =>converged.

 ----iterations are completed or convergence reached----

 dfpt_looppert: DFPT cycle converged with prtwf=-1. Will skip output of the 1st-order WFK file.
 dfpt_looppert : ek2=    1.2123042518E+02
          f-sum rule ratio=    9.7213421000E-01
 prteigrs : about to open file /scratch/users/j/a/jabreu/flow_simple_11atoms/flow/w318/t1/tmpdata/tmp_1WF1_EIG
 Expectation of eigenvalue derivatives (hartree) for nkpt=   2  k points:
  (in case of degenerate eigenvalues, averaged derivative)
 kpt#   1, nband=105, wtk=  0.50000, kpt=  0.0000  0.4063  0.0000 (reduced coord)
  -0.00000    0.00000    0.00000    0.00000    0.00000   -0.00000    0.00000   -0.00000
  -0.00000   -0.00000    0.00000    0.00000   -0.00000    0.00000    0.00000    0.00000
  -0.00000   -0.00000    0.00000    0.00000   -0.00000   -0.00000    0.00000    0.00000
   0.00000    0.00000   -0.00000    0.00000   -0.00000    0.00000    0.00000   -0.00000
  -0.00000   -0.00000    0.00000   -0.00000    0.00000   -0.00000    0.00000    0.00000
  -0.00000   -0.00000   -0.00000   -0.00000    0.00000   -0.00000   -0.00000    0.00000
   0.00000    0.00000   -0.00000   -0.00000    0.00000    0.00000   -0.00000   -0.00000
  -0.00000    0.00000    0.00000    0.00000   -0.00000   -0.00000   -0.00000   -0.00000
   0.00000   -0.00000    0.00000    0.00000   -0.00000   -0.00000    0.00000    0.00000
   0.00000   -0.00000    0.00000   -0.00000   -0.00000    0.00000    0.00000    0.00000
   0.00000    0.00000    0.00000    0.00000   -0.00000    0.00000    0.00000    0.00000
   0.00000   -0.00000   -0.00000    0.00000    0.00000    0.00000    0.00000   -0.00000
  -0.00000   -0.00000    0.00000   -0.00000   -0.00000   -0.00000    0.00000    0.00000
  -0.00002
 prteigrs : prtvol=0 or 1, do not print more k-points.

 Eight components of 2nd-order total energy (hartree) are
 1,2,3: 0th-order hamiltonian combined with 1st-order wavefunctions
     kin0=   1.58938449E+02 eigvalue=   9.25869782E+00  local=  -6.86747282E+01
 4,5,6: 1st-order hamiltonian combined with 1st and 0th-order wfs
     kin1=  -1.17852244E+02  Hartree=   0.00000000E+00     xc=   0.00000000E+00
 7,8,9: eventually, occupation + non-local contributions
    edocc=   9.60504037E+00     enl0=   1.34820339E+01   enl1=  -1.27366742E+02
 1-9 gives the relaxation energy (to be shifted if some occ is /=2.0)
   erelax=  -1.22609493E+02
  No Ewald or frozen-wf contrib.: the relaxation energy is the total one
 2DEtotal=   -0.1226094926E+03 Ha. Also 2DEtotal=   -0.333637396878E+04 eV
    (  non-var. 2DEtotal :   -1.2260949263E+02 Ha)

 CALCULATION OF EFFECTIVE MASSES
 NOTE : Additional infos (eff. mass eigenvalues, eigenvectors and, if degenerate, average mass) are available in stdout.

 K-point ( 0.000, 0.406, 0.000) | band =    96
 Effective mass tensor:
             -1.7116792402             -0.0006827691             -0.0000013689
             -0.0006827691             -0.8170130436              0.0000139328
             -0.0000013689              0.0000139328             -0.8385452471
 Effective mass tensor eigenvalues:
             -1.7116797612             -0.8385452561             -0.8170125136
 Angular average effective mass 1/(<1/m>)=  -0.9997552694
 Angular average effective mass for Frohlich model (<m**0.5>)**2=  -1.0304408506
 Effective masses along directions: (cart. coord. / red. coord. -> eff. mass)
    1:   1.000000  0.000000  0.000000 /   1.000000  0.000000  0.000000 ->  -1.7116786696
    2:   0.000000  1.000000  0.000000 /   0.000000  1.000000  0.000000 ->  -0.8170127711
    3:   0.000000  0.000000  1.000000 /   0.000000  0.000000  1.000000 ->  -0.8385452469
    4:   0.577350  0.577350  0.577350 /   0.577350  0.577350  0.577350 ->  -1.0000677821
    5:   0.000000  0.707107  0.707107 /   0.000000  0.707107  0.707107 ->  -0.8276250506
    6:   0.707107  0.000000  0.707107 /   0.707107  0.000000  0.707107 ->  -1.1256435619
    7:   0.707107  0.707107  0.000000 /   0.707107  0.707107  0.000000 ->  -1.1066743165

 K-point ( 0.000, 0.000, 0.000) | band =    97
 Effective mass tensor:
              0.2816609636              0.0000001266              0.0000001654
              0.0000001266              0.2816600288             -0.0000001389
              0.0000001654             -0.0000001389              0.2816596019
 Effective mass tensor eigenvalues:
              0.2816595340              0.2816600644              0.2816609960
 Angular average effective mass 1/(<1/m>)=   0.2816601981
 Angular average effective mass for Frohlich model (<m**0.5>)**2=   0.2816601981
 Effective masses along directions: (cart. coord. / red. coord. -> eff. mass)
    1:   1.000000  0.000000  0.000000 /   1.000000  0.000000  0.000000 ->   0.2816609636
    2:   0.000000  1.000000  0.000000 /   0.000000  1.000000  0.000000 ->   0.2816600288
    3:   0.000000  0.000000  1.000000 /   0.000000  0.000000  1.000000 ->   0.2816596019
    4:   0.577350  0.577350  0.577350 /   0.577350  0.577350  0.577350 ->   0.2816603002
    5:   0.000000  0.707107  0.707107 /   0.000000  0.707107  0.707107 ->   0.2816596765
    6:   0.707107  0.000000  0.707107 /   0.707107  0.000000  0.707107 ->   0.2816604482
    7:   0.707107  0.707107  0.000000 /   0.707107  0.707107  0.000000 ->   0.2816606228

 END OF EFFECTIVE MASSES SECTION

 ---- first-order wavefunction calculations are completed ----

 Total localisation tensor (bohr^2) in cartesian coordinates
  WARNING : still subject to testing - especially symmetries.
      direction              matrix element
   alpha     beta       real part   imaginary part
     1        1       1.0099347042    0.0000000000
     1        2       0.0000000000    0.0000000000
     1        3       0.0000000000    0.0000000000
     2        1       0.0000000000    0.0000000000
     2        2       1.0558033734    0.0000000000
     2        3       0.0000000000    0.0000000000
     3        1       0.0000000000    0.0000000000
     3        2       0.0000000000    0.0000000000
     3        3       0.9981739199    0.0000000000

 respfn : d/dk was computed, but no 2DTE, so no DDB output.

== END DATASET(S) ==============================================================

 -outvars: echo values of variables after computation  --------
            acell      1.0000000000E+00  1.0000000000E+00  1.0000000000E+00 Bohr
              amu      1.01070000E+02  7.89600000E+01
             ecut      4.40000000E+01 Hartree
           etotal     -1.2260949263E+02
            fcart      0.0000000000E+00  0.0000000000E+00  0.0000000000E+00
                       0.0000000000E+00  0.0000000000E+00  0.0000000000E+00
                       0.0000000000E+00  0.0000000000E+00  0.0000000000E+00
                       0.0000000000E+00  0.0000000000E+00  0.0000000000E+00
                       0.0000000000E+00  0.0000000000E+00  0.0000000000E+00
                       0.0000000000E+00  0.0000000000E+00  0.0000000000E+00
                       0.0000000000E+00  0.0000000000E+00  0.0000000000E+00
                       0.0000000000E+00  0.0000000000E+00  0.0000000000E+00
                       0.0000000000E+00  0.0000000000E+00  0.0000000000E+00
                       0.0000000000E+00  0.0000000000E+00  0.0000000000E+00
                       0.0000000000E+00  0.0000000000E+00  0.0000000000E+00
                       0.0000000000E+00  0.0000000000E+00  0.0000000000E+00
-          fftalg         512
           irdden           1
           irdwfk           1
           istwfk        0    1
              ixc     -116133
              kpt      0.00000000E+00  4.06250000E-01  0.00000000E+00
                       0.00000000E+00  0.00000000E+00  0.00000000E+00
           kptopt           0
P           mkmem           2
P          mkqmem           2
P          mk1mem           2
            natom          12
            nband         105
           nbdbuf           4
            ngfft          72      72      72
             nkpt           2
            nstep        2000
             nsym          24
           ntypat           2
              occ      2.000000  2.000000  2.000000  2.000000  2.000000  2.000000
                       2.000000  2.000000  2.000000  2.000000  2.000000  2.000000
                       2.000000  2.000000  2.000000  2.000000  2.000000  2.000000
                       2.000000  2.000000  2.000000  2.000000  2.000000  2.000000
                       2.000000  2.000000  2.000000  2.000000  2.000000  2.000000
                       2.000000  2.000000  2.000000  2.000000  2.000000  2.000000
                       2.000000  2.000000  2.000000  2.000000  2.000000  2.000000
                       2.000000  2.000000  2.000000  2.000000  2.000000  2.000000
                       2.000000  2.000000  2.000000  2.000000  2.000000  2.000000
                       2.000000  2.000000  2.000000  2.000000  2.000000  2.000000
                       2.000000  2.000000  2.000000  2.000000  2.000000  2.000000
                       2.000000  2.000000  2.000000  2.000000  2.000000  2.000000
                       2.000000  2.000000  2.000000  2.000000  2.000000  2.000000
                       2.000000  2.000000  2.000000  2.000000  2.000000  2.000000
                       2.000000  2.000000  2.000000  2.000000  2.000000  2.000000
                       2.000000  2.000000  2.000000  2.000000  2.000000  2.000000
                       0.000000  0.000000  0.000000  0.000000  0.000000  0.000000
                       0.000000  0.000000  0.000000
        optdriver           1
            prtwf          -1
            rfdir           1       1       1
           rfelfd           2
            rprim      1.1182519557E+01  0.0000000000E+00  0.0000000000E+00
                       0.0000000000E+00  1.1182519557E+01  0.0000000000E+00
                       0.0000000000E+00  0.0000000000E+00  1.1182519557E+01
          spgroup         205
           strten      0.0000000000E+00  0.0000000000E+00  0.0000000000E+00
                       0.0000000000E+00  0.0000000000E+00  0.0000000000E+00
           symrel      1  0  0   0  1  0   0  0  1      -1  0  0   0 -1  0   0  0 -1
                      -1  0  0   0  1  0   0  0 -1       1  0  0   0 -1  0   0  0  1
                      -1  0  0   0 -1  0   0  0  1       1  0  0   0  1  0   0  0 -1
                       1  0  0   0 -1  0   0  0 -1      -1  0  0   0  1  0   0  0  1
                       0  0  1   1  0  0   0  1  0       0  0 -1  -1  0  0   0 -1  0
                       0  0 -1   1  0  0   0 -1  0       0  0  1  -1  0  0   0  1  0
                       0  0 -1  -1  0  0   0  1  0       0  0  1   1  0  0   0 -1  0
                       0  0  1  -1  0  0   0 -1  0       0  0 -1   1  0  0   0  1  0
                       0  1  0   0  0  1   1  0  0       0 -1  0   0  0 -1  -1  0  0
                       0 -1  0   0  0  1  -1  0  0       0  1  0   0  0 -1   1  0  0
                       0 -1  0   0  0 -1   1  0  0       0  1  0   0  0  1  -1  0  0
                       0  1  0   0  0 -1  -1  0  0       0 -1  0   0  0  1   1  0  0
            tnons      0.0000000  0.0000000  0.0000000     0.0000000 -0.0000000 -0.0000000
                       0.0000000  0.5000000  0.5000000     0.0000000  0.5000000  0.5000000
                       0.5000000 -0.0000000  0.5000000     0.5000000  0.0000000  0.5000000
                       0.5000000  0.5000000 -0.0000000     0.5000000  0.5000000  0.0000000
                       0.0000000  0.0000000  0.0000000    -0.0000000 -0.0000000  0.0000000
                       0.5000000  0.5000000  0.0000000     0.5000000  0.5000000  0.0000000
                      -0.0000000  0.5000000  0.5000000     0.0000000  0.5000000  0.5000000
                       0.5000000 -0.0000000  0.5000000     0.5000000  0.0000000  0.5000000
                       0.0000000  0.0000000  0.0000000    -0.0000000  0.0000000 -0.0000000
                       0.5000000  0.0000000  0.5000000     0.5000000  0.0000000  0.5000000
                       0.5000000  0.5000000 -0.0000000     0.5000000  0.5000000  0.0000000
                      -0.0000000  0.5000000  0.5000000     0.0000000  0.5000000  0.5000000
           tolwfr      1.00000000E-20
            typat      1  1  1  1  2  2  2  2  2  2  2  2
           useylm           1
              wtk        0.50000    0.50000
           xangst      0.0000000000E+00  2.9587672421E+00  2.9587672421E+00
                       2.9587672421E+00  2.9587672421E+00  0.0000000000E+00
                       2.9587672421E+00  0.0000000000E+00  2.9587672421E+00
                       0.0000000000E+00  0.0000000000E+00  0.0000000000E+00
                       2.2413253612E+00  7.1744188086E-01  5.2000926033E+00
                       7.1744188086E-01  5.2000926033E+00  2.2413253612E+00
                       5.2000926033E+00  2.2413253612E+00  7.1744188086E-01
                       3.6762091229E+00  3.6762091229E+00  3.6762091229E+00
                       2.2413253612E+00  2.2413253612E+00  2.2413253612E+00
                       7.1744188086E-01  3.6762091229E+00  5.2000926033E+00
                       5.2000926033E+00  7.1744188086E-01  3.6762091229E+00
                       3.6762091229E+00  5.2000926033E+00  7.1744188086E-01
            xcart      0.0000000000E+00  5.5912597784E+00  5.5912597784E+00
                       5.5912597784E+00  5.5912597784E+00  0.0000000000E+00
                       5.5912597784E+00  0.0000000000E+00  5.5912597784E+00
                       0.0000000000E+00  0.0000000000E+00  0.0000000000E+00
                       4.2354911074E+00  1.3557686711E+00  9.8267508858E+00
                       1.3557686711E+00  9.8267508858E+00  4.2354911074E+00
                       9.8267508858E+00  4.2354911074E+00  1.3557686711E+00
                       6.9470284495E+00  6.9470284495E+00  6.9470284495E+00
                       4.2354911074E+00  4.2354911074E+00  4.2354911074E+00
                       1.3557686711E+00  6.9470284495E+00  9.8267508858E+00
                       9.8267508858E+00  1.3557686711E+00  6.9470284495E+00
                       6.9470284495E+00  9.8267508858E+00  1.3557686711E+00
             xred      0.0000000000E+00  5.0000000000E-01  5.0000000000E-01
                       5.0000000000E-01  5.0000000000E-01  0.0000000000E+00
                       5.0000000000E-01  0.0000000000E+00  5.0000000000E-01
                       0.0000000000E+00  0.0000000000E+00  0.0000000000E+00
                       3.7876000000E-01  1.2124000000E-01  8.7876000000E-01
                       1.2124000000E-01  8.7876000000E-01  3.7876000000E-01
                       8.7876000000E-01  3.7876000000E-01  1.2124000000E-01
                       6.2124000000E-01  6.2124000000E-01  6.2124000000E-01
                       3.7876000000E-01  3.7876000000E-01  3.7876000000E-01
                       1.2124000000E-01  6.2124000000E-01  8.7876000000E-01
                       8.7876000000E-01  1.2124000000E-01  6.2124000000E-01
                       6.2124000000E-01  8.7876000000E-01  1.2124000000E-01
            znucl       44.00000   34.00000

- Timing analysis has been suppressed with timopt=0

 Suggested references for the acknowledgment of ABINIT usage.

 Calculation completed.
.Delivered   2 WARNINGs and   5 COMMENTs to log file.