.Version 9.5.1 of ABINIT

 ABINIT is a project of the Universite Catholique de Louvain,
 Corning Inc. and other collaborators, see ~abinit/doc/developers/contributors.txt .
 acknowledgments of the ABINIT effort.

.Starting date : Sun 25 Apr 2021.
- ( at 17h18 )

- input  file    -> /scratch/users/j/a/jabreu/flow_simple2/flow/w185/t1/run.abi
- output file    -> /scratch/users/j/a/jabreu/flow_simple2/flow/w185/t1/run.abo
- root for input  files -> /scratch/users/j/a/jabreu/flow_simple2/flow/w185/t1/indata/in
- root for output files -> /scratch/users/j/a/jabreu/flow_simple2/flow/w185/t1/outdata/out

 Symmetries : space group Fm -3 m (#225); Bravais cF (face-center cubic)
     intxc =       0      iscf =       7    lmnmax =      18     lnmax =       6
     mgfft =      45  mpssoang =       3    mqgrid =    3001     natom =       2
  nloc_mem =       1    nspden =       1   nspinor =       1    nsppol =       1
      nsym =      48    n1xccc =    2501    ntypat =       2    occopt =       1
   xclevel =       2
-    mband =          17        mffmem =           1         mkmem =           2
-   mkqmem =           2        mk1mem =           2           mpw =        3138
      nfft =       91125          nkpt =           2
  Rough estimation (10% accuracy) of disk space for files :

------------- Echo of variables that govern the present computation ------------
-
- outvars: echo of selected default values
-   iomode0 =  0 , fftalg0 =512 , wfoptalg0 =  0
-
- outvars: echo of global parameters not present in the input file
-  max_nthreads =    0
-
 -outvars: echo values of preprocessed input variables --------
            acell      1.0000000000E+00  1.0000000000E+00  1.0000000000E+00 Bohr
              amu      4.00780000E+01  3.20660000E+01
             ecut      3.60000000E+01 Hartree
-          fftalg         512
           irdden           1
           irdwfk           1
           istwfk        1    1
              ixc     -116133
              kpt      0.00000000E+00  0.00000000E+00  0.00000000E+00
                       5.00000000E-01  0.00000000E+00  5.00000000E-01
           kptopt           0
P           mkmem           2
P          mkqmem           2
P          mk1mem           2
            natom           2
            nband          17
           nbdbuf           4
            ngfft          45      45      45
             nkpt           2
            nstep         100
             nsym          48
           ntypat           2
              occ      2.000000  2.000000  2.000000  2.000000  2.000000  2.000000
                       2.000000  2.000000  0.000000  0.000000  0.000000  0.000000
                       0.000000  0.000000  0.000000  0.000000  0.000000
        optdriver           1
            prtwf          -1
            rfdir           1       1       1
           rfelfd           2
            rprim      6.5165494286E+00  0.0000000000E+00  3.7623315668E+00
                       2.1721831429E+00  6.1438617212E+00  3.7623315668E+00
                       0.0000000000E+00  0.0000000000E+00  7.5246631336E+00
          spgroup         225
           symrel      1  0  0   0  1  0   0  0  1      -1  0  0   0 -1  0   0  0 -1
                       0 -1  1   0 -1  0   1 -1  0       0  1 -1   0  1  0  -1  1  0
                      -1  0  0  -1  0  1  -1  1  0       1  0  0   1  0 -1   1 -1  0
                       0  1 -1   1  0 -1   0  0 -1       0 -1  1  -1  0  1   0  0  1
                      -1  0  0  -1  1  0  -1  0  1       1  0  0   1 -1  0   1  0 -1
                       0 -1  1   1 -1  0   0 -1  0       0  1 -1  -1  1  0   0  1  0
                       1  0  0   0  0  1   0  1  0      -1  0  0   0  0 -1   0 -1  0
                       0  1 -1   0  0 -1   1  0 -1       0 -1  1   0  0  1  -1  0  1
                      -1  0  1  -1  1  0  -1  0  0       1  0 -1   1 -1  0   1  0  0
                       0 -1  0   1 -1  0   0 -1  1       0  1  0  -1  1  0   0  1 -1
                       1  0 -1   0  0 -1   0  1 -1      -1  0  1   0  0  1   0 -1  1
                       0  1  0   0  0  1   1  0  0       0 -1  0   0  0 -1  -1  0  0
                       1  0 -1   0  1 -1   0  0 -1      -1  0  1   0 -1  1   0  0  1
                       0 -1  0   0 -1  1   1 -1  0       0  1  0   0  1 -1  -1  1  0
                      -1  0  1  -1  0  0  -1  1  0       1  0 -1   1  0  0   1 -1  0
                       0  1  0   1  0  0   0  0  1       0 -1  0  -1  0  0   0  0 -1
                       0  0 -1   0  1 -1   1  0 -1       0  0  1   0 -1  1  -1  0  1
                       1 -1  0   0 -1  1   0 -1  0      -1  1  0   0  1 -1   0  1  0
                       0  0  1   1  0  0   0  1  0       0  0 -1  -1  0  0   0 -1  0
                      -1  1  0  -1  0  0  -1  0  1       1 -1  0   1  0  0   1  0 -1
                       0  0  1   0  1  0   1  0  0       0  0 -1   0 -1  0  -1  0  0
                       1 -1  0   0 -1  0   0 -1  1      -1  1  0   0  1  0   0  1 -1
                       0  0 -1   1  0 -1   0  1 -1       0  0  1  -1  0  1   0 -1  1
                      -1  1  0  -1  0  1  -1  0  0       1 -1  0   1  0 -1   1  0  0
           tolwfr      1.00000000E-20
            typat      1  2
           useylm           1
              wtk        0.50000    0.50000
           xangst      0.0000000000E+00  0.0000000000E+00  0.0000000000E+00
                       2.2989396242E+00  1.6255957978E+00  3.9818802326E+00
            xcart      0.0000000000E+00  0.0000000000E+00  0.0000000000E+00
                       4.3443662858E+00  3.0719308606E+00  7.5246631336E+00
             xred      0.0000000000E+00  0.0000000000E+00  0.0000000000E+00
                       5.0000000000E-01  5.0000000000E-01  5.0000000000E-01
            znucl       20.00000   16.00000

 chkinp: Checking input parameters for consistency.

== DATASET  1 ==================================================================
-   mpi_nproc: 1, omp_nthreads: -1 (-1 if OMP is not activated)

--- !DatasetInfo
iteration_state: {dtset: 1, }
dimensions: {natom: 2, nkpt: 2, mband: 17, nsppol: 1, nspinor: 1, nspden: 1, mpw: 3138, }
cutoff_energies: {ecut:  36.0, pawecutdg:  -1.0, }
electrons: {nelect:   1.60000000E+01, charge:   0.00000000E+00, occopt:   1.00000000E+00, tsmear:   1.00000000E-02, }
meta: {optdriver: 1, rfelfd: 2, }
...

 Real(R)+Recip(G) space primitive vectors, cartesian coordinates (Bohr,Bohr^-1):
 R(1)=  6.5165494  0.0000000  3.7623316  G(1)=  0.1534554 -0.0542547  0.0000000
 R(2)=  2.1721831  6.1438617  3.7623316  G(2)=  0.0000000  0.1627641  0.0000000
 R(3)=  0.0000000  0.0000000  7.5246631  G(3)= -0.0767277 -0.0542547  0.1328963
 Unit cell volume ucvol=  3.0126327E+02 bohr^3
 Angles (23,13,12)=  6.00000000E+01  6.00000000E+01  6.00000000E+01 degrees

 getcut: wavevector=  0.0000  0.0000  0.0000  ngfft=  45  45  45
         ecut(hartree)=     36.000   => boxcut(ratio)=   2.16496

--- Pseudopotential description ------------------------------------------------
- pspini: atom type   1  psp file is /scratch/users/j/a/jabreu/pseudos/PBEsol/Ca.psp8
- pspatm: opening atomic psp file    /scratch/users/j/a/jabreu/pseudos/PBEsol/Ca.psp8
- Ca    ONCVPSP-3.3.0  r_core=   1.45885   1.45885   1.85192
- 20.00000  10.00000    180112                znucl, zion, pspdat
    8 -116133    2    4       400   0.00000   pspcod,pspxc,lmax,lloc,mmax,r2well
    3.99000000000000    6.00000000000000    0.00000000000000   rchrg,fchrg,qchrg
     nproj     2     2     2
     extension_switch     1
  pspatm : epsatm=   12.46045226
         --- l  ekb(1:nproj) -->
             0   10.054847    0.973777
             1    2.998958    0.458102
             2   -3.447298   -1.091650
 pspatm: atomic psp has been read  and splines computed

- pspini: atom type   2  psp file is /scratch/users/j/a/jabreu/pseudos/PBEsol/S.psp8
- pspatm: opening atomic psp file    /scratch/users/j/a/jabreu/pseudos/PBEsol/S.psp8
- S     ONCVPSP-3.3.0  r_core=   1.45376   1.45376   1.61851
- 16.00000   6.00000    180112                znucl, zion, pspdat
    8 -116133    2    4       600   0.00000   pspcod,pspxc,lmax,lloc,mmax,r2well
    5.99000000000000    6.00000000000000    0.00000000000000   rchrg,fchrg,qchrg
     nproj     2     2     2
     extension_switch     1
  pspatm : epsatm=    8.71840985
         --- l  ekb(1:nproj) -->
             0    6.834532    0.579453
             1    3.282851    0.896984
             2   -3.496974   -0.974265
 pspatm: atomic psp has been read  and splines computed

   3.38861794E+02                                ecore*ucvol(ha*bohr**3)

-inwffil : will read wavefunctions from disk file /scratch/users/j/a/jabreu/flow_simple2/flow/w185/t1/indata/in_WFK

 ==>  initialize data related to q vector <==

 The list of irreducible perturbations for this q vector is:
    1)    idir= 1    ipert=   3
    2)    idir= 2    ipert=   3
    3)    idir= 3    ipert=   3

 Perturbation wavevector (in red.coord.)   0.000000  0.000000  0.000000
 Perturbation : derivative vs k along direction   1

 dfpt_looppert : COMMENT -
  In a d/dk calculation, iscf is set to -3 automatically.
 The set of symmetries contains only one element for this perturbation.
 symkpt : not enough symmetry to change the number of k points.

[...]

 Initialisation of the first-order wave-functions :
  ireadwf=   0

--- !BeginCycle
iteration_state: {dtset: 1, }
solver: {iscf: 7, nstep: 100, nline: 4, wfoptalg: 0, }
tolerances: {tolwfr: 1.00E-20, }
...

     iter   2DEtotal(Ha)        deltaE(Ha) residm    vres2
-ETOT  1  -23.383624282479     -2.338E+01 1.811E-02 0.000E+00
 ETOT  2  -23.388648131897     -5.024E-03 1.817E-04 0.000E+00
 ETOT  3  -23.388665109385     -1.698E-05 1.524E-06 0.000E+00
 ETOT  4  -23.388665193839     -8.445E-08 2.267E-08 0.000E+00
 ETOT  5  -23.388665194307     -4.676E-10 4.403E-10 0.000E+00
 ETOT  6  -23.388665194309     -2.750E-12 6.500E-12 0.000E+00
 ETOT  7  -23.388665194309     -1.776E-14 1.752E-13 0.000E+00
 ETOT  8  -23.388665194309      5.329E-14 2.516E-15 0.000E+00
 ETOT  9  -23.388665194309     -1.066E-14 6.823E-17 0.000E+00
 ETOT 10  -23.388665194309     -1.066E-14 1.019E-18 0.000E+00
 ETOT 11  -23.388665194309     -3.553E-15 2.622E-20 0.000E+00
 ETOT 12  -23.388665194309      3.553E-15 7.483E-21 0.000E+00

 At SCF step   12   max residual=  7.48E-21 < tolwfr=  1.00E-20 =>converged.

 ----iterations are completed or convergence reached----

 dfpt_looppert: DFPT cycle converged with prtwf=-1. Will skip output of the 1st-order WFK file.
 dfpt_looppert : ek2=    3.3467775719E+01
          f-sum rule ratio=    1.5452978978E+00
 prteigrs : about to open file /scratch/users/j/a/jabreu/flow_simple2/flow/w185/t1/tmpdata/tmp_1WF1_EIG
 Expectation of eigenvalue derivatives (hartree) for nkpt=   2  k points:
  (in case of degenerate eigenvalues, averaged derivative)
 kpt#   1, nband= 17, wtk=  0.50000, kpt=  0.0000  0.0000  0.0000 (reduced coord)
  -0.00000    0.00000    0.00000    0.00000   -0.00000   -0.00000   -0.00000   -0.00000
  -0.00000   -0.00000   -0.00000   -0.00000    0.00000    0.00000    0.00000   -0.00000
  -0.00000
 prteigrs : prtvol=0 or 1, do not print more k-points.

 Eight components of 2nd-order total energy (hartree) are
 1,2,3: 0th-order hamiltonian combined with 1st-order wavefunctions
     kin0=   7.66816468E+00 eigvalue=   1.38196521E-01  local=  -4.04466720E+00
 4,5,6: 1st-order hamiltonian combined with 1st and 0th-order wfs
     kin1=  -5.17176835E+01  Hartree=   0.00000000E+00     xc=   0.00000000E+00
 7,8,9: eventually, occupation + non-local contributions
    edocc=   1.94653988E+01     enl0=   1.61572366E-01   enl1=   4.94035307E+00
 1-9 gives the relaxation energy (to be shifted if some occ is /=2.0)
   erelax=  -2.33886652E+01
  No Ewald or frozen-wf contrib.: the relaxation energy is the total one
 2DEtotal=   -0.2338866519E+02 Ha. Also 2DEtotal=   -0.636437946575E+03 eV
    (  non-var. 2DEtotal :   -2.3388665194E+01 Ha)

 Perturbation wavevector (in red.coord.)   0.000000  0.000000  0.000000
 Perturbation : derivative vs k along direction   2
 The set of symmetries contains only one element for this perturbation.
 symkpt : not enough symmetry to change the number of k points.

[...]

 Perturbation wavevector (in red.coord.)   0.000000  0.000000  0.000000
 Perturbation : derivative vs k along direction   3
 The set of symmetries contains only one element for this perturbation.
 symkpt : not enough symmetry to change the number of k points.

-inwffil : will read wavefunctions from disk file /scratch/users/j/a/jabreu/flow_simple2/flow/w185/t1/indata/in_WFK

 Initialisation of the first-order wave-functions :
  ireadwf=   0

--- !BeginCycle
iteration_state: {dtset: 1, }
solver: {iscf: 7, nstep: 100, nline: 4, wfoptalg: 0, }
tolerances: {tolwfr: 1.00E-20, }
...

     iter   2DEtotal(Ha)        deltaE(Ha) residm    vres2
-ETOT  1  -23.384197812328     -2.338E+01 1.812E-02 0.000E+00
 ETOT  2  -23.388700650647     -4.503E-03 1.845E-04 0.000E+00
 ETOT  3  -23.388715458072     -1.481E-05 1.560E-06 0.000E+00
 ETOT  4  -23.388715528408     -7.034E-08 2.326E-08 0.000E+00
 ETOT  5  -23.388715528780     -3.726E-10 4.269E-10 0.000E+00
 ETOT  6  -23.388715528782     -2.068E-12 6.280E-12 0.000E+00
 ETOT  7  -23.388715528782     -2.842E-14 1.529E-13 0.000E+00
 ETOT  8  -23.388715528782     -2.842E-14 2.274E-15 0.000E+00
 ETOT  9  -23.388715528782      5.329E-14 5.800E-17 0.000E+00
 ETOT 10  -23.388715528782     -2.487E-14 1.037E-18 0.000E+00
 ETOT 11  -23.388715528782      3.553E-15 2.314E-20 0.000E+00
 ETOT 12  -23.388715528782     -7.105E-15 9.584E-21 0.000E+00

 At SCF step   12   max residual=  9.58E-21 < tolwfr=  1.00E-20 =>converged.

 ----iterations are completed or convergence reached----

 dfpt_looppert: DFPT cycle converged with prtwf=-1. Will skip output of the 1st-order WFK file.
 dfpt_looppert : ek2=    3.3467775719E+01
          f-sum rule ratio=    1.5453019086E+00
 prteigrs : about to open file /scratch/users/j/a/jabreu/flow_simple2/flow/w185/t1/tmpdata/tmp_1WF1_EIG
 Expectation of eigenvalue derivatives (hartree) for nkpt=   2  k points:
  (in case of degenerate eigenvalues, averaged derivative)
 kpt#   1, nband= 17, wtk=  0.50000, kpt=  0.0000  0.0000  0.0000 (reduced coord)
   0.00000    0.00000    0.00000    0.00000   -0.00000    0.00000    0.00000    0.00000
  -0.00000   -0.00000   -0.00000    0.00000    0.00000    0.00000    0.00000    0.00000
   0.00000
 prteigrs : prtvol=0 or 1, do not print more k-points.

 Eight components of 2nd-order total energy (hartree) are
 1,2,3: 0th-order hamiltonian combined with 1st-order wavefunctions
     kin0=   7.12024016E+00 eigvalue=   1.65269301E-01  local=  -3.73363837E+00
 4,5,6: 1st-order hamiltonian combined with 1st and 0th-order wfs
     kin1=  -5.17178177E+01  Hartree=   0.00000000E+00     xc=   0.00000000E+00
 7,8,9: eventually, occupation + non-local contributions
    edocc=   1.96240434E+01     enl0=   2.12800997E-01   enl1=   4.94038664E+00
 1-9 gives the relaxation energy (to be shifted if some occ is /=2.0)
   erelax=  -2.33887155E+01
  No Ewald or frozen-wf contrib.: the relaxation energy is the total one
 2DEtotal=   -0.2338871553E+02 Ha. Also 2DEtotal=   -0.636439316246E+03 eV
    (  non-var. 2DEtotal :   -2.3388715529E+01 Ha)

 CALCULATION OF EFFECTIVE MASSES
 NOTE : Additional infos (eff. mass eigenvalues, eigenvectors and, if degenerate, average mass) are available in stdout.

 COMMENTS:
 - At k-point ( 0.000, 0.000, 0.000), bands     6 through     8
   are DEGENERATE (effective mass tensor is therefore not defined).
   See Section IIIB Eqs. (67)-(70) and Appendix E of PRB 93 205147 (2016).
 - Angular average effective mass for Frohlich model is to be averaged over degenerate bands. See later.
 - Associated theta integrals calculated with ntheta=   1000 points.

 K-point ( 0.000, 0.000, 0.000) | band =     6
 Transport equivalent effective mass tensor:
             -0.2431109099             -0.0000000051             -0.0000000018
             -0.0000000051             -0.2431109458             -0.0000000010
             -0.0000000018             -0.0000000010             -0.2431109248
 Transport equivalent effective mass tensor eigenvalues:
             -0.2431109466             -0.2431109249             -0.2431109091
 Angular average effective mass 1/(<1/m>)=  -0.2373590823
 Angular average effective mass for Frohlich model (<m**0.5>)**2=  -0.2377569768
 Effective masses along directions: (cart. coord. / red. coord. -> eff. mass)
    1:   1.000000  0.000000  0.000000 /   0.948683  0.316228  0.000000 ->  -0.2433539842
    2:   0.000000  1.000000  0.000000 /   0.000000  1.000000  0.000000 ->  -0.2566528935
    3:   0.000000  0.000000  1.000000 /   0.408248  0.408248  0.816497 ->  -0.2448338917
    4:   0.577350  0.577350  0.577350 /   0.585539  0.688047  0.428644 ->  -0.2440158401
    5:   0.000000  0.707107  0.707107 /   0.289489  0.762222  0.578977 ->  -0.2301256950
    6:   0.707107  0.000000  0.707107 /   0.731423  0.422287  0.535439 ->  -0.2440854035
    7:   0.707107  0.707107  0.000000 /   0.616798  0.787122  0.000000 ->  -0.2176582683

[...]

 K-point ( 0.000, 0.000, 0.000) | band =     8
 Transport equivalent effective mass tensor:
             -1.1737606579              0.0000004475              0.0000000201
              0.0000004475             -1.1737611917              0.0000000104
              0.0000000201              0.0000000104             -1.1737614768
 Transport equivalent effective mass tensor eigenvalues:
             -1.1737614773             -1.1737614458             -1.1737604033
 Angular average effective mass 1/(<1/m>)=  -1.0297535086
 Angular average effective mass for Frohlich model (<m**0.5>)**2=  -1.0359411960
 Effective masses along directions: (cart. coord. / red. coord. -> eff. mass)
    1:   1.000000  0.000000  0.000000 /   0.948683  0.316228  0.000000 ->  -0.9323783590
    2:   0.000000  1.000000  0.000000 /   0.000000  1.000000  0.000000 ->  -0.7932642881
    3:   0.000000  0.000000  1.000000 /   0.408248  0.408248  0.816497 ->  -1.1306631555
    4:   0.577350  0.577350  0.577350 /   0.585539  0.688047  0.428644 ->  -0.9769246720
    5:   0.000000  0.707107  0.707107 /   0.289489  0.762222  0.578977 ->  -1.1139462692
    6:   0.707107  0.000000  0.707107 /   0.731423  0.422287  0.535439 ->  -1.0492118532
    7:   0.707107  0.707107  0.000000 /   0.616798  0.787122  0.000000 ->  -1.1104053351

 Angular average effective mass for Frohlich model, averaged over degenerate bands.
 Value of     (<<m**0.5>>)**2 =     6.461457E-01
 Absolute Value of <<m**0.5>> =     8.038319E-01

 K-point ( 0.500, 0.000, 0.500) | band =     9
 Effective mass tensor:
              0.4752876238             -0.2593047416              0.3175816370
             -0.2593047416              0.6586428499             -0.4491293895
              0.3175816370             -0.4491293895              0.8419991319
 Effective mass tensor eigenvalues:
              0.2919301736              0.2919317634              1.3920676686
 Angular average effective mass 1/(<1/m>)=   0.3963383318
 Angular average effective mass for Frohlich model (<m**0.5>)**2=   0.4430123652
 Effective masses along directions: (cart. coord. / red. coord. -> eff. mass)
    1:   1.000000  0.000000  0.000000 /   0.948683  0.316228  0.000000 ->   0.3362163813
    2:   0.000000  1.000000  0.000000 /   0.000000  1.000000  0.000000 ->   0.3963374511
    3:   0.000000  0.000000  1.000000 /   0.408248  0.408248  0.816497 ->   0.4826457381
    4:   0.577350  0.577350  0.577350 /   0.585539  0.688047  0.428644 ->   0.3160273010
    5:   0.000000  0.707107  0.707107 /   0.289489  0.762222  0.578977 ->   0.2938854591
    6:   0.707107  0.000000  0.707107 /   0.731423  0.422287  0.535439 ->   0.5741770752
    7:   0.707107  0.707107  0.000000 /   0.616798  0.787122  0.000000 ->   0.2952673270

 END OF EFFECTIVE MASSES SECTION

 ---- first-order wavefunction calculations are completed ----

 Total localisation tensor (bohr^2) in cartesian coordinates
  WARNING : still subject to testing - especially symmetries.
      direction              matrix element
   alpha     beta       real part   imaginary part
     1        1       3.3349497761    0.0000000000
     1        2       0.9432659587    0.0000000000
     1        3       2.3105208661    0.0000000000
     2        1       0.9432659587    0.0000000000
     2        2       2.6679590234    0.0000000000
     2        3       1.6337845655    0.0000000000
     3        1       2.3105208661    0.0000000000
     3        2       1.6337845655    0.0000000000
     3        3       6.0029150119    0.0000000000

 respfn : d/dk was computed, but no 2DTE, so no DDB output.

== END DATASET(S) ==============================================================

 -outvars: echo values of variables after computation  --------
            acell      1.0000000000E+00  1.0000000000E+00  1.0000000000E+00 Bohr
              amu      4.00780000E+01  3.20660000E+01
             ecut      3.60000000E+01 Hartree
           etotal     -2.3388715529E+01
            fcart      0.0000000000E+00  0.0000000000E+00  0.0000000000E+00
                       0.0000000000E+00  0.0000000000E+00  0.0000000000E+00
-          fftalg         512
           irdden           1
           irdwfk           1
           istwfk        1    1
              ixc     -116133
              kpt      0.00000000E+00  0.00000000E+00  0.00000000E+00
                       5.00000000E-01  0.00000000E+00  5.00000000E-01
           kptopt           0
P           mkmem           2
P          mkqmem           2
P          mk1mem           2
            natom           2
            nband          17
           nbdbuf           4
            ngfft          45      45      45
             nkpt           2
            nstep         100
             nsym          48
           ntypat           2
              occ      2.000000  2.000000  2.000000  2.000000  2.000000  2.000000
                       2.000000  2.000000  0.000000  0.000000  0.000000  0.000000
                       0.000000  0.000000  0.000000  0.000000  0.000000
        optdriver           1
            prtwf          -1
            rfdir           1       1       1
           rfelfd           2
            rprim      6.5165494286E+00  0.0000000000E+00  3.7623315668E+00
                       2.1721831429E+00  6.1438617212E+00  3.7623315668E+00
                       0.0000000000E+00  0.0000000000E+00  7.5246631336E+00
          spgroup         225
           strten      0.0000000000E+00  0.0000000000E+00  0.0000000000E+00
                       0.0000000000E+00  0.0000000000E+00  0.0000000000E+00
           symrel      1  0  0   0  1  0   0  0  1      -1  0  0   0 -1  0   0  0 -1
                       0 -1  1   0 -1  0   1 -1  0       0  1 -1   0  1  0  -1  1  0
                      -1  0  0  -1  0  1  -1  1  0       1  0  0   1  0 -1   1 -1  0
                       0  1 -1   1  0 -1   0  0 -1       0 -1  1  -1  0  1   0  0  1
                      -1  0  0  -1  1  0  -1  0  1       1  0  0   1 -1  0   1  0 -1
                       0 -1  1   1 -1  0   0 -1  0       0  1 -1  -1  1  0   0  1  0
                       1  0  0   0  0  1   0  1  0      -1  0  0   0  0 -1   0 -1  0
                       0  1 -1   0  0 -1   1  0 -1       0 -1  1   0  0  1  -1  0  1
                      -1  0  1  -1  1  0  -1  0  0       1  0 -1   1 -1  0   1  0  0
                       0 -1  0   1 -1  0   0 -1  1       0  1  0  -1  1  0   0  1 -1
                       1  0 -1   0  0 -1   0  1 -1      -1  0  1   0  0  1   0 -1  1
                       0  1  0   0  0  1   1  0  0       0 -1  0   0  0 -1  -1  0  0
                       1  0 -1   0  1 -1   0  0 -1      -1  0  1   0 -1  1   0  0  1
                       0 -1  0   0 -1  1   1 -1  0       0  1  0   0  1 -1  -1  1  0
                      -1  0  1  -1  0  0  -1  1  0       1  0 -1   1  0  0   1 -1  0
                       0  1  0   1  0  0   0  0  1       0 -1  0  -1  0  0   0  0 -1
                       0  0 -1   0  1 -1   1  0 -1       0  0  1   0 -1  1  -1  0  1
                       1 -1  0   0 -1  1   0 -1  0      -1  1  0   0  1 -1   0  1  0
                       0  0  1   1  0  0   0  1  0       0  0 -1  -1  0  0   0 -1  0
                      -1  1  0  -1  0  0  -1  0  1       1 -1  0   1  0  0   1  0 -1
                       0  0  1   0  1  0   1  0  0       0  0 -1   0 -1  0  -1  0  0
                       1 -1  0   0 -1  0   0 -1  1      -1  1  0   0  1  0   0  1 -1
                       0  0 -1   1  0 -1   0  1 -1       0  0  1  -1  0  1   0 -1  1
                      -1  1  0  -1  0  1  -1  0  0       1 -1  0   1  0 -1   1  0  0
           tolwfr      1.00000000E-20
            typat      1  2
           useylm           1
              wtk        0.50000    0.50000
           xangst      0.0000000000E+00  0.0000000000E+00  0.0000000000E+00
                       2.2989396242E+00  1.6255957978E+00  3.9818802326E+00
            xcart      0.0000000000E+00  0.0000000000E+00  0.0000000000E+00
                       4.3443662858E+00  3.0719308606E+00  7.5246631336E+00
             xred      0.0000000000E+00  0.0000000000E+00  0.0000000000E+00
                       5.0000000000E-01  5.0000000000E-01  5.0000000000E-01
            znucl       20.00000   16.00000

- Timing analysis has been suppressed with timopt=0

 Suggested references for the acknowledgment of ABINIT usage.

 Calculation completed.
.Delivered  14 WARNINGs and   9 COMMENTs to log file.