.Version 9.5.1 of ABINIT

 ABINIT is a project of the Universite Catholique de Louvain,
 Corning Inc. and other collaborators, see ~abinit/doc/developers/contributors.txt .
 acknowledgments of the ABINIT effort.

.Starting date : Tue 27 Apr 2021.
- ( at 18h44 )

- input  file    -> /scratch/users/j/a/jabreu/flow_simple_4atoms/flow/w245/t1/run.abi
- output file    -> /scratch/users/j/a/jabreu/flow_simple_4atoms/flow/w245/t1/run.abo
- root for input  files -> /scratch/users/j/a/jabreu/flow_simple_4atoms/flow/w245/t1/indata/in
- root for output files -> /scratch/users/j/a/jabreu/flow_simple_4atoms/flow/w245/t1/outdata/out

 Symmetries : space group R-3 m (#166); Bravais hR (rhombohedral)
     intxc =       0      iscf =       7    lmnmax =      18     lnmax =       6
     mgfft =      72  mpssoang =       3    mqgrid =    3001     natom =       4
  nloc_mem =       1    nspden =       1   nspinor =       1    nsppol =       1
      nsym =      12    n1xccc =    2501    ntypat =       3    occopt =       1
   xclevel =       2
-    mband =          33        mffmem =           1         mkmem =           2
-   mkqmem =           2        mk1mem =           2           mpw =        4645
      nfft =      373248          nkpt =           2
  Rough estimation (10% accuracy) of disk space for files :

------------- Echo of variables that govern the present computation ------------
-
- outvars: echo of selected default values
-   iomode0 =  0 , fftalg0 =512 , wfoptalg0 =  0
-
- outvars: echo of global parameters not present in the input file
-  max_nthreads =    0
-
 -outvars: echo values of preprocessed input variables --------
            acell      1.0000000000E+00  1.0000000000E+00  1.0000000000E+00 Bohr
              amu      6.35460000E+01  1.02905500E+02  1.59994000E+01
             ecut      4.60000000E+01 Hartree
-          fftalg         512
           irdden           1
           irdwfk           1
              ixc     -116133
              kpt      6.34659673E-01  3.65340327E-01  0.00000000E+00
                       6.07168598E-01  6.07168598E-01  2.85662804E-01
           kptopt           0
P           mkmem           2
P          mkqmem           2
P          mk1mem           2
            natom           4
            nband          33
           nbdbuf           4
            ngfft          72      72      72
             nkpt           2
            nstep         100
             nsym          12
           ntypat           3
              occ      2.000000  2.000000  2.000000  2.000000  2.000000  2.000000
                       2.000000  2.000000  2.000000  2.000000  2.000000  2.000000
                       2.000000  2.000000  2.000000  2.000000  2.000000  2.000000
                       2.000000  2.000000  2.000000  2.000000  2.000000  2.000000
                       0.000000  0.000000  0.000000  0.000000  0.000000  0.000000
                       0.000000  0.000000  0.000000
        optdriver           1
            prtwf          -1
            rfdir           1       1       1
           rfelfd           2
            rprim      5.6044246892E+00  0.0000000000E+00  9.6602515319E+00
                       2.5993288864E+00  4.9651853376E+00  9.6602515319E+00
                       0.0000000000E+00  0.0000000000E+00  1.1168260194E+01
          spgroup         166
           symrel      1  0  0   0  1  0   0  0  1      -1  0  0   0 -1  0   0  0 -1
                       0  1  0   1  0  0   0  0  1       0 -1  0  -1  0  0   0  0 -1
                       0  0  1   1  0  0   0  1  0       0  0 -1  -1  0  0   0 -1  0
                       1  0  0   0  0  1   0  1  0      -1  0  0   0  0 -1   0 -1  0
                       0  1  0   0  0  1   1  0  0       0 -1  0   0  0 -1  -1  0  0
                       0  0  1   0  1  0   1  0  0       0  0 -1   0 -1  0  -1  0  0
           tolwfr      1.00000000E-20
            typat      1  2  3  3
           useylm           1
              wtk        0.50000    0.50000
           xangst      0.0000000000E+00  0.0000000000E+00  0.0000000000E+00
                       2.1706197085E+00  1.3137314585E+00  8.0669793170E+00
                       3.8739397238E+00  2.3446375538E+00  1.4397267059E+01
                       4.6729969334E-01  2.8282536332E-01  1.7366915753E+00
            xcart      0.0000000000E+00  0.0000000000E+00  0.0000000000E+00
                       4.1018767878E+00  2.4825926688E+00  1.5244381629E+01
                       7.3206851332E+00  4.4307228575E+00  2.7206891803E+01
                       8.8306844238E-01  5.3446248011E-01  3.2818714546E+00
             xred      0.0000000000E+00  0.0000000000E+00  0.0000000000E+00
                       5.0000000000E-01  5.0000000000E-01  5.0000000000E-01
                       8.9235800000E-01  8.9235800000E-01  8.9235800000E-01
                       1.0764200000E-01  1.0764200000E-01  1.0764200000E-01
            znucl       29.00000   45.00000    8.00000

 chkinp: Checking input parameters for consistency.

== DATASET  1 ==================================================================
-   mpi_nproc: 1, omp_nthreads: -1 (-1 if OMP is not activated)

--- !DatasetInfo
iteration_state: {dtset: 1, }
dimensions: {natom: 4, nkpt: 2, mband: 33, nsppol: 1, nspinor: 1, nspden: 1, mpw: 4645, }
cutoff_energies: {ecut:  46.0, pawecutdg:  -1.0, }
electrons: {nelect:   4.80000000E+01, charge:   0.00000000E+00, occopt:   1.00000000E+00, tsmear:   1.00000000E-02, }
meta: {optdriver: 1, rfelfd: 2, }
...

 Real(R)+Recip(G) space primitive vectors, cartesian coordinates (Bohr,Bohr^-1):
 R(1)=  5.6044247  0.0000000  9.6602515  G(1)=  0.1784304 -0.0934103  0.0000000
 R(2)=  2.5993289  4.9651853  9.6602515  G(2)=  0.0000000  0.2014024  0.0000000
 R(3)=  0.0000000  0.0000000 11.1682602  G(3)= -0.1543376 -0.0934103  0.0895395
 Unit cell volume ucvol=  3.1077926E+02 bohr^3
 Angles (23,13,12)=  3.01202958E+01  3.01202958E+01  3.01202958E+01 degrees

 getcut: wavevector=  0.0000  0.0000  0.0000  ngfft=  72  72  72
         ecut(hartree)=     46.000   => boxcut(ratio)=   2.11164

--- Pseudopotential description ------------------------------------------------
- pspini: atom type   1  psp file is /scratch/users/j/a/jabreu/pseudos/PBEsol/Cu.psp8
- pspatm: opening atomic psp file    /scratch/users/j/a/jabreu/pseudos/PBEsol/Cu.psp8
- Cu    ONCVPSP-3.3.0  r_core=   1.26204   1.45626   1.76249
- 29.00000  19.00000    180112                znucl, zion, pspdat
    8 -116133    2    4       600   0.00000   pspcod,pspxc,lmax,lloc,mmax,r2well
    5.99000000000000    3.50000000000000    0.00000000000000   rchrg,fchrg,qchrg
     nproj     2     2     2
     extension_switch     1
  pspatm : epsatm=   21.63488701
         --- l  ekb(1:nproj) -->
             0    5.008230   -0.401634
             1   -3.496700   -0.765945
             2   -6.895851   -2.521180
 pspatm: atomic psp has been read  and splines computed

- pspini: atom type   2  psp file is /scratch/users/j/a/jabreu/pseudos/PBEsol/Rh.psp8
- pspatm: opening atomic psp file    /scratch/users/j/a/jabreu/pseudos/PBEsol/Rh.psp8
- Rh    ONCVPSP-3.3.0  r_core=   1.40787   1.40787   1.35838
- 45.00000  17.00000    180112                znucl, zion, pspdat
    8 -116133    2    4       600   0.00000   pspcod,pspxc,lmax,lloc,mmax,r2well
    5.99000000000000    7.00000000000000    0.00000000000000   rchrg,fchrg,qchrg
     nproj     2     2     2
     extension_switch     1
  pspatm : epsatm=   21.51201928
         --- l  ekb(1:nproj) -->
             0   16.263264    1.496972
             1    7.329212    1.051636
             2    0.393200    0.129871
 pspatm: atomic psp has been read  and splines computed

- pspini: atom type   3  psp file is /scratch/users/j/a/jabreu/pseudos/PBEsol/O.psp8
- pspatm: opening atomic psp file    /scratch/users/j/a/jabreu/pseudos/PBEsol/O.psp8
- O     ONCVPSP-3.3.0  r_core=   1.35509   1.45563   1.26150
-  8.00000   6.00000    180112                znucl, zion, pspdat
    8 -116133    2    4       600   0.00000   pspcod,pspxc,lmax,lloc,mmax,r2well
    5.99000000000000    4.00000000000000    0.00000000000000   rchrg,fchrg,qchrg
     nproj     2     2     1
     extension_switch     1
  pspatm : epsatm=    6.22910522
         --- l  ekb(1:nproj) -->
             0    6.050032    0.820363
             1   -4.739617   -1.153841
             2   -1.335834
 pspatm: atomic psp has been read  and splines computed

   2.66904560E+03                                ecore*ucvol(ha*bohr**3)

-inwffil : will read wavefunctions from disk file /scratch/users/j/a/jabreu/flow_simple_4atoms/flow/w245/t1/indata/in_WFK

 ==>  initialize data related to q vector <==

 The list of irreducible perturbations for this q vector is:
    1)    idir= 1    ipert=   5
    2)    idir= 2    ipert=   5
    3)    idir= 3    ipert=   5

 Perturbation wavevector (in red.coord.)   0.000000  0.000000  0.000000
 Perturbation : derivative vs k along direction   1

 dfpt_looppert : COMMENT -
  In a d/dk calculation, iscf is set to -3 automatically.
 The set of symmetries contains only one element for this perturbation.
 symkpt : not enough symmetry to change the number of k points.

[...]

 Initialisation of the first-order wave-functions :
  ireadwf=   0

--- !BeginCycle
iteration_state: {dtset: 1, }
solver: {iscf: 7, nstep: 100, nline: 4, wfoptalg: 0, }
tolerances: {tolwfr: 1.00E-20, }
...

     iter   2DEtotal(Ha)        deltaE(Ha) residm    vres2
-ETOT  1  -81.802496537742     -8.180E+01 9.526E-02 0.000E+00
 ETOT  2  -81.895446810076     -9.295E-02 1.402E-03 0.000E+00
 ETOT  3  -81.896103536799     -6.567E-04 1.279E-05 0.000E+00
 ETOT  4  -81.896111580120     -8.043E-06 2.687E-07 0.000E+00
 ETOT  5  -81.896111699898     -1.198E-07 3.234E-09 0.000E+00
 ETOT  6  -81.896111701862     -1.964E-09 1.019E-10 0.000E+00
 ETOT  7  -81.896111701897     -3.477E-11 1.137E-12 0.000E+00
 ETOT  8  -81.896111701897     -6.395E-13 4.200E-14 0.000E+00
 ETOT  9  -81.896111701897     -4.263E-14 5.260E-16 0.000E+00
 ETOT 10  -81.896111701897      0.000E+00 1.875E-17 0.000E+00
 ETOT 11  -81.896111701897      0.000E+00 2.518E-19 0.000E+00
 ETOT 12  -81.896111701897     -1.421E-14 9.313E-21 0.000E+00

 At SCF step   12   max residual=  9.31E-21 < tolwfr=  1.00E-20 =>converged.

 ----iterations are completed or convergence reached----

 dfpt_looppert: DFPT cycle converged with prtwf=-1. Will skip output of the 1st-order WFK file.
 dfpt_looppert : ek2=    1.5373050056E+02
          f-sum rule ratio=    9.9772867118E-01
 prteigrs : about to open file /scratch/users/j/a/jabreu/flow_simple_4atoms/flow/w245/t1/tmpdata/tmp_1WF1_EIG
 Expectation of eigenvalue derivatives (hartree) for nkpt=   2  k points:
  (in case of degenerate eigenvalues, averaged derivative)
 kpt#   1, nband= 33, wtk=  0.50000, kpt=  0.6347  0.3653  0.0000 (reduced coord)
   0.00001    0.00021    0.00001    0.00038   -0.00052    0.00941   -0.01257    0.00043
   0.03456   -0.02550    0.15280   -0.01553    0.02609   -0.22704    0.02619   -0.04945
   0.11096    0.05415   -0.03922    0.00663    0.01493   -0.09395    0.06784    0.00141
   0.00124   -0.06924    0.34335   -0.26163   -0.28511    0.34369    0.00014   -0.10539
  -0.14618
 prteigrs : prtvol=0 or 1, do not print more k-points.

 Eight components of 2nd-order total energy (hartree) are
 1,2,3: 0th-order hamiltonian combined with 1st-order wavefunctions
     kin0=   1.10929759E+02 eigvalue=  -4.14442232E+00  local=  -4.27370043E+01
 4,5,6: 1st-order hamiltonian combined with 1st and 0th-order wfs
     kin1=  -1.53381328E+02  Hartree=   0.00000000E+00     xc=   0.00000000E+00
 7,8,9: eventually, occupation + non-local contributions
    edocc=   1.93039679E+01     enl0=  -1.45618891E+00   enl1=  -1.04108954E+01
 1-9 gives the relaxation energy (to be shifted if some occ is /=2.0)
   erelax=  -8.18961117E+01
  No Ewald or frozen-wf contrib.: the relaxation energy is the total one
 2DEtotal=   -0.8189611170E+02 Ha. Also 2DEtotal=   -0.222850653216E+04 eV
    (  non-var. 2DEtotal :   -8.1896111702E+01 Ha)

 Perturbation wavevector (in red.coord.)   0.000000  0.000000  0.000000
 Perturbation : derivative vs k along direction   2
 The set of symmetries contains only one element for this perturbation.
 symkpt : not enough symmetry to change the number of k points.

[...]

 Perturbation wavevector (in red.coord.)   0.000000  0.000000  0.000000
 Perturbation : derivative vs k along direction   3
 The set of symmetries contains only one element for this perturbation.
 symkpt : not enough symmetry to change the number of k points.

-inwffil : will read wavefunctions from disk file /scratch/users/j/a/jabreu/flow_simple_4atoms/flow/w245/t1/indata/in_WFK

 Initialisation of the first-order wave-functions :
  ireadwf=   0

--- !BeginCycle
iteration_state: {dtset: 1, }
solver: {iscf: 7, nstep: 100, nline: 4, wfoptalg: 0, }
tolerances: {tolwfr: 1.00E-20, }
...

     iter   2DEtotal(Ha)        deltaE(Ha) residm    vres2
-ETOT  1  -83.302327440329     -8.330E+01 7.271E-02 0.000E+00
 ETOT  2  -83.366816128899     -6.449E-02 2.082E-03 0.000E+00
 ETOT  3  -83.367048914780     -2.328E-04 5.223E-06 0.000E+00
 ETOT  4  -83.367050860782     -1.946E-06 2.456E-07 0.000E+00
 ETOT  5  -83.367050884748     -2.397E-08 8.228E-10 0.000E+00
 ETOT  6  -83.367050885091     -3.434E-10 4.189E-11 0.000E+00
 ETOT  7  -83.367050885097     -5.471E-12 1.573E-13 0.000E+00
 ETOT  8  -83.367050885097     -7.105E-14 8.140E-15 0.000E+00
 ETOT  9  -83.367050885097      7.105E-14 4.760E-17 0.000E+00
 ETOT 10  -83.367050885097     -2.842E-14 1.742E-18 0.000E+00
 ETOT 11  -83.367050885097     -1.421E-14 1.498E-20 0.000E+00
 ETOT 12  -83.367050885097      2.842E-14 9.552E-21 0.000E+00

 At SCF step   12   max residual=  9.55E-21 < tolwfr=  1.00E-20 =>converged.

 ----iterations are completed or convergence reached----

 dfpt_looppert: DFPT cycle converged with prtwf=-1. Will skip output of the 1st-order WFK file.
 dfpt_looppert : ek2=    1.5373050056E+02
          f-sum rule ratio=    1.0179501119E+00
 prteigrs : about to open file /scratch/users/j/a/jabreu/flow_simple_4atoms/flow/w245/t1/tmpdata/tmp_1WF1_EIG
 Expectation of eigenvalue derivatives (hartree) for nkpt=   2  k points:
  (in case of degenerate eigenvalues, averaged derivative)
 kpt#   1, nband= 33, wtk=  0.50000, kpt=  0.6347  0.3653  0.0000 (reduced coord)
   0.00000   -0.00000    0.00000    0.00000   -0.00000    0.00000   -0.00000   -0.00000
   0.00000   -0.00000   -0.00000    0.00000   -0.00000    0.00000   -0.00000   -0.00000
  -0.00000    0.00000   -0.00000    0.00000    0.00000    0.00000   -0.00000    0.00000
   0.00000   -0.00000    0.00000   -0.00000    0.00000    0.00000   -0.00000    0.00000
  -0.00001
 prteigrs : prtvol=0 or 1, do not print more k-points.

 Eight components of 2nd-order total energy (hartree) are
 1,2,3: 0th-order hamiltonian combined with 1st-order wavefunctions
     kin0=   1.13965862E+02 eigvalue=  -4.69601503E+00  local=  -4.42466303E+01
 4,5,6: 1st-order hamiltonian combined with 1st and 0th-order wfs
     kin1=  -1.56489980E+02  Hartree=   0.00000000E+00     xc=   0.00000000E+00
 7,8,9: eventually, occupation + non-local contributions
    edocc=   1.96090742E+01     enl0=  -1.26523968E+00   enl1=  -1.02441215E+01
 1-9 gives the relaxation energy (to be shifted if some occ is /=2.0)
   erelax=  -8.33670509E+01
  No Ewald or frozen-wf contrib.: the relaxation energy is the total one
 2DEtotal=   -0.8336705089E+02 Ha. Also 2DEtotal=   -0.226853282291E+04 eV
    (  non-var. 2DEtotal :   -8.3367050885E+01 Ha)

 CALCULATION OF EFFECTIVE MASSES
 NOTE : Additional infos (eff. mass eigenvalues, eigenvectors and, if degenerate, average mass) are available in stdout.

 K-point ( 0.635, 0.365, 0.000) | band =    24
 Effective mass tensor:
             -1.3980347357              0.2711832991             -0.0852468043
              0.2711832991             -1.6819670361             -0.0515943583
             -0.0852468043             -0.0515943583             -5.6385461082
 Effective mass tensor eigenvalues:
             -5.6407991678             -1.8460968995             -1.2316518128
 Angular average effective mass 1/(<1/m>)=  -1.9596559162
 Angular average effective mass for Frohlich model (<m**0.5>)**2=  -2.1602507934
 Effective masses along directions: (cart. coord. / red. coord. -> eff. mass)
    1:   1.000000  0.000000  0.000000 /   0.907177  0.420748  0.000000 ->  -1.3527588439
    2:   0.000000  1.000000  0.000000 /   0.000000  1.000000  0.000000 ->  -1.6285403809
    3:   0.000000  0.000000  1.000000 /   0.547456  0.547456  0.632917 ->  -5.6304993003
    4:   0.577350  0.577350  0.577350 /   0.596699  0.673319  0.436569 ->  -1.7334900535
    5:   0.000000  0.707107  0.707107 /   0.464804  0.703704  0.537362 ->  -2.5746709511
    6:   0.707107  0.000000  0.707107 /   0.677235  0.543911  0.495493 ->  -2.2414138948
    7:   0.707107  0.707107  0.000000 /   0.595302  0.803502  0.000000 ->  -1.2559646271

 K-point ( 0.607, 0.607, 0.286) | band =    25
 Effective mass tensor:
              0.7650890118             -0.1701772946              0.1172850170
             -0.1701772946              0.9432684916              0.0709845742
              0.1172850170              0.0709845742              1.1448779587
 Effective mass tensor eigenvalues:
              0.6258789289              1.0462654336              1.1810910996
 Angular average effective mass 1/(<1/m>)=   0.8822989011
 Angular average effective mass for Frohlich model (<m**0.5>)**2=   0.9040466241
 Effective masses along directions: (cart. coord. / red. coord. -> eff. mass)
    1:   1.000000  0.000000  0.000000 /   0.907177  0.420748  0.000000 ->   0.7195354411
    2:   0.000000  1.000000  0.000000 /   0.000000  1.000000  0.000000 ->   0.8970544055
    3:   0.000000  0.000000  1.000000 /   0.547456  0.547456  0.632917 ->   1.1164912949
    4:   0.577350  0.577350  0.577350 /   0.596699  0.673319  0.436569 ->   0.8781730473
    5:   0.000000  0.707107  0.707107 /   0.464804  0.703704  0.537362 ->   1.0998862446
    6:   0.707107  0.000000  0.707107 /   0.677235  0.543911  0.495493 ->   1.0161941936
    7:   0.707107  0.707107  0.000000 /   0.595302  0.803502  0.000000 ->   0.6600891394

 END OF EFFECTIVE MASSES SECTION

 ---- first-order wavefunction calculations are completed ----

 Total localisation tensor (bohr^2) in cartesian coordinates
  WARNING : still subject to testing - especially symmetries.
      direction              matrix element
   alpha     beta       real part   imaginary part
     1        1       0.9460045376    0.0000000000
     1        2       0.3198987028    0.0000000000
     1        3       1.9643400019    0.0000000000
     2        1       0.3198987028    0.0000000000
     2        2       0.6110640161    0.0000000000
     2        3       1.1888845423    0.0000000000
     3        1       1.9643400019    0.0000000000
     3        2       1.1888845423    0.0000000000
     3        3       8.3252310222    0.0000000000

 respfn : d/dk was computed, but no 2DTE, so no DDB output.

== END DATASET(S) ==============================================================

 -outvars: echo values of variables after computation  --------
            acell      1.0000000000E+00  1.0000000000E+00  1.0000000000E+00 Bohr
              amu      6.35460000E+01  1.02905500E+02  1.59994000E+01
             ecut      4.60000000E+01 Hartree
           etotal     -8.3367050885E+01
            fcart      0.0000000000E+00  0.0000000000E+00  0.0000000000E+00
                       0.0000000000E+00  0.0000000000E+00  0.0000000000E+00
                       0.0000000000E+00  0.0000000000E+00  0.0000000000E+00
                       0.0000000000E+00  0.0000000000E+00  0.0000000000E+00
-          fftalg         512
           irdden           1
           irdwfk           1
              ixc     -116133
              kpt      6.34659673E-01  3.65340327E-01  0.00000000E+00
                       6.07168598E-01  6.07168598E-01  2.85662804E-01
           kptopt           0
P           mkmem           2
P          mkqmem           2
P          mk1mem           2
            natom           4
            nband          33
           nbdbuf           4
            ngfft          72      72      72
             nkpt           2
            nstep         100
             nsym          12
           ntypat           3
              occ      2.000000  2.000000  2.000000  2.000000  2.000000  2.000000
                       2.000000  2.000000  2.000000  2.000000  2.000000  2.000000
                       2.000000  2.000000  2.000000  2.000000  2.000000  2.000000
                       2.000000  2.000000  2.000000  2.000000  2.000000  2.000000
                       0.000000  0.000000  0.000000  0.000000  0.000000  0.000000
                       0.000000  0.000000  0.000000
        optdriver           1
            prtwf          -1
            rfdir           1       1       1
           rfelfd           2
            rprim      5.6044246892E+00  0.0000000000E+00  9.6602515319E+00
                       2.5993288864E+00  4.9651853376E+00  9.6602515319E+00
                       0.0000000000E+00  0.0000000000E+00  1.1168260194E+01
          spgroup         166
           strten      0.0000000000E+00  0.0000000000E+00  0.0000000000E+00
                       0.0000000000E+00  0.0000000000E+00  0.0000000000E+00
           symrel      1  0  0   0  1  0   0  0  1      -1  0  0   0 -1  0   0  0 -1
                       0  1  0   1  0  0   0  0  1       0 -1  0  -1  0  0   0  0 -1
                       0  0  1   1  0  0   0  1  0       0  0 -1  -1  0  0   0 -1  0
                       1  0  0   0  0  1   0  1  0      -1  0  0   0  0 -1   0 -1  0
                       0  1  0   0  0  1   1  0  0       0 -1  0   0  0 -1  -1  0  0
                       0  0  1   0  1  0   1  0  0       0  0 -1   0 -1  0  -1  0  0
           tolwfr      1.00000000E-20
            typat      1  2  3  3
           useylm           1
              wtk        0.50000    0.50000
           xangst      0.0000000000E+00  0.0000000000E+00  0.0000000000E+00
                       2.1706197085E+00  1.3137314585E+00  8.0669793170E+00
                       3.8739397238E+00  2.3446375538E+00  1.4397267059E+01
                       4.6729969334E-01  2.8282536332E-01  1.7366915753E+00
            xcart      0.0000000000E+00  0.0000000000E+00  0.0000000000E+00
                       4.1018767878E+00  2.4825926688E+00  1.5244381629E+01
                       7.3206851332E+00  4.4307228575E+00  2.7206891803E+01
                       8.8306844238E-01  5.3446248011E-01  3.2818714546E+00
             xred      0.0000000000E+00  0.0000000000E+00  0.0000000000E+00
                       5.0000000000E-01  5.0000000000E-01  5.0000000000E-01
                       8.9235800000E-01  8.9235800000E-01  8.9235800000E-01
                       1.0764200000E-01  1.0764200000E-01  1.0764200000E-01
            znucl       29.00000   45.00000    8.00000

- Timing analysis has been suppressed with timopt=0

 Suggested references for the acknowledgment of ABINIT usage.

 Calculation completed.
.Delivered  14 WARNINGs and   9 COMMENTs to log file.