.Version 9.5.2 of ABINIT

 ABINIT is a project of the Universite Catholique de Louvain,
 Corning Inc. and other collaborators, see ~abinit/doc/developers/contributors.txt .
 acknowledgments of the ABINIT effort.

.Starting date : Mon 31 May 2021.
- ( at 21h51 )

- input  file    -> /scratch/users/j/a/jabreu/flow_simple_11atoms/flow/w302/t1/run.abi
- output file    -> /scratch/users/j/a/jabreu/flow_simple_11atoms/flow/w302/t1/run.abo
- root for input  files -> /scratch/users/j/a/jabreu/flow_simple_11atoms/flow/w302/t1/indata/in
- root for output files -> /scratch/users/j/a/jabreu/flow_simple_11atoms/flow/w302/t1/outdata/out

 Symmetries : space group I-4 2 m (#121); Bravais tI (body-center tetrag.)
     intxc =       0      iscf =       7    lmnmax =      18     lnmax =       6
     mgfft =      72  mpssoang =       3    mqgrid =    3001     natom =      12
  nloc_mem =       1    nspden =       1   nspinor =       1    nsppol =       1
      nsym =       8    n1xccc =    2501    ntypat =       3    occopt =       1
   xclevel =       2
-    mband =          53        mffmem =           1         mkmem =           2
-   mkqmem =           2        mk1mem =           2           mpw =       16828
      nfft =      373248          nkpt =           2
  Rough estimation (10% accuracy) of disk space for files :

------------- Echo of variables that govern the present computation ------------
-
- outvars: echo of selected default values
-   iomode0 =  0 , fftalg0 =512 , wfoptalg0 =  0
-
- outvars: echo of global parameters not present in the input file
-  max_nthreads =    0
-
 -outvars: echo values of preprocessed input variables --------
            acell      1.0000000000E+00  1.0000000000E+00  1.0000000000E+00 Bohr
              amu      3.90983000E+01  9.29063800E+01  1.59994000E+01
             ecut      4.40000000E+01 Hartree
-          fftalg         512
           irdden           1
           irdwfk           1
           istwfk        1    0
              ixc     -116133
              kpt      0.00000000E+00  0.00000000E+00  5.00000000E-01
                       5.00000000E-01  5.00000000E-01 -5.00000000E-01
           kptopt           0
P           mkmem           2
P          mkqmem           2
P          mk1mem           2
            natom          12
            nband          53
           nbdbuf           4
            ngfft          72      72      72
             nkpt           2
            nstep        2000
             nsym           8
           ntypat           3
              occ      2.000000  2.000000  2.000000  2.000000  2.000000  2.000000
                       2.000000  2.000000  2.000000  2.000000  2.000000  2.000000
                       2.000000  2.000000  2.000000  2.000000  2.000000  2.000000
                       2.000000  2.000000  2.000000  2.000000  2.000000  2.000000
                       2.000000  2.000000  2.000000  2.000000  2.000000  2.000000
                       2.000000  2.000000  2.000000  2.000000  2.000000  2.000000
                       2.000000  2.000000  2.000000  2.000000  2.000000  2.000000
                       2.000000  2.000000  0.000000  0.000000  0.000000  0.000000
                       0.000000  0.000000  0.000000  0.000000  0.000000
        optdriver           1
            prtwf          -1
            rfdir           1       1       1
           rfelfd           2
            rprim      1.0714410369E+01  0.0000000000E+00 -4.6203806150E+00
                      -4.6359551329E+00  9.6595294695E+00 -4.6203806150E+00
                       0.0000000000E+00  0.0000000000E+00  1.1668183517E+01
          spgroup         121
           symrel      1  0  0   0  1  0   0  0  1      -1 -1 -1   0  0  1   0  1  0
                       0  1  0   1  0  0  -1 -1 -1       0  0  1  -1 -1 -1   1  0  0
                       0  1  0   1  0  0   0  0  1      -1 -1 -1   0  0  1   1  0  0
                       1  0  0   0  1  0  -1 -1 -1       0  0  1  -1 -1 -1   0  1  0
           tolwfr      1.00000000E-20
            typat      1  1  1  2  3  3  3  3  3  3  3  3
           useylm           1
              wtk        0.50000    0.50000
           xangst     -4.2247590453E-01  3.8337021307E+00  6.4226827503E-01
                       3.6390558792E+00  1.2779007102E+00  6.4226827503E-01
                       1.6082899873E+00  2.5558014205E+00 -2.4450001165E+00
                       0.0000000000E+00  0.0000000000E+00  0.0000000000E+00
                       7.5701164315E-01  1.2029991159E+00  1.4795841889E+00
                       3.8676984571E+00  9.7460758937E-01 -2.3357550663E+00
                      -7.9483849230E-01  3.9086037251E+00 -2.3357550663E+00
                       2.6032883413E+00  4.1369952516E+00 -4.1353773929E-01
                       1.5904460099E-01  2.5274448037E-01  4.1930212768E+00
                       3.7487571023E+00  3.4186208115E+00 -3.9593133836E+00
                       1.4600148962E+00  4.8588583606E+00 -3.9593133836E+00
                       1.0653433498E+00  1.6929820294E+00  1.2014180752E-01
            xcart     -7.9836375730E-01  7.2446471021E+00  1.2137111436E+00
                       6.8768189939E+00  2.4148823674E+00  1.2137111436E+00
                       3.0392276183E+00  4.8297647348E+00 -4.6203806150E+00
                       0.0000000000E+00  0.0000000000E+00  0.0000000000E+00
                       1.4305446850E+00  2.2733388672E+00  2.7960089077E+00
                       7.3088908485E+00  1.8417414309E+00 -4.4139373887E+00
                      -1.5020270703E+00  7.3861906023E+00 -4.4139373887E+00
                       4.9195020101E+00  7.8177880386E+00 -7.8147307287E-01
                       3.0055073879E-01  4.7761784950E-01  7.9236618825E+00
                       7.0841242621E+00  6.4602570860E+00 -7.4820179693E+00
                       2.7590283037E+00  9.1819116200E+00 -7.4820179693E+00
                       2.0132071686E+00  3.1992723835E+00  2.2703511333E-01
             xred      2.5000000000E-01  7.5000000000E-01  5.0000000000E-01
                       7.5000000000E-01  2.5000000000E-01  5.0000000000E-01
                       5.0000000000E-01  5.0000000000E-01  0.0000000000E+00
                       0.0000000000E+00  0.0000000000E+00  0.0000000000E+00
                       2.3534675000E-01  2.3534675000E-01  4.2601250000E-01
                       7.6465325000E-01  1.9066575000E-01  0.0000000000E+00
                       1.9066575000E-01  7.6465325000E-01  0.0000000000E+00
                       8.0933425000E-01  8.0933425000E-01  5.7398750000E-01
                       4.9445250000E-02  4.9445250000E-02  7.1824150000E-01
                       9.5055475000E-01  6.6879625000E-01  0.0000000000E+00
                       6.6879625000E-01  9.5055475000E-01  0.0000000000E+00
                       3.3120375000E-01  3.3120375000E-01  2.8175850000E-01
            znucl       19.00000   41.00000    8.00000

 chkinp: Checking input parameters for consistency.

== DATASET  1 ==================================================================
-   mpi_nproc: 1, omp_nthreads: -1 (-1 if OMP is not activated)

--- !DatasetInfo
iteration_state: {dtset: 1, }
dimensions: {natom: 12, nkpt: 2, mband: 53, nsppol: 1, nspinor: 1, nspden: 1, mpw: 16828, }
cutoff_energies: {ecut:  44.0, pawecutdg:  -1.0, }
electrons: {nelect:   8.80000000E+01, charge:   0.00000000E+00, occopt:   1.00000000E+00, tsmear:   1.00000000E-02, }
meta: {optdriver: 1, rfelfd: 2, }
...

 Real(R)+Recip(G) space primitive vectors, cartesian coordinates (Bohr,Bohr^-1):
 R(1)= 10.7144104  0.0000000 -4.6203806  G(1)=  0.0933322  0.0447935  0.0000000
 R(2)= -4.6359551  9.6595295 -4.6203806  G(2)=  0.0000000  0.1035247  0.0000000
 R(3)=  0.0000000  0.0000000 11.6681835  G(3)=  0.0369578  0.0587312  0.0857031
 Unit cell volume ucvol=  1.2076122E+03 bohr^3
 Angles (23,13,12)=  1.13327179E+02  1.13327179E+02  1.02007382E+02 degrees

 getcut: wavevector=  0.0000  0.0000  0.0000  ngfft=  72  72  72
         ecut(hartree)=     44.000   => boxcut(ratio)=   2.06673

--- Pseudopotential description ------------------------------------------------
- pspini: atom type   1  psp file is /scratch/users/j/a/jabreu/pseudos/PBEsol/K.psp8
- pspatm: opening atomic psp file    /scratch/users/j/a/jabreu/pseudos/PBEsol/K.psp8
- K     ONCVPSP-3.3.0  r_core=   1.36296   1.46408   1.61068
- 19.00000   9.00000    180112                znucl, zion, pspdat
    8 -116133    2    4       400   0.00000   pspcod,pspxc,lmax,lloc,mmax,r2well
    3.99000000000000    5.00000000000000    0.00000000000000   rchrg,fchrg,qchrg
     nproj     2     2     2
     extension_switch     1
  pspatm : epsatm=    8.32487830
         --- l  ekb(1:nproj) -->
             0   10.921326    0.816676
             1    4.431000    0.560368
             2   -3.384038   -1.043186
 pspatm: atomic psp has been read  and splines computed

- pspini: atom type   2  psp file is /scratch/users/j/a/jabreu/pseudos/PBEsol/Nb.psp8
- pspatm: opening atomic psp file    /scratch/users/j/a/jabreu/pseudos/PBEsol/Nb.psp8
- Nb    ONCVPSP-3.3.0  r_core=   1.50879   1.40458   1.40458
- 41.00000  13.00000    180112                znucl, zion, pspdat
    8 -116133    2    4       600   0.00000   pspcod,pspxc,lmax,lloc,mmax,r2well
    5.99000000000000    5.00000000000000    0.00000000000000   rchrg,fchrg,qchrg
     nproj     2     2     2
     extension_switch     1
  pspatm : epsatm=   15.66753381
         --- l  ekb(1:nproj) -->
             0   12.953547    1.345168
             1    7.772306    0.779703
             2    3.518917    1.091480
 pspatm: atomic psp has been read  and splines computed

- pspini: atom type   3  psp file is /scratch/users/j/a/jabreu/pseudos/PBEsol/O.psp8
- pspatm: opening atomic psp file    /scratch/users/j/a/jabreu/pseudos/PBEsol/O.psp8
- O     ONCVPSP-3.3.0  r_core=   1.35509   1.45563   1.26150
-  8.00000   6.00000    180112                znucl, zion, pspdat
    8 -116133    2    4       600   0.00000   pspcod,pspxc,lmax,lloc,mmax,r2well
    5.99000000000000    4.00000000000000    0.00000000000000   rchrg,fchrg,qchrg
     nproj     2     2     1
     extension_switch     1
  pspatm : epsatm=    6.22910522
         --- l  ekb(1:nproj) -->
             0    6.050032    0.820363
             1   -4.739617   -1.153841
             2   -1.335834
 pspatm: atomic psp has been read  and splines computed

   7.96180092E+03                                ecore*ucvol(ha*bohr**3)

 ==>  initialize data related to q vector <==

 The list of irreducible perturbations for this q vector is:
    1)    idir= 1    ipert=  13
    2)    idir= 2    ipert=  13
    3)    idir= 3    ipert=  13

 Perturbation wavevector (in red.coord.)   0.000000  0.000000  0.000000
 Perturbation : derivative vs k along direction   1

 dfpt_looppert : COMMENT -
  In a d/dk calculation, iscf is set to -3 automatically.
 The set of symmetries contains only one element for this perturbation.
 symkpt : not enough symmetry to change the number of k points.

 Initialisation of the first-order wave-functions :
  ireadwf=   0

--- !BeginCycle
iteration_state: {dtset: 1, }
[...]
  (in case of degenerate eigenvalues, averaged derivative)
 kpt#   1, nband= 53, wtk=  0.50000, kpt=  0.0000  0.0000  0.5000 (reduced coord)
  -0.00000    0.00000   -0.00000   -0.00000    0.00000    0.00000   -0.00000   -0.00000
  -0.00000    0.00000    0.00000   -0.00000   -0.00000   -0.00000   -0.00000    0.00000
   0.00000   -0.00000   -0.00000   -0.00000   -0.00000   -0.00000    0.00000    0.00000
  -0.00000   -0.00000   -0.00000   -0.00000    0.00000   -0.00000    0.00000   -0.00000
  -0.00000    0.00000    0.00000    0.00000    0.00000   -0.00000    0.00000    0.00000
  -0.00000   -0.00000   -0.00000   -0.00000    0.00000   -0.00000    0.00000    0.00000
   0.00000   -0.00000    0.00000    0.00000   -0.00016
 prteigrs : prtvol=0 or 1, do not print more k-points.

 Eight components of 2nd-order total energy (hartree) are
 1,2,3: 0th-order hamiltonian combined with 1st-order wavefunctions
     kin0=   5.32342979E+01 eigvalue=   3.03597807E+00  local=  -2.56707248E+01
 4,5,6: 1st-order hamiltonian combined with 1st and 0th-order wfs
     kin1=  -7.48874706E+01  Hartree=   0.00000000E+00     xc=   0.00000000E+00
 7,8,9: eventually, occupation + non-local contributions
    edocc=   6.99426611E+00     enl0=  -1.18998054E+00   enl1=   2.07979707E+00
 1-9 gives the relaxation energy (to be shifted if some occ is /=2.0)
   erelax=  -3.64038367E+01
  No Ewald or frozen-wf contrib.: the relaxation energy is the total one
 2DEtotal=   -0.3640383674E+02 Ha. Also 2DEtotal=   -0.990598775639E+03 eV
    (  non-var. 2DEtotal :   -3.6403836745E+01 Ha)

 Perturbation wavevector (in red.coord.)   0.000000  0.000000  0.000000
 Perturbation : derivative vs k along direction   2
 The set of symmetries contains only one element for this perturbation.
 symkpt : not enough symmetry to change the number of k points.

[...]

 Perturbation wavevector (in red.coord.)   0.000000  0.000000  0.000000
 Perturbation : derivative vs k along direction   3
 The set of symmetries contains only one element for this perturbation.
 symkpt : not enough symmetry to change the number of k points.

 Initialisation of the first-order wave-functions :
  ireadwf=   0

--- !BeginCycle
iteration_state: {dtset: 1, }
solver: {iscf: 7, nstep: 2000, nline: 4, wfoptalg: 0, }
tolerances: {tolwfr: 1.00E-20, }
...

     iter   2DEtotal(Ha)        deltaE(Ha) residm    vres2
-ETOT  1  -41.550151491053     -4.155E+01 4.811E-02 0.000E+00
 ETOT  2  -41.638042266574     -8.789E-02 3.592E-03 0.000E+00
 ETOT  3  -41.638769757615     -7.275E-04 5.155E-04 0.000E+00
 ETOT  4  -41.638779976257     -1.022E-05 5.952E-05 0.000E+00
 ETOT  5  -41.638780166682     -1.904E-07 2.694E-05 0.000E+00
 ETOT  6  -41.638780170803     -4.121E-09 3.672E-06 0.000E+00
 ETOT  7  -41.638780170900     -9.712E-11 1.737E-06 0.000E+00
 ETOT  8  -41.638780170903     -2.444E-12 2.725E-07 0.000E+00
 ETOT  9  -41.638780170903      0.000E+00 1.120E-07 0.000E+00
 ETOT 10  -41.638780170903     -4.263E-14 2.281E-08 0.000E+00
 ETOT 11  -41.638780170903     -2.132E-14 8.471E-09 0.000E+00
 ETOT 12  -41.638780170903      2.842E-14 1.822E-09 0.000E+00
 ETOT 13  -41.638780170903      0.000E+00 6.717E-10 0.000E+00
 ETOT 14  -41.638780170903      0.000E+00 1.493E-10 0.000E+00
 ETOT 15  -41.638780170903      0.000E+00 5.503E-11 0.000E+00
 ETOT 16  -41.638780170903      0.000E+00 1.244E-11 0.000E+00
 ETOT 17  -41.638780170903      0.000E+00 4.592E-12 0.000E+00
 ETOT 18  -41.638780170903      0.000E+00 1.047E-12 0.000E+00
 ETOT 19  -41.638780170903      0.000E+00 3.869E-13 0.000E+00
 ETOT 20  -41.638780170903      0.000E+00 8.856E-14 0.000E+00
 ETOT 21  -41.638780170903      0.000E+00 3.280E-14 0.000E+00
 ETOT 22  -41.638780170903      0.000E+00 7.522E-15 0.000E+00
 ETOT 23  -41.638780170903      0.000E+00 2.792E-15 0.000E+00
 ETOT 24  -41.638780170903      0.000E+00 6.409E-16 0.000E+00
 ETOT 25  -41.638780170903      0.000E+00 2.384E-16 0.000E+00
 ETOT 26  -41.638780170903      0.000E+00 5.473E-17 0.000E+00
 ETOT 27  -41.638780170903      0.000E+00 2.041E-17 0.000E+00
 ETOT 28  -41.638780170903      0.000E+00 4.685E-18 0.000E+00
 ETOT 29  -41.638780170903     -1.421E-14 1.752E-18 0.000E+00
 ETOT 30  -41.638780170903      0.000E+00 4.018E-19 0.000E+00
 ETOT 31  -41.638780170903      1.421E-14 1.506E-19 0.000E+00
 ETOT 32  -41.638780170903      7.105E-15 3.452E-20 0.000E+00
 ETOT 33  -41.638780170903     -7.105E-15 1.297E-20 0.000E+00
 ETOT 34  -41.638780170903      1.421E-14 9.977E-21 0.000E+00

 At SCF step   34   max residual=  9.98E-21 < tolwfr=  1.00E-20 =>converged.

 ----iterations are completed or convergence reached----

 dfpt_looppert: DFPT cycle converged with prtwf=-1. Will skip output of the 1st-order WFK file.
 dfpt_looppert : ek2=    8.4491963600E+01
          f-sum rule ratio=    1.0100079116E+00
 prteigrs : about to open file /scratch/users/j/a/jabreu/flow_simple_11atoms/flow/w302/t1/tmpdata/tmp_1WF1_EIG
 Expectation of eigenvalue derivatives (hartree) for nkpt=   2  k points:
  (in case of degenerate eigenvalues, averaged derivative)
 kpt#   1, nband= 53, wtk=  0.50000, kpt=  0.0000  0.0000  0.5000 (reduced coord)
   0.00000    0.00000   -0.00000   -0.00000   -0.00000    0.00000   -0.00000   -0.00000
   0.00000    0.00000    0.00000   -0.00000    0.00000    0.00000    0.00000    0.00000
   0.00000   -0.00000    0.00000    0.00000   -0.00000   -0.00000    0.00000   -0.00000
   0.00000    0.00000    0.00000   -0.00000    0.00000   -0.00000    0.00000    0.00000
  -0.00000   -0.00000   -0.00000    0.00000    0.00000   -0.00000   -0.00000    0.00000
  -0.00000    0.00000    0.00000    0.00000    0.00000   -0.00000   -0.00000    0.00000
  -0.00000   -0.00000    0.00000    0.00000   -0.00024
 prteigrs : prtvol=0 or 1, do not print more k-points.

 Eight components of 2nd-order total energy (hartree) are
 1,2,3: 0th-order hamiltonian combined with 1st-order wavefunctions
     kin0=   6.31886178E+01 eigvalue=   3.59685946E+00  local=  -3.08651518E+01
 4,5,6: 1st-order hamiltonian combined with 1st and 0th-order wfs
     kin1=  -8.53375517E+01  Hartree=   0.00000000E+00     xc=   0.00000000E+00
 7,8,9: eventually, occupation + non-local contributions
    edocc=   6.60998769E+00     enl0=  -8.91532978E-01   enl1=   2.05999136E+00
 1-9 gives the relaxation energy (to be shifted if some occ is /=2.0)
   erelax=  -4.16387802E+01
  No Ewald or frozen-wf contrib.: the relaxation energy is the total one
 2DEtotal=   -0.4163878017E+02 Ha. Also 2DEtotal=   -0.113304883069E+04 eV
    (  non-var. 2DEtotal :   -4.1638780171E+01 Ha)

 CALCULATION OF EFFECTIVE MASSES
 NOTE : Additional infos (eff. mass eigenvalues, eigenvectors and, if degenerate, average mass) are available in stdout.

 K-point ( 0.000, 0.000, 0.500) | band =    44
 Effective mass tensor:
             -3.7846421829             -0.6702976428              0.9634599363
             -0.6702976428             -4.4280250260              1.5310710664
              0.9634599363              1.5310710664             -4.0803173210
 Effective mass tensor eigenvalues:
             -6.3145241760             -3.3628389504             -2.6156214035
 Angular average effective mass 1/(<1/m>)=  -3.5797336332
 Angular average effective mass for Frohlich model (<m**0.5>)**2=  -3.7133476465
 Effective masses along directions: (cart. coord. / red. coord. -> eff. mass)
    1:   1.000000  0.000000  0.000000 /   0.917773 -0.397106  0.000000 ->  -3.5324047662
    2:   0.000000  1.000000  0.000000 /   0.000000  1.000000  0.000000 ->  -3.8267131193
    3:   0.000000  0.000000  1.000000 /  -0.345496 -0.345496  0.872505 ->  -3.4055648380
    4:   0.577350  0.577350  0.577350 /   0.462724  0.030615  0.885974 ->  -2.7403501331
    5:   0.000000  0.707107  0.707107 /  -0.341653  0.372619  0.862802 ->  -2.7013951964
    6:   0.707107  0.000000  0.707107 /   0.378691 -0.575201  0.725077 ->  -2.8843504822
    7:   0.707107  0.707107  0.000000 /   0.905420  0.424517  0.000000 ->  -4.0076416091

 K-point ( 0.500, 0.500,-0.500) | band =    45
 Effective mass tensor:
              2.1495445292              0.4314943714             -0.4127886215
              0.4314943714              2.5637287054             -0.6559785092
             -0.4127886215             -0.6559785092              2.5055589511
 Effective mass tensor eigenvalues:
              1.8780175177              1.8780213656              3.4627933024
 Angular average effective mass 1/(<1/m>)=   2.2160895581
 Angular average effective mass for Frohlich model (<m**0.5>)**2=   2.2653894710
 Effective masses along directions: (cart. coord. / red. coord. -> eff. mass)
    1:   1.000000  0.000000  0.000000 /   0.917773 -0.397106  0.000000 ->   2.0378077612
    2:   0.000000  1.000000  0.000000 /   0.000000  1.000000  0.000000 ->   2.3417351458
    3:   0.000000  0.000000  1.000000 /  -0.345496 -0.345496  0.872505 ->   2.2936900085
    4:   0.577350  0.577350  0.577350 /   0.462724  0.030615  0.885974 ->   1.9358288695
    5:   0.000000  0.707107  0.707107 /  -0.341653  0.372619  0.862802 ->   1.8783704494
    6:   0.707107  0.000000  0.707107 /   0.378691 -0.575201  0.725077 ->   1.8981599846
    7:   0.707107  0.707107  0.000000 /   0.905420  0.424517  0.000000 ->   2.5475921934

 END OF EFFECTIVE MASSES SECTION

 ---- first-order wavefunction calculations are completed ----

 Total localisation tensor (bohr^2) in cartesian coordinates
  WARNING : still subject to testing - especially symmetries.
      direction              matrix element
   alpha     beta       real part   imaginary part
     1        1       0.9208271751    0.0000000000
     1        2      -0.3025550829    0.0000000000
     1        3      -0.1897518321    0.0000000000
     2        1      -0.3025550829    0.0000000000
     2        2       0.6304072527    0.0000000000
     2        3      -0.3015386473    0.0000000000
     3        1      -0.1897518321    0.0000000000
     3        2      -0.3015386473    0.0000000000
     3        3       1.3132623296    0.0000000000

 respfn : d/dk was computed, but no 2DTE, so no DDB output.

== END DATASET(S) ==============================================================

 -outvars: echo values of variables after computation  --------
            acell      1.0000000000E+00  1.0000000000E+00  1.0000000000E+00 Bohr
              amu      3.90983000E+01  9.29063800E+01  1.59994000E+01
             ecut      4.40000000E+01 Hartree
           etotal     -4.1638780171E+01
            fcart      0.0000000000E+00  0.0000000000E+00  0.0000000000E+00
                       0.0000000000E+00  0.0000000000E+00  0.0000000000E+00
                       0.0000000000E+00  0.0000000000E+00  0.0000000000E+00
                       0.0000000000E+00  0.0000000000E+00  0.0000000000E+00
                       0.0000000000E+00  0.0000000000E+00  0.0000000000E+00
                       0.0000000000E+00  0.0000000000E+00  0.0000000000E+00
                       0.0000000000E+00  0.0000000000E+00  0.0000000000E+00
                       0.0000000000E+00  0.0000000000E+00  0.0000000000E+00
                       0.0000000000E+00  0.0000000000E+00  0.0000000000E+00
                       0.0000000000E+00  0.0000000000E+00  0.0000000000E+00
                       0.0000000000E+00  0.0000000000E+00  0.0000000000E+00
                       0.0000000000E+00  0.0000000000E+00  0.0000000000E+00
-          fftalg         512
           irdden           1
           irdwfk           1
           istwfk        1    0
              ixc     -116133
              kpt      0.00000000E+00  0.00000000E+00  5.00000000E-01
                       5.00000000E-01  5.00000000E-01 -5.00000000E-01
           kptopt           0
P           mkmem           2
P          mkqmem           2
P          mk1mem           2
            natom          12
            nband          53
           nbdbuf           4
            ngfft          72      72      72
             nkpt           2
            nstep        2000
             nsym           8
           ntypat           3
              occ      2.000000  2.000000  2.000000  2.000000  2.000000  2.000000
                       2.000000  2.000000  2.000000  2.000000  2.000000  2.000000
                       2.000000  2.000000  2.000000  2.000000  2.000000  2.000000
                       2.000000  2.000000  2.000000  2.000000  2.000000  2.000000
                       2.000000  2.000000  2.000000  2.000000  2.000000  2.000000
                       2.000000  2.000000  2.000000  2.000000  2.000000  2.000000
                       2.000000  2.000000  2.000000  2.000000  2.000000  2.000000
                       2.000000  2.000000  0.000000  0.000000  0.000000  0.000000
                       0.000000  0.000000  0.000000  0.000000  0.000000
        optdriver           1
            prtwf          -1
            rfdir           1       1       1
           rfelfd           2
            rprim      1.0714410369E+01  0.0000000000E+00 -4.6203806150E+00
                      -4.6359551329E+00  9.6595294695E+00 -4.6203806150E+00
                       0.0000000000E+00  0.0000000000E+00  1.1668183517E+01
          spgroup         121
           strten      0.0000000000E+00  0.0000000000E+00  0.0000000000E+00
                       0.0000000000E+00  0.0000000000E+00  0.0000000000E+00
           symrel      1  0  0   0  1  0   0  0  1      -1 -1 -1   0  0  1   0  1  0
                       0  1  0   1  0  0  -1 -1 -1       0  0  1  -1 -1 -1   1  0  0
                       0  1  0   1  0  0   0  0  1      -1 -1 -1   0  0  1   1  0  0
                       1  0  0   0  1  0  -1 -1 -1       0  0  1  -1 -1 -1   0  1  0
           tolwfr      1.00000000E-20
            typat      1  1  1  2  3  3  3  3  3  3  3  3
           useylm           1
              wtk        0.50000    0.50000
           xangst     -4.2247590453E-01  3.8337021307E+00  6.4226827503E-01
                       3.6390558792E+00  1.2779007102E+00  6.4226827503E-01
                       1.6082899873E+00  2.5558014205E+00 -2.4450001165E+00
                       0.0000000000E+00  0.0000000000E+00  0.0000000000E+00
                       7.5701164315E-01  1.2029991159E+00  1.4795841889E+00
                       3.8676984571E+00  9.7460758937E-01 -2.3357550663E+00
                      -7.9483849230E-01  3.9086037251E+00 -2.3357550663E+00
                       2.6032883413E+00  4.1369952516E+00 -4.1353773929E-01
                       1.5904460099E-01  2.5274448037E-01  4.1930212768E+00
                       3.7487571023E+00  3.4186208115E+00 -3.9593133836E+00
                       1.4600148962E+00  4.8588583606E+00 -3.9593133836E+00
                       1.0653433498E+00  1.6929820294E+00  1.2014180752E-01
            xcart     -7.9836375730E-01  7.2446471021E+00  1.2137111436E+00
                       6.8768189939E+00  2.4148823674E+00  1.2137111436E+00
                       3.0392276183E+00  4.8297647348E+00 -4.6203806150E+00
                       0.0000000000E+00  0.0000000000E+00  0.0000000000E+00
                       1.4305446850E+00  2.2733388672E+00  2.7960089077E+00
                       7.3088908485E+00  1.8417414309E+00 -4.4139373887E+00
                      -1.5020270703E+00  7.3861906023E+00 -4.4139373887E+00
                       4.9195020101E+00  7.8177880386E+00 -7.8147307287E-01
                       3.0055073879E-01  4.7761784950E-01  7.9236618825E+00
                       7.0841242621E+00  6.4602570860E+00 -7.4820179693E+00
                       2.7590283037E+00  9.1819116200E+00 -7.4820179693E+00
                       2.0132071686E+00  3.1992723835E+00  2.2703511333E-01
             xred      2.5000000000E-01  7.5000000000E-01  5.0000000000E-01
                       7.5000000000E-01  2.5000000000E-01  5.0000000000E-01
                       5.0000000000E-01  5.0000000000E-01  0.0000000000E+00
                       0.0000000000E+00  0.0000000000E+00  0.0000000000E+00
                       2.3534675000E-01  2.3534675000E-01  4.2601250000E-01
                       7.6465325000E-01  1.9066575000E-01  0.0000000000E+00
                       1.9066575000E-01  7.6465325000E-01  0.0000000000E+00
                       8.0933425000E-01  8.0933425000E-01  5.7398750000E-01
                       4.9445250000E-02  4.9445250000E-02  7.1824150000E-01
                       9.5055475000E-01  6.6879625000E-01  0.0000000000E+00
                       6.6879625000E-01  9.5055475000E-01  0.0000000000E+00
                       3.3120375000E-01  3.3120375000E-01  2.8175850000E-01
            znucl       19.00000   41.00000    8.00000

- Timing analysis has been suppressed with timopt=0

 Suggested references for the acknowledgment of ABINIT usage.

 Calculation completed.
.Delivered   2 WARNINGs and   5 COMMENTs to log file.