.Version 9.5.2 of ABINIT

 ABINIT is a project of the Universite Catholique de Louvain,
 Corning Inc. and other collaborators, see ~abinit/doc/developers/contributors.txt .
 acknowledgments of the ABINIT effort.

.Starting date : Mon 31 May 2021.
- ( at 22h07 )

- input  file    -> /scratch/users/j/a/jabreu/flow_simple_11atoms/flow/w340/t1/run.abi
- output file    -> /scratch/users/j/a/jabreu/flow_simple_11atoms/flow/w340/t1/run.abo
- root for input  files -> /scratch/users/j/a/jabreu/flow_simple_11atoms/flow/w340/t1/indata/in
- root for output files -> /scratch/users/j/a/jabreu/flow_simple_11atoms/flow/w340/t1/outdata/out

 Symmetries : space group Pn m a (# 62); Bravais oP (primitive ortho.)
     intxc =       0      iscf =       7    lmnmax =      18     lnmax =       6
     mgfft =      96  mpssoang =       3    mqgrid =    4530     natom =      12
  nloc_mem =       1    nspden =       1   nspinor =       1    nsppol =       1
      nsym =       8    n1xccc =    2501    ntypat =       3    occopt =       1
   xclevel =       2
-    mband =          65        mffmem =           1         mkmem =           1
-   mkqmem =           1        mk1mem =           1           mpw =       25013
      nfft =      466560          nkpt =           1
  Rough estimation (10% accuracy) of disk space for files :

------------- Echo of variables that govern the present computation ------------
-
- outvars: echo of selected default values
-   iomode0 =  0 , fftalg0 =512 , wfoptalg0 =  0
-
- outvars: echo of global parameters not present in the input file
-  max_nthreads =    0
-
 -outvars: echo values of preprocessed input variables --------
            acell      1.0000000000E+00  1.0000000000E+00  1.0000000000E+00 Bohr
              amu      6.94100000E+00  4.00780000E+01  1.21753000E+02
             ecut      4.20000000E+01 Hartree
-          fftalg         512
           irdden           1
           irdwfk           1
           istwfk        1
              ixc     -116133
           kptopt           0
P           mkmem           1
P          mkqmem           1
P          mk1mem           1
            natom          12
            nband          65
           nbdbuf           4
            ngfft          54      90      96
             nkpt           1
            nstep        2000
             nsym           8
           ntypat           3
              occ      2.000000  2.000000  2.000000  2.000000  2.000000  2.000000
                       2.000000  2.000000  2.000000  2.000000  2.000000  2.000000
                       2.000000  2.000000  2.000000  2.000000  2.000000  2.000000
                       2.000000  2.000000  2.000000  2.000000  2.000000  2.000000
                       2.000000  2.000000  2.000000  2.000000  2.000000  2.000000
                       2.000000  2.000000  2.000000  2.000000  2.000000  2.000000
                       2.000000  2.000000  2.000000  2.000000  2.000000  2.000000
                       2.000000  2.000000  2.000000  2.000000  2.000000  2.000000
                       2.000000  2.000000  2.000000  2.000000  2.000000  2.000000
                       2.000000  2.000000  0.000000  0.000000  0.000000  0.000000
                       0.000000  0.000000  0.000000  0.000000  0.000000
        optdriver           1
            prtwf          -1
            rfdir           1       1       1
           rfelfd           2
            rprim      8.6745683968E+00  0.0000000000E+00  0.0000000000E+00
                       0.0000000000E+00  1.4280509070E+01  0.0000000000E+00
                       0.0000000000E+00  0.0000000000E+00  1.5525043484E+01
          spgroup          62
           symrel      1  0  0   0  1  0   0  0  1      -1  0  0   0 -1  0   0  0 -1
                      -1  0  0   0  1  0   0  0 -1       1  0  0   0 -1  0   0  0  1
                      -1  0  0   0 -1  0   0  0  1       1  0  0   0  1  0   0  0 -1
                       1  0  0   0 -1  0   0  0 -1      -1  0  0   0  1  0   0  0  1
            tnons      0.0000000  0.0000000  0.0000000     0.0000000  0.0000000  0.0000000
                       0.5000000  0.5000000  0.5000000     0.5000000  0.5000000  0.5000000
                       0.0000000  0.5000000  0.5000000     0.0000000  0.5000000  0.5000000
                       0.5000000  0.0000000  0.0000000     0.5000000  0.0000000  0.0000000
           tolwfr      1.00000000E-20
            typat      1  1  1  1  2  2  2  2  3  3  3  3
           useylm           1
           xangst      3.4427879175E+00  6.4017238054E+00  4.7055421690E+00
                       1.1475959725E+00  1.1551961216E+00  3.5099570051E+00
                       1.1475959725E+00  4.9336560850E+00  5.9779258190E-01
                       3.4427879175E+00  2.6232638419E+00  7.6177065922E+00
                       3.4427879175E+00  3.7103192165E+00  2.4400114702E+00
                       3.4427879175E+00  7.4887791800E+00  1.6677381168E+00
                       1.1475959725E+00  3.8466007105E+00  5.7754877039E+00
                       1.1475959725E+00  6.8140746981E-02  6.5477610573E+00
                       3.4427879175E+00  5.5204055758E+00  7.3994125636E+00
                       1.1475959725E+00  2.0365143511E+00  8.1608661046E-01
                       3.4427879175E+00  1.7419456124E+00  4.9238361975E+00
                       1.1475959725E+00  5.8149743146E+00  3.2916629766E+00
            xcart      6.5059262976E+00  1.2097504771E+01  8.8921860061E+00
                       2.1686420992E+00  2.1830042995E+00  6.6328574779E+00
                       2.1686420992E+00  9.3232588346E+00  1.1296642641E+00
                       6.5059262976E+00  4.9572502355E+00  1.4395379220E+01
                       6.5059262976E+00  7.0114871848E+00  4.6109534398E+00
                       6.5059262976E+00  1.4151741720E+01  3.1515683022E+00
                       2.1686420992E+00  7.2690218853E+00  1.0914090044E+01
                       2.1686420992E+00  1.2876735029E-01  1.2373475182E+01
                       6.5059262976E+00  1.0432054681E+01  1.3982863290E+01
                       2.1686420992E+00  3.8484543893E+00  1.5421801945E+00
                       6.5059262976E+00  3.2918001457E+00  9.3047019365E+00
                       2.1686420992E+00  1.0988708924E+01  6.2203415475E+00
             xred      7.5000000000E-01  8.4713400000E-01  5.7276400000E-01
                       2.5000000000E-01  1.5286600000E-01  4.2723600000E-01
                       2.5000000000E-01  6.5286600000E-01  7.2764000000E-02
                       7.5000000000E-01  3.4713400000E-01  9.2723600000E-01
                       7.5000000000E-01  4.9098300000E-01  2.9700100000E-01
                       7.5000000000E-01  9.9098300000E-01  2.0299900000E-01
                       2.5000000000E-01  5.0901700000E-01  7.0299900000E-01
                       2.5000000000E-01  9.0170000000E-03  7.9700100000E-01
                       7.5000000000E-01  7.3051000000E-01  9.0066500000E-01
                       2.5000000000E-01  2.6949000000E-01  9.9335000000E-02
                       7.5000000000E-01  2.3051000000E-01  5.9933500000E-01
                       2.5000000000E-01  7.6949000000E-01  4.0066500000E-01
            znucl        3.00000   20.00000   51.00000

 chkinp: Checking input parameters for consistency.

== DATASET  1 ==================================================================
-   mpi_nproc: 1, omp_nthreads: -1 (-1 if OMP is not activated)

--- !DatasetInfo
iteration_state: {dtset: 1, }
dimensions: {natom: 12, nkpt: 1, mband: 65, nsppol: 1, nspinor: 1, nspden: 1, mpw: 25013, }
cutoff_energies: {ecut:  42.0, pawecutdg:  -1.0, }
electrons: {nelect:   1.12000000E+02, charge:   0.00000000E+00, occopt:   1.00000000E+00, tsmear:   1.00000000E-02, }
meta: {optdriver: 1, rfelfd: 2, }
...

 Real(R)+Recip(G) space primitive vectors, cartesian coordinates (Bohr,Bohr^-1):
 R(1)=  8.6745684  0.0000000  0.0000000  G(1)=  0.1152795  0.0000000  0.0000000
 R(2)=  0.0000000 14.2805091  0.0000000  G(2)=  0.0000000  0.0700255  0.0000000
 R(3)=  0.0000000  0.0000000 15.5250435  G(3)=  0.0000000  0.0000000  0.0644121
 Unit cell volume ucvol=  1.9231997E+03 bohr^3
 Angles (23,13,12)=  9.00000000E+01  9.00000000E+01  9.00000000E+01 degrees

 getcut: wavevector=  0.0000  0.0000  0.0000  ngfft=  54  90  96
         ecut(hartree)=     42.000   => boxcut(ratio)=   2.11957

--- Pseudopotential description ------------------------------------------------
- pspini: atom type   1  psp file is /scratch/users/j/a/jabreu/pseudos/PBEsol/Li.psp8
- pspatm: opening atomic psp file    /scratch/users/j/a/jabreu/pseudos/PBEsol/Li.psp8
- Li    ONCVPSP-3.3.0  r_core=   1.40824   1.10935
-  3.00000   3.00000    180112                znucl, zion, pspdat
    8 -116133    1    4       400   0.00000   pspcod,pspxc,lmax,lloc,mmax,r2well
    3.99000000000000    0.00000000000000    0.00000000000000   rchrg,fchrg,qchrg
     nproj     2     2
     extension_switch     1
  pspatm : epsatm=    2.60859637
         --- l  ekb(1:nproj) -->
             0   -4.855856   -1.482423
             1   -2.171544   -0.427615
 pspatm: atomic psp has been read  and splines computed

- pspini: atom type   2  psp file is /scratch/users/j/a/jabreu/pseudos/PBEsol/Ca.psp8
- pspatm: opening atomic psp file    /scratch/users/j/a/jabreu/pseudos/PBEsol/Ca.psp8
- Ca    ONCVPSP-3.3.0  r_core=   1.45885   1.45885   1.85192
- 20.00000  10.00000    180112                znucl, zion, pspdat
    8 -116133    2    4       400   0.00000   pspcod,pspxc,lmax,lloc,mmax,r2well
    3.99000000000000    6.00000000000000    0.00000000000000   rchrg,fchrg,qchrg
     nproj     2     2     2
     extension_switch     1
  pspatm : epsatm=   12.46045226
         --- l  ekb(1:nproj) -->
             0   10.054847    0.973777
             1    2.998958    0.458102
             2   -3.447298   -1.091650
 pspatm: atomic psp has been read  and splines computed

- pspini: atom type   3  psp file is /scratch/users/j/a/jabreu/pseudos/PBEsol/Sb.psp8
- pspatm: opening atomic psp file    /scratch/users/j/a/jabreu/pseudos/PBEsol/Sb.psp8
- Sb    ONCVPSP-3.3.0  r_core=   1.81962   2.12485   1.81962
- 51.00000  15.00000    180112                znucl, zion, pspdat
    8 -116133    2    4       600   0.00000   pspcod,pspxc,lmax,lloc,mmax,r2well
    5.99000000000000    5.00000000000000    0.00000000000000   rchrg,fchrg,qchrg
     nproj     2     2     2
     extension_switch     1
  pspatm : epsatm=   26.35641246
         --- l  ekb(1:nproj) -->
             0    9.727814    1.485032
             1    5.505335    0.704623
             2   -4.710637   -1.436443
 pspatm: atomic psp has been read  and splines computed

   1.85586066E+04                                ecore*ucvol(ha*bohr**3)

 ==>  initialize data related to q vector <==

 The list of irreducible perturbations for this q vector is:
    1)    idir= 1    ipert=  13
    2)    idir= 2    ipert=  13
    3)    idir= 3    ipert=  13

 Perturbation wavevector (in red.coord.)   0.000000  0.000000  0.000000
 Perturbation : derivative vs k along direction   1

 dfpt_looppert : COMMENT -
  In a d/dk calculation, iscf is set to -3 automatically.
[...]
 4,5,6: 1st-order hamiltonian combined with 1st and 0th-order wfs
     kin1=  -1.55232903E+02  Hartree=   0.00000000E+00     xc=   0.00000000E+00
 7,8,9: eventually, occupation + non-local contributions
    edocc=   2.54774518E+01     enl0=   1.03054491E+01   enl1=  -7.30752291E+01
 1-9 gives the relaxation energy (to be shifted if some occ is /=2.0)
   erelax=  -1.14154066E+02
  No Ewald or frozen-wf contrib.: the relaxation energy is the total one
 2DEtotal=   -0.1141540661E+03 Ha. Also 2DEtotal=   -0.310629011079E+04 eV
    (  non-var. 2DEtotal :   -1.1415406606E+02 Ha)

 Perturbation wavevector (in red.coord.)   0.000000  0.000000  0.000000
 Perturbation : derivative vs k along direction   2
 The set of symmetries contains only one element for this perturbation.
 symkpt : not enough symmetry to change the number of k points.

[...]

 Perturbation wavevector (in red.coord.)   0.000000  0.000000  0.000000
 Perturbation : derivative vs k along direction   3
 The set of symmetries contains only one element for this perturbation.
 symkpt : not enough symmetry to change the number of k points.

 Initialisation of the first-order wave-functions :
  ireadwf=   0

--- !BeginCycle
iteration_state: {dtset: 1, }
solver: {iscf: 7, nstep: 2000, nline: 4, wfoptalg: 0, }
tolerances: {tolwfr: 1.00E-20, }
...

     iter   2DEtotal(Ha)        deltaE(Ha) residm    vres2
-ETOT  1  -32.844437923973     -3.284E+01 2.904E-02 0.000E+00
 ETOT  2  -32.937197582147     -9.276E-02 9.918E-03 0.000E+00
 ETOT  3  -32.942639154268     -5.442E-03 6.545E-04 0.000E+00
 ETOT  4  -32.943254116036     -6.150E-04 2.116E-04 0.000E+00
 ETOT  5  -32.943339129379     -8.501E-05 2.113E-05 0.000E+00
 ETOT  6  -32.943351640925     -1.251E-05 9.336E-06 0.000E+00
 ETOT  7  -32.943353557664     -1.917E-06 2.119E-06 0.000E+00
 ETOT  8  -32.943353855556     -2.979E-07 5.501E-07 0.000E+00
 ETOT  9  -32.943353902350     -4.679E-08 3.239E-07 0.000E+00
 ETOT 10  -32.943353909732     -7.382E-09 7.962E-08 0.000E+00
 ETOT 11  -32.943353910903     -1.170E-09 5.046E-08 0.000E+00
 ETOT 12  -32.943353911088     -1.859E-10 1.196E-08 0.000E+00
 ETOT 13  -32.943353911118     -2.954E-11 7.924E-09 0.000E+00
 ETOT 14  -32.943353911123     -4.754E-12 1.832E-09 0.000E+00
 ETOT 15  -32.943353911123     -7.461E-13 1.249E-09 0.000E+00
 ETOT 16  -32.943353911124     -1.279E-13 2.839E-10 0.000E+00
 ETOT 17  -32.943353911124     -2.132E-14 1.970E-10 0.000E+00
 ETOT 18  -32.943353911124      0.000E+00 4.427E-11 0.000E+00
 ETOT 19  -32.943353911124     -2.842E-14 3.111E-11 0.000E+00
 ETOT 20  -32.943353911124     -3.553E-14 6.934E-12 0.000E+00
 ETOT 21  -32.943353911124      1.421E-14 4.916E-12 0.000E+00
 ETOT 22  -32.943353911124      7.105E-15 1.089E-12 0.000E+00
 ETOT 23  -32.943353911124     -7.105E-15 7.770E-13 0.000E+00
 ETOT 24  -32.943353911124      2.842E-14 1.715E-13 0.000E+00
 ETOT 25  -32.943353911124     -2.132E-14 1.229E-13 0.000E+00
 ETOT 26  -32.943353911124      7.105E-15 2.704E-14 0.000E+00
 ETOT 27  -32.943353911124     -1.421E-14 1.943E-14 0.000E+00
 ETOT 28  -32.943353911124      7.105E-15 4.268E-15 0.000E+00
 ETOT 29  -32.943353911124     -7.105E-15 3.074E-15 0.000E+00
 ETOT 30  -32.943353911124      1.421E-14 6.745E-16 0.000E+00
 ETOT 31  -32.943353911124      0.000E+00 4.865E-16 0.000E+00
 ETOT 32  -32.943353911124      0.000E+00 1.067E-16 0.000E+00
 ETOT 33  -32.943353911124      0.000E+00 7.700E-17 0.000E+00
 ETOT 34  -32.943353911124     -1.421E-14 1.688E-17 0.000E+00
 ETOT 35  -32.943353911124      7.105E-15 1.219E-17 0.000E+00
 ETOT 36  -32.943353911124      7.105E-15 2.672E-18 0.000E+00
 ETOT 37  -32.943353911124     -7.105E-15 1.931E-18 0.000E+00
 ETOT 38  -32.943353911124      7.105E-15 4.233E-19 0.000E+00
 ETOT 39  -32.943353911124      0.000E+00 3.058E-19 0.000E+00
 ETOT 40  -32.943353911124      0.000E+00 6.707E-20 0.000E+00
 ETOT 41  -32.943353911124     -7.105E-15 4.846E-20 0.000E+00
 ETOT 42  -32.943353911124      7.105E-15 1.063E-20 0.000E+00
 ETOT 43  -32.943353911124      0.000E+00 9.993E-21 0.000E+00

 At SCF step   43   max residual=  9.99E-21 < tolwfr=  1.00E-20 =>converged.

 ----iterations are completed or convergence reached----

 dfpt_looppert: DFPT cycle converged with prtwf=-1. Will skip output of the 1st-order WFK file.
 dfpt_looppert : ek2=    3.6689526294E+01
          f-sum rule ratio=    1.1914712918E+00
 prteigrs : about to open file /scratch/users/j/a/jabreu/flow_simple_11atoms/flow/w340/t1/tmpdata/tmp_1WF1_EIG
 Expectation of eigenvalue derivatives (hartree) for nkpt=   1  k points:
  (in case of degenerate eigenvalues, averaged derivative)
 kpt#   1, nband= 65, wtk=  1.00000, kpt=  0.0000  0.0000  0.0000 (reduced coord)
   0.00000    0.00000    0.00000    0.00000    0.00000   -0.00000    0.00000   -0.00000
  -0.00000   -0.00000    0.00000   -0.00000   -0.00000    0.00000    0.00000   -0.00000
   0.00000    0.00000    0.00000   -0.00000    0.00000    0.00000    0.00000    0.00000
   0.00000    0.00000    0.00000   -0.00000    0.00000   -0.00000   -0.00000    0.00000
   0.00000    0.00000    0.00000   -0.00000    0.00000    0.00000   -0.00000    0.00000
  -0.00000   -0.00000    0.00000    0.00000   -0.00000    0.00000   -0.00000   -0.00000
  -0.00000   -0.00000    0.00000    0.00000   -0.00000    0.00000   -0.00000   -0.00000
   0.00000    0.00000    0.00000    0.00000    0.00000   -0.00000    0.00000   -0.00000
   0.00000

 Eight components of 2nd-order total energy (hartree) are
 1,2,3: 0th-order hamiltonian combined with 1st-order wavefunctions
     kin0=   4.55867231E+01 eigvalue=   4.43503038E+00  local=  -2.79299610E+01
 4,5,6: 1st-order hamiltonian combined with 1st and 0th-order wfs
     kin1=  -4.37145173E+01  Hartree=   0.00000000E+00     xc=   0.00000000E+00
 7,8,9: eventually, occupation + non-local contributions
    edocc=   7.29450003E+00     enl0=   3.55706140E+00   enl1=  -2.21721905E+01
 1-9 gives the relaxation energy (to be shifted if some occ is /=2.0)
   erelax=  -3.29433539E+01
  No Ewald or frozen-wf contrib.: the relaxation energy is the total one
 2DEtotal=   -0.3294335391E+02 Ha. Also 2DEtotal=   -0.896434248911E+03 eV
    (  non-var. 2DEtotal :   -3.2943353911E+01 Ha)

 CALCULATION OF EFFECTIVE MASSES
 NOTE : Additional infos (eff. mass eigenvalues, eigenvectors and, if degenerate, average mass) are available in stdout.

 K-point ( 0.000, 0.000, 0.000) | band =    56
 Effective mass tensor:
             -0.6925500665              0.0000000001              0.0000000044
              0.0000000001             -0.0981466740              0.0000000000
              0.0000000044              0.0000000000             -0.4173392893
 Effective mass tensor eigenvalues:
             -0.6925500665             -0.4173392893             -0.0981466740
 Angular average effective mass 1/(<1/m>)=  -0.2138442306
 Angular average effective mass for Frohlich model (<m**0.5>)**2=  -0.2661255693
 Effective masses along directions: (cart. coord. / red. coord. -> eff. mass)
    1:   1.000000  0.000000  0.000000 /   1.000000  0.000000  0.000000 ->  -0.6925500665
    2:   0.000000  1.000000  0.000000 /   0.000000  1.000000  0.000000 ->  -0.0981466740
    3:   0.000000  0.000000  1.000000 /   0.000000  0.000000  1.000000 ->  -0.4173392893
    4:   0.577350  0.577350  0.577350 /   0.380329  0.626117  0.680682 ->  -0.2138442301
    5:   0.000000  0.707107  0.707107 /   0.000000  0.676992  0.735991 ->  -0.1589198002
    6:   0.707107  0.000000  0.707107 /   0.487770  0.000000  0.872972 ->  -0.5208237177
    7:   0.707107  0.707107  0.000000 /   0.519164  0.854674  0.000000 ->  -0.1719280783

 K-point ( 0.000, 0.000, 0.000) | band =    57
 Effective mass tensor:
              0.1759845631             -0.0000000000             -0.0000000013
             -0.0000000000              1.0196066522              0.0000000000
             -0.0000000013              0.0000000000              1.8641240076
 Effective mass tensor eigenvalues:
              0.1759845631              1.0196066522              1.8641240076
 Angular average effective mass 1/(<1/m>)=   0.4166937547
 Angular average effective mass for Frohlich model (<m**0.5>)**2=   0.5695475661
 Effective masses along directions: (cart. coord. / red. coord. -> eff. mass)
    1:   1.000000  0.000000  0.000000 /   1.000000  0.000000  0.000000 ->   0.1759845631
    2:   0.000000  1.000000  0.000000 /   0.000000  1.000000  0.000000 ->   1.0196066522
    3:   0.000000  0.000000  1.000000 /   0.000000  0.000000  1.000000 ->   1.8641240076
    4:   0.577350  0.577350  0.577350 /   0.380329  0.626117  0.680682 ->   0.4166937542
    5:   0.000000  0.707107  0.707107 /   0.000000  0.676992  0.735991 ->   1.3182044115
    6:   0.707107  0.000000  0.707107 /   0.487770  0.000000  0.872972 ->   0.3216074413
    7:   0.707107  0.707107  0.000000 /   0.519164  0.854674  0.000000 ->   0.3001611738

 END OF EFFECTIVE MASSES SECTION

 ---- first-order wavefunction calculations are completed ----

 Total localisation tensor (bohr^2) in cartesian coordinates
  WARNING : still subject to testing - especially symmetries.
      direction              matrix element
   alpha     beta       real part   imaginary part
     1        1       3.4952997253    0.0000000000
     1        2       0.0000000000    0.0000000000
     1        3       0.0000000000    0.0000000000
     2        1       0.0000000000    0.0000000000
     2        2       2.6525896989    0.0000000000
     2        3       0.0000000000    0.0000000000
     3        1       0.0000000000    0.0000000000
     3        2       0.0000000000    0.0000000000
     3        3       2.6823039316    0.0000000000

 respfn : d/dk was computed, but no 2DTE, so no DDB output.

== END DATASET(S) ==============================================================

 -outvars: echo values of variables after computation  --------
            acell      1.0000000000E+00  1.0000000000E+00  1.0000000000E+00 Bohr
              amu      6.94100000E+00  4.00780000E+01  1.21753000E+02
             ecut      4.20000000E+01 Hartree
           etotal     -3.2943353911E+01
            fcart      0.0000000000E+00  0.0000000000E+00  0.0000000000E+00
                       0.0000000000E+00  0.0000000000E+00  0.0000000000E+00
                       0.0000000000E+00  0.0000000000E+00  0.0000000000E+00
                       0.0000000000E+00  0.0000000000E+00  0.0000000000E+00
                       0.0000000000E+00  0.0000000000E+00  0.0000000000E+00
                       0.0000000000E+00  0.0000000000E+00  0.0000000000E+00
                       0.0000000000E+00  0.0000000000E+00  0.0000000000E+00
                       0.0000000000E+00  0.0000000000E+00  0.0000000000E+00
                       0.0000000000E+00  0.0000000000E+00  0.0000000000E+00
                       0.0000000000E+00  0.0000000000E+00  0.0000000000E+00
                       0.0000000000E+00  0.0000000000E+00  0.0000000000E+00
                       0.0000000000E+00  0.0000000000E+00  0.0000000000E+00
-          fftalg         512
           irdden           1
           irdwfk           1
           istwfk        1
              ixc     -116133
           kptopt           0
P           mkmem           1
P          mkqmem           1
P          mk1mem           1
            natom          12
            nband          65
           nbdbuf           4
            ngfft          54      90      96
             nkpt           1
            nstep        2000
             nsym           8
           ntypat           3
              occ      2.000000  2.000000  2.000000  2.000000  2.000000  2.000000
                       2.000000  2.000000  2.000000  2.000000  2.000000  2.000000
                       2.000000  2.000000  2.000000  2.000000  2.000000  2.000000
                       2.000000  2.000000  2.000000  2.000000  2.000000  2.000000
                       2.000000  2.000000  2.000000  2.000000  2.000000  2.000000
                       2.000000  2.000000  2.000000  2.000000  2.000000  2.000000
                       2.000000  2.000000  2.000000  2.000000  2.000000  2.000000
                       2.000000  2.000000  2.000000  2.000000  2.000000  2.000000
                       2.000000  2.000000  2.000000  2.000000  2.000000  2.000000
                       2.000000  2.000000  0.000000  0.000000  0.000000  0.000000
                       0.000000  0.000000  0.000000  0.000000  0.000000
        optdriver           1
            prtwf          -1
            rfdir           1       1       1
           rfelfd           2
            rprim      8.6745683968E+00  0.0000000000E+00  0.0000000000E+00
                       0.0000000000E+00  1.4280509070E+01  0.0000000000E+00
                       0.0000000000E+00  0.0000000000E+00  1.5525043484E+01
          spgroup          62
           strten      0.0000000000E+00  0.0000000000E+00  0.0000000000E+00
                       0.0000000000E+00  0.0000000000E+00  0.0000000000E+00
           symrel      1  0  0   0  1  0   0  0  1      -1  0  0   0 -1  0   0  0 -1
                      -1  0  0   0  1  0   0  0 -1       1  0  0   0 -1  0   0  0  1
                      -1  0  0   0 -1  0   0  0  1       1  0  0   0  1  0   0  0 -1
                       1  0  0   0 -1  0   0  0 -1      -1  0  0   0  1  0   0  0  1
            tnons      0.0000000  0.0000000  0.0000000     0.0000000  0.0000000  0.0000000
                       0.5000000  0.5000000  0.5000000     0.5000000  0.5000000  0.5000000
                       0.0000000  0.5000000  0.5000000     0.0000000  0.5000000  0.5000000
                       0.5000000  0.0000000  0.0000000     0.5000000  0.0000000  0.0000000
           tolwfr      1.00000000E-20
            typat      1  1  1  1  2  2  2  2  3  3  3  3
           useylm           1
           xangst      3.4427879175E+00  6.4017238054E+00  4.7055421690E+00
                       1.1475959725E+00  1.1551961216E+00  3.5099570051E+00
                       1.1475959725E+00  4.9336560850E+00  5.9779258190E-01
                       3.4427879175E+00  2.6232638419E+00  7.6177065922E+00
                       3.4427879175E+00  3.7103192165E+00  2.4400114702E+00
                       3.4427879175E+00  7.4887791800E+00  1.6677381168E+00
                       1.1475959725E+00  3.8466007105E+00  5.7754877039E+00
                       1.1475959725E+00  6.8140746981E-02  6.5477610573E+00
                       3.4427879175E+00  5.5204055758E+00  7.3994125636E+00
                       1.1475959725E+00  2.0365143511E+00  8.1608661046E-01
                       3.4427879175E+00  1.7419456124E+00  4.9238361975E+00
                       1.1475959725E+00  5.8149743146E+00  3.2916629766E+00
            xcart      6.5059262976E+00  1.2097504771E+01  8.8921860061E+00
                       2.1686420992E+00  2.1830042995E+00  6.6328574779E+00
                       2.1686420992E+00  9.3232588346E+00  1.1296642641E+00
                       6.5059262976E+00  4.9572502355E+00  1.4395379220E+01
                       6.5059262976E+00  7.0114871848E+00  4.6109534398E+00
                       6.5059262976E+00  1.4151741720E+01  3.1515683022E+00
                       2.1686420992E+00  7.2690218853E+00  1.0914090044E+01
                       2.1686420992E+00  1.2876735029E-01  1.2373475182E+01
                       6.5059262976E+00  1.0432054681E+01  1.3982863290E+01
                       2.1686420992E+00  3.8484543893E+00  1.5421801945E+00
                       6.5059262976E+00  3.2918001457E+00  9.3047019365E+00
                       2.1686420992E+00  1.0988708924E+01  6.2203415475E+00
             xred      7.5000000000E-01  8.4713400000E-01  5.7276400000E-01
                       2.5000000000E-01  1.5286600000E-01  4.2723600000E-01
                       2.5000000000E-01  6.5286600000E-01  7.2764000000E-02
                       7.5000000000E-01  3.4713400000E-01  9.2723600000E-01
                       7.5000000000E-01  4.9098300000E-01  2.9700100000E-01
                       7.5000000000E-01  9.9098300000E-01  2.0299900000E-01
                       2.5000000000E-01  5.0901700000E-01  7.0299900000E-01
                       2.5000000000E-01  9.0170000000E-03  7.9700100000E-01
                       7.5000000000E-01  7.3051000000E-01  9.0066500000E-01
                       2.5000000000E-01  2.6949000000E-01  9.9335000000E-02
                       7.5000000000E-01  2.3051000000E-01  5.9933500000E-01
                       2.5000000000E-01  7.6949000000E-01  4.0066500000E-01
            znucl        3.00000   20.00000   51.00000

- Timing analysis has been suppressed with timopt=0

 Suggested references for the acknowledgment of ABINIT usage.

 Calculation completed.
.Delivered   2 WARNINGs and   5 COMMENTs to log file.