.Version 9.5.2 of ABINIT

 ABINIT is a project of the Universite Catholique de Louvain,
 Corning Inc. and other collaborators, see ~abinit/doc/developers/contributors.txt .
 acknowledgments of the ABINIT effort.

.Starting date : Mon 24 May 2021.
- ( at 17h08 )

- input  file    -> /scratch/users/j/a/jabreu/flow_simple_10atoms/flow/w377/t1/run.abi
- output file    -> /scratch/users/j/a/jabreu/flow_simple_10atoms/flow/w377/t1/run.abo
- root for input  files -> /scratch/users/j/a/jabreu/flow_simple_10atoms/flow/w377/t1/indata/in
- root for output files -> /scratch/users/j/a/jabreu/flow_simple_10atoms/flow/w377/t1/outdata/out

 Symmetries : space group Cc (#  9); Bravais mC (1-face-center monocl.)
     intxc =       0      iscf =       7    lmnmax =      18     lnmax =       6
     mgfft =      90  mpssoang =       3    mqgrid =    3501     natom =      10
  nloc_mem =       1    nspden =       1   nspinor =       1    nsppol =       1
      nsym =       2    n1xccc =    2501    ntypat =       2    occopt =       1
   xclevel =       2
-    mband =          63        mffmem =           1         mkmem =           2
-   mkqmem =           2        mk1mem =           2           mpw =       22347
      nfft =      576000          nkpt =           2
  Rough estimation (10% accuracy) of disk space for files :

------------- Echo of variables that govern the present computation ------------
-
- outvars: echo of selected default values
-   iomode0 =  0 , fftalg0 =512 , wfoptalg0 =  0
-
- outvars: echo of global parameters not present in the input file
-  max_nthreads =    0
-
 -outvars: echo values of preprocessed input variables --------
            acell      1.0000000000E+00  1.0000000000E+00  1.0000000000E+00 Bohr
              amu      2.69815390E+01  7.89600000E+01
             ecut      4.30000000E+01 Hartree
-          fftalg         512
           irdden           1
           irdwfk           1
           istwfk        0    1
              ixc     -116133
              kpt      1.20781146E-01 -1.20781146E-01  0.00000000E+00
                       0.00000000E+00  0.00000000E+00  0.00000000E+00
           kptopt           0
P           mkmem           2
P          mkqmem           2
P          mk1mem           2
            natom          10
            nband          63
           nbdbuf           4
            ngfft          80      80      90
             nkpt           2
            nstep        2000
             nsym           2
           ntypat           2
              occ      2.000000  2.000000  2.000000  2.000000  2.000000  2.000000
                       2.000000  2.000000  2.000000  2.000000  2.000000  2.000000
                       2.000000  2.000000  2.000000  2.000000  2.000000  2.000000
                       2.000000  2.000000  2.000000  2.000000  2.000000  2.000000
                       2.000000  2.000000  2.000000  2.000000  2.000000  2.000000
                       2.000000  2.000000  2.000000  2.000000  2.000000  2.000000
                       2.000000  2.000000  2.000000  2.000000  2.000000  2.000000
                       2.000000  2.000000  2.000000  2.000000  2.000000  2.000000
                       2.000000  2.000000  2.000000  2.000000  2.000000  2.000000
                       0.000000  0.000000  0.000000  0.000000  0.000000  0.000000
                       0.000000  0.000000  0.000000
        optdriver           1
            prtwf          -1
            rfdir           1       1       1
           rfelfd           2
            rprim      1.1373899952E+01  0.0000000000E+00  5.6864354678E+00
                       4.3210164633E+00  1.0521141423E+01  5.6864354678E+00
                       0.0000000000E+00  0.0000000000E+00  1.3842182069E+01
          spgroup           9
           symrel      1  0  0   0  1  0   0  0  1       0  1  0   1  0  0   0  0  1
            tnons      0.0000000  0.0000000  0.0000000     0.0000000  0.0000000  0.5000000
           tolwfr      1.00000000E-20
            typat      1  1  1  1  2  2  2  2  2  2
           useylm           1
              wtk        0.50000    0.50000
           xangst      3.4526389557E+00  3.0873892334E+00  3.6975415798E+00
                       4.1675914789E+00  2.0208585557E+00  7.3600252138E+00
                       6.3967351938E+00  4.8242527204E+00  5.6614409976E+00
                       6.8927143324E+00  4.0843756660E+00  9.3239246316E+00
                       2.6611115644E+00  5.1402110836E+00  1.0286329437E+01
                       5.7657966846E+00  5.0879596432E-01  6.6238458028E+00
                       2.9819064236E+00  1.3455149530E+00  2.0506997323E+00
                       2.3774800174E+00  2.2471682569E+00  5.7131833662E+00
                       5.8664186905E+00  3.1245025100E+00  4.0110284363E+00
                       5.1189323603E+00  4.2395655059E+00  7.6735120702E+00
            xcart      6.5245420620E+00  5.8343201168E+00  6.9873409508E+00
                       7.8756065288E+00  3.8188692235E+00  1.3908431985E+01
                       1.2088077661E+01  9.1165164374E+00  1.0698573003E+01
                       1.3025342401E+01  7.7183514326E+00  1.7619664037E+01
                       5.0287720657E+00  9.7135912132E+00  1.9438345548E+01
                       1.0895776672E+01  9.6148503009E-01  1.2517254514E+01
                       5.6349864945E+00  2.5426547689E+00  3.8752608747E+00
                       4.4927861192E+00  4.2465325801E+00  1.0796351909E+01
                       1.1085924706E+01  5.9044540455E+00  7.5797452558E+00
                       9.6733802537E+00  8.0116177286E+00  1.4500836290E+01
             xred      3.6297100000E-01  5.5453300000E-01  1.2787100000E-01
                       5.5453300000E-01  3.6297100000E-01  6.2787100000E-01
                       7.3360400000E-01  8.6649500000E-01  1.1556800000E-01
                       8.6649500000E-01  7.3360400000E-01  6.1556800000E-01
                       9.1386000000E-02  9.2324500000E-01  9.8746800000E-01
                       9.2324500000E-01  9.1386000000E-02  4.8746800000E-01
                       4.0361900000E-01  2.4167100000E-01  1.4872000000E-02
                       2.4167100000E-01  4.0361900000E-01  5.1487200000E-01
                       7.6147800000E-01  5.6119900000E-01  4.2210000000E-03
                       5.6119900000E-01  7.6147800000E-01  5.0422100000E-01
            znucl       13.00000   34.00000

 chkinp: Checking input parameters for consistency.

== DATASET  1 ==================================================================
-   mpi_nproc: 1, omp_nthreads: -1 (-1 if OMP is not activated)

--- !DatasetInfo
iteration_state: {dtset: 1, }
dimensions: {natom: 10, nkpt: 2, mband: 63, nsppol: 1, nspinor: 1, nspden: 1, mpw: 22347, }
cutoff_energies: {ecut:  43.0, pawecutdg:  -1.0, }
electrons: {nelect:   1.08000000E+02, charge:   0.00000000E+00, occopt:   1.00000000E+00, tsmear:   1.00000000E-02, }
meta: {optdriver: 1, rfelfd: 2, }
...

 Real(R)+Recip(G) space primitive vectors, cartesian coordinates (Bohr,Bohr^-1):
 R(1)= 11.3739000  0.0000000  5.6864355  G(1)=  0.0879206 -0.0361089  0.0000000
 R(2)=  4.3210165 10.5211414  5.6864355  G(2)=  0.0000000  0.0950467  0.0000000
 R(3)=  0.0000000  0.0000000 13.8421821  G(3)= -0.0361182 -0.0242120  0.0722429
 Unit cell volume ucvol=  1.6564442E+03 bohr^3
 Angles (23,13,12)=  6.34370223E+01  6.34370223E+01  5.97411697E+01 degrees

 getcut: wavevector=  0.0000  0.0000  0.0000  ngfft=  80  80  90
         ecut(hartree)=     43.000   => boxcut(ratio)=   2.13141

--- Pseudopotential description ------------------------------------------------
- pspini: atom type   1  psp file is /scratch/users/j/a/jabreu/pseudos/PBEsol/Al.psp8
- pspatm: opening atomic psp file    /scratch/users/j/a/jabreu/pseudos/PBEsol/Al.psp8
- Al    ONCVPSP-3.3.0  r_core=   1.76802   1.76802   1.70587
- 13.00000   3.00000    180112                znucl, zion, pspdat
    8 -116133    2    4       600   0.00000   pspcod,pspxc,lmax,lloc,mmax,r2well
    5.99000000000000    5.00000000000000    0.00000000000000   rchrg,fchrg,qchrg
     nproj     2     2     2
     extension_switch     1
  pspatm : epsatm=    0.68509324
         --- l  ekb(1:nproj) -->
             0    5.834965    0.726662
             1    6.225605    0.924840
             2   -2.432733   -0.548689
 pspatm: atomic psp has been read  and splines computed

- pspini: atom type   2  psp file is /scratch/users/j/a/jabreu/pseudos/PBEsol/Se.psp8
- pspatm: opening atomic psp file    /scratch/users/j/a/jabreu/pseudos/PBEsol/Se.psp8
- Se    ONCVPSP-3.3.0  r_core=   1.81943   1.50330   1.90835
- 34.00000  16.00000    180112                znucl, zion, pspdat
    8 -116133    2    4       600   0.00000   pspcod,pspxc,lmax,lloc,mmax,r2well
    5.99000000000000    5.00000000000000    0.00000000000000   rchrg,fchrg,qchrg
     nproj     2     2     2
     extension_switch     1
  pspatm : epsatm=   29.17862020
         --- l  ekb(1:nproj) -->
             0    8.973804    1.019550
             1    6.849857    1.297308
             2   -9.203962   -3.731027
 pspatm: atomic psp has been read  and splines computed

   1.92037062E+04                                ecore*ucvol(ha*bohr**3)

 ==>  initialize data related to q vector <==

 The list of irreducible perturbations for this q vector is:
    1)    idir= 1    ipert=  11
    2)    idir= 2    ipert=  11
    3)    idir= 3    ipert=  11

 Perturbation wavevector (in red.coord.)   0.000000  0.000000  0.000000
 Perturbation : derivative vs k along direction   1

 dfpt_looppert : COMMENT -
  In a d/dk calculation, iscf is set to -3 automatically.
 The set of symmetries contains only one element for this perturbation.
 symkpt : not enough symmetry to change the number of k points.

 Initialisation of the first-order wave-functions :
  ireadwf=   0

--- !BeginCycle
iteration_state: {dtset: 1, }
solver: {iscf: 7, nstep: 2000, nline: 4, wfoptalg: 0, }
tolerances: {tolwfr: 1.00E-20, }
...

     iter   2DEtotal(Ha)        deltaE(Ha) residm    vres2
-ETOT  1  -93.868087961647     -9.387E+01 1.245E-01 0.000E+00
 ETOT  2  -93.955580757864     -8.749E-02 8.281E-03 0.000E+00
 ETOT  3  -93.955803100158     -2.223E-04 4.520E-04 0.000E+00
 ETOT  4  -93.955805248400     -2.148E-06 7.199E-05 0.000E+00
 ETOT  5  -93.955805274032     -2.563E-08 4.995E-06 0.000E+00
 ETOT  6  -93.955805274359     -3.272E-10 9.856E-07 0.000E+00
 ETOT  7  -93.955805274364     -4.405E-12 7.988E-08 0.000E+00
 ETOT  8  -93.955805274364     -8.527E-14 1.752E-08 0.000E+00
 ETOT  9  -93.955805274364      0.000E+00 1.438E-09 0.000E+00
 ETOT 10  -93.955805274364      2.842E-14 3.277E-10 0.000E+00
 ETOT 11  -93.955805274364      0.000E+00 2.679E-11 0.000E+00
 ETOT 12  -93.955805274364     -2.842E-14 6.229E-12 0.000E+00
 ETOT 13  -93.955805274364      1.421E-14 5.059E-13 0.000E+00
 ETOT 14  -93.955805274364      0.000E+00 1.193E-13 0.000E+00
 ETOT 15  -93.955805274364      1.421E-14 9.621E-15 0.000E+00
 ETOT 16  -93.955805274364      0.000E+00 2.293E-15 0.000E+00
 ETOT 17  -93.955805274364      0.000E+00 1.839E-16 0.000E+00
 ETOT 18  -93.955805274364     -1.421E-14 4.424E-17 0.000E+00
 ETOT 19  -93.955805274364      0.000E+00 3.526E-18 0.000E+00
 ETOT 20  -93.955805274364      1.421E-14 8.556E-19 0.000E+00
 ETOT 21  -93.955805274364      0.000E+00 6.783E-20 0.000E+00
 ETOT 22  -93.955805274364      0.000E+00 1.658E-20 0.000E+00
 ETOT 23  -93.955805274364      0.000E+00 9.849E-21 0.000E+00

 At SCF step   23   max residual=  9.85E-21 < tolwfr=  1.00E-20 =>converged.

 ----iterations are completed or convergence reached----

 dfpt_looppert: DFPT cycle converged with prtwf=-1. Will skip output of the 1st-order WFK file.
 dfpt_looppert : ek2=    7.7034943998E+01
          f-sum rule ratio=    1.0433437226E+00
 prteigrs : about to open file /scratch/users/j/a/jabreu/flow_simple_10atoms/flow/w377/t1/tmpdata/tmp_1WF1_EIG
 Expectation of eigenvalue derivatives (hartree) for nkpt=   2  k points:
  (in case of degenerate eigenvalues, averaged derivative)
 kpt#   1, nband= 63, wtk=  0.50000, kpt=  0.1208 -0.1208  0.0000 (reduced coord)
  -0.00000    0.00000    0.00000   -0.00000   -0.00000    0.00000   -0.00000    0.00000
  -0.00000   -0.00000    0.00000   -0.00000   -0.00000   -0.00000    0.00000   -0.00000
   0.00000    0.00000    0.00000   -0.00000   -0.00000    0.00000   -0.00000   -0.00000
  -0.00000   -0.00000   -0.00000   -0.00000    0.00000   -0.00000    0.02630   -0.02874
   0.00592    0.00160   -0.02212   -0.00342   -0.00150    0.02069    0.03070   -0.03881
   0.01423    0.03774    0.10050    0.08844   -0.01530    0.05598   -0.03694    0.01101
  -0.08762   -0.10602   -0.07195   -0.05212   -0.01992   -0.00028    0.09981   -0.04548
   0.08266    0.02240   -0.02643    0.07494   -0.08147   -0.10903   -0.05598
 prteigrs : prtvol=0 or 1, do not print more k-points.

 Eight components of 2nd-order total energy (hartree) are
 1,2,3: 0th-order hamiltonian combined with 1st-order wavefunctions
     kin0=   1.03589758E+02 eigvalue=   1.55003772E+01  local=  -4.35792816E+01
 4,5,6: 1st-order hamiltonian combined with 1st and 0th-order wfs
     kin1=  -8.03739252E+01  Hartree=   0.00000000E+00     xc=   0.00000000E+00
 7,8,9: eventually, occupation + non-local contributions
    edocc=   9.12043995E+00     enl0=   9.32451166E+00   enl1=  -1.07537685E+02
 1-9 gives the relaxation energy (to be shifted if some occ is /=2.0)
   erelax=  -9.39558053E+01
  No Ewald or frozen-wf contrib.: the relaxation energy is the total one
 2DEtotal=   -0.9395580527E+02 Ha. Also 2DEtotal=   -0.255666748320E+04 eV
    (  non-var. 2DEtotal :   -9.3955805274E+01 Ha)

 Perturbation wavevector (in red.coord.)   0.000000  0.000000  0.000000
 Perturbation : derivative vs k along direction   2
 The set of symmetries contains only one element for this perturbation.
 symkpt : not enough symmetry to change the number of k points.

[...]

 Perturbation wavevector (in red.coord.)   0.000000  0.000000  0.000000
 Perturbation : derivative vs k along direction   3
 The set of symmetries contains only one element for this perturbation.
 symkpt : not enough symmetry to change the number of k points.

 Initialisation of the first-order wave-functions :
  ireadwf=   0

--- !BeginCycle
iteration_state: {dtset: 1, }
solver: {iscf: 7, nstep: 2000, nline: 4, wfoptalg: 0, }
tolerances: {tolwfr: 1.00E-20, }
...

     iter   2DEtotal(Ha)        deltaE(Ha) residm    vres2
-ETOT  1  -75.726608820403     -7.573E+01 1.747E-01 0.000E+00
 ETOT  2  -75.795791790561     -6.918E-02 1.187E-02 0.000E+00
 ETOT  3  -75.795952184444     -1.604E-04 1.148E-03 0.000E+00
 ETOT  4  -75.795953614379     -1.430E-06 1.295E-04 0.000E+00
 ETOT  5  -75.795953630452     -1.607E-08 1.483E-05 0.000E+00
 ETOT  6  -75.795953630643     -1.910E-10 1.886E-06 0.000E+00
 ETOT  7  -75.795953630645     -2.331E-12 2.145E-07 0.000E+00
 ETOT  8  -75.795953630645     -8.527E-14 2.846E-08 0.000E+00
 ETOT  9  -75.795953630645      4.263E-14 3.189E-09 0.000E+00
 ETOT 10  -75.795953630645     -1.421E-14 4.347E-10 0.000E+00
 ETOT 11  -75.795953630645      1.421E-14 4.808E-11 0.000E+00
 ETOT 12  -75.795953630645      0.000E+00 6.684E-12 0.000E+00
 ETOT 13  -75.795953630645      1.421E-14 7.312E-13 0.000E+00
 ETOT 14  -75.795953630645      0.000E+00 1.032E-13 0.000E+00
 ETOT 15  -75.795953630645     -1.421E-14 1.119E-14 0.000E+00
 ETOT 16  -75.795953630645      1.421E-14 1.598E-15 0.000E+00
 ETOT 17  -75.795953630645     -2.842E-14 1.719E-16 0.000E+00
 ETOT 18  -75.795953630645      1.421E-14 2.481E-17 0.000E+00
 ETOT 19  -75.795953630645      0.000E+00 2.651E-18 0.000E+00
 ETOT 20  -75.795953630645     -1.421E-14 3.859E-19 0.000E+00
 ETOT 21  -75.795953630645      2.842E-14 4.100E-20 0.000E+00
 ETOT 22  -75.795953630645     -1.421E-14 9.917E-21 0.000E+00

 At SCF step   22   max residual=  9.92E-21 < tolwfr=  1.00E-20 =>converged.

 ----iterations are completed or convergence reached----

 dfpt_looppert: DFPT cycle converged with prtwf=-1. Will skip output of the 1st-order WFK file.
 dfpt_looppert : ek2=    6.0627558212E+01
          f-sum rule ratio=    1.1037827810E+00
 prteigrs : about to open file /scratch/users/j/a/jabreu/flow_simple_10atoms/flow/w377/t1/tmpdata/tmp_1WF1_EIG
 Expectation of eigenvalue derivatives (hartree) for nkpt=   2  k points:
  (in case of degenerate eigenvalues, averaged derivative)
 kpt#   1, nband= 63, wtk=  0.50000, kpt=  0.1208 -0.1208  0.0000 (reduced coord)
  -0.00000   -0.00000    0.00000   -0.00000    0.00000   -0.00000   -0.00000    0.00000
  -0.00000    0.00000   -0.00000   -0.00000    0.00000   -0.00000    0.00000   -0.00000
  -0.00000    0.00000   -0.00000    0.00000   -0.00000    0.00000    0.00000    0.00000
  -0.00000   -0.00000    0.00000   -0.00000    0.00000   -0.00000   -0.00000   -0.00000
  -0.00000    0.00000    0.00000    0.00000   -0.00000   -0.00000    0.00000   -0.00000
   0.00000    0.00000   -0.00000   -0.00000    0.00000    0.00000   -0.00000   -0.00000
  -0.00000   -0.00000    0.00000   -0.00000    0.00000   -0.00000    0.00000   -0.00000
  -0.00000    0.00000    0.00000    0.00000   -0.00000    0.00000    0.00003
 prteigrs : prtvol=0 or 1, do not print more k-points.

 Eight components of 2nd-order total energy (hartree) are
 1,2,3: 0th-order hamiltonian combined with 1st-order wavefunctions
     kin0=   7.93748089E+01 eigvalue=   1.20483072E+01  local=  -3.27091298E+01
 4,5,6: 1st-order hamiltonian combined with 1st and 0th-order wfs
     kin1=  -6.69196548E+01  Hartree=   0.00000000E+00     xc=   0.00000000E+00
 7,8,9: eventually, occupation + non-local contributions
    edocc=   9.81117749E+00     enl0=   7.27078976E+00   enl1=  -8.46722525E+01
 1-9 gives the relaxation energy (to be shifted if some occ is /=2.0)
   erelax=  -7.57959536E+01
  No Ewald or frozen-wf contrib.: the relaxation energy is the total one
 2DEtotal=   -0.7579595363E+02 Ha. Also 2DEtotal=   -0.206251278928E+04 eV
    (  non-var. 2DEtotal :   -7.5795953630E+01 Ha)

 CALCULATION OF EFFECTIVE MASSES
 NOTE : Additional infos (eff. mass eigenvalues, eigenvectors and, if degenerate, average mass) are available in stdout.

 K-point ( 0.121,-0.121, 0.000) | band =    54
 Effective mass tensor:
             -2.6645125551              0.8691640953             -0.3124257000
              0.8691640953             -3.3784263584             -0.2094362770
             -0.3124257000             -0.2094362770             -0.5504249476
 Effective mass tensor eigenvalues:
             -3.9610781275             -2.1692532371             -0.4630324965
 Angular average effective mass 1/(<1/m>)=  -1.0441609473
 Angular average effective mass for Frohlich model (<m**0.5>)**2=  -1.3479190986
 Effective masses along directions: (cart. coord. / red. coord. -> eff. mass)
    1:   1.000000  0.000000  0.000000 /   0.934813  0.355141  0.000000 ->  -2.1912375561
    2:   0.000000  1.000000  0.000000 /   0.000000  1.000000  0.000000 ->  -2.9062321399
    3:   0.000000  0.000000  1.000000 /   0.355210  0.355210  0.864669 ->  -0.4824696966
    4:   0.577350  0.577350  0.577350 /   0.567392  0.682739  0.460363 ->  -1.4235650163
    5:   0.000000  0.707107  0.707107 /   0.257776  0.734717  0.627489 ->  -1.0001333502
    6:   0.707107  0.000000  0.707107 /   0.706682  0.414534  0.573378 ->  -1.0488006854
    7:   0.707107  0.707107  0.000000 /   0.608260  0.793738  0.000000 ->  -1.8624883176

 K-point ( 0.000, 0.000, 0.000) | band =    55
 Effective mass tensor:
              0.1981706327             -0.0085482646              0.0158781633
             -0.0085482646              0.2051924404              0.0106441393
              0.0158781633              0.0106441393              0.1650817366
 Effective mass tensor eigenvalues:
              0.1552549363              0.2022671641              0.2109227093
 Angular average effective mass 1/(<1/m>)=   0.1860344160
 Angular average effective mass for Frohlich model (<m**0.5>)**2=   0.1871087109
 Effective masses along directions: (cart. coord. / red. coord. -> eff. mass)
    1:   1.000000  0.000000  0.000000 /   0.934813  0.355141  0.000000 ->   0.1961953861
    2:   0.000000  1.000000  0.000000 /   0.000000  1.000000  0.000000 ->   0.2040401864
    3:   0.000000  0.000000  1.000000 /   0.355210  0.355210  0.864669 ->   0.1631828950
    4:   0.577350  0.577350  0.577350 /   0.567392  0.682739  0.460363 ->   0.2011529548
    5:   0.000000  0.707107  0.707107 /   0.257776  0.734717  0.627489 ->   0.1932146226
    6:   0.707107  0.000000  0.707107 /   0.706682  0.414534  0.573378 ->   0.1958135052
    7:   0.707107  0.707107  0.000000 /   0.608260  0.793738  0.000000 ->   0.1909291671

 END OF EFFECTIVE MASSES SECTION

 ---- first-order wavefunction calculations are completed ----

 Total localisation tensor (bohr^2) in cartesian coordinates
  WARNING : still subject to testing - especially symmetries.
      direction              matrix element
   alpha     beta       real part   imaginary part
     1        1       1.5804767442    0.0000000000
     1        2       0.4853640936    0.0000000000
     1        3       0.9528349079    0.0000000000
     2        1       0.4853640936    0.0000000000
     2        2       1.1818016233    0.0000000000
     2        3       0.6387366538    0.0000000000
     3        1       0.9528349079    0.0000000000
     3        2       0.6387366538    0.0000000000
     3        3       2.6239246091    0.0000000000

 respfn : d/dk was computed, but no 2DTE, so no DDB output.

== END DATASET(S) ==============================================================

 -outvars: echo values of variables after computation  --------
            acell      1.0000000000E+00  1.0000000000E+00  1.0000000000E+00 Bohr
              amu      2.69815390E+01  7.89600000E+01
             ecut      4.30000000E+01 Hartree
           etotal     -7.5795953631E+01
            fcart      0.0000000000E+00  0.0000000000E+00  0.0000000000E+00
                       0.0000000000E+00  0.0000000000E+00  0.0000000000E+00
                       0.0000000000E+00  0.0000000000E+00  0.0000000000E+00
                       0.0000000000E+00  0.0000000000E+00  0.0000000000E+00
                       0.0000000000E+00  0.0000000000E+00  0.0000000000E+00
                       0.0000000000E+00  0.0000000000E+00  0.0000000000E+00
                       0.0000000000E+00  0.0000000000E+00  0.0000000000E+00
                       0.0000000000E+00  0.0000000000E+00  0.0000000000E+00
                       0.0000000000E+00  0.0000000000E+00  0.0000000000E+00
                       0.0000000000E+00  0.0000000000E+00  0.0000000000E+00
-          fftalg         512
           irdden           1
           irdwfk           1
           istwfk        0    1
              ixc     -116133
              kpt      1.20781146E-01 -1.20781146E-01  0.00000000E+00
                       0.00000000E+00  0.00000000E+00  0.00000000E+00
           kptopt           0
P           mkmem           2
P          mkqmem           2
P          mk1mem           2
            natom          10
            nband          63
           nbdbuf           4
            ngfft          80      80      90
             nkpt           2
            nstep        2000
             nsym           2
           ntypat           2
              occ      2.000000  2.000000  2.000000  2.000000  2.000000  2.000000
                       2.000000  2.000000  2.000000  2.000000  2.000000  2.000000
                       2.000000  2.000000  2.000000  2.000000  2.000000  2.000000
                       2.000000  2.000000  2.000000  2.000000  2.000000  2.000000
                       2.000000  2.000000  2.000000  2.000000  2.000000  2.000000
                       2.000000  2.000000  2.000000  2.000000  2.000000  2.000000
                       2.000000  2.000000  2.000000  2.000000  2.000000  2.000000
                       2.000000  2.000000  2.000000  2.000000  2.000000  2.000000
                       2.000000  2.000000  2.000000  2.000000  2.000000  2.000000
                       0.000000  0.000000  0.000000  0.000000  0.000000  0.000000
                       0.000000  0.000000  0.000000
        optdriver           1
            prtwf          -1
            rfdir           1       1       1
           rfelfd           2
            rprim      1.1373899952E+01  0.0000000000E+00  5.6864354678E+00
                       4.3210164633E+00  1.0521141423E+01  5.6864354678E+00
                       0.0000000000E+00  0.0000000000E+00  1.3842182069E+01
          spgroup           9
           strten      0.0000000000E+00  0.0000000000E+00  0.0000000000E+00
                       0.0000000000E+00  0.0000000000E+00  0.0000000000E+00
           symrel      1  0  0   0  1  0   0  0  1       0  1  0   1  0  0   0  0  1
            tnons      0.0000000  0.0000000  0.0000000     0.0000000  0.0000000  0.5000000
           tolwfr      1.00000000E-20
            typat      1  1  1  1  2  2  2  2  2  2
           useylm           1
              wtk        0.50000    0.50000
           xangst      3.4526389557E+00  3.0873892334E+00  3.6975415798E+00
                       4.1675914789E+00  2.0208585557E+00  7.3600252138E+00
                       6.3967351938E+00  4.8242527204E+00  5.6614409976E+00
                       6.8927143324E+00  4.0843756660E+00  9.3239246316E+00
                       2.6611115644E+00  5.1402110836E+00  1.0286329437E+01
                       5.7657966846E+00  5.0879596432E-01  6.6238458028E+00
                       2.9819064236E+00  1.3455149530E+00  2.0506997323E+00
                       2.3774800174E+00  2.2471682569E+00  5.7131833662E+00
                       5.8664186905E+00  3.1245025100E+00  4.0110284363E+00
                       5.1189323603E+00  4.2395655059E+00  7.6735120702E+00
            xcart      6.5245420620E+00  5.8343201168E+00  6.9873409508E+00
                       7.8756065288E+00  3.8188692235E+00  1.3908431985E+01
                       1.2088077661E+01  9.1165164374E+00  1.0698573003E+01
                       1.3025342401E+01  7.7183514326E+00  1.7619664037E+01
                       5.0287720657E+00  9.7135912132E+00  1.9438345548E+01
                       1.0895776672E+01  9.6148503009E-01  1.2517254514E+01
                       5.6349864945E+00  2.5426547689E+00  3.8752608747E+00
                       4.4927861192E+00  4.2465325801E+00  1.0796351909E+01
                       1.1085924706E+01  5.9044540455E+00  7.5797452558E+00
                       9.6733802537E+00  8.0116177286E+00  1.4500836290E+01
             xred      3.6297100000E-01  5.5453300000E-01  1.2787100000E-01
                       5.5453300000E-01  3.6297100000E-01  6.2787100000E-01
                       7.3360400000E-01  8.6649500000E-01  1.1556800000E-01
                       8.6649500000E-01  7.3360400000E-01  6.1556800000E-01
                       9.1386000000E-02  9.2324500000E-01  9.8746800000E-01
                       9.2324500000E-01  9.1386000000E-02  4.8746800000E-01
                       4.0361900000E-01  2.4167100000E-01  1.4872000000E-02
                       2.4167100000E-01  4.0361900000E-01  5.1487200000E-01
                       7.6147800000E-01  5.6119900000E-01  4.2210000000E-03
                       5.6119900000E-01  7.6147800000E-01  5.0422100000E-01
            znucl       13.00000   34.00000

- Timing analysis has been suppressed with timopt=0

 Suggested references for the acknowledgment of ABINIT usage.

 Calculation completed.
.Delivered   2 WARNINGs and   5 COMMENTs to log file.