.Version 9.5.1 of ABINIT

 ABINIT is a project of the Universite Catholique de Louvain,
 Corning Inc. and other collaborators, see ~abinit/doc/developers/contributors.txt .
 acknowledgments of the ABINIT effort.

.Starting date : Tue 27 Apr 2021.
- ( at 18h30 )

- input  file    -> /scratch/users/j/a/jabreu/flow_simple_4atoms/flow/w176/t1/run.abi
- output file    -> /scratch/users/j/a/jabreu/flow_simple_4atoms/flow/w176/t1/run.abo
- root for input  files -> /scratch/users/j/a/jabreu/flow_simple_4atoms/flow/w176/t1/indata/in
- root for output files -> /scratch/users/j/a/jabreu/flow_simple_4atoms/flow/w176/t1/outdata/out

 Symmetries : space group R-3 m (#166); Bravais hR (rhombohedral)
     intxc =       0      iscf =       7    lmnmax =      18     lnmax =       6
     mgfft =      80  mpssoang =       3    mqgrid =    3001     natom =       4
  nloc_mem =       1    nspden =       1   nspinor =       1    nsppol =       1
      nsym =      12    n1xccc =    2501    ntypat =       3    occopt =       1
   xclevel =       2
-    mband =          32        mffmem =           1         mkmem =           2
-   mkqmem =           2        mk1mem =           2           mpw =        8083
      nfft =      512000          nkpt =           2
  Rough estimation (10% accuracy) of disk space for files :

------------- Echo of variables that govern the present computation ------------
-
- outvars: echo of selected default values
-   iomode0 =  0 , fftalg0 =512 , wfoptalg0 =  0
-
- outvars: echo of global parameters not present in the input file
-  max_nthreads =    0
-
 -outvars: echo values of preprocessed input variables --------
            acell      1.0000000000E+00  1.0000000000E+00  1.0000000000E+00 Bohr
              amu      6.94100000E+00  8.89058500E+01  7.89600000E+01
             ecut      4.30000000E+01 Hartree
-          fftalg         512
           irdden           1
           irdwfk           1
           istwfk        0    1
              ixc     -116133
              kpt      1.04337135E-02  0.00000000E+00 -1.04337135E-02
                       5.00000000E-01  5.00000000E-01  0.00000000E+00
           kptopt           0
P           mkmem           2
P          mkqmem           2
P          mk1mem           2
            natom           4
            nband          32
           nbdbuf           4
            ngfft          80      80      80
             nkpt           2
            nstep         100
             nsym          12
           ntypat           3
              occ      2.000000  2.000000  2.000000  2.000000  2.000000  2.000000
                       2.000000  2.000000  2.000000  2.000000  2.000000  2.000000
                       2.000000  2.000000  2.000000  2.000000  2.000000  2.000000
                       2.000000  2.000000  2.000000  2.000000  2.000000  0.000000
                       0.000000  0.000000  0.000000  0.000000  0.000000  0.000000
                       0.000000  0.000000
        optdriver           1
            prtwf          -1
            rfdir           1       1       1
           rfelfd           2
            rprim      7.2423231586E+00  0.0000000000E+00  1.0587876976E+01
                       3.2747539290E+00  6.4596618671E+00  1.0587876976E+01
                       0.0000000000E+00  0.0000000000E+00  1.2827875256E+01
          spgroup         166
           symrel      1  0  0   0  1  0   0  0  1      -1  0  0   0 -1  0   0  0 -1
                       0  1  0   1  0  0   0  0  1       0 -1  0  -1  0  0   0  0 -1
                       0  0  1   1  0  0   0  1  0       0  0 -1  -1  0  0   0 -1  0
                       1  0  0   0  0  1   0  1  0      -1  0  0   0  0 -1   0 -1  0
                       0  1  0   0  0  1   1  0  0       0 -1  0   0  0 -1  -1  0  0
                       0  0  1   0  1  0   1  0  0       0  0 -1   0 -1  0  -1  0  0
           tolwfr      1.00000000E-20
            typat      1  2  3  3
           useylm           1
              wtk        0.50000    0.50000
           xangst      2.7826987479E+00  1.7091529176E+00  8.9969727933E+00
                       0.0000000000E+00  0.0000000000E+00  0.0000000000E+00
                       1.3813427892E+00  8.4843034493E-01  4.4661332825E+00
                       4.1840547065E+00  2.5698754903E+00  1.3527812304E+01
            xcart      5.2585385438E+00  3.2298309335E+00  1.7001814604E+01
                       0.0000000000E+00  0.0000000000E+00  0.0000000000E+00
                       2.6103595673E+00  1.6033009947E+00  8.4397687768E+00
                       7.9067175203E+00  4.8563608724E+00  2.5563860432E+01
             xred      5.0000000000E-01  5.0000000000E-01  5.0000000000E-01
                       0.0000000000E+00  0.0000000000E+00  0.0000000000E+00
                       2.4820200000E-01  2.4820200000E-01  2.4820200000E-01
                       7.5179800000E-01  7.5179800000E-01  7.5179800000E-01
            znucl        3.00000   39.00000   34.00000

 chkinp: Checking input parameters for consistency.

== DATASET  1 ==================================================================
-   mpi_nproc: 1, omp_nthreads: -1 (-1 if OMP is not activated)

--- !DatasetInfo
iteration_state: {dtset: 1, }
dimensions: {natom: 4, nkpt: 2, mband: 32, nsppol: 1, nspinor: 1, nspden: 1, mpw: 8083, }
cutoff_energies: {ecut:  43.0, pawecutdg:  -1.0, }
electrons: {nelect:   4.60000000E+01, charge:   0.00000000E+00, occopt:   1.00000000E+00, tsmear:   1.00000000E-02, }
meta: {optdriver: 1, rfelfd: 2, }
...

 Real(R)+Recip(G) space primitive vectors, cartesian coordinates (Bohr,Bohr^-1):
 R(1)=  7.2423232  0.0000000 10.5878770  G(1)=  0.1380772 -0.0699989  0.0000000
 R(2)=  3.2747539  6.4596619 10.5878770  G(2)=  0.0000000  0.1548069  0.0000000
 R(3)=  0.0000000  0.0000000 12.8278753  G(3)= -0.1139663 -0.0699989  0.0779552
 Unit cell volume ucvol=  6.0012596E+02 bohr^3
 Angles (23,13,12)=  3.43729217E+01  3.43729217E+01  3.43729217E+01 degrees

 getcut: wavevector=  0.0000  0.0000  0.0000  ngfft=  80  80  80
         ecut(hartree)=     43.000   => boxcut(ratio)=   2.11269

--- Pseudopotential description ------------------------------------------------
- pspini: atom type   1  psp file is /scratch/users/j/a/jabreu/pseudos/PBEsol/Li.psp8
- pspatm: opening atomic psp file    /scratch/users/j/a/jabreu/pseudos/PBEsol/Li.psp8
- Li    ONCVPSP-3.3.0  r_core=   1.40824   1.10935
-  3.00000   3.00000    180112                znucl, zion, pspdat
    8 -116133    1    4       400   0.00000   pspcod,pspxc,lmax,lloc,mmax,r2well
    3.99000000000000    0.00000000000000    0.00000000000000   rchrg,fchrg,qchrg
     nproj     2     2
     extension_switch     1
  pspatm : epsatm=    2.60859637
         --- l  ekb(1:nproj) -->
             0   -4.855856   -1.482423
             1   -2.171544   -0.427615
 pspatm: atomic psp has been read  and splines computed

- pspini: atom type   2  psp file is /scratch/users/j/a/jabreu/pseudos/PBEsol/Y.psp8
- pspatm: opening atomic psp file    /scratch/users/j/a/jabreu/pseudos/PBEsol/Y.psp8
- Y     ONCVPSP-3.3.0  r_core=   1.60520   1.51226   1.56736
- 39.00000  11.00000    180112                znucl, zion, pspdat
    8 -116133    2    4       600   0.00000   pspcod,pspxc,lmax,lloc,mmax,r2well
    5.99000000000000    4.00000000000000    0.00000000000000   rchrg,fchrg,qchrg
     nproj     2     2     2
     extension_switch     1
  pspatm : epsatm=   18.54790046
         --- l  ekb(1:nproj) -->
             0   10.130768    0.866504
             1    5.598307    0.427135
             2    1.217602    0.315447
 pspatm: atomic psp has been read  and splines computed

- pspini: atom type   3  psp file is /scratch/users/j/a/jabreu/pseudos/PBEsol/Se.psp8
- pspatm: opening atomic psp file    /scratch/users/j/a/jabreu/pseudos/PBEsol/Se.psp8
- Se    ONCVPSP-3.3.0  r_core=   1.81943   1.50330   1.90835
- 34.00000  16.00000    180112                znucl, zion, pspdat
    8 -116133    2    4       600   0.00000   pspcod,pspxc,lmax,lloc,mmax,r2well
    5.99000000000000    5.00000000000000    0.00000000000000   rchrg,fchrg,qchrg
     nproj     2     2     2
     extension_switch     1
  pspatm : epsatm=   29.17862020
         --- l  ekb(1:nproj) -->
             0    8.973804    1.019550
             1    6.849857    1.297308
             2   -9.203962   -3.731027
 pspatm: atomic psp has been read  and splines computed

   3.65763191E+03                                ecore*ucvol(ha*bohr**3)

-inwffil : will read wavefunctions from disk file /scratch/users/j/a/jabreu/flow_simple_4atoms/flow/w176/t1/indata/in_WFK

 ==>  initialize data related to q vector <==

 The list of irreducible perturbations for this q vector is:
    1)    idir= 1    ipert=   5
    2)    idir= 2    ipert=   5
    3)    idir= 3    ipert=   5

 Perturbation wavevector (in red.coord.)   0.000000  0.000000  0.000000
 Perturbation : derivative vs k along direction   1

 dfpt_looppert : COMMENT -
  In a d/dk calculation, iscf is set to -3 automatically.
 The set of symmetries contains only one element for this perturbation.
 symkpt : not enough symmetry to change the number of k points.

[...]

 Initialisation of the first-order wave-functions :
  ireadwf=   0

--- !BeginCycle
iteration_state: {dtset: 1, }
solver: {iscf: 7, nstep: 100, nline: 4, wfoptalg: 0, }
tolerances: {tolwfr: 1.00E-20, }
...

     iter   2DEtotal(Ha)        deltaE(Ha) residm    vres2
-ETOT  1  -99.626342918118     -9.963E+01 7.576E-02 0.000E+00
 ETOT  2  -99.687774600760     -6.143E-02 5.437E-04 0.000E+00
 ETOT  3  -99.687847106938     -7.251E-05 4.390E-06 0.000E+00
 ETOT  4  -99.687847477998     -3.711E-07 1.305E-07 0.000E+00
 ETOT  5  -99.687847480485     -2.487E-09 9.137E-10 0.000E+00
 ETOT  6  -99.687847480503     -1.830E-11 5.069E-11 0.000E+00
 ETOT  7  -99.687847480503     -1.990E-13 3.736E-13 0.000E+00
 ETOT  8  -99.687847480503      8.527E-14 2.138E-14 0.000E+00
 ETOT  9  -99.687847480503      0.000E+00 1.587E-16 0.000E+00
 ETOT 10  -99.687847480503     -4.263E-14 9.184E-18 0.000E+00
 ETOT 11  -99.687847480503      0.000E+00 6.810E-20 0.000E+00
 ETOT 12  -99.687847480503      0.000E+00 9.760E-21 0.000E+00

 At SCF step   12   max residual=  9.76E-21 < tolwfr=  1.00E-20 =>converged.

 ----iterations are completed or convergence reached----

 dfpt_looppert: DFPT cycle converged with prtwf=-1. Will skip output of the 1st-order WFK file.
 dfpt_looppert : ek2=    8.7041826032E+01
          f-sum rule ratio=    1.1892396364E+00
 prteigrs : about to open file /scratch/users/j/a/jabreu/flow_simple_4atoms/flow/w176/t1/tmpdata/tmp_1WF1_EIG
 Expectation of eigenvalue derivatives (hartree) for nkpt=   2  k points:
  (in case of degenerate eigenvalues, averaged derivative)
 kpt#   1, nband= 32, wtk=  0.50000, kpt=  0.0104  0.0000 -0.0104 (reduced coord)
  -0.00001    0.00000   -0.00000    0.00000    0.00000    0.00000   -0.00000    0.00000
   0.00000    0.00000    0.00001    0.00015    0.00068   -0.00253   -0.00050    0.00833
  -0.00088    0.01320   -0.02650    0.00021   -0.07340   -0.01823    0.00000    0.00035
   0.02761    0.00830    0.06499   -0.01665   -0.02943    0.05199    0.01327    0.06324
 prteigrs : prtvol=0 or 1, do not print more k-points.

 Eight components of 2nd-order total energy (hartree) are
 1,2,3: 0th-order hamiltonian combined with 1st-order wavefunctions
     kin0=   8.83728895E+01 eigvalue=   1.45296085E+01  local=  -3.62058006E+01
 4,5,6: 1st-order hamiltonian combined with 1st and 0th-order wfs
     kin1=  -1.03513590E+02  Hartree=   0.00000000E+00     xc=   0.00000000E+00
 7,8,9: eventually, occupation + non-local contributions
    edocc=   2.40536348E+01     enl0=   8.93751523E+00   enl1=  -9.58621054E+01
 1-9 gives the relaxation energy (to be shifted if some occ is /=2.0)
   erelax=  -9.96878475E+01
  No Ewald or frozen-wf contrib.: the relaxation energy is the total one
 2DEtotal=   -0.9968784748E+02 Ha. Also 2DEtotal=   -0.271264428397E+04 eV
    (  non-var. 2DEtotal :   -9.9687847480E+01 Ha)

 Perturbation wavevector (in red.coord.)   0.000000  0.000000  0.000000
 Perturbation : derivative vs k along direction   2
 The set of symmetries contains only one element for this perturbation.
 symkpt : not enough symmetry to change the number of k points.

[...]

 Perturbation wavevector (in red.coord.)   0.000000  0.000000  0.000000
 Perturbation : derivative vs k along direction   3
 The set of symmetries contains only one element for this perturbation.
 symkpt : not enough symmetry to change the number of k points.

-inwffil : will read wavefunctions from disk file /scratch/users/j/a/jabreu/flow_simple_4atoms/flow/w176/t1/indata/in_WFK

 Initialisation of the first-order wave-functions :
  ireadwf=   0

--- !BeginCycle
iteration_state: {dtset: 1, }
solver: {iscf: 7, nstep: 100, nline: 4, wfoptalg: 0, }
tolerances: {tolwfr: 1.00E-20, }
...

     iter   2DEtotal(Ha)        deltaE(Ha) residm    vres2
-ETOT  1  -95.724409264457     -9.572E+01 9.811E-02 0.000E+00
 ETOT  2  -95.782284083818     -5.787E-02 9.882E-04 0.000E+00
 ETOT  3  -95.782337605233     -5.352E-05 3.601E-06 0.000E+00
 ETOT  4  -95.782337890273     -2.850E-07 2.647E-07 0.000E+00
 ETOT  5  -95.782337892319     -2.046E-09 1.235E-09 0.000E+00
 ETOT  6  -95.782337892335     -1.607E-11 1.009E-10 0.000E+00
 ETOT  7  -95.782337892335     -9.948E-14 5.152E-13 0.000E+00
 ETOT  8  -95.782337892335     -1.421E-14 4.371E-14 0.000E+00
 ETOT  9  -95.782337892335      5.684E-14 2.317E-16 0.000E+00
 ETOT 10  -95.782337892335     -1.421E-14 1.964E-17 0.000E+00
 ETOT 11  -95.782337892335      0.000E+00 1.057E-19 0.000E+00
 ETOT 12  -95.782337892335     -2.842E-14 9.951E-21 0.000E+00

 At SCF step   12   max residual=  9.95E-21 < tolwfr=  1.00E-20 =>converged.

 ----iterations are completed or convergence reached----

 dfpt_looppert: DFPT cycle converged with prtwf=-1. Will skip output of the 1st-order WFK file.
 dfpt_looppert : ek2=    8.7041826032E+01
          f-sum rule ratio=    1.1023560565E+00
 prteigrs : about to open file /scratch/users/j/a/jabreu/flow_simple_4atoms/flow/w176/t1/tmpdata/tmp_1WF1_EIG
 Expectation of eigenvalue derivatives (hartree) for nkpt=   2  k points:
  (in case of degenerate eigenvalues, averaged derivative)
 kpt#   1, nband= 32, wtk=  0.50000, kpt=  0.0104  0.0000 -0.0104 (reduced coord)
   0.00001   -0.00000    0.00000   -0.00000   -0.00000   -0.00000    0.00000   -0.00000
  -0.00000   -0.00000   -0.00001   -0.00015   -0.00068    0.00253    0.00050   -0.00833
   0.00088   -0.01320    0.02650   -0.00021    0.07340    0.01823   -0.00000   -0.00035
  -0.02761   -0.00830   -0.06499    0.01665    0.02943   -0.05199   -0.01327   -0.06324
 prteigrs : prtvol=0 or 1, do not print more k-points.

 Eight components of 2nd-order total energy (hartree) are
 1,2,3: 0th-order hamiltonian combined with 1st-order wavefunctions
     kin0=   8.69565512E+01 eigvalue=   1.45364232E+01  local=  -3.50547606E+01
 4,5,6: 1st-order hamiltonian combined with 1st and 0th-order wfs
     kin1=  -9.59510841E+01  Hartree=   0.00000000E+00     xc=   0.00000000E+00
 7,8,9: eventually, occupation + non-local contributions
    edocc=   2.05293110E+01     enl0=   8.81481307E+00   enl1=  -9.56135917E+01
 1-9 gives the relaxation energy (to be shifted if some occ is /=2.0)
   erelax=  -9.57823379E+01
  No Ewald or frozen-wf contrib.: the relaxation energy is the total one
 2DEtotal=   -0.9578233789E+02 Ha. Also 2DEtotal=   -0.260636996340E+04 eV
    (  non-var. 2DEtotal :   -9.5782337892E+01 Ha)

 CALCULATION OF EFFECTIVE MASSES
 NOTE : Additional infos (eff. mass eigenvalues, eigenvectors and, if degenerate, average mass) are available in stdout.

 K-point ( 0.010, 0.000,-0.010) | band =    23
 Effective mass tensor:
           -332.1695719609              6.6267857227            101.6486339455
              6.6267857227           -151.6828551496             21.4254069582
            101.6486339455             21.4254069582            -34.9601496367
 Effective mass tensor eigenvalues:
           -363.6087581199           -155.0031295126             -0.2006891148
 Angular average effective mass 1/(<1/m>)=  -0.6009575684
 Angular average effective mass for Frohlich model (<m**0.5>)**2=  -3.5573259908
 Effective masses along directions: (cart. coord. / red. coord. -> eff. mass)
    1:   1.000000  0.000000  0.000000 /   0.911180  0.412008  0.000000 ->  -2.3351337803
    2:   0.000000  1.000000  0.000000 /   0.000000  1.000000  0.000000 ->  -8.8349228964
    3:   0.000000  0.000000  1.000000 /   0.536992  0.536992  0.650599 ->  -0.2246885632
    4:   0.577350  0.577350  0.577350 /   0.595843  0.679123  0.428677 ->  -0.3142355906
    5:   0.000000  0.707107  0.707107 /   0.444541  0.715755  0.538589 ->  -0.3366264822
    6:   0.707107  0.000000  0.707107 /   0.686466  0.533714  0.493876 ->  -0.2621154872
    7:   0.707107  0.707107  0.000000 /   0.596910  0.802308  0.000000 ->  -2.0672209606

 K-point ( 0.500, 0.500, 0.000) | band =    24
 Effective mass tensor:
              0.6019120649              0.2086262339             -0.5325758067
              0.2086262339              0.3903840950             -0.3271117631
             -0.5325758067             -0.3271117631              1.2705454158
 Effective mass tensor eigenvalues:
              0.2622444118              0.3193636022              1.6812335617
 Angular average effective mass 1/(<1/m>)=   0.3979167624
 Angular average effective mass for Frohlich model (<m**0.5>)**2=   0.4560658703
 Effective masses along directions: (cart. coord. / red. coord. -> eff. mass)
    1:   1.000000  0.000000  0.000000 /   0.911180  0.412008  0.000000 ->   0.3619692307
    2:   0.000000  1.000000  0.000000 /   0.000000  1.000000  0.000000 ->   0.2926622045
    3:   0.000000  0.000000  1.000000 /   0.536992  0.536992  0.650599 ->   0.7354612981
    4:   0.577350  0.577350  0.577350 /   0.595843  0.679123  0.428677 ->   0.3174269413
    5:   0.000000  0.707107  0.707107 /   0.444541  0.715755  0.538589 ->   0.3336078145
    6:   0.707107  0.000000  0.707107 /   0.686466  0.533714  0.493876 ->   0.3275382561
    7:   0.707107  0.707107  0.000000 /   0.596910  0.802308  0.000000 ->   0.4090783925

 END OF EFFECTIVE MASSES SECTION

 ---- first-order wavefunction calculations are completed ----

 Total localisation tensor (bohr^2) in cartesian coordinates
  WARNING : still subject to testing - especially symmetries.
      direction              matrix element
   alpha     beta       real part   imaginary part
     1        1       2.5373059448    0.0000000000
     1        2       0.8538300418    0.0000000000
     1        3       4.4760866527    0.0000000000
     2        1       0.8538300418    0.0000000000
     2        2       1.6842344437    0.0000000000
     2        3       2.7605883181    0.0000000000
     3        1       4.4760866527    0.0000000000
     3        2       2.7605883181    0.0000000000
     3        3      14.3146193631    0.0000000000

 respfn : d/dk was computed, but no 2DTE, so no DDB output.

== END DATASET(S) ==============================================================

 -outvars: echo values of variables after computation  --------
            acell      1.0000000000E+00  1.0000000000E+00  1.0000000000E+00 Bohr
              amu      6.94100000E+00  8.89058500E+01  7.89600000E+01
             ecut      4.30000000E+01 Hartree
           etotal     -9.5782337892E+01
            fcart      0.0000000000E+00  0.0000000000E+00  0.0000000000E+00
                       0.0000000000E+00  0.0000000000E+00  0.0000000000E+00
                       0.0000000000E+00  0.0000000000E+00  0.0000000000E+00
                       0.0000000000E+00  0.0000000000E+00  0.0000000000E+00
-          fftalg         512
           irdden           1
           irdwfk           1
           istwfk        0    1
              ixc     -116133
              kpt      1.04337135E-02  0.00000000E+00 -1.04337135E-02
                       5.00000000E-01  5.00000000E-01  0.00000000E+00
           kptopt           0
P           mkmem           2
P          mkqmem           2
P          mk1mem           2
            natom           4
            nband          32
           nbdbuf           4
            ngfft          80      80      80
             nkpt           2
            nstep         100
             nsym          12
           ntypat           3
              occ      2.000000  2.000000  2.000000  2.000000  2.000000  2.000000
                       2.000000  2.000000  2.000000  2.000000  2.000000  2.000000
                       2.000000  2.000000  2.000000  2.000000  2.000000  2.000000
                       2.000000  2.000000  2.000000  2.000000  2.000000  0.000000
                       0.000000  0.000000  0.000000  0.000000  0.000000  0.000000
                       0.000000  0.000000
        optdriver           1
            prtwf          -1
            rfdir           1       1       1
           rfelfd           2
            rprim      7.2423231586E+00  0.0000000000E+00  1.0587876976E+01
                       3.2747539290E+00  6.4596618671E+00  1.0587876976E+01
                       0.0000000000E+00  0.0000000000E+00  1.2827875256E+01
          spgroup         166
           strten      0.0000000000E+00  0.0000000000E+00  0.0000000000E+00
                       0.0000000000E+00  0.0000000000E+00  0.0000000000E+00
           symrel      1  0  0   0  1  0   0  0  1      -1  0  0   0 -1  0   0  0 -1
                       0  1  0   1  0  0   0  0  1       0 -1  0  -1  0  0   0  0 -1
                       0  0  1   1  0  0   0  1  0       0  0 -1  -1  0  0   0 -1  0
                       1  0  0   0  0  1   0  1  0      -1  0  0   0  0 -1   0 -1  0
                       0  1  0   0  0  1   1  0  0       0 -1  0   0  0 -1  -1  0  0
                       0  0  1   0  1  0   1  0  0       0  0 -1   0 -1  0  -1  0  0
           tolwfr      1.00000000E-20
            typat      1  2  3  3
           useylm           1
              wtk        0.50000    0.50000
           xangst      2.7826987479E+00  1.7091529176E+00  8.9969727933E+00
                       0.0000000000E+00  0.0000000000E+00  0.0000000000E+00
                       1.3813427892E+00  8.4843034493E-01  4.4661332825E+00
                       4.1840547065E+00  2.5698754903E+00  1.3527812304E+01
            xcart      5.2585385438E+00  3.2298309335E+00  1.7001814604E+01
                       0.0000000000E+00  0.0000000000E+00  0.0000000000E+00
                       2.6103595673E+00  1.6033009947E+00  8.4397687768E+00
                       7.9067175203E+00  4.8563608724E+00  2.5563860432E+01
             xred      5.0000000000E-01  5.0000000000E-01  5.0000000000E-01
                       0.0000000000E+00  0.0000000000E+00  0.0000000000E+00
                       2.4820200000E-01  2.4820200000E-01  2.4820200000E-01
                       7.5179800000E-01  7.5179800000E-01  7.5179800000E-01
            znucl        3.00000   39.00000   34.00000

- Timing analysis has been suppressed with timopt=0

 Suggested references for the acknowledgment of ABINIT usage.

 Calculation completed.
.Delivered  14 WARNINGs and   9 COMMENTs to log file.