.Version 9.5.1 of ABINIT

 ABINIT is a project of the Universite Catholique de Louvain,
 Corning Inc. and other collaborators, see ~abinit/doc/developers/contributors.txt .
 acknowledgments of the ABINIT effort.

.Starting date : Tue 11 May 2021.
- ( at 22h08 )

- input  file    -> /scratch/users/j/a/jabreu/flow_simple_8atoms/flow/w391/t1/run.abi
- output file    -> /scratch/users/j/a/jabreu/flow_simple_8atoms/flow/w391/t1/run.abo
- root for input  files -> /scratch/users/j/a/jabreu/flow_simple_8atoms/flow/w391/t1/indata/in
- root for output files -> /scratch/users/j/a/jabreu/flow_simple_8atoms/flow/w391/t1/outdata/out

 Symmetries : space group R-3 m (#166); Bravais hR (rhombohedral)
     intxc =       0      iscf =       7    lmnmax =      25     lnmax =       7
     mgfft =      60  mpssoang =       4    mqgrid =    3001     natom =       8
  nloc_mem =       1    nspden =       1   nspinor =       1    nsppol =       1
      nsym =      12    n1xccc =    2501    ntypat =       3    occopt =       1
   xclevel =       2
-    mband =          44        mffmem =           1         mkmem =           2
-   mkqmem =           2        mk1mem =           2           mpw =       11000
      nfft =      216000          nkpt =           2
  Rough estimation (10% accuracy) of disk space for files :

------------- Echo of variables that govern the present computation ------------
-
- outvars: echo of selected default values
-   iomode0 =  0 , fftalg0 =512 , wfoptalg0 =  0
-
- outvars: echo of global parameters not present in the input file
-  max_nthreads =    0
-
 -outvars: echo values of preprocessed input variables --------
            acell      1.0000000000E+00  1.0000000000E+00  1.0000000000E+00 Bohr
              amu      3.90983000E+01  1.96966540E+02  1.89984032E+01
             ecut      4.20000000E+01 Hartree
-          fftalg         512
           irdden           1
           irdwfk           1
              ixc     -116133
              kpt      5.00000000E-01 -5.00000000E-01  1.08776965E-17
                       5.00000000E-01 -5.00000000E-01  5.00000000E-01
           kptopt           0
P           mkmem           2
P          mkqmem           2
P          mk1mem           2
            natom           8
            nband          44
           nbdbuf           4
            ngfft          60      60      60
             nkpt           2
            nstep        2000
             nsym          12
           ntypat           3
              occ      2.000000  2.000000  2.000000  2.000000  2.000000  2.000000
                       2.000000  2.000000  2.000000  2.000000  2.000000  2.000000
                       2.000000  2.000000  2.000000  2.000000  2.000000  2.000000
                       2.000000  2.000000  2.000000  2.000000  2.000000  2.000000
                       2.000000  2.000000  2.000000  2.000000  2.000000  2.000000
                       2.000000  2.000000  2.000000  2.000000  2.000000  0.000000
                       0.000000  0.000000  0.000000  0.000000  0.000000  0.000000
                       0.000000  0.000000
        optdriver           1
            prtwf          -1
            rfdir           1       1       1
           rfelfd           2
            rprim      9.4672098513E+00  0.0000000000E+00 -1.4848936473E+00
                      -1.7359469306E+00  9.3066938610E+00 -1.4848936473E+00
                       0.0000000000E+00  0.0000000000E+00  9.5829521293E+00
          spgroup         166
           symrel      1  0  0   0  1  0   0  0  1      -1  0  0   0 -1  0   0  0 -1
                       0  1  0   1  0  0   0  0  1       0 -1  0  -1  0  0   0  0 -1
                       0  0  1   1  0  0   0  1  0       0  0 -1  -1  0  0   0 -1  0
                       1  0  0   0  0  1   0  1  0      -1  0  0   0  0 -1   0 -1  0
                       0  1  0   0  0  1   1  0  0       0 -1  0   0  0 -1  -1  0  0
                       0  0  1   0  1  0   1  0  0       0  0 -1   0 -1  0  -1  0  0
           tolwfr      1.00000000E-20
            typat      1  2  3  3  3  3  3  3
           useylm           1
              wtk        0.50000    0.50000
           xangst      2.0456040656E+00  2.4624451393E+00  1.7497680536E+00
                       0.0000000000E+00  0.0000000000E+00  0.0000000000E+00
                       2.9776180988E+00  3.5843794688E+00 -7.9224121664E-01
                       3.5825188464E+00  3.4140816878E-01  3.0644136537E+00
                       4.4124940576E+00  1.3405108098E+00  4.3512245345E-01
                       5.0868928485E-01  4.5834821098E+00  4.3512245345E-01
                       1.1135900325E+00  1.3405108098E+00  4.2917773238E+00
                      -3.2128592632E-01  3.5843794688E+00  3.0644136537E+00
            xcart      3.8656314603E+00  4.6533469305E+00  3.3065824173E+00
                       0.0000000000E+00  0.0000000000E+00  0.0000000000E+00
                       5.6268827351E+00  6.7734955523E+00 -1.4971189306E+00
                       6.7699794856E+00  6.4516793853E-01  5.7909025634E+00
                       8.3384053318E+00  2.5331983087E+00  8.2226227129E-01
                       9.6128343511E-01  8.6615259225E+00  8.2226227129E-01
                       2.1043801856E+00  2.5331983087E+00  8.1102837653E+00
                      -6.0714241109E-01  6.7734955523E+00  5.7909025634E+00
             xred      5.0000000000E-01  5.0000000000E-01  5.0000000000E-01
                       0.0000000000E+00  0.0000000000E+00  0.0000000000E+00
                       7.2780900000E-01  7.2780900000E-01  6.9323000000E-02
                       7.2780900000E-01  6.9323000000E-02  7.2780900000E-01
                       9.3067700000E-01  2.7219100000E-01  2.7219100000E-01
                       2.7219100000E-01  9.3067700000E-01  2.7219100000E-01
                       2.7219100000E-01  2.7219100000E-01  9.3067700000E-01
                       6.9323000000E-02  7.2780900000E-01  7.2780900000E-01
            znucl       19.00000   79.00000    9.00000

 chkinp: Checking input parameters for consistency.

== DATASET  1 ==================================================================
-   mpi_nproc: 1, omp_nthreads: -1 (-1 if OMP is not activated)

--- !DatasetInfo
iteration_state: {dtset: 1, }
dimensions: {natom: 8, nkpt: 2, mband: 44, nsppol: 1, nspinor: 1, nspden: 1, mpw: 11000, }
cutoff_energies: {ecut:  42.0, pawecutdg:  -1.0, }
electrons: {nelect:   7.00000000E+01, charge:   0.00000000E+00, occopt:   1.00000000E+00, tsmear:   1.00000000E-02, }
meta: {optdriver: 1, rfelfd: 2, }
...

 Real(R)+Recip(G) space primitive vectors, cartesian coordinates (Bohr,Bohr^-1):
 R(1)=  9.4672099  0.0000000 -1.4848936  G(1)=  0.1056277  0.0197024  0.0000000
 R(2)= -1.7359469  9.3066939 -1.4848936  G(2)=  0.0000000  0.1074495  0.0000000
 R(3)=  0.0000000  0.0000000  9.5829521  G(3)=  0.0163672  0.0197024  0.1043520
 Unit cell volume ucvol=  8.4433881E+02 bohr^3
 Angles (23,13,12)=  9.89139885E+01  9.89139885E+01  9.89139885E+01 degrees

 getcut: wavevector=  0.0000  0.0000  0.0000  ngfft=  60  60  60
         ecut(hartree)=     42.000   => boxcut(ratio)=   2.14653

--- Pseudopotential description ------------------------------------------------
- pspini: atom type   1  psp file is /scratch/users/j/a/jabreu/pseudos/PBEsol/K.psp8
- pspatm: opening atomic psp file    /scratch/users/j/a/jabreu/pseudos/PBEsol/K.psp8
- K     ONCVPSP-3.3.0  r_core=   1.36296   1.46408   1.61068
- 19.00000   9.00000    180112                znucl, zion, pspdat
    8 -116133    2    4       400   0.00000   pspcod,pspxc,lmax,lloc,mmax,r2well
    3.99000000000000    5.00000000000000    0.00000000000000   rchrg,fchrg,qchrg
     nproj     2     2     2
     extension_switch     1
  pspatm : epsatm=    8.32487830
         --- l  ekb(1:nproj) -->
             0   10.921326    0.816676
             1    4.431000    0.560368
             2   -3.384038   -1.043186
 pspatm: atomic psp has been read  and splines computed

- pspini: atom type   2  psp file is /scratch/users/j/a/jabreu/pseudos/PBEsol/Au.psp8
- pspatm: opening atomic psp file    /scratch/users/j/a/jabreu/pseudos/PBEsol/Au.psp8
- Au    ONCVPSP-3.3.0  r_core=   1.45604   1.56407   1.56407   1.60183
- 79.00000  19.00000    180112                znucl, zion, pspdat
    8 -116133    3    4       500   0.00000   pspcod,pspxc,lmax,lloc,mmax,r2well
    4.99000000000000    5.00000000000000    0.00000000000000   rchrg,fchrg,qchrg
     nproj     2     2     2     1
     extension_switch     1
  pspatm : epsatm=   32.21965837
         --- l  ekb(1:nproj) -->
             0    9.413866   -0.196587
             1    2.474292   -1.517497
             2    1.503483    0.298081
             3    1.177996
 pspatm: atomic psp has been read  and splines computed

- pspini: atom type   3  psp file is /scratch/users/j/a/jabreu/pseudos/PBEsol/F.psp8
- pspatm: opening atomic psp file    /scratch/users/j/a/jabreu/pseudos/PBEsol/F.psp8
- F     ONCVPSP-3.3.0  r_core=   1.30942   1.45782   1.60379
-  9.00000   7.00000    180112                znucl, zion, pspdat
    8 -116133    2    4       600   0.00000   pspcod,pspxc,lmax,lloc,mmax,r2well
    5.99000000000000    2.50000000000000    0.00000000000000   rchrg,fchrg,qchrg
     nproj     2     2     1
     extension_switch     1
  pspatm : epsatm=    4.89824824
         --- l  ekb(1:nproj) -->
             0    6.506434    1.065875
             1   -3.978753   -1.295852
             2   -2.394754
 pspatm: atomic psp has been read  and splines computed

   4.89538183E+03                                ecore*ucvol(ha*bohr**3)

-inwffil : will read wavefunctions from disk file /scratch/users/j/a/jabreu/flow_simple_8atoms/flow/w391/t1/indata/in_WFK

 ==>  initialize data related to q vector <==

 The list of irreducible perturbations for this q vector is:
    1)    idir= 1    ipert=   9
    2)    idir= 2    ipert=   9
    3)    idir= 3    ipert=   9

 Perturbation wavevector (in red.coord.)   0.000000  0.000000  0.000000
 Perturbation : derivative vs k along direction   1

 dfpt_looppert : COMMENT -
  In a d/dk calculation, iscf is set to -3 automatically.
 The set of symmetries contains only one element for this perturbation.
 symkpt : not enough symmetry to change the number of k points.

[...]

 Initialisation of the first-order wave-functions :
  ireadwf=   0

--- !BeginCycle
iteration_state: {dtset: 1, }
solver: {iscf: 7, nstep: 2000, nline: 4, wfoptalg: 0, }
tolerances: {tolwfr: 1.00E-20, }
...

     iter   2DEtotal(Ha)        deltaE(Ha) residm    vres2
-ETOT  1  -33.248723835937     -3.325E+01 1.161E-01 0.000E+00
 ETOT  2  -33.276898722233     -2.817E-02 5.553E-03 0.000E+00
 ETOT  3  -33.277002001048     -1.033E-04 1.848E-03 0.000E+00
 ETOT  4  -33.277002731985     -7.309E-07 1.399E-04 0.000E+00
 ETOT  5  -33.277002738741     -6.757E-09 7.543E-05 0.000E+00
 ETOT  6  -33.277002738812     -7.026E-11 5.471E-06 0.000E+00
 ETOT  7  -33.277002738812     -7.887E-13 3.247E-06 0.000E+00
 ETOT  8  -33.277002738812     -6.395E-14 2.235E-07 0.000E+00
 ETOT  9  -33.277002738812      2.132E-14 1.418E-07 0.000E+00
 ETOT 10  -33.277002738812      1.421E-14 9.364E-09 0.000E+00
[...]
 kpt#   1, nband= 44, wtk=  0.50000, kpt=  0.5000 -0.5000  0.0000 (reduced coord)
   0.00000   -0.00000   -0.00000    0.00000   -0.00000   -0.00000   -0.00000    0.00000
  -0.00000    0.00000   -0.00000    0.00000    0.00000   -0.00000   -0.00000   -0.00000
  -0.00000   -0.00000   -0.00000   -0.00000   -0.00000   -0.00000    0.00000   -0.00000
   0.00000    0.00000   -0.00000   -0.00000   -0.00000   -0.00000   -0.00000   -0.00000
   0.00000    0.00000   -0.00000    0.00000   -0.00000   -0.00000    0.00000   -0.00000
   0.00000   -0.00000   -0.00000   -0.00019
 prteigrs : prtvol=0 or 1, do not print more k-points.

 Eight components of 2nd-order total energy (hartree) are
 1,2,3: 0th-order hamiltonian combined with 1st-order wavefunctions
     kin0=   4.62470087E+01 eigvalue=   3.11520435E+00  local=  -2.18352556E+01
 4,5,6: 1st-order hamiltonian combined with 1st and 0th-order wfs
     kin1=  -6.46022360E+01  Hartree=   0.00000000E+00     xc=   0.00000000E+00
 7,8,9: eventually, occupation + non-local contributions
    edocc=   5.47367063E+00     enl0=   2.76374586E-01   enl1=  -1.95176949E+00
 1-9 gives the relaxation energy (to be shifted if some occ is /=2.0)
   erelax=  -3.32770027E+01
  No Ewald or frozen-wf contrib.: the relaxation energy is the total one
 2DEtotal=   -0.3327700274E+02 Ha. Also 2DEtotal=   -0.905513295236E+03 eV
    (  non-var. 2DEtotal :   -3.3277002739E+01 Ha)

 Perturbation wavevector (in red.coord.)   0.000000  0.000000  0.000000
 Perturbation : derivative vs k along direction   2
 The set of symmetries contains only one element for this perturbation.
 symkpt : not enough symmetry to change the number of k points.

[...]

 Perturbation wavevector (in red.coord.)   0.000000  0.000000  0.000000
 Perturbation : derivative vs k along direction   3
 The set of symmetries contains only one element for this perturbation.
 symkpt : not enough symmetry to change the number of k points.

-inwffil : will read wavefunctions from disk file /scratch/users/j/a/jabreu/flow_simple_8atoms/flow/w391/t1/indata/in_WFK

 Initialisation of the first-order wave-functions :
  ireadwf=   0

--- !BeginCycle
iteration_state: {dtset: 1, }
solver: {iscf: 7, nstep: 2000, nline: 4, wfoptalg: 0, }
tolerances: {tolwfr: 1.00E-20, }
...

     iter   2DEtotal(Ha)        deltaE(Ha) residm    vres2
-ETOT  1  -32.919497849259     -3.292E+01 4.209E-02 0.000E+00
 ETOT  2  -32.948829946811     -2.933E-02 3.939E-03 0.000E+00
 ETOT  3  -32.948929560402     -9.961E-05 2.097E-04 0.000E+00
 ETOT  4  -32.948930269976     -7.096E-07 3.013E-05 0.000E+00
 ETOT  5  -32.948930276584     -6.608E-09 2.463E-06 0.000E+00
 ETOT  6  -32.948930276653     -6.904E-11 3.864E-07 0.000E+00
 ETOT  7  -32.948930276654     -7.390E-13 5.924E-08 0.000E+00
 ETOT  8  -32.948930276654     -7.105E-15 9.230E-09 0.000E+00
 ETOT  9  -32.948930276654      7.105E-15 1.727E-09 0.000E+00
 ETOT 10  -32.948930276654      3.553E-14 2.621E-10 0.000E+00
 ETOT 11  -32.948930276654     -7.105E-15 5.234E-11 0.000E+00
 ETOT 12  -32.948930276654      1.421E-14 7.818E-12 0.000E+00
 ETOT 13  -32.948930276654     -1.421E-14 1.607E-12 0.000E+00
 ETOT 14  -32.948930276654      1.421E-14 2.383E-13 0.000E+00
 ETOT 15  -32.948930276654     -1.421E-14 4.976E-14 0.000E+00
 ETOT 16  -32.948930276654      1.421E-14 7.353E-15 0.000E+00
 ETOT 17  -32.948930276654      0.000E+00 1.550E-15 0.000E+00
 ETOT 18  -32.948930276654     -1.421E-14 2.284E-16 0.000E+00
 ETOT 19  -32.948930276654      1.421E-14 4.860E-17 0.000E+00
 ETOT 20  -32.948930276654      7.105E-15 7.119E-18 0.000E+00
 ETOT 21  -32.948930276654     -2.132E-14 1.532E-18 0.000E+00
 ETOT 22  -32.948930276654      0.000E+00 2.221E-19 0.000E+00
 ETOT 23  -32.948930276654     -7.105E-15 4.854E-20 0.000E+00
 ETOT 24  -32.948930276654      2.132E-14 9.942E-21 0.000E+00

 At SCF step   24   max residual=  9.94E-21 < tolwfr=  1.00E-20 =>converged.

 ----iterations are completed or convergence reached----

 dfpt_looppert: DFPT cycle converged with prtwf=-1. Will skip output of the 1st-order WFK file.
 dfpt_looppert : ek2=    6.3811200599E+01
          f-sum rule ratio=    1.0010196026E+00
 prteigrs : about to open file /scratch/users/j/a/jabreu/flow_simple_8atoms/flow/w391/t1/tmpdata/tmp_1WF1_EIG
 Expectation of eigenvalue derivatives (hartree) for nkpt=   2  k points:
  (in case of degenerate eigenvalues, averaged derivative)
 kpt#   1, nband= 44, wtk=  0.50000, kpt=  0.5000 -0.5000  0.0000 (reduced coord)
  -0.00000   -0.00000   -0.00000    0.00000    0.00000   -0.00000    0.00000   -0.00000
  -0.00000   -0.00000   -0.00000    0.00000   -0.00000    0.00000   -0.00000    0.00000
  -0.00000    0.00000    0.00000    0.00000   -0.00000   -0.00000   -0.00000   -0.00000
  -0.00000    0.00000    0.00000   -0.00000   -0.00000    0.00000   -0.00000    0.00000
   0.00000   -0.00000    0.00000   -0.00000   -0.00000    0.00000    0.00000    0.00000
  -0.00000   -0.00000    0.00000   -0.00005
 prteigrs : prtvol=0 or 1, do not print more k-points.

 Eight components of 2nd-order total energy (hartree) are
 1,2,3: 0th-order hamiltonian combined with 1st-order wavefunctions
     kin0=   4.54762255E+01 eigvalue=   2.98971595E+00  local=  -2.13318133E+01
 4,5,6: 1st-order hamiltonian combined with 1st and 0th-order wfs
     kin1=  -6.38762627E+01  Hartree=   0.00000000E+00     xc=   0.00000000E+00
 7,8,9: eventually, occupation + non-local contributions
    edocc=   5.53009903E+00     enl0=   2.84703118E-01   enl1=  -2.02159789E+00
 1-9 gives the relaxation energy (to be shifted if some occ is /=2.0)
   erelax=  -3.29489303E+01
  No Ewald or frozen-wf contrib.: the relaxation energy is the total one
 2DEtotal=   -0.3294893028E+02 Ha. Also 2DEtotal=   -0.896585989534E+03 eV
    (  non-var. 2DEtotal :   -3.2948930277E+01 Ha)

 CALCULATION OF EFFECTIVE MASSES
 NOTE : Additional infos (eff. mass eigenvalues, eigenvectors and, if degenerate, average mass) are available in stdout.

 K-point ( 0.500,-0.500, 0.000) | band =    35
 Effective mass tensor:
             -4.4352282373             -1.6789717861             -2.0656271912
             -1.6789717861             -5.0615726415             -2.4865475891
             -2.0656271912             -2.4865475891             -5.9348634051
 Effective mass tensor eigenvalues:
             -9.4386995615             -3.0404709658             -2.9524937567
 Angular average effective mass 1/(<1/m>)=  -3.8782741613
 Angular average effective mass for Frohlich model (<m**0.5>)**2=  -4.1494939101
 Effective masses along directions: (cart. coord. / red. coord. -> eff. mass)
    1:   1.000000  0.000000  0.000000 /   0.983601 -0.180357  0.000000 ->  -3.5516437459
    2:   0.000000  1.000000  0.000000 /   0.000000  1.000000  0.000000 ->  -3.8416871136
    3:   0.000000  0.000000  1.000000 /  -0.151360 -0.151360  0.976822 ->  -4.3163379043
    4:   0.577350  0.577350  0.577350 /   0.575194  0.438538  0.690534 ->  -9.0123702503
    5:   0.000000  0.707107  0.707107 /  -0.119186  0.627820  0.769179 ->  -6.3790473428
    6:   0.707107  0.000000  0.707107 /   0.619689 -0.250043  0.743951 ->  -5.4795659503
    7:   0.707107  0.707107  0.000000 /   0.780990  0.624543  0.000000 ->  -4.6740230911

 COMMENTS:
 - At k-point ( 0.500,-0.500, 0.500), bands    36 through    37
   are DEGENERATE (effective mass tensor is therefore not defined).
   See Section IIIB Eqs. (67)-(70) and Appendix E of PRB 93 205147 (2016).
 - Angular average effective mass for Frohlich model is to be averaged over degenerate bands. See later.
 - Associated theta integrals calculated with ntheta=   1000 points.

 K-point ( 0.500,-0.500, 0.500) | band =    36
 Transport equivalent effective mass tensor:
             66.3110366033            -25.1851142120            -17.8995112004
            -25.1851142120             56.9297410833            -21.5373402009
            -17.8995112004            -21.5373402009             71.9303152405
 Transport equivalent effective mass tensor eigenvalues:
             87.2400879248             87.2357173210             20.6952876813
 Angular average effective mass 1/(<1/m>)=   6.9422699556
 Angular average effective mass for Frohlich model (<m**0.5>)**2=   9.4780481632
 Effective masses along directions: (cart. coord. / red. coord. -> eff. mass)
    1:   1.000000  0.000000  0.000000 /   0.983601 -0.180357  0.000000 ->  17.1438351015
    2:   0.000000  1.000000  0.000000 /   0.000000  1.000000  0.000000 ->  10.6879594979
    3:   0.000000  0.000000  1.000000 /  -0.151360 -0.151360  0.976822 ->  19.4804076352
    4:   0.577350  0.577350  0.577350 /   0.575194  0.438538  0.690534 ->   1.9350142986
    5:   0.000000  0.707107  0.707107 /  -0.119186  0.627820  0.769179 ->   5.2092448074
    6:   0.707107  0.000000  0.707107 /   0.619689 -0.250043  0.743951 ->   7.9145904079
    7:   0.707107  0.707107  0.000000 /   0.780990  0.624543  0.000000 ->   3.8733496235

 K-point ( 0.500,-0.500, 0.500) | band =    37
 Transport equivalent effective mass tensor:
              3.7265420505             -1.5144687648             -1.0761335733
             -1.5144687648              3.1611257455             -1.2953512324
             -1.0761335733             -1.2953512324              4.0638875588
 Transport equivalent effective mass tensor eigenvalues:
              4.9845544146              4.9842389270              0.9827620131
 Angular average effective mass 1/(<1/m>)=   1.8350157924
 Angular average effective mass for Frohlich model (<m**0.5>)**2=   2.0342485389
 Effective masses along directions: (cart. coord. / red. coord. -> eff. mass)
    1:   1.000000  0.000000  0.000000 /   0.983601 -0.180357  0.000000 ->   1.6240724755
    2:   0.000000  1.000000  0.000000 /   0.000000  1.000000  0.000000 ->   1.4456548269
    3:   0.000000  0.000000  1.000000 /  -0.151360 -0.151360  0.976822 ->   1.7975665314
    4:   0.577350  0.577350  0.577350 /   0.575194  0.438538  0.690534 ->   1.4660218373
    5:   0.000000  0.707107  0.707107 /  -0.119186  0.627820  0.769179 ->   1.3167219029
    6:   0.707107  0.000000  0.707107 /   0.619689 -0.250043  0.743951 ->   1.3768009151
    7:   0.707107  0.707107  0.000000 /   0.780990  0.624543  0.000000 ->   1.2993907108

 Angular average effective mass for Frohlich model, averaged over degenerate bands.
 Value of     (<<m**0.5>>)**2 =     5.073564E+00
 Absolute Value of <<m**0.5>> =     2.252457E+00

 END OF EFFECTIVE MASSES SECTION

 ---- first-order wavefunction calculations are completed ----

 Total localisation tensor (bohr^2) in cartesian coordinates
  WARNING : still subject to testing - especially symmetries.
      direction              matrix element
   alpha     beta       real part   imaginary part
     1        1       0.5748259820    0.0000000000
     1        2      -0.1002465263    0.0000000000
     1        3      -0.0712318785    0.0000000000
     2        1      -0.1002465263    0.0000000000
     2        2       0.5374379333    0.0000000000
     2        3      -0.0857488368    0.0000000000
     3        1      -0.0712318785    0.0000000000
     3        2      -0.0857488368    0.0000000000
     3        3       0.5679401958    0.0000000000

 respfn : d/dk was computed, but no 2DTE, so no DDB output.

== END DATASET(S) ==============================================================

 -outvars: echo values of variables after computation  --------
            acell      1.0000000000E+00  1.0000000000E+00  1.0000000000E+00 Bohr
              amu      3.90983000E+01  1.96966540E+02  1.89984032E+01
             ecut      4.20000000E+01 Hartree
           etotal     -3.2948930277E+01
            fcart      0.0000000000E+00  0.0000000000E+00  0.0000000000E+00
                       0.0000000000E+00  0.0000000000E+00  0.0000000000E+00
                       0.0000000000E+00  0.0000000000E+00  0.0000000000E+00
                       0.0000000000E+00  0.0000000000E+00  0.0000000000E+00
                       0.0000000000E+00  0.0000000000E+00  0.0000000000E+00
                       0.0000000000E+00  0.0000000000E+00  0.0000000000E+00
                       0.0000000000E+00  0.0000000000E+00  0.0000000000E+00
                       0.0000000000E+00  0.0000000000E+00  0.0000000000E+00
-          fftalg         512
           irdden           1
           irdwfk           1
              ixc     -116133
              kpt      5.00000000E-01 -5.00000000E-01  1.08776965E-17
                       5.00000000E-01 -5.00000000E-01  5.00000000E-01
           kptopt           0
P           mkmem           2
P          mkqmem           2
P          mk1mem           2
            natom           8
            nband          44
           nbdbuf           4
            ngfft          60      60      60
             nkpt           2
            nstep        2000
             nsym          12
           ntypat           3
              occ      2.000000  2.000000  2.000000  2.000000  2.000000  2.000000
                       2.000000  2.000000  2.000000  2.000000  2.000000  2.000000
                       2.000000  2.000000  2.000000  2.000000  2.000000  2.000000
                       2.000000  2.000000  2.000000  2.000000  2.000000  2.000000
                       2.000000  2.000000  2.000000  2.000000  2.000000  2.000000
                       2.000000  2.000000  2.000000  2.000000  2.000000  0.000000
                       0.000000  0.000000  0.000000  0.000000  0.000000  0.000000
                       0.000000  0.000000
        optdriver           1
            prtwf          -1
            rfdir           1       1       1
           rfelfd           2
            rprim      9.4672098513E+00  0.0000000000E+00 -1.4848936473E+00
                      -1.7359469306E+00  9.3066938610E+00 -1.4848936473E+00
                       0.0000000000E+00  0.0000000000E+00  9.5829521293E+00
          spgroup         166
           strten      0.0000000000E+00  0.0000000000E+00  0.0000000000E+00
                       0.0000000000E+00  0.0000000000E+00  0.0000000000E+00
           symrel      1  0  0   0  1  0   0  0  1      -1  0  0   0 -1  0   0  0 -1
                       0  1  0   1  0  0   0  0  1       0 -1  0  -1  0  0   0  0 -1
                       0  0  1   1  0  0   0  1  0       0  0 -1  -1  0  0   0 -1  0
                       1  0  0   0  0  1   0  1  0      -1  0  0   0  0 -1   0 -1  0
                       0  1  0   0  0  1   1  0  0       0 -1  0   0  0 -1  -1  0  0
                       0  0  1   0  1  0   1  0  0       0  0 -1   0 -1  0  -1  0  0
           tolwfr      1.00000000E-20
            typat      1  2  3  3  3  3  3  3
           useylm           1
              wtk        0.50000    0.50000
           xangst      2.0456040656E+00  2.4624451393E+00  1.7497680536E+00
                       0.0000000000E+00  0.0000000000E+00  0.0000000000E+00
                       2.9776180988E+00  3.5843794688E+00 -7.9224121664E-01
                       3.5825188464E+00  3.4140816878E-01  3.0644136537E+00
                       4.4124940576E+00  1.3405108098E+00  4.3512245345E-01
                       5.0868928485E-01  4.5834821098E+00  4.3512245345E-01
                       1.1135900325E+00  1.3405108098E+00  4.2917773238E+00
                      -3.2128592632E-01  3.5843794688E+00  3.0644136537E+00
            xcart      3.8656314603E+00  4.6533469305E+00  3.3065824173E+00
                       0.0000000000E+00  0.0000000000E+00  0.0000000000E+00
                       5.6268827351E+00  6.7734955523E+00 -1.4971189306E+00
                       6.7699794856E+00  6.4516793853E-01  5.7909025634E+00
                       8.3384053318E+00  2.5331983087E+00  8.2226227129E-01
                       9.6128343511E-01  8.6615259225E+00  8.2226227129E-01
                       2.1043801856E+00  2.5331983087E+00  8.1102837653E+00
                      -6.0714241109E-01  6.7734955523E+00  5.7909025634E+00
             xred      5.0000000000E-01  5.0000000000E-01  5.0000000000E-01
                       0.0000000000E+00  0.0000000000E+00  0.0000000000E+00
                       7.2780900000E-01  7.2780900000E-01  6.9323000000E-02
                       7.2780900000E-01  6.9323000000E-02  7.2780900000E-01
                       9.3067700000E-01  2.7219100000E-01  2.7219100000E-01
                       2.7219100000E-01  9.3067700000E-01  2.7219100000E-01
                       2.7219100000E-01  2.7219100000E-01  9.3067700000E-01
                       6.9323000000E-02  7.2780900000E-01  7.2780900000E-01
            znucl       19.00000   79.00000    9.00000

- Timing analysis has been suppressed with timopt=0

 Suggested references for the acknowledgment of ABINIT usage.

 Calculation completed.
.Delivered  14 WARNINGs and   9 COMMENTs to log file.