.Version 9.5.2 of ABINIT

 ABINIT is a project of the Universite Catholique de Louvain,
 Corning Inc. and other collaborators, see ~abinit/doc/developers/contributors.txt .
 acknowledgments of the ABINIT effort.

.Starting date : Wed 26 May 2021.
- ( at 03h01 )

- input  file    -> /scratch/users/j/a/jabreu/flow_simple_11atoms/flow/w276/t1/run.abi
- output file    -> /scratch/users/j/a/jabreu/flow_simple_11atoms/flow/w276/t1/run.abo
- root for input  files -> /scratch/users/j/a/jabreu/flow_simple_11atoms/flow/w276/t1/indata/in
- root for output files -> /scratch/users/j/a/jabreu/flow_simple_11atoms/flow/w276/t1/outdata/out

 Symmetries : space group P2_1/c (# 14); Bravais mP (primitive monocl.)
     intxc =       0      iscf =       7    lmnmax =      32     lnmax =       8
     mgfft =      72  mpssoang =       4    mqgrid =    3350     natom =      12
  nloc_mem =       1    nspden =       1   nspinor =       1    nsppol =       1
      nsym =       4    n1xccc =    2501    ntypat =       2    occopt =       1
   xclevel =       2
-    mband =         103        mffmem =           1         mkmem =           2
-   mkqmem =           2        mk1mem =           2           mpw =       18312
      nfft =      373248          nkpt =           2
  Rough estimation (10% accuracy) of disk space for files :

------------- Echo of variables that govern the present computation ------------
-
- outvars: echo of selected default values
-   iomode0 =  0 , fftalg0 =512 , wfoptalg0 =  0
-
- outvars: echo of global parameters not present in the input file
-  max_nthreads =    0
-
 -outvars: echo values of preprocessed input variables --------
            acell      1.0000000000E+00  1.0000000000E+00  1.0000000000E+00 Bohr
              amu      7.49215900E+01  1.92220000E+02
             ecut      4.20000000E+01 Hartree
-          fftalg         512
           irdden           1
           irdwfk           1
           istwfk        0    1
              ixc     -116133
              kpt      0.00000000E+00  5.99623561E-01  2.57847351E-01
                       5.00000000E-01  0.00000000E+00  5.00000000E-01
           kptopt           0
P           mkmem           2
P          mkqmem           2
P          mk1mem           2
            natom          12
            nband         103
           nbdbuf           4
            ngfft          72      72      72
             nkpt           2
            nstep        2000
             nsym           4
           ntypat           2
              occ      2.000000  2.000000  2.000000  2.000000  2.000000  2.000000
                       2.000000  2.000000  2.000000  2.000000  2.000000  2.000000
                       2.000000  2.000000  2.000000  2.000000  2.000000  2.000000
                       2.000000  2.000000  2.000000  2.000000  2.000000  2.000000
                       2.000000  2.000000  2.000000  2.000000  2.000000  2.000000
                       2.000000  2.000000  2.000000  2.000000  2.000000  2.000000
                       2.000000  2.000000  2.000000  2.000000  2.000000  2.000000
                       2.000000  2.000000  2.000000  2.000000  2.000000  2.000000
                       2.000000  2.000000  2.000000  2.000000  2.000000  2.000000
                       2.000000  2.000000  2.000000  2.000000  2.000000  2.000000
                       2.000000  2.000000  2.000000  2.000000  2.000000  2.000000
                       2.000000  2.000000  2.000000  2.000000  2.000000  2.000000
                       2.000000  2.000000  2.000000  2.000000  2.000000  2.000000
                       2.000000  2.000000  2.000000  2.000000  2.000000  2.000000
                       2.000000  2.000000  2.000000  2.000000  2.000000  2.000000
                       2.000000  2.000000  2.000000  2.000000  0.000000  0.000000
                       0.000000  0.000000  0.000000  0.000000  0.000000  0.000000
                       0.000000
        optdriver           1
            prtwf          -1
            rfdir           1       1       1
           rfelfd           2
            rprim      1.1479692180E+01  0.0000000000E+00  0.0000000000E+00
                       0.0000000000E+00  1.0525933841E+01  4.5049751755E+00
                       0.0000000000E+00  0.0000000000E+00  1.1659851431E+01
          spgroup          14
           symrel      1  0  0   0  1  0   0  0  1      -1  0  0   0 -1  0   0  0 -1
                       1  0  0   0 -1  0   0  0 -1      -1  0  0   0  1  0   0  0  1
            tnons      0.0000000  0.0000000  0.0000000     0.0000000 -0.0000000  0.0000000
                       0.5000000 -0.0000000  0.5000000     0.5000000  0.0000000  0.5000000
           tolwfr      1.00000000E-20
            typat      1  1  1  1  1  1  1  1  2  2  2  2
           useylm           1
              wtk        0.50000    0.50000
           xangst      5.3015737816E+00  4.7109879079E+00  7.4209025283E+00
                       2.2641780499E+00  8.5909638007E-01  4.2182191094E+00
                       7.7321768184E-01  8.5909638007E-01  1.1331552929E+00
                       3.8106134136E+00  4.7109879079E+00  4.3358387117E+00
                       2.2484807887E+00  3.6855298204E+00  2.7245564884E+00
                       5.2858765205E+00  1.8845544676E+00  2.7444375163E+00
                       3.8263106747E+00  1.8845544676E+00  5.8295013328E+00
                       7.8891494298E-01  3.6855298204E+00  5.8096203049E+00
                       3.0386106900E+00  4.0511055924E+00  6.6286553967E+00
                       1.2149582927E-03  1.5189786956E+00  5.0104662410E+00
                       3.0361807734E+00  1.5189786956E+00  1.9254024244E+00
                       6.0735765052E+00  4.0511055924E+00  3.5435915802E+00
            xcart      1.0018522521E+01  8.9024769613E+00  1.4023473437E+01
                       4.2786764304E+00  1.6234568801E+00  7.9712788853E+00
                       1.4611696598E+00  1.6234568801E+00  2.1413531696E+00
                       7.2010157499E+00  8.9024769613E+00  8.1935477216E+00
                       4.2490129058E+00  6.9646420152E+00  5.1486655966E+00
                       9.9888589959E+00  3.5612918262E+00  5.1862352946E+00
                       7.2306792745E+00  3.5612918262E+00  1.1016161010E+01
                       1.4908331844E+00  6.9646420152E+00  1.0978591312E+01
                       5.7421420286E+00  7.6554801050E+00  1.2526343329E+01
                       2.2959384361E-03  2.8704537364E+00  9.4684089935E+00
                       5.7375501517E+00  2.8704537364E+00  3.6384832778E+00
                       1.1477396242E+01  7.6554801050E+00  6.6964176134E+00
             xred      8.7271700000E-01  8.4576600000E-01  8.7593900000E-01
                       3.7271700000E-01  1.5423400000E-01  6.2406100000E-01
                       1.2728300000E-01  1.5423400000E-01  1.2406100000E-01
                       6.2728300000E-01  8.4576600000E-01  3.7593900000E-01
                       3.7013300000E-01  6.6166500000E-01  1.8592700000E-01
                       8.7013300000E-01  3.3833500000E-01  3.1407300000E-01
                       6.2986700000E-01  3.3833500000E-01  8.1407300000E-01
                       1.2986700000E-01  6.6166500000E-01  6.8592700000E-01
                       5.0020000000E-01  7.2729700000E-01  7.9331100000E-01
                       2.0000000000E-04  2.7270300000E-01  7.0668900000E-01
                       4.9980000000E-01  2.7270300000E-01  2.0668900000E-01
                       9.9980000000E-01  7.2729700000E-01  2.9331100000E-01
            znucl       33.00000   77.00000

 chkinp: Checking input parameters for consistency.

== DATASET  1 ==================================================================
-   mpi_nproc: 1, omp_nthreads: -1 (-1 if OMP is not activated)

--- !DatasetInfo
iteration_state: {dtset: 1, }
dimensions: {natom: 12, nkpt: 2, mband: 103, nsppol: 1, nspinor: 1, nspden: 1, mpw: 18312, }
cutoff_energies: {ecut:  42.0, pawecutdg:  -1.0, }
electrons: {nelect:   1.88000000E+02, charge:   0.00000000E+00, occopt:   1.00000000E+00, tsmear:   1.00000000E-02, }
meta: {optdriver: 1, rfelfd: 2, }
...

 Real(R)+Recip(G) space primitive vectors, cartesian coordinates (Bohr,Bohr^-1):
 R(1)= 11.4796922  0.0000000  0.0000000  G(1)=  0.0871103  0.0000000  0.0000000
 R(2)=  0.0000000 10.5259338  4.5049752  G(2)=  0.0000000  0.0950034  0.0000000
 R(3)=  0.0000000  0.0000000 11.6598514  G(3)=  0.0000000 -0.0367061  0.0857644
 Unit cell volume ucvol=  1.4089121E+03 bohr^3
 Angles (23,13,12)=  6.68296481E+01  9.00000000E+01  9.00000000E+01 degrees

 getcut: wavevector=  0.0000  0.0000  0.0000  ngfft=  72  72  72
         ecut(hartree)=     42.000   => boxcut(ratio)=   2.11666

--- Pseudopotential description ------------------------------------------------
- pspini: atom type   1  psp file is /scratch/users/j/a/jabreu/pseudos/PBEsol/As.psp8
- pspatm: opening atomic psp file    /scratch/users/j/a/jabreu/pseudos/PBEsol/As.psp8
- As    ONCVPSP-3.3.0  r_core=   1.76603   1.70395   1.80867
- 33.00000  15.00000    180112                znucl, zion, pspdat
    8 -116133    2    4       600   0.00000   pspcod,pspxc,lmax,lloc,mmax,r2well
    5.99000000000000    5.00000000000000    0.00000000000000   rchrg,fchrg,qchrg
     nproj     2     2     2
     extension_switch     1
  pspatm : epsatm=   28.79155382
         --- l  ekb(1:nproj) -->
             0    8.270760    0.868950
             1    4.919053    0.756587
             2  -10.048665   -4.076802
 pspatm: atomic psp has been read  and splines computed

- pspini: atom type   2  psp file is /scratch/users/j/a/jabreu/pseudos/PBEsol/Ir.psp8
- pspatm: opening atomic psp file    /scratch/users/j/a/jabreu/pseudos/PBEsol/Ir.psp8
- Ir    ONCVPSP-3.3.0  r_core=   1.60470   1.60470   1.51179   2.26792
- 77.00000  17.00000    180112                znucl, zion, pspdat
    8 -116133    3    4       500   0.00000   pspcod,pspxc,lmax,lloc,mmax,r2well
    4.99000000000000    5.00000000000000    0.00000000000000   rchrg,fchrg,qchrg
     nproj     2     2     2     2
     extension_switch     1
  pspatm : epsatm=   27.71114778
         --- l  ekb(1:nproj) -->
             0 -318.624865    3.007395
             1    7.556369    1.126503
             2    2.004414    0.149292
             3    1.163764    0.379649
 pspatm: atomic psp has been read  and splines computed

   6.41412801E+04                                ecore*ucvol(ha*bohr**3)

 ==>  initialize data related to q vector <==

 The list of irreducible perturbations for this q vector is:
    1)    idir= 1    ipert=  13
    2)    idir= 2    ipert=  13
    3)    idir= 3    ipert=  13

 Perturbation wavevector (in red.coord.)   0.000000  0.000000  0.000000
 Perturbation : derivative vs k along direction   1

 dfpt_looppert : COMMENT -
  In a d/dk calculation, iscf is set to -3 automatically.
 The set of symmetries contains only one element for this perturbation.
 symkpt : not enough symmetry to change the number of k points.

 Initialisation of the first-order wave-functions :
  ireadwf=   0

--- !BeginCycle
iteration_state: {dtset: 1, }
[...]
 ETOT 25  -304.96746172099      0.000E+00 6.152E-14 0.000E+00
 ETOT 26  -304.96746172099     -5.684E-14 4.379E-14 0.000E+00
 ETOT 27  -304.96746172099      5.684E-14 9.185E-15 0.000E+00
 ETOT 28  -304.96746172099     -5.684E-14 6.582E-15 0.000E+00
 ETOT 29  -304.96746172099      0.000E+00 1.372E-15 0.000E+00
 ETOT 30  -304.96746172099      5.684E-14 9.892E-16 0.000E+00
 ETOT 31  -304.96746172099      5.684E-14 2.049E-16 0.000E+00
 ETOT 32  -304.96746172099     -5.684E-14 1.487E-16 0.000E+00
 ETOT 33  -304.96746172099     -5.684E-14 3.061E-17 0.000E+00
 ETOT 34  -304.96746172099      0.000E+00 2.237E-17 0.000E+00
 ETOT 35  -304.96746172099      1.137E-13 4.576E-18 0.000E+00
 ETOT 36  -304.96746172099     -5.684E-14 3.366E-18 0.000E+00
 ETOT 37  -304.96746172099      5.684E-14 6.841E-19 0.000E+00
 ETOT 38  -304.96746172099      0.000E+00 5.067E-19 0.000E+00
 ETOT 39  -304.96746172099     -5.684E-14 1.023E-19 0.000E+00
 ETOT 40  -304.96746172099      0.000E+00 7.629E-20 0.000E+00
 ETOT 41  -304.96746172099      5.684E-14 1.530E-20 0.000E+00
 ETOT 42  -304.96746172099      0.000E+00 9.981E-21 0.000E+00

 At SCF step   42   max residual=  9.98E-21 < tolwfr=  1.00E-20 =>converged.

 ----iterations are completed or convergence reached----

 dfpt_looppert: DFPT cycle converged with prtwf=-1. Will skip output of the 1st-order WFK file.
 dfpt_looppert : ek2=    1.2918441408E+02
          f-sum rule ratio=    9.8158116782E-01
 prteigrs : about to open file /scratch/users/j/a/jabreu/flow_simple_11atoms/flow/w276/t1/tmpdata/tmp_1WF1_EIG
 Expectation of eigenvalue derivatives (hartree) for nkpt=   2  k points:
  (in case of degenerate eigenvalues, averaged derivative)
 kpt#   1, nband=103, wtk=  0.50000, kpt=  0.0000  0.5996  0.2578 (reduced coord)
   0.00941   -0.01081    0.00182    0.00876   -0.00001   -0.00002    0.00002    0.00001
  -0.00090   -0.00089    0.00095    0.00087    0.00004   -0.00014    0.00010    0.00003
  -0.00001   -0.00016    0.00009    0.00004    0.00005    0.00011    0.00031    0.00001
  -0.00007   -0.00002   -0.00034   -0.00032    0.00000   -0.00006    0.00014   -0.00018
   0.00027    0.00001    0.00006    0.00008    0.00005   -0.00023    0.00042    0.00008
   0.00002    0.00006   -0.00024    0.00013    0.00006    0.00007   -0.00013   -0.00009
   0.00016   -0.00003   -0.00006   -0.00026    0.00016   -0.00016   -0.00003    0.00005
  -0.00001   -0.00005    0.00008   -0.00003    0.10123    0.02505   -0.09638    0.01522
  -0.03907   -0.07188    0.01994   -0.00916   -0.06596   -0.08185   -0.12203    0.15123
   0.00635    0.07815   -0.13085    0.14925   -0.06076    0.01976    0.01479   -0.00130
  -0.00285   -0.00107    0.04274    0.09642   -0.00281   -0.01209    0.03501    0.04117
   0.05349   -0.00886    0.02362    0.08989    0.07006    0.00147    0.10936    0.02505
  -0.04971   -0.00360   -0.04011   -0.00953    0.05077    0.07128    0.01336
 prteigrs : prtvol=0 or 1, do not print more k-points.

 Eight components of 2nd-order total energy (hartree) are
 1,2,3: 0th-order hamiltonian combined with 1st-order wavefunctions
     kin0=   1.79491675E+02 eigvalue=   1.73862777E+02  local=  -7.72639106E+01
 4,5,6: 1st-order hamiltonian combined with 1st and 0th-order wfs
     kin1=  -1.26804988E+02  Hartree=   0.00000000E+00     xc=   0.00000000E+00
 7,8,9: eventually, occupation + non-local contributions
    edocc=   1.26186370E+01     enl0=   1.62582832E+01   enl1=  -4.83129935E+02
 1-9 gives the relaxation energy (to be shifted if some occ is /=2.0)
   erelax=  -3.04967462E+02
  No Ewald or frozen-wf contrib.: the relaxation energy is the total one
 2DEtotal=   -0.3049674617E+03 Ha. Also 2DEtotal=   -0.829858666570E+04 eV
    (  non-var. 2DEtotal :   -3.0496746172E+02 Ha)

 CALCULATION OF EFFECTIVE MASSES
 NOTE : Additional infos (eff. mass eigenvalues, eigenvectors and, if degenerate, average mass) are available in stdout.

--- !WARNING
src_file: m_efmas.F90
src_line: 0
message: |
    Effective masses calculations require given k-point(s) to be band extrema for given bands, but max abs gradient of band(s) was found to be greater than 1e-5. Abinit will continue anyway.
...

[...]

--- !WARNING
src_file: m_efmas.F90
src_line: 0
message: |
    Effective masses calculations require given k-point(s) to be band extrema for given bands, but max abs gradient of band(s) was found to be greater than 1e-5. Abinit will continue anyway.
...

--- !WARNING
src_file: m_efmas.F90
src_line: 0
message: |

    Band(s)    95,
    are not band extrema, but saddle points;
    the transport equivalent formalism breaks down in these conditions.
    The associated tensor(s) will therefore not be printed.
...

 K-point ( 0.000, 0.600, 0.258) | band =    95
 Effective mass tensor:
     *** SADDLE POINT: TRANSPORT EQV. EFF. MASS NOT DEFINED (see WARNING above) ***
 Angular average effective mass 1/(<1/m>)=   0.3021895367
 Angular average effective mass for Frohlich model (<m**0.5>)**2=   0.7787910012
 Effective masses along directions: (cart. coord. / red. coord. -> eff. mass)
    1:   1.000000  0.000000  0.000000 /   1.000000  0.000000  0.000000 ->   0.0895989660
    2:   0.000000  1.000000  0.000000 /   0.000000  1.000000  0.000000 -> -22.7051937911
    3:   0.000000  0.000000  1.000000 /   0.000000  0.360402  0.932797 ->  -0.8408618182
    4:   0.577350  0.577350  0.577350 /   0.516672  0.676503  0.524780 ->   0.2353385675
    5:   0.000000  0.707107  0.707107 /   0.000000  0.790138  0.612929 ->   1.2615483466
    6:   0.707107  0.000000  0.707107 /   0.676412  0.265444  0.687027 ->   0.2005104808
    7:   0.707107  0.707107  0.000000 /   0.737062  0.675825  0.000000 ->   0.1799331091

 COMMENTS:
 - At k-point ( 0.500, 0.000, 0.500), bands    95 through    96
   are DEGENERATE (effective mass tensor is therefore not defined).
   See Section IIIB Eqs. (67)-(70) and Appendix E of PRB 93 205147 (2016).
 - Angular average effective mass for Frohlich model is to be averaged over degenerate bands. See later.
 - Associated theta integrals calculated with ntheta=   1000 points.

--- !WARNING
src_file: m_efmas.F90
src_line: 0
message: |

    Band(s)    95,    96,
    are not band extrema, but saddle points;
    the transport equivalent formalism breaks down in these conditions.
    The associated tensor(s) will therefore not be printed.
...

 K-point ( 0.500, 0.000, 0.500) | band =    95
 Transport equivalent effective mass tensor:
     *** SADDLE POINT: TRANSPORT EQV. EFF. MASS NOT DEFINED (see WARNING above) ***
 Angular average effective mass 1/(<1/m>)=   2.9851463992
 Angular average effective mass for Frohlich model (<m**0.5>)**2=   3.0423776844
 Effective masses along directions: (cart. coord. / red. coord. -> eff. mass)
    1:   1.000000  0.000000  0.000000 /   1.000000  0.000000  0.000000 ->   1.2692237771
    2:   0.000000  1.000000  0.000000 /   0.000000  1.000000  0.000000 ->   0.3463495083
    3:   0.000000  0.000000  1.000000 /   0.000000  0.360402  0.932797 ->  -1.0221583246
    4:   0.577350  0.577350  0.577350 /   0.516672  0.676503  0.524780 ->   1.7174664229
    5:   0.000000  0.707107  0.707107 /   0.000000  0.790138  0.612929 ->   0.5371132153
    6:   0.707107  0.000000  0.707107 /   0.676412  0.265444  0.687027 ->  -1.9394771179
    7:   0.707107  0.707107  0.000000 /   0.737062  0.675825  0.000000 ->   1.5350078926

 K-point ( 0.500, 0.000, 0.500) | band =    96
 Transport equivalent effective mass tensor:
     *** SADDLE POINT: TRANSPORT EQV. EFF. MASS NOT DEFINED (see WARNING above) ***
 Angular average effective mass 1/(<1/m>)=   0.6835799328
 Angular average effective mass for Frohlich model (<m**0.5>)**2=   1.3321872371
 Effective masses along directions: (cart. coord. / red. coord. -> eff. mass)
    1:   1.000000  0.000000  0.000000 /   1.000000  0.000000  0.000000 ->   1.2692237750
    2:   0.000000  1.000000  0.000000 /   0.000000  1.000000  0.000000 ->   0.3463495083
    3:   0.000000  0.000000  1.000000 /   0.000000  0.360402  0.932797 ->  -1.0221583289
    4:   0.577350  0.577350  0.577350 /   0.516672  0.676503  0.524780 ->   0.4123016121
    5:   0.000000  0.707107  0.707107 /   0.000000  0.790138  0.612929 ->   0.5371132146
    6:   0.707107  0.000000  0.707107 /   0.676412  0.265444  0.687027 ->   3.0753712517
    7:   0.707107  0.707107  0.000000 /   0.737062  0.675825  0.000000 ->   0.3307230948

 Angular average effective mass for Frohlich model, averaged over degenerate bands.
 Value of     (<<m**0.5>>)**2 =     2.100247E+00
 Absolute Value of <<m**0.5>> =     1.449223E+00

 END OF EFFECTIVE MASSES SECTION

 ---- first-order wavefunction calculations are completed ----

 Total localisation tensor (bohr^2) in cartesian coordinates
  WARNING : still subject to testing - especially symmetries.
      direction              matrix element
   alpha     beta       real part   imaginary part
     1        1     149.8671237805    0.0000000000
     1        2       0.0000000000    0.0000000000
     1        3       0.0000000000    0.0000000000
     2        1       0.0000000000    0.0000000000
     2        2       2.5509372600    0.0000000000
     2        3       1.0917709729    0.0000000000
     3        1       0.0000000000    0.0000000000
     3        2       1.0917709729    0.0000000000
     3        3       2.1829825355    0.0000000000

 respfn : d/dk was computed, but no 2DTE, so no DDB output.

== END DATASET(S) ==============================================================

 -outvars: echo values of variables after computation  --------
            acell      1.0000000000E+00  1.0000000000E+00  1.0000000000E+00 Bohr
              amu      7.49215900E+01  1.92220000E+02
             ecut      4.20000000E+01 Hartree
           etotal     -3.0496746172E+02
            fcart      0.0000000000E+00  0.0000000000E+00  0.0000000000E+00
                       0.0000000000E+00  0.0000000000E+00  0.0000000000E+00
                       0.0000000000E+00  0.0000000000E+00  0.0000000000E+00
                       0.0000000000E+00  0.0000000000E+00  0.0000000000E+00
                       0.0000000000E+00  0.0000000000E+00  0.0000000000E+00
                       0.0000000000E+00  0.0000000000E+00  0.0000000000E+00
                       0.0000000000E+00  0.0000000000E+00  0.0000000000E+00
                       0.0000000000E+00  0.0000000000E+00  0.0000000000E+00
                       0.0000000000E+00  0.0000000000E+00  0.0000000000E+00
                       0.0000000000E+00  0.0000000000E+00  0.0000000000E+00
                       0.0000000000E+00  0.0000000000E+00  0.0000000000E+00
                       0.0000000000E+00  0.0000000000E+00  0.0000000000E+00
-          fftalg         512
           irdden           1
           irdwfk           1
           istwfk        0    1
              ixc     -116133
              kpt      0.00000000E+00  5.99623561E-01  2.57847351E-01
                       5.00000000E-01  0.00000000E+00  5.00000000E-01
           kptopt           0
P           mkmem           2
P          mkqmem           2
P          mk1mem           2
            natom          12
            nband         103
           nbdbuf           4
            ngfft          72      72      72
             nkpt           2
            nstep        2000
             nsym           4
           ntypat           2
              occ      2.000000  2.000000  2.000000  2.000000  2.000000  2.000000
                       2.000000  2.000000  2.000000  2.000000  2.000000  2.000000
                       2.000000  2.000000  2.000000  2.000000  2.000000  2.000000
                       2.000000  2.000000  2.000000  2.000000  2.000000  2.000000
                       2.000000  2.000000  2.000000  2.000000  2.000000  2.000000
                       2.000000  2.000000  2.000000  2.000000  2.000000  2.000000
                       2.000000  2.000000  2.000000  2.000000  2.000000  2.000000
                       2.000000  2.000000  2.000000  2.000000  2.000000  2.000000
                       2.000000  2.000000  2.000000  2.000000  2.000000  2.000000
                       2.000000  2.000000  2.000000  2.000000  2.000000  2.000000
                       2.000000  2.000000  2.000000  2.000000  2.000000  2.000000
                       2.000000  2.000000  2.000000  2.000000  2.000000  2.000000
                       2.000000  2.000000  2.000000  2.000000  2.000000  2.000000
                       2.000000  2.000000  2.000000  2.000000  2.000000  2.000000
                       2.000000  2.000000  2.000000  2.000000  2.000000  2.000000
                       2.000000  2.000000  2.000000  2.000000  0.000000  0.000000
                       0.000000  0.000000  0.000000  0.000000  0.000000  0.000000
                       0.000000
        optdriver           1
            prtwf          -1
            rfdir           1       1       1
           rfelfd           2
            rprim      1.1479692180E+01  0.0000000000E+00  0.0000000000E+00
                       0.0000000000E+00  1.0525933841E+01  4.5049751755E+00
                       0.0000000000E+00  0.0000000000E+00  1.1659851431E+01
          spgroup          14
           strten      0.0000000000E+00  0.0000000000E+00  0.0000000000E+00
                       0.0000000000E+00  0.0000000000E+00  0.0000000000E+00
           symrel      1  0  0   0  1  0   0  0  1      -1  0  0   0 -1  0   0  0 -1
                       1  0  0   0 -1  0   0  0 -1      -1  0  0   0  1  0   0  0  1
            tnons      0.0000000  0.0000000  0.0000000     0.0000000 -0.0000000  0.0000000
                       0.5000000 -0.0000000  0.5000000     0.5000000  0.0000000  0.5000000
           tolwfr      1.00000000E-20
            typat      1  1  1  1  1  1  1  1  2  2  2  2
           useylm           1
              wtk        0.50000    0.50000
           xangst      5.3015737816E+00  4.7109879079E+00  7.4209025283E+00
                       2.2641780499E+00  8.5909638007E-01  4.2182191094E+00
                       7.7321768184E-01  8.5909638007E-01  1.1331552929E+00
                       3.8106134136E+00  4.7109879079E+00  4.3358387117E+00
                       2.2484807887E+00  3.6855298204E+00  2.7245564884E+00
                       5.2858765205E+00  1.8845544676E+00  2.7444375163E+00
                       3.8263106747E+00  1.8845544676E+00  5.8295013328E+00
                       7.8891494298E-01  3.6855298204E+00  5.8096203049E+00
                       3.0386106900E+00  4.0511055924E+00  6.6286553967E+00
                       1.2149582927E-03  1.5189786956E+00  5.0104662410E+00
                       3.0361807734E+00  1.5189786956E+00  1.9254024244E+00
                       6.0735765052E+00  4.0511055924E+00  3.5435915802E+00
            xcart      1.0018522521E+01  8.9024769613E+00  1.4023473437E+01
                       4.2786764304E+00  1.6234568801E+00  7.9712788853E+00
                       1.4611696598E+00  1.6234568801E+00  2.1413531696E+00
                       7.2010157499E+00  8.9024769613E+00  8.1935477216E+00
                       4.2490129058E+00  6.9646420152E+00  5.1486655966E+00
                       9.9888589959E+00  3.5612918262E+00  5.1862352946E+00
                       7.2306792745E+00  3.5612918262E+00  1.1016161010E+01
                       1.4908331844E+00  6.9646420152E+00  1.0978591312E+01
                       5.7421420286E+00  7.6554801050E+00  1.2526343329E+01
                       2.2959384361E-03  2.8704537364E+00  9.4684089935E+00
                       5.7375501517E+00  2.8704537364E+00  3.6384832778E+00
                       1.1477396242E+01  7.6554801050E+00  6.6964176134E+00
             xred      8.7271700000E-01  8.4576600000E-01  8.7593900000E-01
                       3.7271700000E-01  1.5423400000E-01  6.2406100000E-01
                       1.2728300000E-01  1.5423400000E-01  1.2406100000E-01
                       6.2728300000E-01  8.4576600000E-01  3.7593900000E-01
                       3.7013300000E-01  6.6166500000E-01  1.8592700000E-01
                       8.7013300000E-01  3.3833500000E-01  3.1407300000E-01
                       6.2986700000E-01  3.3833500000E-01  8.1407300000E-01
                       1.2986700000E-01  6.6166500000E-01  6.8592700000E-01
                       5.0020000000E-01  7.2729700000E-01  7.9331100000E-01
                       2.0000000000E-04  2.7270300000E-01  7.0668900000E-01
                       4.9980000000E-01  2.7270300000E-01  2.0668900000E-01
                       9.9980000000E-01  7.2729700000E-01  2.9331100000E-01
            znucl       33.00000   77.00000

- Timing analysis has been suppressed with timopt=0

 Suggested references for the acknowledgment of ABINIT usage.

 Calculation completed.
.Delivered  10 WARNINGs and   5 COMMENTs to log file.