.Version 9.5.2 of ABINIT

 ABINIT is a project of the Universite Catholique de Louvain,
 Corning Inc. and other collaborators, see ~abinit/doc/developers/contributors.txt .
 acknowledgments of the ABINIT effort.

.Starting date : Mon 24 May 2021.
- ( at 11h01 )

- input  file    -> /scratch/users/j/a/jabreu/flow_simple_10atoms/flow/w284/t1/run.abi
- output file    -> /scratch/users/j/a/jabreu/flow_simple_10atoms/flow/w284/t1/run.abo
- root for input  files -> /scratch/users/j/a/jabreu/flow_simple_10atoms/flow/w284/t1/indata/in
- root for output files -> /scratch/users/j/a/jabreu/flow_simple_10atoms/flow/w284/t1/outdata/out

 Symmetries : space group R-3 (#148); Bravais hR (rhombohedral)
     intxc =       0      iscf =       7    lmnmax =      18     lnmax =       6
     mgfft =      72  mpssoang =       3    mqgrid =    3001     natom =      10
  nloc_mem =       1    nspden =       1   nspinor =       1    nsppol =       1
      nsym =       6    n1xccc =    2501    ntypat =       4    occopt =       1
   xclevel =       2
-    mband =          41        mffmem =           1         mkmem =           2
-   mkqmem =           2        mk1mem =           2           mpw =       11215
      nfft =      373248          nkpt =           2
  Rough estimation (10% accuracy) of disk space for files :

------------- Echo of variables that govern the present computation ------------
-
- outvars: echo of selected default values
-   iomode0 =  0 , fftalg0 =512 , wfoptalg0 =  0
-
- outvars: echo of global parameters not present in the input file
-  max_nthreads =    0
-
 -outvars: echo values of preprocessed input variables --------
            acell      1.0000000000E+00  1.0000000000E+00  1.0000000000E+00 Bohr
              amu      1.37327000E+02  4.78800000E+01  1.08110000E+01
                       1.59994000E+01
             ecut      4.40000000E+01 Hartree
-          fftalg         512
           irdden           1
           irdwfk           1
           istwfk        1    1
              ixc     -116133
              kpt      5.00000000E-01  5.00000000E-01  5.00000000E-01
                       0.00000000E+00  0.00000000E+00  0.00000000E+00
           kptopt           0
P           mkmem           2
P          mkqmem           2
P          mk1mem           2
            natom          10
            nband          41
           nbdbuf           4
            ngfft          72      72      72
             nkpt           2
            nstep        2000
             nsym           6
           ntypat           4
              occ      2.000000  2.000000  2.000000  2.000000  2.000000  2.000000
                       2.000000  2.000000  2.000000  2.000000  2.000000  2.000000
                       2.000000  2.000000  2.000000  2.000000  2.000000  2.000000
                       2.000000  2.000000  2.000000  2.000000  2.000000  2.000000
                       2.000000  2.000000  2.000000  2.000000  2.000000  2.000000
                       2.000000  2.000000  0.000000  0.000000  0.000000  0.000000
                       0.000000  0.000000  0.000000  0.000000  0.000000
        optdriver           1
            prtwf          -1
            rfdir           1       1       1
           rfelfd           2
            rprim      8.6746830993E+00  0.0000000000E+00  7.7893199712E+00
                       3.4743963007E+00  7.9485028288E+00  7.7893199712E+00
                       0.0000000000E+00  0.0000000000E+00  1.1658629100E+01
          spgroup         148
           symrel      1  0  0   0  1  0   0  0  1      -1  0  0   0 -1  0   0  0 -1
                       0  0  1   1  0  0   0  1  0       0  0 -1  -1  0  0   0 -1  0
                       0  1  0   0  0  1   1  0  0       0 -1  0   0  0 -1  -1  0  0
           tolwfr      1.00000000E-20
            typat      1  2  3  3  4  4  4  4  4  4
           useylm           1
              wtk        0.50000    0.50000
           xangst      0.0000000000E+00  0.0000000000E+00  0.0000000000E+00
                       3.2145079619E+00  2.1030832697E+00  7.2066710007E+00
                       1.5046468868E+00  9.8441121688E-01  3.3732985620E+00
                       4.9243690370E+00  3.2217553225E+00  1.1040043439E+01
                       2.6553358591E+00  1.4432997802E+00  8.9495067832E+00
                       5.0648190605E+00  1.8549783302E+00  7.7546281485E+00
                       3.1500439471E+00  3.0829518267E-01  6.4583098767E+00
                       3.7736800647E+00  2.7628667592E+00  5.4638352182E+00
                       1.3641968633E+00  2.3511882092E+00  6.6587138529E+00
                       3.2789719767E+00  3.8978713567E+00  7.9550321247E+00
            xcart      0.0000000000E+00  0.0000000000E+00  0.0000000000E+00
                       6.0745397000E+00  3.9742514144E+00  1.3618634521E+01
                       2.8433705428E+00  1.8602676021E+00  6.3746104466E+00
                       9.3057088572E+00  6.0882352267E+00  2.0862658596E+01
                       5.0178575646E+00  2.7274413122E+00  1.6912116845E+01
                       9.5711209370E+00  3.5054010265E+00  1.4654123463E+01
                       5.9527203665E+00  5.8259346334E-01  1.2204436948E+01
                       7.1312218354E+00  5.2210615166E+00  1.0325152198E+01
                       2.5779584630E+00  4.4431018023E+00  1.2583145579E+01
                       6.1963590335E+00  7.3659093655E+00  1.5032832094E+01
             xred      0.0000000000E+00  0.0000000000E+00  0.0000000000E+00
                       5.0000000000E-01  5.0000000000E-01  5.0000000000E-01
                       2.3404000000E-01  2.3404000000E-01  2.3404000000E-01
                       7.6596000000E-01  7.6596000000E-01  7.6596000000E-01
                       4.4101400000E-01  3.4313900000E-01  9.2670400000E-01
                       9.2670400000E-01  4.4101400000E-01  3.4313900000E-01
                       6.5686100000E-01  7.3296000000E-02  5.5898600000E-01
                       5.5898600000E-01  6.5686100000E-01  7.3296000000E-02
                       7.3296000000E-02  5.5898600000E-01  6.5686100000E-01
                       3.4313900000E-01  9.2670400000E-01  4.4101400000E-01
            znucl       56.00000   22.00000    5.00000    8.00000

 chkinp: Checking input parameters for consistency.

== DATASET  1 ==================================================================
-   mpi_nproc: 1, omp_nthreads: -1 (-1 if OMP is not activated)

--- !DatasetInfo
iteration_state: {dtset: 1, }
dimensions: {natom: 10, nkpt: 2, mband: 41, nsppol: 1, nspinor: 1, nspden: 1, mpw: 11215, }
cutoff_energies: {ecut:  44.0, pawecutdg:  -1.0, }
electrons: {nelect:   6.40000000E+01, charge:   0.00000000E+00, occopt:   1.00000000E+00, tsmear:   1.00000000E-02, }
meta: {optdriver: 1, rfelfd: 2, }
...

 Real(R)+Recip(G) space primitive vectors, cartesian coordinates (Bohr,Bohr^-1):
 R(1)=  8.6746831  0.0000000  7.7893200  G(1)=  0.1152780 -0.0503895  0.0000000
 R(2)=  3.4743963  7.9485028  7.7893200  G(2)=  0.0000000  0.1258099  0.0000000
 R(3)=  0.0000000  0.0000000 11.6586291  G(3)= -0.0770191 -0.0503895  0.0857734
 Unit cell volume ucvol=  8.0387114E+02 bohr^3
 Angles (23,13,12)=  4.80781552E+01  4.80781552E+01  4.80781552E+01 degrees

 getcut: wavevector=  0.0000  0.0000  0.0000  ngfft=  72  72  72
         ecut(hartree)=     44.000   => boxcut(ratio)=   2.06821

--- Pseudopotential description ------------------------------------------------
- pspini: atom type   1  psp file is /scratch/users/j/a/jabreu/pseudos/PBEsol/Ba.psp8
- pspatm: opening atomic psp file    /scratch/users/j/a/jabreu/pseudos/PBEsol/Ba.psp8
- Ba    ONCVPSP-3.3.0  r_core=   2.15444   1.91218   2.15444
- 56.00000  10.00000    180112                znucl, zion, pspdat
    8 -116133    2    4       600   0.00000   pspcod,pspxc,lmax,lloc,mmax,r2well
    5.99000000000000    5.00000000000000    0.00000000000000   rchrg,fchrg,qchrg
     nproj     2     2     2
     extension_switch     1
  pspatm : epsatm=   26.37418029
         --- l  ekb(1:nproj) -->
             0    6.652372    0.677024
             1    5.027722    0.408462
             2    2.543237    0.416854
 pspatm: atomic psp has been read  and splines computed

- pspini: atom type   2  psp file is /scratch/users/j/a/jabreu/pseudos/PBEsol/Ti.psp8
- pspatm: opening atomic psp file    /scratch/users/j/a/jabreu/pseudos/PBEsol/Ti.psp8
- Ti    ONCVPSP-3.3.0  r_core=   1.35825   1.31050   1.66360
- 22.00000  12.00000    180112                znucl, zion, pspdat
    8 -116133    2    4       600   0.00000   pspcod,pspxc,lmax,lloc,mmax,r2well
    5.99000000000000    2.50000000000000    0.00000000000000   rchrg,fchrg,qchrg
     nproj     2     2     2
     extension_switch     1
  pspatm : epsatm=   14.76919902
         --- l  ekb(1:nproj) -->
             0   11.321950    1.254474
             1    1.946894   -0.084268
             2   -5.237105   -1.488377
 pspatm: atomic psp has been read  and splines computed

[...]

- pspini: atom type   4  psp file is /scratch/users/j/a/jabreu/pseudos/PBEsol/O.psp8
- pspatm: opening atomic psp file    /scratch/users/j/a/jabreu/pseudos/PBEsol/O.psp8
- O     ONCVPSP-3.3.0  r_core=   1.35509   1.45563   1.26150
-  8.00000   6.00000    180112                znucl, zion, pspdat
    8 -116133    2    4       600   0.00000   pspcod,pspxc,lmax,lloc,mmax,r2well
    5.99000000000000    4.00000000000000    0.00000000000000   rchrg,fchrg,qchrg
     nproj     2     2     1
     extension_switch     1
  pspatm : epsatm=    6.22910522
         --- l  ekb(1:nproj) -->
             0    6.050032    0.820363
             1   -4.739617   -1.153841
             2   -1.335834
 pspatm: atomic psp has been read  and splines computed

   5.43495052E+03                                ecore*ucvol(ha*bohr**3)

 ==>  initialize data related to q vector <==

 The list of irreducible perturbations for this q vector is:
    1)    idir= 1    ipert=  11
    2)    idir= 2    ipert=  11
    3)    idir= 3    ipert=  11

 Perturbation wavevector (in red.coord.)   0.000000  0.000000  0.000000
 Perturbation : derivative vs k along direction   1

 dfpt_looppert : COMMENT -
  In a d/dk calculation, iscf is set to -3 automatically.
 The set of symmetries contains only one element for this perturbation.
 symkpt : not enough symmetry to change the number of k points.

 Initialisation of the first-order wave-functions :
  ireadwf=   0

--- !BeginCycle
iteration_state: {dtset: 1, }
solver: {iscf: 7, nstep: 2000, nline: 4, wfoptalg: 0, }
tolerances: {tolwfr: 1.00E-20, }
...

     iter   2DEtotal(Ha)        deltaE(Ha) residm    vres2
-ETOT  1  -43.096394852223     -4.310E+01 9.178E-02 0.000E+00
 ETOT  2  -43.179784101735     -8.339E-02 4.837E-03 0.000E+00
 ETOT  3  -43.181037055144     -1.253E-03 1.896E-03 0.000E+00
 ETOT  4  -43.181067985166     -3.093E-05 4.404E-04 0.000E+00
 ETOT  5  -43.181068942919     -9.578E-07 3.145E-04 0.000E+00
 ETOT  6  -43.181068977262     -3.434E-08 9.073E-05 0.000E+00
 ETOT  7  -43.181068978637     -1.375E-09 6.983E-05 0.000E+00
 ETOT  8  -43.181068978698     -6.024E-11 2.109E-05 0.000E+00
 ETOT  9  -43.181068978700     -2.849E-12 1.720E-05 0.000E+00
[...]
 4,5,6: 1st-order hamiltonian combined with 1st and 0th-order wfs
     kin1=  -8.63821732E+01  Hartree=   0.00000000E+00     xc=   0.00000000E+00
 7,8,9: eventually, occupation + non-local contributions
    edocc=   1.00920021E+01     enl0=  -9.92384329E-01   enl1=   2.00352904E-02
 1-9 gives the relaxation energy (to be shifted if some occ is /=2.0)
   erelax=  -4.31810690E+01
  No Ewald or frozen-wf contrib.: the relaxation energy is the total one
 2DEtotal=   -0.4318106898E+02 Ha. Also 2DEtotal=   -0.117501664346E+04 eV
    (  non-var. 2DEtotal :   -4.3181068978E+01 Ha)

 Perturbation wavevector (in red.coord.)   0.000000  0.000000  0.000000
 Perturbation : derivative vs k along direction   2
 The set of symmetries contains only one element for this perturbation.
 symkpt : not enough symmetry to change the number of k points.

[...]

 Perturbation wavevector (in red.coord.)   0.000000  0.000000  0.000000
 Perturbation : derivative vs k along direction   3
 The set of symmetries contains only one element for this perturbation.
 symkpt : not enough symmetry to change the number of k points.

 Initialisation of the first-order wave-functions :
  ireadwf=   0

--- !BeginCycle
iteration_state: {dtset: 1, }
solver: {iscf: 7, nstep: 2000, nline: 4, wfoptalg: 0, }
tolerances: {tolwfr: 1.00E-20, }
...

     iter   2DEtotal(Ha)        deltaE(Ha) residm    vres2
-ETOT  1  -43.097084666378     -4.310E+01 2.613E-01 0.000E+00
 ETOT  2  -43.179903712472     -8.282E-02 9.549E-02 0.000E+00
 ETOT  3  -43.181040081207     -1.136E-03 3.011E-02 0.000E+00
 ETOT  4  -43.181068028854     -2.795E-05 1.862E-02 0.000E+00
 ETOT  5  -43.181068941711     -9.129E-07 6.079E-03 0.000E+00
 ETOT  6  -43.181068976763     -3.505E-08 3.754E-03 0.000E+00
 ETOT  7  -43.181068978260     -1.497E-09 1.340E-03 0.000E+00
 ETOT  8  -43.181068978329     -6.886E-11 8.232E-04 0.000E+00
 ETOT  9  -43.181068978333     -3.318E-12 3.093E-04 0.000E+00
 ETOT 10  -43.181068978333     -1.776E-13 1.928E-04 0.000E+00
 ETOT 11  -43.181068978333     -2.842E-14 7.207E-05 0.000E+00
 ETOT 12  -43.181068978333     -2.132E-14 4.581E-05 0.000E+00
 ETOT 13  -43.181068978333     -2.132E-14 1.699E-05 0.000E+00
 ETOT 14  -43.181068978333     -1.421E-14 1.107E-05 0.000E+00
 ETOT 15  -43.181068978333      4.263E-14 4.050E-06 0.000E+00
 ETOT 16  -43.181068978333     -3.553E-14 2.711E-06 0.000E+00
 ETOT 17  -43.181068978333      3.553E-14 9.749E-07 0.000E+00
 ETOT 18  -43.181068978333     -2.842E-14 6.683E-07 0.000E+00
 ETOT 19  -43.181068978333      2.132E-14 2.363E-07 0.000E+00
 ETOT 20  -43.181068978333     -7.105E-15 1.652E-07 0.000E+00
 ETOT 21  -43.181068978333      7.105E-15 5.756E-08 0.000E+00
 ETOT 22  -43.181068978333     -7.105E-15 4.087E-08 0.000E+00
 ETOT 23  -43.181068978333     -2.132E-14 1.407E-08 0.000E+00
 ETOT 24  -43.181068978333      7.105E-15 1.011E-08 0.000E+00
 ETOT 25  -43.181068978333      0.000E+00 3.447E-09 0.000E+00
 ETOT 26  -43.181068978333      2.132E-14 2.500E-09 0.000E+00
 ETOT 27  -43.181068978333     -1.421E-14 8.460E-10 0.000E+00
 ETOT 28  -43.181068978333     -1.421E-14 6.181E-10 0.000E+00
 ETOT 29  -43.181068978333      1.421E-14 2.080E-10 0.000E+00
 ETOT 30  -43.181068978333      7.105E-15 1.528E-10 0.000E+00
 ETOT 31  -43.181068978333     -1.421E-14 5.118E-11 0.000E+00
 ETOT 32  -43.181068978333      7.105E-15 3.779E-11 0.000E+00
 ETOT 33  -43.181068978333      0.000E+00 1.261E-11 0.000E+00
 ETOT 34  -43.181068978333      2.132E-14 9.349E-12 0.000E+00
 ETOT 35  -43.181068978333     -2.132E-14 3.108E-12 0.000E+00
 ETOT 36  -43.181068978333      0.000E+00 2.314E-12 0.000E+00
 ETOT 37  -43.181068978333      7.105E-15 7.669E-13 0.000E+00
 ETOT 38  -43.181068978333      7.105E-15 5.730E-13 0.000E+00
 ETOT 39  -43.181068978333     -7.105E-15 1.893E-13 0.000E+00
 ETOT 40  -43.181068978333      7.105E-15 1.422E-13 0.000E+00
 ETOT 41  -43.181068978333      0.000E+00 4.673E-14 0.000E+00
 ETOT 42  -43.181068978333     -7.105E-15 3.571E-14 0.000E+00
 ETOT 43  -43.181068978333      0.000E+00 1.151E-14 0.000E+00
 ETOT 44  -43.181068978333      0.000E+00 9.491E-15 0.000E+00
 ETOT 45  -43.181068978333      0.000E+00 2.859E-15 0.000E+00
 ETOT 46  -43.181068978333      0.000E+00 2.825E-15 0.000E+00
 ETOT 47  -43.181068978333      7.105E-15 7.525E-16 0.000E+00
 ETOT 48  -43.181068978333     -2.132E-14 7.960E-16 0.000E+00
 ETOT 49  -43.181068978333      7.105E-15 1.944E-16 0.000E+00
 ETOT 50  -43.181068978333     -2.132E-14 2.062E-16 0.000E+00
 ETOT 51  -43.181068978333      1.421E-14 4.972E-17 0.000E+00
 ETOT 52  -43.181068978333      1.421E-14 5.279E-17 0.000E+00
 ETOT 53  -43.181068978333      7.105E-15 1.271E-17 0.000E+00
 ETOT 54  -43.181068978333      0.000E+00 1.351E-17 0.000E+00
 ETOT 55  -43.181068978333     -7.105E-15 3.251E-18 0.000E+00
 ETOT 56  -43.181068978333     -7.105E-15 3.461E-18 0.000E+00
 ETOT 57  -43.181068978333      2.132E-14 8.321E-19 0.000E+00
 ETOT 58  -43.181068978333     -2.132E-14 8.868E-19 0.000E+00
 ETOT 59  -43.181068978333     -7.105E-15 2.130E-19 0.000E+00
 ETOT 60  -43.181068978333      2.842E-14 2.273E-19 0.000E+00
 ETOT 61  -43.181068978333      0.000E+00 5.456E-20 0.000E+00
 ETOT 62  -43.181068978333      0.000E+00 5.829E-20 0.000E+00
 ETOT 63  -43.181068978333     -7.105E-15 1.398E-20 0.000E+00
 ETOT 64  -43.181068978333      0.000E+00 1.495E-20 0.000E+00
 ETOT 65  -43.181068978333      7.105E-15 9.931E-21 0.000E+00

 At SCF step   65   max residual=  9.93E-21 < tolwfr=  1.00E-20 =>converged.

 ----iterations are completed or convergence reached----

 dfpt_looppert: DFPT cycle converged with prtwf=-1. Will skip output of the 1st-order WFK file.
 dfpt_looppert : ek2=    7.9983248719E+01
          f-sum rule ratio=    1.0800033086E+00
 prteigrs : about to open file /scratch/users/j/a/jabreu/flow_simple_10atoms/flow/w284/t1/tmpdata/tmp_1WF1_EIG
 Expectation of eigenvalue derivatives (hartree) for nkpt=   2  k points:
  (in case of degenerate eigenvalues, averaged derivative)
 kpt#   1, nband= 41, wtk=  0.50000, kpt=  0.5000  0.5000  0.5000 (reduced coord)
   0.00000    0.00000    0.00000    0.00000    0.00000    0.00000    0.00000    0.00000
   0.00000    0.00000    0.00000   -0.00000   -0.00000    0.00000    0.00000   -0.00000
   0.00000    0.00000   -0.00000   -0.00000    0.00000   -0.00000   -0.00000   -0.00000
   0.00000    0.00000    0.00000    0.00000   -0.00000   -0.00000    0.00000    0.00000
  -0.00000    0.00000    0.00000    0.00000    0.00000    0.00000   -0.00000    0.00000
   0.00000
 prteigrs : prtvol=0 or 1, do not print more k-points.

 Eight components of 2nd-order total energy (hartree) are
 1,2,3: 0th-order hamiltonian combined with 1st-order wavefunctions
     kin0=   6.54476616E+01 eigvalue=  -2.51005935E-01  local=  -3.13600122E+01
 4,5,6: 1st-order hamiltonian combined with 1st and 0th-order wfs
     kin1=  -8.63821732E+01  Hartree=   0.00000000E+00     xc=   0.00000000E+00
 7,8,9: eventually, occupation + non-local contributions
    edocc=   1.03743466E+01     enl0=  -1.02992097E+00   enl1=   2.00352901E-02
 1-9 gives the relaxation energy (to be shifted if some occ is /=2.0)
   erelax=  -4.31810690E+01
  No Ewald or frozen-wf contrib.: the relaxation energy is the total one
 2DEtotal=   -0.4318106898E+02 Ha. Also 2DEtotal=   -0.117501664345E+04 eV
    (  non-var. 2DEtotal :   -4.3181068978E+01 Ha)

 CALCULATION OF EFFECTIVE MASSES
 NOTE : Additional infos (eff. mass eigenvalues, eigenvectors and, if degenerate, average mass) are available in stdout.

 K-point ( 0.500, 0.500, 0.500) | band =    32
 Effective mass tensor:
             -2.4452195369             -0.4959230578             -1.6993879282
             -0.4959230578             -2.0116704077             -1.1118200240
             -1.6993879282             -1.1118200240             -5.4971065497
 Effective mass tensor eigenvalues:
             -6.5795683561             -1.6872140696             -1.6872140686
 Angular average effective mass 1/(<1/m>)=  -2.2432058481
 Angular average effective mass for Frohlich model (<m**0.5>)**2=  -2.4532992399
 Effective masses along directions: (cart. coord. / red. coord. -> eff. mass)
    1:   1.000000  0.000000  0.000000 /   0.928310  0.371808  0.000000 ->  -1.9069003484
    2:   0.000000  1.000000  0.000000 /   0.000000  1.000000  0.000000 ->  -1.7747308547
    3:   0.000000  0.000000  1.000000 /   0.485629  0.485629  0.726863 ->  -4.0081008750
    4:   0.577350  0.577350  0.577350 /   0.590987  0.689636  0.418494 ->  -4.0455614443
    5:   0.000000  0.707107  0.707107 /   0.369550  0.746652  0.553122 ->  -3.2644902155
    6:   0.707107  0.000000  0.707107 /   0.712562  0.487493  0.504585 ->  -4.2758669619
    7:   0.707107  0.707107  0.000000 /   0.604786  0.796388  0.000000 ->  -2.0029430333

 K-point ( 0.000, 0.000, 0.000) | band =    33
 Effective mass tensor:
             42.8973035688             27.1126118940             92.9072455593
             27.1126118940             19.1947370728             60.7843178883
             92.9072455593             60.7843178883            209.7470327282
 Effective mass tensor eigenvalues:
              1.4563829718              1.4563829738            268.9263074243
 Angular average effective mass 1/(<1/m>)=   2.1786751008
 Angular average effective mass for Frohlich model (<m**0.5>)**2=   3.2821496106
 Effective masses along directions: (cart. coord. / red. coord. -> eff. mass)
    1:   1.000000  0.000000  0.000000 /   0.928310  0.371808  0.000000 ->   1.7216916682
    2:   0.000000  1.000000  0.000000 /   0.000000  1.000000  0.000000 ->   1.5592296122
    3:   0.000000  0.000000  1.000000 /   0.485629  0.485629  0.726863 ->   6.4592305896
    4:   0.577350  0.577350  0.577350 /   0.590987  0.689636  0.418494 ->   6.6121260858
    5:   0.000000  0.707107  0.707107 /   0.369550  0.746652  0.553122 ->   4.1172084445
    6:   0.707107  0.000000  0.707107 /   0.712562  0.487493  0.504585 ->   7.6565905581
    7:   0.707107  0.707107  0.000000 /   0.604786  0.796388  0.000000 ->   1.8455009208

 END OF EFFECTIVE MASSES SECTION

 ---- first-order wavefunction calculations are completed ----

 Total localisation tensor (bohr^2) in cartesian coordinates
  WARNING : still subject to testing - especially symmetries.
      direction              matrix element
   alpha     beta       real part   imaginary part
     1        1       1.1835941339    0.0000000000
     1        2       0.3743225775    0.0000000000
     1        3       1.2826975056    0.0000000000
     2        1       0.3743225775    0.0000000000
     2        2       0.8563513798    0.0000000000
     2        3       0.8392014256    0.0000000000
     3        1       1.2826975056    0.0000000000
     3        2       0.8392014256    0.0000000000
     3        3       3.4871575456    0.0000000000

 respfn : d/dk was computed, but no 2DTE, so no DDB output.

== END DATASET(S) ==============================================================

 -outvars: echo values of variables after computation  --------
            acell      1.0000000000E+00  1.0000000000E+00  1.0000000000E+00 Bohr
              amu      1.37327000E+02  4.78800000E+01  1.08110000E+01
                       1.59994000E+01
             ecut      4.40000000E+01 Hartree
           etotal     -4.3181068978E+01
            fcart      0.0000000000E+00  0.0000000000E+00  0.0000000000E+00
                       0.0000000000E+00  0.0000000000E+00  0.0000000000E+00
                       0.0000000000E+00  0.0000000000E+00  0.0000000000E+00
                       0.0000000000E+00  0.0000000000E+00  0.0000000000E+00
                       0.0000000000E+00  0.0000000000E+00  0.0000000000E+00
                       0.0000000000E+00  0.0000000000E+00  0.0000000000E+00
                       0.0000000000E+00  0.0000000000E+00  0.0000000000E+00
                       0.0000000000E+00  0.0000000000E+00  0.0000000000E+00
                       0.0000000000E+00  0.0000000000E+00  0.0000000000E+00
                       0.0000000000E+00  0.0000000000E+00  0.0000000000E+00
-          fftalg         512
           irdden           1
           irdwfk           1
           istwfk        1    1
              ixc     -116133
              kpt      5.00000000E-01  5.00000000E-01  5.00000000E-01
                       0.00000000E+00  0.00000000E+00  0.00000000E+00
           kptopt           0
P           mkmem           2
P          mkqmem           2
P          mk1mem           2
            natom          10
            nband          41
           nbdbuf           4
            ngfft          72      72      72
             nkpt           2
            nstep        2000
             nsym           6
           ntypat           4
              occ      2.000000  2.000000  2.000000  2.000000  2.000000  2.000000
                       2.000000  2.000000  2.000000  2.000000  2.000000  2.000000
                       2.000000  2.000000  2.000000  2.000000  2.000000  2.000000
                       2.000000  2.000000  2.000000  2.000000  2.000000  2.000000
                       2.000000  2.000000  2.000000  2.000000  2.000000  2.000000
                       2.000000  2.000000  0.000000  0.000000  0.000000  0.000000
                       0.000000  0.000000  0.000000  0.000000  0.000000
        optdriver           1
            prtwf          -1
            rfdir           1       1       1
           rfelfd           2
            rprim      8.6746830993E+00  0.0000000000E+00  7.7893199712E+00
                       3.4743963007E+00  7.9485028288E+00  7.7893199712E+00
                       0.0000000000E+00  0.0000000000E+00  1.1658629100E+01
          spgroup         148
           strten      0.0000000000E+00  0.0000000000E+00  0.0000000000E+00
                       0.0000000000E+00  0.0000000000E+00  0.0000000000E+00
           symrel      1  0  0   0  1  0   0  0  1      -1  0  0   0 -1  0   0  0 -1
                       0  0  1   1  0  0   0  1  0       0  0 -1  -1  0  0   0 -1  0
                       0  1  0   0  0  1   1  0  0       0 -1  0   0  0 -1  -1  0  0
           tolwfr      1.00000000E-20
            typat      1  2  3  3  4  4  4  4  4  4
           useylm           1
              wtk        0.50000    0.50000
           xangst      0.0000000000E+00  0.0000000000E+00  0.0000000000E+00
                       3.2145079619E+00  2.1030832697E+00  7.2066710007E+00
                       1.5046468868E+00  9.8441121688E-01  3.3732985620E+00
                       4.9243690370E+00  3.2217553225E+00  1.1040043439E+01
                       2.6553358591E+00  1.4432997802E+00  8.9495067832E+00
                       5.0648190605E+00  1.8549783302E+00  7.7546281485E+00
                       3.1500439471E+00  3.0829518267E-01  6.4583098767E+00
                       3.7736800647E+00  2.7628667592E+00  5.4638352182E+00
                       1.3641968633E+00  2.3511882092E+00  6.6587138529E+00
                       3.2789719767E+00  3.8978713567E+00  7.9550321247E+00
            xcart      0.0000000000E+00  0.0000000000E+00  0.0000000000E+00
                       6.0745397000E+00  3.9742514144E+00  1.3618634521E+01
                       2.8433705428E+00  1.8602676021E+00  6.3746104466E+00
                       9.3057088572E+00  6.0882352267E+00  2.0862658596E+01
                       5.0178575646E+00  2.7274413122E+00  1.6912116845E+01
                       9.5711209370E+00  3.5054010265E+00  1.4654123463E+01
                       5.9527203665E+00  5.8259346334E-01  1.2204436948E+01
                       7.1312218354E+00  5.2210615166E+00  1.0325152198E+01
                       2.5779584630E+00  4.4431018023E+00  1.2583145579E+01
                       6.1963590335E+00  7.3659093655E+00  1.5032832094E+01
             xred      0.0000000000E+00  0.0000000000E+00  0.0000000000E+00
                       5.0000000000E-01  5.0000000000E-01  5.0000000000E-01
                       2.3404000000E-01  2.3404000000E-01  2.3404000000E-01
                       7.6596000000E-01  7.6596000000E-01  7.6596000000E-01
                       4.4101400000E-01  3.4313900000E-01  9.2670400000E-01
                       9.2670400000E-01  4.4101400000E-01  3.4313900000E-01
                       6.5686100000E-01  7.3296000000E-02  5.5898600000E-01
                       5.5898600000E-01  6.5686100000E-01  7.3296000000E-02
                       7.3296000000E-02  5.5898600000E-01  6.5686100000E-01
                       3.4313900000E-01  9.2670400000E-01  4.4101400000E-01
            znucl       56.00000   22.00000    5.00000    8.00000

- Timing analysis has been suppressed with timopt=0

 Suggested references for the acknowledgment of ABINIT usage.

 Calculation completed.
.Delivered   2 WARNINGs and   5 COMMENTs to log file.