.Version 9.7.2 of ABINIT

 ABINIT is a project of the Universite Catholique de Louvain,
 Corning Inc. and other collaborators, see ~abinit/doc/developers/contributors.txt .
 acknowledgments of the ABINIT effort.

.Starting date : Wed  1 Dec 2021.
- ( at 22h09 )

- input  file    -> /scratch/users/j/a/jabreu/flow_simple_remain_atoms/flow/w289/t1/run.abi
- output file    -> /scratch/users/j/a/jabreu/flow_simple_remain_atoms/flow/w289/t1/run.abo
- root for input  files -> /scratch/users/j/a/jabreu/flow_simple_remain_atoms/flow/w289/t1/indata/in
- root for output files -> /scratch/users/j/a/jabreu/flow_simple_remain_atoms/flow/w289/t1/outdata/out

 Symmetries : space group C2/m (# 12); Bravais mC (1-face-center monocl.)
     intxc =       0      iscf =       7    lmnmax =      18     lnmax =       6
     mgfft =      64  mpssoang =       3    mqgrid =    3004     natom =       5
  nloc_mem =       1    nspden =       1   nspinor =       1    nsppol =       1
      nsym =       4    n1xccc =    2501    ntypat =       3    occopt =       1
   xclevel =       2
-    mband =          25        mffmem =           1         mkmem =           1
-   mkqmem =           1        mk1mem =           1           mpw =        7713
      nfft =      147456          nkpt =           1
  Rough estimation (10% accuracy) of disk space for files :

------------- Echo of variables that govern the present computation ------------
-
- outvars: echo of selected default values
-   iomode0 =  0 , fftalg0 =512 , wfoptalg0 =  0
-
- outvars: echo of global parameters not present in the input file
-  max_nthreads =    0
-
 -outvars: echo values of preprocessed input variables --------
            acell      1.0000000000E+00  1.0000000000E+00  1.0000000000E+00 Bohr
              amu      3.90983000E+01  1.20110000E+01  1.40067400E+01
             ecut      4.20000000E+01 Hartree
-          fftalg         512
           irdden           1
           irdwfk           1
           istwfk        1
              ixc     -116133
           kptopt           0
P           mkmem           1
P          mkqmem           1
P          mk1mem           1
            natom           5
            nband          25
           nbdbuf           4
            ngfft          48      48      64
             nkpt           1
            nstep        2000
             nsym           4
           ntypat           3
              occ      2.000000  2.000000  2.000000  2.000000  2.000000  2.000000
                       2.000000  2.000000  2.000000  2.000000  2.000000  2.000000
                       2.000000  2.000000  2.000000  2.000000  0.000000  0.000000
                       0.000000  0.000000  0.000000  0.000000  0.000000  0.000000
                       0.000000
        optdriver           1
            prtwf          -1
            rfdir           1       1       1
           rfelfd           2
            rprim      7.3991440343E+00  0.0000000000E+00  1.7182933322E+00
                      -2.8237202150E-01  7.3937540182E+00  1.7182933322E+00
                       0.0000000000E+00  0.0000000000E+00  1.0855653610E+01
          spgroup          12
           symrel      1  0  0   0  1  0   0  0  1      -1  0  0   0 -1  0   0  0 -1
                       0 -1  0  -1  0  0   0  0 -1       0  1  0   1  0  0   0  0  1
           tolwfr      1.00000000E-20
            typat      1  1  2  3  3
           useylm           1
           xangst      1.2163798775E+00  1.2637209104E+00  2.2496711944E+00
                       2.5496536704E+00  2.6488852019E+00  5.3134566186E+00
                       0.0000000000E+00  0.0000000000E+00  0.0000000000E+00
                       6.0726161150E-01  6.3089599780E-01  4.8609766237E+00
                       3.1587719364E+00  3.2817101146E+00  2.7021511893E+00
            xcart      2.2986248421E+00  2.3880864291E+00  4.2512624465E+00
                       4.8181471707E+00  5.0056675891E+00  1.0040977828E+01
                       0.0000000000E+00  0.0000000000E+00  0.0000000000E+00
                       1.1475581367E+00  1.1922206542E+00  9.1859145571E+00
                       5.9692138761E+00  6.2015333640E+00  5.1063257175E+00
             xred      3.2298700000E-01  3.2298700000E-01  2.8936900000E-01
                       6.7701300000E-01  6.7701300000E-01  7.1063100000E-01
                       0.0000000000E+00  0.0000000000E+00  0.0000000000E+00
                       1.6124700000E-01  1.6124700000E-01  7.9514100000E-01
                       8.3875300000E-01  8.3875300000E-01  2.0485900000E-01
            znucl       19.00000    6.00000    7.00000

 chkinp: Checking input parameters for consistency.

== DATASET  1 ==================================================================
-   mpi_nproc: 1, omp_nthreads: -1 (-1 if OMP is not activated)

--- !DatasetInfo
iteration_state: {dtset: 1, }
dimensions: {natom: 5, nkpt: 1, mband: 25, nsppol: 1, nspinor: 1, nspden: 1, mpw: 7713, }
cutoff_energies: {ecut:  42.0, pawecutdg:  -1.0, }
electrons: {nelect:   3.20000000E+01, charge:   0.00000000E+00, occopt:   1.00000000E+00, tsmear:   1.00000000E-02, }
meta: {optdriver: 1, rfelfd: 2, }
...

 Real(R)+Recip(G) space primitive vectors, cartesian coordinates (Bohr,Bohr^-1):
 R(1)=  7.3991440  0.0000000  1.7182933  G(1)=  0.1351508  0.0051615  0.0000000
 R(2)= -0.2823720  7.3937540  1.7182933  G(2)=  0.0000000  0.1352493  0.0000000
 R(3)=  0.0000000  0.0000000 10.8556536  G(3)= -0.0213924 -0.0222250  0.0921179
 Unit cell volume ucvol=  5.9388514E+02 bohr^3
 Angles (23,13,12)=  7.69260172E+01  7.69260172E+01  8.91427926E+01 degrees

 getcut: wavevector=  0.0000  0.0000  0.0000  ngfft=  48  48  64
         ecut(hartree)=     42.000   => boxcut(ratio)=   2.02087

--- Pseudopotential description ------------------------------------------------
- pspini: atom type   1  psp file is /scratch/users/j/a/jabreu/pseudos/PBEsol/K.psp8
- pspatm: opening atomic psp file    /scratch/users/j/a/jabreu/pseudos/PBEsol/K.psp8
- K     ONCVPSP-3.3.0  r_core=   1.36296   1.46408   1.61068
- 19.00000   9.00000    180112                znucl, zion, pspdat
    8 -116133    2    4       400   0.00000   pspcod,pspxc,lmax,lloc,mmax,r2well
    3.99000000000000    5.00000000000000    0.00000000000000   rchrg,fchrg,qchrg
     nproj     2     2     2
     extension_switch     1
  pspatm : epsatm=    8.32487830
         --- l  ekb(1:nproj) -->
             0   10.921326    0.816676
             1    4.431000    0.560368
             2   -3.384038   -1.043186
 pspatm: atomic psp has been read  and splines computed

- pspini: atom type   2  psp file is /scratch/users/j/a/jabreu/pseudos/PBEsol/C.psp8
- pspatm: opening atomic psp file    /scratch/users/j/a/jabreu/pseudos/PBEsol/C.psp8
- C     ONCVPSP-3.3.0  r_core=   1.20440   1.26326
-  6.00000   4.00000    180112                znucl, zion, pspdat
    8 -116133    1    4       600   0.00000   pspcod,pspxc,lmax,lloc,mmax,r2well
    5.99000000000000    4.00000000000000    0.00000000000000   rchrg,fchrg,qchrg
     nproj     2     2
     extension_switch     1
  pspatm : epsatm=    4.34909529
         --- l  ekb(1:nproj) -->
             0    6.468939    0.390031
             1   -4.179695   -0.878453
 pspatm: atomic psp has been read  and splines computed

- pspini: atom type   3  psp file is /scratch/users/j/a/jabreu/pseudos/PBEsol/N.psp8
- pspatm: opening atomic psp file    /scratch/users/j/a/jabreu/pseudos/PBEsol/N.psp8
- N     ONCVPSP-3.3.0  r_core=   1.20551   1.35824
-  7.00000   5.00000    180112                znucl, zion, pspdat
    8 -116133    1    4       600   0.00000   pspcod,pspxc,lmax,lloc,mmax,r2well
    5.99000000000000    4.00000000000000    0.00000000000000   rchrg,fchrg,qchrg
     nproj     2     2
     extension_switch     1
  pspatm : epsatm=    5.26508895
         --- l  ekb(1:nproj) -->
             0    7.464189    0.625868
             1   -4.309714   -1.012941
 pspatm: atomic psp has been read  and splines computed

   1.00892895E+03                                ecore*ucvol(ha*bohr**3)

 ==>  initialize data related to q vector <==

 The list of irreducible perturbations for this q vector is:
    1)    idir= 1    ipert=   6
    2)    idir= 2    ipert=   6
    3)    idir= 3    ipert=   6

 Perturbation wavevector (in red.coord.)   0.000000  0.000000  0.000000
 Perturbation : derivative vs k along direction   1

 dfpt_looppert : COMMENT -
  In a d/dk calculation, iscf is set to -3 automatically.
 The set of symmetries contains only one element for this perturbation.
 symkpt : not enough symmetry to change the number of k points.

 Initialisation of the first-order wave-functions :
  ireadwf=   0

--- !BeginCycle
iteration_state: {dtset: 1, }
solver: {iscf: 7, nstep: 2000, nline: 4, wfoptalg: 0, }
tolerances: {tolwfr: 1.00E-20, }
...

     iter   2DEtotal(Ha)        deltaE(Ha) residm    vres2
-ETOT  1  -24.343447163354     -2.434E+01 1.399E-01 0.000E+00
 ETOT  2  -24.395303652735     -5.186E-02 1.194E-02 0.000E+00
 ETOT  3  -24.395764327096     -4.607E-04 1.154E-03 0.000E+00
 ETOT  4  -24.395769767736     -5.441E-06 3.775E-04 0.000E+00
 ETOT  5  -24.395769844808     -7.707E-08 3.017E-05 0.000E+00
 ETOT  6  -24.395769845978     -1.171E-09 9.557E-06 0.000E+00
 ETOT  7  -24.395769845997     -1.882E-11 7.798E-07 0.000E+00
 ETOT  8  -24.395769845997     -3.268E-13 2.423E-07 0.000E+00
 ETOT  9  -24.395769845997     -3.553E-15 2.119E-08 0.000E+00
 ETOT 10  -24.395769845997      1.066E-14 6.375E-09 0.000E+00
 ETOT 11  -24.395769845997     -4.263E-14 1.111E-09 0.000E+00
 ETOT 12  -24.395769845997      2.132E-14 3.080E-10 0.000E+00
 ETOT 13  -24.395769845997      0.000E+00 7.596E-11 0.000E+00
 ETOT 14  -24.395769845997      0.000E+00 2.092E-11 0.000E+00
 ETOT 15  -24.395769845997      1.066E-14 5.946E-12 0.000E+00
 ETOT 16  -24.395769845997     -1.066E-14 1.597E-12 0.000E+00
 ETOT 17  -24.395769845997      7.105E-15 4.782E-13 0.000E+00
 ETOT 18  -24.395769845997      0.000E+00 1.262E-13 0.000E+00
 ETOT 19  -24.395769845997     -3.553E-15 3.861E-14 0.000E+00
 ETOT 20  -24.395769845997      7.105E-15 1.009E-14 0.000E+00
 ETOT 21  -24.395769845997     -7.105E-15 3.130E-15 0.000E+00
 ETOT 22  -24.395769845997      0.000E+00 8.125E-16 0.000E+00
 ETOT 23  -24.395769845997      7.105E-15 2.555E-16 0.000E+00
 ETOT 24  -24.395769845997     -3.553E-15 6.579E-17 0.000E+00
 ETOT 25  -24.395769845997      3.553E-15 2.101E-17 0.000E+00
 ETOT 26  -24.395769845997     -3.553E-15 5.351E-18 0.000E+00
 ETOT 27  -24.395769845997     -3.553E-15 1.734E-18 0.000E+00
 ETOT 28  -24.395769845997     -3.553E-15 4.364E-19 0.000E+00
 ETOT 29  -24.395769845997      3.553E-15 1.430E-19 0.000E+00
 ETOT 30  -24.395769845997      0.000E+00 3.565E-20 0.000E+00
 ETOT 31  -24.395769845997      3.553E-15 1.179E-20 0.000E+00
 ETOT 32  -24.395769845997      3.553E-15 9.606E-21 0.000E+00

 At SCF step   32   max residual=  9.61E-21 < tolwfr=  1.00E-20 =>converged.

 ----iterations are completed or convergence reached----

 dfpt_looppert: DFPT cycle converged with prtwf=-1. Will skip output of the 1st-order WFK file.
 dfpt_looppert : ek2=    4.6217847442E+01
          f-sum rule ratio=    1.1161624805E+00
 prteigrs : about to open file /scratch/users/j/a/jabreu/flow_simple_remain_atoms/flow/w289/t1/tmpdata/tmp_1WF1_EIG
 Expectation of eigenvalue derivatives (hartree) for nkpt=   1  k points:
  (in case of degenerate eigenvalues, averaged derivative)
 kpt#   1, nband= 25, wtk=  1.00000, kpt=  0.0000  0.0000  0.0000 (reduced coord)
  -0.00000   -0.00000   -0.00000   -0.00000    0.00000    0.00000    0.00000    0.00000
  -0.00000   -0.00000    0.00000    0.00000    0.00000    0.00000   -0.00000   -0.00000
   0.00000    0.00000   -0.00000    0.00000   -0.00000    0.00000   -0.00003    0.00024
  -0.00067

 Eight components of 2nd-order total energy (hartree) are
 1,2,3: 0th-order hamiltonian combined with 1st-order wavefunctions
     kin0=   2.86847721E+01 eigvalue=   1.86739734E+00  local=  -1.49601753E+01
 4,5,6: 1st-order hamiltonian combined with 1st and 0th-order wfs
     kin1=  -5.15866272E+01  Hartree=   0.00000000E+00     xc=   0.00000000E+00
 7,8,9: eventually, occupation + non-local contributions
    edocc=   9.09326311E+00     enl0=  -2.89487384E-01   enl1=   2.79508755E+00
 1-9 gives the relaxation energy (to be shifted if some occ is /=2.0)
   erelax=  -2.43957698E+01
  No Ewald or frozen-wf contrib.: the relaxation energy is the total one
 2DEtotal=   -0.2439576985E+02 Ha. Also 2DEtotal=   -0.663842657840E+03 eV
    (  non-var. 2DEtotal :   -2.4395769846E+01 Ha)

 Perturbation wavevector (in red.coord.)   0.000000  0.000000  0.000000
 Perturbation : derivative vs k along direction   2
 The set of symmetries contains only one element for this perturbation.
 symkpt : not enough symmetry to change the number of k points.

[...]

 Perturbation wavevector (in red.coord.)   0.000000  0.000000  0.000000
 Perturbation : derivative vs k along direction   3
 The set of symmetries contains only one element for this perturbation.
 symkpt : not enough symmetry to change the number of k points.

 Initialisation of the first-order wave-functions :
  ireadwf=   0

--- !BeginCycle
iteration_state: {dtset: 1, }
solver: {iscf: 7, nstep: 2000, nline: 4, wfoptalg: 0, }
tolerances: {tolwfr: 1.00E-20, }
...

     iter   2DEtotal(Ha)        deltaE(Ha) residm    vres2
-ETOT  1  -11.582198163096     -1.158E+01 7.996E-02 0.000E+00
 ETOT  2  -11.598948068305     -1.675E-02 3.792E-03 0.000E+00
 ETOT  3  -11.599058951354     -1.109E-04 4.832E-04 0.000E+00
 ETOT  4  -11.599060141087     -1.190E-06 7.176E-05 0.000E+00
 ETOT  5  -11.599060157721     -1.663E-08 1.171E-05 0.000E+00
 ETOT  6  -11.599060157979     -2.579E-10 1.686E-06 0.000E+00
 ETOT  7  -11.599060157983     -4.260E-12 2.840E-07 0.000E+00
 ETOT  8  -11.599060157983     -7.283E-14 4.340E-08 0.000E+00
 ETOT  9  -11.599060157983     -1.954E-14 8.163E-09 0.000E+00
 ETOT 10  -11.599060157983      1.776E-15 1.507E-09 0.000E+00
 ETOT 11  -11.599060157983     -1.066E-14 3.627E-10 0.000E+00
 ETOT 12  -11.599060157983      7.105E-15 8.870E-11 0.000E+00
 ETOT 13  -11.599060157983     -3.553E-15 2.530E-11 0.000E+00
 ETOT 14  -11.599060157983      0.000E+00 7.035E-12 0.000E+00
 ETOT 15  -11.599060157983     -3.553E-15 2.089E-12 0.000E+00
 ETOT 16  -11.599060157983      0.000E+00 5.968E-13 0.000E+00
 ETOT 17  -11.599060157983      7.105E-15 1.800E-13 0.000E+00
 ETOT 18  -11.599060157983     -1.776E-15 5.160E-14 0.000E+00
 ETOT 19  -11.599060157983     -1.776E-15 1.578E-14 0.000E+00
 ETOT 20  -11.599060157983      3.553E-15 4.517E-15 0.000E+00
 ETOT 21  -11.599060157983     -1.776E-15 1.397E-15 0.000E+00
 ETOT 22  -11.599060157983      0.000E+00 3.989E-16 0.000E+00
 ETOT 23  -11.599060157983      0.000E+00 1.244E-16 0.000E+00
 ETOT 24  -11.599060157983      0.000E+00 3.544E-17 0.000E+00
 ETOT 25  -11.599060157983     -1.776E-15 1.110E-17 0.000E+00
 ETOT 26  -11.599060157983      0.000E+00 3.160E-18 0.000E+00
 ETOT 27  -11.599060157983      3.553E-15 9.928E-19 0.000E+00
 ETOT 28  -11.599060157983      3.553E-15 2.826E-19 0.000E+00
 ETOT 29  -11.599060157983      0.000E+00 8.891E-20 0.000E+00
 ETOT 30  -11.599060157983      0.000E+00 2.531E-20 0.000E+00
 ETOT 31  -11.599060157983      0.000E+00 9.668E-21 0.000E+00

 At SCF step   31   max residual=  9.67E-21 < tolwfr=  1.00E-20 =>converged.

 ----iterations are completed or convergence reached----

 dfpt_looppert: DFPT cycle converged with prtwf=-1. Will skip output of the 1st-order WFK file.
 dfpt_looppert : ek2=    2.3844442300E+01
          f-sum rule ratio=    1.0286790637E+00
 prteigrs : about to open file /scratch/users/j/a/jabreu/flow_simple_remain_atoms/flow/w289/t1/tmpdata/tmp_1WF1_EIG
 Expectation of eigenvalue derivatives (hartree) for nkpt=   1  k points:
  (in case of degenerate eigenvalues, averaged derivative)
 kpt#   1, nband= 25, wtk=  1.00000, kpt=  0.0000  0.0000  0.0000 (reduced coord)
   0.00000    0.00000    0.00000    0.00000   -0.00000    0.00000   -0.00000   -0.00000
   0.00000    0.00000    0.00000    0.00000    0.00000   -0.00000   -0.00000    0.00000
  -0.00000    0.00000   -0.00000   -0.00000    0.00000    0.00000    0.00010   -0.00080
   0.00401

 Eight components of 2nd-order total energy (hartree) are
 1,2,3: 0th-order hamiltonian combined with 1st-order wavefunctions
     kin0=   1.37400957E+01 eigvalue=   1.17362584E+00  local=  -7.79313932E+00
 4,5,6: 1st-order hamiltonian combined with 1st and 0th-order wfs
     kin1=  -2.45282786E+01  Hartree=   0.00000000E+00     xc=   0.00000000E+00
 7,8,9: eventually, occupation + non-local contributions
    edocc=   4.38215142E+00     enl0=   9.63264944E-02   enl1=   1.33015826E+00
 1-9 gives the relaxation energy (to be shifted if some occ is /=2.0)
   erelax=  -1.15990602E+01
  No Ewald or frozen-wf contrib.: the relaxation energy is the total one
 2DEtotal=   -0.1159906016E+02 Ha. Also 2DEtotal=   -0.315626478374E+03 eV
    (  non-var. 2DEtotal :   -1.1599060158E+01 Ha)

 CALCULATION OF EFFECTIVE MASSES
 NOTE : Additional infos (eff. mass eigenvalues, eigenvectors and, if degenerate, average mass) are available in stdout.

 K-point ( 0.000, 0.000, 0.000) | band =    16
 Effective mass tensor:
             -4.0603580225             -2.9053876512              0.9895337454
             -2.9053876512             -4.2825661474              1.0276063904
              0.9895337454              1.0276063904            -14.3406359352
 Effective mass tensor eigenvalues:
            -14.6108413947             -6.8087678584             -1.2639508521
 Angular average effective mass 1/(<1/m>)=  -2.9806798801
 Angular average effective mass for Frohlich model (<m**0.5>)**2=  -4.0802201548
 Effective masses along directions: (cart. coord. / red. coord. -> eff. mass)
    1:   1.000000  0.000000  0.000000 /   0.999273 -0.038135  0.000000 ->  -2.0832132276
    2:   0.000000  1.000000  0.000000 /   0.000000  1.000000  0.000000 ->  -2.1963750290
    3:   0.000000  0.000000  1.000000 /   0.154463  0.154463  0.975850 -> -14.0531433326
    4:   0.577350  0.577350  0.577350 /   0.545909  0.528679  0.649985 ->  -7.4907909889
    5:   0.000000  0.707107  0.707107 /   0.120356  0.638241  0.760370 ->  -3.6556959912
    6:   0.707107  0.000000  0.707107 /   0.639864  0.100773  0.761852 ->  -3.5019978105
    7:   0.707107  0.707107  0.000000 /   0.720988  0.692948  0.000000 ->  -6.9256992404

 K-point ( 0.000, 0.000, 0.000) | band =    17
 Effective mass tensor:
              0.7200569067             -0.0363661380              0.0633964882
             -0.0363661380              0.7172788658              0.0658626736
              0.0633964882              0.0658626736              0.7276335319
 Effective mass tensor eigenvalues:
              0.6107665352              0.7550605416              0.7991422275
 Angular average effective mass 1/(<1/m>)=   0.7120773180
 Angular average effective mass for Frohlich model (<m**0.5>)**2=   0.7150361105
 Effective masses along directions: (cart. coord. / red. coord. -> eff. mass)
    1:   1.000000  0.000000  0.000000 /   0.999273 -0.038135  0.000000 ->   0.7120410960
    2:   0.000000  1.000000  0.000000 /   0.000000  1.000000  0.000000 ->   0.7088361718
    3:   0.000000  0.000000  1.000000 /   0.154463  0.154463  0.975850 ->   0.7153847998
    4:   0.577350  0.577350  0.577350 /   0.545909  0.528679  0.649985 ->   0.7792950556
    5:   0.000000  0.707107  0.707107 /   0.120356  0.638241  0.760370 ->   0.7877947127
    6:   0.707107  0.000000  0.707107 /   0.639864  0.100773  0.761852 ->   0.7866308631
    7:   0.707107  0.707107  0.000000 /   0.720988  0.692948  0.000000 ->   0.6708173167

 END OF EFFECTIVE MASSES SECTION

 ---- first-order wavefunction calculations are completed ----

 Total localisation tensor (bohr^2) in cartesian coordinates
  WARNING : still subject to testing - especially symmetries.
      direction              matrix element
   alpha     beta       real part   imaginary part
     1        1       0.8929909280    0.0000000000
     1        2      -0.0340041084    0.0000000000
     1        3       0.1991740237    0.0000000000
     2        1      -0.0340041084    0.0000000000
     2        2       0.8903786284    0.0000000000
     2        3       0.2069221746    0.0000000000
     3        1       0.1991740237    0.0000000000
     3        2       0.2069221746    0.0000000000
     3        3       1.0146356922    0.0000000000

 respfn : d/dk was computed, but no 2DTE, so no DDB output.

== END DATASET(S) ==============================================================

 -outvars: echo values of variables after computation  --------
            acell      1.0000000000E+00  1.0000000000E+00  1.0000000000E+00 Bohr
              amu      3.90983000E+01  1.20110000E+01  1.40067400E+01
             ecut      4.20000000E+01 Hartree
           etotal     -1.1599060158E+01
            fcart      0.0000000000E+00  0.0000000000E+00  0.0000000000E+00
                       0.0000000000E+00  0.0000000000E+00  0.0000000000E+00
                       0.0000000000E+00  0.0000000000E+00  0.0000000000E+00
                       0.0000000000E+00  0.0000000000E+00  0.0000000000E+00
                       0.0000000000E+00  0.0000000000E+00  0.0000000000E+00
-          fftalg         512
           irdden           1
           irdwfk           1
           istwfk        1
              ixc     -116133
           kptopt           0
P           mkmem           1
P          mkqmem           1
P          mk1mem           1
            natom           5
            nband          25
           nbdbuf           4
            ngfft          48      48      64
             nkpt           1
            nstep        2000
             nsym           4
           ntypat           3
              occ      2.000000  2.000000  2.000000  2.000000  2.000000  2.000000
                       2.000000  2.000000  2.000000  2.000000  2.000000  2.000000
                       2.000000  2.000000  2.000000  2.000000  0.000000  0.000000
                       0.000000  0.000000  0.000000  0.000000  0.000000  0.000000
                       0.000000
        optdriver           1
            prtwf          -1
            rfdir           1       1       1
           rfelfd           2
            rprim      7.3991440343E+00  0.0000000000E+00  1.7182933322E+00
                      -2.8237202150E-01  7.3937540182E+00  1.7182933322E+00
                       0.0000000000E+00  0.0000000000E+00  1.0855653610E+01
          spgroup          12
           strten      0.0000000000E+00  0.0000000000E+00  0.0000000000E+00
                       0.0000000000E+00  0.0000000000E+00  0.0000000000E+00
           symrel      1  0  0   0  1  0   0  0  1      -1  0  0   0 -1  0   0  0 -1
                       0 -1  0  -1  0  0   0  0 -1       0  1  0   1  0  0   0  0  1
           tolwfr      1.00000000E-20
            typat      1  1  2  3  3
           useylm           1
           xangst      1.2163798775E+00  1.2637209104E+00  2.2496711944E+00
                       2.5496536704E+00  2.6488852019E+00  5.3134566186E+00
                       0.0000000000E+00  0.0000000000E+00  0.0000000000E+00
                       6.0726161150E-01  6.3089599780E-01  4.8609766237E+00
                       3.1587719364E+00  3.2817101146E+00  2.7021511893E+00
            xcart      2.2986248421E+00  2.3880864291E+00  4.2512624465E+00
                       4.8181471707E+00  5.0056675891E+00  1.0040977828E+01
                       0.0000000000E+00  0.0000000000E+00  0.0000000000E+00
                       1.1475581367E+00  1.1922206542E+00  9.1859145571E+00
                       5.9692138761E+00  6.2015333640E+00  5.1063257175E+00
             xred      3.2298700000E-01  3.2298700000E-01  2.8936900000E-01
                       6.7701300000E-01  6.7701300000E-01  7.1063100000E-01
                       0.0000000000E+00  0.0000000000E+00  0.0000000000E+00
                       1.6124700000E-01  1.6124700000E-01  7.9514100000E-01
                       8.3875300000E-01  8.3875300000E-01  2.0485900000E-01
            znucl       19.00000    6.00000    7.00000

- Timing analysis has been suppressed with timopt=0

 Suggested references for the acknowledgment of ABINIT usage.

 Calculation completed.
.Delivered   2 WARNINGs and   5 COMMENTs to log file.