.Version 9.5.1 of ABINIT

 ABINIT is a project of the Universite Catholique de Louvain,
 Corning Inc. and other collaborators, see ~abinit/doc/developers/contributors.txt .
 acknowledgments of the ABINIT effort.

.Starting date : Tue 18 May 2021.
- ( at 17h43 )

- input  file    -> /scratch/users/j/a/jabreu/flow_simple_8atoms/flow/w395/t1/run.abi
- output file    -> /scratch/users/j/a/jabreu/flow_simple_8atoms/flow/w395/t1/run.abo
- root for input  files -> /scratch/users/j/a/jabreu/flow_simple_8atoms/flow/w395/t1/indata/in
- root for output files -> /scratch/users/j/a/jabreu/flow_simple_8atoms/flow/w395/t1/outdata/out

 Symmetries : space group Cm c m (# 63); Bravais oC (1-face-center ortho.)
     intxc =       0      iscf =       7    lmnmax =      18     lnmax =       6
     mgfft =      72  mpssoang =       3    mqgrid =    3191     natom =       8
  nloc_mem =       1    nspden =       1   nspinor =       1    nsppol =       1
      nsym =       8    n1xccc =    2501    ntypat =       3    occopt =       1
   xclevel =       2
-    mband =          61        mffmem =           1         mkmem =           2
-   mkqmem =           2        mk1mem =           2           mpw =       16490
      nfft =      331776          nkpt =           2
  Rough estimation (10% accuracy) of disk space for files :

------------- Echo of variables that govern the present computation ------------
-
- outvars: echo of selected default values
-   iomode0 =  0 , fftalg0 =512 , wfoptalg0 =  0
-
- outvars: echo of global parameters not present in the input file
-  max_nthreads =    0
-
 -outvars: echo values of preprocessed input variables --------
            acell      1.0000000000E+00  1.0000000000E+00  1.0000000000E+00 Bohr
              amu      2.29897680E+01  6.35460000E+01  7.49215900E+01
             ecut      4.60000000E+01 Hartree
-          fftalg         512
           irdden           1
           irdwfk           1
           istwfk        0    1
              ixc     -116133
              kpt     -5.00000000E-01  5.00000000E-01  0.00000000E+00
                       0.00000000E+00  0.00000000E+00  0.00000000E+00
           kptopt           0
P           mkmem           2
P          mkqmem           2
P          mk1mem           2
            natom           8
            nband          61
           nbdbuf           4
            ngfft          72      72      64
             nkpt           2
            nstep        2000
             nsym           8
           ntypat           3
              occ      2.000000  2.000000  2.000000  2.000000  2.000000  2.000000
                       2.000000  2.000000  2.000000  2.000000  2.000000  2.000000
                       2.000000  2.000000  2.000000  2.000000  2.000000  2.000000
                       2.000000  2.000000  2.000000  2.000000  2.000000  2.000000
                       2.000000  2.000000  2.000000  2.000000  2.000000  2.000000
                       2.000000  2.000000  2.000000  2.000000  2.000000  2.000000
                       2.000000  2.000000  2.000000  2.000000  2.000000  2.000000
                       2.000000  2.000000  2.000000  2.000000  2.000000  2.000000
                       2.000000  2.000000  2.000000  2.000000  0.000000  0.000000
                       0.000000  0.000000  0.000000  0.000000  0.000000  0.000000
                       0.000000
        optdriver           1
            prtwf          -1
            rfdir           1       1       1
           rfelfd           2
            rprim      1.0697896061E+01  0.0000000000E+00  0.0000000000E+00
                      -2.2846706317E+00  1.0451088950E+01  0.0000000000E+00
                       0.0000000000E+00  0.0000000000E+00  9.8881619091E+00
          spgroup          63
           symrel      1  0  0   0  1  0   0  0  1      -1  0  0   0 -1  0   0  0 -1
                       0 -1  0  -1  0  0   0  0 -1       0  1  0   1  0  0   0  0  1
                      -1  0  0   0 -1  0   0  0  1       1  0  0   0  1  0   0  0 -1
                       0  1  0   1  0  0   0  0 -1       0 -1  0  -1  0  0   0  0  1
            tnons      0.0000000  0.0000000  0.0000000     0.0000000 -0.0000000  0.0000000
                       0.0000000  0.0000000  0.0000000     0.0000000 -0.0000000  0.0000000
                       0.0000000 -0.0000000  0.5000000     0.0000000  0.0000000  0.5000000
                       0.0000000 -0.0000000  0.5000000     0.0000000  0.0000000  0.5000000
           tolwfr      1.00000000E-20
            typat      1  1  1  1  2  2  3  3
           useylm           1
              wtk        0.50000    0.50000
           xangst      6.4432067904E-01  5.3741314618E+00  3.9244424379E+00
                       3.8077664688E+00  1.5634661524E-01  1.3081474793E+00
                      -6.6045695346E-01  3.7533087213E+00  1.3081474793E+00
                       5.1125441013E+00  1.7771693558E+00  3.9244424379E+00
                       2.2260435739E+00  2.7652390385E+00  2.6162949586E+00
                       2.2260435739E+00  2.7652390385E+00  0.0000000000E+00
                       3.4246166675E+00  4.2541322245E+00  3.9244424379E+00
                       1.0274704803E+00  1.2763458525E+00  1.3081474793E+00
            xcart      1.2175896251E+00  1.0155636665E+01  7.4161214318E+00
                       7.1956358040E+00  2.9545228461E-01  2.4720404773E+00
                      -1.2480827646E+00  7.0927255754E+00  2.4720404773E+00
                       9.6613081937E+00  3.3583633742E+00  7.4161214318E+00
                       4.2066127146E+00  5.2255444748E+00  4.9440809546E+00
                       4.2066127146E+00  5.2255444748E+00  0.0000000000E+00
                       6.4715876117E+00  8.0391448375E+00  7.4161214318E+00
                       1.9416378174E+00  2.4119441121E+00  2.4720404773E+00
             xred      3.2134100000E-01  9.7173000000E-01  7.5000000000E-01
                       6.7865900000E-01  2.8270000000E-02  2.5000000000E-01
                       2.8270000000E-02  6.7865900000E-01  2.5000000000E-01
                       9.7173000000E-01  3.2134100000E-01  7.5000000000E-01
                       5.0000000000E-01  5.0000000000E-01  5.0000000000E-01
                       5.0000000000E-01  5.0000000000E-01  0.0000000000E+00
                       7.6921600000E-01  7.6921600000E-01  7.5000000000E-01
                       2.3078400000E-01  2.3078400000E-01  2.5000000000E-01
            znucl       11.00000   29.00000   33.00000

 chkinp: Checking input parameters for consistency.

== DATASET  1 ==================================================================
-   mpi_nproc: 1, omp_nthreads: -1 (-1 if OMP is not activated)

--- !DatasetInfo
iteration_state: {dtset: 1, }
dimensions: {natom: 8, nkpt: 2, mband: 61, nsppol: 1, nspinor: 1, nspden: 1, mpw: 16490, }
cutoff_energies: {ecut:  46.0, pawecutdg:  -1.0, }
electrons: {nelect:   1.04000000E+02, charge:   0.00000000E+00, occopt:   1.00000000E+00, tsmear:   1.00000000E-02, }
meta: {optdriver: 1, rfelfd: 2, }
...

 Real(R)+Recip(G) space primitive vectors, cartesian coordinates (Bohr,Bohr^-1):
 R(1)= 10.6978961  0.0000000  0.0000000  G(1)=  0.0934763  0.0204345  0.0000000
 R(2)= -2.2846706 10.4510889  0.0000000  G(2)=  0.0000000  0.0956838  0.0000000
 R(3)=  0.0000000  0.0000000  9.8881619  G(3)=  0.0000000  0.0000000  0.1011310
 Unit cell volume ucvol=  1.1055426E+03 bohr^3
 Angles (23,13,12)=  9.00000000E+01  9.00000000E+01  1.02331213E+02 degrees

 getcut: wavevector=  0.0000  0.0000  0.0000  ngfft=  72  72  64
         ecut(hartree)=     46.000   => boxcut(ratio)=   2.11992

--- Pseudopotential description ------------------------------------------------
- pspini: atom type   1  psp file is /scratch/users/j/a/jabreu/pseudos/PBEsol/Na.psp8
- pspatm: opening atomic psp file    /scratch/users/j/a/jabreu/pseudos/PBEsol/Na.psp8
- Na    ONCVPSP-3.3.0  r_core=   1.20708   1.55069
- 11.00000   9.00000    180112                znucl, zion, pspdat
    8 -116133    1    4       400   0.00000   pspcod,pspxc,lmax,lloc,mmax,r2well
    3.99000000000000    0.00000000000000    0.00000000000000   rchrg,fchrg,qchrg
     nproj     2     2
     extension_switch     1
  pspatm : epsatm=    9.32878306
         --- l  ekb(1:nproj) -->
             0    2.657905   -0.678300
             1   -6.761319   -2.404728
 pspatm: atomic psp has been read  and splines computed

- pspini: atom type   2  psp file is /scratch/users/j/a/jabreu/pseudos/PBEsol/Cu.psp8
- pspatm: opening atomic psp file    /scratch/users/j/a/jabreu/pseudos/PBEsol/Cu.psp8
- Cu    ONCVPSP-3.3.0  r_core=   1.26204   1.45626   1.76249
- 29.00000  19.00000    180112                znucl, zion, pspdat
    8 -116133    2    4       600   0.00000   pspcod,pspxc,lmax,lloc,mmax,r2well
    5.99000000000000    3.50000000000000    0.00000000000000   rchrg,fchrg,qchrg
     nproj     2     2     2
     extension_switch     1
  pspatm : epsatm=   21.63488701
         --- l  ekb(1:nproj) -->
             0    5.008230   -0.401634
             1   -3.496700   -0.765945
             2   -6.895851   -2.521180
 pspatm: atomic psp has been read  and splines computed

- pspini: atom type   3  psp file is /scratch/users/j/a/jabreu/pseudos/PBEsol/As.psp8
- pspatm: opening atomic psp file    /scratch/users/j/a/jabreu/pseudos/PBEsol/As.psp8
- As    ONCVPSP-3.3.0  r_core=   1.76603   1.70395   1.80867
- 33.00000  15.00000    180112                znucl, zion, pspdat
    8 -116133    2    4       600   0.00000   pspcod,pspxc,lmax,lloc,mmax,r2well
    5.99000000000000    5.00000000000000    0.00000000000000   rchrg,fchrg,qchrg
     nproj     2     2     2
     extension_switch     1
  pspatm : epsatm=   28.79155382
         --- l  ekb(1:nproj) -->
             0    8.270760    0.868950
             1    4.919053    0.756587
             2  -10.048665   -4.076802
 pspatm: atomic psp has been read  and splines computed

   1.43694734E+04                                ecore*ucvol(ha*bohr**3)

-inwffil : will read wavefunctions from disk file /scratch/users/j/a/jabreu/flow_simple_8atoms/flow/w395/t1/indata/in_WFK

 ==>  initialize data related to q vector <==

 The list of irreducible perturbations for this q vector is:
    1)    idir= 1    ipert=   9
    2)    idir= 2    ipert=   9
    3)    idir= 3    ipert=   9

 Perturbation wavevector (in red.coord.)   0.000000  0.000000  0.000000
 Perturbation : derivative vs k along direction   1

 dfpt_looppert : COMMENT -
  In a d/dk calculation, iscf is set to -3 automatically.
 The set of symmetries contains only one element for this perturbation.
 symkpt : not enough symmetry to change the number of k points.

[...]

 Initialisation of the first-order wave-functions :
  ireadwf=   0

--- !BeginCycle
iteration_state: {dtset: 1, }
solver: {iscf: 7, nstep: 2000, nline: 4, wfoptalg: 0, }
tolerances: {tolwfr: 1.00E-20, }
...

     iter   2DEtotal(Ha)        deltaE(Ha) residm    vres2
-ETOT  1  -62.687410517341     -6.269E+01 8.929E-02 0.000E+00
 ETOT  2  -62.785765598413     -9.836E-02 9.796E-04 0.000E+00
 ETOT  3  -62.787689785247     -1.924E-03 2.065E-05 0.000E+00
 ETOT  4  -62.787768890906     -7.911E-05 1.542E-06 0.000E+00
 ETOT  5  -62.787772882531     -3.992E-06 7.010E-08 0.000E+00
 ETOT  6  -62.787773109867     -2.273E-07 3.955E-09 0.000E+00
 ETOT  7  -62.787773124045     -1.418E-08 2.924E-10 0.000E+00
 ETOT  8  -62.787773124973     -9.280E-10 1.867E-11 0.000E+00
 ETOT  9  -62.787773125036     -6.332E-11 1.315E-12 0.000E+00
 ETOT 10  -62.787773125041     -4.448E-12 8.975E-14 0.000E+00
 ETOT 11  -62.787773125041     -3.055E-13 6.079E-15 0.000E+00
 ETOT 12  -62.787773125041     -3.553E-14 4.644E-16 0.000E+00
 ETOT 13  -62.787773125041     -2.842E-14 4.801E-17 0.000E+00
 ETOT 14  -62.787773125041      2.842E-14 4.483E-18 0.000E+00
 ETOT 15  -62.787773125041     -4.974E-14 4.825E-19 0.000E+00
 ETOT 16  -62.787773125041      1.421E-14 4.668E-20 0.000E+00
 ETOT 17  -62.787773125041      7.105E-15 9.947E-21 0.000E+00

 At SCF step   17   max residual=  9.95E-21 < tolwfr=  1.00E-20 =>converged.

 ----iterations are completed or convergence reached----

 dfpt_looppert: DFPT cycle converged with prtwf=-1. Will skip output of the 1st-order WFK file.
 dfpt_looppert : ek2=    7.5179595308E+01
          f-sum rule ratio=    1.0977184028E+00
 prteigrs : about to open file /scratch/users/j/a/jabreu/flow_simple_8atoms/flow/w395/t1/tmpdata/tmp_1WF1_EIG
 Expectation of eigenvalue derivatives (hartree) for nkpt=   2  k points:
  (in case of degenerate eigenvalues, averaged derivative)
 kpt#   1, nband= 61, wtk=  0.50000, kpt= -0.5000  0.5000  0.0000 (reduced coord)
   0.00000   -0.00000    0.00000   -0.00000    0.00000    0.00000    0.00000    0.00000
   0.00000   -0.00000   -0.00000   -0.00000    0.00000    0.00000   -0.00000   -0.00000
  -0.00000    0.00000   -0.00000    0.00000    0.00000   -0.00000    0.00000   -0.00000
  -0.00000    0.00000   -0.00000   -0.00000    0.00000   -0.00000   -0.00000    0.00000
  -0.00000    0.00000    0.00000   -0.00000    0.00000    0.00000    0.00000    0.00000
   0.00000    0.00000   -0.00000    0.00000   -0.00000    0.00000    0.00000   -0.00000
  -0.00000    0.00000    0.00000    0.00000   -0.00000    0.00000   -0.00000    0.00000
   0.00000   -0.00000   -0.00000    0.00000   -0.00033
 prteigrs : prtvol=0 or 1, do not print more k-points.

 Eight components of 2nd-order total energy (hartree) are
 1,2,3: 0th-order hamiltonian combined with 1st-order wavefunctions
     kin0=   7.25951205E+01 eigvalue=   7.43898010E+00  local=  -2.73232825E+01
 4,5,6: 1st-order hamiltonian combined with 1st and 0th-order wfs
     kin1=  -8.25260253E+01  Hartree=   0.00000000E+00     xc=   0.00000000E+00
 7,8,9: eventually, occupation + non-local contributions
    edocc=   8.55682452E+00     enl0=   1.52013053E+00   enl1=  -4.30495210E+01
 1-9 gives the relaxation energy (to be shifted if some occ is /=2.0)
   erelax=  -6.27877731E+01
  No Ewald or frozen-wf contrib.: the relaxation energy is the total one
 2DEtotal=   -0.6278777313E+02 Ha. Also 2DEtotal=   -0.170854219622E+04 eV
    (  non-var. 2DEtotal :   -6.2787773125E+01 Ha)

 Perturbation wavevector (in red.coord.)   0.000000  0.000000  0.000000
 Perturbation : derivative vs k along direction   2
 The set of symmetries contains only one element for this perturbation.
 symkpt : not enough symmetry to change the number of k points.

[...]

 Perturbation wavevector (in red.coord.)   0.000000  0.000000  0.000000
 Perturbation : derivative vs k along direction   3
 The set of symmetries contains only one element for this perturbation.
 symkpt : not enough symmetry to change the number of k points.

-inwffil : will read wavefunctions from disk file /scratch/users/j/a/jabreu/flow_simple_8atoms/flow/w395/t1/indata/in_WFK

 Initialisation of the first-order wave-functions :
  ireadwf=   0

--- !BeginCycle
iteration_state: {dtset: 1, }
solver: {iscf: 7, nstep: 2000, nline: 4, wfoptalg: 0, }
tolerances: {tolwfr: 1.00E-20, }
...

     iter   2DEtotal(Ha)        deltaE(Ha) residm    vres2
-ETOT  1  -76.726328200038     -7.673E+01 2.502E-01 0.000E+00
 ETOT  2  -76.836710233057     -1.104E-01 1.464E-03 0.000E+00
 ETOT  3  -76.839610150544     -2.900E-03 5.033E-05 0.000E+00
 ETOT  4  -76.839784961696     -1.748E-04 7.664E-06 0.000E+00
 ETOT  5  -76.839798537111     -1.358E-05 3.599E-07 0.000E+00
 ETOT  6  -76.839799682452     -1.145E-06 5.925E-08 0.000E+00
 ETOT  7  -76.839799783445     -1.010E-07 3.117E-09 0.000E+00
 ETOT  8  -76.839799792617     -9.172E-09 5.237E-10 0.000E+00
 ETOT  9  -76.839799793468     -8.519E-10 2.912E-11 0.000E+00
 ETOT 10  -76.839799793549     -8.042E-11 4.938E-12 0.000E+00
 ETOT 11  -76.839799793557     -7.702E-12 2.828E-13 0.000E+00
 ETOT 12  -76.839799793557     -6.537E-13 4.822E-14 0.000E+00
 ETOT 13  -76.839799793557     -1.705E-13 2.805E-15 0.000E+00
 ETOT 14  -76.839799793557     -2.842E-14 4.803E-16 0.000E+00
 ETOT 15  -76.839799793557      1.137E-13 2.817E-17 0.000E+00
 ETOT 16  -76.839799793557     -8.527E-14 4.837E-18 0.000E+00
 ETOT 17  -76.839799793557      2.842E-14 2.848E-19 0.000E+00
 ETOT 18  -76.839799793557     -2.842E-14 4.903E-20 0.000E+00
 ETOT 19  -76.839799793557      4.263E-14 9.973E-21 0.000E+00

 At SCF step   19   max residual=  9.97E-21 < tolwfr=  1.00E-20 =>converged.

 ----iterations are completed or convergence reached----

 dfpt_looppert: DFPT cycle converged with prtwf=-1. Will skip output of the 1st-order WFK file.
 dfpt_looppert : ek2=    8.3983106267E+01
          f-sum rule ratio=    1.2786534350E+00
 prteigrs : about to open file /scratch/users/j/a/jabreu/flow_simple_8atoms/flow/w395/t1/tmpdata/tmp_1WF1_EIG
 Expectation of eigenvalue derivatives (hartree) for nkpt=   2  k points:
  (in case of degenerate eigenvalues, averaged derivative)
 kpt#   1, nband= 61, wtk=  0.50000, kpt= -0.5000  0.5000  0.0000 (reduced coord)
  -0.00000   -0.00000   -0.00000    0.00000   -0.00000    0.00000   -0.00000   -0.00000
   0.00000    0.00000    0.00000    0.00000   -0.00000   -0.00000    0.00000    0.00000
   0.00000   -0.00000   -0.00000   -0.00000    0.00000    0.00000    0.00000   -0.00000
  -0.00000   -0.00000    0.00000    0.00000    0.00000    0.00000   -0.00000   -0.00000
  -0.00000   -0.00000    0.00000    0.00000   -0.00000   -0.00000   -0.00000    0.00000
   0.00000    0.00000    0.00000   -0.00000    0.00000    0.00000   -0.00000    0.00000
  -0.00000    0.00000    0.00000    0.00000   -0.00000   -0.00000    0.00000   -0.00000
  -0.00000   -0.00000   -0.00000    0.00000    0.00003
 prteigrs : prtvol=0 or 1, do not print more k-points.

 Eight components of 2nd-order total energy (hartree) are
 1,2,3: 0th-order hamiltonian combined with 1st-order wavefunctions
     kin0=   8.09289719E+01 eigvalue=   8.24265848E+00  local=  -3.03337979E+01
 4,5,6: 1st-order hamiltonian combined with 1st and 0th-order wfs
     kin1=  -1.07385287E+02  Hartree=   0.00000000E+00     xc=   0.00000000E+00
 7,8,9: eventually, occupation + non-local contributions
    edocc=   1.63923466E+01     enl0=   1.60962074E+00   enl1=  -4.62943123E+01
 1-9 gives the relaxation energy (to be shifted if some occ is /=2.0)
   erelax=  -7.68397998E+01
  No Ewald or frozen-wf contrib.: the relaxation energy is the total one
 2DEtotal=   -0.7683979979E+02 Ha. Also 2DEtotal=   -0.209091728791E+04 eV
    (  non-var. 2DEtotal :   -7.6839799793E+01 Ha)

 CALCULATION OF EFFECTIVE MASSES
 NOTE : Additional infos (eff. mass eigenvalues, eigenvectors and, if degenerate, average mass) are available in stdout.

 K-point (-0.500, 0.500, 0.000) | band =    52
 Effective mass tensor:
             -0.6385731696             -0.4357542622              0.0000000032
             -0.4357542622             -0.8290901223             -0.0000000058
              0.0000000032             -0.0000000058             -0.4845762975
 Effective mass tensor eigenvalues:
             -1.1798764356             -0.4845762975             -0.2877868563
 Angular average effective mass 1/(<1/m>)=  -0.4697777310
 Angular average effective mass for Frohlich model (<m**0.5>)**2=  -0.5127556867
 Effective masses along directions: (cart. coord. / red. coord. -> eff. mass)
    1:   1.000000  0.000000  0.000000 /   0.977947 -0.208853  0.000000 ->  -0.4095488791
    2:   0.000000  1.000000  0.000000 /   0.000000  1.000000  0.000000 ->  -0.5317369197
    3:   0.000000  0.000000  1.000000 /   0.000000  0.000000  1.000000 ->  -0.4845762975
    4:   0.577350  0.577350  0.577350 /   0.640568  0.488989  0.592083 ->  -0.7854711955
    5:   0.000000  0.707107  0.707107 /   0.000000  0.726399  0.687273 ->  -0.5070624046
    6:   0.707107  0.000000  0.707107 /   0.725485 -0.154936  0.670572 ->  -0.4439147491
    7:   0.707107  0.707107  0.000000 /   0.794871  0.606778  0.000000 ->  -1.1391435539

 K-point ( 0.000, 0.000, 0.000) | band =    53
 Effective mass tensor:
              0.7243853613              0.0121230936             -0.0000028949
              0.0121230936              0.7296865935              0.0000027668
             -0.0000028949              0.0000027668              0.1003642977
 Effective mass tensor eigenvalues:
              0.1003642976              0.7146264986              0.7394454562
 Angular average effective mass 1/(<1/m>)=   0.2359343855
 Angular average effective mass for Frohlich model (<m**0.5>)**2=   0.3157346899
 Effective masses along directions: (cart. coord. / red. coord. -> eff. mass)
    1:   1.000000  0.000000  0.000000 /   0.977947 -0.208853  0.000000 ->   0.7241839468
    2:   0.000000  1.000000  0.000000 /   0.000000  1.000000  0.000000 ->   0.7294837050
    3:   0.000000  0.000000  1.000000 /   0.000000  0.000000  1.000000 ->   0.1003642976
    4:   0.577350  0.577350  0.577350 /   0.640568  0.488989  0.592083 ->   0.2367887658
    5:   0.000000  0.707107  0.707107 /   0.000000  0.726399  0.687273 ->   0.1764530763
    6:   0.707107  0.000000  0.707107 /   0.725485 -0.154936  0.670572 ->   0.1762945837
    7:   0.707107  0.707107  0.000000 /   0.794871  0.606778  0.000000 ->   0.7391492436

 END OF EFFECTIVE MASSES SECTION

 ---- first-order wavefunction calculations are completed ----

 Total localisation tensor (bohr^2) in cartesian coordinates
  WARNING : still subject to testing - especially symmetries.
      direction              matrix element
   alpha     beta       real part   imaginary part
     1        1       1.6369003630    0.0000000000
     1        2      -0.3266191126    0.0000000000
     1        3       0.0000000000    0.0000000000
     2        1      -0.3266191126    0.0000000000
     2        2       1.4940995658    0.0000000000
     2        3       0.0000000000    0.0000000000
     3        1       0.0000000000    0.0000000000
     3        2       0.0000000000    0.0000000000
     3        3       3.2517750384    0.0000000000

 respfn : d/dk was computed, but no 2DTE, so no DDB output.

== END DATASET(S) ==============================================================

 -outvars: echo values of variables after computation  --------
            acell      1.0000000000E+00  1.0000000000E+00  1.0000000000E+00 Bohr
              amu      2.29897680E+01  6.35460000E+01  7.49215900E+01
             ecut      4.60000000E+01 Hartree
           etotal     -7.6839799794E+01
            fcart      0.0000000000E+00  0.0000000000E+00  0.0000000000E+00
                       0.0000000000E+00  0.0000000000E+00  0.0000000000E+00
                       0.0000000000E+00  0.0000000000E+00  0.0000000000E+00
                       0.0000000000E+00  0.0000000000E+00  0.0000000000E+00
                       0.0000000000E+00  0.0000000000E+00  0.0000000000E+00
                       0.0000000000E+00  0.0000000000E+00  0.0000000000E+00
                       0.0000000000E+00  0.0000000000E+00  0.0000000000E+00
                       0.0000000000E+00  0.0000000000E+00  0.0000000000E+00
-          fftalg         512
           irdden           1
           irdwfk           1
           istwfk        0    1
              ixc     -116133
              kpt     -5.00000000E-01  5.00000000E-01  0.00000000E+00
                       0.00000000E+00  0.00000000E+00  0.00000000E+00
           kptopt           0
P           mkmem           2
P          mkqmem           2
P          mk1mem           2
            natom           8
            nband          61
           nbdbuf           4
            ngfft          72      72      64
             nkpt           2
            nstep        2000
             nsym           8
           ntypat           3
              occ      2.000000  2.000000  2.000000  2.000000  2.000000  2.000000
                       2.000000  2.000000  2.000000  2.000000  2.000000  2.000000
                       2.000000  2.000000  2.000000  2.000000  2.000000  2.000000
                       2.000000  2.000000  2.000000  2.000000  2.000000  2.000000
                       2.000000  2.000000  2.000000  2.000000  2.000000  2.000000
                       2.000000  2.000000  2.000000  2.000000  2.000000  2.000000
                       2.000000  2.000000  2.000000  2.000000  2.000000  2.000000
                       2.000000  2.000000  2.000000  2.000000  2.000000  2.000000
                       2.000000  2.000000  2.000000  2.000000  0.000000  0.000000
                       0.000000  0.000000  0.000000  0.000000  0.000000  0.000000
                       0.000000
        optdriver           1
            prtwf          -1
            rfdir           1       1       1
           rfelfd           2
            rprim      1.0697896061E+01  0.0000000000E+00  0.0000000000E+00
                      -2.2846706317E+00  1.0451088950E+01  0.0000000000E+00
                       0.0000000000E+00  0.0000000000E+00  9.8881619091E+00
          spgroup          63
           strten      0.0000000000E+00  0.0000000000E+00  0.0000000000E+00
                       0.0000000000E+00  0.0000000000E+00  0.0000000000E+00
           symrel      1  0  0   0  1  0   0  0  1      -1  0  0   0 -1  0   0  0 -1
                       0 -1  0  -1  0  0   0  0 -1       0  1  0   1  0  0   0  0  1
                      -1  0  0   0 -1  0   0  0  1       1  0  0   0  1  0   0  0 -1
                       0  1  0   1  0  0   0  0 -1       0 -1  0  -1  0  0   0  0  1
            tnons      0.0000000  0.0000000  0.0000000     0.0000000 -0.0000000  0.0000000
                       0.0000000  0.0000000  0.0000000     0.0000000 -0.0000000  0.0000000
                       0.0000000 -0.0000000  0.5000000     0.0000000  0.0000000  0.5000000
                       0.0000000 -0.0000000  0.5000000     0.0000000  0.0000000  0.5000000
           tolwfr      1.00000000E-20
            typat      1  1  1  1  2  2  3  3
           useylm           1
              wtk        0.50000    0.50000
           xangst      6.4432067904E-01  5.3741314618E+00  3.9244424379E+00
                       3.8077664688E+00  1.5634661524E-01  1.3081474793E+00
                      -6.6045695346E-01  3.7533087213E+00  1.3081474793E+00
                       5.1125441013E+00  1.7771693558E+00  3.9244424379E+00
                       2.2260435739E+00  2.7652390385E+00  2.6162949586E+00
                       2.2260435739E+00  2.7652390385E+00  0.0000000000E+00
                       3.4246166675E+00  4.2541322245E+00  3.9244424379E+00
                       1.0274704803E+00  1.2763458525E+00  1.3081474793E+00
            xcart      1.2175896251E+00  1.0155636665E+01  7.4161214318E+00
                       7.1956358040E+00  2.9545228461E-01  2.4720404773E+00
                      -1.2480827646E+00  7.0927255754E+00  2.4720404773E+00
                       9.6613081937E+00  3.3583633742E+00  7.4161214318E+00
                       4.2066127146E+00  5.2255444748E+00  4.9440809546E+00
                       4.2066127146E+00  5.2255444748E+00  0.0000000000E+00
                       6.4715876117E+00  8.0391448375E+00  7.4161214318E+00
                       1.9416378174E+00  2.4119441121E+00  2.4720404773E+00
             xred      3.2134100000E-01  9.7173000000E-01  7.5000000000E-01
                       6.7865900000E-01  2.8270000000E-02  2.5000000000E-01
                       2.8270000000E-02  6.7865900000E-01  2.5000000000E-01
                       9.7173000000E-01  3.2134100000E-01  7.5000000000E-01
                       5.0000000000E-01  5.0000000000E-01  5.0000000000E-01
                       5.0000000000E-01  5.0000000000E-01  0.0000000000E+00
                       7.6921600000E-01  7.6921600000E-01  7.5000000000E-01
                       2.3078400000E-01  2.3078400000E-01  2.5000000000E-01
            znucl       11.00000   29.00000   33.00000

- Timing analysis has been suppressed with timopt=0

 Suggested references for the acknowledgment of ABINIT usage.

 Calculation completed.
.Delivered  14 WARNINGs and  11 COMMENTs to log file.