.Version 9.5.1 of ABINIT

 ABINIT is a project of the Universite Catholique de Louvain,
 Corning Inc. and other collaborators, see ~abinit/doc/developers/contributors.txt .
 acknowledgments of the ABINIT effort.

.Starting date : Wed 19 May 2021.
- ( at 13h43 )

- input  file    -> /scratch/users/j/a/jabreu/flow_simple_9atoms/flow/w171/t1/run.abi
- output file    -> /scratch/users/j/a/jabreu/flow_simple_9atoms/flow/w171/t1/run.abo
- root for input  files -> /scratch/users/j/a/jabreu/flow_simple_9atoms/flow/w171/t1/indata/in
- root for output files -> /scratch/users/j/a/jabreu/flow_simple_9atoms/flow/w171/t1/outdata/out

 Symmetries : space group Fm -3 m (#225); Bravais cF (face-center cubic)
     intxc =       0      iscf =       7    lmnmax =      18     lnmax =       6
     mgfft =      72  mpssoang =       3    mqgrid =    3001     natom =       9
  nloc_mem =       1    nspden =       1   nspinor =       1    nsppol =       1
      nsym =      48    n1xccc =    2501    ntypat =       3    occopt =       1
   xclevel =       2
-    mband =          41        mffmem =           1         mkmem =           1
-   mkqmem =           1        mk1mem =           1           mpw =       13107
      nfft =      373248          nkpt =           1
  Rough estimation (10% accuracy) of disk space for files :

------------- Echo of variables that govern the present computation ------------
-
- outvars: echo of selected default values
-   iomode0 =  0 , fftalg0 =512 , wfoptalg0 =  0
-
- outvars: echo of global parameters not present in the input file
-  max_nthreads =    0
-
 -outvars: echo values of preprocessed input variables --------
            acell      1.0000000000E+00  1.0000000000E+00  1.0000000000E+00 Bohr
              amu      8.54678000E+01  2.80855000E+01  1.89984032E+01
             ecut      4.20000000E+01 Hartree
-          fftalg         512
           irdden           1
           irdwfk           1
           istwfk        1
              ixc     -116133
           kptopt           0
P           mkmem           1
P          mkqmem           1
P          mk1mem           1
            natom           9
            nband          41
           nbdbuf           4
            ngfft          72      72      72
             nkpt           1
            nstep        2000
             nsym          48
           ntypat           3
              occ      2.000000  2.000000  2.000000  2.000000  2.000000  2.000000
                       2.000000  2.000000  2.000000  2.000000  2.000000  2.000000
                       2.000000  2.000000  2.000000  2.000000  2.000000  2.000000
                       2.000000  2.000000  2.000000  2.000000  2.000000  2.000000
                       2.000000  2.000000  2.000000  2.000000  2.000000  2.000000
                       2.000000  2.000000  0.000000  0.000000  0.000000  0.000000
                       0.000000  0.000000  0.000000  0.000000  0.000000
        optdriver           1
            prtwf          -1
            rfdir           1       1       1
           rfelfd           2
            rprim      9.7397673339E+00  0.0000000000E+00  5.6232572921E+00
                       3.2465891113E+00  9.1827407053E+00  5.6232572921E+00
                       0.0000000000E+00  0.0000000000E+00  1.1246514584E+01
          spgroup         225
           symrel      1  0  0   0  1  0   0  0  1      -1  0  0   0 -1  0   0  0 -1
                       0 -1  1   0 -1  0   1 -1  0       0  1 -1   0  1  0  -1  1  0
                      -1  0  0  -1  0  1  -1  1  0       1  0  0   1  0 -1   1 -1  0
                       0  1 -1   1  0 -1   0  0 -1       0 -1  1  -1  0  1   0  0  1
                      -1  0  0  -1  1  0  -1  0  1       1  0  0   1 -1  0   1  0 -1
                       0 -1  1   1 -1  0   0 -1  0       0  1 -1  -1  1  0   0  1  0
                       1  0  0   0  0  1   0  1  0      -1  0  0   0  0 -1   0 -1  0
                       0  1 -1   0  0 -1   1  0 -1       0 -1  1   0  0  1  -1  0  1
                      -1  0  1  -1  1  0  -1  0  0       1  0 -1   1 -1  0   1  0  0
                       0 -1  0   1 -1  0   0 -1  1       0  1  0  -1  1  0   0  1 -1
                       1  0 -1   0  0 -1   0  1 -1      -1  0  1   0  0  1   0 -1  1
                       0  1  0   0  0  1   1  0  0       0 -1  0   0  0 -1  -1  0  0
                       1  0 -1   0  1 -1   0  0 -1      -1  0  1   0 -1  1   0  0  1
                       0 -1  0   0 -1  1   1 -1  0       0  1  0   0  1 -1  -1  1  0
                      -1  0  1  -1  0  0  -1  1  0       1  0 -1   1  0  0   1 -1  0
                       0  1  0   1  0  0   0  0  1       0 -1  0  -1  0  0   0  0 -1
                       0  0 -1   0  1 -1   1  0 -1       0  0  1   0 -1  1  -1  0  1
                       1 -1  0   0 -1  1   0 -1  0      -1  1  0   0  1 -1   0  1  0
                       0  0  1   1  0  0   0  1  0       0  0 -1  -1  0  0   0 -1  0
                      -1  1  0  -1  0  0  -1  0  1       1 -1  0   1  0  0   1  0 -1
                       0  0  1   0  1  0   1  0  0       0  0 -1   0 -1  0  -1  0  0
                       1 -1  0   0 -1  0   0 -1  1      -1  1  0   0  1  0   0  1 -1
                       0  0 -1   1  0 -1   0  1 -1       0  0  1  -1  0  1   0 -1  1
                      -1  1  0  -1  0  1  -1  0  0       1 -1  0   1  0 -1   1  0  0
           tolwfr      1.00000000E-20
            typat      1  1  2  3  3  3  3  3  3
           useylm           1
           xangst      1.7180209634E+00  1.2148242734E+00  2.9756995970E+00
                       5.1540628901E+00  3.6444728202E+00  8.9270987910E+00
                       0.0000000000E+00  0.0000000000E+00  0.0000000000E+00
                       4.4585805158E+00  9.8356060613E-01  4.1803104051E+00
                       1.3909647486E+00  9.8356060613E-01  5.9513991940E+00
                       5.4811191048E+00  3.8757364875E+00  5.9513991940E+00
                       2.4135033377E+00  3.8757364875E+00  7.7224879829E+00
                       4.4585805158E+00  9.8356060613E-01  7.7224879829E+00
                       2.4135033377E+00  3.8757364875E+00  4.1803104051E+00
            xcart      3.2465891113E+00  2.2956851763E+00  5.6232572921E+00
                       9.7397673339E+00  6.8870555290E+00  1.6869771876E+01
                       0.0000000000E+00  0.0000000000E+00  0.0000000000E+00
                       8.4254961162E+00  1.8586601807E+00  7.8996418160E+00
                       2.6285424354E+00  1.8586601807E+00  1.1246514584E+01
                       1.0357814010E+01  7.3240805246E+00  1.1246514584E+01
                       4.5608603290E+00  7.3240805246E+00  1.4593387352E+01
                       8.4254961162E+00  1.8586601807E+00  1.4593387352E+01
                       4.5608603290E+00  7.3240805246E+00  7.8996418160E+00
             xred      2.5000000000E-01  2.5000000000E-01  2.5000000000E-01
                       7.5000000000E-01  7.5000000000E-01  7.5000000000E-01
                       0.0000000000E+00  0.0000000000E+00  0.0000000000E+00
                       7.9759200000E-01  2.0240800000E-01  2.0240800000E-01
                       2.0240800000E-01  2.0240800000E-01  7.9759200000E-01
                       7.9759200000E-01  7.9759200000E-01  2.0240800000E-01
                       2.0240800000E-01  7.9759200000E-01  7.9759200000E-01
                       7.9759200000E-01  2.0240800000E-01  7.9759200000E-01
                       2.0240800000E-01  7.9759200000E-01  2.0240800000E-01
            znucl       37.00000   14.00000    9.00000

 chkinp: Checking input parameters for consistency.

== DATASET  1 ==================================================================
-   mpi_nproc: 1, omp_nthreads: -1 (-1 if OMP is not activated)

--- !DatasetInfo
iteration_state: {dtset: 1, }
dimensions: {natom: 9, nkpt: 1, mband: 41, nsppol: 1, nspinor: 1, nspden: 1, mpw: 13107, }
cutoff_energies: {ecut:  42.0, pawecutdg:  -1.0, }
electrons: {nelect:   6.40000000E+01, charge:   0.00000000E+00, occopt:   1.00000000E+00, tsmear:   1.00000000E-02, }
meta: {optdriver: 1, rfelfd: 2, }
...

 Real(R)+Recip(G) space primitive vectors, cartesian coordinates (Bohr,Bohr^-1):
 R(1)=  9.7397673  0.0000000  5.6232573  G(1)=  0.1026719 -0.0363000  0.0000000
 R(2)=  3.2465891  9.1827407  5.6232573  G(2)=  0.0000000  0.1088999  0.0000000
 R(3)=  0.0000000  0.0000000 11.2465146  G(3)= -0.0513359 -0.0363000  0.0889164
 Unit cell volume ucvol=  1.0058630E+03 bohr^3
 Angles (23,13,12)=  6.00000000E+01  6.00000000E+01  6.00000000E+01 degrees

 getcut: wavevector=  0.0000  0.0000  0.0000  ngfft=  72  72  72
         ecut(hartree)=     42.000   => boxcut(ratio)=   2.19445

--- Pseudopotential description ------------------------------------------------
- pspini: atom type   1  psp file is /scratch/users/j/a/jabreu/pseudos/PBEsol/Rb.psp8
- pspatm: opening atomic psp file    /scratch/users/j/a/jabreu/pseudos/PBEsol/Rb.psp8
- Rb    ONCVPSP-3.3.0  r_core=   1.71227   1.75361   1.90633
- 37.00000   9.00000    180112                znucl, zion, pspdat
    8 -116133    2    4       600   0.00000   pspcod,pspxc,lmax,lloc,mmax,r2well
    5.99000000000000    7.00000000000000    0.00000000000000   rchrg,fchrg,qchrg
     nproj     2     2     2
     extension_switch     1
  pspatm : epsatm=   34.48400912
         --- l  ekb(1:nproj) -->
             0    8.196957   -0.477221
             1    3.231347   -0.378736
             2   -1.047201    0.996637
 pspatm: atomic psp has been read  and splines computed

- pspini: atom type   2  psp file is /scratch/users/j/a/jabreu/pseudos/PBEsol/Si.psp8
- pspatm: opening atomic psp file    /scratch/users/j/a/jabreu/pseudos/PBEsol/Si.psp8
- Si    ONCVPSP-3.3.0  r_core=   1.60303   1.72197   1.91712
- 14.00000   4.00000    180112                znucl, zion, pspdat
    8 -116133    2    4       600   0.00000   pspcod,pspxc,lmax,lloc,mmax,r2well
    5.99000000000000    4.00000000000000    0.00000000000000   rchrg,fchrg,qchrg
     nproj     2     2     2
     extension_switch     1
  pspatm : epsatm=    7.86468782
         --- l  ekb(1:nproj) -->
             0    5.384426    0.843824
             1    2.663259    0.615854
             2   -2.267219   -0.458043
 pspatm: atomic psp has been read  and splines computed

- pspini: atom type   3  psp file is /scratch/users/j/a/jabreu/pseudos/PBEsol/F.psp8
- pspatm: opening atomic psp file    /scratch/users/j/a/jabreu/pseudos/PBEsol/F.psp8
- F     ONCVPSP-3.3.0  r_core=   1.30942   1.45782   1.60379
-  9.00000   7.00000    180112                znucl, zion, pspdat
    8 -116133    2    4       600   0.00000   pspcod,pspxc,lmax,lloc,mmax,r2well
    5.99000000000000    2.50000000000000    0.00000000000000   rchrg,fchrg,qchrg
     nproj     2     2     1
     extension_switch     1
  pspatm : epsatm=    4.89824824
         --- l  ekb(1:nproj) -->
             0    6.506434    1.065875
             1   -3.978753   -1.295852
             2   -2.394754
 pspatm: atomic psp has been read  and splines computed

   6.79822051E+03                                ecore*ucvol(ha*bohr**3)

[...]
 2DEtotal=   -0.3273962890E+02 Ha. Also 2DEtotal=   -0.890890609329E+03 eV
    (  non-var. 2DEtotal :   -3.2739628896E+01 Ha)

 Perturbation wavevector (in red.coord.)   0.000000  0.000000  0.000000
 Perturbation : derivative vs k along direction   2
 The set of symmetries contains only one element for this perturbation.
 symkpt : not enough symmetry to change the number of k points.

[...]

 Perturbation wavevector (in red.coord.)   0.000000  0.000000  0.000000
 Perturbation : derivative vs k along direction   3
 The set of symmetries contains only one element for this perturbation.
 symkpt : not enough symmetry to change the number of k points.

-inwffil : will read wavefunctions from disk file /scratch/users/j/a/jabreu/flow_simple_9atoms/flow/w171/t1/indata/in_WFK

 Initialisation of the first-order wave-functions :
  ireadwf=   0

--- !BeginCycle
iteration_state: {dtset: 1, }
solver: {iscf: 7, nstep: 2000, nline: 4, wfoptalg: 0, }
tolerances: {tolwfr: 1.00E-20, }
...

     iter   2DEtotal(Ha)        deltaE(Ha) residm    vres2
-ETOT  1  -32.717877927210     -3.272E+01 8.480E-02 0.000E+00
 ETOT  2  -32.739137001020     -2.126E-02 8.115E-04 0.000E+00
 ETOT  3  -32.739214322725     -7.732E-05 1.583E-04 0.000E+00
 ETOT  4  -32.739214966161     -6.434E-07 3.905E-06 0.000E+00
 ETOT  5  -32.739214973096     -6.935E-09 8.345E-07 0.000E+00
 ETOT  6  -32.739214973181     -8.455E-11 4.747E-08 0.000E+00
 ETOT  7  -32.739214973182     -1.108E-12 6.981E-09 0.000E+00
 ETOT  8  -32.739214973182     -2.132E-14 5.696E-10 0.000E+00
 ETOT  9  -32.739214973182      3.553E-14 8.255E-11 0.000E+00
 ETOT 10  -32.739214973182      1.421E-14 6.800E-12 0.000E+00
 ETOT 11  -32.739214973182      0.000E+00 9.715E-13 0.000E+00
 ETOT 12  -32.739214973182     -7.105E-15 8.084E-14 0.000E+00
 ETOT 13  -32.739214973182      1.421E-14 1.141E-14 0.000E+00
 ETOT 14  -32.739214973182      0.000E+00 9.613E-16 0.000E+00
 ETOT 15  -32.739214973182      0.000E+00 1.346E-16 0.000E+00
 ETOT 16  -32.739214973182     -7.105E-15 1.151E-17 0.000E+00
 ETOT 17  -32.739214973182      0.000E+00 1.604E-18 0.000E+00
 ETOT 18  -32.739214973182      0.000E+00 1.397E-19 0.000E+00
 ETOT 19  -32.739214973182      0.000E+00 1.945E-20 0.000E+00
 ETOT 20  -32.739214973182      7.105E-15 9.734E-21 0.000E+00

 At SCF step   20   max residual=  9.73E-21 < tolwfr=  1.00E-20 =>converged.

 ----iterations are completed or convergence reached----

 dfpt_looppert: DFPT cycle converged with prtwf=-1. Will skip output of the 1st-order WFK file.
 dfpt_looppert : ek2=    5.9927348670E+01
          f-sum rule ratio=    1.0594500692E+00
 prteigrs : about to open file /scratch/users/j/a/jabreu/flow_simple_9atoms/flow/w171/t1/tmpdata/tmp_1WF1_EIG
 Expectation of eigenvalue derivatives (hartree) for nkpt=   1  k points:
  (in case of degenerate eigenvalues, averaged derivative)
 kpt#   1, nband= 41, wtk=  1.00000, kpt=  0.0000  0.0000  0.0000 (reduced coord)
  -0.00000   -0.00000    0.00000    0.00000    0.00000    0.00000   -0.00000   -0.00000
  -0.00000   -0.00000   -0.00000   -0.00000   -0.00000   -0.00000   -0.00000    0.00000
   0.00000    0.00000   -0.00000   -0.00000   -0.00000   -0.00000   -0.00000    0.00000
   0.00000    0.00000   -0.00000   -0.00000   -0.00000    0.00000    0.00000    0.00000
  -0.00000    0.00000    0.00000   -0.00000   -0.00000   -0.00000    0.00000   -0.00000
  -0.00000

 Eight components of 2nd-order total energy (hartree) are
 1,2,3: 0th-order hamiltonian combined with 1st-order wavefunctions
     kin0=   4.04628324E+01 eigvalue=   3.55711494E+00  local=  -1.77987460E+01
 4,5,6: 1st-order hamiltonian combined with 1st and 0th-order wfs
     kin1=  -6.34900337E+01  Hartree=   0.00000000E+00     xc=   0.00000000E+00
 7,8,9: eventually, occupation + non-local contributions
    edocc=   6.94333708E+00     enl0=  -4.25323418E-01   enl1=  -1.98839625E+00
 1-9 gives the relaxation energy (to be shifted if some occ is /=2.0)
   erelax=  -3.27392150E+01
  No Ewald or frozen-wf contrib.: the relaxation energy is the total one
 2DEtotal=   -0.3273921497E+02 Ha. Also 2DEtotal=   -0.890879345910E+03 eV
    (  non-var. 2DEtotal :   -3.2739214973E+01 Ha)

 CALCULATION OF EFFECTIVE MASSES
 NOTE : Additional infos (eff. mass eigenvalues, eigenvectors and, if degenerate, average mass) are available in stdout.

 COMMENTS:
 - At k-point ( 0.000, 0.000, 0.000), bands    30 through    32
   are DEGENERATE (effective mass tensor is therefore not defined).
   See Section IIIB Eqs. (67)-(70) and Appendix E of PRB 93 205147 (2016).
 - Angular average effective mass for Frohlich model is to be averaged over degenerate bands. See later.
 - Associated theta integrals calculated with ntheta=   1000 points.

 K-point ( 0.000, 0.000, 0.000) | band =    30
 Transport equivalent effective mass tensor:
             -6.7239079099             -0.0000030643             -0.0000000658
             -0.0000030643             -6.7239048696             -0.0000002439
             -0.0000000658             -0.0000002439             -6.7238951939
 Transport equivalent effective mass tensor eigenvalues:
             -6.7239098127             -6.7239029730             -6.7238951877
 Angular average effective mass 1/(<1/m>)=  -6.3279168424
 Angular average effective mass for Frohlich model (<m**0.5>)**2=  -6.3428025805
 Effective masses along directions: (cart. coord. / red. coord. -> eff. mass)
    1:   1.000000  0.000000  0.000000 /   0.948683  0.316228  0.000000 ->  -6.7724440493
    2:   0.000000  1.000000  0.000000 /   0.000000  1.000000  0.000000 ->  -7.7356175738
    3:   0.000000  0.000000  1.000000 /   0.408248  0.408248  0.816497 ->  -6.0225635790
    4:   0.577350  0.577350  0.577350 /   0.585539  0.688047  0.428644 ->  -6.5139331815
    5:   0.000000  0.707107  0.707107 /   0.289489  0.762222  0.578977 ->  -6.0636575519
    6:   0.707107  0.000000  0.707107 /   0.731423  0.422287  0.535439 ->  -6.2454325745
    7:   0.707107  0.707107  0.000000 /   0.616798  0.787122  0.000000 ->  -6.0803192758

[...]

 K-point ( 0.000, 0.000, 0.000) | band =    32
 Transport equivalent effective mass tensor:
           -106.8160905643              0.0000028194              0.0000012687
              0.0000028194           -106.8160798841             -0.0000008805
              0.0000012687             -0.0000008805           -106.8160976599
 Transport equivalent effective mass tensor eigenvalues:
           -106.8160979858           -106.8160909535           -106.8160791690
 Angular average effective mass 1/(<1/m>)= -18.9915215633
 Angular average effective mass for Frohlich model (<m**0.5>)**2= -21.9859406292
 Effective masses along directions: (cart. coord. / red. coord. -> eff. mass)
    1:   1.000000  0.000000  0.000000 /   0.948683  0.316228  0.000000 -> -16.8092715437
    2:   0.000000  1.000000  0.000000 /   0.000000  1.000000  0.000000 -> -11.4202504340
    3:   0.000000  0.000000  1.000000 /   0.408248  0.408248  0.816497 -> -14.4553207704
    4:   0.577350  0.577350  0.577350 /   0.585539  0.688047  0.428644 -> -16.2467485462
    5:   0.000000  0.707107  0.707107 /   0.289489  0.762222  0.578977 -> -26.1795838559
    6:   0.707107  0.000000  0.707107 /   0.731423  0.422287  0.535439 -> -15.7015832235
    7:   0.707107  0.707107  0.000000 /   0.616798  0.787122  0.000000 -> -55.4389356194

 Angular average effective mass for Frohlich model, averaged over degenerate bands.
 Value of     (<<m**0.5>>)**2 =     1.097328E+01
 Absolute Value of <<m**0.5>> =     3.312594E+00

 K-point ( 0.000, 0.000, 0.000) | band =    33
 Effective mass tensor:
              0.5314668457             -0.0000000024             -0.0000000059
             -0.0000000024              0.5314668447              0.0000000020
             -0.0000000059              0.0000000020              0.5314668534
 Effective mass tensor eigenvalues:
              0.5314668419              0.5314668446              0.5314668573
 Angular average effective mass 1/(<1/m>)=   0.5314668479
 Angular average effective mass for Frohlich model (<m**0.5>)**2=   0.5314668479
 Effective masses along directions: (cart. coord. / red. coord. -> eff. mass)
    1:   1.000000  0.000000  0.000000 /   0.948683  0.316228  0.000000 ->   0.5314668457
    2:   0.000000  1.000000  0.000000 /   0.000000  1.000000  0.000000 ->   0.5314668447
    3:   0.000000  0.000000  1.000000 /   0.408248  0.408248  0.816497 ->   0.5314668534
    4:   0.577350  0.577350  0.577350 /   0.585539  0.688047  0.428644 ->   0.5314668437
    5:   0.000000  0.707107  0.707107 /   0.289489  0.762222  0.578977 ->   0.5314668511
    6:   0.707107  0.000000  0.707107 /   0.731423  0.422287  0.535439 ->   0.5314668437
    7:   0.707107  0.707107  0.000000 /   0.616798  0.787122  0.000000 ->   0.5314668427

 END OF EFFECTIVE MASSES SECTION

 ---- first-order wavefunction calculations are completed ----

 Total localisation tensor (bohr^2) in cartesian coordinates
  WARNING : still subject to testing - especially symmetries.
      direction              matrix element
   alpha     beta       real part   imaginary part
     1        1       0.7036983353    0.0000000000
     1        2       0.1990441196    0.0000000000
     1        3       0.4875398448    0.0000000000
     2        1       0.1990441196    0.0000000000
     2        2       0.5629817868    0.0000000000
     2        3       0.3447545280    0.0000000000
     3        1       0.4875398448    0.0000000000
     3        2       0.3447545280    0.0000000000
     3        3       1.2666262269    0.0000000000

 respfn : d/dk was computed, but no 2DTE, so no DDB output.

== END DATASET(S) ==============================================================

 -outvars: echo values of variables after computation  --------
            acell      1.0000000000E+00  1.0000000000E+00  1.0000000000E+00 Bohr
              amu      8.54678000E+01  2.80855000E+01  1.89984032E+01
             ecut      4.20000000E+01 Hartree
           etotal     -3.2739214973E+01
            fcart      0.0000000000E+00  0.0000000000E+00  0.0000000000E+00
                       0.0000000000E+00  0.0000000000E+00  0.0000000000E+00
                       0.0000000000E+00  0.0000000000E+00  0.0000000000E+00
                       0.0000000000E+00  0.0000000000E+00  0.0000000000E+00
                       0.0000000000E+00  0.0000000000E+00  0.0000000000E+00
                       0.0000000000E+00  0.0000000000E+00  0.0000000000E+00
                       0.0000000000E+00  0.0000000000E+00  0.0000000000E+00
                       0.0000000000E+00  0.0000000000E+00  0.0000000000E+00
                       0.0000000000E+00  0.0000000000E+00  0.0000000000E+00
-          fftalg         512
           irdden           1
           irdwfk           1
           istwfk        1
              ixc     -116133
           kptopt           0
P           mkmem           1
P          mkqmem           1
P          mk1mem           1
            natom           9
            nband          41
           nbdbuf           4
            ngfft          72      72      72
             nkpt           1
            nstep        2000
             nsym          48
           ntypat           3
              occ      2.000000  2.000000  2.000000  2.000000  2.000000  2.000000
                       2.000000  2.000000  2.000000  2.000000  2.000000  2.000000
                       2.000000  2.000000  2.000000  2.000000  2.000000  2.000000
                       2.000000  2.000000  2.000000  2.000000  2.000000  2.000000
                       2.000000  2.000000  2.000000  2.000000  2.000000  2.000000
                       2.000000  2.000000  0.000000  0.000000  0.000000  0.000000
                       0.000000  0.000000  0.000000  0.000000  0.000000
        optdriver           1
            prtwf          -1
            rfdir           1       1       1
           rfelfd           2
            rprim      9.7397673339E+00  0.0000000000E+00  5.6232572921E+00
                       3.2465891113E+00  9.1827407053E+00  5.6232572921E+00
                       0.0000000000E+00  0.0000000000E+00  1.1246514584E+01
          spgroup         225
           strten      0.0000000000E+00  0.0000000000E+00  0.0000000000E+00
                       0.0000000000E+00  0.0000000000E+00  0.0000000000E+00
           symrel      1  0  0   0  1  0   0  0  1      -1  0  0   0 -1  0   0  0 -1
                       0 -1  1   0 -1  0   1 -1  0       0  1 -1   0  1  0  -1  1  0
                      -1  0  0  -1  0  1  -1  1  0       1  0  0   1  0 -1   1 -1  0
                       0  1 -1   1  0 -1   0  0 -1       0 -1  1  -1  0  1   0  0  1
                      -1  0  0  -1  1  0  -1  0  1       1  0  0   1 -1  0   1  0 -1
                       0 -1  1   1 -1  0   0 -1  0       0  1 -1  -1  1  0   0  1  0
                       1  0  0   0  0  1   0  1  0      -1  0  0   0  0 -1   0 -1  0
                       0  1 -1   0  0 -1   1  0 -1       0 -1  1   0  0  1  -1  0  1
                      -1  0  1  -1  1  0  -1  0  0       1  0 -1   1 -1  0   1  0  0
                       0 -1  0   1 -1  0   0 -1  1       0  1  0  -1  1  0   0  1 -1
                       1  0 -1   0  0 -1   0  1 -1      -1  0  1   0  0  1   0 -1  1
                       0  1  0   0  0  1   1  0  0       0 -1  0   0  0 -1  -1  0  0
                       1  0 -1   0  1 -1   0  0 -1      -1  0  1   0 -1  1   0  0  1
                       0 -1  0   0 -1  1   1 -1  0       0  1  0   0  1 -1  -1  1  0
                      -1  0  1  -1  0  0  -1  1  0       1  0 -1   1  0  0   1 -1  0
                       0  1  0   1  0  0   0  0  1       0 -1  0  -1  0  0   0  0 -1
                       0  0 -1   0  1 -1   1  0 -1       0  0  1   0 -1  1  -1  0  1
                       1 -1  0   0 -1  1   0 -1  0      -1  1  0   0  1 -1   0  1  0
                       0  0  1   1  0  0   0  1  0       0  0 -1  -1  0  0   0 -1  0
                      -1  1  0  -1  0  0  -1  0  1       1 -1  0   1  0  0   1  0 -1
                       0  0  1   0  1  0   1  0  0       0  0 -1   0 -1  0  -1  0  0
                       1 -1  0   0 -1  0   0 -1  1      -1  1  0   0  1  0   0  1 -1
                       0  0 -1   1  0 -1   0  1 -1       0  0  1  -1  0  1   0 -1  1
                      -1  1  0  -1  0  1  -1  0  0       1 -1  0   1  0 -1   1  0  0
           tolwfr      1.00000000E-20
            typat      1  1  2  3  3  3  3  3  3
           useylm           1
           xangst      1.7180209634E+00  1.2148242734E+00  2.9756995970E+00
                       5.1540628901E+00  3.6444728202E+00  8.9270987910E+00
                       0.0000000000E+00  0.0000000000E+00  0.0000000000E+00
                       4.4585805158E+00  9.8356060613E-01  4.1803104051E+00
                       1.3909647486E+00  9.8356060613E-01  5.9513991940E+00
                       5.4811191048E+00  3.8757364875E+00  5.9513991940E+00
                       2.4135033377E+00  3.8757364875E+00  7.7224879829E+00
                       4.4585805158E+00  9.8356060613E-01  7.7224879829E+00
                       2.4135033377E+00  3.8757364875E+00  4.1803104051E+00
            xcart      3.2465891113E+00  2.2956851763E+00  5.6232572921E+00
                       9.7397673339E+00  6.8870555290E+00  1.6869771876E+01
                       0.0000000000E+00  0.0000000000E+00  0.0000000000E+00
                       8.4254961162E+00  1.8586601807E+00  7.8996418160E+00
                       2.6285424354E+00  1.8586601807E+00  1.1246514584E+01
                       1.0357814010E+01  7.3240805246E+00  1.1246514584E+01
                       4.5608603290E+00  7.3240805246E+00  1.4593387352E+01
                       8.4254961162E+00  1.8586601807E+00  1.4593387352E+01
                       4.5608603290E+00  7.3240805246E+00  7.8996418160E+00
             xred      2.5000000000E-01  2.5000000000E-01  2.5000000000E-01
                       7.5000000000E-01  7.5000000000E-01  7.5000000000E-01
                       0.0000000000E+00  0.0000000000E+00  0.0000000000E+00
                       7.9759200000E-01  2.0240800000E-01  2.0240800000E-01
                       2.0240800000E-01  2.0240800000E-01  7.9759200000E-01
                       7.9759200000E-01  7.9759200000E-01  2.0240800000E-01
                       2.0240800000E-01  7.9759200000E-01  7.9759200000E-01
                       7.9759200000E-01  2.0240800000E-01  7.9759200000E-01
                       2.0240800000E-01  7.9759200000E-01  2.0240800000E-01
            znucl       37.00000   14.00000    9.00000

- Timing analysis has been suppressed with timopt=0

 Suggested references for the acknowledgment of ABINIT usage.

 Calculation completed.
.Delivered   6 WARNINGs and   5 COMMENTs to log file.