.Version 9.5.2 of ABINIT

 ABINIT is a project of the Universite Catholique de Louvain,
 Corning Inc. and other collaborators, see ~abinit/doc/developers/contributors.txt .
 acknowledgments of the ABINIT effort.

.Starting date : Mon 31 May 2021.
- ( at 22h01 )

- input  file    -> /scratch/users/j/a/jabreu/flow_simple_11atoms/flow/w332/t1/run.abi
- output file    -> /scratch/users/j/a/jabreu/flow_simple_11atoms/flow/w332/t1/run.abo
- root for input  files -> /scratch/users/j/a/jabreu/flow_simple_11atoms/flow/w332/t1/indata/in
- root for output files -> /scratch/users/j/a/jabreu/flow_simple_11atoms/flow/w332/t1/outdata/out

 Symmetries : space group I4/m c m (#140); Bravais tI (body-center tetrag.)
     intxc =       0      iscf =       7    lmnmax =      18     lnmax =       6
     mgfft =      80  mpssoang =       3    mqgrid =    3001     natom =      12
  nloc_mem =       1    nspden =       1   nspinor =       1    nsppol =       1
      nsym =      16    n1xccc =    2501    ntypat =       3    occopt =       1
   xclevel =       2
-    mband =          65        mffmem =           1         mkmem =           1
-   mkqmem =           1        mk1mem =           1           mpw =       17980
      nfft =      512000          nkpt =           1
  Rough estimation (10% accuracy) of disk space for files :

------------- Echo of variables that govern the present computation ------------
-
- outvars: echo of selected default values
-   iomode0 =  0 , fftalg0 =512 , wfoptalg0 =  0
-
- outvars: echo of global parameters not present in the input file
-  max_nthreads =    0
-
 -outvars: echo values of preprocessed input variables --------
            acell      1.0000000000E+00  1.0000000000E+00  1.0000000000E+00 Bohr
              amu      1.37327000E+02  1.06420000E+02  1.89984032E+01
             ecut      4.20000000E+01 Hartree
-          fftalg         512
           irdden           1
           irdwfk           1
           istwfk        1
              ixc     -116133
              kpt      0.00000000E+00  0.00000000E+00  5.00000000E-01
           kptopt           0
P           mkmem           1
P          mkqmem           1
P          mk1mem           1
            natom          12
            nband          65
           nbdbuf           4
            ngfft          80      80      80
             nkpt           1
            nstep        2000
             nsym          16
           ntypat           3
              occ      2.000000  2.000000  2.000000  2.000000  2.000000  2.000000
                       2.000000  2.000000  2.000000  2.000000  2.000000  2.000000
                       2.000000  2.000000  2.000000  2.000000  2.000000  2.000000
                       2.000000  2.000000  2.000000  2.000000  2.000000  2.000000
                       2.000000  2.000000  2.000000  2.000000  2.000000  2.000000
                       2.000000  2.000000  2.000000  2.000000  2.000000  2.000000
                       2.000000  2.000000  2.000000  2.000000  2.000000  2.000000
                       2.000000  2.000000  2.000000  2.000000  2.000000  2.000000
                       2.000000  2.000000  2.000000  2.000000  2.000000  2.000000
                       2.000000  2.000000  0.000000  0.000000  0.000000  0.000000
                       0.000000  0.000000  0.000000  0.000000  0.000000
        optdriver           1
            prtwf          -1
            rfdir           1       1       1
           rfelfd           2
            rprim      1.0431367341E+01  0.0000000000E+00 -7.9212462896E+00
                      -2.5691315523E+00  1.0110043901E+01 -7.9212462896E+00
                       0.0000000000E+00  0.0000000000E+00  1.3098074950E+01
          spgroup         140
           symrel      1  0  0   0  1  0   0  0  1      -1  0  0   0 -1  0   0  0 -1
                       0  0  1  -1 -1 -1   1  0  0       0  0 -1   1  1  1  -1  0  0
                       0  1  0   1  0  0  -1 -1 -1       0 -1  0  -1  0  0   1  1  1
                      -1 -1 -1   0  0  1   0  1  0       1  1  1   0  0 -1   0 -1  0
                       0  1  0   1  0  0   0  0  1       0 -1  0  -1  0  0   0  0 -1
                       0  0  1  -1 -1 -1   0  1  0       0  0 -1   1  1  1   0 -1  0
                       1  0  0   0  1  0  -1 -1 -1      -1  0  0   0 -1  0   1  1  1
                      -1 -1 -1   0  0  1   1  0  0       1  1  1   0  0 -1  -1  0  0
            tnons      0.0000000  0.0000000  0.0000000     0.0000000 -0.0000000 -0.0000000
                       0.5000000  0.5000000 -0.0000000     0.5000000  0.5000000 -0.0000000
                       0.0000000 -0.0000000 -0.0000000     0.0000000 -0.0000000 -0.0000000
                       0.5000000  0.5000000  0.0000000     0.5000000  0.5000000 -0.0000000
                       0.5000000  0.5000000 -0.0000000     0.5000000  0.5000000 -0.0000000
                       0.0000000 -0.0000000 -0.0000000     0.0000000 -0.0000000  0.0000000
                       0.5000000  0.5000000 -0.0000000     0.5000000  0.5000000  0.0000000
                       0.0000000 -0.0000000 -0.0000000     0.0000000 -0.0000000 -0.0000000
           tolwfr      1.00000000E-20
            typat      1  1  2  2  3  3  3  3  3  3  3  3
           useylm           1
           xangst      1.0401289970E+00  1.3375012025E+00 -2.0958715000E+00
                       3.1203869910E+00  4.0125036075E+00 -6.2876145001E+00
                       2.7600209257E+00  0.0000000000E+00  1.3697298698E+00
                      -6.7976293167E-01  2.6750024050E+00  1.3697298698E+00
                       3.6364918658E+00  1.1270534133E+00 -2.6259080166E+00
                       4.7057652773E+00  2.5020313995E+00 -4.7805058361E+00
                       5.2402412223E-01  4.2229513967E+00  1.1736247561E+00
                       2.1881926774E+00  1.5479489917E+00  2.9243096006E-01
                      -5.4524928927E-01  2.8479734105E+00  3.3282225756E+00
                       1.1189192659E+00  1.7297100551E-01  2.4470287795E+00
                       1.9723233106E+00  3.8020558183E+00 -1.7447142206E+00
                       3.0415967221E+00  5.1770338045E+00 -3.8993120400E+00
            xcart      1.9655589472E+00  2.5275109751E+00 -3.9606231448E+00
                       5.8966768416E+00  7.5825329254E+00 -1.1881869434E+01
                       5.2156836705E+00  0.0000000000E+00  2.5884143299E+00
                      -1.2845657762E+00  5.0550219503E+00  2.5884143299E+00
                       6.8719737108E+00  2.1298222883E+00 -4.9622470015E+00
                       8.8926076197E+00  4.7281541209E+00 -9.0338468069E+00
                       9.9026207804E-01  7.9802216123E+00  2.2178293718E+00
                       4.1350848862E+00  2.9251996620E+00  5.5261442729E-01
                      -1.0303718309E+00  5.3818897797E+00  6.2894291772E+00
                       2.1144509773E+00  3.2686782935E-01  4.6242142326E+00
                       3.7271509026E+00  7.1848442386E+00 -3.2970320570E+00
                       5.7477848115E+00  9.7831760712E+00 -7.3686318623E+00
             xred      2.5000000000E-01  2.5000000000E-01 -2.7755575616E-17
                       7.5000000000E-01  7.5000000000E-01 -1.6653345369E-16
                       5.0000000000E-01  0.0000000000E+00  5.0000000000E-01
                      -1.3877787808E-17  5.0000000000E-01  5.0000000000E-01
                       7.1066400000E-01  2.1066400000E-01  1.7833300000E-01
                       9.6766900000E-01  4.6766900000E-01  1.7833300000E-01
                       2.8933600000E-01  7.8933600000E-01  8.2166700000E-01
                       4.6766900000E-01  2.8933600000E-01  5.0000000000E-01
                       3.2331000000E-02  5.3233100000E-01  8.2166700000E-01
                       2.1066400000E-01  3.2331000000E-02  5.0000000000E-01
                       5.3233100000E-01  7.1066400000E-01  5.0000000000E-01
                       7.8933600000E-01  9.6766900000E-01  5.0000000000E-01
            znucl       56.00000   46.00000    9.00000

 chkinp: Checking input parameters for consistency.

== DATASET  1 ==================================================================
-   mpi_nproc: 1, omp_nthreads: -1 (-1 if OMP is not activated)

--- !DatasetInfo
iteration_state: {dtset: 1, }
dimensions: {natom: 12, nkpt: 1, mband: 65, nsppol: 1, nspinor: 1, nspden: 1, mpw: 17980, }
cutoff_energies: {ecut:  42.0, pawecutdg:  -1.0, }
electrons: {nelect:   1.12000000E+02, charge:   0.00000000E+00, occopt:   1.00000000E+00, tsmear:   1.00000000E-02, }
meta: {optdriver: 1, rfelfd: 2, }
...

 Real(R)+Recip(G) space primitive vectors, cartesian coordinates (Bohr,Bohr^-1):
 R(1)= 10.4313673  0.0000000 -7.9212463  G(1)=  0.0958647  0.0243608  0.0000000
 R(2)= -2.5691316 10.1100439 -7.9212463  G(2)=  0.0000000  0.0989115  0.0000000
 R(3)=  0.0000000  0.0000000 13.0980749  G(3)=  0.0579755  0.0745507  0.0763471
 Unit cell volume ucvol=  1.3813437E+03 bohr^3
 Angles (23,13,12)=  1.27211873E+02  1.27211873E+02  7.79052880E+01 degrees

 getcut: wavevector=  0.0000  0.0000  0.0000  ngfft=  80  80  80
         ecut(hartree)=     42.000   => boxcut(ratio)=   2.09369

--- Pseudopotential description ------------------------------------------------
- pspini: atom type   1  psp file is /scratch/users/j/a/jabreu/pseudos/PBEsol/Ba.psp8
- pspatm: opening atomic psp file    /scratch/users/j/a/jabreu/pseudos/PBEsol/Ba.psp8
- Ba    ONCVPSP-3.3.0  r_core=   2.15444   1.91218   2.15444
- 56.00000  10.00000    180112                znucl, zion, pspdat
    8 -116133    2    4       600   0.00000   pspcod,pspxc,lmax,lloc,mmax,r2well
    5.99000000000000    5.00000000000000    0.00000000000000   rchrg,fchrg,qchrg
     nproj     2     2     2
     extension_switch     1
  pspatm : epsatm=   26.37418029
         --- l  ekb(1:nproj) -->
             0    6.652372    0.677024
             1    5.027722    0.408462
             2    2.543237    0.416854
 pspatm: atomic psp has been read  and splines computed

- pspini: atom type   2  psp file is /scratch/users/j/a/jabreu/pseudos/PBEsol/Pd.psp8
- pspatm: opening atomic psp file    /scratch/users/j/a/jabreu/pseudos/PBEsol/Pd.psp8
- Pd    ONCVPSP-3.3.0  r_core=   1.41052   1.46191   1.55175
- 46.00000  18.00000    180112                znucl, zion, pspdat
    8 -116133    2    4       600   0.00000   pspcod,pspxc,lmax,lloc,mmax,r2well
    5.99000000000000    7.00000000000000    0.00000000000000   rchrg,fchrg,qchrg
     nproj     2     2     2
     extension_switch     1
  pspatm : epsatm=   26.17262427
         --- l  ekb(1:nproj) -->
             0    7.952303   -2.096627
             1    3.304793   -0.572651
             2   -1.185452   -0.410427
 pspatm: atomic psp has been read  and splines computed

- pspini: atom type   3  psp file is /scratch/users/j/a/jabreu/pseudos/PBEsol/F.psp8
- pspatm: opening atomic psp file    /scratch/users/j/a/jabreu/pseudos/PBEsol/F.psp8
- F     ONCVPSP-3.3.0  r_core=   1.30942   1.45782   1.60379
-  9.00000   7.00000    180112                znucl, zion, pspdat
    8 -116133    2    4       600   0.00000   pspcod,pspxc,lmax,lloc,mmax,r2well
[...]
 kpt#   1, nband= 65, wtk=  1.00000, kpt=  0.0000  0.0000  0.5000 (reduced coord)
  -0.00000   -0.00000   -0.00000    0.00000   -0.00000    0.00000   -0.00000   -0.00000
  -0.00000   -0.00000    0.00000    0.00000   -0.00000    0.00000    0.00000   -0.00000
  -0.00000   -0.00000    0.00000   -0.00000    0.00000    0.00000   -0.00000    0.00000
   0.00000   -0.00000   -0.00000   -0.00000   -0.00000    0.00000    0.00000   -0.00000
  -0.00000    0.00000    0.00000   -0.00000   -0.00000   -0.00000    0.00000    0.00000
   0.00000    0.00000   -0.00000    0.00000    0.00000   -0.00000    0.00000    0.00000
   0.00000    0.00000   -0.00000    0.00000    0.00000    0.00000    0.00000    0.00000
  -0.00000    0.00000    0.00000    0.00000   -0.00000   -0.00000    0.00000    0.00000
   0.00000

 Eight components of 2nd-order total energy (hartree) are
 1,2,3: 0th-order hamiltonian combined with 1st-order wavefunctions
     kin0=   6.95693320E+01 eigvalue=   1.96692860E+00  local=  -3.36283931E+01
 4,5,6: 1st-order hamiltonian combined with 1st and 0th-order wfs
     kin1=  -8.66466173E+01  Hartree=   0.00000000E+00     xc=   0.00000000E+00
 7,8,9: eventually, occupation + non-local contributions
    edocc=   5.54914603E+00     enl0=   2.25726999E+00   enl1=  -4.78194964E+00
 1-9 gives the relaxation energy (to be shifted if some occ is /=2.0)
   erelax=  -4.57142835E+01
  No Ewald or frozen-wf contrib.: the relaxation energy is the total one
 2DEtotal=   -0.4571428349E+02 Ha. Also 2DEtotal=   -0.124394891585E+04 eV
    (  non-var. 2DEtotal :   -4.5714283487E+01 Ha)

 Perturbation wavevector (in red.coord.)   0.000000  0.000000  0.000000
 Perturbation : derivative vs k along direction   2
 The set of symmetries contains only one element for this perturbation.
 symkpt : not enough symmetry to change the number of k points.

[...]

 Perturbation wavevector (in red.coord.)   0.000000  0.000000  0.000000
 Perturbation : derivative vs k along direction   3
 The set of symmetries contains only one element for this perturbation.
 symkpt : not enough symmetry to change the number of k points.

 Initialisation of the first-order wave-functions :
  ireadwf=   0

--- !BeginCycle
iteration_state: {dtset: 1, }
solver: {iscf: 7, nstep: 2000, nline: 4, wfoptalg: 0, }
tolerances: {tolwfr: 1.00E-20, }
...

     iter   2DEtotal(Ha)        deltaE(Ha) residm    vres2
-ETOT  1  -68.665807426571     -6.867E+01 3.770E-02 0.000E+00
 ETOT  2  -68.765504010618     -9.970E-02 1.349E-03 0.000E+00
 ETOT  3  -68.766033627236     -5.296E-04 8.990E-06 0.000E+00
 ETOT  4  -68.766039254402     -5.627E-06 5.927E-07 0.000E+00
 ETOT  5  -68.766039334171     -7.977E-08 5.777E-09 0.000E+00
 ETOT  6  -68.766039335540     -1.369E-09 4.744E-10 0.000E+00
 ETOT  7  -68.766039335572     -3.213E-11 4.919E-12 0.000E+00
 ETOT  8  -68.766039335573     -8.527E-13 4.342E-13 0.000E+00
 ETOT  9  -68.766039335573     -7.105E-14 7.746E-15 0.000E+00
 ETOT 10  -68.766039335573     -4.263E-14 5.407E-16 0.000E+00
 ETOT 11  -68.766039335573      0.000E+00 8.817E-18 0.000E+00
 ETOT 12  -68.766039335573      1.421E-14 7.686E-19 0.000E+00
 ETOT 13  -68.766039335573      0.000E+00 1.136E-20 0.000E+00
 ETOT 14  -68.766039335573     -1.421E-14 9.995E-21 0.000E+00

 At SCF step   14   max residual=  9.99E-21 < tolwfr=  1.00E-20 =>converged.

 ----iterations are completed or convergence reached----

 dfpt_looppert: DFPT cycle converged with prtwf=-1. Will skip output of the 1st-order WFK file.
 dfpt_looppert : ek2=    1.3041768672E+02
          f-sum rule ratio=    9.9826954157E-01
 prteigrs : about to open file /scratch/users/j/a/jabreu/flow_simple_11atoms/flow/w332/t1/tmpdata/tmp_1WF1_EIG
 Expectation of eigenvalue derivatives (hartree) for nkpt=   1  k points:
  (in case of degenerate eigenvalues, averaged derivative)
 kpt#   1, nband= 65, wtk=  1.00000, kpt=  0.0000  0.0000  0.5000 (reduced coord)
  -0.00000   -0.00000   -0.00000   -0.00000   -0.00000    0.00000   -0.00000   -0.00000
  -0.00000   -0.00000    0.00000    0.00000   -0.00000    0.00000   -0.00000   -0.00000
  -0.00000    0.00000    0.00000   -0.00000   -0.00000    0.00000    0.00000   -0.00000
  -0.00000    0.00000    0.00000    0.00000   -0.00000    0.00000   -0.00000   -0.00000
   0.00000   -0.00000    0.00000   -0.00000   -0.00000   -0.00000    0.00000   -0.00000
   0.00000    0.00000   -0.00000   -0.00000    0.00000   -0.00000   -0.00000    0.00000
   0.00000    0.00000   -0.00000    0.00000   -0.00000    0.00000   -0.00000   -0.00000
   0.00000    0.00000    0.00000    0.00000   -0.00000    0.00000   -0.00000   -0.00000
   0.00000

 Eight components of 2nd-order total energy (hartree) are
 1,2,3: 0th-order hamiltonian combined with 1st-order wavefunctions
     kin0=   1.06310541E+02 eigvalue=   3.14797012E+00  local=  -5.17847646E+01
 4,5,6: 1st-order hamiltonian combined with 1st and 0th-order wfs
     kin1=  -1.30192004E+02  Hartree=   0.00000000E+00     xc=   0.00000000E+00
 7,8,9: eventually, occupation + non-local contributions
    edocc=   7.29446420E+00     enl0=   3.79782848E+00   enl1=  -7.34007433E+00
 1-9 gives the relaxation energy (to be shifted if some occ is /=2.0)
   erelax=  -6.87660393E+01
  No Ewald or frozen-wf contrib.: the relaxation energy is the total one
 2DEtotal=   -0.6876603934E+02 Ha. Also 2DEtotal=   -0.187121909289E+04 eV
    (  non-var. 2DEtotal :   -6.8766039335E+01 Ha)

 CALCULATION OF EFFECTIVE MASSES
 NOTE : Additional infos (eff. mass eigenvalues, eigenvectors and, if degenerate, average mass) are available in stdout.

 K-point ( 0.000, 0.000, 0.500) | band =    56
 Effective mass tensor:
             -3.8288898522             -0.4679833844              0.7337953582
             -0.4679833844             -4.0667345319              0.9435868340
              0.7337953582              0.9435868340             -4.9429512453
 Effective mass tensor eigenvalues:
             -5.9092749646             -3.4649551004             -3.4643455644
 Angular average effective mass 1/(<1/m>)=  -4.0188385281
 Angular average effective mass for Frohlich model (<m**0.5>)**2=  -4.0879810806
 Effective masses along directions: (cart. coord. / red. coord. -> eff. mass)
    1:   1.000000  0.000000  0.000000 /   0.970984 -0.239143  0.000000 ->  -3.6922911235
    2:   0.000000  1.000000  0.000000 /   0.000000  1.000000  0.000000 ->  -3.8577040533
    3:   0.000000  0.000000  1.000000 /  -0.459597 -0.459597  0.759961 ->  -4.6204690988
    4:   0.577350  0.577350  0.577350 /   0.188139 -0.028507  0.981729 ->  -3.4695818054
    5:   0.000000  0.707107  0.707107 /  -0.512279  0.141553  0.847073 ->  -3.5221562526
    6:   0.707107  0.000000  0.707107 /   0.147934 -0.618250  0.771934 ->  -3.5781292630
    7:   0.707107  0.707107  0.000000 /   0.810416  0.585855  0.000000 ->  -4.1291893234

 K-point ( 0.000, 0.000, 0.500) | band =    57
 Effective mass tensor:
              2.0008892392             -0.1164514131              0.3728515318
             -0.1164514131              1.9417047554              0.4794495097
              0.3728515318              0.4794495097              1.5908469307
 Effective mass tensor eigenvalues:
              1.0998445074              2.0914495353              2.3421468827
 Angular average effective mass 1/(<1/m>)=   1.6535162315
 Angular average effective mass for Frohlich model (<m**0.5>)**2=   1.7144177303
 Effective masses along directions: (cart. coord. / red. coord. -> eff. mass)
    1:   1.000000  0.000000  0.000000 /   0.970984 -0.239143  0.000000 ->   1.8843692615
    2:   0.000000  1.000000  0.000000 /   0.000000  1.000000  0.000000 ->   1.7698452107
    3:   0.000000  0.000000  1.000000 /  -0.459597 -0.459597  0.759961 ->   1.3915701562
    4:   0.577350  0.577350  0.577350 /   0.188139 -0.028507  0.981729 ->   2.3296924863
    5:   0.000000  0.707107  0.707107 /  -0.512279  0.141553  0.847073 ->   2.1944500254
    6:   0.707107  0.000000  0.707107 /   0.147934 -0.618250  0.771934 ->   2.0837393125
    7:   0.707107  0.707107  0.000000 /   0.810416  0.585855  0.000000 ->   1.6249118803

 END OF EFFECTIVE MASSES SECTION

 ---- first-order wavefunction calculations are completed ----

 Total localisation tensor (bohr^2) in cartesian coordinates
  WARNING : still subject to testing - especially symmetries.
      direction              matrix element
   alpha     beta       real part   imaginary part
     1        1       0.6108982080    0.0000000000
     1        2      -0.1374834009    0.0000000000
     1        3      -0.3296480104    0.0000000000
     2        1      -0.1374834009    0.0000000000
     2        2       0.5410245409    0.0000000000
     2        3      -0.4238941669    0.0000000000
     3        1      -0.3296480104    0.0000000000
     3        2      -0.4238941669    0.0000000000
     3        3       2.0153434188    0.0000000000

 respfn : d/dk was computed, but no 2DTE, so no DDB output.

== END DATASET(S) ==============================================================

 -outvars: echo values of variables after computation  --------
            acell      1.0000000000E+00  1.0000000000E+00  1.0000000000E+00 Bohr
              amu      1.37327000E+02  1.06420000E+02  1.89984032E+01
             ecut      4.20000000E+01 Hartree
           etotal     -6.8766039336E+01
            fcart      0.0000000000E+00  0.0000000000E+00  0.0000000000E+00
                       0.0000000000E+00  0.0000000000E+00  0.0000000000E+00
                       0.0000000000E+00  0.0000000000E+00  0.0000000000E+00
                       0.0000000000E+00  0.0000000000E+00  0.0000000000E+00
                       0.0000000000E+00  0.0000000000E+00  0.0000000000E+00
                       0.0000000000E+00  0.0000000000E+00  0.0000000000E+00
                       0.0000000000E+00  0.0000000000E+00  0.0000000000E+00
                       0.0000000000E+00  0.0000000000E+00  0.0000000000E+00
                       0.0000000000E+00  0.0000000000E+00  0.0000000000E+00
                       0.0000000000E+00  0.0000000000E+00  0.0000000000E+00
                       0.0000000000E+00  0.0000000000E+00  0.0000000000E+00
                       0.0000000000E+00  0.0000000000E+00  0.0000000000E+00
-          fftalg         512
           irdden           1
           irdwfk           1
           istwfk        1
              ixc     -116133
              kpt      0.00000000E+00  0.00000000E+00  5.00000000E-01
           kptopt           0
P           mkmem           1
P          mkqmem           1
P          mk1mem           1
            natom          12
            nband          65
           nbdbuf           4
            ngfft          80      80      80
             nkpt           1
            nstep        2000
             nsym          16
           ntypat           3
              occ      2.000000  2.000000  2.000000  2.000000  2.000000  2.000000
                       2.000000  2.000000  2.000000  2.000000  2.000000  2.000000
                       2.000000  2.000000  2.000000  2.000000  2.000000  2.000000
                       2.000000  2.000000  2.000000  2.000000  2.000000  2.000000
                       2.000000  2.000000  2.000000  2.000000  2.000000  2.000000
                       2.000000  2.000000  2.000000  2.000000  2.000000  2.000000
                       2.000000  2.000000  2.000000  2.000000  2.000000  2.000000
                       2.000000  2.000000  2.000000  2.000000  2.000000  2.000000
                       2.000000  2.000000  2.000000  2.000000  2.000000  2.000000
                       2.000000  2.000000  0.000000  0.000000  0.000000  0.000000
                       0.000000  0.000000  0.000000  0.000000  0.000000
        optdriver           1
            prtwf          -1
            rfdir           1       1       1
           rfelfd           2
            rprim      1.0431367341E+01  0.0000000000E+00 -7.9212462896E+00
                      -2.5691315523E+00  1.0110043901E+01 -7.9212462896E+00
                       0.0000000000E+00  0.0000000000E+00  1.3098074950E+01
          spgroup         140
           strten      0.0000000000E+00  0.0000000000E+00  0.0000000000E+00
                       0.0000000000E+00  0.0000000000E+00  0.0000000000E+00
           symrel      1  0  0   0  1  0   0  0  1      -1  0  0   0 -1  0   0  0 -1
                       0  0  1  -1 -1 -1   1  0  0       0  0 -1   1  1  1  -1  0  0
                       0  1  0   1  0  0  -1 -1 -1       0 -1  0  -1  0  0   1  1  1
                      -1 -1 -1   0  0  1   0  1  0       1  1  1   0  0 -1   0 -1  0
                       0  1  0   1  0  0   0  0  1       0 -1  0  -1  0  0   0  0 -1
                       0  0  1  -1 -1 -1   0  1  0       0  0 -1   1  1  1   0 -1  0
                       1  0  0   0  1  0  -1 -1 -1      -1  0  0   0 -1  0   1  1  1
                      -1 -1 -1   0  0  1   1  0  0       1  1  1   0  0 -1  -1  0  0
            tnons      0.0000000  0.0000000  0.0000000     0.0000000 -0.0000000 -0.0000000
                       0.5000000  0.5000000 -0.0000000     0.5000000  0.5000000 -0.0000000
                       0.0000000 -0.0000000 -0.0000000     0.0000000 -0.0000000 -0.0000000
                       0.5000000  0.5000000  0.0000000     0.5000000  0.5000000 -0.0000000
                       0.5000000  0.5000000 -0.0000000     0.5000000  0.5000000 -0.0000000
                       0.0000000 -0.0000000 -0.0000000     0.0000000 -0.0000000  0.0000000
                       0.5000000  0.5000000 -0.0000000     0.5000000  0.5000000  0.0000000
                       0.0000000 -0.0000000 -0.0000000     0.0000000 -0.0000000 -0.0000000
           tolwfr      1.00000000E-20
            typat      1  1  2  2  3  3  3  3  3  3  3  3
           useylm           1
           xangst      1.0401289970E+00  1.3375012025E+00 -2.0958715000E+00
                       3.1203869910E+00  4.0125036075E+00 -6.2876145001E+00
                       2.7600209257E+00  0.0000000000E+00  1.3697298698E+00
                      -6.7976293167E-01  2.6750024050E+00  1.3697298698E+00
                       3.6364918658E+00  1.1270534133E+00 -2.6259080166E+00
                       4.7057652773E+00  2.5020313995E+00 -4.7805058361E+00
                       5.2402412223E-01  4.2229513967E+00  1.1736247561E+00
                       2.1881926774E+00  1.5479489917E+00  2.9243096006E-01
                      -5.4524928927E-01  2.8479734105E+00  3.3282225756E+00
                       1.1189192659E+00  1.7297100551E-01  2.4470287795E+00
                       1.9723233106E+00  3.8020558183E+00 -1.7447142206E+00
                       3.0415967221E+00  5.1770338045E+00 -3.8993120400E+00
            xcart      1.9655589472E+00  2.5275109751E+00 -3.9606231448E+00
                       5.8966768416E+00  7.5825329254E+00 -1.1881869434E+01
                       5.2156836705E+00  0.0000000000E+00  2.5884143299E+00
                      -1.2845657762E+00  5.0550219503E+00  2.5884143299E+00
                       6.8719737108E+00  2.1298222883E+00 -4.9622470015E+00
                       8.8926076197E+00  4.7281541209E+00 -9.0338468069E+00
                       9.9026207804E-01  7.9802216123E+00  2.2178293718E+00
                       4.1350848862E+00  2.9251996620E+00  5.5261442729E-01
                      -1.0303718309E+00  5.3818897797E+00  6.2894291772E+00
                       2.1144509773E+00  3.2686782935E-01  4.6242142326E+00
                       3.7271509026E+00  7.1848442386E+00 -3.2970320570E+00
                       5.7477848115E+00  9.7831760712E+00 -7.3686318623E+00
             xred      2.5000000000E-01  2.5000000000E-01 -2.7755575616E-17
                       7.5000000000E-01  7.5000000000E-01 -1.6653345369E-16
                       5.0000000000E-01  0.0000000000E+00  5.0000000000E-01
                      -1.3877787808E-17  5.0000000000E-01  5.0000000000E-01
                       7.1066400000E-01  2.1066400000E-01  1.7833300000E-01
                       9.6766900000E-01  4.6766900000E-01  1.7833300000E-01
                       2.8933600000E-01  7.8933600000E-01  8.2166700000E-01
                       4.6766900000E-01  2.8933600000E-01  5.0000000000E-01
                       3.2331000000E-02  5.3233100000E-01  8.2166700000E-01
                       2.1066400000E-01  3.2331000000E-02  5.0000000000E-01
                       5.3233100000E-01  7.1066400000E-01  5.0000000000E-01
                       7.8933600000E-01  9.6766900000E-01  5.0000000000E-01
            znucl       56.00000   46.00000    9.00000

- Timing analysis has been suppressed with timopt=0

 Suggested references for the acknowledgment of ABINIT usage.

 Calculation completed.
.Delivered   2 WARNINGs and   5 COMMENTs to log file.