.Version 9.5.1 of ABINIT

 ABINIT is a project of the Universite Catholique de Louvain,
 Corning Inc. and other collaborators, see ~abinit/doc/developers/contributors.txt .
 acknowledgments of the ABINIT effort.

.Starting date : Wed  5 May 2021.
- ( at 20h05 )

- input  file    -> /scratch/users/j/a/jabreu/flow_simple_7atoms/flow/w185/t1/run.abi
- output file    -> /scratch/users/j/a/jabreu/flow_simple_7atoms/flow/w185/t1/run.abo
- root for input  files -> /scratch/users/j/a/jabreu/flow_simple_7atoms/flow/w185/t1/indata/in
- root for output files -> /scratch/users/j/a/jabreu/flow_simple_7atoms/flow/w185/t1/outdata/out

 Symmetries : space group R-3 m (#166); Bravais hR (rhombohedral)
     intxc =       0      iscf =       7    lmnmax =      18     lnmax =       6
     mgfft =      96  mpssoang =       3    mqgrid =    3001     natom =       7
  nloc_mem =       1    nspden =       1   nspinor =       1    nsppol =       1
      nsym =      12    n1xccc =    2501    ntypat =       2    occopt =       1
   xclevel =       2
-    mband =          21        mffmem =           1         mkmem =           2
-   mkqmem =           2        mk1mem =           2           mpw =        6830
      nfft =      884736          nkpt =           2
  Rough estimation (10% accuracy) of disk space for files :

------------- Echo of variables that govern the present computation ------------
-
- outvars: echo of selected default values
-   iomode0 =  0 , fftalg0 =512 , wfoptalg0 =  0
-
- outvars: echo of global parameters not present in the input file
-  max_nthreads =    0
-
 -outvars: echo values of preprocessed input variables --------
            acell      1.0000000000E+00  1.0000000000E+00  1.0000000000E+00 Bohr
              amu      2.69815390E+01  1.20110000E+01
             ecut      4.10000000E+01 Hartree
-          fftalg         512
           irdden           1
           irdwfk           1
           istwfk        1    1
              ixc     -116133
              kpt      0.00000000E+00  0.00000000E+00  0.00000000E+00
                       5.00000000E-01  0.00000000E+00  0.00000000E+00
           kptopt           0
P           mkmem           2
P          mkqmem           2
P          mk1mem           2
            natom           7
            nband          21
           nbdbuf           4
            ngfft          96      96      96
             nkpt           2
            nstep        2000
             nsym          12
           ntypat           2
              occ      2.000000  2.000000  2.000000  2.000000  2.000000  2.000000
                       2.000000  2.000000  2.000000  2.000000  2.000000  2.000000
                       0.000000  0.000000  0.000000  0.000000  0.000000  0.000000
                       0.000000  0.000000  0.000000
        optdriver           1
            prtwf          -1
            rfdir           1       1       1
           rfelfd           2
            rprim      6.1886299020E+00  0.0000000000E+00  1.4922544483E+01
                       2.9716099250E+00  5.4285057352E+00  1.4922544483E+01
                       0.0000000000E+00  0.0000000000E+00  1.6154921043E+01
          spgroup         166
           symrel      1  0  0   0  1  0   0  0  1      -1  0  0   0 -1  0   0  0 -1
                       0  1  0   1  0  0   0  0  1       0 -1  0  -1  0  0   0  0 -1
                       0  0  1   1  0  0   0  1  0       0  0 -1  -1  0  0   0 -1  0
                       1  0  0   0  0  1   0  1  0      -1  0  0   0  0 -1   0 -1  0
                       0  1  0   0  0  1   1  0  0       0 -1  0   0  0 -1  -1  0  0
                       0  0  1   0  1  0   1  0  0       0  0 -1   0 -1  0  -1  0  0
           tolwfr      1.00000000E-20
            typat      1  1  1  1  2  2  2
           useylm           1
              wtk        0.50000    0.50000
           xangst      4.2171518650E+00  2.4991521530E+00  2.1177287021E+01
                       6.3023827666E-01  3.7348935879E-01  3.1648698705E+00
                       3.4246568981E+00  2.0295068649E+00  1.7197612133E+01
                       1.4227332435E+00  8.4313464691E-01  7.1445447586E+00
                       3.7974745213E+00  2.2504445962E+00  1.9069791762E+01
                       1.0499156203E+00  6.2219691560E-01  5.2723651298E+00
                       0.0000000000E+00  0.0000000000E+00  0.0000000000E+00
            xcart      7.9692620857E+00  4.7227131335E+00  4.0019272708E+01
                       1.1909777413E+00  7.0579260167E-01  5.9807373014E+00
                       6.4716636366E+00  3.8352121594E+00  3.2498777072E+01
                       2.6885761904E+00  1.5932935758E+00  1.3501232938E+01
                       7.1761868419E+00  4.2527239640E+00  3.6036683841E+01
                       1.9840529851E+00  1.1757817712E+00  9.9633261680E+00
                       0.0000000000E+00  0.0000000000E+00  0.0000000000E+00
             xred      8.6998400000E-01  8.6998400000E-01  8.6998400000E-01
                       1.3001600000E-01  1.3001600000E-01  1.3001600000E-01
                       7.0649500000E-01  7.0649500000E-01  7.0649500000E-01
                       2.9350500000E-01  2.9350500000E-01  2.9350500000E-01
                       7.8340600000E-01  7.8340600000E-01  7.8340600000E-01
                       2.1659400000E-01  2.1659400000E-01  2.1659400000E-01
                       0.0000000000E+00  0.0000000000E+00  0.0000000000E+00
            znucl       13.00000    6.00000

 chkinp: Checking input parameters for consistency.

== DATASET  1 ==================================================================
-   mpi_nproc: 1, omp_nthreads: -1 (-1 if OMP is not activated)

--- !DatasetInfo
iteration_state: {dtset: 1, }
dimensions: {natom: 7, nkpt: 2, mband: 21, nsppol: 1, nspinor: 1, nspden: 1, mpw: 6830, }
cutoff_energies: {ecut:  41.0, pawecutdg:  -1.0, }
electrons: {nelect:   2.40000000E+01, charge:   0.00000000E+00, occopt:   1.00000000E+00, tsmear:   1.00000000E-02, }
meta: {optdriver: 1, rfelfd: 2, }
...

 Real(R)+Recip(G) space primitive vectors, cartesian coordinates (Bohr,Bohr^-1):
 R(1)=  6.1886299  0.0000000 14.9225445  G(1)=  0.1615867 -0.0884539  0.0000000
 R(2)=  2.9716099  5.4285057 14.9225445  G(2)=  0.0000000  0.1842128  0.0000000
 R(3)=  0.0000000  0.0000000 16.1549210  G(3)= -0.1492600 -0.0884539  0.0619006
 Unit cell volume ucvol=  5.4272478E+02 bohr^3
 Angles (23,13,12)=  2.25246065E+01  2.25246065E+01  2.25246065E+01 degrees

 getcut: wavevector=  0.0000  0.0000  0.0000  ngfft=  96  96  96
         ecut(hartree)=     41.000   => boxcut(ratio)=   2.06209

--- Pseudopotential description ------------------------------------------------
- pspini: atom type   1  psp file is /scratch/users/j/a/jabreu/pseudos/PBEsol/Al.psp8
- pspatm: opening atomic psp file    /scratch/users/j/a/jabreu/pseudos/PBEsol/Al.psp8
- Al    ONCVPSP-3.3.0  r_core=   1.76802   1.76802   1.70587
- 13.00000   3.00000    180112                znucl, zion, pspdat
    8 -116133    2    4       600   0.00000   pspcod,pspxc,lmax,lloc,mmax,r2well
    5.99000000000000    5.00000000000000    0.00000000000000   rchrg,fchrg,qchrg
     nproj     2     2     2
     extension_switch     1
  pspatm : epsatm=    0.68509324
         --- l  ekb(1:nproj) -->
             0    5.834965    0.726662
             1    6.225605    0.924840
             2   -2.432733   -0.548689
 pspatm: atomic psp has been read  and splines computed

- pspini: atom type   2  psp file is /scratch/users/j/a/jabreu/pseudos/PBEsol/C.psp8
- pspatm: opening atomic psp file    /scratch/users/j/a/jabreu/pseudos/PBEsol/C.psp8
- C     ONCVPSP-3.3.0  r_core=   1.20440   1.26326
-  6.00000   4.00000    180112                znucl, zion, pspdat
    8 -116133    1    4       600   0.00000   pspcod,pspxc,lmax,lloc,mmax,r2well
    5.99000000000000    4.00000000000000    0.00000000000000   rchrg,fchrg,qchrg
     nproj     2     2
     extension_switch     1
  pspatm : epsatm=    4.34909529
         --- l  ekb(1:nproj) -->
             0    6.468939    0.390031
             1   -4.179695   -0.878453
 pspatm: atomic psp has been read  and splines computed

   3.78903812E+02                                ecore*ucvol(ha*bohr**3)

-inwffil : will read wavefunctions from disk file /scratch/users/j/a/jabreu/flow_simple_7atoms/flow/w185/t1/indata/in_WFK

 ==>  initialize data related to q vector <==

 The list of irreducible perturbations for this q vector is:
    1)    idir= 1    ipert=   8
    2)    idir= 2    ipert=   8
    3)    idir= 3    ipert=   8

 Perturbation wavevector (in red.coord.)   0.000000  0.000000  0.000000
 Perturbation : derivative vs k along direction   1

 dfpt_looppert : COMMENT -
  In a d/dk calculation, iscf is set to -3 automatically.
 The set of symmetries contains only one element for this perturbation.
 symkpt : not enough symmetry to change the number of k points.

[...]

 Initialisation of the first-order wave-functions :
  ireadwf=   0

--- !BeginCycle
iteration_state: {dtset: 1, }
solver: {iscf: 7, nstep: 2000, nline: 4, wfoptalg: 0, }
tolerances: {tolwfr: 1.00E-20, }
...

     iter   2DEtotal(Ha)        deltaE(Ha) residm    vres2
-ETOT  1  -44.364626952900     -4.436E+01 1.582E-01 0.000E+00
 ETOT  2  -44.390066903622     -2.544E-02 1.030E-03 0.000E+00
 ETOT  3  -44.390147652104     -8.075E-05 9.899E-06 0.000E+00
 ETOT  4  -44.390148252633     -6.005E-07 5.349E-07 0.000E+00
 ETOT  5  -44.390148258497     -5.863E-09 2.353E-08 0.000E+00
 ETOT  6  -44.390148258559     -6.256E-11 1.369E-09 0.000E+00
 ETOT  7  -44.390148258560     -6.182E-13 6.273E-11 0.000E+00
 ETOT  8  -44.390148258560     -4.263E-14 3.681E-12 0.000E+00
 ETOT  9  -44.390148258560     -1.421E-14 1.752E-13 0.000E+00
 ETOT 10  -44.390148258560     -4.974E-14 1.029E-14 0.000E+00
 ETOT 11  -44.390148258560     -1.421E-14 5.040E-16 0.000E+00
 ETOT 12  -44.390148258560      7.105E-15 2.950E-17 0.000E+00
 ETOT 13  -44.390148258560      0.000E+00 1.476E-18 0.000E+00
 ETOT 14  -44.390148258560      7.105E-15 8.606E-20 0.000E+00
 ETOT 15  -44.390148258560     -7.105E-15 9.940E-21 0.000E+00

 At SCF step   15   max residual=  9.94E-21 < tolwfr=  1.00E-20 =>converged.

 ----iterations are completed or convergence reached----

 dfpt_looppert: DFPT cycle converged with prtwf=-1. Will skip output of the 1st-order WFK file.
 dfpt_looppert : ek2=    6.4304352878E+01
          f-sum rule ratio=    1.4532097384E+00
 prteigrs : about to open file /scratch/users/j/a/jabreu/flow_simple_7atoms/flow/w185/t1/tmpdata/tmp_1WF1_EIG
 Expectation of eigenvalue derivatives (hartree) for nkpt=   2  k points:
  (in case of degenerate eigenvalues, averaged derivative)
 kpt#   1, nband= 21, wtk=  0.50000, kpt=  0.0000  0.0000  0.0000 (reduced coord)
  -0.00000    0.00000   -0.00000   -0.00000   -0.00000    0.00000    0.00000    0.00000
   0.00000   -0.00000   -0.00000   -0.00000   -0.00000    0.00000   -0.00000    0.00000
   0.00000    0.00000    0.00000    0.00000    0.00000
 prteigrs : prtvol=0 or 1, do not print more k-points.

 Eight components of 2nd-order total energy (hartree) are
 1,2,3: 0th-order hamiltonian combined with 1st-order wavefunctions
     kin0=   2.98760999E+01 eigvalue=  -5.05207609E+00  local=  -1.14237423E+01
 4,5,6: 1st-order hamiltonian combined with 1st and 0th-order wfs
     kin1=  -9.34477118E+01  Hartree=   0.00000000E+00     xc=   0.00000000E+00
 7,8,9: eventually, occupation + non-local contributions
    edocc=   3.00292252E+01     enl0=   9.60641534E-01   enl1=   4.66741531E+00
 1-9 gives the relaxation energy (to be shifted if some occ is /=2.0)
   erelax=  -4.43901483E+01
  No Ewald or frozen-wf contrib.: the relaxation energy is the total one
 2DEtotal=   -0.4439014826E+02 Ha. Also 2DEtotal=   -0.120791736387E+04 eV
    (  non-var. 2DEtotal :   -4.4390148258E+01 Ha)

 Perturbation wavevector (in red.coord.)   0.000000  0.000000  0.000000
 Perturbation : derivative vs k along direction   2
 The set of symmetries contains only one element for this perturbation.
 symkpt : not enough symmetry to change the number of k points.

[...]

 Perturbation wavevector (in red.coord.)   0.000000  0.000000  0.000000
 Perturbation : derivative vs k along direction   3
 The set of symmetries contains only one element for this perturbation.
 symkpt : not enough symmetry to change the number of k points.

-inwffil : will read wavefunctions from disk file /scratch/users/j/a/jabreu/flow_simple_7atoms/flow/w185/t1/indata/in_WFK

 Initialisation of the first-order wave-functions :
  ireadwf=   0

--- !BeginCycle
iteration_state: {dtset: 1, }
solver: {iscf: 7, nstep: 2000, nline: 4, wfoptalg: 0, }
tolerances: {tolwfr: 1.00E-20, }
...

     iter   2DEtotal(Ha)        deltaE(Ha) residm    vres2
-ETOT  1  -57.258039934237     -5.726E+01 1.212E-01 0.000E+00
 ETOT  2  -57.281157901109     -2.312E-02 1.128E-03 0.000E+00
 ETOT  3  -57.281238404157     -8.050E-05 1.085E-05 0.000E+00
 ETOT  4  -57.281239023694     -6.195E-07 5.349E-07 0.000E+00
 ETOT  5  -57.281239029793     -6.099E-09 2.353E-08 0.000E+00
 ETOT  6  -57.281239029858     -6.512E-11 1.369E-09 0.000E+00
 ETOT  7  -57.281239029858     -7.745E-13 6.273E-11 0.000E+00
 ETOT  8  -57.281239029858     -7.105E-15 3.681E-12 0.000E+00
 ETOT  9  -57.281239029858      4.263E-14 1.752E-13 0.000E+00
 ETOT 10  -57.281239029858      7.816E-14 1.029E-14 0.000E+00
 ETOT 11  -57.281239029858     -7.105E-15 5.040E-16 0.000E+00
 ETOT 12  -57.281239029858     -2.132E-14 2.950E-17 0.000E+00
 ETOT 13  -57.281239029858      0.000E+00 1.476E-18 0.000E+00
 ETOT 14  -57.281239029858     -7.105E-15 8.606E-20 0.000E+00
 ETOT 15  -57.281239029858      2.842E-14 9.531E-21 0.000E+00

 At SCF step   15   max residual=  9.53E-21 < tolwfr=  1.00E-20 =>converged.

 ----iterations are completed or convergence reached----

 dfpt_looppert: DFPT cycle converged with prtwf=-1. Will skip output of the 1st-order WFK file.
 dfpt_looppert : ek2=    6.4304352878E+01
          f-sum rule ratio=    1.9043024779E+00
 prteigrs : about to open file /scratch/users/j/a/jabreu/flow_simple_7atoms/flow/w185/t1/tmpdata/tmp_1WF1_EIG
 Expectation of eigenvalue derivatives (hartree) for nkpt=   2  k points:
  (in case of degenerate eigenvalues, averaged derivative)
 kpt#   1, nband= 21, wtk=  0.50000, kpt=  0.0000  0.0000  0.0000 (reduced coord)
   0.00000   -0.00000    0.00000    0.00000   -0.00000    0.00000    0.00000   -0.00000
  -0.00000   -0.00000    0.00000    0.00000    0.00000    0.00000   -0.00000    0.00000
   0.00000   -0.00000    0.00000    0.00000    0.00000
 prteigrs : prtvol=0 or 1, do not print more k-points.

 Eight components of 2nd-order total energy (hartree) are
 1,2,3: 0th-order hamiltonian combined with 1st-order wavefunctions
     kin0=   2.92297149E+01 eigvalue=  -4.96480199E+00  local=  -1.11138094E+01
 4,5,6: 1st-order hamiltonian combined with 1st and 0th-order wfs
     kin1=  -1.22454939E+02  Hartree=   0.00000000E+00     xc=   0.00000000E+00
 7,8,9: eventually, occupation + non-local contributions
    edocc=   4.32795763E+01     enl0=   8.50559268E-01   enl1=   7.89246047E+00
 1-9 gives the relaxation energy (to be shifted if some occ is /=2.0)
   erelax=  -5.72812390E+01
  No Ewald or frozen-wf contrib.: the relaxation energy is the total one
 2DEtotal=   -0.5728123903E+02 Ha. Also 2DEtotal=   -0.155870178322E+04 eV
    (  non-var. 2DEtotal :   -5.7281239030E+01 Ha)

 CALCULATION OF EFFECTIVE MASSES
 NOTE : Additional infos (eff. mass eigenvalues, eigenvectors and, if degenerate, average mass) are available in stdout.

 COMMENTS:
 - At k-point ( 0.000, 0.000, 0.000), bands    11 through    12
   are DEGENERATE (effective mass tensor is therefore not defined).
   See Section IIIB Eqs. (67)-(70) and Appendix E of PRB 93 205147 (2016).
 - Angular average effective mass for Frohlich model is to be averaged over degenerate bands. See later.
 - Associated theta integrals calculated with ntheta=   1000 points.

 K-point ( 0.000, 0.000, 0.000) | band =    11
 Transport equivalent effective mass tensor:
             -0.4249742529             -0.0855696640             -0.7250944190
             -0.0855696640             -0.3312918091             -0.4297036877
             -0.7250944190             -0.4297036877             -3.9217397002
 Transport equivalent effective mass tensor eigenvalues:
             -4.1168443334             -0.2805816764             -0.2805797523
 Angular average effective mass 1/(<1/m>)=  -0.3937340165
 Angular average effective mass for Frohlich model (<m**0.5>)**2=  -0.4969945372
 Effective masses along directions: (cart. coord. / red. coord. -> eff. mass)
    1:   1.000000  0.000000  0.000000 /   0.901462  0.432857  0.000000 ->  -0.2812296954
    2:   0.000000  1.000000  0.000000 /   0.000000  1.000000  0.000000 ->  -0.2732216727
    3:   0.000000  0.000000  1.000000 /   0.561480  0.561480  0.607849 ->  -2.1306499252
    4:   0.577350  0.577350  0.577350 /   0.596969  0.659504  0.456819 ->  -0.5746588064
    5:   0.000000  0.707107  0.707107 /   0.498019  0.679188  0.539148 ->  -0.5785082100
    6:   0.707107  0.000000  0.707107 /   0.658804  0.558412  0.504137 ->  -0.7181622549
    7:   0.707107  0.707107  0.000000 /   0.593141  0.805098  0.000000 ->  -0.2868008557

 K-point ( 0.000, 0.000, 0.000) | band =    12
 Transport equivalent effective mass tensor:
             -7.6009060216             -0.0473433347             -0.4010867859
             -0.0473433347             -7.5490714862             -0.2376889822
             -0.4010867859             -0.2376889822             -9.5352602782
 Transport equivalent effective mass tensor eigenvalues:
             -9.6431766076             -7.5210455449             -7.5210156335
 Angular average effective mass 1/(<1/m>)=  -4.3081990697
 Angular average effective mass for Frohlich model (<m**0.5>)**2=  -4.4906294392
 Effective masses along directions: (cart. coord. / red. coord. -> eff. mass)
    1:   1.000000  0.000000  0.000000 /   0.901462  0.432857  0.000000 ->  -4.4594010398
    2:   0.000000  1.000000  0.000000 /   0.000000  1.000000  0.000000 ->  -4.9192186224
    3:   0.000000  0.000000  1.000000 /   0.561480  0.561480  0.607849 ->  -4.9263632192
    4:   0.577350  0.577350  0.577350 /   0.596969  0.659504  0.456819 ->  -3.3688469105
    5:   0.000000  0.707107  0.707107 /   0.498019  0.679188  0.539148 ->  -6.3552873236
    6:   0.707107  0.000000  0.707107 /   0.658804  0.558412  0.504137 ->  -5.2815755024
    7:   0.707107  0.707107  0.000000 /   0.593141  0.805098  0.000000 ->  -3.8625117233

 Angular average effective mass for Frohlich model, averaged over degenerate bands.
 Value of     (<<m**0.5>>)**2 =     1.993870E+00
 Absolute Value of <<m**0.5>> =     1.412044E+00

 K-point ( 0.500, 0.000, 0.000) | band =    13
 Effective mass tensor:
              0.4152793608             -0.1425141782             -0.0853716833
             -0.1425141782              0.3035420241              0.1553772807
             -0.0853716833              0.1553772807              0.6686854812
 Effective mass tensor eigenvalues:
              0.1902687692              0.4220904742              0.7751476228
 Angular average effective mass 1/(<1/m>)=   0.3365129908
 Angular average effective mass for Frohlich model (<m**0.5>)**2=   0.3711557428
 Effective masses along directions: (cart. coord. / red. coord. -> eff. mass)
    1:   1.000000  0.000000  0.000000 /   0.901462  0.432857  0.000000 ->   0.3481065028
    2:   0.000000  1.000000  0.000000 /   0.000000  1.000000  0.000000 ->   0.2302215885
    3:   0.000000  0.000000  1.000000 /   0.561480  0.561480  0.607849 ->   0.5887079626
    4:   0.577350  0.577350  0.577350 /   0.596969  0.659504  0.456819 ->   0.3003172359
    5:   0.000000  0.707107  0.707107 /   0.498019  0.679188  0.539148 ->   0.4586995918
    6:   0.707107  0.000000  0.707107 /   0.658804  0.558412  0.504137 ->   0.4262163697
    7:   0.707107  0.707107  0.000000 /   0.593141  0.805098  0.000000 ->   0.2030087394

 END OF EFFECTIVE MASSES SECTION

 ---- first-order wavefunction calculations are completed ----

 Total localisation tensor (bohr^2) in cartesian coordinates
  WARNING : still subject to testing - especially symmetries.
      direction              matrix element
   alpha     beta       real part   imaginary part
     1        1       4.5127287501    0.0000000000
     1        2       2.0087181695    0.0000000000
     1        3      13.7518603091    0.0000000000
     2        1       2.0087181695    0.0000000000
     2        2       3.6695052105    0.0000000000
     2        3      10.0871874150    0.0000000000
     3        1      13.7518603091    0.0000000000
     3        2      10.0871874150    0.0000000000
     3        3      80.0720598871    0.0000000000

 respfn : d/dk was computed, but no 2DTE, so no DDB output.

== END DATASET(S) ==============================================================

 -outvars: echo values of variables after computation  --------
            acell      1.0000000000E+00  1.0000000000E+00  1.0000000000E+00 Bohr
              amu      2.69815390E+01  1.20110000E+01
             ecut      4.10000000E+01 Hartree
           etotal     -5.7281239030E+01
            fcart      0.0000000000E+00  0.0000000000E+00  0.0000000000E+00
                       0.0000000000E+00  0.0000000000E+00  0.0000000000E+00
                       0.0000000000E+00  0.0000000000E+00  0.0000000000E+00
                       0.0000000000E+00  0.0000000000E+00  0.0000000000E+00
                       0.0000000000E+00  0.0000000000E+00  0.0000000000E+00
                       0.0000000000E+00  0.0000000000E+00  0.0000000000E+00
                       0.0000000000E+00  0.0000000000E+00  0.0000000000E+00
-          fftalg         512
           irdden           1
           irdwfk           1
           istwfk        1    1
              ixc     -116133
              kpt      0.00000000E+00  0.00000000E+00  0.00000000E+00
                       5.00000000E-01  0.00000000E+00  0.00000000E+00
           kptopt           0
P           mkmem           2
P          mkqmem           2
P          mk1mem           2
            natom           7
            nband          21
           nbdbuf           4
            ngfft          96      96      96
             nkpt           2
            nstep        2000
             nsym          12
           ntypat           2
              occ      2.000000  2.000000  2.000000  2.000000  2.000000  2.000000
                       2.000000  2.000000  2.000000  2.000000  2.000000  2.000000
                       0.000000  0.000000  0.000000  0.000000  0.000000  0.000000
                       0.000000  0.000000  0.000000
        optdriver           1
            prtwf          -1
            rfdir           1       1       1
           rfelfd           2
            rprim      6.1886299020E+00  0.0000000000E+00  1.4922544483E+01
                       2.9716099250E+00  5.4285057352E+00  1.4922544483E+01
                       0.0000000000E+00  0.0000000000E+00  1.6154921043E+01
          spgroup         166
           strten      0.0000000000E+00  0.0000000000E+00  0.0000000000E+00
                       0.0000000000E+00  0.0000000000E+00  0.0000000000E+00
           symrel      1  0  0   0  1  0   0  0  1      -1  0  0   0 -1  0   0  0 -1
                       0  1  0   1  0  0   0  0  1       0 -1  0  -1  0  0   0  0 -1
                       0  0  1   1  0  0   0  1  0       0  0 -1  -1  0  0   0 -1  0
                       1  0  0   0  0  1   0  1  0      -1  0  0   0  0 -1   0 -1  0
                       0  1  0   0  0  1   1  0  0       0 -1  0   0  0 -1  -1  0  0
                       0  0  1   0  1  0   1  0  0       0  0 -1   0 -1  0  -1  0  0
           tolwfr      1.00000000E-20
            typat      1  1  1  1  2  2  2
           useylm           1
              wtk        0.50000    0.50000
           xangst      4.2171518650E+00  2.4991521530E+00  2.1177287021E+01
                       6.3023827666E-01  3.7348935879E-01  3.1648698705E+00
                       3.4246568981E+00  2.0295068649E+00  1.7197612133E+01
                       1.4227332435E+00  8.4313464691E-01  7.1445447586E+00
                       3.7974745213E+00  2.2504445962E+00  1.9069791762E+01
                       1.0499156203E+00  6.2219691560E-01  5.2723651298E+00
                       0.0000000000E+00  0.0000000000E+00  0.0000000000E+00
            xcart      7.9692620857E+00  4.7227131335E+00  4.0019272708E+01
                       1.1909777413E+00  7.0579260167E-01  5.9807373014E+00
                       6.4716636366E+00  3.8352121594E+00  3.2498777072E+01
                       2.6885761904E+00  1.5932935758E+00  1.3501232938E+01
                       7.1761868419E+00  4.2527239640E+00  3.6036683841E+01
                       1.9840529851E+00  1.1757817712E+00  9.9633261680E+00
                       0.0000000000E+00  0.0000000000E+00  0.0000000000E+00
             xred      8.6998400000E-01  8.6998400000E-01  8.6998400000E-01
                       1.3001600000E-01  1.3001600000E-01  1.3001600000E-01
                       7.0649500000E-01  7.0649500000E-01  7.0649500000E-01
                       2.9350500000E-01  2.9350500000E-01  2.9350500000E-01
                       7.8340600000E-01  7.8340600000E-01  7.8340600000E-01
                       2.1659400000E-01  2.1659400000E-01  2.1659400000E-01
                       0.0000000000E+00  0.0000000000E+00  0.0000000000E+00
            znucl       13.00000    6.00000

- Timing analysis has been suppressed with timopt=0

 Suggested references for the acknowledgment of ABINIT usage.

 Calculation completed.
.Delivered  14 WARNINGs and   9 COMMENTs to log file.