.Version 9.5.1 of ABINIT

 ABINIT is a project of the Universite Catholique de Louvain,
 Corning Inc. and other collaborators, see ~abinit/doc/developers/contributors.txt .
 acknowledgments of the ABINIT effort.

.Starting date : Wed 19 May 2021.
- ( at 01h46 )

- input  file    -> /scratch/users/j/a/jabreu/flow_simple_8atoms/flow/w479/t1/run.abi
- output file    -> /scratch/users/j/a/jabreu/flow_simple_8atoms/flow/w479/t1/run.abo
- root for input  files -> /scratch/users/j/a/jabreu/flow_simple_8atoms/flow/w479/t1/indata/in
- root for output files -> /scratch/users/j/a/jabreu/flow_simple_8atoms/flow/w479/t1/outdata/out

 Symmetries : space group I-4 3 m (#217); Bravais cI (body-center cubic)
     intxc =       0      iscf =       7    lmnmax =      18     lnmax =       6
     mgfft =      72  mpssoang =       3    mqgrid =    3001     natom =       8
  nloc_mem =       1    nspden =       1   nspinor =       1    nsppol =       1
      nsym =      24    n1xccc =    2501    ntypat =       3    occopt =       1
   xclevel =       2
-    mband =          42        mffmem =           1         mkmem =           1
-   mkqmem =           1        mk1mem =           1           mpw =       16884
      nfft =      373248          nkpt =           1
  Rough estimation (10% accuracy) of disk space for files :

------------- Echo of variables that govern the present computation ------------
-
- outvars: echo of selected default values
-   iomode0 =  0 , fftalg0 =512 , wfoptalg0 =  0
-
- outvars: echo of global parameters not present in the input file
-  max_nthreads =    0
-
 -outvars: echo values of preprocessed input variables --------
            acell      1.0000000000E+00  1.0000000000E+00  1.0000000000E+00 Bohr
              amu      2.29897680E+01  1.21753000E+02  3.20660000E+01
             ecut      4.40000000E+01 Hartree
-          fftalg         512
           irdden           1
           irdwfk           1
              ixc     -116133
              kpt      5.00000000E-01 -5.00000000E-01  5.00000000E-01
           kptopt           0
P           mkmem           1
P          mkqmem           1
P          mk1mem           1
            natom           8
            nband          42
           nbdbuf           4
            ngfft          72      72      72
             nkpt           1
            nstep        2000
             nsym          24
           ntypat           3
              occ      2.000000  2.000000  2.000000  2.000000  2.000000  2.000000
                       2.000000  2.000000  2.000000  2.000000  2.000000  2.000000
                       2.000000  2.000000  2.000000  2.000000  2.000000  2.000000
                       2.000000  2.000000  2.000000  2.000000  2.000000  2.000000
                       2.000000  2.000000  2.000000  2.000000  2.000000  2.000000
                       2.000000  2.000000  2.000000  0.000000  0.000000  0.000000
                       0.000000  0.000000  0.000000  0.000000  0.000000  0.000000
        optdriver           1
            prtwf          -1
            rfdir           1       1       1
           rfelfd           2
            rprim      1.0975130799E+01  0.0000000000E+00 -3.8802947051E+00
                      -5.4875653975E+00  9.5047420826E+00 -3.8802947051E+00
                       0.0000000000E+00  0.0000000000E+00  1.1640884118E+01
          spgroup         217
           symrel      1  0  0   0  1  0   0  0  1      -1 -1 -1   0  0  1   0  1  0
                       0  1  0   1  0  0  -1 -1 -1       0  0  1  -1 -1 -1   1  0  0
                       0  1  0   1  0  0   0  0  1      -1 -1 -1   0  0  1   1  0  0
                       1  0  0   0  1  0  -1 -1 -1       0  0  1  -1 -1 -1   0  1  0
                      -1 -1 -1   1  0  0   0  0  1       0  1  0   0  0  1   1  0  0
                       1  0  0  -1 -1 -1   0  1  0       0  0  1   0  1  0  -1 -1 -1
                       1  0  0  -1 -1 -1   0  0  1       0  1  0   0  0  1  -1 -1 -1
                      -1 -1 -1   1  0  0   0  1  0       0  0  1   0  1  0   1  0  0
                       0  1  0  -1 -1 -1   0  0  1       1  0  0   0  0  1  -1 -1 -1
                      -1 -1 -1   0  1  0   1  0  0       0  0  1   1  0  0   0  1  0
                      -1 -1 -1   0  1  0   0  0  1       1  0  0   0  0  1   0  1  0
                       0  1  0  -1 -1 -1   1  0  0       0  0  1   1  0  0  -1 -1 -1
           tolwfr      1.00000000E-20
            typat      1  1  1  2  3  3  3  3
           useylm           1
           xangst      2.9038945400E+00  0.0000000000E+00  2.0533635213E+00
                       1.4519472705E+00  2.5148464418E+00 -2.0533635206E+00
                      -1.4519472695E+00  2.5148464418E+00  2.0533635213E+00
                       0.0000000000E+00  0.0000000000E+00  0.0000000000E+00
                       1.1106961035E+00  1.9237820826E+00  7.8538074670E-01
                      -1.7931984363E+00  3.1059108010E+00 -1.2679827744E+00
                       3.5863968737E+00  0.0000000000E+00 -1.2679827744E+00
                       0.0000000000E+00  0.0000000000E+00  3.8039483241E+00
            xcart      5.4875653994E+00  0.0000000000E+00  3.8802947065E+00
                       2.7437827006E+00  4.7523710413E+00 -3.8802947051E+00
                      -2.7437826988E+00  4.7523710413E+00  3.8802947065E+00
                       0.0000000000E+00  0.0000000000E+00  0.0000000000E+00
                       2.0989114525E+00  3.6354212755E+00  1.4841545213E+00
                      -3.3886539464E+00  5.8693208071E+00 -2.3961401848E+00
                       6.7773078952E+00  0.0000000000E+00 -2.3961401848E+00
                       0.0000000000E+00  0.0000000000E+00  7.1884205561E+00
             xred      5.0000000000E-01  0.0000000000E+00  5.0000000000E-01
                       5.0000000000E-01  5.0000000000E-01  1.3877787808E-17
                       0.0000000000E+00  5.0000000000E-01  5.0000000000E-01
                       0.0000000000E+00  0.0000000000E+00  0.0000000000E+00
                       3.8248500000E-01  3.8248500000E-01  3.8248500000E-01
                       5.5511151231E-17  6.1751500000E-01  0.0000000000E+00
                       6.1751500000E-01  0.0000000000E+00  0.0000000000E+00
                       0.0000000000E+00  0.0000000000E+00  6.1751500000E-01
            znucl       11.00000   51.00000   16.00000

 chkinp: Checking input parameters for consistency.

== DATASET  1 ==================================================================
-   mpi_nproc: 1, omp_nthreads: -1 (-1 if OMP is not activated)

--- !DatasetInfo
iteration_state: {dtset: 1, }
dimensions: {natom: 8, nkpt: 1, mband: 42, nsppol: 1, nspinor: 1, nspden: 1, mpw: 16884, }
cutoff_energies: {ecut:  44.0, pawecutdg:  -1.0, }
electrons: {nelect:   6.60000000E+01, charge:   0.00000000E+00, occopt:   1.00000000E+00, tsmear:   1.00000000E-02, }
meta: {optdriver: 1, rfelfd: 2, }
...

 Real(R)+Recip(G) space primitive vectors, cartesian coordinates (Bohr,Bohr^-1):
 R(1)= 10.9751308  0.0000000 -3.8802947  G(1)=  0.0911151  0.0526053  0.0000000
 R(2)= -5.4875654  9.5047421 -3.8802947  G(2)=  0.0000000  0.1052106  0.0000000
 R(3)=  0.0000000  0.0000000 11.6408841  G(3)=  0.0303717  0.0526053  0.0859041
 Unit cell volume ucvol=  1.2143280E+03 bohr^3
 Angles (23,13,12)=  1.09471221E+02  1.09471221E+02  1.09471221E+02 degrees

 getcut: wavevector=  0.0000  0.0000  0.0000  ngfft=  72  72  72
         ecut(hartree)=     44.000   => boxcut(ratio)=   2.07136

--- Pseudopotential description ------------------------------------------------
- pspini: atom type   1  psp file is /scratch/users/j/a/jabreu/pseudos/PBEsol/Na.psp8
- pspatm: opening atomic psp file    /scratch/users/j/a/jabreu/pseudos/PBEsol/Na.psp8
- Na    ONCVPSP-3.3.0  r_core=   1.20708   1.55069
- 11.00000   9.00000    180112                znucl, zion, pspdat
    8 -116133    1    4       400   0.00000   pspcod,pspxc,lmax,lloc,mmax,r2well
    3.99000000000000    0.00000000000000    0.00000000000000   rchrg,fchrg,qchrg
     nproj     2     2
     extension_switch     1
  pspatm : epsatm=    9.32878306
         --- l  ekb(1:nproj) -->
             0    2.657905   -0.678300
             1   -6.761319   -2.404728
 pspatm: atomic psp has been read  and splines computed

- pspini: atom type   2  psp file is /scratch/users/j/a/jabreu/pseudos/PBEsol/Sb.psp8
- pspatm: opening atomic psp file    /scratch/users/j/a/jabreu/pseudos/PBEsol/Sb.psp8
- Sb    ONCVPSP-3.3.0  r_core=   1.81962   2.12485   1.81962
- 51.00000  15.00000    180112                znucl, zion, pspdat
    8 -116133    2    4       600   0.00000   pspcod,pspxc,lmax,lloc,mmax,r2well
    5.99000000000000    5.00000000000000    0.00000000000000   rchrg,fchrg,qchrg
     nproj     2     2     2
     extension_switch     1
  pspatm : epsatm=   26.35641246
         --- l  ekb(1:nproj) -->
             0    9.727814    1.485032
             1    5.505335    0.704623
             2   -4.710637   -1.436443
 pspatm: atomic psp has been read  and splines computed

- pspini: atom type   3  psp file is /scratch/users/j/a/jabreu/pseudos/PBEsol/S.psp8
- pspatm: opening atomic psp file    /scratch/users/j/a/jabreu/pseudos/PBEsol/S.psp8
- S     ONCVPSP-3.3.0  r_core=   1.45376   1.45376   1.61851
- 16.00000   6.00000    180112                znucl, zion, pspdat
    8 -116133    2    4       600   0.00000   pspcod,pspxc,lmax,lloc,mmax,r2well
    5.99000000000000    6.00000000000000    0.00000000000000   rchrg,fchrg,qchrg
     nproj     2     2     2
     extension_switch     1
  pspatm : epsatm=    8.71840985
         --- l  ekb(1:nproj) -->
             0    6.834532    0.579453
             1    3.282851    0.896984
             2   -3.496974   -0.974265
 pspatm: atomic psp has been read  and splines computed

   5.88828247E+03                                ecore*ucvol(ha*bohr**3)

-inwffil : will read wavefunctions from disk file /scratch/users/j/a/jabreu/flow_simple_8atoms/flow/w479/t1/indata/in_WFK

 ==>  initialize data related to q vector <==

 The list of irreducible perturbations for this q vector is:
    1)    idir= 1    ipert=   9
    2)    idir= 2    ipert=   9
    3)    idir= 3    ipert=   9

 Perturbation wavevector (in red.coord.)   0.000000  0.000000  0.000000
 Perturbation : derivative vs k along direction   1

 dfpt_looppert : COMMENT -
  In a d/dk calculation, iscf is set to -3 automatically.
 The set of symmetries contains only one element for this perturbation.
 symkpt : not enough symmetry to change the number of k points.

[...]

 Initialisation of the first-order wave-functions :
  ireadwf=   0

--- !BeginCycle
iteration_state: {dtset: 1, }
solver: {iscf: 7, nstep: 2000, nline: 4, wfoptalg: 0, }
tolerances: {tolwfr: 1.00E-20, }
...

     iter   2DEtotal(Ha)        deltaE(Ha) residm    vres2
-ETOT  1  -39.463181109953     -3.946E+01 1.986E-01 0.000E+00
 ETOT  2  -39.496879148545     -3.370E-02 3.338E-02 0.000E+00
 ETOT  3  -39.496946978677     -6.783E-05 3.859E-03 0.000E+00
 ETOT  4  -39.496947543514     -5.648E-07 7.687E-04 0.000E+00
 ETOT  5  -39.496947550122     -6.608E-09 1.235E-04 0.000E+00
[...]
  -0.00000   -0.00000

 Eight components of 2nd-order total energy (hartree) are
 1,2,3: 0th-order hamiltonian combined with 1st-order wavefunctions
     kin0=   4.56926873E+01 eigvalue=   5.05353436E+00  local=  -2.25051639E+01
 4,5,6: 1st-order hamiltonian combined with 1st and 0th-order wfs
     kin1=  -6.02669212E+01  Hartree=   0.00000000E+00     xc=   0.00000000E+00
 7,8,9: eventually, occupation + non-local contributions
    edocc=   7.90125418E+00     enl0=   3.35463561E+00   enl1=  -1.87269739E+01
 1-9 gives the relaxation energy (to be shifted if some occ is /=2.0)
   erelax=  -3.94969476E+01
  No Ewald or frozen-wf contrib.: the relaxation energy is the total one
 2DEtotal=   -0.3949694755E+02 Ha. Also 2DEtotal=   -0.107476660109E+04 eV
    (  non-var. 2DEtotal :   -3.9496947550E+01 Ha)

 Perturbation wavevector (in red.coord.)   0.000000  0.000000  0.000000
 Perturbation : derivative vs k along direction   2
 The set of symmetries contains only one element for this perturbation.
 symkpt : not enough symmetry to change the number of k points.

[...]

 Perturbation wavevector (in red.coord.)   0.000000  0.000000  0.000000
 Perturbation : derivative vs k along direction   3
 The set of symmetries contains only one element for this perturbation.
 symkpt : not enough symmetry to change the number of k points.

-inwffil : will read wavefunctions from disk file /scratch/users/j/a/jabreu/flow_simple_8atoms/flow/w479/t1/indata/in_WFK

 Initialisation of the first-order wave-functions :
  ireadwf=   0

--- !BeginCycle
iteration_state: {dtset: 1, }
solver: {iscf: 7, nstep: 2000, nline: 4, wfoptalg: 0, }
tolerances: {tolwfr: 1.00E-20, }
...

     iter   2DEtotal(Ha)        deltaE(Ha) residm    vres2
-ETOT  1  -39.464713587122     -3.946E+01 2.161E-01 0.000E+00
 ETOT  2  -39.496872186943     -3.216E-02 3.777E-02 0.000E+00
 ETOT  3  -39.496946900808     -7.471E-05 4.295E-03 0.000E+00
 ETOT  4  -39.496947534906     -6.341E-07 8.546E-04 0.000E+00
 ETOT  5  -39.496947542161     -7.256E-09 1.371E-04 0.000E+00
 ETOT  6  -39.496947542251     -8.953E-11 3.119E-05 0.000E+00
 ETOT  7  -39.496947542252     -1.201E-12 5.278E-06 0.000E+00
 ETOT  8  -39.496947542252      4.974E-14 1.224E-06 0.000E+00
 ETOT  9  -39.496947542252     -2.842E-14 2.081E-07 0.000E+00
 ETOT 10  -39.496947542252     -1.421E-14 4.996E-08 0.000E+00
 ETOT 11  -39.496947542252      2.132E-14 8.264E-09 0.000E+00
 ETOT 12  -39.496947542252      0.000E+00 2.122E-09 0.000E+00
 ETOT 13  -39.496947542252     -7.105E-15 3.336E-10 0.000E+00
 ETOT 14  -39.496947542252      0.000E+00 9.343E-11 0.000E+00
 ETOT 15  -39.496947542252      0.000E+00 1.384E-11 0.000E+00
 ETOT 16  -39.496947542252      7.105E-15 4.189E-12 0.000E+00
 ETOT 17  -39.496947542252      0.000E+00 5.895E-13 0.000E+00
 ETOT 18  -39.496947542252     -7.105E-15 1.880E-13 0.000E+00
 ETOT 19  -39.496947542252      0.000E+00 2.553E-14 0.000E+00
 ETOT 20  -39.496947542252      0.000E+00 8.397E-15 0.000E+00
 ETOT 21  -39.496947542252      0.000E+00 1.117E-15 0.000E+00
 ETOT 22  -39.496947542252      1.421E-14 3.732E-16 0.000E+00
 ETOT 23  -39.496947542252     -1.421E-14 4.908E-17 0.000E+00
 ETOT 24  -39.496947542252      0.000E+00 1.654E-17 0.000E+00
 ETOT 25  -39.496947542252      7.105E-15 2.164E-18 0.000E+00
 ETOT 26  -39.496947542252     -7.105E-15 7.320E-19 0.000E+00
 ETOT 27  -39.496947542252      1.421E-14 9.559E-20 0.000E+00
 ETOT 28  -39.496947542252     -7.105E-15 3.238E-20 0.000E+00
 ETOT 29  -39.496947542252      0.000E+00 9.702E-21 0.000E+00

 At SCF step   29   max residual=  9.70E-21 < tolwfr=  1.00E-20 =>converged.

 ----iterations are completed or convergence reached----

 dfpt_looppert: DFPT cycle converged with prtwf=-1. Will skip output of the 1st-order WFK file.
 dfpt_looppert : ek2=    5.7683684780E+01
          f-sum rule ratio=    1.0447827919E+00
 prteigrs : about to open file /scratch/users/j/a/jabreu/flow_simple_8atoms/flow/w479/t1/tmpdata/tmp_1WF1_EIG
 Expectation of eigenvalue derivatives (hartree) for nkpt=   1  k points:
  (in case of degenerate eigenvalues, averaged derivative)
 kpt#   1, nband= 42, wtk=  1.00000, kpt=  0.5000 -0.5000  0.5000 (reduced coord)
   0.00000    0.00000   -0.00000   -0.00000   -0.00000   -0.00000   -0.00000   -0.00000
   0.00000    0.00000    0.00000    0.00000    0.00000    0.00000   -0.00000   -0.00000
  -0.00000   -0.00000    0.00000    0.00000    0.00000    0.00000   -0.00000   -0.00000
  -0.00000   -0.00000   -0.00000    0.00000    0.00000    0.00000   -0.00000   -0.00000
  -0.00000    0.00000   -0.00000   -0.00000   -0.00000    0.00000    0.00000    0.00000
  -0.00000   -0.00000

 Eight components of 2nd-order total energy (hartree) are
 1,2,3: 0th-order hamiltonian combined with 1st-order wavefunctions
     kin0=   4.56926874E+01 eigvalue=   5.05353408E+00  local=  -2.25051646E+01
 4,5,6: 1st-order hamiltonian combined with 1st and 0th-order wfs
     kin1=  -6.02669212E+01  Hartree=   0.00000000E+00     xc=   0.00000000E+00
 7,8,9: eventually, occupation + non-local contributions
    edocc=   7.90125438E+00     enl0=   3.35463633E+00   enl1=  -1.87269739E+01
 1-9 gives the relaxation energy (to be shifted if some occ is /=2.0)
   erelax=  -3.94969475E+01
  No Ewald or frozen-wf contrib.: the relaxation energy is the total one
 2DEtotal=   -0.3949694754E+02 Ha. Also 2DEtotal=   -0.107476660087E+04 eV
    (  non-var. 2DEtotal :   -3.9496947542E+01 Ha)

 CALCULATION OF EFFECTIVE MASSES
 NOTE : Additional infos (eff. mass eigenvalues, eigenvectors and, if degenerate, average mass) are available in stdout.

 COMMENTS:
 - At k-point ( 0.500,-0.500, 0.500), bands    31 through    33
   are DEGENERATE (effective mass tensor is therefore not defined).
   See Section IIIB Eqs. (67)-(70) and Appendix E of PRB 93 205147 (2016).
 - Angular average effective mass for Frohlich model is to be averaged over degenerate bands. See later.
 - Associated theta integrals calculated with ntheta=   1000 points.

 K-point ( 0.500,-0.500, 0.500) | band =    31
 Transport equivalent effective mass tensor:
             -0.6986573717              0.0000000017             -0.0000000939
              0.0000000017             -0.6986565952              0.0000000015
             -0.0000000939              0.0000000015             -0.6986566872
 Transport equivalent effective mass tensor eigenvalues:
             -0.6986573843             -0.6986566745             -0.6986565952
 Angular average effective mass 1/(<1/m>)=  -0.6940190983
 Angular average effective mass for Frohlich model (<m**0.5>)**2=  -0.6942130668
 Effective masses along directions: (cart. coord. / red. coord. -> eff. mass)
    1:   1.000000  0.000000  0.000000 /   0.894427 -0.447214  0.000000 ->  -0.7093223502
    2:   0.000000  1.000000  0.000000 /   0.000000  1.000000  0.000000 ->  -0.6814442557
    3:   0.000000  0.000000  1.000000 /  -0.301511 -0.301511  0.904534 ->  -0.7395787354
    4:   0.577350  0.577350  0.577350 /   0.520407  0.010040  0.853860 ->  -0.7018709595
    5:   0.000000  0.707107  0.707107 /  -0.287468  0.416681  0.862403 ->  -0.6833421269
    6:   0.707107  0.000000  0.707107 /   0.428925 -0.566343  0.703761 ->  -0.6837495972
    7:   0.707107  0.707107  0.000000 /   0.939071  0.343724  0.000000 ->  -0.6913750460

[...]

 K-point ( 0.500,-0.500, 0.500) | band =    33
 Transport equivalent effective mass tensor:
             -3.0341147780              0.0000000217              0.0000001526
              0.0000000217             -3.0341147181             -0.0000000221
              0.0000001526             -0.0000000221             -3.0341147427
 Transport equivalent effective mass tensor eigenvalues:
             -3.0341149187             -3.0341147134             -3.0341146067
 Angular average effective mass 1/(<1/m>)=  -2.3682782662
 Angular average effective mass for Frohlich model (<m**0.5>)**2=  -2.4098943670
 Effective masses along directions: (cart. coord. / red. coord. -> eff. mass)
    1:   1.000000  0.000000  0.000000 /   0.894427 -0.447214  0.000000 ->  -2.2018835038
    2:   0.000000  1.000000  0.000000 /   0.000000  1.000000  0.000000 ->  -2.1665396520
    3:   0.000000  0.000000  1.000000 /  -0.301511 -0.301511  0.904534 ->  -1.9258891400
    4:   0.577350  0.577350  0.577350 /   0.520407  0.010040  0.853860 ->  -2.1856147349
    5:   0.000000  0.707107  0.707107 /  -0.287468  0.416681  0.862403 ->  -2.6197620981
    6:   0.707107  0.000000  0.707107 /   0.428925 -0.566343  0.703761 ->  -3.2759852461
    7:   0.707107  0.707107  0.000000 /   0.939071  0.343724  0.000000 ->  -2.1842108428

 Angular average effective mass for Frohlich model, averaged over degenerate bands.
 Value of     (<<m**0.5>>)**2 =     1.168801E+00
 Absolute Value of <<m**0.5>> =     1.081111E+00

 K-point ( 0.500,-0.500, 0.500) | band =    34
 Effective mass tensor:
              0.7557064747             -0.0000000002             -0.0000000001
             -0.0000000002              0.7557064744             -0.0000000001
             -0.0000000001             -0.0000000001              0.7557064747
 Effective mass tensor eigenvalues:
              0.7557064742              0.7557064748              0.7557064748
 Angular average effective mass 1/(<1/m>)=   0.7557064746
 Angular average effective mass for Frohlich model (<m**0.5>)**2=   0.7557064746
 Effective masses along directions: (cart. coord. / red. coord. -> eff. mass)
    1:   1.000000  0.000000  0.000000 /   0.894427 -0.447214  0.000000 ->   0.7557064747
    2:   0.000000  1.000000  0.000000 /   0.000000  1.000000  0.000000 ->   0.7557064744
    3:   0.000000  0.000000  1.000000 /  -0.301511 -0.301511  0.904534 ->   0.7557064747
    4:   0.577350  0.577350  0.577350 /   0.520407  0.010040  0.853860 ->   0.7557064743
    5:   0.000000  0.707107  0.707107 /  -0.287468  0.416681  0.862403 ->   0.7557064744
    6:   0.707107  0.000000  0.707107 /   0.428925 -0.566343  0.703761 ->   0.7557064746
    7:   0.707107  0.707107  0.000000 /   0.939071  0.343724  0.000000 ->   0.7557064743

 END OF EFFECTIVE MASSES SECTION

 ---- first-order wavefunction calculations are completed ----

 Total localisation tensor (bohr^2) in cartesian coordinates
  WARNING : still subject to testing - especially symmetries.
      direction              matrix element
   alpha     beta       real part   imaginary part
     1        1       1.7593858267    0.0000000000
     1        2      -0.6094691301    0.0000000000
     1        3      -0.2488147287    0.0000000000
     2        1      -0.6094691301    0.0000000000
     2        2       1.0556314995    0.0000000000
     2        3      -0.4309597549    0.0000000000
     3        1      -0.2488147287    0.0000000000
     3        2      -0.4309597549    0.0000000000
     3        3       1.9353244059    0.0000000000

 respfn : d/dk was computed, but no 2DTE, so no DDB output.

== END DATASET(S) ==============================================================

 -outvars: echo values of variables after computation  --------
            acell      1.0000000000E+00  1.0000000000E+00  1.0000000000E+00 Bohr
              amu      2.29897680E+01  1.21753000E+02  3.20660000E+01
             ecut      4.40000000E+01 Hartree
           etotal     -3.9496947542E+01
            fcart      0.0000000000E+00  0.0000000000E+00  0.0000000000E+00
                       0.0000000000E+00  0.0000000000E+00  0.0000000000E+00
                       0.0000000000E+00  0.0000000000E+00  0.0000000000E+00
                       0.0000000000E+00  0.0000000000E+00  0.0000000000E+00
                       0.0000000000E+00  0.0000000000E+00  0.0000000000E+00
                       0.0000000000E+00  0.0000000000E+00  0.0000000000E+00
                       0.0000000000E+00  0.0000000000E+00  0.0000000000E+00
                       0.0000000000E+00  0.0000000000E+00  0.0000000000E+00
-          fftalg         512
           irdden           1
           irdwfk           1
              ixc     -116133
              kpt      5.00000000E-01 -5.00000000E-01  5.00000000E-01
           kptopt           0
P           mkmem           1
P          mkqmem           1
P          mk1mem           1
            natom           8
            nband          42
           nbdbuf           4
            ngfft          72      72      72
             nkpt           1
            nstep        2000
             nsym          24
           ntypat           3
              occ      2.000000  2.000000  2.000000  2.000000  2.000000  2.000000
                       2.000000  2.000000  2.000000  2.000000  2.000000  2.000000
                       2.000000  2.000000  2.000000  2.000000  2.000000  2.000000
                       2.000000  2.000000  2.000000  2.000000  2.000000  2.000000
                       2.000000  2.000000  2.000000  2.000000  2.000000  2.000000
                       2.000000  2.000000  2.000000  0.000000  0.000000  0.000000
                       0.000000  0.000000  0.000000  0.000000  0.000000  0.000000
        optdriver           1
            prtwf          -1
            rfdir           1       1       1
           rfelfd           2
            rprim      1.0975130799E+01  0.0000000000E+00 -3.8802947051E+00
                      -5.4875653975E+00  9.5047420826E+00 -3.8802947051E+00
                       0.0000000000E+00  0.0000000000E+00  1.1640884118E+01
          spgroup         217
           strten      0.0000000000E+00  0.0000000000E+00  0.0000000000E+00
                       0.0000000000E+00  0.0000000000E+00  0.0000000000E+00
           symrel      1  0  0   0  1  0   0  0  1      -1 -1 -1   0  0  1   0  1  0
                       0  1  0   1  0  0  -1 -1 -1       0  0  1  -1 -1 -1   1  0  0
                       0  1  0   1  0  0   0  0  1      -1 -1 -1   0  0  1   1  0  0
                       1  0  0   0  1  0  -1 -1 -1       0  0  1  -1 -1 -1   0  1  0
                      -1 -1 -1   1  0  0   0  0  1       0  1  0   0  0  1   1  0  0
                       1  0  0  -1 -1 -1   0  1  0       0  0  1   0  1  0  -1 -1 -1
                       1  0  0  -1 -1 -1   0  0  1       0  1  0   0  0  1  -1 -1 -1
                      -1 -1 -1   1  0  0   0  1  0       0  0  1   0  1  0   1  0  0
                       0  1  0  -1 -1 -1   0  0  1       1  0  0   0  0  1  -1 -1 -1
                      -1 -1 -1   0  1  0   1  0  0       0  0  1   1  0  0   0  1  0
                      -1 -1 -1   0  1  0   0  0  1       1  0  0   0  0  1   0  1  0
                       0  1  0  -1 -1 -1   1  0  0       0  0  1   1  0  0  -1 -1 -1
           tolwfr      1.00000000E-20
            typat      1  1  1  2  3  3  3  3
           useylm           1
           xangst      2.9038945400E+00  0.0000000000E+00  2.0533635213E+00
                       1.4519472705E+00  2.5148464418E+00 -2.0533635206E+00
                      -1.4519472695E+00  2.5148464418E+00  2.0533635213E+00
                       0.0000000000E+00  0.0000000000E+00  0.0000000000E+00
                       1.1106961035E+00  1.9237820826E+00  7.8538074670E-01
                      -1.7931984363E+00  3.1059108010E+00 -1.2679827744E+00
                       3.5863968737E+00  0.0000000000E+00 -1.2679827744E+00
                       0.0000000000E+00  0.0000000000E+00  3.8039483241E+00
            xcart      5.4875653994E+00  0.0000000000E+00  3.8802947065E+00
                       2.7437827006E+00  4.7523710413E+00 -3.8802947051E+00
                      -2.7437826988E+00  4.7523710413E+00  3.8802947065E+00
                       0.0000000000E+00  0.0000000000E+00  0.0000000000E+00
                       2.0989114525E+00  3.6354212755E+00  1.4841545213E+00
                      -3.3886539464E+00  5.8693208071E+00 -2.3961401848E+00
                       6.7773078952E+00  0.0000000000E+00 -2.3961401848E+00
                       0.0000000000E+00  0.0000000000E+00  7.1884205561E+00
             xred      5.0000000000E-01  0.0000000000E+00  5.0000000000E-01
                       5.0000000000E-01  5.0000000000E-01  1.3877787808E-17
                       0.0000000000E+00  5.0000000000E-01  5.0000000000E-01
                       0.0000000000E+00  0.0000000000E+00  0.0000000000E+00
                       3.8248500000E-01  3.8248500000E-01  3.8248500000E-01
                       5.5511151231E-17  6.1751500000E-01  0.0000000000E+00
                       6.1751500000E-01  0.0000000000E+00  0.0000000000E+00
                       0.0000000000E+00  0.0000000000E+00  6.1751500000E-01
            znucl       11.00000   51.00000   16.00000

- Timing analysis has been suppressed with timopt=0

 Suggested references for the acknowledgment of ABINIT usage.

 Calculation completed.
.Delivered   6 WARNINGs and   5 COMMENTs to log file.