.Version 9.5.1 of ABINIT

 ABINIT is a project of the Universite Catholique de Louvain,
 Corning Inc. and other collaborators, see ~abinit/doc/developers/contributors.txt .
 acknowledgments of the ABINIT effort.

.Starting date : Tue  4 May 2021.
- ( at 19h15 )

- input  file    -> /scratch/users/j/a/jabreu/flow_simple_6atoms/flow/w172/t1/run.abi
- output file    -> /scratch/users/j/a/jabreu/flow_simple_6atoms/flow/w172/t1/run.abo
- root for input  files -> /scratch/users/j/a/jabreu/flow_simple_6atoms/flow/w172/t1/indata/in
- root for output files -> /scratch/users/j/a/jabreu/flow_simple_6atoms/flow/w172/t1/outdata/out

 Symmetries : space group P6_3/m m c (#194); Bravais hP (primitive hexag.)
     intxc =       0      iscf =       7    lmnmax =      18     lnmax =       6
     mgfft =      90  mpssoang =       3    mqgrid =    4433     natom =       6
  nloc_mem =       1    nspden =       1   nspinor =       1    nsppol =       1
      nsym =      24    n1xccc =    2501    ntypat =       3    occopt =       1
   xclevel =       2
-    mband =          27        mffmem =           1         mkmem =           2
-   mkqmem =           2        mk1mem =           2           mpw =       10784
      nfft =      207360          nkpt =           2
  Rough estimation (10% accuracy) of disk space for files :

------------- Echo of variables that govern the present computation ------------
-
- outvars: echo of selected default values
-   iomode0 =  0 , fftalg0 =512 , wfoptalg0 =  0
-
- outvars: echo of global parameters not present in the input file
-  max_nthreads =    0
-
 -outvars: echo values of preprocessed input variables --------
            acell      1.0000000000E+00  1.0000000000E+00  1.0000000000E+00 Bohr
              amu      1.37327000E+02  6.94100000E+00  3.09737620E+01
             ecut      3.70000000E+01 Hartree
-          fftalg         512
           irdden           1
           irdwfk           1
           istwfk        1    1
              ixc     -116133
              kpt      0.00000000E+00  0.00000000E+00  0.00000000E+00
                       5.00000000E-01  0.00000000E+00  0.00000000E+00
           kptopt           0
P           mkmem           2
P          mkqmem           2
P          mk1mem           2
            natom           6
            nband          27
           nbdbuf           4
            ngfft          48      48      90
             nkpt           2
            nstep        1000
             nsym          24
           ntypat           3
              occ      2.000000  2.000000  2.000000  2.000000  2.000000  2.000000
                       2.000000  2.000000  2.000000  2.000000  2.000000  2.000000
                       2.000000  2.000000  2.000000  2.000000  2.000000  2.000000
                       0.000000  0.000000  0.000000  0.000000  0.000000  0.000000
                       0.000000  0.000000  0.000000
        optdriver           1
            prtwf          -1
            rfdir           1       1       1
           rfelfd           2
            rprim      8.4653425123E+00  0.0000000000E+00  0.0000000000E+00
                      -4.2326712562E+00  7.3312016674E+00  0.0000000000E+00
                       0.0000000000E+00  0.0000000000E+00  1.6189375475E+01
          spgroup         194
           symrel      1  0  0   0  1  0   0  0  1      -1  0  0   0 -1  0   0  0 -1
                       0  1  0   1  0  0   0  0  1       0 -1  0  -1  0  0   0  0 -1
                       1  1  0  -1  0  0   0  0  1      -1 -1  0   1  0  0   0  0 -1
                      -1  0  0   1  1  0   0  0  1       1  0  0  -1 -1  0   0  0 -1
                       0  1  0  -1 -1  0   0  0  1       0 -1  0   1  1  0   0  0 -1
                      -1 -1  0   0  1  0   0  0  1       1  1  0   0 -1  0   0  0 -1
                      -1  0  0   0 -1  0   0  0  1       1  0  0   0  1  0   0  0 -1
                       0 -1  0  -1  0  0   0  0  1       0  1  0   1  0  0   0  0 -1
                      -1 -1  0   1  0  0   0  0  1       1  1  0  -1  0  0   0  0 -1
                       1  0  0  -1 -1  0   0  0  1      -1  0  0   1  1  0   0  0 -1
                       0 -1  0   1  1  0   0  0  1       0  1  0  -1 -1  0   0  0 -1
                       1  1  0   0 -1  0   0  0  1      -1 -1  0   0  1  0   0  0 -1
            tnons      0.0000000  0.0000000  0.0000000     0.0000000  0.0000000 -0.0000000
                       0.0000000  0.0000000  0.5000000     0.0000000  0.0000000  0.5000000
                       0.0000000  0.0000000  0.5000000     0.0000000  0.0000000  0.5000000
                       0.0000000  0.0000000  0.0000000     0.0000000  0.0000000 -0.0000000
                       0.0000000  0.0000000  0.0000000     0.0000000  0.0000000 -0.0000000
                       0.0000000  0.0000000  0.5000000     0.0000000  0.0000000  0.5000000
                       0.0000000  0.0000000  0.5000000     0.0000000  0.0000000  0.5000000
                       0.0000000  0.0000000  0.0000000     0.0000000  0.0000000 -0.0000000
                       0.0000000  0.0000000  0.0000000     0.0000000  0.0000000 -0.0000000
                       0.0000000  0.0000000  0.5000000     0.0000000  0.0000000  0.5000000
                       0.0000000  0.0000000  0.5000000     0.0000000  0.0000000  0.5000000
                       0.0000000  0.0000000  0.0000000     0.0000000  0.0000000 -0.0000000
           tolwfr      1.00000000E-20
            typat      1  1  2  2  3  3
           useylm           1
              wtk        0.50000    0.50000
           xangst      0.0000000000E+00  0.0000000000E+00 -1.1889168154E-16
                       0.0000000000E+00  0.0000000000E+00  4.2835242613E+00
                      -1.7639006744E-11  2.5863365560E+00  6.4252863919E+00
                       2.2398331602E+00  1.2931682780E+00  2.1417621306E+00
                      -1.7639006744E-11  2.5863365560E+00  2.1417621306E+00
                       2.2398331602E+00  1.2931682780E+00  6.4252863919E+00
            xcart      0.0000000000E+00  0.0000000000E+00 -2.2467271758E-16
                       0.0000000000E+00  0.0000000000E+00  8.0946877374E+00
                      -3.3332892002E-11  4.8874677783E+00  1.2142031606E+01
                       4.2326712561E+00  2.4437338891E+00  4.0473438687E+00
                      -3.3332892002E-11  4.8874677783E+00  4.0473438687E+00
                       4.2326712561E+00  2.4437338891E+00  1.2142031606E+01
             xred      0.0000000000E+00  0.0000000000E+00 -1.3877787808E-17
                       0.0000000000E+00  0.0000000000E+00  5.0000000000E-01
                       3.3333333333E-01  6.6666666667E-01  7.5000000000E-01
                       6.6666666667E-01  3.3333333333E-01  2.5000000000E-01
                       3.3333333333E-01  6.6666666667E-01  2.5000000000E-01
                       6.6666666667E-01  3.3333333333E-01  7.5000000000E-01
            znucl       56.00000    3.00000   15.00000

 chkinp: Checking input parameters for consistency.

== DATASET  1 ==================================================================
-   mpi_nproc: 1, omp_nthreads: -1 (-1 if OMP is not activated)

--- !DatasetInfo
iteration_state: {dtset: 1, }
dimensions: {natom: 6, nkpt: 2, mband: 27, nsppol: 1, nspinor: 1, nspden: 1, mpw: 10784, }
cutoff_energies: {ecut:  37.0, pawecutdg:  -1.0, }
electrons: {nelect:   3.60000000E+01, charge:   0.00000000E+00, occopt:   1.00000000E+00, tsmear:   1.00000000E-02, }
meta: {optdriver: 1, rfelfd: 2, }
...

 Real(R)+Recip(G) space primitive vectors, cartesian coordinates (Bohr,Bohr^-1):
 R(1)=  8.4653425  0.0000000  0.0000000  G(1)=  0.1181287  0.0682016  0.0000000
 R(2)= -4.2326713  7.3312017  0.0000000  G(2)=  0.0000000  0.1364033  0.0000000
 R(3)=  0.0000000  0.0000000 16.1893755  G(3)=  0.0000000  0.0000000  0.0617689
 Unit cell volume ucvol=  1.0047310E+03 bohr^3
 Angles (23,13,12)=  9.00000000E+01  9.00000000E+01  1.20000000E+02 degrees

 getcut: wavevector=  0.0000  0.0000  0.0000  ngfft=  48  48  90
         ecut(hartree)=     37.000   => boxcut(ratio)=   2.03024

--- Pseudopotential description ------------------------------------------------
- pspini: atom type   1  psp file is /scratch/users/j/a/jabreu/pseudos/PBEsol/Ba.psp8
- pspatm: opening atomic psp file    /scratch/users/j/a/jabreu/pseudos/PBEsol/Ba.psp8
- Ba    ONCVPSP-3.3.0  r_core=   2.15444   1.91218   2.15444
- 56.00000  10.00000    180112                znucl, zion, pspdat
    8 -116133    2    4       600   0.00000   pspcod,pspxc,lmax,lloc,mmax,r2well
    5.99000000000000    5.00000000000000    0.00000000000000   rchrg,fchrg,qchrg
     nproj     2     2     2
     extension_switch     1
  pspatm : epsatm=   26.37418029
         --- l  ekb(1:nproj) -->
             0    6.652372    0.677024
             1    5.027722    0.408462
             2    2.543237    0.416854
 pspatm: atomic psp has been read  and splines computed

- pspini: atom type   2  psp file is /scratch/users/j/a/jabreu/pseudos/PBEsol/Li.psp8
- pspatm: opening atomic psp file    /scratch/users/j/a/jabreu/pseudos/PBEsol/Li.psp8
- Li    ONCVPSP-3.3.0  r_core=   1.40824   1.10935
-  3.00000   3.00000    180112                znucl, zion, pspdat
    8 -116133    1    4       400   0.00000   pspcod,pspxc,lmax,lloc,mmax,r2well
    3.99000000000000    0.00000000000000    0.00000000000000   rchrg,fchrg,qchrg
     nproj     2     2
     extension_switch     1
  pspatm : epsatm=    2.60859637
         --- l  ekb(1:nproj) -->
             0   -4.855856   -1.482423
             1   -2.171544   -0.427615
 pspatm: atomic psp has been read  and splines computed

- pspini: atom type   3  psp file is /scratch/users/j/a/jabreu/pseudos/PBEsol/P.psp8
- pspatm: opening atomic psp file    /scratch/users/j/a/jabreu/pseudos/PBEsol/P.psp8
- P     ONCVPSP-3.3.0  r_core=   1.46089   1.55067   1.70594
- 15.00000   5.00000    180112                znucl, zion, pspdat
    8 -116133    2    4       600   0.00000   pspcod,pspxc,lmax,lloc,mmax,r2well
    5.99000000000000    5.00000000000000    0.00000000000000   rchrg,fchrg,qchrg
     nproj     2     2     2
     extension_switch     1
  pspatm : epsatm=    7.31221086
         --- l  ekb(1:nproj) -->
             0    6.742364    1.063650
             1    3.449117    0.910422
             2   -3.077645   -0.799176
 pspatm: atomic psp has been read  and splines computed

   2.61323910E+03                                ecore*ucvol(ha*bohr**3)

-inwffil : will read wavefunctions from disk file /scratch/users/j/a/jabreu/flow_simple_6atoms/flow/w172/t1/indata/in_WFK

 ==>  initialize data related to q vector <==

 The list of irreducible perturbations for this q vector is:
    1)    idir= 1    ipert=   7
    2)    idir= 2    ipert=   7
    3)    idir= 3    ipert=   7

 Perturbation wavevector (in red.coord.)   0.000000  0.000000  0.000000
 Perturbation : derivative vs k along direction   1

 dfpt_looppert : COMMENT -
  In a d/dk calculation, iscf is set to -3 automatically.
 The set of symmetries contains only one element for this perturbation.
 symkpt : not enough symmetry to change the number of k points.

[...]

 Initialisation of the first-order wave-functions :
  ireadwf=   0

--- !BeginCycle
iteration_state: {dtset: 1, }
solver: {iscf: 7, nstep: 1000, nline: 4, wfoptalg: 0, }
tolerances: {tolwfr: 1.00E-20, }
...

     iter   2DEtotal(Ha)        deltaE(Ha) residm    vres2
-ETOT  1  -33.968410198665     -3.397E+01 5.707E-02 0.000E+00
 ETOT  2  -33.978711865925     -1.030E-02 8.978E-04 0.000E+00
 ETOT  3  -33.978730193866     -1.833E-05 1.461E-05 0.000E+00
 ETOT  4  -33.978730252902     -5.904E-08 7.214E-07 0.000E+00
 ETOT  5  -33.978730253136     -2.334E-10 4.492E-08 0.000E+00
 ETOT  6  -33.978730253137     -1.044E-12 1.589E-09 0.000E+00
 ETOT  7  -33.978730253137     -7.105E-15 9.551E-11 0.000E+00
 ETOT  8  -33.978730253137      4.263E-14 3.374E-12 0.000E+00
 ETOT  9  -33.978730253137      7.105E-15 2.226E-13 0.000E+00
 ETOT 10  -33.978730253137      7.105E-15 8.426E-15 0.000E+00
 ETOT 11  -33.978730253137      7.105E-15 7.324E-16 0.000E+00
 ETOT 12  -33.978730253137      0.000E+00 2.566E-17 0.000E+00
 ETOT 13  -33.978730253137      0.000E+00 2.261E-18 0.000E+00
 ETOT 14  -33.978730253137      0.000E+00 8.044E-20 0.000E+00
 ETOT 15  -33.978730253137     -7.105E-15 9.760E-21 0.000E+00

 At SCF step   15   max residual=  9.76E-21 < tolwfr=  1.00E-20 =>converged.

 ----iterations are completed or convergence reached----

 dfpt_looppert: DFPT cycle converged with prtwf=-1. Will skip output of the 1st-order WFK file.
 dfpt_looppert : ek2=    5.2886143684E+01
          f-sum rule ratio=    1.2322354409E+00
 prteigrs : about to open file /scratch/users/j/a/jabreu/flow_simple_6atoms/flow/w172/t1/tmpdata/tmp_1WF1_EIG
 Expectation of eigenvalue derivatives (hartree) for nkpt=   2  k points:
  (in case of degenerate eigenvalues, averaged derivative)
 kpt#   1, nband= 27, wtk=  0.50000, kpt=  0.0000  0.0000  0.0000 (reduced coord)
  -0.00000   -0.00000   -0.00000   -0.00000   -0.00000    0.00000    0.00000   -0.00000
  -0.00000   -0.00000   -0.00000    0.00000    0.00000   -0.00000   -0.00000   -0.00000
  -0.00000    0.00000   -0.00000    0.00000    0.00000    0.00000   -0.00000   -0.00000
   0.00000   -0.00000    0.00411
 prteigrs : prtvol=0 or 1, do not print more k-points.

 Eight components of 2nd-order total energy (hartree) are
 1,2,3: 0th-order hamiltonian combined with 1st-order wavefunctions
     kin0=   3.09687845E+01 eigvalue=   3.94519042E-01  local=  -1.95321225E+01
 4,5,6: 1st-order hamiltonian combined with 1st and 0th-order wfs
     kin1=  -6.51681806E+01  Hartree=   0.00000000E+00     xc=   0.00000000E+00
 7,8,9: eventually, occupation + non-local contributions
    edocc=   1.71799798E+01     enl0=   4.96756948E+00   enl1=  -2.78927993E+00
 1-9 gives the relaxation energy (to be shifted if some occ is /=2.0)
   erelax=  -3.39787303E+01
  No Ewald or frozen-wf contrib.: the relaxation energy is the total one
 2DEtotal=   -0.3397873025E+02 Ha. Also 2DEtotal=   -0.924608271993E+03 eV
    (  non-var. 2DEtotal :   -3.3978730253E+01 Ha)

 Perturbation wavevector (in red.coord.)   0.000000  0.000000  0.000000
 Perturbation : derivative vs k along direction   2
 The set of symmetries contains only one element for this perturbation.
 symkpt : not enough symmetry to change the number of k points.

[...]

 Perturbation wavevector (in red.coord.)   0.000000  0.000000  0.000000
 Perturbation : derivative vs k along direction   3
 The set of symmetries contains only one element for this perturbation.
 symkpt : not enough symmetry to change the number of k points.

-inwffil : will read wavefunctions from disk file /scratch/users/j/a/jabreu/flow_simple_6atoms/flow/w172/t1/indata/in_WFK

 Initialisation of the first-order wave-functions :
  ireadwf=   0

--- !BeginCycle
iteration_state: {dtset: 1, }
solver: {iscf: 7, nstep: 1000, nline: 4, wfoptalg: 0, }
tolerances: {tolwfr: 1.00E-20, }
...

     iter   2DEtotal(Ha)        deltaE(Ha) residm    vres2
-ETOT  1  -7.4903188722778     -7.490E+00 1.530E-02 0.000E+00
 ETOT  2  -7.4919364049733     -1.618E-03 3.006E-04 0.000E+00
 ETOT  3  -7.4919381853272     -1.780E-06 3.620E-06 0.000E+00
 ETOT  4  -7.4919381894807     -4.153E-09 1.692E-07 0.000E+00
 ETOT  5  -7.4919381894930     -1.233E-11 2.843E-09 0.000E+00
 ETOT  6  -7.4919381894930     -3.730E-14 1.840E-10 0.000E+00
 ETOT  7  -7.4919381894930      8.882E-15 3.617E-12 0.000E+00
 ETOT  8  -7.4919381894930     -8.882E-16 2.166E-13 0.000E+00
 ETOT  9  -7.4919381894930      4.441E-15 1.223E-14 0.000E+00
 ETOT 10  -7.4919381894930      0.000E+00 5.177E-16 0.000E+00
 ETOT 11  -7.4919381894930      1.776E-15 2.639E-17 0.000E+00
 ETOT 12  -7.4919381894930     -1.776E-15 1.180E-18 0.000E+00
 ETOT 13  -7.4919381894930      1.776E-15 5.812E-20 0.000E+00
 ETOT 14  -7.4919381894930     -1.776E-15 9.151E-21 0.000E+00

 At SCF step   14   max residual=  9.15E-21 < tolwfr=  1.00E-20 =>converged.

 ----iterations are completed or convergence reached----

 dfpt_looppert: DFPT cycle converged with prtwf=-1. Will skip output of the 1st-order WFK file.
 dfpt_looppert : ek2=    1.0845062068E+01
          f-sum rule ratio=    1.3343477090E+00
 prteigrs : about to open file /scratch/users/j/a/jabreu/flow_simple_6atoms/flow/w172/t1/tmpdata/tmp_1WF1_EIG
 Expectation of eigenvalue derivatives (hartree) for nkpt=   2  k points:
  (in case of degenerate eigenvalues, averaged derivative)
 kpt#   1, nband= 27, wtk=  0.50000, kpt=  0.0000  0.0000  0.0000 (reduced coord)
  -0.00000    0.00000   -0.00000   -0.00000   -0.00000    0.00000    0.00000    0.00000
   0.00000    0.00000   -0.00000   -0.00000    0.00000    0.00000    0.00000    0.00000
   0.00000   -0.00000   -0.00000   -0.00000   -0.00000   -0.00000    0.00000    0.00000
   0.00000   -0.00000    0.03896
 prteigrs : prtvol=0 or 1, do not print more k-points.

 Eight components of 2nd-order total energy (hartree) are
 1,2,3: 0th-order hamiltonian combined with 1st-order wavefunctions
     kin0=   4.87796266E+00 eigvalue=   3.98746044E-01  local=  -3.00952009E+00
 4,5,6: 1st-order hamiltonian combined with 1st and 0th-order wfs
     kin1=  -1.44710837E+01  Hartree=   0.00000000E+00     xc=   0.00000000E+00
 7,8,9: eventually, occupation + non-local contributions
    edocc=   4.48335322E+00     enl0=   7.41396360E-01   enl1=  -5.12792654E-01
 1-9 gives the relaxation energy (to be shifted if some occ is /=2.0)
   erelax=  -7.49193819E+00
  No Ewald or frozen-wf contrib.: the relaxation energy is the total one
 2DEtotal=   -0.7491938189E+01 Ha. Also 2DEtotal=   -0.203866005930E+03 eV
    (  non-var. 2DEtotal :   -7.4919381894E+00 Ha)

 CALCULATION OF EFFECTIVE MASSES
 NOTE : Additional infos (eff. mass eigenvalues, eigenvectors and, if degenerate, average mass) are available in stdout.

 K-point ( 0.000, 0.000, 0.000) | band =    18
 Effective mass tensor:
             -0.6036828296             -0.0000368002             -0.0000092771
             -0.0000368002             -0.6035202749              0.0000009253
             -0.0000092771              0.0000009253             -0.0960712171
 Effective mass tensor eigenvalues:
             -0.6036907728             -0.6035123319             -0.0960712170
 Angular average effective mass 1/(<1/m>)=  -0.2186208242
 Angular average effective mass for Frohlich model (<m**0.5>)**2=  -0.2815089331
 Effective masses along directions: (cart. coord. / red. coord. -> eff. mass)
    1:   1.000000  0.000000  0.000000 /   0.894427 -0.447214  0.000000 ->  -0.6036828265
    2:   0.000000  1.000000  0.000000 /   0.000000  1.000000  0.000000 ->  -0.6035202726
    3:   0.000000  0.000000  1.000000 /   0.000000  0.000000  1.000000 ->  -0.0960712170
    4:   0.577350  0.577350  0.577350 /   0.456847  0.167217  0.873687 ->  -0.2186286310
    5:   0.000000  0.707107  0.707107 /   0.000000  0.412515  0.910951 ->  -0.1657560861
    6:   0.707107  0.000000  0.707107 /   0.451414 -0.225707  0.863297 ->  -0.1657670497
    7:   0.707107  0.707107  0.000000 /   0.939071  0.343724  0.000000 ->  -0.6036383412

 K-point ( 0.500, 0.000, 0.000) | band =    19
 Effective mass tensor:
              0.8210063626              0.3696653714             -0.0000092746
              0.3696653714              0.3941448731             -0.0000053543
             -0.0000092746             -0.0000053543              0.6999138138
 Effective mass tensor eigenvalues:
              0.1807206429              0.6999138134              1.0344305931
 Angular average effective mass 1/(<1/m>)=   0.3783643716
 Angular average effective mass for Frohlich model (<m**0.5>)**2=   0.4540607671
 Effective masses along directions: (cart. coord. / red. coord. -> eff. mass)
    1:   1.000000  0.000000  0.000000 /   0.894427 -0.447214  0.000000 ->   0.4743001230
    2:   0.000000  1.000000  0.000000 /   0.000000  1.000000  0.000000 ->   0.2276997723
    3:   0.000000  0.000000  1.000000 /   0.000000  0.000000  1.000000 ->   0.6999138137
    4:   0.577350  0.577350  0.577350 /   0.456847  0.167217  0.873687 ->   0.7548957412
    5:   0.000000  0.707107  0.707107 /   0.000000  0.412515  0.910951 ->   0.3436124988
    6:   0.707107  0.000000  0.707107 /   0.451414 -0.225707  0.863297 ->   0.5654281437
    7:   0.707107  0.707107  0.000000 /   0.939071  0.343724  0.000000 ->   0.7857709559

 END OF EFFECTIVE MASSES SECTION

 ---- first-order wavefunction calculations are completed ----

 Total localisation tensor (bohr^2) in cartesian coordinates
  WARNING : still subject to testing - especially symmetries.
      direction              matrix element
   alpha     beta       real part   imaginary part
     1        1       5.2837157894    0.0000000000
     1        2      -2.1553807029    0.0000000000
     1        3       0.0000000000    0.0000000000
     2        1      -2.1553807029    0.0000000000
     2        2       3.7332288870    0.0000000000
     2        3       0.0000000000    0.0000000000
     3        1       0.0000000000    0.0000000000
     3        2       0.0000000000    0.0000000000
     3        3       5.9460353310    0.0000000000

 respfn : d/dk was computed, but no 2DTE, so no DDB output.

== END DATASET(S) ==============================================================

 -outvars: echo values of variables after computation  --------
            acell      1.0000000000E+00  1.0000000000E+00  1.0000000000E+00 Bohr
              amu      1.37327000E+02  6.94100000E+00  3.09737620E+01
             ecut      3.70000000E+01 Hartree
           etotal     -7.4919381895E+00
            fcart      0.0000000000E+00  0.0000000000E+00  0.0000000000E+00
                       0.0000000000E+00  0.0000000000E+00  0.0000000000E+00
                       0.0000000000E+00  0.0000000000E+00  0.0000000000E+00
                       0.0000000000E+00  0.0000000000E+00  0.0000000000E+00
                       0.0000000000E+00  0.0000000000E+00  0.0000000000E+00
                       0.0000000000E+00  0.0000000000E+00  0.0000000000E+00
-          fftalg         512
           irdden           1
           irdwfk           1
           istwfk        1    1
              ixc     -116133
              kpt      0.00000000E+00  0.00000000E+00  0.00000000E+00
                       5.00000000E-01  0.00000000E+00  0.00000000E+00
           kptopt           0
P           mkmem           2
P          mkqmem           2
P          mk1mem           2
            natom           6
            nband          27
           nbdbuf           4
            ngfft          48      48      90
             nkpt           2
            nstep        1000
             nsym          24
           ntypat           3
              occ      2.000000  2.000000  2.000000  2.000000  2.000000  2.000000
                       2.000000  2.000000  2.000000  2.000000  2.000000  2.000000
                       2.000000  2.000000  2.000000  2.000000  2.000000  2.000000
                       0.000000  0.000000  0.000000  0.000000  0.000000  0.000000
                       0.000000  0.000000  0.000000
        optdriver           1
            prtwf          -1
            rfdir           1       1       1
           rfelfd           2
            rprim      8.4653425123E+00  0.0000000000E+00  0.0000000000E+00
                      -4.2326712562E+00  7.3312016674E+00  0.0000000000E+00
                       0.0000000000E+00  0.0000000000E+00  1.6189375475E+01
          spgroup         194
           strten      0.0000000000E+00  0.0000000000E+00  0.0000000000E+00
                       0.0000000000E+00  0.0000000000E+00  0.0000000000E+00
           symrel      1  0  0   0  1  0   0  0  1      -1  0  0   0 -1  0   0  0 -1
                       0  1  0   1  0  0   0  0  1       0 -1  0  -1  0  0   0  0 -1
                       1  1  0  -1  0  0   0  0  1      -1 -1  0   1  0  0   0  0 -1
                      -1  0  0   1  1  0   0  0  1       1  0  0  -1 -1  0   0  0 -1
                       0  1  0  -1 -1  0   0  0  1       0 -1  0   1  1  0   0  0 -1
                      -1 -1  0   0  1  0   0  0  1       1  1  0   0 -1  0   0  0 -1
                      -1  0  0   0 -1  0   0  0  1       1  0  0   0  1  0   0  0 -1
                       0 -1  0  -1  0  0   0  0  1       0  1  0   1  0  0   0  0 -1
                      -1 -1  0   1  0  0   0  0  1       1  1  0  -1  0  0   0  0 -1
                       1  0  0  -1 -1  0   0  0  1      -1  0  0   1  1  0   0  0 -1
                       0 -1  0   1  1  0   0  0  1       0  1  0  -1 -1  0   0  0 -1
                       1  1  0   0 -1  0   0  0  1      -1 -1  0   0  1  0   0  0 -1
            tnons      0.0000000  0.0000000  0.0000000     0.0000000  0.0000000 -0.0000000
                       0.0000000  0.0000000  0.5000000     0.0000000  0.0000000  0.5000000
                       0.0000000  0.0000000  0.5000000     0.0000000  0.0000000  0.5000000
                       0.0000000  0.0000000  0.0000000     0.0000000  0.0000000 -0.0000000
                       0.0000000  0.0000000  0.0000000     0.0000000  0.0000000 -0.0000000
                       0.0000000  0.0000000  0.5000000     0.0000000  0.0000000  0.5000000
                       0.0000000  0.0000000  0.5000000     0.0000000  0.0000000  0.5000000
                       0.0000000  0.0000000  0.0000000     0.0000000  0.0000000 -0.0000000
                       0.0000000  0.0000000  0.0000000     0.0000000  0.0000000 -0.0000000
                       0.0000000  0.0000000  0.5000000     0.0000000  0.0000000  0.5000000
                       0.0000000  0.0000000  0.5000000     0.0000000  0.0000000  0.5000000
                       0.0000000  0.0000000  0.0000000     0.0000000  0.0000000 -0.0000000
           tolwfr      1.00000000E-20
            typat      1  1  2  2  3  3
           useylm           1
              wtk        0.50000    0.50000
           xangst      0.0000000000E+00  0.0000000000E+00 -1.1889168154E-16
                       0.0000000000E+00  0.0000000000E+00  4.2835242613E+00
                      -1.7639006744E-11  2.5863365560E+00  6.4252863919E+00
                       2.2398331602E+00  1.2931682780E+00  2.1417621306E+00
                      -1.7639006744E-11  2.5863365560E+00  2.1417621306E+00
                       2.2398331602E+00  1.2931682780E+00  6.4252863919E+00
            xcart      0.0000000000E+00  0.0000000000E+00 -2.2467271758E-16
                       0.0000000000E+00  0.0000000000E+00  8.0946877374E+00
                      -3.3332892002E-11  4.8874677783E+00  1.2142031606E+01
                       4.2326712561E+00  2.4437338891E+00  4.0473438687E+00
                      -3.3332892002E-11  4.8874677783E+00  4.0473438687E+00
                       4.2326712561E+00  2.4437338891E+00  1.2142031606E+01
             xred      0.0000000000E+00  0.0000000000E+00 -1.3877787808E-17
                       0.0000000000E+00  0.0000000000E+00  5.0000000000E-01
                       3.3333333333E-01  6.6666666667E-01  7.5000000000E-01
                       6.6666666667E-01  3.3333333333E-01  2.5000000000E-01
                       3.3333333333E-01  6.6666666667E-01  2.5000000000E-01
                       6.6666666667E-01  3.3333333333E-01  7.5000000000E-01
            znucl       56.00000    3.00000   15.00000

- Timing analysis has been suppressed with timopt=0

 Suggested references for the acknowledgment of ABINIT usage.

 Calculation completed.
.Delivered  14 WARNINGs and   9 COMMENTs to log file.