.Version 9.5.2 of ABINIT

 ABINIT is a project of the Universite Catholique de Louvain,
 Corning Inc. and other collaborators, see ~abinit/doc/developers/contributors.txt .
 acknowledgments of the ABINIT effort.

.Starting date : Wed 26 May 2021.
- ( at 03h27 )

- input  file    -> /scratch/users/j/a/jabreu/flow_simple_11atoms/flow/w294/t1/run.abi
- output file    -> /scratch/users/j/a/jabreu/flow_simple_11atoms/flow/w294/t1/run.abo
- root for input  files -> /scratch/users/j/a/jabreu/flow_simple_11atoms/flow/w294/t1/indata/in
- root for output files -> /scratch/users/j/a/jabreu/flow_simple_11atoms/flow/w294/t1/outdata/out

 Symmetries : space group Pn m a (# 62); Bravais oP (primitive ortho.)
     intxc =       0      iscf =       7    lmnmax =      18     lnmax =       6
     mgfft =     100  mpssoang =       3    mqgrid =    4931     natom =      12
  nloc_mem =       1    nspden =       1   nspinor =       1    nsppol =       1
      nsym =       8    n1xccc =    2501    ntypat =       3    occopt =       1
   xclevel =       2
-    mband =          77        mffmem =           1         mkmem =           2
-   mkqmem =           2        mk1mem =           2           mpw =       30089
      nfft =      486000          nkpt =           2
  Rough estimation (10% accuracy) of disk space for files :

------------- Echo of variables that govern the present computation ------------
-
- outvars: echo of selected default values
-   iomode0 =  0 , fftalg0 =512 , wfoptalg0 =  0
-
- outvars: echo of global parameters not present in the input file
-  max_nthreads =    0
-
 -outvars: echo values of preprocessed input variables --------
            acell      1.0000000000E+00  1.0000000000E+00  1.0000000000E+00 Bohr
              amu      8.76200000E+01  4.00780000E+01  7.26100000E+01
             ecut      4.10000000E+01 Hartree
-          fftalg         512
           irdden           1
           irdwfk           1
              ixc     -116133
              kpt      2.50000000E-02  0.00000000E+00  0.00000000E+00
                       0.00000000E+00  4.16666667E-02  0.00000000E+00
           kptopt           0
P           mkmem           2
P          mkqmem           2
P          mk1mem           2
            natom          12
            nband          77
           nbdbuf           4
            ngfft          54      90     100
             nkpt           2
            nstep        2000
             nsym           8
           ntypat           3
              occ      2.000000  2.000000  2.000000  2.000000  2.000000  2.000000
                       2.000000  2.000000  2.000000  2.000000  2.000000  2.000000
                       2.000000  2.000000  2.000000  2.000000  2.000000  2.000000
                       2.000000  2.000000  2.000000  2.000000  2.000000  2.000000
                       2.000000  2.000000  2.000000  2.000000  2.000000  2.000000
                       2.000000  2.000000  2.000000  2.000000  2.000000  2.000000
                       2.000000  2.000000  2.000000  2.000000  2.000000  2.000000
                       2.000000  2.000000  2.000000  2.000000  2.000000  2.000000
                       2.000000  2.000000  2.000000  2.000000  2.000000  2.000000
                       2.000000  2.000000  2.000000  2.000000  2.000000  2.000000
                       2.000000  2.000000  2.000000  2.000000  2.000000  2.000000
                       2.000000  2.000000  0.000000  0.000000  0.000000  0.000000
                       0.000000  0.000000  0.000000  0.000000  0.000000
        optdriver           1
            prtwf          -1
            rfdir           1       1       1
           rfelfd           2
            rprim      9.2609462181E+00  0.0000000000E+00  0.0000000000E+00
                       0.0000000000E+00  1.5141808859E+01  0.0000000000E+00
                       0.0000000000E+00  0.0000000000E+00  1.7104095535E+01
          spgroup          62
           symrel      1  0  0   0  1  0   0  0  1      -1  0  0   0 -1  0   0  0 -1
                      -1  0  0   0  1  0   0  0 -1       1  0  0   0 -1  0   0  0  1
                      -1  0  0   0 -1  0   0  0  1       1  0  0   0  1  0   0  0 -1
                       1  0  0   0 -1  0   0  0 -1      -1  0  0   0  1  0   0  0  1
            tnons      0.0000000  0.0000000  0.0000000    -0.0000000 -0.0000000 -0.0000000
                       0.5000000  0.5000000  0.5000000     0.5000000  0.5000000  0.5000000
                      -0.0000000  0.5000000  0.5000000     0.0000000  0.5000000  0.5000000
                       0.5000000 -0.0000000 -0.0000000     0.5000000  0.0000000  0.0000000
           tolwfr      1.00000000E-20
            typat      1  1  1  1  2  2  2  2  3  3  3  3
           useylm           1
              wtk        0.50000    0.50000
           xangst      1.2251704171E+00  4.1779740969E+00  7.4266789545E+00
                       1.2251704171E+00  1.7162402440E-01  6.1499673412E+00
                       3.6755112514E+00  7.8410761206E+00  2.9011301892E+00
                       3.6755112514E+00  3.8347260481E+00  1.6244185760E+00
                       3.6755112514E+00  6.8228382115E+00  8.3791531009E+00
                       1.2251704171E+00  1.1898619334E+00  6.7194442956E-01
                       3.6755112514E+00  2.8164881391E+00  5.1974931948E+00
                       1.2251704171E+00  5.1962120059E+00  3.8536043357E+00
                       3.6755112514E+00  1.8676161752E+00  8.0943603171E+00
                       1.2251704171E+00  2.1387338973E+00  3.5688115519E+00
                       1.2251704171E+00  6.1450839698E+00  9.5673721336E-01
                       3.6755112514E+00  5.8739662477E+00  5.4822859786E+00
            xcart      2.3152365545E+00  7.8952268334E+00  1.4034389301E+01
                       2.3152365545E+00  3.2432240395E-01  1.1621754001E+01
                       6.9457096636E+00  1.4817486455E+01  5.4823415335E+00
                       6.9457096636E+00  7.2465820255E+00  3.0697062338E+00
                       6.9457096636E+00  1.2893295669E+01  1.5834304586E+01
                       2.3152365545E+00  2.2485131901E+00  1.2697909484E+00
                       6.9457096636E+00  5.3223912393E+00  9.8218387157E+00
                       2.3152365545E+00  9.8194176196E+00  7.2822568189E+00
                       6.9457096636E+00  3.5292830925E+00  1.5296124220E+01
                       2.3152365545E+00  4.0416213370E+00  6.7440764529E+00
                       2.3152365545E+00  1.1612525766E+01  1.8079713144E+00
                       6.9457096636E+00  1.1100187522E+01  1.0360019082E+01
             xred      2.5000000000E-01  5.2141900000E-01  8.2052800000E-01
                       2.5000000000E-01  2.1419000000E-02  6.7947200000E-01
                       7.5000000000E-01  9.7858100000E-01  3.2052800000E-01
                       7.5000000000E-01  4.7858100000E-01  1.7947200000E-01
                       7.5000000000E-01  8.5150300000E-01  9.2576100000E-01
                       2.5000000000E-01  1.4849700000E-01  7.4239000000E-02
                       7.5000000000E-01  3.5150300000E-01  5.7423900000E-01
                       2.5000000000E-01  6.4849700000E-01  4.2576100000E-01
                       7.5000000000E-01  2.3308200000E-01  8.9429600000E-01
                       2.5000000000E-01  2.6691800000E-01  3.9429600000E-01
                       2.5000000000E-01  7.6691800000E-01  1.0570400000E-01
                       7.5000000000E-01  7.3308200000E-01  6.0570400000E-01
            znucl       38.00000   20.00000   32.00000

 chkinp: Checking input parameters for consistency.

== DATASET  1 ==================================================================
-   mpi_nproc: 1, omp_nthreads: -1 (-1 if OMP is not activated)

--- !DatasetInfo
iteration_state: {dtset: 1, }
dimensions: {natom: 12, nkpt: 2, mband: 77, nsppol: 1, nspinor: 1, nspden: 1, mpw: 30089, }
cutoff_energies: {ecut:  41.0, pawecutdg:  -1.0, }
electrons: {nelect:   1.36000000E+02, charge:   0.00000000E+00, occopt:   1.00000000E+00, tsmear:   1.00000000E-02, }
meta: {optdriver: 1, rfelfd: 2, }
...

 Real(R)+Recip(G) space primitive vectors, cartesian coordinates (Bohr,Bohr^-1):
 R(1)=  9.2609462  0.0000000  0.0000000  G(1)=  0.1079803  0.0000000  0.0000000
 R(2)=  0.0000000 15.1418089  0.0000000  G(2)=  0.0000000  0.0660423  0.0000000
 R(3)=  0.0000000  0.0000000 17.1040955  G(3)=  0.0000000  0.0000000  0.0584655
 Unit cell volume ucvol=  2.3984642E+03 bohr^3
 Angles (23,13,12)=  9.00000000E+01  9.00000000E+01  9.00000000E+01 degrees

 getcut: wavevector=  0.0000  0.0000  0.0000  ngfft=  54  90 100
         ecut(hartree)=     41.000   => boxcut(ratio)=   2.02293

--- Pseudopotential description ------------------------------------------------
- pspini: atom type   1  psp file is /scratch/users/j/a/jabreu/pseudos/PBEsol/Sr.psp8
- pspatm: opening atomic psp file    /scratch/users/j/a/jabreu/pseudos/PBEsol/Sr.psp8
- Sr    ONCVPSP-3.3.0  r_core=   1.66721   1.31335   1.51547
- 38.00000  10.00000    180112                znucl, zion, pspdat
    8 -116133    2    4       600   0.00000   pspcod,pspxc,lmax,lloc,mmax,r2well
    5.99000000000000    6.00000000000000    0.00000000000000   rchrg,fchrg,qchrg
     nproj     2     2     2
     extension_switch     1
  pspatm : epsatm=   12.46450977
         --- l  ekb(1:nproj) -->
             0   10.029206    1.044171
             1    7.472414    1.670829
             2    4.142950    0.968140
 pspatm: atomic psp has been read  and splines computed

- pspini: atom type   2  psp file is /scratch/users/j/a/jabreu/pseudos/PBEsol/Ca.psp8
- pspatm: opening atomic psp file    /scratch/users/j/a/jabreu/pseudos/PBEsol/Ca.psp8
- Ca    ONCVPSP-3.3.0  r_core=   1.45885   1.45885   1.85192
- 20.00000  10.00000    180112                znucl, zion, pspdat
    8 -116133    2    4       400   0.00000   pspcod,pspxc,lmax,lloc,mmax,r2well
    3.99000000000000    6.00000000000000    0.00000000000000   rchrg,fchrg,qchrg
     nproj     2     2     2
     extension_switch     1
  pspatm : epsatm=   12.46045226
         --- l  ekb(1:nproj) -->
             0   10.054847    0.973777
             1    2.998958    0.458102
             2   -3.447298   -1.091650
 pspatm: atomic psp has been read  and splines computed

- pspini: atom type   3  psp file is /scratch/users/j/a/jabreu/pseudos/PBEsol/Ge.psp8
- pspatm: opening atomic psp file    /scratch/users/j/a/jabreu/pseudos/PBEsol/Ge.psp8
- Ge    ONCVPSP-3.3.0  r_core=   1.91022   1.82122   1.91022
- 32.00000  14.00000    180112                znucl, zion, pspdat
    8 -116133    2    4       600   0.00000   pspcod,pspxc,lmax,lloc,mmax,r2well
    5.99000000000000    5.00000000000000    0.00000000000000   rchrg,fchrg,qchrg
     nproj     2     2     2
     extension_switch     1
  pspatm : epsatm=   30.86751540
         --- l  ekb(1:nproj) -->
             0    6.339734    0.583066
             1    3.813259    0.738801
             2   -9.332373   -3.602819
 pspatm: atomic psp has been read  and splines computed

   3.03511077E+04                                ecore*ucvol(ha*bohr**3)

[...]

 Perturbation wavevector (in red.coord.)   0.000000  0.000000  0.000000
 Perturbation : derivative vs k along direction   2
 The set of symmetries contains only one element for this perturbation.
 symkpt : not enough symmetry to change the number of k points.

[...]

 Perturbation wavevector (in red.coord.)   0.000000  0.000000  0.000000
 Perturbation : derivative vs k along direction   3
 The set of symmetries contains only one element for this perturbation.
 symkpt : not enough symmetry to change the number of k points.

 Initialisation of the first-order wave-functions :
  ireadwf=   0

--- !BeginCycle
iteration_state: {dtset: 1, }
solver: {iscf: 7, nstep: 2000, nline: 4, wfoptalg: 0, }
tolerances: {tolwfr: 1.00E-20, }
...

     iter   2DEtotal(Ha)        deltaE(Ha) residm    vres2
-ETOT  1  -31.332944038193     -3.133E+01 3.122E-02 0.000E+00
 ETOT  2  -31.435737337296     -1.028E-01 5.444E-03 0.000E+00
 ETOT  3  -31.441656725749     -5.919E-03 9.148E-04 0.000E+00
 ETOT  4  -31.442316459576     -6.597E-04 2.387E-04 0.000E+00
 ETOT  5  -31.442406219455     -8.976E-05 6.435E-05 0.000E+00
 ETOT  6  -31.442419590542     -1.337E-05 2.095E-05 0.000E+00
 ETOT  7  -31.442421710438     -2.120E-06 5.735E-06 0.000E+00
 ETOT  8  -31.442422061514     -3.511E-07 2.271E-06 0.000E+00
 ETOT  9  -31.442422121663     -6.015E-08 6.651E-07 0.000E+00
 ETOT 10  -31.442422132262     -1.060E-08 2.963E-07 0.000E+00
 ETOT 11  -31.442422134172     -1.910E-09 9.054E-08 0.000E+00
 ETOT 12  -31.442422134523     -3.509E-10 4.350E-08 0.000E+00
 ETOT 13  -31.442422134589     -6.556E-11 1.349E-08 0.000E+00
 ETOT 14  -31.442422134601     -1.238E-11 6.731E-09 0.000E+00
 ETOT 15  -31.442422134603     -2.387E-12 2.087E-09 0.000E+00
 ETOT 16  -31.442422134604     -4.441E-13 1.062E-09 0.000E+00
 ETOT 17  -31.442422134604     -7.461E-14 3.282E-10 0.000E+00
 ETOT 18  -31.442422134604     -3.553E-14 1.686E-10 0.000E+00
 ETOT 19  -31.442422134604      7.105E-15 5.197E-11 0.000E+00
 ETOT 20  -31.442422134604      4.974E-14 2.684E-11 0.000E+00
 ETOT 21  -31.442422134604     -4.974E-14 8.258E-12 0.000E+00
 ETOT 22  -31.442422134604      2.842E-14 4.277E-12 0.000E+00
 ETOT 23  -31.442422134604      0.000E+00 1.315E-12 0.000E+00
 ETOT 24  -31.442422134604     -1.776E-14 6.820E-13 0.000E+00
 ETOT 25  -31.442422134604      3.553E-15 2.095E-13 0.000E+00
 ETOT 26  -31.442422134604      7.105E-15 1.088E-13 0.000E+00
 ETOT 27  -31.442422134604     -7.105E-15 3.342E-14 0.000E+00
 ETOT 28  -31.442422134604      0.000E+00 1.736E-14 0.000E+00
 ETOT 29  -31.442422134604     -7.105E-15 5.332E-15 0.000E+00
 ETOT 30  -31.442422134604     -7.105E-15 2.770E-15 0.000E+00
 ETOT 31  -31.442422134604      7.105E-15 8.512E-16 0.000E+00
 ETOT 32  -31.442422134604      1.421E-14 4.422E-16 0.000E+00
 ETOT 33  -31.442422134604     -7.105E-15 1.359E-16 0.000E+00
 ETOT 34  -31.442422134604     -1.421E-14 7.061E-17 0.000E+00
 ETOT 35  -31.442422134604      7.105E-15 2.171E-17 0.000E+00
 ETOT 36  -31.442422134604      0.000E+00 1.128E-17 0.000E+00
 ETOT 37  -31.442422134604      1.421E-14 3.467E-18 0.000E+00
 ETOT 38  -31.442422134604      0.000E+00 1.801E-18 0.000E+00
 ETOT 39  -31.442422134604     -1.066E-14 5.540E-19 0.000E+00
 ETOT 40  -31.442422134604      7.105E-15 2.878E-19 0.000E+00
 ETOT 41  -31.442422134604      3.553E-15 8.853E-20 0.000E+00
 ETOT 42  -31.442422134604     -1.421E-14 4.599E-20 0.000E+00
 ETOT 43  -31.442422134604      1.421E-14 1.415E-20 0.000E+00
 ETOT 44  -31.442422134604     -1.066E-14 9.975E-21 0.000E+00

 At SCF step   44   max residual=  9.97E-21 < tolwfr=  1.00E-20 =>converged.

 ----iterations are completed or convergence reached----

 dfpt_looppert: DFPT cycle converged with prtwf=-1. Will skip output of the 1st-order WFK file.
 dfpt_looppert : ek2=    3.6705269195E+01
          f-sum rule ratio=    1.0783617292E+00
 prteigrs : about to open file /scratch/users/j/a/jabreu/flow_simple_11atoms/flow/w294/t1/tmpdata/tmp_1WF1_EIG
 Expectation of eigenvalue derivatives (hartree) for nkpt=   2  k points:
  (in case of degenerate eigenvalues, averaged derivative)
 kpt#   1, nband= 77, wtk=  0.50000, kpt=  0.0250  0.0000  0.0000 (reduced coord)
   0.00000   -0.00000   -0.00000    0.00000   -0.00000   -0.00000    0.00000    0.00000
  -0.00000    0.00000   -0.00000    0.00000   -0.00000    0.00000   -0.00000   -0.00000
   0.00000   -0.00000    0.00000    0.00000   -0.00000   -0.00000    0.00000   -0.00000
   0.00000    0.00000    0.00000   -0.00000    0.00000    0.00000   -0.00000    0.00000
   0.00000    0.00000    0.00000    0.00000   -0.00000    0.00000    0.00000   -0.00000
  -0.00000    0.00000   -0.00000    0.00000   -0.00000   -0.00000   -0.00000    0.00000
   0.00000    0.00000    0.00000   -0.00000   -0.00000    0.00000   -0.00000    0.00000
   0.00000    0.00000   -0.00000    0.00000    0.00000    0.00000    0.00000    0.00000
  -0.00000   -0.00000    0.00000   -0.00000   -0.00000    0.00000    0.00000   -0.00000
  -0.00000    0.00000    0.00001   -0.00000   -0.00001
 prteigrs : prtvol=0 or 1, do not print more k-points.

 Eight components of 2nd-order total energy (hartree) are
 1,2,3: 0th-order hamiltonian combined with 1st-order wavefunctions
     kin0=   4.55350577E+01 eigvalue=   3.04759915E+00  local=  -2.44113694E+01
 4,5,6: 1st-order hamiltonian combined with 1st and 0th-order wfs
     kin1=  -3.95815576E+01  Hartree=   0.00000000E+00     xc=   0.00000000E+00
 7,8,9: eventually, occupation + non-local contributions
    edocc=   4.39719697E+00     enl0=   2.87393774E+00   enl1=  -2.33032867E+01
 1-9 gives the relaxation energy (to be shifted if some occ is /=2.0)
   erelax=  -3.14424221E+01
  No Ewald or frozen-wf contrib.: the relaxation energy is the total one
 2DEtotal=   -0.3144242213E+02 Ha. Also 2DEtotal=   -0.855591818193E+03 eV
    (  non-var. 2DEtotal :   -3.1442422134E+01 Ha)

 CALCULATION OF EFFECTIVE MASSES
 NOTE : Additional infos (eff. mass eigenvalues, eigenvectors and, if degenerate, average mass) are available in stdout.

 K-point ( 0.025, 0.000, 0.000) | band =    68
 Effective mass tensor:
             -1.1289429016             -0.0000000257             -0.0000064812
             -0.0000000257             -0.1744494637             -0.0000003801
             -0.0000064812             -0.0000003801            -10.8266360630
 Effective mass tensor eigenvalues:
            -10.8266360630             -1.1289429016             -0.1744494637
 Angular average effective mass 1/(<1/m>)=  -0.4470626869
 Angular average effective mass for Frohlich model (<m**0.5>)**2=  -0.7705604596
 Effective masses along directions: (cart. coord. / red. coord. -> eff. mass)
    1:   1.000000  0.000000  0.000000 /   1.000000  0.000000  0.000000 ->  -1.1289429016
    2:   0.000000  1.000000  0.000000 /   0.000000  1.000000  0.000000 ->  -0.1744494637
    3:   0.000000  0.000000  1.000000 /   0.000000  0.000000  1.000000 -> -10.8266360630
    4:   0.577350  0.577350  0.577350 /   0.375708  0.614289  0.693897 ->  -0.4470628017
    5:   0.000000  0.707107  0.707107 /   0.000000  0.662850  0.748752 ->  -0.3433662943
    6:   0.707107  0.000000  0.707107 /   0.476133  0.000000  0.879373 ->  -2.0446800979
    7:   0.707107  0.707107  0.000000 /   0.521762  0.853091  0.000000 ->  -0.3022013888

 K-point ( 0.000, 0.042, 0.000) | band =    69
 Effective mass tensor:
              0.0685929976             -0.0000000028             -0.0000000005
             -0.0000000028              0.8351426398             -0.0000000465
             -0.0000000005             -0.0000000465              0.5204407390
 Effective mass tensor eigenvalues:
              0.0685929976              0.5204407390              0.8351426398
 Angular average effective mass 1/(<1/m>)=   0.1695145467
 Angular average effective mass for Frohlich model (<m**0.5>)**2=   0.2458630466
 Effective masses along directions: (cart. coord. / red. coord. -> eff. mass)
    1:   1.000000  0.000000  0.000000 /   1.000000  0.000000  0.000000 ->   0.0685929976
    2:   0.000000  1.000000  0.000000 /   0.000000  1.000000  0.000000 ->   0.8351426398
    3:   0.000000  0.000000  1.000000 /   0.000000  0.000000  1.000000 ->   0.5204407390
    4:   0.577350  0.577350  0.577350 /   0.375708  0.614289  0.693897 ->   0.1695145434
    5:   0.000000  0.707107  0.707107 /   0.000000  0.662850  0.748752 ->   0.6412622486
    6:   0.707107  0.000000  0.707107 /   0.476133  0.000000  0.879373 ->   0.1212106814
    7:   0.707107  0.707107  0.000000 /   0.521762  0.853091  0.000000 ->   0.1267736589

 END OF EFFECTIVE MASSES SECTION

 ---- first-order wavefunction calculations are completed ----

 Total localisation tensor (bohr^2) in cartesian coordinates
  WARNING : still subject to testing - especially symmetries.
      direction              matrix element
   alpha     beta       real part   imaginary part
     1        1       7.1234955412    0.0000000000
     1        2       0.0000000000    0.0000000000
     1        3       0.0000000000    0.0000000000
     2        1       0.0000000000    0.0000000000
     2        2       2.7926368743    0.0000000000
     2        3       0.0000000000    0.0000000000
     3        1       0.0000000000    0.0000000000
     3        2       0.0000000000    0.0000000000
     3        3       2.0756341102    0.0000000000

 respfn : d/dk was computed, but no 2DTE, so no DDB output.

== END DATASET(S) ==============================================================

 -outvars: echo values of variables after computation  --------
            acell      1.0000000000E+00  1.0000000000E+00  1.0000000000E+00 Bohr
              amu      8.76200000E+01  4.00780000E+01  7.26100000E+01
             ecut      4.10000000E+01 Hartree
           etotal     -3.1442422135E+01
            fcart      0.0000000000E+00  0.0000000000E+00  0.0000000000E+00
                       0.0000000000E+00  0.0000000000E+00  0.0000000000E+00
                       0.0000000000E+00  0.0000000000E+00  0.0000000000E+00
                       0.0000000000E+00  0.0000000000E+00  0.0000000000E+00
                       0.0000000000E+00  0.0000000000E+00  0.0000000000E+00
                       0.0000000000E+00  0.0000000000E+00  0.0000000000E+00
                       0.0000000000E+00  0.0000000000E+00  0.0000000000E+00
                       0.0000000000E+00  0.0000000000E+00  0.0000000000E+00
                       0.0000000000E+00  0.0000000000E+00  0.0000000000E+00
                       0.0000000000E+00  0.0000000000E+00  0.0000000000E+00
                       0.0000000000E+00  0.0000000000E+00  0.0000000000E+00
                       0.0000000000E+00  0.0000000000E+00  0.0000000000E+00
-          fftalg         512
           irdden           1
           irdwfk           1
              ixc     -116133
              kpt      2.50000000E-02  0.00000000E+00  0.00000000E+00
                       0.00000000E+00  4.16666667E-02  0.00000000E+00
           kptopt           0
P           mkmem           2
P          mkqmem           2
P          mk1mem           2
            natom          12
            nband          77
           nbdbuf           4
            ngfft          54      90     100
             nkpt           2
            nstep        2000
             nsym           8
           ntypat           3
              occ      2.000000  2.000000  2.000000  2.000000  2.000000  2.000000
                       2.000000  2.000000  2.000000  2.000000  2.000000  2.000000
                       2.000000  2.000000  2.000000  2.000000  2.000000  2.000000
                       2.000000  2.000000  2.000000  2.000000  2.000000  2.000000
                       2.000000  2.000000  2.000000  2.000000  2.000000  2.000000
                       2.000000  2.000000  2.000000  2.000000  2.000000  2.000000
                       2.000000  2.000000  2.000000  2.000000  2.000000  2.000000
                       2.000000  2.000000  2.000000  2.000000  2.000000  2.000000
                       2.000000  2.000000  2.000000  2.000000  2.000000  2.000000
                       2.000000  2.000000  2.000000  2.000000  2.000000  2.000000
                       2.000000  2.000000  2.000000  2.000000  2.000000  2.000000
                       2.000000  2.000000  0.000000  0.000000  0.000000  0.000000
                       0.000000  0.000000  0.000000  0.000000  0.000000
        optdriver           1
            prtwf          -1
            rfdir           1       1       1
           rfelfd           2
            rprim      9.2609462181E+00  0.0000000000E+00  0.0000000000E+00
                       0.0000000000E+00  1.5141808859E+01  0.0000000000E+00
                       0.0000000000E+00  0.0000000000E+00  1.7104095535E+01
          spgroup          62
           strten      0.0000000000E+00  0.0000000000E+00  0.0000000000E+00
                       0.0000000000E+00  0.0000000000E+00  0.0000000000E+00
           symrel      1  0  0   0  1  0   0  0  1      -1  0  0   0 -1  0   0  0 -1
                      -1  0  0   0  1  0   0  0 -1       1  0  0   0 -1  0   0  0  1
                      -1  0  0   0 -1  0   0  0  1       1  0  0   0  1  0   0  0 -1
                       1  0  0   0 -1  0   0  0 -1      -1  0  0   0  1  0   0  0  1
            tnons      0.0000000  0.0000000  0.0000000    -0.0000000 -0.0000000 -0.0000000
                       0.5000000  0.5000000  0.5000000     0.5000000  0.5000000  0.5000000
                      -0.0000000  0.5000000  0.5000000     0.0000000  0.5000000  0.5000000
                       0.5000000 -0.0000000 -0.0000000     0.5000000  0.0000000  0.0000000
           tolwfr      1.00000000E-20
            typat      1  1  1  1  2  2  2  2  3  3  3  3
           useylm           1
              wtk        0.50000    0.50000
           xangst      1.2251704171E+00  4.1779740969E+00  7.4266789545E+00
                       1.2251704171E+00  1.7162402440E-01  6.1499673412E+00
                       3.6755112514E+00  7.8410761206E+00  2.9011301892E+00
                       3.6755112514E+00  3.8347260481E+00  1.6244185760E+00
                       3.6755112514E+00  6.8228382115E+00  8.3791531009E+00
                       1.2251704171E+00  1.1898619334E+00  6.7194442956E-01
                       3.6755112514E+00  2.8164881391E+00  5.1974931948E+00
                       1.2251704171E+00  5.1962120059E+00  3.8536043357E+00
                       3.6755112514E+00  1.8676161752E+00  8.0943603171E+00
                       1.2251704171E+00  2.1387338973E+00  3.5688115519E+00
                       1.2251704171E+00  6.1450839698E+00  9.5673721336E-01
                       3.6755112514E+00  5.8739662477E+00  5.4822859786E+00
            xcart      2.3152365545E+00  7.8952268334E+00  1.4034389301E+01
                       2.3152365545E+00  3.2432240395E-01  1.1621754001E+01
                       6.9457096636E+00  1.4817486455E+01  5.4823415335E+00
                       6.9457096636E+00  7.2465820255E+00  3.0697062338E+00
                       6.9457096636E+00  1.2893295669E+01  1.5834304586E+01
                       2.3152365545E+00  2.2485131901E+00  1.2697909484E+00
                       6.9457096636E+00  5.3223912393E+00  9.8218387157E+00
                       2.3152365545E+00  9.8194176196E+00  7.2822568189E+00
                       6.9457096636E+00  3.5292830925E+00  1.5296124220E+01
                       2.3152365545E+00  4.0416213370E+00  6.7440764529E+00
                       2.3152365545E+00  1.1612525766E+01  1.8079713144E+00
                       6.9457096636E+00  1.1100187522E+01  1.0360019082E+01
             xred      2.5000000000E-01  5.2141900000E-01  8.2052800000E-01
                       2.5000000000E-01  2.1419000000E-02  6.7947200000E-01
                       7.5000000000E-01  9.7858100000E-01  3.2052800000E-01
                       7.5000000000E-01  4.7858100000E-01  1.7947200000E-01
                       7.5000000000E-01  8.5150300000E-01  9.2576100000E-01
                       2.5000000000E-01  1.4849700000E-01  7.4239000000E-02
                       7.5000000000E-01  3.5150300000E-01  5.7423900000E-01
                       2.5000000000E-01  6.4849700000E-01  4.2576100000E-01
                       7.5000000000E-01  2.3308200000E-01  8.9429600000E-01
                       2.5000000000E-01  2.6691800000E-01  3.9429600000E-01
                       2.5000000000E-01  7.6691800000E-01  1.0570400000E-01
                       7.5000000000E-01  7.3308200000E-01  6.0570400000E-01
            znucl       38.00000   20.00000   32.00000

- Timing analysis has been suppressed with timopt=0

 Suggested references for the acknowledgment of ABINIT usage.

 Calculation completed.
.Delivered   2 WARNINGs and   5 COMMENTs to log file.