.Version 9.5.2 of ABINIT

 ABINIT is a project of the Universite Catholique de Louvain,
 Corning Inc. and other collaborators, see ~abinit/doc/developers/contributors.txt .
 acknowledgments of the ABINIT effort.

.Starting date : Mon 24 May 2021.
- ( at 11h25 )

- input  file    -> /scratch/users/j/a/jabreu/flow_simple_10atoms/flow/w327/t1/run.abi
- output file    -> /scratch/users/j/a/jabreu/flow_simple_10atoms/flow/w327/t1/run.abo
- root for input  files -> /scratch/users/j/a/jabreu/flow_simple_10atoms/flow/w327/t1/indata/in
- root for output files -> /scratch/users/j/a/jabreu/flow_simple_10atoms/flow/w327/t1/outdata/out

 Symmetries : space group I4_1/a m d (#141); Bravais tI (body-center tetrag.)
     intxc =       0      iscf =       7    lmnmax =      18     lnmax =       6
     mgfft =      72  mpssoang =       3    mqgrid =    3001     natom =      10
  nloc_mem =       1    nspden =       1   nspinor =       1    nsppol =       1
      nsym =      16    n1xccc =    2501    ntypat =       3    occopt =       1
   xclevel =       2
-    mband =          69        mffmem =           1         mkmem =           1
-   mkqmem =           1        mk1mem =           1           mpw =       14325
      nfft =      373248          nkpt =           1
  Rough estimation (10% accuracy) of disk space for files :

------------- Echo of variables that govern the present computation ------------
-
- outvars: echo of selected default values
-   iomode0 =  0 , fftalg0 =512 , wfoptalg0 =  0
-
- outvars: echo of global parameters not present in the input file
-  max_nthreads =    0
-
 -outvars: echo values of preprocessed input variables --------
            acell      1.0000000000E+00  1.0000000000E+00  1.0000000000E+00 Bohr
              amu      8.76200000E+01  6.35460000E+01  1.59994000E+01
             ecut      4.60000000E+01 Hartree
-          fftalg         512
           irdden           1
           irdwfk           1
           istwfk        1
              ixc     -116133
           kptopt           0
P           mkmem           1
P          mkqmem           1
P          mk1mem           1
            natom          10
            nband          69
           nbdbuf           4
            ngfft          72      72      72
             nkpt           1
            nstep        2000
             nsym          16
           ntypat           3
              occ      2.000000  2.000000  2.000000  2.000000  2.000000  2.000000
                       2.000000  2.000000  2.000000  2.000000  2.000000  2.000000
                       2.000000  2.000000  2.000000  2.000000  2.000000  2.000000
                       2.000000  2.000000  2.000000  2.000000  2.000000  2.000000
                       2.000000  2.000000  2.000000  2.000000  2.000000  2.000000
                       2.000000  2.000000  2.000000  2.000000  2.000000  2.000000
                       2.000000  2.000000  2.000000  2.000000  2.000000  2.000000
                       2.000000  2.000000  2.000000  2.000000  2.000000  2.000000
                       2.000000  2.000000  2.000000  2.000000  2.000000  2.000000
                       2.000000  2.000000  2.000000  2.000000  2.000000  2.000000
                       0.000000  0.000000  0.000000  0.000000  0.000000  0.000000
                       0.000000  0.000000  0.000000
        optdriver           1
            prtwf          -1
            rfdir           1       1       1
           rfelfd           2
            rprim      9.2040969434E+00  0.0000000000E+00 -7.2252269258E+00
                      -2.1767266238E+00  8.9430007127E+00 -7.2252269258E+00
                       0.0000000000E+00  0.0000000000E+00  1.1701252269E+01
          spgroup         141
           symrel      1  0  0   0  1  0   0  0  1      -1  0  0   0 -1  0   0  0 -1
                       0  0  1  -1 -1 -1   1  0  0       0  0 -1   1  1  1  -1  0  0
                       0  1  0   1  0  0  -1 -1 -1       0 -1  0  -1  0  0   1  1  1
                      -1 -1 -1   0  0  1   0  1  0       1  1  1   0  0 -1   0 -1  0
                       0  1  0   1  0  0   0  0  1       0 -1  0  -1  0  0   0  0 -1
                       0  0  1  -1 -1 -1   0  1  0       0  0 -1   1  1  1   0 -1  0
                       1  0  0   0  1  0  -1 -1 -1      -1  0  0   0 -1  0   1  1  1
                      -1 -1 -1   0  0  1   1  0  0       1  1  1   0  0 -1  -1  0  0
            tnons      0.0000000  0.0000000  0.0000000    -0.2500000  0.2500000  0.5000000
                      -0.2500000  0.2500000  0.5000000    -0.0000000  0.0000000 -0.0000000
                      -0.0000000 -0.0000000 -0.0000000    -0.2500000  0.2500000  0.5000000
                      -0.2500000  0.2500000  0.5000000     0.0000000 -0.0000000 -0.0000000
                      -0.2500000  0.2500000  0.5000000     0.0000000  0.0000000 -0.0000000
                       0.0000000  0.0000000 -0.0000000    -0.2500000  0.2500000  0.5000000
                      -0.2500000  0.2500000  0.5000000     0.0000000  0.0000000  0.0000000
                       0.0000000  0.0000000 -0.0000000    -0.2500000  0.2500000  0.5000000
           tolwfr      1.00000000E-20
            typat      1  1  2  2  2  2  3  3  3  3
           useylm           1
           xangst      1.8593621047E+00  2.3662160768E+00 -3.8234254160E+00
                       3.5374399304E-01  3.5493241152E+00 -7.2740740956E-01
                       4.1177892723E+00  5.9155401920E-01 -2.2754164128E+00
                       4.1177892723E+00  5.9155401920E-01  8.2060159367E-01
                       3.5418522129E+00  2.9577700960E+00 -1.0911111143E+00
                       1.6824901082E+00  5.9155401920E-01 -3.6370370478E-01
                       1.2799145698E+00  4.7279647376E+00 -2.6319014904E+00
                       2.7855326814E+00  3.5448566992E+00 -5.7279194969E+00
                       9.3319152802E-01  1.1875754543E+00 -1.9189313352E+00
                      -5.7242658367E-01  2.3706834927E+00  1.1770866713E+00
            xcart      3.5136851598E+00  4.4715003563E+00 -7.2252269258E+00
                       6.6847926800E-01  6.7072505345E+00 -1.3746007911E+00
                       7.7814939975E+00  1.1178750891E+00 -4.2999138585E+00
                       7.7814939975E+00  1.1178750891E+00  1.5507122762E+00
                       6.6931306856E+00  5.5893754454E+00 -2.0619011867E+00
                       3.1794455258E+00  1.1178750891E+00 -6.8730039555E-01
                       2.4186880103E+00  8.9345585200E+00 -4.9735730256E+00
                       5.2638939021E+00  6.6988083419E+00 -1.0824199160E+01
                       1.7634764175E+00  2.2441923708E+00 -3.6262546913E+00
                      -1.0817294743E+00  4.4799425490E+00  2.2243714434E+00
             xred      5.0000000000E-01  5.0000000000E-01 -1.3877787808E-16
                       2.5000000000E-01  7.5000000000E-01  5.0000000000E-01
                       8.7500000000E-01  1.2500000000E-01  2.5000000000E-01
                       8.7500000000E-01  1.2500000000E-01  7.5000000000E-01
                       8.7500000000E-01  6.2500000000E-01  7.5000000000E-01
                       3.7500000000E-01  1.2500000000E-01  2.5000000000E-01
                       4.9905600000E-01  9.9905600000E-01  5.0000000000E-01
                       7.4905600000E-01  7.4905600000E-01  0.0000000000E+00
                       2.5094400000E-01  2.5094400000E-01 -4.1633363423E-17
                       9.4400000000E-04  5.0094400000E-01  5.0000000000E-01
            znucl       38.00000   29.00000    8.00000

 chkinp: Checking input parameters for consistency.

== DATASET  1 ==================================================================
-   mpi_nproc: 1, omp_nthreads: -1 (-1 if OMP is not activated)

--- !DatasetInfo
iteration_state: {dtset: 1, }
dimensions: {natom: 10, nkpt: 1, mband: 69, nsppol: 1, nspinor: 1, nspden: 1, mpw: 14325, }
cutoff_energies: {ecut:  46.0, pawecutdg:  -1.0, }
electrons: {nelect:   1.20000000E+02, charge:   0.00000000E+00, occopt:   1.00000000E+00, tsmear:   1.00000000E-02, }
meta: {optdriver: 1, rfelfd: 2, }
...

 Real(R)+Recip(G) space primitive vectors, cartesian coordinates (Bohr,Bohr^-1):
 R(1)=  9.2040969  0.0000000 -7.2252269  G(1)=  0.1086473  0.0264447  0.0000000
 R(2)= -2.1767266  8.9430007 -7.2252269  G(2)=  0.0000000  0.1118193  0.0000000
 R(3)=  0.0000000  0.0000000 11.7012523  G(3)=  0.0670869  0.0853745  0.0854609
 Unit cell volume ucvol=  9.6315635E+02 bohr^3
 Angles (23,13,12)=  1.28131955E+02  1.28131955E+02  7.64113630E+01 degrees

 getcut: wavevector=  0.0000  0.0000  0.0000  ngfft=  72  72  72
         ecut(hartree)=     46.000   => boxcut(ratio)=   2.01555

--- Pseudopotential description ------------------------------------------------
- pspini: atom type   1  psp file is /scratch/users/j/a/jabreu/pseudos/PBEsol/Sr.psp8
- pspatm: opening atomic psp file    /scratch/users/j/a/jabreu/pseudos/PBEsol/Sr.psp8
- Sr    ONCVPSP-3.3.0  r_core=   1.66721   1.31335   1.51547
- 38.00000  10.00000    180112                znucl, zion, pspdat
    8 -116133    2    4       600   0.00000   pspcod,pspxc,lmax,lloc,mmax,r2well
    5.99000000000000    6.00000000000000    0.00000000000000   rchrg,fchrg,qchrg
     nproj     2     2     2
     extension_switch     1
  pspatm : epsatm=   12.46450977
         --- l  ekb(1:nproj) -->
             0   10.029206    1.044171
             1    7.472414    1.670829
             2    4.142950    0.968140
 pspatm: atomic psp has been read  and splines computed

- pspini: atom type   2  psp file is /scratch/users/j/a/jabreu/pseudos/PBEsol/Cu.psp8
- pspatm: opening atomic psp file    /scratch/users/j/a/jabreu/pseudos/PBEsol/Cu.psp8
- Cu    ONCVPSP-3.3.0  r_core=   1.26204   1.45626   1.76249
- 29.00000  19.00000    180112                znucl, zion, pspdat
    8 -116133    2    4       600   0.00000   pspcod,pspxc,lmax,lloc,mmax,r2well
    5.99000000000000    3.50000000000000    0.00000000000000   rchrg,fchrg,qchrg
     nproj     2     2     2
     extension_switch     1
  pspatm : epsatm=   21.63488701
         --- l  ekb(1:nproj) -->
             0    5.008230   -0.401634
             1   -3.496700   -0.765945
             2   -6.895851   -2.521180
 pspatm: atomic psp has been read  and splines computed

- pspini: atom type   3  psp file is /scratch/users/j/a/jabreu/pseudos/PBEsol/O.psp8
- pspatm: opening atomic psp file    /scratch/users/j/a/jabreu/pseudos/PBEsol/O.psp8
- O     ONCVPSP-3.3.0  r_core=   1.35509   1.45563   1.26150
-  8.00000   6.00000    180112                znucl, zion, pspdat
    8 -116133    2    4       600   0.00000   pspcod,pspxc,lmax,lloc,mmax,r2well
    5.99000000000000    4.00000000000000    0.00000000000000   rchrg,fchrg,qchrg
     nproj     2     2     1
     extension_switch     1
  pspatm : epsatm=    6.22910522
         --- l  ekb(1:nproj) -->
             0    6.050032    0.820363
             1   -4.739617   -1.153841
             2   -1.335834
 pspatm: atomic psp has been read  and splines computed

   1.63661986E+04                                ecore*ucvol(ha*bohr**3)

 ==>  initialize data related to q vector <==

[...]
 Perturbation : derivative vs k along direction   2
 The set of symmetries contains only one element for this perturbation.
 symkpt : not enough symmetry to change the number of k points.

[...]

 Perturbation wavevector (in red.coord.)   0.000000  0.000000  0.000000
 Perturbation : derivative vs k along direction   3
 The set of symmetries contains only one element for this perturbation.
 symkpt : not enough symmetry to change the number of k points.

 Initialisation of the first-order wave-functions :
  ireadwf=   0

--- !BeginCycle
iteration_state: {dtset: 1, }
solver: {iscf: 7, nstep: 2000, nline: 4, wfoptalg: 0, }
tolerances: {tolwfr: 1.00E-20, }
...

     iter   2DEtotal(Ha)        deltaE(Ha) residm    vres2
-ETOT  1  -108.99686695089     -1.090E+02 2.929E-01 0.000E+00
 ETOT  2  -109.31515365598     -3.183E-01 8.165E-03 0.000E+00
 ETOT  3  -109.32280013298     -7.646E-03 2.803E-04 0.000E+00
 ETOT  4  -109.32312995496     -3.298E-04 2.039E-05 0.000E+00
 ETOT  5  -109.32314854093     -1.859E-05 1.771E-06 0.000E+00
 ETOT  6  -109.32314975470     -1.214E-06 9.213E-08 0.000E+00
 ETOT  7  -109.32314984054     -8.584E-08 1.304E-08 0.000E+00
 ETOT  8  -109.32314984695     -6.408E-09 5.642E-10 0.000E+00
 ETOT  9  -109.32314984744     -4.956E-10 9.582E-11 0.000E+00
 ETOT 10  -109.32314984748     -3.939E-11 4.295E-12 0.000E+00
 ETOT 11  -109.32314984749     -3.268E-12 7.129E-13 0.000E+00
 ETOT 12  -109.32314984749     -1.990E-13 3.289E-14 0.000E+00
 ETOT 13  -109.32314984749     -5.684E-14 5.371E-15 0.000E+00
 ETOT 14  -109.32314984749      1.137E-13 2.536E-16 0.000E+00
 ETOT 15  -109.32314984749     -1.279E-13 4.104E-17 0.000E+00
 ETOT 16  -109.32314984749      1.421E-14 1.975E-18 0.000E+00
 ETOT 17  -109.32314984749     -2.842E-14 3.187E-19 0.000E+00
 ETOT 18  -109.32314984749      5.684E-14 1.561E-20 0.000E+00
 ETOT 19  -109.32314984749     -2.842E-14 9.682E-21 0.000E+00

 At SCF step   19   max residual=  9.68E-21 < tolwfr=  1.00E-20 =>converged.

 ----iterations are completed or convergence reached----

 dfpt_looppert: DFPT cycle converged with prtwf=-1. Will skip output of the 1st-order WFK file.
 dfpt_looppert : ek2=    1.8090313746E+02
          f-sum rule ratio=    1.1134832851E+00
 prteigrs : about to open file /scratch/users/j/a/jabreu/flow_simple_10atoms/flow/w327/t1/tmpdata/tmp_1WF1_EIG
 Expectation of eigenvalue derivatives (hartree) for nkpt=   1  k points:
  (in case of degenerate eigenvalues, averaged derivative)
 kpt#   1, nband= 69, wtk=  1.00000, kpt=  0.0000  0.0000  0.0000 (reduced coord)
  -0.00000   -0.00000    0.00000    0.00000   -0.00000    0.00000    0.00000    0.00000
  -0.00000   -0.00000    0.00000    0.00000   -0.00000   -0.00000    0.00000    0.00000
   0.00000    0.00000    0.00000   -0.00000    0.00000    0.00000   -0.00000   -0.00000
   0.00000    0.00000    0.00000    0.00000   -0.00000   -0.00000   -0.00000   -0.00000
   0.00000   -0.00000   -0.00000    0.00000    0.00000   -0.00000   -0.00000   -0.00000
  -0.00000   -0.00000   -0.00000   -0.00000    0.00000   -0.00000    0.00000   -0.00000
   0.00000   -0.00000   -0.00000    0.00000    0.00000    0.00000    0.00000    0.00000
   0.00000   -0.00000    0.00000    0.00000    0.00000    0.00000    0.00000   -0.00000
  -0.00000   -0.00000   -0.00000    0.00000   -0.00000

 Eight components of 2nd-order total energy (hartree) are
 1,2,3: 0th-order hamiltonian combined with 1st-order wavefunctions
     kin0=   1.61219320E+02 eigvalue=  -2.26310857E+00  local=  -6.67604859E+01
 4,5,6: 1st-order hamiltonian combined with 1st and 0th-order wfs
     kin1=  -2.01432620E+02  Hartree=   0.00000000E+00     xc=   0.00000000E+00
 7,8,9: eventually, occupation + non-local contributions
    edocc=   1.93012587E+01     enl0=  -2.17383434E+00   enl1=  -1.72136799E+01
 1-9 gives the relaxation energy (to be shifted if some occ is /=2.0)
   erelax=  -1.09323150E+02
  No Ewald or frozen-wf contrib.: the relaxation energy is the total one
 2DEtotal=   -0.1093231498E+03 Ha. Also 2DEtotal=   -0.297483419528E+04 eV
    (  non-var. 2DEtotal :   -1.0932314985E+02 Ha)

 CALCULATION OF EFFECTIVE MASSES
 NOTE : Additional infos (eff. mass eigenvalues, eigenvectors and, if degenerate, average mass) are available in stdout.

 COMMENTS:
 - At k-point ( 0.000, 0.000, 0.000), bands    59 through    60
   are DEGENERATE (effective mass tensor is therefore not defined).
   See Section IIIB Eqs. (67)-(70) and Appendix E of PRB 93 205147 (2016).
 - Angular average effective mass for Frohlich model is to be averaged over degenerate bands. See later.
 - Associated theta integrals calculated with ntheta=   1000 points.

 K-point ( 0.000, 0.000, 0.000) | band =    59
 Transport equivalent effective mass tensor:
             -0.7777829332             -0.6156224942              0.9947467998
             -0.6156224942             -1.0774679572              1.2659105224
              0.9947467998              1.2659105224             -2.3395370974
 Transport equivalent effective mass tensor eigenvalues:
             -3.6067289936             -0.2940295507             -0.2940294436
 Angular average effective mass 1/(<1/m>)=  -0.4082692809
 Angular average effective mass for Frohlich model (<m**0.5>)**2=  -0.5072187603
 Effective masses along directions: (cart. coord. / red. coord. -> eff. mass)
    1:   1.000000  0.000000  0.000000 /   0.973156 -0.230147  0.000000 ->  -0.3503248726
    2:   0.000000  1.000000  0.000000 /   0.000000  1.000000  0.000000 ->  -0.4139571304
    3:   0.000000  0.000000  1.000000 /  -0.465102 -0.465102  0.753233 ->  -0.5955017562
    4:   0.577350  0.577350  0.577350 /   0.166624 -0.038645  0.985263 ->  -0.2575383804
    5:   0.000000  0.707107  0.707107 /  -0.521335  0.123946  0.844303 ->  -0.3030518782
    6:   0.707107  0.000000  0.707107 /   0.130701 -0.620984  0.772849 ->  -0.3379412258
    7:   0.707107  0.707107  0.000000 /   0.805711  0.592308  0.000000 ->  -0.3978472367

 K-point ( 0.000, 0.000, 0.000) | band =    60
 Transport equivalent effective mass tensor:
             -3.8004290852             -1.3597793113              2.1971915300
             -1.3597793113             -4.4623697296              2.7961369350
              2.1971915300              2.7961369350             -7.2500072159
 Transport equivalent effective mass tensor eigenvalues:
            -10.0489784479             -2.7319205336             -2.7319070493
 Angular average effective mass 1/(<1/m>)=  -1.6764542506
 Angular average effective mass for Frohlich model (<m**0.5>)**2=  -1.9032489160
 Effective masses along directions: (cart. coord. / red. coord. -> eff. mass)
    1:   1.000000  0.000000  0.000000 /   0.973156 -0.230147  0.000000 ->  -1.1338655783
    2:   0.000000  1.000000  0.000000 /   0.000000  1.000000  0.000000 ->  -1.0129814879
    3:   0.000000  0.000000  1.000000 /  -0.465102 -0.465102  0.753233 ->  -3.1347926839
    4:   0.577350  0.577350  0.577350 /   0.166624 -0.038645  0.985263 ->  -2.6074069889
    5:   0.000000  0.707107  0.707107 /  -0.521335  0.123946  0.844303 ->  -1.2349868891
    6:   0.707107  0.000000  0.707107 /   0.130701 -0.620984  0.772849 ->  -0.9848641044
    7:   0.707107  0.707107  0.000000 /   0.805711  0.592308  0.000000 ->  -2.6956410532

 Angular average effective mass for Frohlich model, averaged over degenerate bands.
 Value of     (<<m**0.5>>)**2 =     1.093882E+00
 Absolute Value of <<m**0.5>> =     1.045888E+00

 K-point ( 0.000, 0.000, 0.000) | band =    61
 Effective mass tensor:
              0.2687629901              0.0226678122             -0.0366275488
              0.0226678122              0.2797976825             -0.0466120584
             -0.0366275488             -0.0466120584              0.3262683280
 Effective mass tensor eigenvalues:
              0.2509507215              0.2509507238              0.3729275553
 Angular average effective mass 1/(<1/m>)=   0.2816589842
 Angular average effective mass for Frohlich model (<m**0.5>)**2=   0.2843990451
 Effective masses along directions: (cart. coord. / red. coord. -> eff. mass)
    1:   1.000000  0.000000  0.000000 /   0.973156 -0.230147  0.000000 ->   0.2635381881
    2:   0.000000  1.000000  0.000000 /   0.000000  1.000000  0.000000 ->   0.2719898789
    3:   0.000000  0.000000  1.000000 /  -0.465102 -0.465102  0.753233 ->   0.3144600489
    4:   0.577350  0.577350  0.577350 /   0.166624 -0.038645  0.985263 ->   0.2511377637
    5:   0.000000  0.707107  0.707107 /  -0.521335  0.123946  0.844303 ->   0.2546865486
    6:   0.707107  0.000000  0.707107 /   0.130701 -0.620984  0.772849 ->   0.2578208662
    7:   0.707107  0.707107  0.000000 /   0.805711  0.592308  0.000000 ->   0.2862582276

 END OF EFFECTIVE MASSES SECTION

 ---- first-order wavefunction calculations are completed ----

 Total localisation tensor (bohr^2) in cartesian coordinates
  WARNING : still subject to testing - especially symmetries.
      direction              matrix element
   alpha     beta       real part   imaginary part
     1        1       1.1965797249    0.0000000000
     1        2      -0.2603944503    0.0000000000
     1        3      -0.6791852840    0.0000000000
     2        1      -0.2603944503    0.0000000000
     2        2       1.0698209546    0.0000000000
     2        3      -0.8643294813    0.0000000000
     3        1      -0.6791852840    0.0000000000
     3        2      -0.8643294813    0.0000000000
     3        3       4.3381773635    0.0000000000

 respfn : d/dk was computed, but no 2DTE, so no DDB output.

== END DATASET(S) ==============================================================

 -outvars: echo values of variables after computation  --------
            acell      1.0000000000E+00  1.0000000000E+00  1.0000000000E+00 Bohr
              amu      8.76200000E+01  6.35460000E+01  1.59994000E+01
             ecut      4.60000000E+01 Hartree
           etotal     -1.0932314985E+02
            fcart      0.0000000000E+00  0.0000000000E+00  0.0000000000E+00
                       0.0000000000E+00  0.0000000000E+00  0.0000000000E+00
                       0.0000000000E+00  0.0000000000E+00  0.0000000000E+00
                       0.0000000000E+00  0.0000000000E+00  0.0000000000E+00
                       0.0000000000E+00  0.0000000000E+00  0.0000000000E+00
                       0.0000000000E+00  0.0000000000E+00  0.0000000000E+00
                       0.0000000000E+00  0.0000000000E+00  0.0000000000E+00
                       0.0000000000E+00  0.0000000000E+00  0.0000000000E+00
                       0.0000000000E+00  0.0000000000E+00  0.0000000000E+00
                       0.0000000000E+00  0.0000000000E+00  0.0000000000E+00
-          fftalg         512
           irdden           1
           irdwfk           1
           istwfk        1
              ixc     -116133
           kptopt           0
P           mkmem           1
P          mkqmem           1
P          mk1mem           1
            natom          10
            nband          69
           nbdbuf           4
            ngfft          72      72      72
             nkpt           1
            nstep        2000
             nsym          16
           ntypat           3
              occ      2.000000  2.000000  2.000000  2.000000  2.000000  2.000000
                       2.000000  2.000000  2.000000  2.000000  2.000000  2.000000
                       2.000000  2.000000  2.000000  2.000000  2.000000  2.000000
                       2.000000  2.000000  2.000000  2.000000  2.000000  2.000000
                       2.000000  2.000000  2.000000  2.000000  2.000000  2.000000
                       2.000000  2.000000  2.000000  2.000000  2.000000  2.000000
                       2.000000  2.000000  2.000000  2.000000  2.000000  2.000000
                       2.000000  2.000000  2.000000  2.000000  2.000000  2.000000
                       2.000000  2.000000  2.000000  2.000000  2.000000  2.000000
                       2.000000  2.000000  2.000000  2.000000  2.000000  2.000000
                       0.000000  0.000000  0.000000  0.000000  0.000000  0.000000
                       0.000000  0.000000  0.000000
        optdriver           1
            prtwf          -1
            rfdir           1       1       1
           rfelfd           2
            rprim      9.2040969434E+00  0.0000000000E+00 -7.2252269258E+00
                      -2.1767266238E+00  8.9430007127E+00 -7.2252269258E+00
                       0.0000000000E+00  0.0000000000E+00  1.1701252269E+01
          spgroup         141
           strten      0.0000000000E+00  0.0000000000E+00  0.0000000000E+00
                       0.0000000000E+00  0.0000000000E+00  0.0000000000E+00
           symrel      1  0  0   0  1  0   0  0  1      -1  0  0   0 -1  0   0  0 -1
                       0  0  1  -1 -1 -1   1  0  0       0  0 -1   1  1  1  -1  0  0
                       0  1  0   1  0  0  -1 -1 -1       0 -1  0  -1  0  0   1  1  1
                      -1 -1 -1   0  0  1   0  1  0       1  1  1   0  0 -1   0 -1  0
                       0  1  0   1  0  0   0  0  1       0 -1  0  -1  0  0   0  0 -1
                       0  0  1  -1 -1 -1   0  1  0       0  0 -1   1  1  1   0 -1  0
                       1  0  0   0  1  0  -1 -1 -1      -1  0  0   0 -1  0   1  1  1
                      -1 -1 -1   0  0  1   1  0  0       1  1  1   0  0 -1  -1  0  0
            tnons      0.0000000  0.0000000  0.0000000    -0.2500000  0.2500000  0.5000000
                      -0.2500000  0.2500000  0.5000000    -0.0000000  0.0000000 -0.0000000
                      -0.0000000 -0.0000000 -0.0000000    -0.2500000  0.2500000  0.5000000
                      -0.2500000  0.2500000  0.5000000     0.0000000 -0.0000000 -0.0000000
                      -0.2500000  0.2500000  0.5000000     0.0000000  0.0000000 -0.0000000
                       0.0000000  0.0000000 -0.0000000    -0.2500000  0.2500000  0.5000000
                      -0.2500000  0.2500000  0.5000000     0.0000000  0.0000000  0.0000000
                       0.0000000  0.0000000 -0.0000000    -0.2500000  0.2500000  0.5000000
           tolwfr      1.00000000E-20
            typat      1  1  2  2  2  2  3  3  3  3
           useylm           1
           xangst      1.8593621047E+00  2.3662160768E+00 -3.8234254160E+00
                       3.5374399304E-01  3.5493241152E+00 -7.2740740956E-01
                       4.1177892723E+00  5.9155401920E-01 -2.2754164128E+00
                       4.1177892723E+00  5.9155401920E-01  8.2060159367E-01
                       3.5418522129E+00  2.9577700960E+00 -1.0911111143E+00
                       1.6824901082E+00  5.9155401920E-01 -3.6370370478E-01
                       1.2799145698E+00  4.7279647376E+00 -2.6319014904E+00
                       2.7855326814E+00  3.5448566992E+00 -5.7279194969E+00
                       9.3319152802E-01  1.1875754543E+00 -1.9189313352E+00
                      -5.7242658367E-01  2.3706834927E+00  1.1770866713E+00
            xcart      3.5136851598E+00  4.4715003563E+00 -7.2252269258E+00
                       6.6847926800E-01  6.7072505345E+00 -1.3746007911E+00
                       7.7814939975E+00  1.1178750891E+00 -4.2999138585E+00
                       7.7814939975E+00  1.1178750891E+00  1.5507122762E+00
                       6.6931306856E+00  5.5893754454E+00 -2.0619011867E+00
                       3.1794455258E+00  1.1178750891E+00 -6.8730039555E-01
                       2.4186880103E+00  8.9345585200E+00 -4.9735730256E+00
                       5.2638939021E+00  6.6988083419E+00 -1.0824199160E+01
                       1.7634764175E+00  2.2441923708E+00 -3.6262546913E+00
                      -1.0817294743E+00  4.4799425490E+00  2.2243714434E+00
             xred      5.0000000000E-01  5.0000000000E-01 -1.3877787808E-16
                       2.5000000000E-01  7.5000000000E-01  5.0000000000E-01
                       8.7500000000E-01  1.2500000000E-01  2.5000000000E-01
                       8.7500000000E-01  1.2500000000E-01  7.5000000000E-01
                       8.7500000000E-01  6.2500000000E-01  7.5000000000E-01
                       3.7500000000E-01  1.2500000000E-01  2.5000000000E-01
                       4.9905600000E-01  9.9905600000E-01  5.0000000000E-01
                       7.4905600000E-01  7.4905600000E-01  0.0000000000E+00
                       2.5094400000E-01  2.5094400000E-01 -4.1633363423E-17
                       9.4400000000E-04  5.0094400000E-01  5.0000000000E-01
            znucl       38.00000   29.00000    8.00000

- Timing analysis has been suppressed with timopt=0

 Suggested references for the acknowledgment of ABINIT usage.

 Calculation completed.
.Delivered   2 WARNINGs and   5 COMMENTs to log file.