.Version 9.5.1 of ABINIT

 ABINIT is a project of the Universite Catholique de Louvain,
 Corning Inc. and other collaborators, see ~abinit/doc/developers/contributors.txt .
 acknowledgments of the ABINIT effort.

.Starting date : Sun 25 Apr 2021.
- ( at 17h26 )

- input  file    -> /scratch/users/j/a/jabreu/flow_simple2/flow/w232/t1/run.abi
- output file    -> /scratch/users/j/a/jabreu/flow_simple2/flow/w232/t1/run.abo
- root for input  files -> /scratch/users/j/a/jabreu/flow_simple2/flow/w232/t1/indata/in
- root for output files -> /scratch/users/j/a/jabreu/flow_simple2/flow/w232/t1/outdata/out

 Symmetries : space group F-4 3 m (#216); Bravais cF (face-center cubic)
     intxc =       0      iscf =       7    lmnmax =      18     lnmax =       6
     mgfft =      40  mpssoang =       3    mqgrid =    3001     natom =       2
  nloc_mem =       1    nspden =       1   nspinor =       1    nsppol =       1
      nsym =      24    n1xccc =    2501    ntypat =       2    occopt =       1
   xclevel =       2
-    mband =          17        mffmem =           1         mkmem =           2
-   mkqmem =           2        mk1mem =           2           mpw =        2762
      nfft =       64000          nkpt =           2
  Rough estimation (10% accuracy) of disk space for files :

------------- Echo of variables that govern the present computation ------------
-
- outvars: echo of selected default values
-   iomode0 =  0 , fftalg0 =512 , wfoptalg0 =  0
-
- outvars: echo of global parameters not present in the input file
-  max_nthreads =    0
-
 -outvars: echo values of preprocessed input variables --------
            acell      1.0000000000E+00  1.0000000000E+00  1.0000000000E+00 Bohr
              amu      9.12240000E+01  1.20110000E+01
             ecut      4.10000000E+01 Hartree
-          fftalg         512
           irdden           1
           irdwfk           1
           istwfk        1    0
              ixc     -116133
              kpt      5.00000000E-01 -1.23259516E-32  5.00000000E-01
                       5.97222222E-01  1.94444444E-01  5.97222222E-01
           kptopt           0
P           mkmem           2
P          mkqmem           2
P          mk1mem           2
            natom           2
            nband          17
           nbdbuf           4
            ngfft          40      40      40
             nkpt           2
            nstep         100
             nsym          24
           ntypat           2
              occ      2.000000  2.000000  2.000000  2.000000  2.000000  2.000000
                       2.000000  2.000000  0.000000  0.000000  0.000000  0.000000
                       0.000000  0.000000  0.000000  0.000000  0.000000
        optdriver           1
            prtwf          -1
            rfdir           1       1       1
           rfelfd           2
            rprim      5.8419424740E+00  0.0000000000E+00  3.3728470600E+00
                       1.9473141580E+00  5.5078361849E+00  3.3728470600E+00
                       0.0000000000E+00  0.0000000000E+00  6.7456941200E+00
          spgroup         216
           symrel      1  0  0   0  1  0   0  0  1       0 -1  1   0 -1  0   1 -1  0
                      -1  0  0  -1  0  1  -1  1  0       0  1 -1   1  0 -1   0  0 -1
                      -1  0  0  -1  1  0  -1  0  1       0 -1  1   1 -1  0   0 -1  0
                       1  0  0   0  0  1   0  1  0       0  1 -1   0  0 -1   1  0 -1
                      -1  0  1  -1  1  0  -1  0  0       0 -1  0   1 -1  0   0 -1  1
                       1  0 -1   0  0 -1   0  1 -1       0  1  0   0  0  1   1  0  0
                       1  0 -1   0  1 -1   0  0 -1       0 -1  0   0 -1  1   1 -1  0
                      -1  0  1  -1  0  0  -1  1  0       0  1  0   1  0  0   0  0  1
                       0  0 -1   0  1 -1   1  0 -1       1 -1  0   0 -1  1   0 -1  0
                       0  0  1   1  0  0   0  1  0      -1  1  0  -1  0  0  -1  0  1
                       0  0  1   0  1  0   1  0  0       1 -1  0   0 -1  0   0 -1  1
                       0  0 -1   1  0 -1   0  1 -1      -1  1  0  -1  0  1  -1  0  0
           tolwfr      1.00000000E-20
            typat      1  2
           useylm           1
              wtk        0.50000    0.50000
           xangst      0.0000000000E+00  0.0000000000E+00  0.0000000000E+00
                       3.0914228111E+00  2.1859660333E+00  5.3545013766E+00
            xcart      0.0000000000E+00  0.0000000000E+00  0.0000000000E+00
                       5.8419424740E+00  4.1308771387E+00  1.0118541180E+01
             xred      0.0000000000E+00  0.0000000000E+00  0.0000000000E+00
                       7.5000000000E-01  7.5000000000E-01  7.5000000000E-01
            znucl       40.00000    6.00000

 chkinp: Checking input parameters for consistency.

== DATASET  1 ==================================================================
-   mpi_nproc: 1, omp_nthreads: -1 (-1 if OMP is not activated)

--- !DatasetInfo
iteration_state: {dtset: 1, }
dimensions: {natom: 2, nkpt: 2, mband: 17, nsppol: 1, nspinor: 1, nspden: 1, mpw: 2762, }
cutoff_energies: {ecut:  41.0, pawecutdg:  -1.0, }
electrons: {nelect:   1.60000000E+01, charge:   0.00000000E+00, occopt:   1.00000000E+00, tsmear:   1.00000000E-02, }
meta: {optdriver: 1, rfelfd: 2, }
...

 Real(R)+Recip(G) space primitive vectors, cartesian coordinates (Bohr,Bohr^-1):
 R(1)=  5.8419425  0.0000000  3.3728471  G(1)=  0.1711759 -0.0605198  0.0000000
 R(2)=  1.9473142  5.5078362  3.3728471  G(2)=  0.0000000  0.1815595  0.0000000
 R(3)=  0.0000000  0.0000000  6.7456941  G(3)= -0.0855880 -0.0605198  0.1482427
 Unit cell volume ucvol=  2.1705257E+02 bohr^3
 Angles (23,13,12)=  6.00000000E+01  6.00000000E+01  6.00000000E+01 degrees

 getcut: wavevector=  0.0000  0.0000  0.0000  ngfft=  40  40  40
         ecut(hartree)=     41.000   => boxcut(ratio)=   2.05720

--- Pseudopotential description ------------------------------------------------
- pspini: atom type   1  psp file is /scratch/users/j/a/jabreu/pseudos/PBEsol/Zr.psp8
- pspatm: opening atomic psp file    /scratch/users/j/a/jabreu/pseudos/PBEsol/Zr.psp8
- Zr    ONCVPSP-3.3.0  r_core=   1.56507   1.56507   1.51006
- 40.00000  12.00000    180112                znucl, zion, pspdat
    8 -116133    2    4       600   0.00000   pspcod,pspxc,lmax,lloc,mmax,r2well
    5.99000000000000    5.00000000000000    0.00000000000000   rchrg,fchrg,qchrg
     nproj     2     2     2
     extension_switch     1
  pspatm : epsatm=   18.88750170
         --- l  ekb(1:nproj) -->
             0   10.584966    0.890424
             1    5.814585    0.741293
             2    1.525459    0.487901
 pspatm: atomic psp has been read  and splines computed

- pspini: atom type   2  psp file is /scratch/users/j/a/jabreu/pseudos/PBEsol/C.psp8
- pspatm: opening atomic psp file    /scratch/users/j/a/jabreu/pseudos/PBEsol/C.psp8
- C     ONCVPSP-3.3.0  r_core=   1.20440   1.26326
-  6.00000   4.00000    180112                znucl, zion, pspdat
    8 -116133    1    4       600   0.00000   pspcod,pspxc,lmax,lloc,mmax,r2well
    5.99000000000000    4.00000000000000    0.00000000000000   rchrg,fchrg,qchrg
     nproj     2     2
     extension_switch     1
  pspatm : epsatm=    4.34909529
         --- l  ekb(1:nproj) -->
             0    6.468939    0.390031
             1   -4.179695   -0.878453
 pspatm: atomic psp has been read  and splines computed

   3.71785552E+02                                ecore*ucvol(ha*bohr**3)

-inwffil : will read wavefunctions from disk file /scratch/users/j/a/jabreu/flow_simple2/flow/w232/t1/indata/in_WFK

 ==>  initialize data related to q vector <==

 The list of irreducible perturbations for this q vector is:
    1)    idir= 1    ipert=   3
    2)    idir= 2    ipert=   3
    3)    idir= 3    ipert=   3

 Perturbation wavevector (in red.coord.)   0.000000  0.000000  0.000000
 Perturbation : derivative vs k along direction   1

 dfpt_looppert : COMMENT -
  In a d/dk calculation, iscf is set to -3 automatically.
 The set of symmetries contains only one element for this perturbation.
 symkpt : not enough symmetry to change the number of k points.

[...]

 Initialisation of the first-order wave-functions :
  ireadwf=   0

--- !BeginCycle
iteration_state: {dtset: 1, }
solver: {iscf: 7, nstep: 100, nline: 4, wfoptalg: 0, }
tolerances: {tolwfr: 1.00E-20, }
...

     iter   2DEtotal(Ha)        deltaE(Ha) residm    vres2
-ETOT  1  -26.405719382162     -2.641E+01 3.248E-02 0.000E+00
 ETOT  2  -26.410274140888     -4.555E-03 1.237E-04 0.000E+00
 ETOT  3  -26.410274779700     -6.388E-07 2.208E-07 0.000E+00
 ETOT  4  -26.410274780136     -4.361E-10 9.572E-10 0.000E+00
 ETOT  5  -26.410274780137     -4.476E-13 2.601E-12 0.000E+00
 ETOT  6  -26.410274780137      1.776E-14 1.149E-14 0.000E+00
 ETOT  7  -26.410274780137     -2.132E-14 3.403E-17 0.000E+00
 ETOT  8  -26.410274780137      3.553E-15 2.109E-19 0.000E+00
 ETOT  9  -26.410274780137      0.000E+00 9.573E-21 0.000E+00

 At SCF step    9   max residual=  9.57E-21 < tolwfr=  1.00E-20 =>converged.

 ----iterations are completed or convergence reached----

 dfpt_looppert: DFPT cycle converged with prtwf=-1. Will skip output of the 1st-order WFK file.
 dfpt_looppert : ek2=    4.1643544283E+01
          f-sum rule ratio=    1.2795329507E+00
 prteigrs : about to open file /scratch/users/j/a/jabreu/flow_simple2/flow/w232/t1/tmpdata/tmp_1WF1_EIG
 Expectation of eigenvalue derivatives (hartree) for nkpt=   2  k points:
  (in case of degenerate eigenvalues, averaged derivative)
 kpt#   1, nband= 17, wtk=  0.50000, kpt=  0.5000  0.0000  0.5000 (reduced coord)
  -0.00000   -0.00000    0.00000    0.00000    0.00000    0.00000   -0.00000   -0.00000
   0.00000    0.00000   -0.00000   -0.00000   -0.00000   -0.00000   -0.00000   -0.00152
   0.00063
 prteigrs : prtvol=0 or 1, do not print more k-points.

 Eight components of 2nd-order total energy (hartree) are
 1,2,3: 0th-order hamiltonian combined with 1st-order wavefunctions
     kin0=   9.96217893E+00 eigvalue=  -6.75368193E-01  local=  -3.79730204E+00
 4,5,6: 1st-order hamiltonian combined with 1st and 0th-order wfs
     kin1=  -5.32842871E+01  Hartree=   0.00000000E+00     xc=   0.00000000E+00
 7,8,9: eventually, occupation + non-local contributions
    edocc=   2.04651628E+01     enl0=   4.55603295E-01   enl1=   4.63737534E-01
 1-9 gives the relaxation energy (to be shifted if some occ is /=2.0)
   erelax=  -2.64102748E+01
  No Ewald or frozen-wf contrib.: the relaxation energy is the total one
 2DEtotal=   -0.2641027478E+02 Ha. Also 2DEtotal=   -0.718660124890E+03 eV
    (  non-var. 2DEtotal :   -2.6410274780E+01 Ha)

 Perturbation wavevector (in red.coord.)   0.000000  0.000000  0.000000
 Perturbation : derivative vs k along direction   2
 The set of symmetries contains only one element for this perturbation.
 symkpt : not enough symmetry to change the number of k points.

[...]

 Perturbation wavevector (in red.coord.)   0.000000  0.000000  0.000000
 Perturbation : derivative vs k along direction   3
 The set of symmetries contains only one element for this perturbation.
 symkpt : not enough symmetry to change the number of k points.

-inwffil : will read wavefunctions from disk file /scratch/users/j/a/jabreu/flow_simple2/flow/w232/t1/indata/in_WFK

 Initialisation of the first-order wave-functions :
  ireadwf=   0

--- !BeginCycle
iteration_state: {dtset: 1, }
solver: {iscf: 7, nstep: 100, nline: 4, wfoptalg: 0, }
tolerances: {tolwfr: 1.00E-20, }
...

     iter   2DEtotal(Ha)        deltaE(Ha) residm    vres2
-ETOT  1  -26.405781916731     -2.641E+01 3.248E-02 0.000E+00
 ETOT  2  -26.410337456465     -4.556E-03 1.237E-04 0.000E+00
 ETOT  3  -26.410338101559     -6.451E-07 2.208E-07 0.000E+00
 ETOT  4  -26.410338102009     -4.504E-10 9.572E-10 0.000E+00
 ETOT  5  -26.410338102010     -4.619E-13 2.601E-12 0.000E+00
 ETOT  6  -26.410338102010     -1.066E-14 1.149E-14 0.000E+00
 ETOT  7  -26.410338102010     -1.421E-14 3.403E-17 0.000E+00
 ETOT  8  -26.410338102010     -1.066E-14 2.118E-19 0.000E+00
 ETOT  9  -26.410338102010      1.066E-14 9.968E-21 0.000E+00

 At SCF step    9   max residual=  9.97E-21 < tolwfr=  1.00E-20 =>converged.

 ----iterations are completed or convergence reached----

 dfpt_looppert: DFPT cycle converged with prtwf=-1. Will skip output of the 1st-order WFK file.
 dfpt_looppert : ek2=    4.1643544282E+01
          f-sum rule ratio=    1.2795358777E+00
 prteigrs : about to open file /scratch/users/j/a/jabreu/flow_simple2/flow/w232/t1/tmpdata/tmp_1WF1_EIG
 Expectation of eigenvalue derivatives (hartree) for nkpt=   2  k points:
  (in case of degenerate eigenvalues, averaged derivative)
 kpt#   1, nband= 17, wtk=  0.50000, kpt=  0.5000  0.0000  0.5000 (reduced coord)
   0.00000    0.00000   -0.00000   -0.00000   -0.00000   -0.00000    0.00000    0.00000
   0.00000   -0.00000    0.00000   -0.00000   -0.00000    0.00000    0.00000    0.00155
  -0.00051
 prteigrs : prtvol=0 or 1, do not print more k-points.

 Eight components of 2nd-order total energy (hartree) are
 1,2,3: 0th-order hamiltonian combined with 1st-order wavefunctions
     kin0=   9.96130591E+00 eigvalue=  -6.75312757E-01  local=  -3.79694817E+00
 4,5,6: 1st-order hamiltonian combined with 1st and 0th-order wfs
     kin1=  -5.32844090E+01  Hartree=   0.00000000E+00     xc=   0.00000000E+00
 7,8,9: eventually, occupation + non-local contributions
    edocc=   2.04657707E+01     enl0=   4.55522470E-01   enl1=   4.63732780E-01
 1-9 gives the relaxation energy (to be shifted if some occ is /=2.0)
   erelax=  -2.64103381E+01
  No Ewald or frozen-wf contrib.: the relaxation energy is the total one
 2DEtotal=   -0.2641033810E+02 Ha. Also 2DEtotal=   -0.718661847966E+03 eV
    (  non-var. 2DEtotal :   -2.6410338102E+01 Ha)

 CALCULATION OF EFFECTIVE MASSES
 NOTE : Additional infos (eff. mass eigenvalues, eigenvectors and, if degenerate, average mass) are available in stdout.

 COMMENTS:
 - At k-point ( 0.500,-0.000, 0.500), bands     7 through     8
   are DEGENERATE (effective mass tensor is therefore not defined).
   See Section IIIB Eqs. (67)-(70) and Appendix E of PRB 93 205147 (2016).
 - Angular average effective mass for Frohlich model is to be averaged over degenerate bands. See later.
 - Associated theta integrals calculated with ntheta=   1000 points.

 K-point ( 0.500,-0.000, 0.500) | band =     7
 Transport equivalent effective mass tensor:
             -0.8167222255             -0.0362917025              0.0444481501
             -0.0362917025             -0.7910505130             -0.0628670937
              0.0444481501             -0.0628670937             -0.7653837886
 Transport equivalent effective mass tensor eigenvalues:
             -0.8423811354             -0.8423806138             -0.6883947780
 Angular average effective mass 1/(<1/m>)=  -0.6646525841
 Angular average effective mass for Frohlich model (<m**0.5>)**2=  -0.6744076010
 Effective masses along directions: (cart. coord. / red. coord. -> eff. mass)
    1:   1.000000  0.000000  0.000000 /   0.948683  0.316228  0.000000 ->  -0.7142781593
    2:   0.000000  1.000000  0.000000 /   0.000000  1.000000  0.000000 ->  -0.7867969275
    3:   0.000000  0.000000  1.000000 /   0.408248  0.408248  0.816497 ->  -0.5871778575
    4:   0.577350  0.577350  0.577350 /   0.585539  0.688047  0.428644 ->  -0.7912703651
    5:   0.000000  0.707107  0.707107 /   0.289489  0.762222  0.578977 ->  -0.7313007282
    6:   0.707107  0.000000  0.707107 /   0.731423  0.422287  0.535439 ->  -0.6009666110
    7:   0.707107  0.707107  0.000000 /   0.616798  0.787122  0.000000 ->  -0.6310276971

 K-point ( 0.500,-0.000, 0.500) | band =     8
 Transport equivalent effective mass tensor:
             -9.6324186731             -1.6342721498              2.0015663422
             -1.6342721498             -8.4767350688             -2.8307144039
              2.0015663422             -2.8307144039             -7.3210791996
 Transport equivalent effective mass tensor eigenvalues:
            -10.7879987542            -10.7879898981             -3.8542442891
 Angular average effective mass 1/(<1/m>)=  -1.1915842708
 Angular average effective mass for Frohlich model (<m**0.5>)**2=  -1.6107092639
 Effective masses along directions: (cart. coord. / red. coord. -> eff. mass)
    1:   1.000000  0.000000  0.000000 /   0.948683  0.316228  0.000000 ->  -1.5929139876
    2:   0.000000  1.000000  0.000000 /   0.000000  1.000000  0.000000 ->  -0.9321471149
    3:   0.000000  0.000000  1.000000 /   0.408248  0.408248  0.816497 ->  -1.0452944471
    4:   0.577350  0.577350  0.577350 /   0.585539  0.688047  0.428644 ->  -1.5848682943
    5:   0.000000  0.707107  0.707107 /   0.289489  0.762222  0.578977 ->  -2.7747518232
    6:   0.707107  0.000000  0.707107 /   0.731423  0.422287  0.535439 ->  -0.8149889061
    7:   0.707107  0.707107  0.000000 /   0.616798  0.787122  0.000000 ->  -6.4829400520

 Angular average effective mass for Frohlich model, averaged over degenerate bands.
 Value of     (<<m**0.5>>)**2 =     1.092402E+00
 Absolute Value of <<m**0.5>> =     1.045180E+00

--- !WARNING
src_file: m_efmas.F90
src_line: 0
message: |

    Band(s)     9,
    are not band extrema, but saddle points;
    the transport equivalent formalism breaks down in these conditions.
    The associated tensor(s) will therefore not be printed.
...

 K-point ( 0.597, 0.194, 0.597) | band =     9
 Effective mass tensor:
     *** SADDLE POINT: TRANSPORT EQV. EFF. MASS NOT DEFINED (see WARNING above) ***
 Angular average effective mass 1/(<1/m>)=   0.3080560597
 Angular average effective mass for Frohlich model (<m**0.5>)**2=   0.6631660339
 Effective masses along directions: (cart. coord. / red. coord. -> eff. mass)
    1:   1.000000  0.000000  0.000000 /   0.948683  0.316228  0.000000 ->   0.7833494297
    2:   0.000000  1.000000  0.000000 /   0.000000  1.000000  0.000000 ->   0.2366256690
    3:   0.000000  0.000000  1.000000 /   0.408248  0.408248  0.816497 ->   0.2360810448
    4:   0.577350  0.577350  0.577350 /   0.585539  0.688047  0.428644 ->   0.3293245524
    5:   0.000000  0.707107  0.707107 /   0.289489  0.762222  0.578977 ->   0.4154813243
    6:   0.707107  0.000000  0.707107 /   0.731423  0.422287  0.535439 ->   0.1880052851
    7:   0.707107  0.707107  0.000000 /   0.616798  0.787122  0.000000 ->   0.5888676468

 END OF EFFECTIVE MASSES SECTION

 ---- first-order wavefunction calculations are completed ----

 Total localisation tensor (bohr^2) in cartesian coordinates
  WARNING : still subject to testing - especially symmetries.
      direction              matrix element
   alpha     beta       real part   imaginary part
     1        1       5.7418157488    0.0000000000
     1        2       2.0201209687    0.0000000000
     1        3       4.1397498003    0.0000000000
     2        1       2.0201209687    0.0000000000
     2        2       5.7137649433    0.0000000000
     2        3       3.4989521553    0.0000000000
     3        1       4.1397498003    0.0000000000
     3        2       3.4989521553    0.0000000000
     3        3      10.5219935426    0.0000000000

 respfn : d/dk was computed, but no 2DTE, so no DDB output.

== END DATASET(S) ==============================================================

 -outvars: echo values of variables after computation  --------
            acell      1.0000000000E+00  1.0000000000E+00  1.0000000000E+00 Bohr
              amu      9.12240000E+01  1.20110000E+01
             ecut      4.10000000E+01 Hartree
           etotal     -2.6410338102E+01
            fcart      0.0000000000E+00  0.0000000000E+00  0.0000000000E+00
                       0.0000000000E+00  0.0000000000E+00  0.0000000000E+00
-          fftalg         512
           irdden           1
           irdwfk           1
           istwfk        1    0
              ixc     -116133
              kpt      5.00000000E-01 -1.23259516E-32  5.00000000E-01
                       5.97222222E-01  1.94444444E-01  5.97222222E-01
           kptopt           0
P           mkmem           2
P          mkqmem           2
P          mk1mem           2
            natom           2
            nband          17
           nbdbuf           4
            ngfft          40      40      40
             nkpt           2
            nstep         100
             nsym          24
           ntypat           2
              occ      2.000000  2.000000  2.000000  2.000000  2.000000  2.000000
                       2.000000  2.000000  0.000000  0.000000  0.000000  0.000000
                       0.000000  0.000000  0.000000  0.000000  0.000000
        optdriver           1
            prtwf          -1
            rfdir           1       1       1
           rfelfd           2
            rprim      5.8419424740E+00  0.0000000000E+00  3.3728470600E+00
                       1.9473141580E+00  5.5078361849E+00  3.3728470600E+00
                       0.0000000000E+00  0.0000000000E+00  6.7456941200E+00
          spgroup         216
           strten      0.0000000000E+00  0.0000000000E+00  0.0000000000E+00
                       0.0000000000E+00  0.0000000000E+00  0.0000000000E+00
           symrel      1  0  0   0  1  0   0  0  1       0 -1  1   0 -1  0   1 -1  0
                      -1  0  0  -1  0  1  -1  1  0       0  1 -1   1  0 -1   0  0 -1
                      -1  0  0  -1  1  0  -1  0  1       0 -1  1   1 -1  0   0 -1  0
                       1  0  0   0  0  1   0  1  0       0  1 -1   0  0 -1   1  0 -1
                      -1  0  1  -1  1  0  -1  0  0       0 -1  0   1 -1  0   0 -1  1
                       1  0 -1   0  0 -1   0  1 -1       0  1  0   0  0  1   1  0  0
                       1  0 -1   0  1 -1   0  0 -1       0 -1  0   0 -1  1   1 -1  0
                      -1  0  1  -1  0  0  -1  1  0       0  1  0   1  0  0   0  0  1
                       0  0 -1   0  1 -1   1  0 -1       1 -1  0   0 -1  1   0 -1  0
                       0  0  1   1  0  0   0  1  0      -1  1  0  -1  0  0  -1  0  1
                       0  0  1   0  1  0   1  0  0       1 -1  0   0 -1  0   0 -1  1
                       0  0 -1   1  0 -1   0  1 -1      -1  1  0  -1  0  1  -1  0  0
           tolwfr      1.00000000E-20
            typat      1  2
           useylm           1
              wtk        0.50000    0.50000
           xangst      0.0000000000E+00  0.0000000000E+00  0.0000000000E+00
                       3.0914228111E+00  2.1859660333E+00  5.3545013766E+00
            xcart      0.0000000000E+00  0.0000000000E+00  0.0000000000E+00
                       5.8419424740E+00  4.1308771387E+00  1.0118541180E+01
             xred      0.0000000000E+00  0.0000000000E+00  0.0000000000E+00
                       7.5000000000E-01  7.5000000000E-01  7.5000000000E-01
            znucl       40.00000    6.00000

- Timing analysis has been suppressed with timopt=0

 Suggested references for the acknowledgment of ABINIT usage.

 Calculation completed.
.Delivered  15 WARNINGs and   9 COMMENTs to log file.