.Version 9.5.2 of ABINIT

 ABINIT is a project of the Universite Catholique de Louvain,
 Corning Inc. and other collaborators, see ~abinit/doc/developers/contributors.txt .
 acknowledgments of the ABINIT effort.

.Starting date : Mon 24 May 2021.
- ( at 22h49 )

- input  file    -> /scratch/users/j/a/jabreu/flow_simple_10atoms/flow/w441/t1/run.abi
- output file    -> /scratch/users/j/a/jabreu/flow_simple_10atoms/flow/w441/t1/run.abo
- root for input  files -> /scratch/users/j/a/jabreu/flow_simple_10atoms/flow/w441/t1/indata/in
- root for output files -> /scratch/users/j/a/jabreu/flow_simple_10atoms/flow/w441/t1/outdata/out

 Symmetries : space group I4/m c m (#140); Bravais tI (body-center tetrag.)
     intxc =       0      iscf =       7    lmnmax =      18     lnmax =       6
     mgfft =      64  mpssoang =       3    mqgrid =    3001     natom =      10
  nloc_mem =       1    nspden =       1   nspinor =       1    nsppol =       1
      nsym =      16    n1xccc =    2501    ntypat =       3    occopt =       1
   xclevel =       2
-    mband =          37        mffmem =           1         mkmem =           2
-   mkqmem =           2        mk1mem =           2           mpw =       10962
      nfft =      262144          nkpt =           2
  Rough estimation (10% accuracy) of disk space for files :

------------- Echo of variables that govern the present computation ------------
-
- outvars: echo of selected default values
-   iomode0 =  0 , fftalg0 =512 , wfoptalg0 =  0
-
- outvars: echo of global parameters not present in the input file
-  max_nthreads =    0
-
 -outvars: echo values of preprocessed input variables --------
            acell      1.0000000000E+00  1.0000000000E+00  1.0000000000E+00 Bohr
              amu      8.76200000E+01  9.01218200E+00  1.40067400E+01
             ecut      4.40000000E+01 Hartree
-          fftalg         512
           irdden           1
           irdwfk           1
           istwfk        0    1
              ixc     -116133
              kpt      5.00000000E-01  5.00000000E-01 -4.21341987E-01
                       0.00000000E+00  0.00000000E+00  0.00000000E+00
           kptopt           0
P           mkmem           2
P          mkqmem           2
P          mk1mem           2
            natom          10
            nband          37
           nbdbuf           4
            ngfft          64      64      64
             nkpt           2
            nstep        2000
             nsym          16
           ntypat           3
              occ      2.000000  2.000000  2.000000  2.000000  2.000000  2.000000
                       2.000000  2.000000  2.000000  2.000000  2.000000  2.000000
                       2.000000  2.000000  2.000000  2.000000  2.000000  2.000000
                       2.000000  2.000000  2.000000  2.000000  2.000000  2.000000
                       2.000000  2.000000  2.000000  2.000000  0.000000  0.000000
                       0.000000  0.000000  0.000000  0.000000  0.000000  0.000000
                       0.000000
        optdriver           1
            prtwf          -1
            rfdir           1       1       1
           rfelfd           2
            rprim      9.0642881640E+00  0.0000000000E+00 -4.8059479496E+00
                      -3.2812088835E+00  8.4495555021E+00 -4.8059479496E+00
                       0.0000000000E+00  0.0000000000E+00  1.0259554358E+01
          spgroup         140
           symrel      1  0  0   0  1  0   0  0  1      -1  0  0   0 -1  0   0  0 -1
                      -1 -1 -1   0  0  1   0  1  0       1  1  1   0  0 -1   0 -1  0
                       0  1  0   1  0  0  -1 -1 -1       0 -1  0  -1  0  0   1  1  1
                       0  0  1  -1 -1 -1   1  0  0       0  0 -1   1  1  1  -1  0  0
                       0  1  0   1  0  0   0  0  1       0 -1  0  -1  0  0   0  0 -1
                      -1 -1 -1   0  0  1   1  0  0       1  1  1   0  0 -1  -1  0  0
                       1  0  0   0  1  0  -1 -1 -1      -1  0  0   0 -1  0   1  1  1
                       0  0  1  -1 -1 -1   0  1  0       0  0 -1   1  1  1   0 -1  0
            tnons      0.0000000  0.0000000  0.0000000    -0.0000000 -0.0000000 -0.0000000
                       0.5000000  0.5000000 -0.0000000     0.5000000  0.5000000 -0.0000000
                       0.0000000  0.0000000 -0.0000000    -0.0000000 -0.0000000  0.0000000
                       0.5000000  0.5000000 -0.0000000     0.5000000  0.5000000 -0.0000000
                       0.5000000  0.5000000  0.0000000     0.5000000  0.5000000 -0.0000000
                      -0.0000000 -0.0000000 -0.0000000     0.0000000  0.0000000 -0.0000000
                       0.5000000  0.5000000 -0.0000000     0.5000000  0.5000000  0.0000000
                      -0.0000000 -0.0000000 -0.0000000     0.0000000  0.0000000 -0.0000000
           tolwfr      1.00000000E-20
            typat      1  1  2  2  2  2  3  3  3  3
           useylm           1
              wtk        0.50000    0.50000
           xangst      2.2952053130E+00  3.3534841458E+00 -3.8147971809E+00
                       7.6506843768E-01  1.1178280486E+00 -1.2715990603E+00
                       3.5402821673E+00  1.6685193298E+00 -1.8323314959E+00
                       1.5696737905E+00  5.6713676743E-01  1.4429621078E+00
                      -4.8000841662E-01  2.8027928646E+00  2.1750575910E+00
                       1.4905999602E+00  3.9041754270E+00 -1.1002360128E+00
                       2.8296647828E+00  2.9876872130E+00 -1.1002360128E+00
                       1.4725818927E-01  3.7192810786E+00 -2.0710046434E+00
                       2.9130155614E+00  7.5203111581E-01  2.4137307385E+00
                       2.3060896786E-01  1.4836249814E+00  1.4429621078E+00
            xcart      4.3373094604E+00  6.3371666266E+00 -7.2089219244E+00
                       1.4457698201E+00  2.1123888755E+00 -2.4029739748E+00
                       6.6901637294E+00  3.1530445807E+00 -3.4626047120E+00
                       2.9662535820E+00  1.0717331703E+00  2.7268032040E+00
                      -9.0708444889E-01  5.2965109214E+00  4.1102631703E+00
                       2.8168256985E+00  7.3778223318E+00 -2.0791447456E+00
                       5.3472914875E+00  5.6459106033E+00 -2.0791447456E+00
                       2.7827764854E-01  7.0284226498E+00 -3.9136315959E+00
                       5.5048016320E+00  1.4211328523E+00  4.5612900542E+00
                       4.3578779304E-01  2.8036448988E+00  2.7268032040E+00
             xred      7.5000000000E-01  7.5000000000E-01 -2.7755575616E-17
                       2.5000000000E-01  2.5000000000E-01 -2.7755575616E-17
                       8.7316100000E-01  3.7316100000E-01  2.4632200000E-01
                       3.7316100000E-01  1.2683900000E-01  5.0000000000E-01
                       1.2683900000E-01  6.2683900000E-01  7.5367800000E-01
                       6.2683900000E-01  8.7316100000E-01  5.0000000000E-01
                       8.3180975000E-01  6.6819025000E-01  5.0000000000E-01
                       3.3180975000E-01  8.3180975000E-01  1.6361950000E-01
                       6.6819025000E-01  1.6819025000E-01  8.3638050000E-01
                       1.6819025000E-01  3.3180975000E-01  5.0000000000E-01
            znucl       38.00000    4.00000    7.00000

 chkinp: Checking input parameters for consistency.

== DATASET  1 ==================================================================
-   mpi_nproc: 1, omp_nthreads: -1 (-1 if OMP is not activated)

--- !DatasetInfo
iteration_state: {dtset: 1, }
dimensions: {natom: 10, nkpt: 2, mband: 37, nsppol: 1, nspinor: 1, nspden: 1, mpw: 10962, }
cutoff_energies: {ecut:  44.0, pawecutdg:  -1.0, }
electrons: {nelect:   5.60000000E+01, charge:   0.00000000E+00, occopt:   1.00000000E+00, tsmear:   1.00000000E-02, }
meta: {optdriver: 1, rfelfd: 2, }
...

 Real(R)+Recip(G) space primitive vectors, cartesian coordinates (Bohr,Bohr^-1):
 R(1)=  9.0642882  0.0000000 -4.8059479  G(1)=  0.1103231  0.0428417  0.0000000
 R(2)= -3.2812089  8.4495555 -4.8059479  G(2)=  0.0000000  0.1183494  0.0000000
 R(3)=  0.0000000  0.0000000 10.2595544  G(3)=  0.0516793  0.0755078  0.0974701
 Unit cell volume ucvol=  7.8577112E+02 bohr^3
 Angles (23,13,12)=  1.17932843E+02  1.17932843E+02  9.36193372E+01 degrees

 getcut: wavevector=  0.0000  0.0000  0.0000  ngfft=  64  64  64
         ecut(hartree)=     44.000   => boxcut(ratio)=   2.08910

--- Pseudopotential description ------------------------------------------------
- pspini: atom type   1  psp file is /scratch/users/j/a/jabreu/pseudos/PBEsol/Sr.psp8
- pspatm: opening atomic psp file    /scratch/users/j/a/jabreu/pseudos/PBEsol/Sr.psp8
- Sr    ONCVPSP-3.3.0  r_core=   1.66721   1.31335   1.51547
- 38.00000  10.00000    180112                znucl, zion, pspdat
    8 -116133    2    4       600   0.00000   pspcod,pspxc,lmax,lloc,mmax,r2well
    5.99000000000000    6.00000000000000    0.00000000000000   rchrg,fchrg,qchrg
     nproj     2     2     2
     extension_switch     1
  pspatm : epsatm=   12.46450977
         --- l  ekb(1:nproj) -->
             0   10.029206    1.044171
             1    7.472414    1.670829
             2    4.142950    0.968140
 pspatm: atomic psp has been read  and splines computed

- pspini: atom type   2  psp file is /scratch/users/j/a/jabreu/pseudos/PBEsol/Be.psp8
- pspatm: opening atomic psp file    /scratch/users/j/a/jabreu/pseudos/PBEsol/Be.psp8
- Be    ONCVPSP-3.3.0  r_core=   1.35684   1.10780
-  4.00000   4.00000    180112                znucl, zion, pspdat
    8 -116133    1    4       400   0.00000   pspcod,pspxc,lmax,lloc,mmax,r2well
    3.99000000000000    0.00000000000000    0.00000000000000   rchrg,fchrg,qchrg
     nproj     2     2
     extension_switch     1
  pspatm : epsatm=    3.86293307
         --- l  ekb(1:nproj) -->
             0   -7.966826   -2.672546
             1   -3.431835   -0.651830
 pspatm: atomic psp has been read  and splines computed

- pspini: atom type   3  psp file is /scratch/users/j/a/jabreu/pseudos/PBEsol/N.psp8
- pspatm: opening atomic psp file    /scratch/users/j/a/jabreu/pseudos/PBEsol/N.psp8
- N     ONCVPSP-3.3.0  r_core=   1.20551   1.35824
-  7.00000   5.00000    180112                znucl, zion, pspdat
    8 -116133    1    4       600   0.00000   pspcod,pspxc,lmax,lloc,mmax,r2well
    5.99000000000000    4.00000000000000    0.00000000000000   rchrg,fchrg,qchrg
     nproj     2     2
     extension_switch     1
  pspatm : epsatm=    5.26508895
         --- l  ekb(1:nproj) -->
             0    7.464189    0.625868
             1   -4.309714   -1.012941
 pspatm: atomic psp has been read  and splines computed

   3.44070203E+03                                ecore*ucvol(ha*bohr**3)

 ==>  initialize data related to q vector <==

 The list of irreducible perturbations for this q vector is:
    1)    idir= 1    ipert=  11
    2)    idir= 2    ipert=  11
    3)    idir= 3    ipert=  11

 Perturbation wavevector (in red.coord.)   0.000000  0.000000  0.000000
 Perturbation : derivative vs k along direction   1

 dfpt_looppert : COMMENT -
[...]
 ETOT 15  -34.198959810940     -1.421E-14 4.290E-14 0.000E+00
 ETOT 16  -34.198959810940     -1.421E-14 5.039E-15 0.000E+00
 ETOT 17  -34.198959810940      0.000E+00 1.102E-15 0.000E+00
 ETOT 18  -34.198959810940     -1.421E-14 1.334E-16 0.000E+00
 ETOT 19  -34.198959810940      1.421E-14 3.012E-17 0.000E+00
 ETOT 20  -34.198959810940      0.000E+00 3.813E-18 0.000E+00
 ETOT 21  -34.198959810940      0.000E+00 8.895E-19 0.000E+00
 ETOT 22  -34.198959810940      1.421E-14 1.185E-19 0.000E+00
 ETOT 23  -34.198959810940      0.000E+00 2.841E-20 0.000E+00
 ETOT 24  -34.198959810940     -1.421E-14 9.959E-21 0.000E+00

 At SCF step   24   max residual=  9.96E-21 < tolwfr=  1.00E-20 =>converged.

 ----iterations are completed or convergence reached----

 dfpt_looppert: DFPT cycle converged with prtwf=-1. Will skip output of the 1st-order WFK file.
 dfpt_looppert : ek2=    6.1931276750E+01
          f-sum rule ratio=    1.0584279804E+00
 prteigrs : about to open file /scratch/users/j/a/jabreu/flow_simple_10atoms/flow/w441/t1/tmpdata/tmp_1WF1_EIG
 Expectation of eigenvalue derivatives (hartree) for nkpt=   2  k points:
  (in case of degenerate eigenvalues, averaged derivative)
 kpt#   1, nband= 37, wtk=  0.50000, kpt=  0.5000  0.5000 -0.4213 (reduced coord)
   0.00000   -0.00000   -0.00000   -0.00000   -0.00048    0.00045    0.00787   -0.00416
   0.01321   -0.00923    0.00080   -0.00127    0.00121   -0.01127   -0.01660    0.00041
  -0.01744    0.03239    0.02508   -0.01575    0.02032    0.07969   -0.03722    0.00633
   0.01582   -0.05756   -0.04957    0.00049    0.06360    0.02932   -0.09482   -0.04390
   0.01496   -0.15405   -0.04815   -0.03713    0.10179
 prteigrs : prtvol=0 or 1, do not print more k-points.

 Eight components of 2nd-order total energy (hartree) are
 1,2,3: 0th-order hamiltonian combined with 1st-order wavefunctions
     kin0=   4.64122495E+01 eigvalue=   1.03616849E+00  local=  -2.18026134E+01
 4,5,6: 1st-order hamiltonian combined with 1st and 0th-order wfs
     kin1=  -6.55497962E+01  Hartree=   0.00000000E+00     xc=   0.00000000E+00
 7,8,9: eventually, occupation + non-local contributions
    edocc=   9.24981624E+00     enl0=  -6.96660961E-01   enl1=  -2.84812345E+00
 1-9 gives the relaxation energy (to be shifted if some occ is /=2.0)
   erelax=  -3.41989598E+01
  No Ewald or frozen-wf contrib.: the relaxation energy is the total one
 2DEtotal=   -0.3419895981E+02 Ha. Also 2DEtotal=   -0.930601023028E+03 eV
    (  non-var. 2DEtotal :   -3.4198959811E+01 Ha)

 Perturbation wavevector (in red.coord.)   0.000000  0.000000  0.000000
 Perturbation : derivative vs k along direction   2
 The set of symmetries contains only one element for this perturbation.
 symkpt : not enough symmetry to change the number of k points.

[...]

 Perturbation wavevector (in red.coord.)   0.000000  0.000000  0.000000
 Perturbation : derivative vs k along direction   3
 The set of symmetries contains only one element for this perturbation.
 symkpt : not enough symmetry to change the number of k points.

 Initialisation of the first-order wave-functions :
  ireadwf=   0

--- !BeginCycle
iteration_state: {dtset: 1, }
solver: {iscf: 7, nstep: 2000, nline: 4, wfoptalg: 0, }
tolerances: {tolwfr: 1.00E-20, }
...

     iter   2DEtotal(Ha)        deltaE(Ha) residm    vres2
-ETOT  1  -44.222102749486     -4.422E+01 4.270E-02 0.000E+00
 ETOT  2  -44.246551186765     -2.445E-02 2.048E-03 0.000E+00
 ETOT  3  -44.246626294231     -7.511E-05 1.011E-05 0.000E+00
 ETOT  4  -44.246626906204     -6.120E-07 1.349E-06 0.000E+00
 ETOT  5  -44.246626912551     -6.346E-09 3.957E-08 0.000E+00
 ETOT  6  -44.246626912622     -7.096E-11 7.219E-09 0.000E+00
 ETOT  7  -44.246626912623     -8.598E-13 2.444E-10 0.000E+00
 ETOT  8  -44.246626912623     -1.421E-14 4.182E-11 0.000E+00
 ETOT  9  -44.246626912623      2.132E-14 1.515E-12 0.000E+00
 ETOT 10  -44.246626912623     -2.132E-14 2.551E-13 0.000E+00
 ETOT 11  -44.246626912623      7.105E-15 9.462E-15 0.000E+00
 ETOT 12  -44.246626912623      2.842E-14 1.580E-15 0.000E+00
 ETOT 13  -44.246626912623     -2.842E-14 5.936E-17 0.000E+00
 ETOT 14  -44.246626912623      2.132E-14 9.833E-18 0.000E+00
 ETOT 15  -44.246626912623     -2.842E-14 3.737E-19 0.000E+00
 ETOT 16  -44.246626912623      1.421E-14 6.141E-20 0.000E+00
 ETOT 17  -44.246626912623     -7.105E-15 9.875E-21 0.000E+00

 At SCF step   17   max residual=  9.87E-21 < tolwfr=  1.00E-20 =>converged.

 ----iterations are completed or convergence reached----

 dfpt_looppert: DFPT cycle converged with prtwf=-1. Will skip output of the 1st-order WFK file.
 dfpt_looppert : ek2=    7.9025175914E+01
          f-sum rule ratio=    1.0759185373E+00
 prteigrs : about to open file /scratch/users/j/a/jabreu/flow_simple_10atoms/flow/w441/t1/tmpdata/tmp_1WF1_EIG
 Expectation of eigenvalue derivatives (hartree) for nkpt=   2  k points:
  (in case of degenerate eigenvalues, averaged derivative)
 kpt#   1, nband= 37, wtk=  0.50000, kpt=  0.5000  0.5000 -0.4213 (reduced coord)
   0.00000   -0.00000   -0.00000   -0.00000   -0.00095    0.00089    0.01575   -0.00831
   0.02642   -0.01846    0.00160   -0.00255    0.00241   -0.02254   -0.03320    0.00082
  -0.03489    0.06479    0.05016   -0.03150    0.04065    0.15939   -0.07444    0.01266
   0.03164   -0.11513   -0.09914    0.00098    0.12721    0.05864   -0.18964   -0.08780
   0.02991   -0.30810   -0.09631   -0.07426    0.23176
 prteigrs : prtvol=0 or 1, do not print more k-points.

 Eight components of 2nd-order total energy (hartree) are
 1,2,3: 0th-order hamiltonian combined with 1st-order wavefunctions
     kin0=   6.53453533E+01 eigvalue=   3.97926335E-01  local=  -3.16657040E+01
 4,5,6: 1st-order hamiltonian combined with 1st and 0th-order wfs
     kin1=  -8.50246517E+01  Hartree=   0.00000000E+00     xc=   0.00000000E+00
 7,8,9: eventually, occupation + non-local contributions
    edocc=   1.14432420E+01     enl0=  -1.27419067E+00   enl1=  -3.46860215E+00
 1-9 gives the relaxation energy (to be shifted if some occ is /=2.0)
   erelax=  -4.42466269E+01
  No Ewald or frozen-wf contrib.: the relaxation energy is the total one
 2DEtotal=   -0.4424662691E+02 Ha. Also 2DEtotal=   -0.120401194943E+04 eV
    (  non-var. 2DEtotal :   -4.4246626912E+01 Ha)

 CALCULATION OF EFFECTIVE MASSES
 NOTE : Additional infos (eff. mass eigenvalues, eigenvectors and, if degenerate, average mass) are available in stdout.

 K-point ( 0.500, 0.500,-0.421) | band =    28
 Effective mass tensor:
             -2.8485141163             -1.3929570306              1.7247397153
             -1.3929570306             -3.9240106372              2.5146714051
              1.7247397153              2.5146714051             -4.4702735320
 Effective mass tensor eigenvalues:
             -7.7310095202             -1.8931105164             -1.6186782488
 Angular average effective mass 1/(<1/m>)=  -2.3522615230
 Angular average effective mass for Frohlich model (<m**0.5>)**2=  -2.6122445368
 Effective masses along directions: (cart. coord. / red. coord. -> eff. mass)
    1:   1.000000  0.000000  0.000000 /   0.940289 -0.340378  0.000000 ->  -2.1118540768
    2:   0.000000  1.000000  0.000000 /   0.000000  1.000000  0.000000 ->  -2.4275679016
    3:   0.000000  0.000000  1.000000 /  -0.390518 -0.390518  0.833662 ->  -2.5646555810
    4:   0.577350  0.577350  0.577350 /   0.383148  0.032607  0.923111 ->  -1.6728224154
    5:   0.000000  0.707107  0.707107 /  -0.403831  0.306162  0.862082 ->  -1.6614734886
    6:   0.707107  0.000000  0.707107 /   0.309918 -0.588575  0.746680 ->  -1.7558059043
    7:   0.707107  0.707107  0.000000 /   0.868707  0.495326  0.000000 ->  -2.7551404548

 K-point ( 0.000, 0.000, 0.000) | band =    29
 Effective mass tensor:
              0.5993205642             -0.1129968108              0.1285409136
             -0.1129968108              0.5115606488              0.1878088701
              0.1285409136              0.1878088701              0.4630140111
 Effective mass tensor eigenvalues:
              0.2205786174              0.6766583029              0.6766583037
 Angular average effective mass 1/(<1/m>)=   0.4005750893
 Angular average effective mass for Frohlich model (<m**0.5>)**2=   0.4402342962
 Effective masses along directions: (cart. coord. / red. coord. -> eff. mass)
    1:   1.000000  0.000000  0.000000 /   0.940289 -0.340378  0.000000 ->   0.5010008677
    2:   0.000000  1.000000  0.000000 /   0.000000  1.000000  0.000000 ->   0.3869990555
    3:   0.000000  0.000000  1.000000 /  -0.390518 -0.390518  0.833662 ->   0.3437321008
    4:   0.577350  0.577350  0.577350 /   0.383148  0.032607  0.923111 ->   0.6296765837
    5:   0.000000  0.707107  0.707107 /  -0.403831  0.306162  0.862082 ->   0.6719000118
    6:   0.707107  0.000000  0.707107 /   0.309918 -0.588575  0.746680 ->   0.6283718170
    7:   0.707107  0.707107  0.000000 /   0.868707  0.495326  0.000000 ->   0.3281851566

 END OF EFFECTIVE MASSES SECTION

 ---- first-order wavefunction calculations are completed ----

 Total localisation tensor (bohr^2) in cartesian coordinates
  WARNING : still subject to testing - especially symmetries.
      direction              matrix element
   alpha     beta       real part   imaginary part
     1        1       1.2325886751    0.0000000000
     1        2      -0.3677411811    0.0000000000
     1        3      -0.3686467456    0.0000000000
     2        1      -0.3677411811    0.0000000000
     2        2       0.9469831486    0.0000000000
     2        3      -0.5386261704    0.0000000000
     3        1      -0.3686467456    0.0000000000
     3        2      -0.5386261704    0.0000000000
     3        3       2.4319922532    0.0000000000

 respfn : d/dk was computed, but no 2DTE, so no DDB output.

== END DATASET(S) ==============================================================

 -outvars: echo values of variables after computation  --------
            acell      1.0000000000E+00  1.0000000000E+00  1.0000000000E+00 Bohr
              amu      8.76200000E+01  9.01218200E+00  1.40067400E+01
             ecut      4.40000000E+01 Hartree
           etotal     -4.4246626913E+01
            fcart      0.0000000000E+00  0.0000000000E+00  0.0000000000E+00
                       0.0000000000E+00  0.0000000000E+00  0.0000000000E+00
                       0.0000000000E+00  0.0000000000E+00  0.0000000000E+00
                       0.0000000000E+00  0.0000000000E+00  0.0000000000E+00
                       0.0000000000E+00  0.0000000000E+00  0.0000000000E+00
                       0.0000000000E+00  0.0000000000E+00  0.0000000000E+00
                       0.0000000000E+00  0.0000000000E+00  0.0000000000E+00
                       0.0000000000E+00  0.0000000000E+00  0.0000000000E+00
                       0.0000000000E+00  0.0000000000E+00  0.0000000000E+00
                       0.0000000000E+00  0.0000000000E+00  0.0000000000E+00
-          fftalg         512
           irdden           1
           irdwfk           1
           istwfk        0    1
              ixc     -116133
              kpt      5.00000000E-01  5.00000000E-01 -4.21341987E-01
                       0.00000000E+00  0.00000000E+00  0.00000000E+00
           kptopt           0
P           mkmem           2
P          mkqmem           2
P          mk1mem           2
            natom          10
            nband          37
           nbdbuf           4
            ngfft          64      64      64
             nkpt           2
            nstep        2000
             nsym          16
           ntypat           3
              occ      2.000000  2.000000  2.000000  2.000000  2.000000  2.000000
                       2.000000  2.000000  2.000000  2.000000  2.000000  2.000000
                       2.000000  2.000000  2.000000  2.000000  2.000000  2.000000
                       2.000000  2.000000  2.000000  2.000000  2.000000  2.000000
                       2.000000  2.000000  2.000000  2.000000  0.000000  0.000000
                       0.000000  0.000000  0.000000  0.000000  0.000000  0.000000
                       0.000000
        optdriver           1
            prtwf          -1
            rfdir           1       1       1
           rfelfd           2
            rprim      9.0642881640E+00  0.0000000000E+00 -4.8059479496E+00
                      -3.2812088835E+00  8.4495555021E+00 -4.8059479496E+00
                       0.0000000000E+00  0.0000000000E+00  1.0259554358E+01
          spgroup         140
           strten      0.0000000000E+00  0.0000000000E+00  0.0000000000E+00
                       0.0000000000E+00  0.0000000000E+00  0.0000000000E+00
           symrel      1  0  0   0  1  0   0  0  1      -1  0  0   0 -1  0   0  0 -1
                      -1 -1 -1   0  0  1   0  1  0       1  1  1   0  0 -1   0 -1  0
                       0  1  0   1  0  0  -1 -1 -1       0 -1  0  -1  0  0   1  1  1
                       0  0  1  -1 -1 -1   1  0  0       0  0 -1   1  1  1  -1  0  0
                       0  1  0   1  0  0   0  0  1       0 -1  0  -1  0  0   0  0 -1
                      -1 -1 -1   0  0  1   1  0  0       1  1  1   0  0 -1  -1  0  0
                       1  0  0   0  1  0  -1 -1 -1      -1  0  0   0 -1  0   1  1  1
                       0  0  1  -1 -1 -1   0  1  0       0  0 -1   1  1  1   0 -1  0
            tnons      0.0000000  0.0000000  0.0000000    -0.0000000 -0.0000000 -0.0000000
                       0.5000000  0.5000000 -0.0000000     0.5000000  0.5000000 -0.0000000
                       0.0000000  0.0000000 -0.0000000    -0.0000000 -0.0000000  0.0000000
                       0.5000000  0.5000000 -0.0000000     0.5000000  0.5000000 -0.0000000
                       0.5000000  0.5000000  0.0000000     0.5000000  0.5000000 -0.0000000
                      -0.0000000 -0.0000000 -0.0000000     0.0000000  0.0000000 -0.0000000
                       0.5000000  0.5000000 -0.0000000     0.5000000  0.5000000  0.0000000
                      -0.0000000 -0.0000000 -0.0000000     0.0000000  0.0000000 -0.0000000
           tolwfr      1.00000000E-20
            typat      1  1  2  2  2  2  3  3  3  3
           useylm           1
              wtk        0.50000    0.50000
           xangst      2.2952053130E+00  3.3534841458E+00 -3.8147971809E+00
                       7.6506843768E-01  1.1178280486E+00 -1.2715990603E+00
                       3.5402821673E+00  1.6685193298E+00 -1.8323314959E+00
                       1.5696737905E+00  5.6713676743E-01  1.4429621078E+00
                      -4.8000841662E-01  2.8027928646E+00  2.1750575910E+00
                       1.4905999602E+00  3.9041754270E+00 -1.1002360128E+00
                       2.8296647828E+00  2.9876872130E+00 -1.1002360128E+00
                       1.4725818927E-01  3.7192810786E+00 -2.0710046434E+00
                       2.9130155614E+00  7.5203111581E-01  2.4137307385E+00
                       2.3060896786E-01  1.4836249814E+00  1.4429621078E+00
            xcart      4.3373094604E+00  6.3371666266E+00 -7.2089219244E+00
                       1.4457698201E+00  2.1123888755E+00 -2.4029739748E+00
                       6.6901637294E+00  3.1530445807E+00 -3.4626047120E+00
                       2.9662535820E+00  1.0717331703E+00  2.7268032040E+00
                      -9.0708444889E-01  5.2965109214E+00  4.1102631703E+00
                       2.8168256985E+00  7.3778223318E+00 -2.0791447456E+00
                       5.3472914875E+00  5.6459106033E+00 -2.0791447456E+00
                       2.7827764854E-01  7.0284226498E+00 -3.9136315959E+00
                       5.5048016320E+00  1.4211328523E+00  4.5612900542E+00
                       4.3578779304E-01  2.8036448988E+00  2.7268032040E+00
             xred      7.5000000000E-01  7.5000000000E-01 -2.7755575616E-17
                       2.5000000000E-01  2.5000000000E-01 -2.7755575616E-17
                       8.7316100000E-01  3.7316100000E-01  2.4632200000E-01
                       3.7316100000E-01  1.2683900000E-01  5.0000000000E-01
                       1.2683900000E-01  6.2683900000E-01  7.5367800000E-01
                       6.2683900000E-01  8.7316100000E-01  5.0000000000E-01
                       8.3180975000E-01  6.6819025000E-01  5.0000000000E-01
                       3.3180975000E-01  8.3180975000E-01  1.6361950000E-01
                       6.6819025000E-01  1.6819025000E-01  8.3638050000E-01
                       1.6819025000E-01  3.3180975000E-01  5.0000000000E-01
            znucl       38.00000    4.00000    7.00000

- Timing analysis has been suppressed with timopt=0

 Suggested references for the acknowledgment of ABINIT usage.

 Calculation completed.
.Delivered   2 WARNINGs and   5 COMMENTs to log file.