.Version 9.5.1 of ABINIT

 ABINIT is a project of the Universite Catholique de Louvain,
 Corning Inc. and other collaborators, see ~abinit/doc/developers/contributors.txt .
 acknowledgments of the ABINIT effort.

.Starting date : Wed 19 May 2021.
- ( at 01h20 )

- input  file    -> /scratch/users/j/a/jabreu/flow_simple_8atoms/flow/w424/t1/run.abi
- output file    -> /scratch/users/j/a/jabreu/flow_simple_8atoms/flow/w424/t1/run.abo
- root for input  files -> /scratch/users/j/a/jabreu/flow_simple_8atoms/flow/w424/t1/indata/in
- root for output files -> /scratch/users/j/a/jabreu/flow_simple_8atoms/flow/w424/t1/outdata/out

 Symmetries : space group I-4 2 d (#122); Bravais tI (body-center tetrag.)
     intxc =       0      iscf =       7    lmnmax =      18     lnmax =       6
     mgfft =      72  mpssoang =       3    mqgrid =    3001     natom =       8
  nloc_mem =       1    nspden =       1   nspinor =       1    nsppol =       1
      nsym =       8    n1xccc =    2501    ntypat =       3    occopt =       1
   xclevel =       2
-    mband =          27        mffmem =           1         mkmem =           1
-   mkqmem =           1        mk1mem =           1           mpw =       12465
      nfft =      373248          nkpt =           1
  Rough estimation (10% accuracy) of disk space for files :

------------- Echo of variables that govern the present computation ------------
-
- outvars: echo of selected default values
-   iomode0 =  0 , fftalg0 =512 , wfoptalg0 =  0
-
- outvars: echo of global parameters not present in the input file
-  max_nthreads =    0
-
 -outvars: echo values of preprocessed input variables --------
            acell      1.0000000000E+00  1.0000000000E+00  1.0000000000E+00 Bohr
              amu      9.01218200E+00  2.80855000E+01  3.09737620E+01
             ecut      4.40000000E+01 Hartree
-          fftalg         512
           irdden           1
           irdwfk           1
           istwfk        1
              ixc     -116133
           kptopt           0
P           mkmem           1
P          mkqmem           1
P          mk1mem           1
            natom           8
            nband          27
           nbdbuf           4
            ngfft          72      72      72
             nkpt           1
            nstep        2000
             nsym           8
           ntypat           3
              occ      2.000000  2.000000  2.000000  2.000000  2.000000  2.000000
                       2.000000  2.000000  2.000000  2.000000  2.000000  2.000000
                       2.000000  2.000000  2.000000  2.000000  2.000000  2.000000
                       0.000000  0.000000  0.000000  0.000000  0.000000  0.000000
                       0.000000  0.000000  0.000000
        optdriver           1
            prtwf          -1
            rfdir           1       1       1
           rfelfd           2
            rprim      8.7834239792E+00  0.0000000000E+00 -7.8344303328E+00
                      -1.7631712727E+00  8.6046361841E+00 -7.8344303328E+00
                       0.0000000000E+00  0.0000000000E+00  1.1769742369E+01
          spgroup         122
           symrel      1  0  0   0  1  0   0  0  1      -1 -1 -1   0  0  1   0  1  0
                       0  1  0   1  0  0  -1 -1 -1       0  0  1  -1 -1 -1   1  0  0
                       0  1  0   1  0  0   0  0  1      -1 -1 -1   0  0  1   1  0  0
                       1  0  0   0  1  0  -1 -1 -1       0  0  1  -1 -1 -1   0  1  0
            tnons      0.0000000  0.0000000  0.0000000    -0.2500000  0.2500000  0.5000000
                       0.0000000 -0.0000000 -0.0000000    -0.2500000  0.2500000  0.5000000
                      -0.2500000  0.2500000  0.5000000     0.0000000  0.0000000  0.0000000
                      -0.2500000  0.2500000  0.5000000     0.0000000 -0.0000000 -0.0000000
           tolwfr      1.00000000E-20
            typat      1  1  2  2  3  3  3  3
           useylm           1
           xangst      3.2527333243E+00  1.1383443392E+00 -1.0316622680E+00
                       0.0000000000E+00  0.0000000000E+00  0.0000000000E+00
                       4.6222440653E-01  3.4150330176E+00 -1.0316622680E+00
                       1.8574788654E+00  2.2766886784E+00 -4.1458019744E+00
                       2.8632612831E+00  5.6917216960E-01 -3.0757944394E+00
                       1.4081439953E+00  1.6341433861E+00 -2.8768815866E-02
                       3.2355531682E+00  4.0575783100E+00 -4.1074567074E+00
                      -7.7042984962E-02  2.8458608480E+00  3.0853708905E+00
            xcart      6.1467751662E+00  2.1511590460E+00 -1.9495591482E+00
                       0.0000000000E+00  0.0000000000E+00  0.0000000000E+00
                       8.7347754028E-01  6.4534771381E+00 -1.9495591482E+00
                       3.5101263532E+00  4.3023180920E+00 -7.8344303328E+00
                       5.4107796719E+00  1.0755795230E+00 -5.8124091314E+00
                       2.6610065068E+00  3.0880834616E+00 -5.4365183155E-02
                       6.1143093763E+00  7.6677117686E+00 -7.7619682796E+00
                      -1.4559014204E-01  5.3778976151E+00  5.8305060014E+00
             xred      7.5000000000E-01  2.5000000000E-01  5.0000000000E-01
                       0.0000000000E+00  0.0000000000E+00  0.0000000000E+00
                       2.5000000000E-01  7.5000000000E-01  5.0000000000E-01
                       5.0000000000E-01  5.0000000000E-01 -5.5511151231E-17
                       6.4111400000E-01  1.2500000000E-01  1.6114000000E-02
                       3.7500000000E-01  3.5888600000E-01  4.8388600000E-01
                       8.7500000000E-01  8.9111400000E-01  5.1611400000E-01
                       1.0888600000E-01  6.2500000000E-01  9.8388600000E-01
            znucl        4.00000   14.00000   15.00000

 chkinp: Checking input parameters for consistency.

== DATASET  1 ==================================================================
-   mpi_nproc: 1, omp_nthreads: -1 (-1 if OMP is not activated)

--- !DatasetInfo
iteration_state: {dtset: 1, }
dimensions: {natom: 8, nkpt: 1, mband: 27, nsppol: 1, nspinor: 1, nspden: 1, mpw: 12465, }
cutoff_energies: {ecut:  44.0, pawecutdg:  -1.0, }
electrons: {nelect:   3.60000000E+01, charge:   0.00000000E+00, occopt:   1.00000000E+00, tsmear:   1.00000000E-02, }
meta: {optdriver: 1, rfelfd: 2, }
...

 Real(R)+Recip(G) space primitive vectors, cartesian coordinates (Bohr,Bohr^-1):
 R(1)=  8.7834240  0.0000000 -7.8344303  G(1)=  0.1138508  0.0233291  0.0000000
 R(2)= -1.7631713  8.6046362 -7.8344303  G(2)=  0.0000000  0.1162164  0.0000000
 R(3)=  0.0000000  0.0000000 11.7697424  G(3)=  0.0757838  0.0928873  0.0849636
 Unit cell volume ucvol=  8.8953556E+02 bohr^3
 Angles (23,13,12)=  1.31731567E+02  1.31731567E+02  7.06533190E+01 degrees

 getcut: wavevector=  0.0000  0.0000  0.0000  ngfft=  72  72  72
         ecut(hartree)=     44.000   => boxcut(ratio)=   2.04868

--- Pseudopotential description ------------------------------------------------
- pspini: atom type   1  psp file is /scratch/users/j/a/jabreu/pseudos/PBEsol/Be.psp8
- pspatm: opening atomic psp file    /scratch/users/j/a/jabreu/pseudos/PBEsol/Be.psp8
- Be    ONCVPSP-3.3.0  r_core=   1.35684   1.10780
-  4.00000   4.00000    180112                znucl, zion, pspdat
    8 -116133    1    4       400   0.00000   pspcod,pspxc,lmax,lloc,mmax,r2well
    3.99000000000000    0.00000000000000    0.00000000000000   rchrg,fchrg,qchrg
     nproj     2     2
     extension_switch     1
  pspatm : epsatm=    3.86293307
         --- l  ekb(1:nproj) -->
             0   -7.966826   -2.672546
             1   -3.431835   -0.651830
 pspatm: atomic psp has been read  and splines computed

- pspini: atom type   2  psp file is /scratch/users/j/a/jabreu/pseudos/PBEsol/Si.psp8
- pspatm: opening atomic psp file    /scratch/users/j/a/jabreu/pseudos/PBEsol/Si.psp8
- Si    ONCVPSP-3.3.0  r_core=   1.60303   1.72197   1.91712
- 14.00000   4.00000    180112                znucl, zion, pspdat
    8 -116133    2    4       600   0.00000   pspcod,pspxc,lmax,lloc,mmax,r2well
    5.99000000000000    4.00000000000000    0.00000000000000   rchrg,fchrg,qchrg
     nproj     2     2     2
     extension_switch     1
  pspatm : epsatm=    7.86468782
         --- l  ekb(1:nproj) -->
             0    5.384426    0.843824
             1    2.663259    0.615854
             2   -2.267219   -0.458043
 pspatm: atomic psp has been read  and splines computed

- pspini: atom type   3  psp file is /scratch/users/j/a/jabreu/pseudos/PBEsol/P.psp8
- pspatm: opening atomic psp file    /scratch/users/j/a/jabreu/pseudos/PBEsol/P.psp8
- P     ONCVPSP-3.3.0  r_core=   1.46089   1.55067   1.70594
- 15.00000   5.00000    180112                znucl, zion, pspdat
    8 -116133    2    4       600   0.00000   pspcod,pspxc,lmax,lloc,mmax,r2well
    5.99000000000000    5.00000000000000    0.00000000000000   rchrg,fchrg,qchrg
     nproj     2     2     2
     extension_switch     1
  pspatm : epsatm=    7.31221086
         --- l  ekb(1:nproj) -->
             0    6.742364    1.063650
             1    3.449117    0.910422
             2   -3.077645   -0.799176
 pspatm: atomic psp has been read  and splines computed

   1.89734707E+03                                ecore*ucvol(ha*bohr**3)

-inwffil : will read wavefunctions from disk file /scratch/users/j/a/jabreu/flow_simple_8atoms/flow/w424/t1/indata/in_WFK

 ==>  initialize data related to q vector <==

 The list of irreducible perturbations for this q vector is:
    1)    idir= 1    ipert=   9
    2)    idir= 2    ipert=   9
    3)    idir= 3    ipert=   9

 Perturbation wavevector (in red.coord.)   0.000000  0.000000  0.000000
 Perturbation : derivative vs k along direction   1

 dfpt_looppert : COMMENT -
  In a d/dk calculation, iscf is set to -3 automatically.
 The set of symmetries contains only one element for this perturbation.
 symkpt : not enough symmetry to change the number of k points.

[...]

 Initialisation of the first-order wave-functions :
  ireadwf=   0

--- !BeginCycle
iteration_state: {dtset: 1, }
solver: {iscf: 7, nstep: 2000, nline: 4, wfoptalg: 0, }
tolerances: {tolwfr: 1.00E-20, }
...

     iter   2DEtotal(Ha)        deltaE(Ha) residm    vres2
-ETOT  1  -27.095775506549     -2.710E+01 3.350E-02 0.000E+00
 ETOT  2  -27.104869467816     -9.094E-03 1.224E-03 0.000E+00
 ETOT  3  -27.104895996984     -2.653E-05 2.073E-05 0.000E+00
 ETOT  4  -27.104896152263     -1.553E-07 1.940E-06 0.000E+00
 ETOT  5  -27.104896153389     -1.126E-09 4.718E-08 0.000E+00
 ETOT  6  -27.104896153398     -9.280E-12 4.915E-09 0.000E+00
 ETOT  7  -27.104896153399     -1.350E-13 1.311E-10 0.000E+00
 ETOT  8  -27.104896153399      8.171E-14 1.342E-11 0.000E+00
 ETOT  9  -27.104896153399     -7.105E-15 3.860E-13 0.000E+00
 ETOT 10  -27.104896153399     -6.395E-14 3.817E-14 0.000E+00
 ETOT 11  -27.104896153399     -2.132E-14 1.161E-15 0.000E+00
 ETOT 12  -27.104896153399      3.553E-15 1.119E-16 0.000E+00
 ETOT 13  -27.104896153399      3.553E-15 3.505E-18 0.000E+00
 ETOT 14  -27.104896153399     -3.553E-15 3.338E-19 0.000E+00
 ETOT 15  -27.104896153399     -3.553E-15 1.059E-20 0.000E+00
 ETOT 16  -27.104896153399     -3.553E-15 8.176E-21 0.000E+00

 At SCF step   16   max residual=  8.18E-21 < tolwfr=  1.00E-20 =>converged.

 ----iterations are completed or convergence reached----

 dfpt_looppert: DFPT cycle converged with prtwf=-1. Will skip output of the 1st-order WFK file.
 dfpt_looppert : ek2=    3.8390804066E+01
          f-sum rule ratio=    1.4619262470E+00
 prteigrs : about to open file /scratch/users/j/a/jabreu/flow_simple_8atoms/flow/w424/t1/tmpdata/tmp_1WF1_EIG
 Expectation of eigenvalue derivatives (hartree) for nkpt=   1  k points:
  (in case of degenerate eigenvalues, averaged derivative)
 kpt#   1, nband= 27, wtk=  1.00000, kpt=  0.0000  0.0000  0.0000 (reduced coord)
  -0.00000   -0.00000   -0.00000   -0.00000   -0.00000   -0.00000   -0.00000   -0.00000
   0.00000   -0.00000    0.00000    0.00000    0.00000   -0.00000   -0.00000    0.00000
   0.00000   -0.00000    0.00000    0.00000    0.00000    0.00000   -0.00000    0.00000
  -0.00000   -0.00000    0.00002

 Eight components of 2nd-order total energy (hartree) are
 1,2,3: 0th-order hamiltonian combined with 1st-order wavefunctions
     kin0=   1.52877374E+01 eigvalue=  -9.78477280E-02  local=  -7.13761684E+00
 4,5,6: 1st-order hamiltonian combined with 1st and 0th-order wfs
     kin1=  -5.61245241E+01  Hartree=   0.00000000E+00     xc=   0.00000000E+00
 7,8,9: eventually, occupation + non-local contributions
    edocc=   1.89351325E+01     enl0=   1.17490824E-01   enl1=   1.91473180E+00
 1-9 gives the relaxation energy (to be shifted if some occ is /=2.0)
   erelax=  -2.71048962E+01
  No Ewald or frozen-wf contrib.: the relaxation energy is the total one
 2DEtotal=   -0.2710489615E+02 Ha. Also 2DEtotal=   -0.737561733716E+03 eV
    (  non-var. 2DEtotal :   -2.7104896153E+01 Ha)

 Perturbation wavevector (in red.coord.)   0.000000  0.000000  0.000000
 Perturbation : derivative vs k along direction   2
 The set of symmetries contains only one element for this perturbation.
 symkpt : not enough symmetry to change the number of k points.

[...]

 Perturbation wavevector (in red.coord.)   0.000000  0.000000  0.000000
 Perturbation : derivative vs k along direction   3
 The set of symmetries contains only one element for this perturbation.
 symkpt : not enough symmetry to change the number of k points.

-inwffil : will read wavefunctions from disk file /scratch/users/j/a/jabreu/flow_simple_8atoms/flow/w424/t1/indata/in_WFK

 Initialisation of the first-order wave-functions :
  ireadwf=   0

--- !BeginCycle
iteration_state: {dtset: 1, }
solver: {iscf: 7, nstep: 2000, nline: 4, wfoptalg: 0, }
tolerances: {tolwfr: 1.00E-20, }
...

     iter   2DEtotal(Ha)        deltaE(Ha) residm    vres2
-ETOT  1  -45.320463312660     -4.532E+01 5.374E-02 0.000E+00
 ETOT  2  -45.333494258626     -1.303E-02 3.796E-03 0.000E+00
 ETOT  3  -45.333519444718     -2.519E-05 2.723E-05 0.000E+00
 ETOT  4  -45.333519537565     -9.285E-08 3.054E-06 0.000E+00
 ETOT  5  -45.333519538015     -4.504E-10 3.194E-08 0.000E+00
 ETOT  6  -45.333519538018     -2.764E-12 4.335E-09 0.000E+00
 ETOT  7  -45.333519538018     -2.132E-14 4.993E-11 0.000E+00
 ETOT  8  -45.333519538018     -1.990E-13 6.607E-12 0.000E+00
 ETOT  9  -45.333519538018      1.492E-13 7.733E-14 0.000E+00
 ETOT 10  -45.333519538018      4.263E-14 1.032E-14 0.000E+00
 ETOT 11  -45.333519538018     -7.105E-15 1.233E-16 0.000E+00
 ETOT 12  -45.333519538018      1.421E-14 1.633E-17 0.000E+00
 ETOT 13  -45.333519538018     -1.421E-14 1.982E-19 0.000E+00
 ETOT 14  -45.333519538018      0.000E+00 2.613E-20 0.000E+00
 ETOT 15  -45.333519538018      7.105E-15 9.838E-21 0.000E+00

 At SCF step   15   max residual=  9.84E-21 < tolwfr=  1.00E-20 =>converged.

 ----iterations are completed or convergence reached----

 dfpt_looppert: DFPT cycle converged with prtwf=-1. Will skip output of the 1st-order WFK file.
 dfpt_looppert : ek2=    6.1368584019E+01
          f-sum rule ratio=    1.5301319175E+00
 prteigrs : about to open file /scratch/users/j/a/jabreu/flow_simple_8atoms/flow/w424/t1/tmpdata/tmp_1WF1_EIG
 Expectation of eigenvalue derivatives (hartree) for nkpt=   1  k points:
  (in case of degenerate eigenvalues, averaged derivative)
 kpt#   1, nband= 27, wtk=  1.00000, kpt=  0.0000  0.0000  0.0000 (reduced coord)
  -0.00000   -0.00000    0.00000   -0.00000    0.00000    0.00000   -0.00000   -0.00000
   0.00000    0.00000   -0.00000   -0.00000   -0.00000   -0.00000   -0.00000    0.00000
   0.00000   -0.00000    0.00000    0.00000    0.00000    0.00000   -0.00000   -0.00000
  -0.00000   -0.00000   -0.00001

 Eight components of 2nd-order total energy (hartree) are
 1,2,3: 0th-order hamiltonian combined with 1st-order wavefunctions
     kin0=   2.38005709E+01 eigvalue=  -1.67891992E-01  local=  -1.09943208E+01
 4,5,6: 1st-order hamiltonian combined with 1st and 0th-order wfs
     kin1=  -9.39020291E+01  Hartree=   0.00000000E+00     xc=   0.00000000E+00
 7,8,9: eventually, occupation + non-local contributions
    edocc=   3.26391852E+01     enl0=   5.59763425E-02   enl1=   3.23499006E+00
 1-9 gives the relaxation energy (to be shifted if some occ is /=2.0)
   erelax=  -4.53335195E+01
  No Ewald or frozen-wf contrib.: the relaxation energy is the total one
 2DEtotal=   -0.4533351954E+02 Ha. Also 2DEtotal=   -0.123358780187E+04 eV
    (  non-var. 2DEtotal :   -4.5333519538E+01 Ha)

 CALCULATION OF EFFECTIVE MASSES
 NOTE : Additional infos (eff. mass eigenvalues, eigenvectors and, if degenerate, average mass) are available in stdout.

 K-point ( 0.000, 0.000, 0.000) | band =    18
 Effective mass tensor:
             -0.3304635009              0.0185162599             -0.0337177309
              0.0185162599             -0.3228752174             -0.0413273698
             -0.0337177309             -0.0413273698             -0.2703140241
 Effective mass tensor eigenvalues:
             -0.3455703484             -0.3455703389             -0.2325120552
 Angular average effective mass 1/(<1/m>)=  -0.2973716527
 Angular average effective mass for Frohlich model (<m**0.5>)**2=  -0.3006956666
 Effective masses along directions: (cart. coord. / red. coord. -> eff. mass)
    1:   1.000000  0.000000  0.000000 /   0.980441 -0.196812  0.000000 ->  -0.3244876354
    2:   0.000000  1.000000  0.000000 /   0.000000  1.000000  0.000000 ->  -0.3148393801
    3:   0.000000  0.000000  1.000000 /  -0.484676 -0.484676  0.728134 ->  -0.2610705892
    4:   0.577350  0.577350  0.577350 /   0.080086 -0.083797  0.993259 ->  -0.3455700452
    5:   0.000000  0.707107  0.707107 /  -0.553289  0.054394  0.831212 ->  -0.3345650170
    6:   0.707107  0.000000  0.707107 /   0.062366 -0.630737  0.773486 ->  -0.3293328119
    7:   0.707107  0.707107  0.000000 /   0.788921  0.614495  0.000000 ->  -0.2976678383

 K-point ( 0.000, 0.000, 0.000) | band =    19
 Effective mass tensor:
              0.3561830210              0.1592922728             -0.2900678648
              0.1592922728              0.4214640043             -0.3555325632
             -0.2900678648             -0.3555325632              0.8736387432
 Effective mass tensor eigenvalues:
              0.2262214528              0.2262214531              1.1988428626
 Angular average effective mass 1/(<1/m>)=   0.3100764880
 Angular average effective mass for Frohlich model (<m**0.5>)**2=   0.3506675903
 Effective masses along directions: (cart. coord. / red. coord. -> eff. mass)
    1:   1.000000  0.000000  0.000000 /   0.980441 -0.196812  0.000000 ->   0.2537269345
    2:   0.000000  1.000000  0.000000 /   0.000000  1.000000  0.000000 ->   0.2702310583
    3:   0.000000  0.000000  1.000000 /  -0.484676 -0.484676  0.728134 ->   0.4918233538
    4:   0.577350  0.577350  0.577350 /   0.080086 -0.083797  0.993259 ->   0.2262217738
    5:   0.000000  0.707107  0.707107 /  -0.553289  0.054394  0.831212 ->   0.2393584133
    6:   0.707107  0.000000  0.707107 /   0.062366 -0.630737  0.773486 ->   0.2464994767
    7:   0.707107  0.707107  0.000000 /   0.788921  0.614495  0.000000 ->   0.3092587136

 END OF EFFECTIVE MASSES SECTION

 ---- first-order wavefunction calculations are completed ----

 Total localisation tensor (bohr^2) in cartesian coordinates
  WARNING : still subject to testing - especially symmetries.
      direction              matrix element
   alpha     beta       real part   imaginary part
     1        1       4.0471184473    0.0000000000
     1        2      -0.7650477287    0.0000000000
     1        3      -2.7734569288    0.0000000000
     2        1      -0.7650477287    0.0000000000
     2        2       3.7335892835    0.0000000000
     2        3      -3.3993935952    0.0000000000
     3        1      -2.7734569288    0.0000000000
     3        2      -3.3993935952    0.0000000000
     3        3      18.0319769178    0.0000000000

 respfn : d/dk was computed, but no 2DTE, so no DDB output.

== END DATASET(S) ==============================================================

 -outvars: echo values of variables after computation  --------
            acell      1.0000000000E+00  1.0000000000E+00  1.0000000000E+00 Bohr
              amu      9.01218200E+00  2.80855000E+01  3.09737620E+01
             ecut      4.40000000E+01 Hartree
           etotal     -4.5333519538E+01
            fcart      0.0000000000E+00  0.0000000000E+00  0.0000000000E+00
                       0.0000000000E+00  0.0000000000E+00  0.0000000000E+00
                       0.0000000000E+00  0.0000000000E+00  0.0000000000E+00
                       0.0000000000E+00  0.0000000000E+00  0.0000000000E+00
                       0.0000000000E+00  0.0000000000E+00  0.0000000000E+00
                       0.0000000000E+00  0.0000000000E+00  0.0000000000E+00
                       0.0000000000E+00  0.0000000000E+00  0.0000000000E+00
                       0.0000000000E+00  0.0000000000E+00  0.0000000000E+00
-          fftalg         512
           irdden           1
           irdwfk           1
           istwfk        1
              ixc     -116133
           kptopt           0
P           mkmem           1
P          mkqmem           1
P          mk1mem           1
            natom           8
            nband          27
           nbdbuf           4
            ngfft          72      72      72
             nkpt           1
            nstep        2000
             nsym           8
           ntypat           3
              occ      2.000000  2.000000  2.000000  2.000000  2.000000  2.000000
                       2.000000  2.000000  2.000000  2.000000  2.000000  2.000000
                       2.000000  2.000000  2.000000  2.000000  2.000000  2.000000
                       0.000000  0.000000  0.000000  0.000000  0.000000  0.000000
                       0.000000  0.000000  0.000000
        optdriver           1
            prtwf          -1
            rfdir           1       1       1
           rfelfd           2
            rprim      8.7834239792E+00  0.0000000000E+00 -7.8344303328E+00
                      -1.7631712727E+00  8.6046361841E+00 -7.8344303328E+00
                       0.0000000000E+00  0.0000000000E+00  1.1769742369E+01
          spgroup         122
           strten      0.0000000000E+00  0.0000000000E+00  0.0000000000E+00
                       0.0000000000E+00  0.0000000000E+00  0.0000000000E+00
           symrel      1  0  0   0  1  0   0  0  1      -1 -1 -1   0  0  1   0  1  0
                       0  1  0   1  0  0  -1 -1 -1       0  0  1  -1 -1 -1   1  0  0
                       0  1  0   1  0  0   0  0  1      -1 -1 -1   0  0  1   1  0  0
                       1  0  0   0  1  0  -1 -1 -1       0  0  1  -1 -1 -1   0  1  0
            tnons      0.0000000  0.0000000  0.0000000    -0.2500000  0.2500000  0.5000000
                       0.0000000 -0.0000000 -0.0000000    -0.2500000  0.2500000  0.5000000
                      -0.2500000  0.2500000  0.5000000     0.0000000  0.0000000  0.0000000
                      -0.2500000  0.2500000  0.5000000     0.0000000 -0.0000000 -0.0000000
           tolwfr      1.00000000E-20
            typat      1  1  2  2  3  3  3  3
           useylm           1
           xangst      3.2527333243E+00  1.1383443392E+00 -1.0316622680E+00
                       0.0000000000E+00  0.0000000000E+00  0.0000000000E+00
                       4.6222440653E-01  3.4150330176E+00 -1.0316622680E+00
                       1.8574788654E+00  2.2766886784E+00 -4.1458019744E+00
                       2.8632612831E+00  5.6917216960E-01 -3.0757944394E+00
                       1.4081439953E+00  1.6341433861E+00 -2.8768815866E-02
                       3.2355531682E+00  4.0575783100E+00 -4.1074567074E+00
                      -7.7042984962E-02  2.8458608480E+00  3.0853708905E+00
            xcart      6.1467751662E+00  2.1511590460E+00 -1.9495591482E+00
                       0.0000000000E+00  0.0000000000E+00  0.0000000000E+00
                       8.7347754028E-01  6.4534771381E+00 -1.9495591482E+00
                       3.5101263532E+00  4.3023180920E+00 -7.8344303328E+00
                       5.4107796719E+00  1.0755795230E+00 -5.8124091314E+00
                       2.6610065068E+00  3.0880834616E+00 -5.4365183155E-02
                       6.1143093763E+00  7.6677117686E+00 -7.7619682796E+00
                      -1.4559014204E-01  5.3778976151E+00  5.8305060014E+00
             xred      7.5000000000E-01  2.5000000000E-01  5.0000000000E-01
                       0.0000000000E+00  0.0000000000E+00  0.0000000000E+00
                       2.5000000000E-01  7.5000000000E-01  5.0000000000E-01
                       5.0000000000E-01  5.0000000000E-01 -5.5511151231E-17
                       6.4111400000E-01  1.2500000000E-01  1.6114000000E-02
                       3.7500000000E-01  3.5888600000E-01  4.8388600000E-01
                       8.7500000000E-01  8.9111400000E-01  5.1611400000E-01
                       1.0888600000E-01  6.2500000000E-01  9.8388600000E-01
            znucl        4.00000   14.00000   15.00000

- Timing analysis has been suppressed with timopt=0

 Suggested references for the acknowledgment of ABINIT usage.

 Calculation completed.
.Delivered   6 WARNINGs and   5 COMMENTs to log file.