.Version 9.5.2 of ABINIT

 ABINIT is a project of the Universite Catholique de Louvain,
 Corning Inc. and other collaborators, see ~abinit/doc/developers/contributors.txt .
 acknowledgments of the ABINIT effort.

.Starting date : Mon 24 May 2021.
- ( at 22h49 )

- input  file    -> /scratch/users/j/a/jabreu/flow_simple_10atoms/flow/w435/t1/run.abi
- output file    -> /scratch/users/j/a/jabreu/flow_simple_10atoms/flow/w435/t1/run.abo
- root for input  files -> /scratch/users/j/a/jabreu/flow_simple_10atoms/flow/w435/t1/indata/in
- root for output files -> /scratch/users/j/a/jabreu/flow_simple_10atoms/flow/w435/t1/outdata/out

 Symmetries : space group R-3 c (#167); Bravais hR (rhombohedral)
     intxc =       0      iscf =       7    lmnmax =      18     lnmax =       6
     mgfft =      60  mpssoang =       3    mqgrid =    3001     natom =      10
  nloc_mem =       1    nspden =       1   nspinor =       1    nsppol =       1
      nsym =      12    n1xccc =    2501    ntypat =       2    occopt =       1
   xclevel =       2
-    mband =          33        mffmem =           1         mkmem =           1
-   mkqmem =           1        mk1mem =           1           mpw =        8053
      nfft =      216000          nkpt =           1
  Rough estimation (10% accuracy) of disk space for files :

------------- Echo of variables that govern the present computation ------------
-
- outvars: echo of selected default values
-   iomode0 =  0 , fftalg0 =512 , wfoptalg0 =  0
-
- outvars: echo of global parameters not present in the input file
-  max_nthreads =    0
-
 -outvars: echo values of preprocessed input variables --------
            acell      1.0000000000E+00  1.0000000000E+00  1.0000000000E+00 Bohr
              amu      2.69815390E+01  1.59994000E+01
             ecut      4.40000000E+01 Hartree
-          fftalg         512
           irdden           1
           irdwfk           1
           istwfk        1
              ixc     -116133
           kptopt           0
P           mkmem           1
P          mkqmem           1
P          mk1mem           1
            natom          10
            nband          33
           nbdbuf           4
            ngfft          60      60      60
             nkpt           1
            nstep        2000
             nsym          12
           ntypat           2
              occ      2.000000  2.000000  2.000000  2.000000  2.000000  2.000000
                       2.000000  2.000000  2.000000  2.000000  2.000000  2.000000
                       2.000000  2.000000  2.000000  2.000000  2.000000  2.000000
                       2.000000  2.000000  2.000000  2.000000  2.000000  2.000000
                       0.000000  0.000000  0.000000  0.000000  0.000000  0.000000
                       0.000000  0.000000  0.000000
        optdriver           1
            prtwf          -1
            rfdir           1       1       1
           rfelfd           2
            rprim      7.9799110107E+00  0.0000000000E+00  5.5156270509E+00
                       2.8925889608E+00  7.4371976472E+00  5.5156270509E+00
                       0.0000000000E+00  0.0000000000E+00  9.7005732564E+00
          spgroup         167
           symrel      1  0  0   0  1  0   0  0  1      -1  0  0   0 -1  0   0  0 -1
                       0  1  0   1  0  0   0  0  1       0 -1  0  -1  0  0   0  0 -1
                       0  0  1   1  0  0   0  1  0       0  0 -1  -1  0  0   0 -1  0
                       1  0  0   0  0  1   0  1  0      -1  0  0   0  0 -1   0 -1  0
                       0  1  0   0  0  1   1  0  0       0 -1  0   0  0 -1  -1  0  0
                       0  0  1   0  1  0   1  0  0       0  0 -1   0 -1  0  -1  0  0
            tnons      0.0000000  0.0000000  0.0000000    -0.0000000  0.0000000  0.0000000
                       0.5000000  0.5000000  0.5000000     0.5000000  0.5000000  0.5000000
                      -0.0000000 -0.0000000  0.0000000     0.0000000  0.0000000  0.0000000
                       0.5000000  0.5000000  0.5000000     0.5000000  0.5000000  0.5000000
                      -0.0000000  0.0000000  0.0000000     0.0000000 -0.0000000  0.0000000
                       0.5000000  0.5000000  0.5000000     0.5000000  0.5000000  0.5000000
           tolwfr      1.00000000E-20
            typat      1  1  1  1  2  2  2  2  2  2
           useylm           1
           xangst      3.7283753351E+00  2.5503485255E+00  7.1093156107E+00
                       4.9018434428E+00  3.3530447106E+00  9.3469001849E+00
                       8.5163574249E-01  5.8255078013E-01  1.6239103455E+00
                       2.0251038502E+00  1.3852469652E+00  3.8614949197E+00
                       3.8471691447E+00  1.7485653985E+00  3.7717932339E+00
                       3.7920488140E+00  3.7163631439E+00  5.6614467590E+00
                       1.9614303713E+00  2.1923234681E-01  5.3093637714E+00
                       1.3832494656E+00  2.9516966180E+00  4.6323561577E+00
                       4.3702297197E+00  9.8389887267E-01  6.3384543727E+00
                       1.9063100406E+00  2.1870300921E+00  7.1990172965E+00
            xcart      7.0456083040E+00  4.8194602565E+00  1.3434659496E+01
                       9.2631416532E+00  6.3363362143E+00  1.7663081541E+01
                       1.6093583183E+00  1.1008614329E+00  3.0687458174E+00
                       3.8268916675E+00  2.6177373907E+00  7.2971678617E+00
                       7.2700960704E+00  3.3043097287E+00  7.1276562420E+00
                       7.1659337409E+00  7.0229085523E+00  1.0698583890E+01
                       3.7065662306E+00  4.1428909494E-01  1.0033243468E+01
                       2.6139626635E+00  5.5778982354E+00  8.7538844880E+00
                       8.2585373080E+00  1.8592994118E+00  1.1977942870E+01
                       3.6024039011E+00  4.1328879185E+00  1.3604171116E+01
             xred      6.4802100000E-01  6.4802100000E-01  6.4802100000E-01
                       8.5197900000E-01  8.5197900000E-01  8.5197900000E-01
                       1.4802100000E-01  1.4802100000E-01  1.4802100000E-01
                       3.5197900000E-01  3.5197900000E-01  3.5197900000E-01
                       7.5000000000E-01  4.4429500000E-01  5.5705000000E-02
                       5.5570500000E-01  9.4429500000E-01  2.5000000000E-01
                       4.4429500000E-01  5.5705000000E-02  7.5000000000E-01
                       5.5705000000E-02  7.5000000000E-01  4.4429500000E-01
                       9.4429500000E-01  2.5000000000E-01  5.5570500000E-01
                       2.5000000000E-01  5.5570500000E-01  9.4429500000E-01
            znucl       13.00000    8.00000

 chkinp: Checking input parameters for consistency.

== DATASET  1 ==================================================================
-   mpi_nproc: 1, omp_nthreads: -1 (-1 if OMP is not activated)

--- !DatasetInfo
iteration_state: {dtset: 1, }
dimensions: {natom: 10, nkpt: 1, mband: 33, nsppol: 1, nspinor: 1, nspden: 1, mpw: 8053, }
cutoff_energies: {ecut:  44.0, pawecutdg:  -1.0, }
electrons: {nelect:   4.80000000E+01, charge:   0.00000000E+00, occopt:   1.00000000E+00, tsmear:   1.00000000E-02, }
meta: {optdriver: 1, rfelfd: 2, }
...

 Real(R)+Recip(G) space primitive vectors, cartesian coordinates (Bohr,Bohr^-1):
 R(1)=  7.9799110  0.0000000  5.5156271  G(1)=  0.1253147 -0.0487393  0.0000000
 R(2)=  2.8925890  7.4371976  5.5156271  G(2)=  0.0000000  0.1344592  0.0000000
 R(3)=  0.0000000  0.0000000  9.7005733  G(3)= -0.0712524 -0.0487393  0.1030867
 Unit cell volume ucvol=  5.7571132E+02 bohr^3
 Angles (23,13,12)=  5.53481966E+01  5.53481966E+01  5.53481966E+01 degrees

 getcut: wavevector=  0.0000  0.0000  0.0000  ngfft=  60  60  60
         ecut(hartree)=     44.000   => boxcut(ratio)=   2.07140

--- Pseudopotential description ------------------------------------------------
- pspini: atom type   1  psp file is /scratch/users/j/a/jabreu/pseudos/PBEsol/Al.psp8
- pspatm: opening atomic psp file    /scratch/users/j/a/jabreu/pseudos/PBEsol/Al.psp8
- Al    ONCVPSP-3.3.0  r_core=   1.76802   1.76802   1.70587
- 13.00000   3.00000    180112                znucl, zion, pspdat
    8 -116133    2    4       600   0.00000   pspcod,pspxc,lmax,lloc,mmax,r2well
    5.99000000000000    5.00000000000000    0.00000000000000   rchrg,fchrg,qchrg
     nproj     2     2     2
     extension_switch     1
  pspatm : epsatm=    0.68509324
         --- l  ekb(1:nproj) -->
             0    5.834965    0.726662
             1    6.225605    0.924840
             2   -2.432733   -0.548689
 pspatm: atomic psp has been read  and splines computed

- pspini: atom type   2  psp file is /scratch/users/j/a/jabreu/pseudos/PBEsol/O.psp8
- pspatm: opening atomic psp file    /scratch/users/j/a/jabreu/pseudos/PBEsol/O.psp8
- O     ONCVPSP-3.3.0  r_core=   1.35509   1.45563   1.26150
-  8.00000   6.00000    180112                znucl, zion, pspdat
    8 -116133    2    4       600   0.00000   pspcod,pspxc,lmax,lloc,mmax,r2well
    5.99000000000000    4.00000000000000    0.00000000000000   rchrg,fchrg,qchrg
     nproj     2     2     1
     extension_switch     1
  pspatm : epsatm=    6.22910522
         --- l  ekb(1:nproj) -->
             0    6.050032    0.820363
             1   -4.739617   -1.153841
             2   -1.335834
 pspatm: atomic psp has been read  and splines computed

   1.92552020E+03                                ecore*ucvol(ha*bohr**3)

 ==>  initialize data related to q vector <==

 The list of irreducible perturbations for this q vector is:
    1)    idir= 1    ipert=  11
    2)    idir= 2    ipert=  11
    3)    idir= 3    ipert=  11

 Perturbation wavevector (in red.coord.)   0.000000  0.000000  0.000000
 Perturbation : derivative vs k along direction   1

 dfpt_looppert : COMMENT -
  In a d/dk calculation, iscf is set to -3 automatically.
 The set of symmetries contains only one element for this perturbation.
 symkpt : not enough symmetry to change the number of k points.

 Initialisation of the first-order wave-functions :
  ireadwf=   0

--- !BeginCycle
iteration_state: {dtset: 1, }
solver: {iscf: 7, nstep: 2000, nline: 4, wfoptalg: 0, }
tolerances: {tolwfr: 1.00E-20, }
...

     iter   2DEtotal(Ha)        deltaE(Ha) residm    vres2
-ETOT  1  -36.612786545668     -3.661E+01 1.168E-01 0.000E+00
 ETOT  2  -36.654587053813     -4.180E-02 2.273E-02 0.000E+00
 ETOT  3  -36.654752382485     -1.653E-04 3.300E-03 0.000E+00
 ETOT  4  -36.654753777654     -1.395E-06 6.197E-04 0.000E+00
 ETOT  5  -36.654753791339     -1.368E-08 1.692E-04 0.000E+00
 ETOT  6  -36.654753791488     -1.492E-10 4.653E-05 0.000E+00
 ETOT  7  -36.654753791490     -1.762E-12 8.748E-06 0.000E+00
 ETOT  8  -36.654753791490      7.105E-15 2.516E-06 0.000E+00
 ETOT  9  -36.654753791490     -1.421E-14 4.711E-07 0.000E+00
 ETOT 10  -36.654753791490      3.553E-14 1.384E-07 0.000E+00
 ETOT 11  -36.654753791490     -1.421E-14 2.598E-08 0.000E+00
 ETOT 12  -36.654753791490     -1.421E-14 7.773E-09 0.000E+00
 ETOT 13  -36.654753791490      1.421E-14 1.465E-09 0.000E+00
 ETOT 14  -36.654753791490      0.000E+00 4.438E-10 0.000E+00
[...]
 ETOT 24  -36.654753791490      0.000E+00 2.973E-16 0.000E+00
 ETOT 25  -36.654753791490      0.000E+00 5.655E-17 0.000E+00
 ETOT 26  -36.654753791490     -1.421E-14 1.744E-17 0.000E+00
 ETOT 27  -36.654753791490      0.000E+00 3.320E-18 0.000E+00
 ETOT 28  -36.654753791490      1.421E-14 1.024E-18 0.000E+00
 ETOT 29  -36.654753791490     -7.105E-15 1.951E-19 0.000E+00
 ETOT 30  -36.654753791490     -7.105E-15 6.019E-20 0.000E+00
 ETOT 31  -36.654753791490     -7.105E-15 1.148E-20 0.000E+00
 ETOT 32  -36.654753791490      7.105E-15 9.628E-21 0.000E+00

 At SCF step   32   max residual=  9.63E-21 < tolwfr=  1.00E-20 =>converged.

 ----iterations are completed or convergence reached----

 dfpt_looppert: DFPT cycle converged with prtwf=-1. Will skip output of the 1st-order WFK file.
 dfpt_looppert : ek2=    6.8519206249E+01
          f-sum rule ratio=    1.0892976693E+00
 prteigrs : about to open file /scratch/users/j/a/jabreu/flow_simple_10atoms/flow/w435/t1/tmpdata/tmp_1WF1_EIG
 Expectation of eigenvalue derivatives (hartree) for nkpt=   1  k points:
  (in case of degenerate eigenvalues, averaged derivative)
 kpt#   1, nband= 33, wtk=  1.00000, kpt=  0.0000  0.0000  0.0000 (reduced coord)
  -0.00000    0.00000   -0.00000   -0.00000   -0.00000   -0.00000   -0.00000   -0.00000
   0.00000    0.00000   -0.00000    0.00000    0.00000   -0.00000    0.00000    0.00000
   0.00000   -0.00000   -0.00000    0.00000    0.00000   -0.00000   -0.00000   -0.00000
   0.00000   -0.00000   -0.00000   -0.00000   -0.00000   -0.00000    0.00000    0.00000
   0.00000

 Eight components of 2nd-order total energy (hartree) are
 1,2,3: 0th-order hamiltonian combined with 1st-order wavefunctions
     kin0=   4.65221053E+01 eigvalue=  -2.87209326E+00  local=  -1.54162799E+01
 4,5,6: 1st-order hamiltonian combined with 1st and 0th-order wfs
     kin1=  -7.46378117E+01  Hartree=   0.00000000E+00     xc=   0.00000000E+00
 7,8,9: eventually, occupation + non-local contributions
    edocc=   1.08358397E+01     enl0=  -2.41481796E+00   enl1=   1.32830409E+00
 1-9 gives the relaxation energy (to be shifted if some occ is /=2.0)
   erelax=  -3.66547538E+01
  No Ewald or frozen-wf contrib.: the relaxation energy is the total one
 2DEtotal=   -0.3665475379E+02 Ha. Also 2DEtotal=   -0.997426575714E+03 eV
    (  non-var. 2DEtotal :   -3.6654753791E+01 Ha)

 Perturbation wavevector (in red.coord.)   0.000000  0.000000  0.000000
 Perturbation : derivative vs k along direction   2
 The set of symmetries contains only one element for this perturbation.
 symkpt : not enough symmetry to change the number of k points.

[...]

 Perturbation wavevector (in red.coord.)   0.000000  0.000000  0.000000
 Perturbation : derivative vs k along direction   3
 The set of symmetries contains only one element for this perturbation.
 symkpt : not enough symmetry to change the number of k points.

 Initialisation of the first-order wave-functions :
  ireadwf=   0

--- !BeginCycle
iteration_state: {dtset: 1, }
solver: {iscf: 7, nstep: 2000, nline: 4, wfoptalg: 0, }
tolerances: {tolwfr: 1.00E-20, }
...

     iter   2DEtotal(Ha)        deltaE(Ha) residm    vres2
-ETOT  1  -36.614666288456     -3.661E+01 9.408E-02 0.000E+00
 ETOT  2  -36.654606410251     -3.994E-02 2.312E-02 0.000E+00
 ETOT  3  -36.654752596999     -1.462E-04 2.605E-03 0.000E+00
 ETOT  4  -36.654753775053     -1.178E-06 9.125E-04 0.000E+00
 ETOT  5  -36.654753786527     -1.147E-08 1.284E-04 0.000E+00
 ETOT  6  -36.654753786651     -1.238E-10 4.686E-05 0.000E+00
 ETOT  7  -36.654753786652     -1.393E-12 6.716E-06 0.000E+00
 ETOT  8  -36.654753786652     -6.395E-14 2.479E-06 0.000E+00
 ETOT  9  -36.654753786652      0.000E+00 3.603E-07 0.000E+00
 ETOT 10  -36.654753786652      2.842E-14 1.342E-07 0.000E+00
 ETOT 11  -36.654753786652     -1.421E-14 1.968E-08 0.000E+00
 ETOT 12  -36.654753786652      1.421E-14 7.371E-09 0.000E+00
 ETOT 13  -36.654753786652      7.105E-15 1.087E-09 0.000E+00
 ETOT 14  -36.654753786652      0.000E+00 4.085E-10 0.000E+00
 ETOT 15  -36.654753786652      0.000E+00 6.052E-11 0.000E+00
 ETOT 16  -36.654753786652     -2.132E-14 2.277E-11 0.000E+00
 ETOT 17  -36.654753786652      7.105E-15 3.384E-12 0.000E+00
 ETOT 18  -36.654753786652     -7.105E-15 1.274E-12 0.000E+00
 ETOT 19  -36.654753786652      7.105E-15 1.898E-13 0.000E+00
 ETOT 20  -36.654753786652      0.000E+00 7.151E-14 0.000E+00
 ETOT 21  -36.654753786652      1.421E-14 1.067E-14 0.000E+00
 ETOT 22  -36.654753786652      0.000E+00 4.022E-15 0.000E+00
 ETOT 23  -36.654753786652      0.000E+00 6.012E-16 0.000E+00
 ETOT 24  -36.654753786652      0.000E+00 2.266E-16 0.000E+00
 ETOT 25  -36.654753786652     -7.105E-15 3.392E-17 0.000E+00
 ETOT 26  -36.654753786652      0.000E+00 1.278E-17 0.000E+00
 ETOT 27  -36.654753786652      7.105E-15 1.916E-18 0.000E+00
 ETOT 28  -36.654753786652      0.000E+00 7.222E-19 0.000E+00
 ETOT 29  -36.654753786652     -7.105E-15 1.083E-19 0.000E+00
 ETOT 30  -36.654753786652      0.000E+00 4.084E-20 0.000E+00
 ETOT 31  -36.654753786652      0.000E+00 9.610E-21 0.000E+00

 At SCF step   31   max residual=  9.61E-21 < tolwfr=  1.00E-20 =>converged.

 ----iterations are completed or convergence reached----

 dfpt_looppert: DFPT cycle converged with prtwf=-1. Will skip output of the 1st-order WFK file.
 dfpt_looppert : ek2=    6.8519206249E+01
          f-sum rule ratio=    1.0892976691E+00
 prteigrs : about to open file /scratch/users/j/a/jabreu/flow_simple_10atoms/flow/w435/t1/tmpdata/tmp_1WF1_EIG
 Expectation of eigenvalue derivatives (hartree) for nkpt=   1  k points:
  (in case of degenerate eigenvalues, averaged derivative)
 kpt#   1, nband= 33, wtk=  1.00000, kpt=  0.0000  0.0000  0.0000 (reduced coord)
  -0.00000    0.00000   -0.00000   -0.00000    0.00000    0.00000    0.00000    0.00000
  -0.00000   -0.00000   -0.00000    0.00000    0.00000   -0.00000    0.00000   -0.00000
  -0.00000   -0.00000   -0.00000   -0.00000   -0.00000   -0.00000   -0.00000    0.00000
   0.00000   -0.00000   -0.00000    0.00000    0.00000    0.00000   -0.00000   -0.00000
  -0.00000

 Eight components of 2nd-order total energy (hartree) are
 1,2,3: 0th-order hamiltonian combined with 1st-order wavefunctions
     kin0=   4.65221053E+01 eigvalue=  -2.87209326E+00  local=  -1.54162800E+01
 4,5,6: 1st-order hamiltonian combined with 1st and 0th-order wfs
     kin1=  -7.46378117E+01  Hartree=   0.00000000E+00     xc=   0.00000000E+00
 7,8,9: eventually, occupation + non-local contributions
    edocc=   1.08358397E+01     enl0=  -2.41481797E+00   enl1=   1.32830409E+00
 1-9 gives the relaxation energy (to be shifted if some occ is /=2.0)
   erelax=  -3.66547538E+01
  No Ewald or frozen-wf contrib.: the relaxation energy is the total one
 2DEtotal=   -0.3665475379E+02 Ha. Also 2DEtotal=   -0.997426575582E+03 eV
    (  non-var. 2DEtotal :   -3.6654753786E+01 Ha)

 CALCULATION OF EFFECTIVE MASSES
 NOTE : Additional infos (eff. mass eigenvalues, eigenvectors and, if degenerate, average mass) are available in stdout.

 K-point ( 0.000, 0.000, 0.000) | band =    24
 Effective mass tensor:
             -5.5945825453              0.8740789222              2.4365704083
              0.8740789222             -6.2745030403              1.6667055394
              2.4365704083              1.6667055394             -2.2263212809
 Effective mass tensor eigenvalues:
             -6.8724060190             -6.8724057380             -0.3505951095
 Angular average effective mass 1/(<1/m>)=  -0.9544073358
 Angular average effective mass for Frohlich model (<m**0.5>)**2=  -1.7363985605
 Effective masses along directions: (cart. coord. / red. coord. -> eff. mass)
    1:   1.000000  0.000000  0.000000 /   0.940141  0.340786  0.000000 ->  -1.4796147406
    2:   0.000000  1.000000  0.000000 /   0.000000  1.000000  0.000000 ->  -2.5402605401
    3:   0.000000  0.000000  1.000000 /   0.443104  0.443104  0.779306 ->  -0.4822065884
    4:   0.577350  0.577350  0.577350 /   0.587703  0.690036  0.422440 ->  -0.4123784532
    5:   0.000000  0.707107  0.707107 /   0.322613  0.757619  0.567393 ->  -0.5193531005
    6:   0.707107  0.000000  0.707107 /   0.724553  0.451423  0.520808 ->  -0.4190958125
    7:   0.707107  0.707107  0.000000 /   0.611342  0.791366  0.000000 ->  -1.1141689845

 K-point ( 0.000, 0.000, 0.000) | band =    25
 Effective mass tensor:
              0.3821457053              0.0037313696              0.0104015132
              0.0037313696              0.3792431824              0.0071150251
              0.0104015132              0.0071150251              0.3965245293
 Effective mass tensor eigenvalues:
              0.3766907857              0.3766907857              0.4045318456
 Angular average effective mass 1/(<1/m>)=   0.3855353407
 Angular average effective mass for Frohlich model (<m**0.5>)**2=   0.3856643932
 Effective masses along directions: (cart. coord. / red. coord. -> eff. mass)
    1:   1.000000  0.000000  0.000000 /   0.940141  0.340786  0.000000 ->   0.3818397127
    2:   0.000000  1.000000  0.000000 /   0.000000  1.000000  0.000000 ->   0.3790826102
    3:   0.000000  0.000000  1.000000 /   0.443104  0.443104  0.779306 ->   0.3961116989
    4:   0.577350  0.577350  0.577350 /   0.587703  0.690036  0.422440 ->   0.3998659899
    5:   0.000000  0.707107  0.707107 /   0.322613  0.757619  0.567393 ->   0.3945469915
    6:   0.707107  0.000000  0.707107 /   0.724553  0.451423  0.520808 ->   0.3994469481
    7:   0.707107  0.707107  0.000000 /   0.611342  0.791366  0.000000 ->   0.3840338730

 END OF EFFECTIVE MASSES SECTION

 ---- first-order wavefunction calculations are completed ----

 Total localisation tensor (bohr^2) in cartesian coordinates
  WARNING : still subject to testing - especially symmetries.
      direction              matrix element
   alpha     beta       real part   imaginary part
     1        1       1.0020332338    0.0000000000
     1        2       0.2992044128    0.0000000000
     1        3       0.8340580049    0.0000000000
     2        1       0.2992044128    0.0000000000
     2        2       0.7692908966    0.0000000000
     2        3       0.5705269485    0.0000000000
     3        1       0.8340580049    0.0000000000
     3        2       0.5705269485    0.0000000000
     3        3       2.1550167410    0.0000000000

 respfn : d/dk was computed, but no 2DTE, so no DDB output.

== END DATASET(S) ==============================================================

 -outvars: echo values of variables after computation  --------
            acell      1.0000000000E+00  1.0000000000E+00  1.0000000000E+00 Bohr
              amu      2.69815390E+01  1.59994000E+01
             ecut      4.40000000E+01 Hartree
           etotal     -3.6654753787E+01
            fcart      0.0000000000E+00  0.0000000000E+00  0.0000000000E+00
                       0.0000000000E+00  0.0000000000E+00  0.0000000000E+00
                       0.0000000000E+00  0.0000000000E+00  0.0000000000E+00
                       0.0000000000E+00  0.0000000000E+00  0.0000000000E+00
                       0.0000000000E+00  0.0000000000E+00  0.0000000000E+00
                       0.0000000000E+00  0.0000000000E+00  0.0000000000E+00
                       0.0000000000E+00  0.0000000000E+00  0.0000000000E+00
                       0.0000000000E+00  0.0000000000E+00  0.0000000000E+00
                       0.0000000000E+00  0.0000000000E+00  0.0000000000E+00
                       0.0000000000E+00  0.0000000000E+00  0.0000000000E+00
-          fftalg         512
           irdden           1
           irdwfk           1
           istwfk        1
              ixc     -116133
           kptopt           0
P           mkmem           1
P          mkqmem           1
P          mk1mem           1
            natom          10
            nband          33
           nbdbuf           4
            ngfft          60      60      60
             nkpt           1
            nstep        2000
             nsym          12
           ntypat           2
              occ      2.000000  2.000000  2.000000  2.000000  2.000000  2.000000
                       2.000000  2.000000  2.000000  2.000000  2.000000  2.000000
                       2.000000  2.000000  2.000000  2.000000  2.000000  2.000000
                       2.000000  2.000000  2.000000  2.000000  2.000000  2.000000
                       0.000000  0.000000  0.000000  0.000000  0.000000  0.000000
                       0.000000  0.000000  0.000000
        optdriver           1
            prtwf          -1
            rfdir           1       1       1
           rfelfd           2
            rprim      7.9799110107E+00  0.0000000000E+00  5.5156270509E+00
                       2.8925889608E+00  7.4371976472E+00  5.5156270509E+00
                       0.0000000000E+00  0.0000000000E+00  9.7005732564E+00
          spgroup         167
           strten      0.0000000000E+00  0.0000000000E+00  0.0000000000E+00
                       0.0000000000E+00  0.0000000000E+00  0.0000000000E+00
           symrel      1  0  0   0  1  0   0  0  1      -1  0  0   0 -1  0   0  0 -1
                       0  1  0   1  0  0   0  0  1       0 -1  0  -1  0  0   0  0 -1
                       0  0  1   1  0  0   0  1  0       0  0 -1  -1  0  0   0 -1  0
                       1  0  0   0  0  1   0  1  0      -1  0  0   0  0 -1   0 -1  0
                       0  1  0   0  0  1   1  0  0       0 -1  0   0  0 -1  -1  0  0
                       0  0  1   0  1  0   1  0  0       0  0 -1   0 -1  0  -1  0  0
            tnons      0.0000000  0.0000000  0.0000000    -0.0000000  0.0000000  0.0000000
                       0.5000000  0.5000000  0.5000000     0.5000000  0.5000000  0.5000000
                      -0.0000000 -0.0000000  0.0000000     0.0000000  0.0000000  0.0000000
                       0.5000000  0.5000000  0.5000000     0.5000000  0.5000000  0.5000000
                      -0.0000000  0.0000000  0.0000000     0.0000000 -0.0000000  0.0000000
                       0.5000000  0.5000000  0.5000000     0.5000000  0.5000000  0.5000000
           tolwfr      1.00000000E-20
            typat      1  1  1  1  2  2  2  2  2  2
           useylm           1
           xangst      3.7283753351E+00  2.5503485255E+00  7.1093156107E+00
                       4.9018434428E+00  3.3530447106E+00  9.3469001849E+00
                       8.5163574249E-01  5.8255078013E-01  1.6239103455E+00
                       2.0251038502E+00  1.3852469652E+00  3.8614949197E+00
                       3.8471691447E+00  1.7485653985E+00  3.7717932339E+00
                       3.7920488140E+00  3.7163631439E+00  5.6614467590E+00
                       1.9614303713E+00  2.1923234681E-01  5.3093637714E+00
                       1.3832494656E+00  2.9516966180E+00  4.6323561577E+00
                       4.3702297197E+00  9.8389887267E-01  6.3384543727E+00
                       1.9063100406E+00  2.1870300921E+00  7.1990172965E+00
            xcart      7.0456083040E+00  4.8194602565E+00  1.3434659496E+01
                       9.2631416532E+00  6.3363362143E+00  1.7663081541E+01
                       1.6093583183E+00  1.1008614329E+00  3.0687458174E+00
                       3.8268916675E+00  2.6177373907E+00  7.2971678617E+00
                       7.2700960704E+00  3.3043097287E+00  7.1276562420E+00
                       7.1659337409E+00  7.0229085523E+00  1.0698583890E+01
                       3.7065662306E+00  4.1428909494E-01  1.0033243468E+01
                       2.6139626635E+00  5.5778982354E+00  8.7538844880E+00
                       8.2585373080E+00  1.8592994118E+00  1.1977942870E+01
                       3.6024039011E+00  4.1328879185E+00  1.3604171116E+01
             xred      6.4802100000E-01  6.4802100000E-01  6.4802100000E-01
                       8.5197900000E-01  8.5197900000E-01  8.5197900000E-01
                       1.4802100000E-01  1.4802100000E-01  1.4802100000E-01
                       3.5197900000E-01  3.5197900000E-01  3.5197900000E-01
                       7.5000000000E-01  4.4429500000E-01  5.5705000000E-02
                       5.5570500000E-01  9.4429500000E-01  2.5000000000E-01
                       4.4429500000E-01  5.5705000000E-02  7.5000000000E-01
                       5.5705000000E-02  7.5000000000E-01  4.4429500000E-01
                       9.4429500000E-01  2.5000000000E-01  5.5570500000E-01
                       2.5000000000E-01  5.5570500000E-01  9.4429500000E-01
            znucl       13.00000    8.00000

- Timing analysis has been suppressed with timopt=0

 Suggested references for the acknowledgment of ABINIT usage.

 Calculation completed.
.Delivered   2 WARNINGs and   5 COMMENTs to log file.