.Version 9.5.1 of ABINIT

 ABINIT is a project of the Universite Catholique de Louvain,
 Corning Inc. and other collaborators, see ~abinit/doc/developers/contributors.txt .
 acknowledgments of the ABINIT effort.

.Starting date : Wed 19 May 2021.
- ( at 01h23 )

- input  file    -> /scratch/users/j/a/jabreu/flow_simple_8atoms/flow/w432/t1/run.abi
- output file    -> /scratch/users/j/a/jabreu/flow_simple_8atoms/flow/w432/t1/run.abo
- root for input  files -> /scratch/users/j/a/jabreu/flow_simple_8atoms/flow/w432/t1/indata/in
- root for output files -> /scratch/users/j/a/jabreu/flow_simple_8atoms/flow/w432/t1/outdata/out

 Symmetries : space group P6_3 m c (#186); Bravais hP (primitive hexag.)
     intxc =       0      iscf =       7    lmnmax =      18     lnmax =       6
     mgfft =     144  mpssoang =       3    mqgrid =    6831     natom =       8
  nloc_mem =       1    nspden =       1   nspinor =       1    nsppol =       1
      nsym =      12    n1xccc =    2501    ntypat =       2    occopt =       1
   xclevel =       2
-    mband =          61        mffmem =           1         mkmem =           1
-   mkqmem =           1        mk1mem =           1           mpw =       13497
      nfft =      291600          nkpt =           1
  Rough estimation (10% accuracy) of disk space for files :

------------- Echo of variables that govern the present computation ------------
-
- outvars: echo of selected default values
-   iomode0 =  0 , fftalg0 =512 , wfoptalg0 =  0
-
- outvars: echo of global parameters not present in the input file
-  max_nthreads =    0
-
 -outvars: echo values of preprocessed input variables --------
            acell      1.0000000000E+00  1.0000000000E+00  1.0000000000E+00 Bohr
              amu      6.53900000E+01  3.20660000E+01
             ecut      4.20000000E+01 Hartree
-          fftalg         512
           irdden           1
           irdwfk           1
           istwfk        1
              ixc     -116133
           kptopt           0
P           mkmem           1
P          mkqmem           1
P          mk1mem           1
            natom           8
            nband          61
           nbdbuf           4
            ngfft          45      45     144
             nkpt           1
            nstep        2000
             nsym          12
           ntypat           2
              occ      2.000000  2.000000  2.000000  2.000000  2.000000  2.000000
                       2.000000  2.000000  2.000000  2.000000  2.000000  2.000000
                       2.000000  2.000000  2.000000  2.000000  2.000000  2.000000
                       2.000000  2.000000  2.000000  2.000000  2.000000  2.000000
                       2.000000  2.000000  2.000000  2.000000  2.000000  2.000000
                       2.000000  2.000000  2.000000  2.000000  2.000000  2.000000
                       2.000000  2.000000  2.000000  2.000000  2.000000  2.000000
                       2.000000  2.000000  2.000000  2.000000  2.000000  2.000000
                       2.000000  2.000000  2.000000  2.000000  0.000000  0.000000
                       0.000000  0.000000  0.000000  0.000000  0.000000  0.000000
                       0.000000
        optdriver           1
            prtwf          -1
            rfdir           1       1       1
           rfelfd           2
            rprim      7.1503125079E+00  0.0000000000E+00  0.0000000000E+00
                      -3.5751562539E+00  6.1923522768E+00  0.0000000000E+00
                       0.0000000000E+00  0.0000000000E+00  2.3412026396E+01
          spgroup         186
           symrel      1  0  0   0  1  0   0  0  1       0  1  0   1  0  0   0  0  1
                       1  1  0  -1  0  0   0  0  1      -1  0  0   1  1  0   0  0  1
                       0  1  0  -1 -1  0   0  0  1      -1 -1  0   0  1  0   0  0  1
                      -1  0  0   0 -1  0   0  0  1       0 -1  0  -1  0  0   0  0  1
                      -1 -1  0   1  0  0   0  0  1       1  0  0  -1 -1  0   0  0  1
                       0 -1  0   1  1  0   0  0  1       1  1  0   0 -1  0   0  0  1
            tnons      0.0000000  0.0000000  0.0000000    -0.0000000  0.0000000  0.5000000
                      -0.0000000  0.0000000  0.5000000     0.0000000  0.0000000  0.0000000
                       0.0000000  0.0000000  0.0000000     0.0000000  0.0000000  0.5000000
                       0.0000000  0.0000000  0.5000000     0.0000000  0.0000000  0.0000000
                       0.0000000  0.0000000  0.0000000    -0.0000000  0.0000000  0.5000000
                      -0.0000000  0.0000000  0.5000000     0.0000000  0.0000000  0.0000000
           tolwfr      1.00000000E-20
            typat      1  1  1  1  2  2  2  2
           useylm           1
           xangst      1.8918912067E+00  1.0922838975E+00  9.2926631523E+00
                       1.7638771742E-11  2.1845677950E+00  3.0981077644E+00
                      -2.1004211778E-16  4.8507149296E-16  6.1962898634E+00
                      -2.1004211778E-16  4.8507149296E-16  1.7344755086E-03
                       1.8918912067E+00  1.0922838975E+00  1.1615720536E+01
                       1.7638771742E-11  2.1845677950E+00  5.4211651477E+00
                      -2.1004211778E-16  4.8507149296E-16  8.5140199291E+00
                      -2.1004211778E-16  4.8507149296E-16  2.3194645412E+00
            xcart      3.5751562540E+00  2.0641174256E+00  1.7560588403E+01
                       3.3332447913E-11  4.1282348512E+00  5.8545752048E+00
                      -3.9692207897E-16  9.1665227657E-16  1.1709290882E+01
                      -3.9692207897E-16  9.1665227657E-16  3.2776836955E-03
                       3.5751562540E+00  2.0641174256E+00  2.1950530649E+01
                       3.3332447913E-11  4.1282348512E+00  1.0244517450E+01
                      -3.9692207897E-16  9.1665227657E-16  1.6089165956E+01
                      -3.9692207897E-16  9.1665227657E-16  4.3831527579E+00
             xred      6.6666666667E-01  3.3333333333E-01  7.5006700000E-01
                       3.3333333333E-01  6.6666666667E-01  2.5006700000E-01
                       1.8503717077E-17  1.4802973662E-16  5.0014000000E-01
                       1.8503717077E-17  1.4802973662E-16  1.4000000000E-04
                       6.6666666667E-01  3.3333333333E-01  9.3757500000E-01
                       3.3333333333E-01  6.6666666667E-01  4.3757500000E-01
                       1.8503717077E-17  1.4802973662E-16  6.8721800000E-01
                       1.8503717077E-17  1.4802973662E-16  1.8721800000E-01
            znucl       30.00000   16.00000

 chkinp: Checking input parameters for consistency.

== DATASET  1 ==================================================================
-   mpi_nproc: 1, omp_nthreads: -1 (-1 if OMP is not activated)

--- !DatasetInfo
iteration_state: {dtset: 1, }
dimensions: {natom: 8, nkpt: 1, mband: 61, nsppol: 1, nspinor: 1, nspden: 1, mpw: 13497, }
cutoff_energies: {ecut:  42.0, pawecutdg:  -1.0, }
electrons: {nelect:   1.04000000E+02, charge:   0.00000000E+00, occopt:   1.00000000E+00, tsmear:   1.00000000E-02, }
meta: {optdriver: 1, rfelfd: 2, }
...

 Real(R)+Recip(G) space primitive vectors, cartesian coordinates (Bohr,Bohr^-1):
 R(1)=  7.1503125  0.0000000  0.0000000  G(1)=  0.1398540  0.0807448  0.0000000
 R(2)= -3.5751563  6.1923523  0.0000000  G(2)=  0.0000000  0.1614895  0.0000000
 R(3)=  0.0000000  0.0000000 23.4120264  G(3)=  0.0000000  0.0000000  0.0427131
 Unit cell volume ucvol=  1.0366202E+03 bohr^3
 Angles (23,13,12)=  9.00000000E+01  9.00000000E+01  1.20000000E+02 degrees

 getcut: wavevector=  0.0000  0.0000  0.0000  ngfft=  45  45 144
         ecut(hartree)=     42.000   => boxcut(ratio)=   2.10831

--- Pseudopotential description ------------------------------------------------
- pspini: atom type   1  psp file is /scratch/users/j/a/jabreu/pseudos/PBEsol/Zn.psp8
- pspatm: opening atomic psp file    /scratch/users/j/a/jabreu/pseudos/PBEsol/Zn.psp8
- Zn    ONCVPSP-3.3.0  r_core=   1.35823   1.66358   1.85211
- 30.00000  20.00000    180112                znucl, zion, pspdat
    8 -116133    2    4       600   0.00000   pspcod,pspxc,lmax,lloc,mmax,r2well
    5.99000000000000    2.50000000000000    0.00000000000000   rchrg,fchrg,qchrg
     nproj     2     2     2
     extension_switch     1
  pspatm : epsatm=   26.57343589
         --- l  ekb(1:nproj) -->
             0    2.830835   -1.519107
             1   -4.626739   -1.324150
             2   -6.948510   -2.555500
 pspatm: atomic psp has been read  and splines computed

- pspini: atom type   2  psp file is /scratch/users/j/a/jabreu/pseudos/PBEsol/S.psp8
- pspatm: opening atomic psp file    /scratch/users/j/a/jabreu/pseudos/PBEsol/S.psp8
- S     ONCVPSP-3.3.0  r_core=   1.45376   1.45376   1.61851
- 16.00000   6.00000    180112                znucl, zion, pspdat
    8 -116133    2    4       600   0.00000   pspcod,pspxc,lmax,lloc,mmax,r2well
    5.99000000000000    6.00000000000000    0.00000000000000   rchrg,fchrg,qchrg
     nproj     2     2     2
     extension_switch     1
  pspatm : epsatm=    8.71840985
         --- l  ekb(1:nproj) -->
             0    6.834532    0.579453
             1    3.282851    0.896984
             2   -3.496974   -0.974265
 pspatm: atomic psp has been read  and splines computed

   1.46814078E+04                                ecore*ucvol(ha*bohr**3)

-inwffil : will read wavefunctions from disk file /scratch/users/j/a/jabreu/flow_simple_8atoms/flow/w432/t1/indata/in_WFK

 ==>  initialize data related to q vector <==

 The list of irreducible perturbations for this q vector is:
    1)    idir= 1    ipert=   9
    2)    idir= 2    ipert=   9
    3)    idir= 3    ipert=   9

 Perturbation wavevector (in red.coord.)   0.000000  0.000000  0.000000
 Perturbation : derivative vs k along direction   1

 dfpt_looppert : COMMENT -
  In a d/dk calculation, iscf is set to -3 automatically.
 The set of symmetries contains only one element for this perturbation.
 symkpt : not enough symmetry to change the number of k points.

[...]

 Initialisation of the first-order wave-functions :
  ireadwf=   0

--- !BeginCycle
iteration_state: {dtset: 1, }
solver: {iscf: 7, nstep: 2000, nline: 4, wfoptalg: 0, }
tolerances: {tolwfr: 1.00E-20, }
...

     iter   2DEtotal(Ha)        deltaE(Ha) residm    vres2
-ETOT  1  -167.54564015699     -1.675E+02 1.710E-01 0.000E+00
 ETOT  2  -167.78310599103     -2.375E-01 1.397E-02 0.000E+00
 ETOT  3  -167.78540352496     -2.298E-03 6.641E-04 0.000E+00
 ETOT  4  -167.78544341228     -3.989E-05 2.669E-04 0.000E+00
 ETOT  5  -167.78544427476     -8.625E-07 2.836E-05 0.000E+00
 ETOT  6  -167.78544429532     -2.057E-08 1.393E-05 0.000E+00
 ETOT  7  -167.78544429584     -5.156E-10 1.620E-06 0.000E+00
 ETOT  8  -167.78544429585     -1.299E-11 8.351E-07 0.000E+00
 ETOT  9  -167.78544429585     -6.537E-13 9.971E-08 0.000E+00
 ETOT 10  -167.78544429585      5.684E-14 5.151E-08 0.000E+00
 ETOT 11  -167.78544429585     -8.527E-14 6.300E-09 0.000E+00
 ETOT 12  -167.78544429585      8.527E-14 3.226E-09 0.000E+00
 ETOT 13  -167.78544429585     -5.684E-14 4.016E-10 0.000E+00
[...]
   0.00000    0.00000    0.00000    0.00000    0.00000

 Eight components of 2nd-order total energy (hartree) are
 1,2,3: 0th-order hamiltonian combined with 1st-order wavefunctions
     kin0=   2.27002927E+02 eigvalue=  -3.53352315E+00  local=  -9.07965386E+01
 4,5,6: 1st-order hamiltonian combined with 1st and 0th-order wfs
     kin1=  -3.06529811E+02  Hartree=   0.00000000E+00     xc=   0.00000000E+00
 7,8,9: eventually, occupation + non-local contributions
    edocc=   5.03222430E+01     enl0=  -1.52096638E+01   enl1=  -2.90410778E+01
 1-9 gives the relaxation energy (to be shifted if some occ is /=2.0)
   erelax=  -1.67785444E+02
  No Ewald or frozen-wf contrib.: the relaxation energy is the total one
 2DEtotal=   -0.1677854443E+03 Ha. Also 2DEtotal=   -0.456567413086E+04 eV
    (  non-var. 2DEtotal :   -1.6778544430E+02 Ha)

 Perturbation wavevector (in red.coord.)   0.000000  0.000000  0.000000
 Perturbation : derivative vs k along direction   2
 The set of symmetries contains only one element for this perturbation.
 symkpt : not enough symmetry to change the number of k points.

[...]

 Perturbation wavevector (in red.coord.)   0.000000  0.000000  0.000000
 Perturbation : derivative vs k along direction   3
 The set of symmetries contains only one element for this perturbation.
 symkpt : not enough symmetry to change the number of k points.

-inwffil : will read wavefunctions from disk file /scratch/users/j/a/jabreu/flow_simple_8atoms/flow/w432/t1/indata/in_WFK

 Initialisation of the first-order wave-functions :
  ireadwf=   0

--- !BeginCycle
iteration_state: {dtset: 1, }
solver: {iscf: 7, nstep: 2000, nline: 4, wfoptalg: 0, }
tolerances: {tolwfr: 1.00E-20, }
...

     iter   2DEtotal(Ha)        deltaE(Ha) residm    vres2
-ETOT  1  -9.3052780519083     -9.305E+00 1.533E-02 0.000E+00
 ETOT  2  -9.3197610509691     -1.448E-02 3.035E-04 0.000E+00
 ETOT  3  -9.3198829865947     -1.219E-04 1.261E-06 0.000E+00
 ETOT  4  -9.3198846488476     -1.662E-06 1.229E-06 0.000E+00
 ETOT  5  -9.3198846763359     -2.749E-08 1.322E-08 0.000E+00
 ETOT  6  -9.3198846768243     -4.884E-10 1.566E-08 0.000E+00
 ETOT  7  -9.3198846768335     -9.221E-12 1.829E-10 0.000E+00
 ETOT  8  -9.3198846768337     -1.776E-13 2.455E-10 0.000E+00
 ETOT  9  -9.3198846768337     -1.776E-15 3.164E-12 0.000E+00
 ETOT 10  -9.3198846768337      1.776E-15 4.615E-12 0.000E+00
 ETOT 11  -9.3198846768337     -3.553E-15 6.944E-14 0.000E+00
 ETOT 12  -9.3198846768337     -7.105E-15 9.790E-14 0.000E+00
 ETOT 13  -9.3198846768337      3.553E-15 1.548E-15 0.000E+00
 ETOT 14  -9.3198846768337      0.000E+00 2.141E-15 0.000E+00
 ETOT 15  -9.3198846768337      0.000E+00 3.557E-17 0.000E+00
 ETOT 16  -9.3198846768337      0.000E+00 4.813E-17 0.000E+00
 ETOT 17  -9.3198846768337      1.776E-15 8.432E-19 0.000E+00
 ETOT 18  -9.3198846768337     -1.776E-15 1.099E-18 0.000E+00
 ETOT 19  -9.3198846768337      0.000E+00 2.050E-20 0.000E+00
 ETOT 20  -9.3198846768337      0.000E+00 2.529E-20 0.000E+00
 ETOT 21  -9.3198846768337      0.000E+00 9.954E-21 0.000E+00

 At SCF step   21   max residual=  9.95E-21 < tolwfr=  1.00E-20 =>converged.

 ----iterations are completed or convergence reached----

 dfpt_looppert: DFPT cycle converged with prtwf=-1. Will skip output of the 1st-order WFK file.
 dfpt_looppert : ek2=    1.4981146862E+01
          f-sum rule ratio=    1.0712574177E+00
 prteigrs : about to open file /scratch/users/j/a/jabreu/flow_simple_8atoms/flow/w432/t1/tmpdata/tmp_1WF1_EIG
 Expectation of eigenvalue derivatives (hartree) for nkpt=   1  k points:
  (in case of degenerate eigenvalues, averaged derivative)
 kpt#   1, nband= 61, wtk=  1.00000, kpt=  0.0000  0.0000  0.0000 (reduced coord)
   0.00000    0.00000    0.00000    0.00000    0.00000    0.00000    0.00000    0.00000
   0.00000   -0.00000    0.00000   -0.00000    0.00000    0.00000    0.00000    0.00000
  -0.00000    0.00000   -0.00000   -0.00000    0.00000   -0.00000   -0.00000   -0.00000
  -0.00000   -0.00000   -0.00000    0.00000    0.00000    0.00000    0.00000   -0.00000
  -0.00000    0.00000    0.00000   -0.00000   -0.00000   -0.00000   -0.00000   -0.00000
   0.00000    0.00000   -0.00000   -0.00000   -0.00000    0.00000    0.00000    0.00000
   0.00000    0.00000    0.00000    0.00000   -0.00000   -0.00000    0.00000    0.00000
   0.00000    0.00000   -0.00000    0.00000    0.00000

 Eight components of 2nd-order total energy (hartree) are
 1,2,3: 0th-order hamiltonian combined with 1st-order wavefunctions
     kin0=   1.33227372E+01 eigvalue=   1.05541684E-01  local=  -5.15624728E+00
 4,5,6: 1st-order hamiltonian combined with 1st and 0th-order wfs
     kin1=  -1.60486647E+01  Hartree=   0.00000000E+00     xc=   0.00000000E+00
 7,8,9: eventually, occupation + non-local contributions
    edocc=   1.59941723E+00     enl0=  -5.51564162E-01   enl1=  -2.59110465E+00
 1-9 gives the relaxation energy (to be shifted if some occ is /=2.0)
   erelax=  -9.31988468E+00
  No Ewald or frozen-wf contrib.: the relaxation energy is the total one
 2DEtotal=   -0.9319884677E+01 Ha. Also 2DEtotal=   -0.253606959472E+03 eV
    (  non-var. 2DEtotal :   -9.3198846766E+00 Ha)

 CALCULATION OF EFFECTIVE MASSES
 NOTE : Additional infos (eff. mass eigenvalues, eigenvectors and, if degenerate, average mass) are available in stdout.

 COMMENTS:
 - At k-point ( 0.000, 0.000, 0.000), bands    51 through    52
   are DEGENERATE (effective mass tensor is therefore not defined).
   See Section IIIB Eqs. (67)-(70) and Appendix E of PRB 93 205147 (2016).
 - Angular average effective mass for Frohlich model is to be averaged over degenerate bands. See later.
 - Associated theta integrals calculated with ntheta=   1000 points.

 K-point ( 0.000, 0.000, 0.000) | band =    51
 Transport equivalent effective mass tensor:
             -0.1657758534             -0.0000000017             -0.0000000001
             -0.0000000017             -0.1657758529             -0.0000000000
             -0.0000000001             -0.0000000000             -1.4774080769
 Transport equivalent effective mass tensor eigenvalues:
             -1.4774080769             -0.1657758548             -0.1657758515
 Angular average effective mass 1/(<1/m>)=  -0.2354539624
 Angular average effective mass for Frohlich model (<m**0.5>)**2=  -0.2821424136
 Effective masses along directions: (cart. coord. / red. coord. -> eff. mass)
    1:   1.000000  0.000000  0.000000 /   0.894427 -0.447214  0.000000 ->  -0.1657758534
    2:   0.000000  1.000000  0.000000 /   0.000000  1.000000  0.000000 ->  -0.1657758528
    3:   0.000000  0.000000  1.000000 /   0.000000  0.000000  1.000000 ->  -1.4774080768
    4:   0.577350  0.577350  0.577350 /   0.290438  0.106308  0.950970 ->  -0.2354539648
    5:   0.000000  0.707107  0.707107 /   0.000000  0.255702  0.966756 ->  -0.2981024576
    6:   0.707107  0.000000  0.707107 /   0.289027 -0.144513  0.946351 ->  -0.2981024586
    7:   0.707107  0.707107  0.000000 /   0.939071  0.343724  0.000000 ->  -0.1657758549

 K-point ( 0.000, 0.000, 0.000) | band =    52
 Transport equivalent effective mass tensor:
             -1.5685674189             -0.0000000002             -0.0000000013
             -0.0000000002             -1.5685674203             -0.0000000001
             -0.0000000013             -0.0000000001             -1.4774080769
 Transport equivalent effective mass tensor eigenvalues:
             -1.5685674203             -1.5685674189             -1.4774080769
 Angular average effective mass 1/(<1/m>)=  -1.5369562212
 Angular average effective mass for Frohlich model (<m**0.5>)**2=  -1.5373273669
 Effective masses along directions: (cart. coord. / red. coord. -> eff. mass)
    1:   1.000000  0.000000  0.000000 /   0.894427 -0.447214  0.000000 ->  -1.5685674248
    2:   0.000000  1.000000  0.000000 /   0.000000  1.000000  0.000000 ->  -1.5685674262
    3:   0.000000  0.000000  1.000000 /   0.000000  0.000000  1.000000 ->  -1.4774080769
    4:   0.577350  0.577350  0.577350 /   0.290438  0.106308  0.950970 ->  -1.5369562168
    5:   0.000000  0.707107  0.707107 /   0.000000  0.255702  0.966756 ->  -1.5216236547
    6:   0.707107  0.000000  0.707107 /   0.289027 -0.144513  0.946351 ->  -1.5216236526
    7:   0.707107  0.707107  0.000000 /   0.939071  0.343724  0.000000 ->  -1.5685674135

 Angular average effective mass for Frohlich model, averaged over degenerate bands.
 Value of     (<<m**0.5>>)**2 =     7.841641E-01
 Absolute Value of <<m**0.5>> =     8.855304E-01

 K-point ( 0.000, 0.000, 0.000) | band =    53
 Effective mass tensor:
              0.1731022344             -0.0000000000              0.0000000000
             -0.0000000000              0.1731022344              0.0000000000
              0.0000000000              0.0000000000              0.1612553229
 Effective mass tensor eigenvalues:
              0.1612553229              0.1731022344              0.1731022344
 Angular average effective mass 1/(<1/m>)=   0.1689644750
 Angular average effective mass for Frohlich model (<m**0.5>)**2=   0.1690217866
 Effective masses along directions: (cart. coord. / red. coord. -> eff. mass)
    1:   1.000000  0.000000  0.000000 /   0.894427 -0.447214  0.000000 ->   0.1731022344
    2:   0.000000  1.000000  0.000000 /   0.000000  1.000000  0.000000 ->   0.1731022344
    3:   0.000000  0.000000  1.000000 /   0.000000  0.000000  1.000000 ->   0.1612553229
    4:   0.577350  0.577350  0.577350 /   0.290438  0.106308  0.950970 ->   0.1689644750
    5:   0.000000  0.707107  0.707107 /   0.000000  0.255702  0.966756 ->   0.1669688996
    6:   0.707107  0.000000  0.707107 /   0.289027 -0.144513  0.946351 ->   0.1669688996
    7:   0.707107  0.707107  0.000000 /   0.939071  0.343724  0.000000 ->   0.1731022344

 END OF EFFECTIVE MASSES SECTION

 ---- first-order wavefunction calculations are completed ----

 Total localisation tensor (bohr^2) in cartesian coordinates
  WARNING : still subject to testing - especially symmetries.
      direction              matrix element
   alpha     beta       real part   imaginary part
     1        1       3.3610081243    0.0000000000
     1        2      -1.1642873746    0.0000000000
     1        3       0.0000000000    0.0000000000
     2        1      -1.1642873746    0.0000000000
     2        2       2.0166048874    0.0000000000
     2        3       0.0000000000    0.0000000000
     3        1       0.0000000000    0.0000000000
     3        2       0.0000000000    0.0000000000
     3        3       1.1211972021    0.0000000000

 respfn : d/dk was computed, but no 2DTE, so no DDB output.

== END DATASET(S) ==============================================================

 -outvars: echo values of variables after computation  --------
            acell      1.0000000000E+00  1.0000000000E+00  1.0000000000E+00 Bohr
              amu      6.53900000E+01  3.20660000E+01
             ecut      4.20000000E+01 Hartree
           etotal     -9.3198846768E+00
            fcart      0.0000000000E+00  0.0000000000E+00  0.0000000000E+00
                       0.0000000000E+00  0.0000000000E+00  0.0000000000E+00
                       0.0000000000E+00  0.0000000000E+00  0.0000000000E+00
                       0.0000000000E+00  0.0000000000E+00  0.0000000000E+00
                       0.0000000000E+00  0.0000000000E+00  0.0000000000E+00
                       0.0000000000E+00  0.0000000000E+00  0.0000000000E+00
                       0.0000000000E+00  0.0000000000E+00  0.0000000000E+00
                       0.0000000000E+00  0.0000000000E+00  0.0000000000E+00
-          fftalg         512
           irdden           1
           irdwfk           1
           istwfk        1
              ixc     -116133
           kptopt           0
P           mkmem           1
P          mkqmem           1
P          mk1mem           1
            natom           8
            nband          61
           nbdbuf           4
            ngfft          45      45     144
             nkpt           1
            nstep        2000
             nsym          12
           ntypat           2
              occ      2.000000  2.000000  2.000000  2.000000  2.000000  2.000000
                       2.000000  2.000000  2.000000  2.000000  2.000000  2.000000
                       2.000000  2.000000  2.000000  2.000000  2.000000  2.000000
                       2.000000  2.000000  2.000000  2.000000  2.000000  2.000000
                       2.000000  2.000000  2.000000  2.000000  2.000000  2.000000
                       2.000000  2.000000  2.000000  2.000000  2.000000  2.000000
                       2.000000  2.000000  2.000000  2.000000  2.000000  2.000000
                       2.000000  2.000000  2.000000  2.000000  2.000000  2.000000
                       2.000000  2.000000  2.000000  2.000000  0.000000  0.000000
                       0.000000  0.000000  0.000000  0.000000  0.000000  0.000000
                       0.000000
        optdriver           1
            prtwf          -1
            rfdir           1       1       1
           rfelfd           2
            rprim      7.1503125079E+00  0.0000000000E+00  0.0000000000E+00
                      -3.5751562539E+00  6.1923522768E+00  0.0000000000E+00
                       0.0000000000E+00  0.0000000000E+00  2.3412026396E+01
          spgroup         186
           strten      0.0000000000E+00  0.0000000000E+00  0.0000000000E+00
                       0.0000000000E+00  0.0000000000E+00  0.0000000000E+00
           symrel      1  0  0   0  1  0   0  0  1       0  1  0   1  0  0   0  0  1
                       1  1  0  -1  0  0   0  0  1      -1  0  0   1  1  0   0  0  1
                       0  1  0  -1 -1  0   0  0  1      -1 -1  0   0  1  0   0  0  1
                      -1  0  0   0 -1  0   0  0  1       0 -1  0  -1  0  0   0  0  1
                      -1 -1  0   1  0  0   0  0  1       1  0  0  -1 -1  0   0  0  1
                       0 -1  0   1  1  0   0  0  1       1  1  0   0 -1  0   0  0  1
            tnons      0.0000000  0.0000000  0.0000000    -0.0000000  0.0000000  0.5000000
                      -0.0000000  0.0000000  0.5000000     0.0000000  0.0000000  0.0000000
                       0.0000000  0.0000000  0.0000000     0.0000000  0.0000000  0.5000000
                       0.0000000  0.0000000  0.5000000     0.0000000  0.0000000  0.0000000
                       0.0000000  0.0000000  0.0000000    -0.0000000  0.0000000  0.5000000
                      -0.0000000  0.0000000  0.5000000     0.0000000  0.0000000  0.0000000
           tolwfr      1.00000000E-20
            typat      1  1  1  1  2  2  2  2
           useylm           1
           xangst      1.8918912067E+00  1.0922838975E+00  9.2926631523E+00
                       1.7638771742E-11  2.1845677950E+00  3.0981077644E+00
                      -2.1004211778E-16  4.8507149296E-16  6.1962898634E+00
                      -2.1004211778E-16  4.8507149296E-16  1.7344755086E-03
                       1.8918912067E+00  1.0922838975E+00  1.1615720536E+01
                       1.7638771742E-11  2.1845677950E+00  5.4211651477E+00
                      -2.1004211778E-16  4.8507149296E-16  8.5140199291E+00
                      -2.1004211778E-16  4.8507149296E-16  2.3194645412E+00
            xcart      3.5751562540E+00  2.0641174256E+00  1.7560588403E+01
                       3.3332447913E-11  4.1282348512E+00  5.8545752048E+00
                      -3.9692207897E-16  9.1665227657E-16  1.1709290882E+01
                      -3.9692207897E-16  9.1665227657E-16  3.2776836955E-03
                       3.5751562540E+00  2.0641174256E+00  2.1950530649E+01
                       3.3332447913E-11  4.1282348512E+00  1.0244517450E+01
                      -3.9692207897E-16  9.1665227657E-16  1.6089165956E+01
                      -3.9692207897E-16  9.1665227657E-16  4.3831527579E+00
             xred      6.6666666667E-01  3.3333333333E-01  7.5006700000E-01
                       3.3333333333E-01  6.6666666667E-01  2.5006700000E-01
                       1.8503717077E-17  1.4802973662E-16  5.0014000000E-01
                       1.8503717077E-17  1.4802973662E-16  1.4000000000E-04
                       6.6666666667E-01  3.3333333333E-01  9.3757500000E-01
                       3.3333333333E-01  6.6666666667E-01  4.3757500000E-01
                       1.8503717077E-17  1.4802973662E-16  6.8721800000E-01
                       1.8503717077E-17  1.4802973662E-16  1.8721800000E-01
            znucl       30.00000   16.00000

- Timing analysis has been suppressed with timopt=0

 Suggested references for the acknowledgment of ABINIT usage.

 Calculation completed.
.Delivered   6 WARNINGs and   5 COMMENTs to log file.