.Version 9.5.1 of ABINIT

 ABINIT is a project of the Universite Catholique de Louvain,
 Corning Inc. and other collaborators, see ~abinit/doc/developers/contributors.txt .
 acknowledgments of the ABINIT effort.

.Starting date : Tue 11 May 2021.
- ( at 21h10 )

- input  file    -> /scratch/users/j/a/jabreu/flow_simple_8atoms/flow/w261/t1/run.abi
- output file    -> /scratch/users/j/a/jabreu/flow_simple_8atoms/flow/w261/t1/run.abo
- root for input  files -> /scratch/users/j/a/jabreu/flow_simple_8atoms/flow/w261/t1/indata/in
- root for output files -> /scratch/users/j/a/jabreu/flow_simple_8atoms/flow/w261/t1/outdata/out

 Symmetries : space group P4/n m m (#129); Bravais tP (primitive tetrag.)
     intxc =       0      iscf =       7    lmnmax =      18     lnmax =       6
     mgfft =     100  mpssoang =       3    mqgrid =    4932     natom =       8
  nloc_mem =       1    nspden =       1   nspinor =       1    nsppol =       1
      nsym =      16    n1xccc =    2501    ntypat =       4    occopt =       1
   xclevel =       2
-    mband =          51        mffmem =           1         mkmem =           1
-   mkqmem =           1        mk1mem =           1           mpw =       13089
      nfft =      230400          nkpt =           1
  Rough estimation (10% accuracy) of disk space for files :

------------- Echo of variables that govern the present computation ------------
-
- outvars: echo of selected default values
-   iomode0 =  0 , fftalg0 =512 , wfoptalg0 =  0
-
- outvars: echo of global parameters not present in the input file
-  max_nthreads =    0
-
 -outvars: echo values of preprocessed input variables --------
            acell      1.0000000000E+00  1.0000000000E+00  1.0000000000E+00 Bohr
              amu      8.76200000E+01  6.35460000E+01  3.20660000E+01
                       1.89984032E+01
             ecut      4.60000000E+01 Hartree
-          fftalg         512
           irdden           1
           irdwfk           1
           istwfk        1
              ixc     -116133
           kptopt           0
P           mkmem           1
P          mkqmem           1
P          mk1mem           1
            natom           8
            nband          51
           nbdbuf           4
            ngfft          48      48     100
             nkpt           1
            nstep        2000
             nsym          16
           ntypat           4
              occ      2.000000  2.000000  2.000000  2.000000  2.000000  2.000000
                       2.000000  2.000000  2.000000  2.000000  2.000000  2.000000
                       2.000000  2.000000  2.000000  2.000000  2.000000  2.000000
                       2.000000  2.000000  2.000000  2.000000  2.000000  2.000000
                       2.000000  2.000000  2.000000  2.000000  2.000000  2.000000
                       2.000000  2.000000  2.000000  2.000000  2.000000  2.000000
                       2.000000  2.000000  2.000000  2.000000  2.000000  2.000000
                       0.000000  0.000000  0.000000  0.000000  0.000000  0.000000
                       0.000000  0.000000  0.000000
        optdriver           1
            prtwf          -1
            rfdir           1       1       1
           rfelfd           2
            rprim      7.3624224924E+00  0.0000000000E+00  0.0000000000E+00
                       0.0000000000E+00  7.3624224924E+00  0.0000000000E+00
                       0.0000000000E+00  0.0000000000E+00  1.6152039135E+01
          spgroup         129
           symrel      1  0  0   0  1  0   0  0  1      -1  0  0   0 -1  0   0  0 -1
                      -1  0  0   0  1  0   0  0 -1       1  0  0   0 -1  0   0  0  1
                      -1  0  0   0 -1  0   0  0  1       1  0  0   0  1  0   0  0 -1
                       1  0  0   0 -1  0   0  0 -1      -1  0  0   0  1  0   0  0  1
                       0  1  0   1  0  0   0  0  1       0 -1  0  -1  0  0   0  0 -1
                       0 -1  0   1  0  0   0  0 -1       0  1  0  -1  0  0   0  0  1
                       0 -1  0  -1  0  0   0  0  1       0  1  0   1  0  0   0  0 -1
                       0  1  0  -1  0  0   0  0 -1       0 -1  0   1  0  0   0  0  1
            tnons      0.0000000  0.0000000  0.0000000     0.5000000  0.5000000  0.0000000
                       0.5000000  0.5000000  0.0000000     0.0000000  0.0000000  0.0000000
                       0.0000000  0.0000000  0.0000000     0.5000000  0.5000000  0.0000000
                       0.5000000  0.5000000  0.0000000     0.0000000  0.0000000  0.0000000
                       0.5000000  0.5000000  0.0000000     0.0000000  0.0000000  0.0000000
                       0.0000000  0.0000000  0.0000000     0.5000000  0.5000000  0.0000000
                       0.5000000  0.5000000  0.0000000     0.0000000  0.0000000  0.0000000
                       0.0000000  0.0000000  0.0000000     0.5000000  0.5000000  0.0000000
           tolwfr      1.00000000E-20
            typat      1  1  2  2  3  3  4  4
           useylm           1
           xangst      0.0000000000E+00  1.9480130915E+00  7.0888667223E+00
                       1.9480130915E+00  0.0000000000E+00  1.4584242604E+00
                       1.9480130915E+00  1.9480130915E+00  4.2736454913E+00
                       0.0000000000E+00  0.0000000000E+00  4.2736454913E+00
                       1.9480130915E+00  0.0000000000E+00  5.6435369117E+00
                       0.0000000000E+00  1.9480130915E+00  2.9037540710E+00
                       1.9480130915E+00  1.9480130915E+00  0.0000000000E+00
                       0.0000000000E+00  0.0000000000E+00  0.0000000000E+00
            xcart      0.0000000000E+00  3.6812112462E+00  1.3396016698E+01
                       3.6812112462E+00  0.0000000000E+00  2.7560224377E+00
                       3.6812112462E+00  3.6812112462E+00  8.0760195677E+00
                       0.0000000000E+00  0.0000000000E+00  8.0760195677E+00
                       3.6812112462E+00  0.0000000000E+00  1.0664739184E+01
                       0.0000000000E+00  3.6812112462E+00  5.4872999514E+00
                       3.6812112462E+00  3.6812112462E+00  0.0000000000E+00
                       0.0000000000E+00  0.0000000000E+00  0.0000000000E+00
             xred      0.0000000000E+00  5.0000000000E-01  8.2937000000E-01
                       5.0000000000E-01  0.0000000000E+00  1.7063000000E-01
                       5.0000000000E-01  5.0000000000E-01  5.0000000000E-01
                       0.0000000000E+00  0.0000000000E+00  5.0000000000E-01
                       5.0000000000E-01  0.0000000000E+00  6.6027200000E-01
                       0.0000000000E+00  5.0000000000E-01  3.3972800000E-01
                       5.0000000000E-01  5.0000000000E-01  0.0000000000E+00
                       0.0000000000E+00  0.0000000000E+00  0.0000000000E+00
            znucl       38.00000   29.00000   16.00000    9.00000

 chkinp: Checking input parameters for consistency.

== DATASET  1 ==================================================================
-   mpi_nproc: 1, omp_nthreads: -1 (-1 if OMP is not activated)

--- !DatasetInfo
iteration_state: {dtset: 1, }
dimensions: {natom: 8, nkpt: 1, mband: 51, nsppol: 1, nspinor: 1, nspden: 1, mpw: 13089, }
cutoff_energies: {ecut:  46.0, pawecutdg:  -1.0, }
electrons: {nelect:   8.40000000E+01, charge:   0.00000000E+00, occopt:   1.00000000E+00, tsmear:   1.00000000E-02, }
meta: {optdriver: 1, rfelfd: 2, }
...

 Real(R)+Recip(G) space primitive vectors, cartesian coordinates (Bohr,Bohr^-1):
 R(1)=  7.3624225  0.0000000  0.0000000  G(1)=  0.1358249  0.0000000  0.0000000
 R(2)=  0.0000000  7.3624225  0.0000000  G(2)=  0.0000000  0.1358249  0.0000000
 R(3)=  0.0000000  0.0000000 16.1520391  G(3)=  0.0000000  0.0000000  0.0619117
 Unit cell volume ucvol=  8.7552556E+02 bohr^3
 Angles (23,13,12)=  9.00000000E+01  9.00000000E+01  9.00000000E+01 degrees

 getcut: wavevector=  0.0000  0.0000  0.0000  ngfft=  48  48 100
         ecut(hartree)=     46.000   => boxcut(ratio)=   2.02782

--- Pseudopotential description ------------------------------------------------
- pspini: atom type   1  psp file is /scratch/users/j/a/jabreu/pseudos/PBEsol/Sr.psp8
- pspatm: opening atomic psp file    /scratch/users/j/a/jabreu/pseudos/PBEsol/Sr.psp8
- Sr    ONCVPSP-3.3.0  r_core=   1.66721   1.31335   1.51547
- 38.00000  10.00000    180112                znucl, zion, pspdat
    8 -116133    2    4       600   0.00000   pspcod,pspxc,lmax,lloc,mmax,r2well
    5.99000000000000    6.00000000000000    0.00000000000000   rchrg,fchrg,qchrg
     nproj     2     2     2
     extension_switch     1
  pspatm : epsatm=   12.46450977
         --- l  ekb(1:nproj) -->
             0   10.029206    1.044171
             1    7.472414    1.670829
             2    4.142950    0.968140
 pspatm: atomic psp has been read  and splines computed

- pspini: atom type   2  psp file is /scratch/users/j/a/jabreu/pseudos/PBEsol/Cu.psp8
- pspatm: opening atomic psp file    /scratch/users/j/a/jabreu/pseudos/PBEsol/Cu.psp8
- Cu    ONCVPSP-3.3.0  r_core=   1.26204   1.45626   1.76249
- 29.00000  19.00000    180112                znucl, zion, pspdat
    8 -116133    2    4       600   0.00000   pspcod,pspxc,lmax,lloc,mmax,r2well
    5.99000000000000    3.50000000000000    0.00000000000000   rchrg,fchrg,qchrg
     nproj     2     2     2
     extension_switch     1
  pspatm : epsatm=   21.63488701
         --- l  ekb(1:nproj) -->
             0    5.008230   -0.401634
             1   -3.496700   -0.765945
             2   -6.895851   -2.521180
 pspatm: atomic psp has been read  and splines computed

[...]

- pspini: atom type   4  psp file is /scratch/users/j/a/jabreu/pseudos/PBEsol/F.psp8
- pspatm: opening atomic psp file    /scratch/users/j/a/jabreu/pseudos/PBEsol/F.psp8
- F     ONCVPSP-3.3.0  r_core=   1.30942   1.45782   1.60379
-  9.00000   7.00000    180112                znucl, zion, pspdat
    8 -116133    2    4       600   0.00000   pspcod,pspxc,lmax,lloc,mmax,r2well
    5.99000000000000    2.50000000000000    0.00000000000000   rchrg,fchrg,qchrg
     nproj     2     2     1
     extension_switch     1
  pspatm : epsatm=    4.89824824
         --- l  ekb(1:nproj) -->
             0    6.506434    1.065875
             1   -3.978753   -1.295852
             2   -2.394754
 pspatm: atomic psp has been read  and splines computed

   8.01629722E+03                                ecore*ucvol(ha*bohr**3)

-inwffil : will read wavefunctions from disk file /scratch/users/j/a/jabreu/flow_simple_8atoms/flow/w261/t1/indata/in_WFK

 ==>  initialize data related to q vector <==

 The list of irreducible perturbations for this q vector is:
    1)    idir= 1    ipert=   9
    2)    idir= 2    ipert=   9
    3)    idir= 3    ipert=   9

 Perturbation wavevector (in red.coord.)   0.000000  0.000000  0.000000
 Perturbation : derivative vs k along direction   1

 dfpt_looppert : COMMENT -
  In a d/dk calculation, iscf is set to -3 automatically.
 The set of symmetries contains only one element for this perturbation.
 symkpt : not enough symmetry to change the number of k points.

[...]

[...]
   0.00000   -0.01225    0.00000

 Eight components of 2nd-order total energy (hartree) are
 1,2,3: 0th-order hamiltonian combined with 1st-order wavefunctions
     kin0=   9.69862646E+01 eigvalue=  -2.49150309E+00  local=  -4.18545318E+01
 4,5,6: 1st-order hamiltonian combined with 1st and 0th-order wfs
     kin1=  -1.43524936E+02  Hartree=   0.00000000E+00     xc=   0.00000000E+00
 7,8,9: eventually, occupation + non-local contributions
    edocc=   2.16718152E+01     enl0=   8.32941547E-01   enl1=  -6.76503730E+00
 1-9 gives the relaxation energy (to be shifted if some occ is /=2.0)
   erelax=  -7.51449864E+01
  No Ewald or frozen-wf contrib.: the relaxation energy is the total one
 2DEtotal=   -0.7514498641E+02 Ha. Also 2DEtotal=   -0.204479907040E+04 eV
    (  non-var. 2DEtotal :   -7.5144986411E+01 Ha)

 Perturbation wavevector (in red.coord.)   0.000000  0.000000  0.000000
 Perturbation : derivative vs k along direction   2
 The set of symmetries contains only one element for this perturbation.
 symkpt : not enough symmetry to change the number of k points.

[...]

 Perturbation wavevector (in red.coord.)   0.000000  0.000000  0.000000
 Perturbation : derivative vs k along direction   3
 The set of symmetries contains only one element for this perturbation.
 symkpt : not enough symmetry to change the number of k points.

-inwffil : will read wavefunctions from disk file /scratch/users/j/a/jabreu/flow_simple_8atoms/flow/w261/t1/indata/in_WFK

 Initialisation of the first-order wave-functions :
  ireadwf=   0

--- !BeginCycle
iteration_state: {dtset: 1, }
solver: {iscf: 7, nstep: 2000, nline: 4, wfoptalg: 0, }
tolerances: {tolwfr: 1.00E-20, }
...

     iter   2DEtotal(Ha)        deltaE(Ha) residm    vres2
-ETOT  1  -13.859476582462     -1.386E+01 2.454E-02 0.000E+00
 ETOT  2  -13.908898960031     -4.942E-02 8.409E-04 0.000E+00
 ETOT  3  -13.910153940443     -1.255E-03 6.579E-05 0.000E+00
 ETOT  4  -13.910199381643     -4.544E-05 6.546E-06 0.000E+00
 ETOT  5  -13.910201721827     -2.340E-06 5.041E-07 0.000E+00
 ETOT  6  -13.910201861032     -1.392E-07 5.319E-08 0.000E+00
 ETOT  7  -13.910201869875     -8.843E-09 4.060E-09 0.000E+00
 ETOT  8  -13.910201870469     -5.944E-10 4.686E-10 0.000E+00
 ETOT  9  -13.910201870511     -4.121E-11 3.489E-11 0.000E+00
 ETOT 10  -13.910201870514     -2.936E-12 4.275E-12 0.000E+00
 ETOT 11  -13.910201870514     -2.114E-13 3.121E-13 0.000E+00
 ETOT 12  -13.910201870514     -3.020E-14 3.976E-14 0.000E+00
 ETOT 13  -13.910201870514     -5.329E-15 2.861E-15 0.000E+00
 ETOT 14  -13.910201870514      1.776E-15 3.750E-16 0.000E+00
 ETOT 15  -13.910201870514     -1.066E-14 2.670E-17 0.000E+00
 ETOT 16  -13.910201870514      5.329E-15 3.570E-18 0.000E+00
 ETOT 17  -13.910201870514      1.776E-15 2.523E-19 0.000E+00
 ETOT 18  -13.910201870514     -5.329E-15 3.424E-20 0.000E+00
 ETOT 19  -13.910201870514      1.776E-15 9.646E-21 0.000E+00

 At SCF step   19   max residual=  9.65E-21 < tolwfr=  1.00E-20 =>converged.

 ----iterations are completed or convergence reached----

 dfpt_looppert: DFPT cycle converged with prtwf=-1. Will skip output of the 1st-order WFK file.
 dfpt_looppert : ek2=    2.5422268546E+01
          f-sum rule ratio=    1.0211666419E+00
 prteigrs : about to open file /scratch/users/j/a/jabreu/flow_simple_8atoms/flow/w261/t1/tmpdata/tmp_1WF1_EIG
 Expectation of eigenvalue derivatives (hartree) for nkpt=   1  k points:
  (in case of degenerate eigenvalues, averaged derivative)
 kpt#   1, nband= 51, wtk=  1.00000, kpt=  0.0000  0.0000  0.0000 (reduced coord)
   0.00000    0.00000    0.00000   -0.00000   -0.00000   -0.00000    0.00000    0.00000
  -0.00000    0.00000   -0.00000   -0.00000   -0.00000    0.00000    0.00000    0.00000
   0.00000    0.00000    0.00000    0.00000    0.00000    0.00000    0.00000   -0.00000
   0.00000    0.00000    0.00000   -0.00000    0.00000    0.00000   -0.00000   -0.00000
  -0.00000    0.00000   -0.00000   -0.00000    0.00000    0.00000    0.00000   -0.00000
  -0.00000   -0.00000    0.00000   -0.00000    0.00000    0.00000   -0.00000   -0.00000
   0.00000    0.00000   -0.00000

 Eight components of 2nd-order total energy (hartree) are
 1,2,3: 0th-order hamiltonian combined with 1st-order wavefunctions
     kin0=   2.15844693E+01 eigvalue=  -5.98861903E-01  local=  -9.55316525E+00
 4,5,6: 1st-order hamiltonian combined with 1st and 0th-order wfs
     kin1=  -2.59603726E+01  Hartree=   0.00000000E+00     xc=   0.00000000E+00
 7,8,9: eventually, occupation + non-local contributions
    edocc=   2.33949393E+00     enl0=   1.38265830E-01   enl1=  -1.86003114E+00
 1-9 gives the relaxation energy (to be shifted if some occ is /=2.0)
   erelax=  -1.39102019E+01
  No Ewald or frozen-wf contrib.: the relaxation energy is the total one
 2DEtotal=   -0.1391020187E+02 Ha. Also 2DEtotal=   -0.378515842669E+03 eV
    (  non-var. 2DEtotal :   -1.3910201870E+01 Ha)

 CALCULATION OF EFFECTIVE MASSES
 NOTE : Additional infos (eff. mass eigenvalues, eigenvectors and, if degenerate, average mass) are available in stdout.

 COMMENTS:
 - At k-point ( 0.000, 0.000, 0.000), bands    41 through    42
   are DEGENERATE (effective mass tensor is therefore not defined).
   See Section IIIB Eqs. (67)-(70) and Appendix E of PRB 93 205147 (2016).
 - Angular average effective mass for Frohlich model is to be averaged over degenerate bands. See later.
 - Associated theta integrals calculated with ntheta=   1000 points.

 K-point ( 0.000, 0.000, 0.000) | band =    41
 Transport equivalent effective mass tensor:
             -0.4475432835              0.0000020524             -0.0000195962
              0.0000020524             -0.4475412245              0.0000162746
             -0.0000195962              0.0000162746            -18.9533279656
 Transport equivalent effective mass tensor eigenvalues:
            -18.9533279657             -0.4475445501             -0.4475399579
 Angular average effective mass 1/(<1/m>)=  -0.5595913118
 Angular average effective mass for Frohlich model (<m**0.5>)**2=  -0.7826238144
 Effective masses along directions: (cart. coord. / red. coord. -> eff. mass)
    1:   1.000000  0.000000  0.000000 /   1.000000  0.000000  0.000000 ->  -0.3181533874
    2:   0.000000  1.000000  0.000000 /   0.000000  1.000000  0.000000 ->  -0.3181533875
    3:   0.000000  0.000000  1.000000 /   0.000000  0.000000  1.000000 -> -14.2885256628
    4:   0.577350  0.577350  0.577350 /   0.383117  0.383117  0.840501 ->  -0.7959286236
    5:   0.000000  0.707107  0.707107 /   0.000000  0.414764  0.909929 ->  -0.6224489598
    6:   0.707107  0.000000  0.707107 /   0.414764  0.000000  0.909929 ->  -0.6224500762
    7:   0.707107  0.707107  0.000000 /   0.707107  0.707107  0.000000 ->  -0.5406544623

 K-point ( 0.000, 0.000, 0.000) | band =    42
 Transport equivalent effective mass tensor:
             -3.0417342513              0.0000061764             -0.0005493161
              0.0000061764             -3.0418809672              0.0003856714
             -0.0005493161              0.0003856714            -59.7067758464
 Transport equivalent effective mass tensor eigenvalues:
            -59.7067758544             -3.0418812238             -3.0417339867
 Angular average effective mass 1/(<1/m>)=  -1.6760015408
 Angular average effective mass for Frohlich model (<m**0.5>)**2=  -2.3984385654
 Effective masses along directions: (cart. coord. / red. coord. -> eff. mass)
    1:   1.000000  0.000000  0.000000 /   1.000000  0.000000  0.000000 ->  -2.7593553810
    2:   0.000000  1.000000  0.000000 /   0.000000  1.000000  0.000000 ->  -2.7593562464
    3:   0.000000  0.000000  1.000000 /   0.000000  0.000000  1.000000 -> -14.2937229746
    4:   0.577350  0.577350  0.577350 /   0.383117  0.383117  0.840501 ->  -0.8870936891
    5:   0.000000  0.707107  0.707107 /   0.000000  0.414764  0.909929 ->  -4.6252995999
    6:   0.707107  0.000000  0.707107 /   0.414764  0.000000  0.909929 ->  -4.6260328507
    7:   0.707107  0.707107  0.000000 /   0.707107  0.707107  0.000000 ->  -0.6038907418

 Angular average effective mass for Frohlich model, averaged over degenerate bands.
 Value of     (<<m**0.5>>)**2 =     1.480298E+00
 Absolute Value of <<m**0.5>> =     1.216675E+00

 K-point ( 0.000, 0.000, 0.000) | band =    43
 Effective mass tensor:
              0.2827371630              0.0000000001             -0.0000000000
              0.0000000001              0.2827371631             -0.0000000000
             -0.0000000000             -0.0000000000              0.4109113912
 Effective mass tensor eigenvalues:
              0.2827371630              0.2827371631              0.4109113912
 Angular average effective mass 1/(<1/m>)=   0.3155462630
 Angular average effective mass for Frohlich model (<m**0.5>)**2=   0.3182922526
 Effective masses along directions: (cart. coord. / red. coord. -> eff. mass)
    1:   1.000000  0.000000  0.000000 /   1.000000  0.000000  0.000000 ->   0.2827371630
    2:   0.000000  1.000000  0.000000 /   0.000000  1.000000  0.000000 ->   0.2827371631
    3:   0.000000  0.000000  1.000000 /   0.000000  0.000000  1.000000 ->   0.4109113912
    4:   0.577350  0.577350  0.577350 /   0.383117  0.383117  0.840501 ->   0.3155462630
    5:   0.000000  0.707107  0.707107 /   0.000000  0.414764  0.909929 ->   0.3349820894
    6:   0.707107  0.000000  0.707107 /   0.414764  0.000000  0.909929 ->   0.3349820894
    7:   0.707107  0.707107  0.000000 /   0.707107  0.707107  0.000000 ->   0.2827371631

 END OF EFFECTIVE MASSES SECTION

 ---- first-order wavefunction calculations are completed ----

 Total localisation tensor (bohr^2) in cartesian coordinates
  WARNING : still subject to testing - especially symmetries.
      direction              matrix element
   alpha     beta       real part   imaginary part
     1        1       1.3173088955    0.0000000000
     1        2       0.0000000000    0.0000000000
     1        3       0.0000000000    0.0000000000
     2        1       0.0000000000    0.0000000000
     2        2       1.3173084612    0.0000000000
     2        3       0.0000000000    0.0000000000
     3        1       0.0000000000    0.0000000000
     3        2       0.0000000000    0.0000000000
     3        3       0.7601153025    0.0000000000

 respfn : d/dk was computed, but no 2DTE, so no DDB output.

== END DATASET(S) ==============================================================

 -outvars: echo values of variables after computation  --------
            acell      1.0000000000E+00  1.0000000000E+00  1.0000000000E+00 Bohr
              amu      8.76200000E+01  6.35460000E+01  3.20660000E+01
                       1.89984032E+01
             ecut      4.60000000E+01 Hartree
           etotal     -1.3910201871E+01
            fcart      0.0000000000E+00  0.0000000000E+00  0.0000000000E+00
                       0.0000000000E+00  0.0000000000E+00  0.0000000000E+00
                       0.0000000000E+00  0.0000000000E+00  0.0000000000E+00
                       0.0000000000E+00  0.0000000000E+00  0.0000000000E+00
                       0.0000000000E+00  0.0000000000E+00  0.0000000000E+00
                       0.0000000000E+00  0.0000000000E+00  0.0000000000E+00
                       0.0000000000E+00  0.0000000000E+00  0.0000000000E+00
                       0.0000000000E+00  0.0000000000E+00  0.0000000000E+00
-          fftalg         512
           irdden           1
           irdwfk           1
           istwfk        1
              ixc     -116133
           kptopt           0
P           mkmem           1
P          mkqmem           1
P          mk1mem           1
            natom           8
            nband          51
           nbdbuf           4
            ngfft          48      48     100
             nkpt           1
            nstep        2000
             nsym          16
           ntypat           4
              occ      2.000000  2.000000  2.000000  2.000000  2.000000  2.000000
                       2.000000  2.000000  2.000000  2.000000  2.000000  2.000000
                       2.000000  2.000000  2.000000  2.000000  2.000000  2.000000
                       2.000000  2.000000  2.000000  2.000000  2.000000  2.000000
                       2.000000  2.000000  2.000000  2.000000  2.000000  2.000000
                       2.000000  2.000000  2.000000  2.000000  2.000000  2.000000
                       2.000000  2.000000  2.000000  2.000000  2.000000  2.000000
                       0.000000  0.000000  0.000000  0.000000  0.000000  0.000000
                       0.000000  0.000000  0.000000
        optdriver           1
            prtwf          -1
            rfdir           1       1       1
           rfelfd           2
            rprim      7.3624224924E+00  0.0000000000E+00  0.0000000000E+00
                       0.0000000000E+00  7.3624224924E+00  0.0000000000E+00
                       0.0000000000E+00  0.0000000000E+00  1.6152039135E+01
          spgroup         129
           strten      0.0000000000E+00  0.0000000000E+00  0.0000000000E+00
                       0.0000000000E+00  0.0000000000E+00  0.0000000000E+00
           symrel      1  0  0   0  1  0   0  0  1      -1  0  0   0 -1  0   0  0 -1
                      -1  0  0   0  1  0   0  0 -1       1  0  0   0 -1  0   0  0  1
                      -1  0  0   0 -1  0   0  0  1       1  0  0   0  1  0   0  0 -1
                       1  0  0   0 -1  0   0  0 -1      -1  0  0   0  1  0   0  0  1
                       0  1  0   1  0  0   0  0  1       0 -1  0  -1  0  0   0  0 -1
                       0 -1  0   1  0  0   0  0 -1       0  1  0  -1  0  0   0  0  1
                       0 -1  0  -1  0  0   0  0  1       0  1  0   1  0  0   0  0 -1
                       0  1  0  -1  0  0   0  0 -1       0 -1  0   1  0  0   0  0  1
            tnons      0.0000000  0.0000000  0.0000000     0.5000000  0.5000000  0.0000000
                       0.5000000  0.5000000  0.0000000     0.0000000  0.0000000  0.0000000
                       0.0000000  0.0000000  0.0000000     0.5000000  0.5000000  0.0000000
                       0.5000000  0.5000000  0.0000000     0.0000000  0.0000000  0.0000000
                       0.5000000  0.5000000  0.0000000     0.0000000  0.0000000  0.0000000
                       0.0000000  0.0000000  0.0000000     0.5000000  0.5000000  0.0000000
                       0.5000000  0.5000000  0.0000000     0.0000000  0.0000000  0.0000000
                       0.0000000  0.0000000  0.0000000     0.5000000  0.5000000  0.0000000
           tolwfr      1.00000000E-20
            typat      1  1  2  2  3  3  4  4
           useylm           1
           xangst      0.0000000000E+00  1.9480130915E+00  7.0888667223E+00
                       1.9480130915E+00  0.0000000000E+00  1.4584242604E+00
                       1.9480130915E+00  1.9480130915E+00  4.2736454913E+00
                       0.0000000000E+00  0.0000000000E+00  4.2736454913E+00
                       1.9480130915E+00  0.0000000000E+00  5.6435369117E+00
                       0.0000000000E+00  1.9480130915E+00  2.9037540710E+00
                       1.9480130915E+00  1.9480130915E+00  0.0000000000E+00
                       0.0000000000E+00  0.0000000000E+00  0.0000000000E+00
            xcart      0.0000000000E+00  3.6812112462E+00  1.3396016698E+01
                       3.6812112462E+00  0.0000000000E+00  2.7560224377E+00
                       3.6812112462E+00  3.6812112462E+00  8.0760195677E+00
                       0.0000000000E+00  0.0000000000E+00  8.0760195677E+00
                       3.6812112462E+00  0.0000000000E+00  1.0664739184E+01
                       0.0000000000E+00  3.6812112462E+00  5.4872999514E+00
                       3.6812112462E+00  3.6812112462E+00  0.0000000000E+00
                       0.0000000000E+00  0.0000000000E+00  0.0000000000E+00
             xred      0.0000000000E+00  5.0000000000E-01  8.2937000000E-01
                       5.0000000000E-01  0.0000000000E+00  1.7063000000E-01
                       5.0000000000E-01  5.0000000000E-01  5.0000000000E-01
                       0.0000000000E+00  0.0000000000E+00  5.0000000000E-01
                       5.0000000000E-01  0.0000000000E+00  6.6027200000E-01
                       0.0000000000E+00  5.0000000000E-01  3.3972800000E-01
                       5.0000000000E-01  5.0000000000E-01  0.0000000000E+00
                       0.0000000000E+00  0.0000000000E+00  0.0000000000E+00
            znucl       38.00000   29.00000   16.00000    9.00000

- Timing analysis has been suppressed with timopt=0

 Suggested references for the acknowledgment of ABINIT usage.

 Calculation completed.
.Delivered   6 WARNINGs and   5 COMMENTs to log file.