.Version 9.5.1 of ABINIT

 ABINIT is a project of the Universite Catholique de Louvain,
 Corning Inc. and other collaborators, see ~abinit/doc/developers/contributors.txt .
 acknowledgments of the ABINIT effort.

.Starting date : Tue 27 Apr 2021.
- ( at 15h32 )

- input  file    -> /scratch/users/j/a/jabreu/flow_simple/flow/w138/t1/run.abi
- output file    -> /scratch/users/j/a/jabreu/flow_simple/flow/w138/t1/run.abo
- root for input  files -> /scratch/users/j/a/jabreu/flow_simple/flow/w138/t1/indata/in
- root for output files -> /scratch/users/j/a/jabreu/flow_simple/flow/w138/t1/outdata/out

 Symmetries : space group I4/m m m (#139); Bravais tI (body-center tetrag.)
     intxc =       0      iscf =       7    lmnmax =      18     lnmax =       6
     mgfft =      50  mpssoang =       3    mqgrid =    3001     natom =       3
  nloc_mem =       1    nspden =       1   nspinor =       1    nsppol =       1
      nsym =      16    n1xccc =    2501    ntypat =       2    occopt =       1
   xclevel =       2
-    mband =          20        mffmem =           1         mkmem =           1
-   mkqmem =           1        mk1mem =           1           mpw =        4576
      nfft =      125000          nkpt =           1
  Rough estimation (10% accuracy) of disk space for files :

------------- Echo of variables that govern the present computation ------------
-
- outvars: echo of selected default values
-   iomode0 =  0 , fftalg0 =512 , wfoptalg0 =  0
-
- outvars: echo of global parameters not present in the input file
-  max_nthreads =    0
-
 -outvars: echo values of preprocessed input variables --------
            acell      1.0000000000E+00  1.0000000000E+00  1.0000000000E+00 Bohr
              amu      1.37327000E+02  1.59994000E+01
             ecut      4.40000000E+01 Hartree
-          fftalg         512
           irdden           1
           irdwfk           1
              ixc     -116133
              kpt      5.00000000E-01  5.00000000E-01 -5.00000000E-01
           kptopt           0
P           mkmem           1
P          mkqmem           1
P          mk1mem           1
            natom           3
            nband          20
           nbdbuf           4
            ngfft          50      50      50
             nkpt           1
            nstep         100
             nsym          16
           ntypat           2
              occ      2.000000  2.000000  2.000000  2.000000  2.000000  2.000000
                       2.000000  2.000000  2.000000  2.000000  2.000000  0.000000
                       0.000000  0.000000  0.000000  0.000000  0.000000  0.000000
                       0.000000  0.000000
        optdriver           1
            prtwf          -1
            rfdir           1       1       1
           rfelfd           2
            rprim      6.4322472497E+00  0.0000000000E+00 -5.0300846343E+00
                      -1.5283761388E+00  6.2480293740E+00 -5.0300846343E+00
                       0.0000000000E+00  0.0000000000E+00  8.1655101561E+00
          spgroup         139
           symrel      1  0  0   0  1  0   0  0  1      -1  0  0   0 -1  0   0  0 -1
                      -1 -1 -1   0  0  1   0  1  0       1  1  1   0  0 -1   0 -1  0
                       0  1  0   1  0  0  -1 -1 -1       0 -1  0  -1  0  0   1  1  1
                       0  0  1  -1 -1 -1   1  0  0       0  0 -1   1  1  1  -1  0  0
                       0  1  0   1  0  0   0  0  1       0 -1  0  -1  0  0   0  0 -1
                      -1 -1 -1   0  0  1   1  0  0       1  1  1   0  0 -1  -1  0  0
                       1  0  0   0  1  0  -1 -1 -1      -1  0  0   0 -1  0   1  1  1
                       0  0  1  -1 -1 -1   0  1  0       0  0 -1   1  1  1   0 -1  0
           tolwfr      1.00000000E-20
            typat      1  2  2
           useylm           1
           xangst      0.0000000000E+00  0.0000000000E+00  0.0000000000E+00
                       1.0160269378E+00  1.2945214115E+00 -2.0843539205E+00
                       1.5789898880E+00  2.0117933319E+00 -3.2392583710E+00
            xcart      0.0000000000E+00  0.0000000000E+00  0.0000000000E+00
                       1.9200126561E+00  2.4462909408E+00 -3.9388580737E+00
                       2.9838584548E+00  3.8017384332E+00 -6.1213111949E+00
             xred      0.0000000000E+00  0.0000000000E+00  0.0000000000E+00
                       3.9153000000E-01  3.9153000000E-01  8.3266726847E-17
                       6.0847000000E-01  6.0847000000E-01  1.1102230246E-16
            znucl       56.00000    8.00000

 chkinp: Checking input parameters for consistency.

== DATASET  1 ==================================================================
-   mpi_nproc: 1, omp_nthreads: -1 (-1 if OMP is not activated)

--- !DatasetInfo
iteration_state: {dtset: 1, }
dimensions: {natom: 3, nkpt: 1, mband: 20, nsppol: 1, nspinor: 1, nspden: 1, mpw: 4576, }
cutoff_energies: {ecut:  44.0, pawecutdg:  -1.0, }
electrons: {nelect:   2.20000000E+01, charge:   0.00000000E+00, occopt:   1.00000000E+00, tsmear:   1.00000000E-02, }
meta: {optdriver: 1, rfelfd: 2, }
...

 Real(R)+Recip(G) space primitive vectors, cartesian coordinates (Bohr,Bohr^-1):
 R(1)=  6.4322472  0.0000000 -5.0300846  G(1)=  0.1554667  0.0380298  0.0000000
 R(2)= -1.5283761  6.2480294 -5.0300846  G(2)=  0.0000000  0.1600505  0.0000000
 R(3)=  0.0000000  0.0000000  8.1655102  G(3)=  0.0957699  0.1220206  0.1224663
 Unit cell volume ucvol=  3.2816262E+02 bohr^3
 Angles (23,13,12)=  1.28025779E+02  1.28025779E+02  7.65832703E+01 degrees

 getcut: wavevector=  0.0000  0.0000  0.0000  ngfft=  50  50  50
         ecut(hartree)=     44.000   => boxcut(ratio)=   2.05178

--- Pseudopotential description ------------------------------------------------
- pspini: atom type   1  psp file is /scratch/users/j/a/jabreu/pseudos/PBEsol/Ba.psp8
- pspatm: opening atomic psp file    /scratch/users/j/a/jabreu/pseudos/PBEsol/Ba.psp8
- Ba    ONCVPSP-3.3.0  r_core=   2.15444   1.91218   2.15444
- 56.00000  10.00000    180112                znucl, zion, pspdat
    8 -116133    2    4       600   0.00000   pspcod,pspxc,lmax,lloc,mmax,r2well
    5.99000000000000    5.00000000000000    0.00000000000000   rchrg,fchrg,qchrg
     nproj     2     2     2
     extension_switch     1
  pspatm : epsatm=   26.37418029
         --- l  ekb(1:nproj) -->
             0    6.652372    0.677024
             1    5.027722    0.408462
             2    2.543237    0.416854
 pspatm: atomic psp has been read  and splines computed

- pspini: atom type   2  psp file is /scratch/users/j/a/jabreu/pseudos/PBEsol/O.psp8
- pspatm: opening atomic psp file    /scratch/users/j/a/jabreu/pseudos/PBEsol/O.psp8
- O     ONCVPSP-3.3.0  r_core=   1.35509   1.45563   1.26150
-  8.00000   6.00000    180112                znucl, zion, pspdat
    8 -116133    2    4       600   0.00000   pspcod,pspxc,lmax,lloc,mmax,r2well
    5.99000000000000    4.00000000000000    0.00000000000000   rchrg,fchrg,qchrg
     nproj     2     2     1
     extension_switch     1
  pspatm : epsatm=    6.22910522
         --- l  ekb(1:nproj) -->
             0    6.050032    0.820363
             1   -4.739617   -1.153841
             2   -1.335834
 pspatm: atomic psp has been read  and splines computed

   8.54312596E+02                                ecore*ucvol(ha*bohr**3)

-inwffil : will read wavefunctions from disk file /scratch/users/j/a/jabreu/flow_simple/flow/w138/t1/indata/in_WFK

 ==>  initialize data related to q vector <==

 The list of irreducible perturbations for this q vector is:
    1)    idir= 1    ipert=   4
    2)    idir= 2    ipert=   4
    3)    idir= 3    ipert=   4

 Perturbation wavevector (in red.coord.)   0.000000  0.000000  0.000000
 Perturbation : derivative vs k along direction   1

 dfpt_looppert : COMMENT -
  In a d/dk calculation, iscf is set to -3 automatically.
 The set of symmetries contains only one element for this perturbation.
 symkpt : not enough symmetry to change the number of k points.

[...]

 Initialisation of the first-order wave-functions :
  ireadwf=   0

--- !BeginCycle
iteration_state: {dtset: 1, }
solver: {iscf: 7, nstep: 100, nline: 4, wfoptalg: 0, }
tolerances: {tolwfr: 1.00E-20, }
...

     iter   2DEtotal(Ha)        deltaE(Ha) residm    vres2
-ETOT  1  -28.308570703035     -2.831E+01 1.693E-02 0.000E+00
 ETOT  2  -28.312342637661     -3.772E-03 4.129E-05 0.000E+00
 ETOT  3  -28.312343742810     -1.105E-06 7.038E-08 0.000E+00
 ETOT  4  -28.312343743361     -5.511E-10 4.596E-10 0.000E+00
 ETOT  5  -28.312343743362     -3.944E-13 1.757E-12 0.000E+00
 ETOT  6  -28.312343743361      2.487E-14 6.567E-15 0.000E+00
 ETOT  7  -28.312343743361      1.776E-14 4.368E-17 0.000E+00
 ETOT  8  -28.312343743361      0.000E+00 2.193E-19 0.000E+00
 ETOT  9  -28.312343743361      0.000E+00 9.991E-21 0.000E+00

 At SCF step    9   max residual=  9.99E-21 < tolwfr=  1.00E-20 =>converged.

 ----iterations are completed or convergence reached----

 dfpt_looppert: DFPT cycle converged with prtwf=-1. Will skip output of the 1st-order WFK file.
 dfpt_looppert : ek2=    4.4496544700E+01
          f-sum rule ratio=    1.2112421384E+00
 prteigrs : about to open file /scratch/users/j/a/jabreu/flow_simple/flow/w138/t1/tmpdata/tmp_1WF1_EIG
 Expectation of eigenvalue derivatives (hartree) for nkpt=   1  k points:
  (in case of degenerate eigenvalues, averaged derivative)
 kpt#   1, nband= 20, wtk=  1.00000, kpt=  0.5000  0.5000 -0.5000 (reduced coord)
   0.00000    0.00000   -0.00000    0.00000    0.00000    0.00000   -0.00000    0.00000
   0.00000    0.00000    0.00000   -0.00000    0.00000   -0.00000    0.00000   -0.00000
  -0.00000   -0.00000   -0.00000   -0.00000

 Eight components of 2nd-order total energy (hartree) are
 1,2,3: 0th-order hamiltonian combined with 1st-order wavefunctions
     kin0=   2.03056793E+01 eigvalue=  -9.83591259E-01  local=  -6.29131881E+00
 4,5,6: 1st-order hamiltonian combined with 1st and 0th-order wfs
     kin1=  -5.38960900E+01  Hartree=   0.00000000E+00     xc=   0.00000000E+00
 7,8,9: eventually, occupation + non-local contributions
    edocc=   1.58722375E+01     enl0=  -5.90662926E-01   enl1=  -2.72859753E+00
 1-9 gives the relaxation energy (to be shifted if some occ is /=2.0)
   erelax=  -2.83123437E+01
  No Ewald or frozen-wf contrib.: the relaxation energy is the total one
 2DEtotal=   -0.2831234374E+02 Ha. Also 2DEtotal=   -0.770418053577E+03 eV
    (  non-var. 2DEtotal :   -2.8312343743E+01 Ha)

 Perturbation wavevector (in red.coord.)   0.000000  0.000000  0.000000
 Perturbation : derivative vs k along direction   2
 The set of symmetries contains only one element for this perturbation.
 symkpt : not enough symmetry to change the number of k points.

[...]

 Perturbation wavevector (in red.coord.)   0.000000  0.000000  0.000000
 Perturbation : derivative vs k along direction   3
 The set of symmetries contains only one element for this perturbation.
 symkpt : not enough symmetry to change the number of k points.

-inwffil : will read wavefunctions from disk file /scratch/users/j/a/jabreu/flow_simple/flow/w138/t1/indata/in_WFK

 Initialisation of the first-order wave-functions :
  ireadwf=   0

--- !BeginCycle
iteration_state: {dtset: 1, }
solver: {iscf: 7, nstep: 100, nline: 4, wfoptalg: 0, }
tolerances: {tolwfr: 1.00E-20, }
...

     iter   2DEtotal(Ha)        deltaE(Ha) residm    vres2
-ETOT  1  -44.990570085667     -4.499E+01 1.159E-02 0.000E+00
 ETOT  2  -44.994543173767     -3.973E-03 2.875E-06 0.000E+00
 ETOT  3  -44.994544132738     -9.590E-07 2.059E-09 0.000E+00
 ETOT  4  -44.994544132977     -2.386E-10 6.340E-13 0.000E+00
 ETOT  5  -44.994544132977     -8.527E-14 2.420E-15 0.000E+00
 ETOT  6  -44.994544132977     -4.974E-14 3.290E-18 0.000E+00
 ETOT  7  -44.994544132977      3.553E-14 2.345E-20 0.000E+00
 ETOT  8  -44.994544132977     -1.421E-14 9.336E-21 0.000E+00

 At SCF step    8   max residual=  9.34E-21 < tolwfr=  1.00E-20 =>converged.

 ----iterations are completed or convergence reached----

 dfpt_looppert: DFPT cycle converged with prtwf=-1. Will skip output of the 1st-order WFK file.
 dfpt_looppert : ek2=    6.7847304908E+01
          f-sum rule ratio=    1.2655751134E+00
 prteigrs : about to open file /scratch/users/j/a/jabreu/flow_simple/flow/w138/t1/tmpdata/tmp_1WF1_EIG
 Expectation of eigenvalue derivatives (hartree) for nkpt=   1  k points:
  (in case of degenerate eigenvalues, averaged derivative)
 kpt#   1, nband= 20, wtk=  1.00000, kpt=  0.5000  0.5000 -0.5000 (reduced coord)
   0.00000    0.00000   -0.00000    0.00000    0.00000    0.00000    0.00000    0.00000
   0.00000    0.00000    0.00000    0.00000    0.00000    0.00000    0.00000    0.00000
   0.00000   -0.00000    0.00000    0.00000

 Eight components of 2nd-order total energy (hartree) are
 1,2,3: 0th-order hamiltonian combined with 1st-order wavefunctions
     kin0=   3.06388901E+01 eigvalue=  -1.28120048E+00  local=  -9.61987753E+00
 4,5,6: 1st-order hamiltonian combined with 1st and 0th-order wfs
     kin1=  -8.58658606E+01  Hartree=   0.00000000E+00     xc=   0.00000000E+00
 7,8,9: eventually, occupation + non-local contributions
    edocc=   2.57916630E+01     enl0=  -5.34930948E-01   enl1=  -4.12322766E+00
 1-9 gives the relaxation energy (to be shifted if some occ is /=2.0)
   erelax=  -4.49945441E+01
  No Ewald or frozen-wf contrib.: the relaxation energy is the total one
 2DEtotal=   -0.4499454413E+02 Ha. Also 2DEtotal=   -0.122436381201E+04 eV
    (  non-var. 2DEtotal :   -4.4994544133E+01 Ha)

 CALCULATION OF EFFECTIVE MASSES
 NOTE : Additional infos (eff. mass eigenvalues, eigenvectors and, if degenerate, average mass) are available in stdout.

 COMMENTS:
 - At k-point ( 0.500, 0.500,-0.500), bands    10 through    11
   are DEGENERATE (effective mass tensor is therefore not defined).
   See Section IIIB Eqs. (67)-(70) and Appendix E of PRB 93 205147 (2016).
 - Angular average effective mass for Frohlich model is to be averaged over degenerate bands. See later.
 - Associated theta integrals calculated with ntheta=   1000 points.

 K-point ( 0.500, 0.500,-0.500) | band =    10
 Transport equivalent effective mass tensor:
             -4.7394181748              0.7332544252             -1.1806384870
              0.7332544252             -4.3806847245             -1.5042532264
             -1.1806384870             -1.5042532264             -2.8928749235
 Transport equivalent effective mass tensor eigenvalues:
             -5.3149253277             -5.3149252631             -1.3831272321
 Angular average effective mass 1/(<1/m>)=  -2.7269400811
 Angular average effective mass for Frohlich model (<m**0.5>)**2=  -3.1272173659
 Effective masses along directions: (cart. coord. / red. coord. -> eff. mass)
    1:   1.000000  0.000000  0.000000 /   0.972912 -0.231175  0.000000 ->  -3.7308005096
    2:   0.000000  1.000000  0.000000 /   0.000000  1.000000  0.000000 ->  -3.1491677592
    3:   0.000000  0.000000  1.000000 /  -0.464478 -0.464478  0.754003 ->  -1.9343590671
    4:   0.577350  0.577350  0.577350 /   0.169122 -0.037443  0.984884 ->  -5.3490226212
    5:   0.000000  0.707107  0.707107 /  -0.520308  0.125983  0.844634 ->  -4.7013385010
    6:   0.707107  0.000000  0.707107 /   0.132696 -0.620673  0.772759 ->  -4.2814113400
    7:   0.707107  0.707107  0.000000 /   0.806245  0.591581  0.000000 ->  -2.5676630640

 K-point ( 0.500, 0.500,-0.500) | band =    11
 Transport equivalent effective mass tensor:
             -7.8675347596              1.4161733645             -2.2802299733
              1.4161733645             -7.1746937229             -2.9052443523
             -2.2802299733             -2.9052443523             -4.3012073855
 Transport equivalent effective mass tensor eigenvalues:
             -8.9790423009             -8.9790422826             -1.3853512845
 Angular average effective mass 1/(<1/m>)=  -3.1688472112
 Angular average effective mass for Frohlich model (<m**0.5>)**2=  -4.1156209386
 Effective masses along directions: (cart. coord. / red. coord. -> eff. mass)
    1:   1.000000  0.000000  0.000000 /   0.972912 -0.231175  0.000000 ->  -5.0071727263
    2:   0.000000  1.000000  0.000000 /   0.000000  1.000000  0.000000 ->  -3.9230777428
    3:   0.000000  0.000000  1.000000 /  -0.464478 -0.464478  0.754003 ->  -2.0421291744
    4:   0.577350  0.577350  0.577350 /   0.169122 -0.037443  0.984884 ->  -8.6490318484
    5:   0.000000  0.707107  0.707107 /  -0.520308  0.125983  0.844634 ->  -7.2548474250
    6:   0.707107  0.000000  0.707107 /   0.132696 -0.620673  0.772759 ->  -6.2863785567
    7:   0.707107  0.707107  0.000000 /   0.806245  0.591581  0.000000 ->  -2.9016219369

 Angular average effective mass for Frohlich model, averaged over degenerate bands.
 Value of     (<<m**0.5>>)**2 =     3.604479E+00
 Absolute Value of <<m**0.5>> =     1.898547E+00

 K-point ( 0.500, 0.500,-0.500) | band =    12
 Effective mass tensor:
              0.5753978952              0.2035323048             -0.3277144386
              0.2035323048              0.6749729450             -0.4175414468
             -0.3277144386             -0.4175414468              1.0879501335
 Effective mass tensor eigenvalues:
              0.4156521368              0.4156521370              1.5070166999
 Angular average effective mass 1/(<1/m>)=   0.5479173279
 Angular average effective mass for Frohlich model (<m**0.5>)**2=   0.5946552895
 Effective masses along directions: (cart. coord. / red. coord. -> eff. mass)
    1:   1.000000  0.000000  0.000000 /   0.972912 -0.231175  0.000000 ->   0.4649359623
    2:   0.000000  1.000000  0.000000 /   0.000000  1.000000  0.000000 ->   0.5020411751
    3:   0.000000  0.000000  1.000000 /  -0.464478 -0.464478  0.754003 ->   0.7504261125
    4:   0.577350  0.577350  0.577350 /   0.169122 -0.037443  0.984884 ->   0.4163813166
    5:   0.000000  0.707107  0.707107 /  -0.520308  0.125983  0.844634 ->   0.4294054847
    6:   0.707107  0.000000  0.707107 /   0.132696 -0.620673  0.772759 ->   0.4415243693
    7:   0.707107  0.707107  0.000000 /   0.806245  0.591581  0.000000 ->   0.5725984505

 END OF EFFECTIVE MASSES SECTION

 ---- first-order wavefunction calculations are completed ----

 Total localisation tensor (bohr^2) in cartesian coordinates
  WARNING : still subject to testing - especially symmetries.
      direction              matrix element
   alpha     beta       real part   imaginary part
     1        1       1.0832011715    0.0000000000
     1        2      -0.2366487562    0.0000000000
     1        3      -0.6112871327    0.0000000000
     2        1      -0.2366487562    0.0000000000
     2        2       0.9674244071    0.0000000000
     2        3      -0.7788418322    0.0000000000
     3        1      -0.6112871327    0.0000000000
     3        2      -0.7788418322    0.0000000000
     3        3       3.9303578039    0.0000000000

 respfn : d/dk was computed, but no 2DTE, so no DDB output.

== END DATASET(S) ==============================================================

 -outvars: echo values of variables after computation  --------
            acell      1.0000000000E+00  1.0000000000E+00  1.0000000000E+00 Bohr
              amu      1.37327000E+02  1.59994000E+01
             ecut      4.40000000E+01 Hartree
           etotal     -4.4994544133E+01
            fcart      0.0000000000E+00  0.0000000000E+00  0.0000000000E+00
                       0.0000000000E+00  0.0000000000E+00  0.0000000000E+00
                       0.0000000000E+00  0.0000000000E+00  0.0000000000E+00
-          fftalg         512
           irdden           1
           irdwfk           1
              ixc     -116133
              kpt      5.00000000E-01  5.00000000E-01 -5.00000000E-01
           kptopt           0
P           mkmem           1
P          mkqmem           1
P          mk1mem           1
            natom           3
            nband          20
           nbdbuf           4
            ngfft          50      50      50
             nkpt           1
            nstep         100
             nsym          16
           ntypat           2
              occ      2.000000  2.000000  2.000000  2.000000  2.000000  2.000000
                       2.000000  2.000000  2.000000  2.000000  2.000000  0.000000
                       0.000000  0.000000  0.000000  0.000000  0.000000  0.000000
                       0.000000  0.000000
        optdriver           1
            prtwf          -1
            rfdir           1       1       1
           rfelfd           2
            rprim      6.4322472497E+00  0.0000000000E+00 -5.0300846343E+00
                      -1.5283761388E+00  6.2480293740E+00 -5.0300846343E+00
                       0.0000000000E+00  0.0000000000E+00  8.1655101561E+00
          spgroup         139
           strten      0.0000000000E+00  0.0000000000E+00  0.0000000000E+00
                       0.0000000000E+00  0.0000000000E+00  0.0000000000E+00
           symrel      1  0  0   0  1  0   0  0  1      -1  0  0   0 -1  0   0  0 -1
                      -1 -1 -1   0  0  1   0  1  0       1  1  1   0  0 -1   0 -1  0
                       0  1  0   1  0  0  -1 -1 -1       0 -1  0  -1  0  0   1  1  1
                       0  0  1  -1 -1 -1   1  0  0       0  0 -1   1  1  1  -1  0  0
                       0  1  0   1  0  0   0  0  1       0 -1  0  -1  0  0   0  0 -1
                      -1 -1 -1   0  0  1   1  0  0       1  1  1   0  0 -1  -1  0  0
                       1  0  0   0  1  0  -1 -1 -1      -1  0  0   0 -1  0   1  1  1
                       0  0  1  -1 -1 -1   0  1  0       0  0 -1   1  1  1   0 -1  0
           tolwfr      1.00000000E-20
            typat      1  2  2
           useylm           1
           xangst      0.0000000000E+00  0.0000000000E+00  0.0000000000E+00
                       1.0160269378E+00  1.2945214115E+00 -2.0843539205E+00
                       1.5789898880E+00  2.0117933319E+00 -3.2392583710E+00
            xcart      0.0000000000E+00  0.0000000000E+00  0.0000000000E+00
                       1.9200126561E+00  2.4462909408E+00 -3.9388580737E+00
                       2.9838584548E+00  3.8017384332E+00 -6.1213111949E+00
             xred      0.0000000000E+00  0.0000000000E+00  0.0000000000E+00
                       3.9153000000E-01  3.9153000000E-01  8.3266726847E-17
                       6.0847000000E-01  6.0847000000E-01  1.1102230246E-16
            znucl       56.00000    8.00000

- Timing analysis has been suppressed with timopt=0

 Suggested references for the acknowledgment of ABINIT usage.

 Calculation completed.
.Delivered   6 WARNINGs and   5 COMMENTs to log file.