.Version 9.5.1 of ABINIT

 ABINIT is a project of the Universite Catholique de Louvain,
 Corning Inc. and other collaborators, see ~abinit/doc/developers/contributors.txt .
 acknowledgments of the ABINIT effort.

.Starting date : Tue 27 Apr 2021.
- ( at 18h33 )

- input  file    -> /scratch/users/j/a/jabreu/flow_simple_4atoms/flow/w191/t1/run.abi
- output file    -> /scratch/users/j/a/jabreu/flow_simple_4atoms/flow/w191/t1/run.abo
- root for input  files -> /scratch/users/j/a/jabreu/flow_simple_4atoms/flow/w191/t1/indata/in
- root for output files -> /scratch/users/j/a/jabreu/flow_simple_4atoms/flow/w191/t1/outdata/out

 Symmetries : space group R-3 m (#166); Bravais hR (rhombohedral)
     intxc =       0      iscf =       7    lmnmax =      18     lnmax =       6
     mgfft =      80  mpssoang =       3    mqgrid =    3001     natom =       4
  nloc_mem =       1    nspden =       1   nspinor =       1    nsppol =       1
      nsym =      12    n1xccc =    2501    ntypat =       3    occopt =       1
   xclevel =       2
-    mband =          25        mffmem =           1         mkmem =           2
-   mkqmem =           2        mk1mem =           2           mpw =        8316
      nfft =      512000          nkpt =           2
  Rough estimation (10% accuracy) of disk space for files :

------------- Echo of variables that govern the present computation ------------
-
- outvars: echo of selected default values
-   iomode0 =  0 , fftalg0 =512 , wfoptalg0 =  0
-
- outvars: echo of global parameters not present in the input file
-  max_nthreads =    0
-
 -outvars: echo values of preprocessed input variables --------
            acell      1.0000000000E+00  1.0000000000E+00  1.0000000000E+00 Bohr
              amu      2.29897680E+01  8.89058500E+01  3.20660000E+01
             ecut      4.40000000E+01 Hartree
-          fftalg         512
           irdden           1
           irdwfk           1
           istwfk        1    1
              ixc     -116133
              kpt      0.00000000E+00  0.00000000E+00  0.00000000E+00
                       5.00000000E-01  5.00000000E-01 -5.55111512E-17
           kptopt           0
P           mkmem           2
P          mkqmem           2
P          mk1mem           2
            natom           4
            nband          25
           nbdbuf           4
            ngfft          80      80      80
             nkpt           2
            nstep         100
             nsym          12
           ntypat           3
              occ      2.000000  2.000000  2.000000  2.000000  2.000000  2.000000
                       2.000000  2.000000  2.000000  2.000000  2.000000  2.000000
                       2.000000  2.000000  2.000000  2.000000  0.000000  0.000000
                       0.000000  0.000000  0.000000  0.000000  0.000000  0.000000
                       0.000000
        optdriver           1
            prtwf          -1
            rfdir           1       1       1
           rfelfd           2
            rprim      7.1350639957E+00  0.0000000000E+00  1.1065702158E+01
                       3.2582355816E+00  6.3476798216E+00  1.1065702158E+01
                       0.0000000000E+00  0.0000000000E+00  1.3166582794E+01
          spgroup         166
           symrel      1  0  0   0  1  0   0  0  1      -1  0  0   0 -1  0   0  0 -1
                       0  1  0   1  0  0   0  0  1       0 -1  0  -1  0  0   0  0 -1
                       0  0  1   1  0  0   0  1  0       0  0 -1  -1  0  0   0 -1  0
                       1  0  0   0  0  1   0  1  0      -1  0  0   0  0 -1   0 -1  0
                       0  1  0   0  0  1   1  0  0       0 -1  0   0  0 -1  -1  0  0
                       0  0  1   0  1  0   1  0  0       0  0 -1   0 -1  0  -1  0  0
           tolwfr      1.00000000E-20
            typat      1  2  3  3
           useylm           1
              wtk        0.50000    0.50000
           xangst      2.7499486292E+00  1.6795237445E+00  9.3394451437E+00
                       0.0000000000E+00  0.0000000000E+00  0.0000000000E+00
                       4.0841137061E+00  2.4943614844E+00  1.3870570350E+01
                       1.4157835522E+00  8.6468600462E-01  4.8083199378E+00
            xcart      5.1966497887E+00  3.1738399108E+00  1.7648993555E+01
                       0.0000000000E+00  0.0000000000E+00  0.0000000000E+00
                       7.7178564001E+00  4.7136600819E+00  2.6211579268E+01
                       2.6754431772E+00  1.6340197397E+00  9.0864078417E+00
             xred      5.0000000000E-01  5.0000000000E-01  5.0000000000E-01
                       0.0000000000E+00  0.0000000000E+00  0.0000000000E+00
                       7.4258000000E-01  7.4258000000E-01  7.4258000000E-01
                       2.5742000000E-01  2.5742000000E-01  2.5742000000E-01
            znucl       11.00000   39.00000   16.00000

 chkinp: Checking input parameters for consistency.

== DATASET  1 ==================================================================
-   mpi_nproc: 1, omp_nthreads: -1 (-1 if OMP is not activated)

--- !DatasetInfo
iteration_state: {dtset: 1, }
dimensions: {natom: 4, nkpt: 2, mband: 25, nsppol: 1, nspinor: 1, nspden: 1, mpw: 8316, }
cutoff_energies: {ecut:  44.0, pawecutdg:  -1.0, }
electrons: {nelect:   3.20000000E+01, charge:   0.00000000E+00, occopt:   1.00000000E+00, tsmear:   1.00000000E-02, }
meta: {optdriver: 1, rfelfd: 2, }
...

 Real(R)+Recip(G) space primitive vectors, cartesian coordinates (Bohr,Bohr^-1):
 R(1)=  7.1350640  0.0000000 11.0657022  G(1)=  0.1401529 -0.0719399  0.0000000
 R(2)=  3.2582356  6.3476798 11.0657022  G(2)=  0.0000000  0.1575379  0.0000000
 R(3)=  0.0000000  0.0000000 13.1665828  G(3)= -0.1177899 -0.0719399  0.0759499
 Unit cell volume ucvol=  5.9632904E+02 bohr^3
 Angles (23,13,12)=  3.28135544E+01  3.28135544E+01  3.28135544E+01 degrees

 getcut: wavevector=  0.0000  0.0000  0.0000  ngfft=  80  80  80
         ecut(hartree)=     44.000   => boxcut(ratio)=   2.03525

--- Pseudopotential description ------------------------------------------------
- pspini: atom type   1  psp file is /scratch/users/j/a/jabreu/pseudos/PBEsol/Na.psp8
- pspatm: opening atomic psp file    /scratch/users/j/a/jabreu/pseudos/PBEsol/Na.psp8
- Na    ONCVPSP-3.3.0  r_core=   1.20708   1.55069
- 11.00000   9.00000    180112                znucl, zion, pspdat
    8 -116133    1    4       400   0.00000   pspcod,pspxc,lmax,lloc,mmax,r2well
    3.99000000000000    0.00000000000000    0.00000000000000   rchrg,fchrg,qchrg
     nproj     2     2
     extension_switch     1
  pspatm : epsatm=    9.32878306
         --- l  ekb(1:nproj) -->
             0    2.657905   -0.678300
             1   -6.761319   -2.404728
 pspatm: atomic psp has been read  and splines computed

- pspini: atom type   2  psp file is /scratch/users/j/a/jabreu/pseudos/PBEsol/Y.psp8
- pspatm: opening atomic psp file    /scratch/users/j/a/jabreu/pseudos/PBEsol/Y.psp8
- Y     ONCVPSP-3.3.0  r_core=   1.60520   1.51226   1.56736
- 39.00000  11.00000    180112                znucl, zion, pspdat
    8 -116133    2    4       600   0.00000   pspcod,pspxc,lmax,lloc,mmax,r2well
    5.99000000000000    4.00000000000000    0.00000000000000   rchrg,fchrg,qchrg
     nproj     2     2     2
     extension_switch     1
  pspatm : epsatm=   18.54790046
         --- l  ekb(1:nproj) -->
             0   10.130768    0.866504
             1    5.598307    0.427135
             2    1.217602    0.315447
 pspatm: atomic psp has been read  and splines computed

- pspini: atom type   3  psp file is /scratch/users/j/a/jabreu/pseudos/PBEsol/S.psp8
- pspatm: opening atomic psp file    /scratch/users/j/a/jabreu/pseudos/PBEsol/S.psp8
- S     ONCVPSP-3.3.0  r_core=   1.45376   1.45376   1.61851
- 16.00000   6.00000    180112                znucl, zion, pspdat
    8 -116133    2    4       600   0.00000   pspcod,pspxc,lmax,lloc,mmax,r2well
    5.99000000000000    6.00000000000000    0.00000000000000   rchrg,fchrg,qchrg
     nproj     2     2     2
     extension_switch     1
  pspatm : epsatm=    8.71840985
         --- l  ekb(1:nproj) -->
             0    6.834532    0.579453
             1    3.282851    0.896984
             2   -3.496974   -0.974265
 pspatm: atomic psp has been read  and splines computed

   1.45003210E+03                                ecore*ucvol(ha*bohr**3)

-inwffil : will read wavefunctions from disk file /scratch/users/j/a/jabreu/flow_simple_4atoms/flow/w191/t1/indata/in_WFK

 ==>  initialize data related to q vector <==

 The list of irreducible perturbations for this q vector is:
    1)    idir= 1    ipert=   5
    2)    idir= 2    ipert=   5
    3)    idir= 3    ipert=   5

 Perturbation wavevector (in red.coord.)   0.000000  0.000000  0.000000
 Perturbation : derivative vs k along direction   1

 dfpt_looppert : COMMENT -
  In a d/dk calculation, iscf is set to -3 automatically.
 The set of symmetries contains only one element for this perturbation.
 symkpt : not enough symmetry to change the number of k points.

[...]

 Initialisation of the first-order wave-functions :
  ireadwf=   0

--- !BeginCycle
iteration_state: {dtset: 1, }
solver: {iscf: 7, nstep: 100, nline: 4, wfoptalg: 0, }
tolerances: {tolwfr: 1.00E-20, }
...

     iter   2DEtotal(Ha)        deltaE(Ha) residm    vres2
-ETOT  1  -38.329597170753     -3.833E+01 5.832E-02 0.000E+00
 ETOT  2  -38.343001230565     -1.340E-02 4.746E-04 0.000E+00
 ETOT  3  -38.343026405135     -2.517E-05 5.109E-06 0.000E+00
 ETOT  4  -38.343026482241     -7.711E-08 5.537E-08 0.000E+00
 ETOT  5  -38.343026482527     -2.857E-10 8.317E-10 0.000E+00
 ETOT  6  -38.343026482528     -1.080E-12 9.506E-12 0.000E+00
 ETOT  7  -38.343026482528     -1.421E-14 1.598E-13 0.000E+00
 ETOT  8  -38.343026482528     -4.263E-14 1.992E-15 0.000E+00
 ETOT  9  -38.343026482528      3.553E-14 3.677E-17 0.000E+00
 ETOT 10  -38.343026482528     -1.421E-14 6.532E-19 0.000E+00
 ETOT 11  -38.343026482528      1.421E-14 2.489E-20 0.000E+00
 ETOT 12  -38.343026482528     -7.105E-15 9.806E-21 0.000E+00

 At SCF step   12   max residual=  9.81E-21 < tolwfr=  1.00E-20 =>converged.

 ----iterations are completed or convergence reached----

 dfpt_looppert: DFPT cycle converged with prtwf=-1. Will skip output of the 1st-order WFK file.
 dfpt_looppert : ek2=    6.2706084773E+01
          f-sum rule ratio=    1.2056327600E+00
 prteigrs : about to open file /scratch/users/j/a/jabreu/flow_simple_4atoms/flow/w191/t1/tmpdata/tmp_1WF1_EIG
 Expectation of eigenvalue derivatives (hartree) for nkpt=   2  k points:
  (in case of degenerate eigenvalues, averaged derivative)
 kpt#   1, nband= 25, wtk=  0.50000, kpt=  0.0000  0.0000  0.0000 (reduced coord)
  -0.00000    0.00000    0.00000   -0.00000   -0.00000    0.00000   -0.00000   -0.00000
  -0.00000    0.00000   -0.00000   -0.00000   -0.00000    0.00000    0.00000    0.00000
  -0.00000   -0.00000   -0.00000    0.00000    0.00000    0.00000    0.00000   -0.00000
  -0.01344
 prteigrs : prtvol=0 or 1, do not print more k-points.

 Eight components of 2nd-order total energy (hartree) are
 1,2,3: 0th-order hamiltonian combined with 1st-order wavefunctions
     kin0=   2.63197065E+01 eigvalue=   1.94728489E+00  local=  -1.25888468E+01
 4,5,6: 1st-order hamiltonian combined with 1st and 0th-order wfs
     kin1=  -7.56005101E+01  Hartree=   0.00000000E+00     xc=   0.00000000E+00
 7,8,9: eventually, occupation + non-local contributions
    edocc=   2.12811391E+01     enl0=   1.38374285E+00   enl1=  -1.08554291E+00
 1-9 gives the relaxation energy (to be shifted if some occ is /=2.0)
   erelax=  -3.83430265E+01
  No Ewald or frozen-wf contrib.: the relaxation energy is the total one
 2DEtotal=   -0.3834302648E+02 Ha. Also 2DEtotal=   -0.104336681197E+04 eV
    (  non-var. 2DEtotal :   -3.8343026482E+01 Ha)

 Perturbation wavevector (in red.coord.)   0.000000  0.000000  0.000000
 Perturbation : derivative vs k along direction   2
 The set of symmetries contains only one element for this perturbation.
 symkpt : not enough symmetry to change the number of k points.

[...]

 Perturbation wavevector (in red.coord.)   0.000000  0.000000  0.000000
 Perturbation : derivative vs k along direction   3
 The set of symmetries contains only one element for this perturbation.
 symkpt : not enough symmetry to change the number of k points.

-inwffil : will read wavefunctions from disk file /scratch/users/j/a/jabreu/flow_simple_4atoms/flow/w191/t1/indata/in_WFK

 Initialisation of the first-order wave-functions :
  ireadwf=   0

--- !BeginCycle
iteration_state: {dtset: 1, }
solver: {iscf: 7, nstep: 100, nline: 4, wfoptalg: 0, }
tolerances: {tolwfr: 1.00E-20, }
...

     iter   2DEtotal(Ha)        deltaE(Ha) residm    vres2
-ETOT  1  -35.549559629350     -3.555E+01 4.293E-02 0.000E+00
 ETOT  2  -35.560755598054     -1.120E-02 3.146E-04 0.000E+00
 ETOT  3  -35.560774195045     -1.860E-05 1.664E-06 0.000E+00
 ETOT  4  -35.560774252048     -5.700E-08 1.514E-08 0.000E+00
 ETOT  5  -35.560774252264     -2.160E-10 1.330E-10 0.000E+00
 ETOT  6  -35.560774252265     -8.384E-13 1.178E-12 0.000E+00
 ETOT  7  -35.560774252265      2.132E-14 1.225E-14 0.000E+00
 ETOT  8  -35.560774252265      6.395E-14 1.074E-16 0.000E+00
 ETOT  9  -35.560774252265      1.421E-14 6.003E-18 0.000E+00
 ETOT 10  -35.560774252265      0.000E+00 1.036E-19 0.000E+00
 ETOT 11  -35.560774252265     -7.105E-15 9.748E-21 0.000E+00

 At SCF step   11   max residual=  9.75E-21 < tolwfr=  1.00E-20 =>converged.

 ----iterations are completed or convergence reached----

 dfpt_looppert: DFPT cycle converged with prtwf=-1. Will skip output of the 1st-order WFK file.
 dfpt_looppert : ek2=    6.2706084773E+01
          f-sum rule ratio=    1.1119230644E+00
 prteigrs : about to open file /scratch/users/j/a/jabreu/flow_simple_4atoms/flow/w191/t1/tmpdata/tmp_1WF1_EIG
 Expectation of eigenvalue derivatives (hartree) for nkpt=   2  k points:
  (in case of degenerate eigenvalues, averaged derivative)
 kpt#   1, nband= 25, wtk=  0.50000, kpt=  0.0000  0.0000  0.0000 (reduced coord)
  -0.00000   -0.00000   -0.00000    0.00000    0.00000   -0.00000    0.00000    0.00000
   0.00000   -0.00000    0.00000    0.00000    0.00000    0.00000   -0.00000   -0.00000
  -0.00000   -0.00000    0.00000   -0.00000    0.00000   -0.00000   -0.00000   -0.00000
   0.00616
 prteigrs : prtvol=0 or 1, do not print more k-points.

 Eight components of 2nd-order total energy (hartree) are
 1,2,3: 0th-order hamiltonian combined with 1st-order wavefunctions
     kin0=   2.50422182E+01 eigvalue=   1.88774449E+00  local=  -1.14479197E+01
 4,5,6: 1st-order hamiltonian combined with 1st and 0th-order wfs
     kin1=  -6.97243419E+01  Hartree=   0.00000000E+00     xc=   0.00000000E+00
 7,8,9: eventually, occupation + non-local contributions
    edocc=   1.87758299E+01     enl0=   1.30290135E+00   enl1=  -1.39720657E+00
 1-9 gives the relaxation energy (to be shifted if some occ is /=2.0)
   erelax=  -3.55607743E+01
  No Ewald or frozen-wf contrib.: the relaxation energy is the total one
 2DEtotal=   -0.3556077425E+02 Ha. Also 2DEtotal=   -0.967657878537E+03 eV
    (  non-var. 2DEtotal :   -3.5560774252E+01 Ha)

 CALCULATION OF EFFECTIVE MASSES
 NOTE : Additional infos (eff. mass eigenvalues, eigenvectors and, if degenerate, average mass) are available in stdout.

 COMMENTS:
 - At k-point ( 0.000, 0.000, 0.000), bands    15 through    16
   are DEGENERATE (effective mass tensor is therefore not defined).
   See Section IIIB Eqs. (67)-(70) and Appendix E of PRB 93 205147 (2016).
 - Angular average effective mass for Frohlich model is to be averaged over degenerate bands. See later.
 - Associated theta integrals calculated with ntheta=   1000 points.

 K-point ( 0.000, 0.000, 0.000) | band =    15
 Transport equivalent effective mass tensor:
             -0.4703217650             -0.1392003963             -0.7740539642
             -0.1392003963             -0.3274204418             -0.4727508830
             -0.7740539642             -0.4727508830             -2.8712505593
 Transport equivalent effective mass tensor eigenvalues:
             -3.1841837180             -0.2424051484             -0.2424038996
 Angular average effective mass 1/(<1/m>)=  -0.3455105380
 Angular average effective mass for Frohlich model (<m**0.5>)**2=  -0.4313943774
 Effective masses along directions: (cart. coord. / red. coord. -> eff. mass)
    1:   1.000000  0.000000  0.000000 /   0.909644  0.415390  0.000000 ->  -0.2580008175
    2:   0.000000  1.000000  0.000000 /   0.000000  1.000000  0.000000 ->  -0.2473394835
    3:   0.000000  0.000000  1.000000 /   0.541074  0.541074  0.643800 ->  -1.4718140018
    4:   0.577350  0.577350  0.577350 /   0.596204  0.677142  0.431299 ->  -0.5800835440
    5:   0.000000  0.707107  0.707107 /   0.452119  0.711471  0.537956 ->  -0.5748041600
    6:   0.707107  0.000000  0.707107 /   0.683158  0.537643  0.494202 ->  -0.8084455302
    7:   0.707107  0.707107  0.000000 /   0.596283  0.802774  0.000000 ->  -0.2612672546

 K-point ( 0.000, 0.000, 0.000) | band =    16
 Transport equivalent effective mass tensor:
             -1.1611583439             -0.1191302076             -0.6624598921
             -0.1191302076             -1.0388602031             -0.4045946705
             -0.6624598921             -0.4045946705             -3.2159713077
 Transport equivalent effective mass tensor eigenvalues:
             -3.4837867619             -0.9661018592             -0.9661012337
 Angular average effective mass 1/(<1/m>)=  -1.2031754983
 Angular average effective mass for Frohlich model (<m**0.5>)**2=  -1.3043744955
 Effective masses along directions: (cart. coord. / red. coord. -> eff. mass)
    1:   1.000000  0.000000  0.000000 /   0.909644  0.415390  0.000000 ->  -0.9652043086
    2:   0.000000  1.000000  0.000000 /   0.000000  1.000000  0.000000 ->  -0.9138599622
    3:   0.000000  0.000000  1.000000 /   0.541074  0.541074  0.643800 ->  -2.2347424995
    4:   0.577350  0.577350  0.577350 /   0.596204  0.677142  0.431299 ->  -1.8354908199
    5:   0.000000  0.707107  0.707107 /   0.452119  0.711471  0.537956 ->  -1.5453885422
    6:   0.707107  0.000000  0.707107 /   0.683158  0.537643  0.494202 ->  -1.7786682075
    7:   0.707107  0.707107  0.000000 /   0.596283  0.802774  0.000000 ->  -1.0228200389

 Angular average effective mass for Frohlich model, averaged over degenerate bands.
 Value of     (<<m**0.5>>)**2 =     8.090088E-01
 Absolute Value of <<m**0.5>> =     8.994492E-01

 K-point ( 0.500, 0.500,-0.000) | band =    17
 Effective mass tensor:
              0.7466243976              0.2577971586             -0.5630480606
              0.2577971586              0.4819719700             -0.3438798783
             -0.5630480606             -0.3438798783              1.4694580212
 Effective mass tensor eigenvalues:
              0.3245230954              0.4689972524              1.9045340411
 Angular average effective mass 1/(<1/m>)=   0.5227649998
 Angular average effective mass for Frohlich model (<m**0.5>)**2=   0.5921047234
 Effective masses along directions: (cart. coord. / red. coord. -> eff. mass)
    1:   1.000000  0.000000  0.000000 /   0.909644  0.415390  0.000000 ->   0.4913197945
    2:   0.000000  1.000000  0.000000 /   0.000000  1.000000  0.000000 ->   0.3715769382
    3:   0.000000  0.000000  1.000000 /   0.541074  0.541074  0.643800 ->   0.9879965041
    4:   0.577350  0.577350  0.577350 /   0.596204  0.677142  0.431299 ->   0.4621365239
    5:   0.000000  0.707107  0.707107 /   0.452119  0.711471  0.537956 ->   0.4470913601
    6:   0.707107  0.000000  0.707107 /   0.683158  0.537643  0.494202 ->   0.4642312897
    7:   0.707107  0.707107  0.000000 /   0.596283  0.802774  0.000000 ->   0.5799205178

 END OF EFFECTIVE MASSES SECTION

 ---- first-order wavefunction calculations are completed ----

 Total localisation tensor (bohr^2) in cartesian coordinates
  WARNING : still subject to testing - especially symmetries.
      direction              matrix element
   alpha     beta       real part   imaginary part
     1        1       2.6303466772    0.0000000000
     1        2       0.8842099179    0.0000000000
     1        3       4.9169049021    0.0000000000
     2        1       0.8842099179    0.0000000000
     2        2       1.7226137624    0.0000000000
     2        3       3.0029761052    0.0000000000
     3        1       4.9169049021    0.0000000000
     3        2       3.0029761052    0.0000000000
     3        3      16.5082427989    0.0000000000

 respfn : d/dk was computed, but no 2DTE, so no DDB output.

== END DATASET(S) ==============================================================

 -outvars: echo values of variables after computation  --------
            acell      1.0000000000E+00  1.0000000000E+00  1.0000000000E+00 Bohr
              amu      2.29897680E+01  8.89058500E+01  3.20660000E+01
             ecut      4.40000000E+01 Hartree
           etotal     -3.5560774252E+01
            fcart      0.0000000000E+00  0.0000000000E+00  0.0000000000E+00
                       0.0000000000E+00  0.0000000000E+00  0.0000000000E+00
                       0.0000000000E+00  0.0000000000E+00  0.0000000000E+00
                       0.0000000000E+00  0.0000000000E+00  0.0000000000E+00
-          fftalg         512
           irdden           1
           irdwfk           1
           istwfk        1    1
              ixc     -116133
              kpt      0.00000000E+00  0.00000000E+00  0.00000000E+00
                       5.00000000E-01  5.00000000E-01 -5.55111512E-17
           kptopt           0
P           mkmem           2
P          mkqmem           2
P          mk1mem           2
            natom           4
            nband          25
           nbdbuf           4
            ngfft          80      80      80
             nkpt           2
            nstep         100
             nsym          12
           ntypat           3
              occ      2.000000  2.000000  2.000000  2.000000  2.000000  2.000000
                       2.000000  2.000000  2.000000  2.000000  2.000000  2.000000
                       2.000000  2.000000  2.000000  2.000000  0.000000  0.000000
                       0.000000  0.000000  0.000000  0.000000  0.000000  0.000000
                       0.000000
        optdriver           1
            prtwf          -1
            rfdir           1       1       1
           rfelfd           2
            rprim      7.1350639957E+00  0.0000000000E+00  1.1065702158E+01
                       3.2582355816E+00  6.3476798216E+00  1.1065702158E+01
                       0.0000000000E+00  0.0000000000E+00  1.3166582794E+01
          spgroup         166
           strten      0.0000000000E+00  0.0000000000E+00  0.0000000000E+00
                       0.0000000000E+00  0.0000000000E+00  0.0000000000E+00
           symrel      1  0  0   0  1  0   0  0  1      -1  0  0   0 -1  0   0  0 -1
                       0  1  0   1  0  0   0  0  1       0 -1  0  -1  0  0   0  0 -1
                       0  0  1   1  0  0   0  1  0       0  0 -1  -1  0  0   0 -1  0
                       1  0  0   0  0  1   0  1  0      -1  0  0   0  0 -1   0 -1  0
                       0  1  0   0  0  1   1  0  0       0 -1  0   0  0 -1  -1  0  0
                       0  0  1   0  1  0   1  0  0       0  0 -1   0 -1  0  -1  0  0
           tolwfr      1.00000000E-20
            typat      1  2  3  3
           useylm           1
              wtk        0.50000    0.50000
           xangst      2.7499486292E+00  1.6795237445E+00  9.3394451437E+00
                       0.0000000000E+00  0.0000000000E+00  0.0000000000E+00
                       4.0841137061E+00  2.4943614844E+00  1.3870570350E+01
                       1.4157835522E+00  8.6468600462E-01  4.8083199378E+00
            xcart      5.1966497887E+00  3.1738399108E+00  1.7648993555E+01
                       0.0000000000E+00  0.0000000000E+00  0.0000000000E+00
                       7.7178564001E+00  4.7136600819E+00  2.6211579268E+01
                       2.6754431772E+00  1.6340197397E+00  9.0864078417E+00
             xred      5.0000000000E-01  5.0000000000E-01  5.0000000000E-01
                       0.0000000000E+00  0.0000000000E+00  0.0000000000E+00
                       7.4258000000E-01  7.4258000000E-01  7.4258000000E-01
                       2.5742000000E-01  2.5742000000E-01  2.5742000000E-01
            znucl       11.00000   39.00000   16.00000

- Timing analysis has been suppressed with timopt=0

 Suggested references for the acknowledgment of ABINIT usage.

 Calculation completed.
.Delivered  14 WARNINGs and   9 COMMENTs to log file.