.Version 9.5.1 of ABINIT

 ABINIT is a project of the Universite Catholique de Louvain,
 Corning Inc. and other collaborators, see ~abinit/doc/developers/contributors.txt .
 acknowledgments of the ABINIT effort.

.Starting date : Sun 25 Apr 2021.
- ( at 17h13 )

- input  file    -> /scratch/users/j/a/jabreu/flow_simple2/flow/w140/t1/run.abi
- output file    -> /scratch/users/j/a/jabreu/flow_simple2/flow/w140/t1/run.abo
- root for input  files -> /scratch/users/j/a/jabreu/flow_simple2/flow/w140/t1/indata/in
- root for output files -> /scratch/users/j/a/jabreu/flow_simple2/flow/w140/t1/outdata/out

 Symmetries : space group Fm -3 m (#225); Bravais cF (face-center cubic)
     intxc =       0      iscf =       7    lmnmax =      18     lnmax =       6
     mgfft =      48  mpssoang =       3    mqgrid =    3001     natom =       2
  nloc_mem =       1    nspden =       1   nspinor =       1    nsppol =       1
      nsym =      48    n1xccc =    2501    ntypat =       2    occopt =       1
   xclevel =       2
-    mband =          22        mffmem =           1         mkmem =           2
-   mkqmem =           2        mk1mem =           2           mpw =        4621
      nfft =      110592          nkpt =           2
  Rough estimation (10% accuracy) of disk space for files :

------------- Echo of variables that govern the present computation ------------
-
- outvars: echo of selected default values
-   iomode0 =  0 , fftalg0 =512 , wfoptalg0 =  0
-
- outvars: echo of global parameters not present in the input file
-  max_nthreads =    0
-
 -outvars: echo values of preprocessed input variables --------
            acell      1.0000000000E+00  1.0000000000E+00  1.0000000000E+00 Bohr
              amu      4.00780000E+01  7.89600000E+01
             ecut      4.30000000E+01 Hartree
-          fftalg         512
           irdden           1
           irdwfk           1
           istwfk        1    1
              ixc     -116133
              kpt      0.00000000E+00  0.00000000E+00  0.00000000E+00
                       5.00000000E-01  2.46519033E-32  5.00000000E-01
           kptopt           0
P           mkmem           2
P          mkqmem           2
P          mk1mem           2
            natom           2
            nband          22
           nbdbuf           4
            ngfft          48      48      48
             nkpt           2
            nstep         100
             nsym          48
           ntypat           2
              occ      2.000000  2.000000  2.000000  2.000000  2.000000  2.000000
                       2.000000  2.000000  2.000000  2.000000  2.000000  2.000000
                       2.000000  0.000000  0.000000  0.000000  0.000000  0.000000
                       0.000000  0.000000  0.000000  0.000000
        optdriver           1
            prtwf          -1
            rfdir           1       1       1
           rfelfd           2
            rprim      6.7888256142E+00  0.0000000000E+00  3.9195302958E+00
                       2.2629418714E+00  6.4005661708E+00  3.9195302958E+00
                       0.0000000000E+00  0.0000000000E+00  7.8390605917E+00
          spgroup         225
           symrel      1  0  0   0  1  0   0  0  1      -1  0  0   0 -1  0   0  0 -1
                       0 -1  1   0 -1  0   1 -1  0       0  1 -1   0  1  0  -1  1  0
                      -1  0  0  -1  0  1  -1  1  0       1  0  0   1  0 -1   1 -1  0
                       0  1 -1   1  0 -1   0  0 -1       0 -1  1  -1  0  1   0  0  1
                      -1  0  0  -1  1  0  -1  0  1       1  0  0   1 -1  0   1  0 -1
                       0 -1  1   1 -1  0   0 -1  0       0  1 -1  -1  1  0   0  1  0
                       1  0  0   0  0  1   0  1  0      -1  0  0   0  0 -1   0 -1  0
                       0  1 -1   0  0 -1   1  0 -1       0 -1  1   0  0  1  -1  0  1
                      -1  0  1  -1  1  0  -1  0  0       1  0 -1   1 -1  0   1  0  0
                       0 -1  0   1 -1  0   0 -1  1       0  1  0  -1  1  0   0  1 -1
                       1  0 -1   0  0 -1   0  1 -1      -1  0  1   0  0  1   0 -1  1
                       0  1  0   0  0  1   1  0  0       0 -1  0   0  0 -1  -1  0  0
                       1  0 -1   0  1 -1   0  0 -1      -1  0  1   0 -1  1   0  0  1
                       0 -1  0   0 -1  1   1 -1  0       0  1  0   0  1 -1  -1  1  0
                      -1  0  1  -1  0  0  -1  1  0       1  0 -1   1  0  0   1 -1  0
                       0  1  0   1  0  0   0  0  1       0 -1  0  -1  0  0   0  0 -1
                       0  0 -1   0  1 -1   1  0 -1       0  0  1   0 -1  1  -1  0  1
                       1 -1  0   0 -1  1   0 -1  0      -1  1  0   0  1 -1   0  1  0
                       0  0  1   1  0  0   0  1  0       0  0 -1  -1  0  0   0 -1  0
                      -1  1  0  -1  0  0  -1  0  1       1 -1  0   1  0  0   1  0 -1
                       0  0  1   0  1  0   1  0  0       0  0 -1   0 -1  0  -1  0  0
                       1 -1  0   0 -1  0   0 -1  1      -1  1  0   0  1  0   0  1 -1
                       0  0 -1   1  0 -1   0  1 -1       0  0  1  -1  0  1   0 -1  1
                      -1  1  0  -1  0  1  -1  0  0       1 -1  0   1  0 -1   1  0  0
           tolwfr      1.00000000E-20
            typat      1  2
           useylm           1
              wtk        0.50000    0.50000
           xangst      0.0000000000E+00  0.0000000000E+00  0.0000000000E+00
                       2.3949945254E+00  1.6935168698E+00  4.1482522019E+00
            xcart      0.0000000000E+00  0.0000000000E+00  0.0000000000E+00
                       4.5258837428E+00  3.2002830854E+00  7.8390605917E+00
             xred      0.0000000000E+00  0.0000000000E+00  0.0000000000E+00
                       5.0000000000E-01  5.0000000000E-01  5.0000000000E-01
            znucl       20.00000   34.00000

 chkinp: Checking input parameters for consistency.

== DATASET  1 ==================================================================
-   mpi_nproc: 1, omp_nthreads: -1 (-1 if OMP is not activated)

--- !DatasetInfo
iteration_state: {dtset: 1, }
dimensions: {natom: 2, nkpt: 2, mband: 22, nsppol: 1, nspinor: 1, nspden: 1, mpw: 4621, }
cutoff_energies: {ecut:  43.0, pawecutdg:  -1.0, }
electrons: {nelect:   2.60000000E+01, charge:   0.00000000E+00, occopt:   1.00000000E+00, tsmear:   1.00000000E-02, }
meta: {optdriver: 1, rfelfd: 2, }
...

 Real(R)+Recip(G) space primitive vectors, cartesian coordinates (Bohr,Bohr^-1):
 R(1)=  6.7888256  0.0000000  3.9195303  G(1)=  0.1473009 -0.0520787  0.0000000
 R(2)=  2.2629419  6.4005662  3.9195303  G(2)=  0.0000000  0.1562362  0.0000000
 R(3)=  0.0000000  0.0000000  7.8390606  G(3)= -0.0736504 -0.0520787  0.1275663
 Unit cell volume ucvol=  3.4062543E+02 bohr^3
 Angles (23,13,12)=  6.00000000E+01  6.00000000E+01  6.00000000E+01 degrees

 getcut: wavevector=  0.0000  0.0000  0.0000  ngfft=  48  48  48
         ecut(hartree)=     43.000   => boxcut(ratio)=   2.07433

--- Pseudopotential description ------------------------------------------------
- pspini: atom type   1  psp file is /scratch/users/j/a/jabreu/pseudos/PBEsol/Ca.psp8
- pspatm: opening atomic psp file    /scratch/users/j/a/jabreu/pseudos/PBEsol/Ca.psp8
- Ca    ONCVPSP-3.3.0  r_core=   1.45885   1.45885   1.85192
- 20.00000  10.00000    180112                znucl, zion, pspdat
    8 -116133    2    4       400   0.00000   pspcod,pspxc,lmax,lloc,mmax,r2well
    3.99000000000000    6.00000000000000    0.00000000000000   rchrg,fchrg,qchrg
     nproj     2     2     2
     extension_switch     1
  pspatm : epsatm=   12.46045226
         --- l  ekb(1:nproj) -->
             0   10.054847    0.973777
             1    2.998958    0.458102
             2   -3.447298   -1.091650
 pspatm: atomic psp has been read  and splines computed

- pspini: atom type   2  psp file is /scratch/users/j/a/jabreu/pseudos/PBEsol/Se.psp8
- pspatm: opening atomic psp file    /scratch/users/j/a/jabreu/pseudos/PBEsol/Se.psp8
- Se    ONCVPSP-3.3.0  r_core=   1.81943   1.50330   1.90835
- 34.00000  16.00000    180112                znucl, zion, pspdat
    8 -116133    2    4       600   0.00000   pspcod,pspxc,lmax,lloc,mmax,r2well
    5.99000000000000    5.00000000000000    0.00000000000000   rchrg,fchrg,qchrg
     nproj     2     2     2
     extension_switch     1
  pspatm : epsatm=   29.17862020
         --- l  ekb(1:nproj) -->
             0    8.973804    1.019550
             1    6.849857    1.297308
             2   -9.203962   -3.731027
 pspatm: atomic psp has been read  and splines computed

   1.08261588E+03                                ecore*ucvol(ha*bohr**3)

-inwffil : will read wavefunctions from disk file /scratch/users/j/a/jabreu/flow_simple2/flow/w140/t1/indata/in_WFK

 ==>  initialize data related to q vector <==

 The list of irreducible perturbations for this q vector is:
    1)    idir= 1    ipert=   3
    2)    idir= 2    ipert=   3
    3)    idir= 3    ipert=   3

 Perturbation wavevector (in red.coord.)   0.000000  0.000000  0.000000
 Perturbation : derivative vs k along direction   1

 dfpt_looppert : COMMENT -
  In a d/dk calculation, iscf is set to -3 automatically.
 The set of symmetries contains only one element for this perturbation.
 symkpt : not enough symmetry to change the number of k points.

[...]

 Initialisation of the first-order wave-functions :
  ireadwf=   0

--- !BeginCycle
iteration_state: {dtset: 1, }
solver: {iscf: 7, nstep: 100, nline: 4, wfoptalg: 0, }
tolerances: {tolwfr: 1.00E-20, }
...

     iter   2DEtotal(Ha)        deltaE(Ha) residm    vres2
-ETOT  1  -57.455323419358     -5.746E+01 7.467E-02 0.000E+00
 ETOT  2  -57.478883134738     -2.356E-02 1.797E-04 0.000E+00
 ETOT  3  -57.478902418932     -1.928E-05 9.731E-07 0.000E+00
 ETOT  4  -57.478902505510     -8.658E-08 4.473E-08 0.000E+00
 ETOT  5  -57.478902506013     -5.031E-10 6.621E-10 0.000E+00
 ETOT  6  -57.478902506016     -3.126E-12 1.937E-11 0.000E+00
 ETOT  7  -57.478902506016     -4.263E-14 4.120E-13 0.000E+00
 ETOT  8  -57.478902506016     -3.553E-14 1.290E-14 0.000E+00
 ETOT  9  -57.478902506016      0.000E+00 2.975E-16 0.000E+00
 ETOT 10  -57.478902506016     -2.842E-14 9.426E-18 0.000E+00
 ETOT 11  -57.478902506016     -1.421E-14 2.460E-19 0.000E+00
 ETOT 12  -57.478902506016      7.105E-15 1.034E-20 0.000E+00
 ETOT 13  -57.478902506016      7.105E-15 9.652E-21 0.000E+00

 At SCF step   13   max residual=  9.65E-21 < tolwfr=  1.00E-20 =>converged.

 ----iterations are completed or convergence reached----

 dfpt_looppert: DFPT cycle converged with prtwf=-1. Will skip output of the 1st-order WFK file.
 dfpt_looppert : ek2=    5.0110218538E+01
          f-sum rule ratio=    1.3827027697E+00
 prteigrs : about to open file /scratch/users/j/a/jabreu/flow_simple2/flow/w140/t1/tmpdata/tmp_1WF1_EIG
 Expectation of eigenvalue derivatives (hartree) for nkpt=   2  k points:
  (in case of degenerate eigenvalues, averaged derivative)
 kpt#   1, nband= 22, wtk=  0.50000, kpt=  0.0000  0.0000  0.0000 (reduced coord)
  -0.00000   -0.00000   -0.00000   -0.00000   -0.00000    0.00000    0.00000    0.00000
   0.00000    0.00000   -0.00000   -0.00000   -0.00000    0.00000    0.00000    0.00000
   0.00000   -0.00000   -0.00000   -0.00000    0.00000    0.00000
 prteigrs : prtvol=0 or 1, do not print more k-points.

 Eight components of 2nd-order total energy (hartree) are
 1,2,3: 0th-order hamiltonian combined with 1st-order wavefunctions
     kin0=   4.28718678E+01 eigvalue=   7.14126346E+00  local=  -1.72711372E+01
 4,5,6: 1st-order hamiltonian combined with 1st and 0th-order wfs
     kin1=  -6.92875380E+01  Hartree=   0.00000000E+00     xc=   0.00000000E+00
 7,8,9: eventually, occupation + non-local contributions
    edocc=   2.05611242E+01     enl0=   4.17578426E+00   enl1=  -4.56702670E+01
 1-9 gives the relaxation energy (to be shifted if some occ is /=2.0)
   erelax=  -5.74789025E+01
  No Ewald or frozen-wf contrib.: the relaxation energy is the total one
 2DEtotal=   -0.5747890251E+02 Ha. Also 2DEtotal=   -0.156408047994E+04 eV
    (  non-var. 2DEtotal :   -5.7478902506E+01 Ha)

 Perturbation wavevector (in red.coord.)   0.000000  0.000000  0.000000
 Perturbation : derivative vs k along direction   2
 The set of symmetries contains only one element for this perturbation.
 symkpt : not enough symmetry to change the number of k points.

[...]

 Perturbation wavevector (in red.coord.)   0.000000  0.000000  0.000000
 Perturbation : derivative vs k along direction   3
 The set of symmetries contains only one element for this perturbation.
 symkpt : not enough symmetry to change the number of k points.

-inwffil : will read wavefunctions from disk file /scratch/users/j/a/jabreu/flow_simple2/flow/w140/t1/indata/in_WFK

 Initialisation of the first-order wave-functions :
  ireadwf=   0

--- !BeginCycle
iteration_state: {dtset: 1, }
solver: {iscf: 7, nstep: 100, nline: 4, wfoptalg: 0, }
tolerances: {tolwfr: 1.00E-20, }
...

     iter   2DEtotal(Ha)        deltaE(Ha) residm    vres2
-ETOT  1  -57.454971706115     -5.745E+01 7.433E-02 0.000E+00
 ETOT  2  -57.478871248083     -2.390E-02 1.797E-04 0.000E+00
 ETOT  3  -57.478896860879     -2.561E-05 9.730E-07 0.000E+00
 ETOT  4  -57.478896993021     -1.321E-07 1.941E-08 0.000E+00
 ETOT  5  -57.478896993845     -8.239E-10 6.372E-10 0.000E+00
 ETOT  6  -57.478896993851     -5.521E-12 8.300E-12 0.000E+00
 ETOT  7  -57.478896993851     -3.553E-14 3.689E-13 0.000E+00
 ETOT  8  -57.478896993851     -2.842E-14 5.286E-15 0.000E+00
 ETOT  9  -57.478896993851      7.105E-15 2.447E-16 0.000E+00
 ETOT 10  -57.478896993851      2.132E-14 3.562E-18 0.000E+00
 ETOT 11  -57.478896993851      0.000E+00 1.735E-19 0.000E+00
 ETOT 12  -57.478896993851     -1.421E-14 8.853E-21 0.000E+00

 At SCF step   12   max residual=  8.85E-21 < tolwfr=  1.00E-20 =>converged.

 ----iterations are completed or convergence reached----

 dfpt_looppert: DFPT cycle converged with prtwf=-1. Will skip output of the 1st-order WFK file.
 dfpt_looppert : ek2=    5.0110218537E+01
          f-sum rule ratio=    1.3827026183E+00
 prteigrs : about to open file /scratch/users/j/a/jabreu/flow_simple2/flow/w140/t1/tmpdata/tmp_1WF1_EIG
 Expectation of eigenvalue derivatives (hartree) for nkpt=   2  k points:
  (in case of degenerate eigenvalues, averaged derivative)
 kpt#   1, nband= 22, wtk=  0.50000, kpt=  0.0000  0.0000  0.0000 (reduced coord)
  -0.00000   -0.00000    0.00000    0.00000    0.00000   -0.00000   -0.00000   -0.00000
  -0.00000    0.00000   -0.00000   -0.00000   -0.00000   -0.00000   -0.00000   -0.00000
  -0.00000   -0.00000   -0.00000    0.00000    0.00001    0.00001
 prteigrs : prtvol=0 or 1, do not print more k-points.

 Eight components of 2nd-order total energy (hartree) are
 1,2,3: 0th-order hamiltonian combined with 1st-order wavefunctions
     kin0=   4.41194253E+01 eigvalue=   7.08154388E+00  local=  -1.79403427E+01
 4,5,6: 1st-order hamiltonian combined with 1st and 0th-order wfs
     kin1=  -6.92875304E+01  Hartree=   0.00000000E+00     xc=   0.00000000E+00
 7,8,9: eventually, occupation + non-local contributions
    edocc=   2.02441778E+01     enl0=   3.97409273E+00   enl1=  -4.56702636E+01
 1-9 gives the relaxation energy (to be shifted if some occ is /=2.0)
   erelax=  -5.74788970E+01
  No Ewald or frozen-wf contrib.: the relaxation energy is the total one
 2DEtotal=   -0.5747889699E+02 Ha. Also 2DEtotal=   -0.156408032995E+04 eV
    (  non-var. 2DEtotal :   -5.7478896994E+01 Ha)

 CALCULATION OF EFFECTIVE MASSES
 NOTE : Additional infos (eff. mass eigenvalues, eigenvectors and, if degenerate, average mass) are available in stdout.

 COMMENTS:
 - At k-point ( 0.000, 0.000, 0.000), bands    11 through    13
   are DEGENERATE (effective mass tensor is therefore not defined).
   See Section IIIB Eqs. (67)-(70) and Appendix E of PRB 93 205147 (2016).
 - Angular average effective mass for Frohlich model is to be averaged over degenerate bands. See later.
 - Associated theta integrals calculated with ntheta=   1000 points.

 K-point ( 0.000, 0.000, 0.000) | band =    11
 Transport equivalent effective mass tensor:
             -0.1846315571             -0.0000000107              0.0000000156
             -0.0000000107             -0.1846315893              0.0000000027
              0.0000000156              0.0000000027             -0.1846315849
 Transport equivalent effective mass tensor eigenvalues:
             -0.1846315983             -0.1846315848             -0.1846315483
 Angular average effective mass 1/(<1/m>)=  -0.1825711872
 Angular average effective mass for Frohlich model (<m**0.5>)**2=  -0.1827147196
 Effective masses along directions: (cart. coord. / red. coord. -> eff. mass)
    1:   1.000000  0.000000  0.000000 /   0.948683  0.316228  0.000000 ->  -0.1858228902
    2:   0.000000  1.000000  0.000000 /   0.000000  1.000000  0.000000 ->  -0.1923426770
    3:   0.000000  0.000000  1.000000 /   0.408248  0.408248  0.816497 ->  -0.1863189995
    4:   0.577350  0.577350  0.577350 /   0.585539  0.688047  0.428644 ->  -0.1861181118
    5:   0.000000  0.707107  0.707107 /   0.289489  0.762222  0.578977 ->  -0.1788032813
    6:   0.707107  0.000000  0.707107 /   0.731423  0.422287  0.535439 ->  -0.1860696830
    7:   0.707107  0.707107  0.000000 /   0.616798  0.787122  0.000000 ->  -0.1718068751

[...]

 K-point ( 0.000, 0.000, 0.000) | band =    13
 Transport equivalent effective mass tensor:
             -0.9123507922              0.0000001914              0.0000001069
              0.0000001914             -0.9123512021              0.0000001398
              0.0000001069              0.0000001398             -0.9123516643
 Transport equivalent effective mass tensor eigenvalues:
             -0.9123517065             -0.9123512591             -0.9123506930
 Angular average effective mass 1/(<1/m>)=  -0.8475825589
 Angular average effective mass for Frohlich model (<m**0.5>)**2=  -0.8503919334
 Effective masses along directions: (cart. coord. / red. coord. -> eff. mass)
    1:   1.000000  0.000000  0.000000 /   0.948683  0.316228  0.000000 ->  -0.7874187008
    2:   0.000000  1.000000  0.000000 /   0.000000  1.000000  0.000000 ->  -0.6953833949
    3:   0.000000  0.000000  1.000000 /   0.408248  0.408248  0.816497 ->  -0.9075346694
    4:   0.577350  0.577350  0.577350 /   0.585539  0.688047  0.428644 ->  -0.8147464571
    5:   0.000000  0.707107  0.707107 /   0.289489  0.762222  0.578977 ->  -0.8976875906
    6:   0.707107  0.000000  0.707107 /   0.731423  0.422287  0.535439 ->  -0.8589542660
    7:   0.707107  0.707107  0.000000 /   0.616798  0.787122  0.000000 ->  -0.8958121740

 Angular average effective mass for Frohlich model, averaged over degenerate bands.
 Value of     (<<m**0.5>>)**2 =     5.340926E-01
 Absolute Value of <<m**0.5>> =     7.308164E-01

 K-point ( 0.500, 0.000, 0.500) | band =    14
 Effective mass tensor:
              0.4577708221             -0.2650258614              0.3245890643
             -0.2650258614              0.6451724061             -0.4590382573
              0.3245890643             -0.4590382573              0.8325739891
 Effective mass tensor eigenvalues:
              0.2703692382              0.2703692384              1.3947787407
 Angular average effective mass 1/(<1/m>)=   0.3697198988
 Angular average effective mass for Frohlich model (<m**0.5>)**2=   0.4168708205
 Effective masses along directions: (cart. coord. / red. coord. -> eff. mass)
    1:   1.000000  0.000000  0.000000 /   0.948683  0.316228  0.000000 ->   0.3123342724
    2:   0.000000  1.000000  0.000000 /   0.000000  1.000000  0.000000 ->   0.3697198989
    3:   0.000000  0.000000  1.000000 /   0.408248  0.408248  0.816497 ->   0.4529390423
    4:   0.577350  0.577350  0.577350 /   0.585539  0.688047  0.428644 ->   0.2931723005
    5:   0.000000  0.707107  0.707107 /   0.289489  0.762222  0.578977 ->   0.2722166435
    6:   0.707107  0.000000  0.707107 /   0.731423  0.422287  0.535439 ->   0.5422959187
    7:   0.707107  0.707107  0.000000 /   0.616798  0.787122  0.000000 ->   0.2735219097

 END OF EFFECTIVE MASSES SECTION

 ---- first-order wavefunction calculations are completed ----

 Total localisation tensor (bohr^2) in cartesian coordinates
  WARNING : still subject to testing - especially symmetries.
      direction              matrix element
   alpha     beta       real part   imaginary part
     1        1       2.8267638543    0.0000000000
     1        2       0.7995296551    0.0000000000
     1        3       1.9584394871    0.0000000000
     2        1       0.7995296551    0.0000000000
     2        2       2.2614113635    0.0000000000
     2        3       1.3848259848    0.0000000000
     3        1       1.9584394871    0.0000000000
     3        2       1.3848259848    0.0000000000
     3        3       5.0881743976    0.0000000000

 respfn : d/dk was computed, but no 2DTE, so no DDB output.

== END DATASET(S) ==============================================================

 -outvars: echo values of variables after computation  --------
            acell      1.0000000000E+00  1.0000000000E+00  1.0000000000E+00 Bohr
              amu      4.00780000E+01  7.89600000E+01
             ecut      4.30000000E+01 Hartree
           etotal     -5.7478896994E+01
            fcart      0.0000000000E+00  0.0000000000E+00  0.0000000000E+00
                       0.0000000000E+00  0.0000000000E+00  0.0000000000E+00
-          fftalg         512
           irdden           1
           irdwfk           1
           istwfk        1    1
              ixc     -116133
              kpt      0.00000000E+00  0.00000000E+00  0.00000000E+00
                       5.00000000E-01  2.46519033E-32  5.00000000E-01
           kptopt           0
P           mkmem           2
P          mkqmem           2
P          mk1mem           2
            natom           2
            nband          22
           nbdbuf           4
            ngfft          48      48      48
             nkpt           2
            nstep         100
             nsym          48
           ntypat           2
              occ      2.000000  2.000000  2.000000  2.000000  2.000000  2.000000
                       2.000000  2.000000  2.000000  2.000000  2.000000  2.000000
                       2.000000  0.000000  0.000000  0.000000  0.000000  0.000000
                       0.000000  0.000000  0.000000  0.000000
        optdriver           1
            prtwf          -1
            rfdir           1       1       1
           rfelfd           2
            rprim      6.7888256142E+00  0.0000000000E+00  3.9195302958E+00
                       2.2629418714E+00  6.4005661708E+00  3.9195302958E+00
                       0.0000000000E+00  0.0000000000E+00  7.8390605917E+00
          spgroup         225
           strten      0.0000000000E+00  0.0000000000E+00  0.0000000000E+00
                       0.0000000000E+00  0.0000000000E+00  0.0000000000E+00
           symrel      1  0  0   0  1  0   0  0  1      -1  0  0   0 -1  0   0  0 -1
                       0 -1  1   0 -1  0   1 -1  0       0  1 -1   0  1  0  -1  1  0
                      -1  0  0  -1  0  1  -1  1  0       1  0  0   1  0 -1   1 -1  0
                       0  1 -1   1  0 -1   0  0 -1       0 -1  1  -1  0  1   0  0  1
                      -1  0  0  -1  1  0  -1  0  1       1  0  0   1 -1  0   1  0 -1
                       0 -1  1   1 -1  0   0 -1  0       0  1 -1  -1  1  0   0  1  0
                       1  0  0   0  0  1   0  1  0      -1  0  0   0  0 -1   0 -1  0
                       0  1 -1   0  0 -1   1  0 -1       0 -1  1   0  0  1  -1  0  1
                      -1  0  1  -1  1  0  -1  0  0       1  0 -1   1 -1  0   1  0  0
                       0 -1  0   1 -1  0   0 -1  1       0  1  0  -1  1  0   0  1 -1
                       1  0 -1   0  0 -1   0  1 -1      -1  0  1   0  0  1   0 -1  1
                       0  1  0   0  0  1   1  0  0       0 -1  0   0  0 -1  -1  0  0
                       1  0 -1   0  1 -1   0  0 -1      -1  0  1   0 -1  1   0  0  1
                       0 -1  0   0 -1  1   1 -1  0       0  1  0   0  1 -1  -1  1  0
                      -1  0  1  -1  0  0  -1  1  0       1  0 -1   1  0  0   1 -1  0
                       0  1  0   1  0  0   0  0  1       0 -1  0  -1  0  0   0  0 -1
                       0  0 -1   0  1 -1   1  0 -1       0  0  1   0 -1  1  -1  0  1
                       1 -1  0   0 -1  1   0 -1  0      -1  1  0   0  1 -1   0  1  0
                       0  0  1   1  0  0   0  1  0       0  0 -1  -1  0  0   0 -1  0
                      -1  1  0  -1  0  0  -1  0  1       1 -1  0   1  0  0   1  0 -1
                       0  0  1   0  1  0   1  0  0       0  0 -1   0 -1  0  -1  0  0
                       1 -1  0   0 -1  0   0 -1  1      -1  1  0   0  1  0   0  1 -1
                       0  0 -1   1  0 -1   0  1 -1       0  0  1  -1  0  1   0 -1  1
                      -1  1  0  -1  0  1  -1  0  0       1 -1  0   1  0 -1   1  0  0
           tolwfr      1.00000000E-20
            typat      1  2
           useylm           1
              wtk        0.50000    0.50000
           xangst      0.0000000000E+00  0.0000000000E+00  0.0000000000E+00
                       2.3949945254E+00  1.6935168698E+00  4.1482522019E+00
            xcart      0.0000000000E+00  0.0000000000E+00  0.0000000000E+00
                       4.5258837428E+00  3.2002830854E+00  7.8390605917E+00
             xred      0.0000000000E+00  0.0000000000E+00  0.0000000000E+00
                       5.0000000000E-01  5.0000000000E-01  5.0000000000E-01
            znucl       20.00000   34.00000

- Timing analysis has been suppressed with timopt=0

 Suggested references for the acknowledgment of ABINIT usage.

 Calculation completed.
.Delivered  14 WARNINGs and   9 COMMENTs to log file.