.Version 9.5.1 of ABINIT

 ABINIT is a project of the Universite Catholique de Louvain,
 Corning Inc. and other collaborators, see ~abinit/doc/developers/contributors.txt .
 acknowledgments of the ABINIT effort.

.Starting date : Tue 27 Apr 2021.
- ( at 18h25 )

- input  file    -> /scratch/users/j/a/jabreu/flow_simple_4atoms/flow/w143/t1/run.abi
- output file    -> /scratch/users/j/a/jabreu/flow_simple_4atoms/flow/w143/t1/run.abo
- root for input  files -> /scratch/users/j/a/jabreu/flow_simple_4atoms/flow/w143/t1/indata/in
- root for output files -> /scratch/users/j/a/jabreu/flow_simple_4atoms/flow/w143/t1/outdata/out

 Symmetries : space group P6_3 m c (#186); Bravais hP (primitive hexag.)
     intxc =       0      iscf =       7    lmnmax =      18     lnmax =       6
     mgfft =      60  mpssoang =       3    mqgrid =    3001     natom =       4
  nloc_mem =       1    nspden =       1   nspinor =       1    nsppol =       1
      nsym =      12    n1xccc =    2501    ntypat =       2    occopt =       1
   xclevel =       2
-    mband =          17        mffmem =           1         mkmem =           2
-   mkqmem =           2        mk1mem =           2           mpw =        3474
      nfft =       77760          nkpt =           2
  Rough estimation (10% accuracy) of disk space for files :

------------- Echo of variables that govern the present computation ------------
-
- outvars: echo of selected default values
-   iomode0 =  0 , fftalg0 =512 , wfoptalg0 =  0
-
- outvars: echo of global parameters not present in the input file
-  max_nthreads =    0
-
 -outvars: echo values of preprocessed input variables --------
            acell      1.0000000000E+00  1.0000000000E+00  1.0000000000E+00 Bohr
              amu      1.08110000E+01  3.09737620E+01
             ecut      3.80000000E+01 Hartree
-          fftalg         512
           irdden           1
           irdwfk           1
           istwfk        1    0
              ixc     -116133
              kpt      0.00000000E+00  0.00000000E+00  0.00000000E+00
                       3.33333333E-01  3.33333333E-01  0.00000000E+00
           kptopt           0
P           mkmem           2
P          mkqmem           2
P          mk1mem           2
            natom           4
            nband          17
           nbdbuf           4
            ngfft          36      36      60
             nkpt           2
            nstep         100
             nsym          12
           ntypat           2
              occ      2.000000  2.000000  2.000000  2.000000  2.000000  2.000000
                       2.000000  2.000000  0.000000  0.000000  0.000000  0.000000
                       0.000000  0.000000  0.000000  0.000000  0.000000
        optdriver           1
            prtwf          -1
            rfdir           1       1       1
           rfelfd           2
            rprim      6.0093003525E+00  0.0000000000E+00  0.0000000000E+00
                      -3.0046501762E+00  5.2042067642E+00  0.0000000000E+00
                       0.0000000000E+00  0.0000000000E+00  9.9680671641E+00
          spgroup         186
           symrel      1  0  0   0  1  0   0  0  1       0  1  0   1  0  0   0  0  1
                       1  1  0  -1  0  0   0  0  1      -1  0  0   1  1  0   0  0  1
                       0  1  0  -1 -1  0   0  0  1      -1 -1  0   0  1  0   0  0  1
                      -1  0  0   0 -1  0   0  0  1       0 -1  0  -1  0  0   0  0  1
                      -1 -1  0   1  0  0   0  0  1       1  0  0  -1 -1  0   0  0  1
                       0 -1  0   1  1  0   0  0  1       1  1  0   0 -1  0   0  0  1
            tnons      0.0000000  0.0000000  0.0000000    -0.0000000  0.0000000  0.5000000
                       0.0000000  0.0000000  0.5000000    -0.0000000  0.0000000  0.0000000
                       0.0000000  0.0000000  0.0000000    -0.0000000 -0.0000000  0.5000000
                      -0.0000000  0.0000000  0.5000000     0.0000000  0.0000000  0.0000000
                      -0.0000000  0.0000000  0.0000000     0.0000000  0.0000000  0.5000000
                      -0.0000000 -0.0000000  0.5000000     0.0000000  0.0000000  0.0000000
           tolwfr      1.00000000E-20
            typat      1  1  2  2
           useylm           1
              wtk        0.50000    0.50000
           xangst      1.7638771742E-11  1.8359650723E+00  2.6397842974E+00
                       1.5899923931E+00  9.1798253613E-01  2.3473189108E-03
                       1.7638771742E-11  1.8359650723E+00  4.6131673934E+00
                       1.5899923931E+00  9.1798253613E-01  1.9757304149E+00
            xcart      3.3332447913E-11  3.4694711761E+00  4.9884693719E+00
                       3.0046501763E+00  1.7347355881E+00  4.4357898880E-03
                       3.3332447913E-11  3.4694711761E+00  8.7176229787E+00
                       3.0046501763E+00  1.7347355881E+00  3.7335893966E+00
             xred      3.3333333333E-01  6.6666666667E-01  5.0044500000E-01
                       6.6666666667E-01  3.3333333333E-01  4.4500000000E-04
                       3.3333333333E-01  6.6666666667E-01  8.7455500000E-01
                       6.6666666667E-01  3.3333333333E-01  3.7455500000E-01
            znucl        5.00000   15.00000

 chkinp: Checking input parameters for consistency.

== DATASET  1 ==================================================================
-   mpi_nproc: 1, omp_nthreads: -1 (-1 if OMP is not activated)

--- !DatasetInfo
iteration_state: {dtset: 1, }
dimensions: {natom: 4, nkpt: 2, mband: 17, nsppol: 1, nspinor: 1, nspden: 1, mpw: 3474, }
cutoff_energies: {ecut:  38.0, pawecutdg:  -1.0, }
electrons: {nelect:   1.60000000E+01, charge:   0.00000000E+00, occopt:   1.00000000E+00, tsmear:   1.00000000E-02, }
meta: {optdriver: 1, rfelfd: 2, }
...

 Real(R)+Recip(G) space primitive vectors, cartesian coordinates (Bohr,Bohr^-1):
 R(1)=  6.0093004  0.0000000  0.0000000  G(1)=  0.1664087  0.0960761  0.0000000
 R(2)= -3.0046502  5.2042068  0.0000000  G(2)=  0.0000000  0.1921522  0.0000000
 R(3)=  0.0000000  0.0000000  9.9680672  G(3)=  0.0000000  0.0000000  0.1003204
 Unit cell volume ucvol=  3.1173776E+02 bohr^3
 Angles (23,13,12)=  9.00000000E+01  9.00000000E+01  1.20000000E+02 degrees

 getcut: wavevector=  0.0000  0.0000  0.0000  ngfft=  36  36  60
         ecut(hartree)=     38.000   => boxcut(ratio)=   2.15885

--- Pseudopotential description ------------------------------------------------
- pspini: atom type   1  psp file is /scratch/users/j/a/jabreu/pseudos/PBEsol/B.psp8
- pspatm: opening atomic psp file    /scratch/users/j/a/jabreu/pseudos/PBEsol/B.psp8
- B     ONCVPSP-3.3.0  r_core=   1.20849   1.20849
-  5.00000   3.00000    180112                znucl, zion, pspdat
    8 -116133    1    4       600   0.00000   pspcod,pspxc,lmax,lloc,mmax,r2well
    5.99000000000000    2.90000000000000    0.00000000000000   rchrg,fchrg,qchrg
     nproj     2     2
     extension_switch     1
  pspatm : epsatm=    3.20154566
         --- l  ekb(1:nproj) -->
             0    8.466603    1.247630
             1   -3.609180   -0.822621
 pspatm: atomic psp has been read  and splines computed

- pspini: atom type   2  psp file is /scratch/users/j/a/jabreu/pseudos/PBEsol/P.psp8
- pspatm: opening atomic psp file    /scratch/users/j/a/jabreu/pseudos/PBEsol/P.psp8
- P     ONCVPSP-3.3.0  r_core=   1.46089   1.55067   1.70594
- 15.00000   5.00000    180112                znucl, zion, pspdat
    8 -116133    2    4       600   0.00000   pspcod,pspxc,lmax,lloc,mmax,r2well
    5.99000000000000    5.00000000000000    0.00000000000000   rchrg,fchrg,qchrg
     nproj     2     2     2
     extension_switch     1
  pspatm : epsatm=    7.31221086
         --- l  ekb(1:nproj) -->
             0    6.742364    1.063650
             1    3.449117    0.910422
             2   -3.077645   -0.799176
 pspatm: atomic psp has been read  and splines computed

   3.36440209E+02                                ecore*ucvol(ha*bohr**3)

-inwffil : will read wavefunctions from disk file /scratch/users/j/a/jabreu/flow_simple_4atoms/flow/w143/t1/indata/in_WFK

 ==>  initialize data related to q vector <==

 The list of irreducible perturbations for this q vector is:
    1)    idir= 1    ipert=   5
    2)    idir= 2    ipert=   5
    3)    idir= 3    ipert=   5

 Perturbation wavevector (in red.coord.)   0.000000  0.000000  0.000000
 Perturbation : derivative vs k along direction   1

 dfpt_looppert : COMMENT -
  In a d/dk calculation, iscf is set to -3 automatically.
 The set of symmetries contains only one element for this perturbation.
 symkpt : not enough symmetry to change the number of k points.

[...]

 Initialisation of the first-order wave-functions :
  ireadwf=   0

--- !BeginCycle
iteration_state: {dtset: 1, }
solver: {iscf: 7, nstep: 100, nline: 4, wfoptalg: 0, }
tolerances: {tolwfr: 1.00E-20, }
...

     iter   2DEtotal(Ha)        deltaE(Ha) residm    vres2
-ETOT  1  -37.638891684159     -3.764E+01 9.027E-02 0.000E+00
 ETOT  2  -37.641887979959     -2.996E-03 6.215E-03 0.000E+00
 ETOT  3  -37.641891589761     -3.610E-06 9.115E-05 0.000E+00
 ETOT  4  -37.641891596381     -6.620E-09 1.790E-05 0.000E+00
 ETOT  5  -37.641891596396     -1.445E-11 4.813E-07 0.000E+00
 ETOT  6  -37.641891596396     -2.842E-14 1.072E-07 0.000E+00
 ETOT  7  -37.641891596396      8.527E-14 3.373E-09 0.000E+00
 ETOT  8  -37.641891596396     -1.421E-14 7.348E-10 0.000E+00
 ETOT  9  -37.641891596396     -1.066E-13 2.574E-11 0.000E+00
 ETOT 10  -37.641891596396     -2.132E-14 5.507E-12 0.000E+00
 ETOT 11  -37.641891596396      2.842E-14 2.101E-13 0.000E+00
 ETOT 12  -37.641891596396      0.000E+00 4.411E-14 0.000E+00
 ETOT 13  -37.641891596396      7.105E-15 1.790E-15 0.000E+00
 ETOT 14  -37.641891596396     -2.132E-14 3.714E-16 0.000E+00
 ETOT 15  -37.641891596396      7.105E-15 1.575E-17 0.000E+00
 ETOT 16  -37.641891596396      7.105E-15 3.241E-18 0.000E+00
 ETOT 17  -37.641891596396     -7.105E-15 1.419E-19 0.000E+00
 ETOT 18  -37.641891596396      7.105E-15 2.901E-20 0.000E+00
 ETOT 19  -37.641891596396      0.000E+00 9.397E-21 0.000E+00

 At SCF step   19   max residual=  9.40E-21 < tolwfr=  1.00E-20 =>converged.

 ----iterations are completed or convergence reached----

 dfpt_looppert: DFPT cycle converged with prtwf=-1. Will skip output of the 1st-order WFK file.
 dfpt_looppert : ek2=    4.6644520114E+01
          f-sum rule ratio=    1.7326098208E+00
 prteigrs : about to open file /scratch/users/j/a/jabreu/flow_simple_4atoms/flow/w143/t1/tmpdata/tmp_1WF1_EIG
 Expectation of eigenvalue derivatives (hartree) for nkpt=   2  k points:
  (in case of degenerate eigenvalues, averaged derivative)
 kpt#   1, nband= 17, wtk=  0.50000, kpt=  0.0000  0.0000  0.0000 (reduced coord)
   0.00000   -0.00000    0.00000   -0.00000   -0.00000    0.00000    0.00000    0.00000
   0.00000    0.00000    0.00000   -0.00000    0.00000    0.00000    0.00000    0.00002
   0.00002
 prteigrs : prtvol=0 or 1, do not print more k-points.

 Eight components of 2nd-order total energy (hartree) are
 1,2,3: 0th-order hamiltonian combined with 1st-order wavefunctions
     kin0=   8.27416198E+00 eigvalue=  -5.15478274E-01  local=  -3.36288852E+00
 4,5,6: 1st-order hamiltonian combined with 1st and 0th-order wfs
     kin1=  -8.08167536E+01  Hartree=   0.00000000E+00     xc=   0.00000000E+00
 7,8,9: eventually, occupation + non-local contributions
    edocc=   3.32071685E+01     enl0=   3.89279309E-02   enl1=   5.53297044E+00
 1-9 gives the relaxation energy (to be shifted if some occ is /=2.0)
   erelax=  -3.76418916E+01
  No Ewald or frozen-wf contrib.: the relaxation energy is the total one
 2DEtotal=   -0.3764189160E+02 Ha. Also 2DEtotal=   -0.102428796145E+04 eV
    (  non-var. 2DEtotal :   -3.7641891596E+01 Ha)

 Perturbation wavevector (in red.coord.)   0.000000  0.000000  0.000000
 Perturbation : derivative vs k along direction   2
 The set of symmetries contains only one element for this perturbation.
 symkpt : not enough symmetry to change the number of k points.

[...]

 Perturbation wavevector (in red.coord.)   0.000000  0.000000  0.000000
 Perturbation : derivative vs k along direction   3
 The set of symmetries contains only one element for this perturbation.
 symkpt : not enough symmetry to change the number of k points.

-inwffil : will read wavefunctions from disk file /scratch/users/j/a/jabreu/flow_simple_4atoms/flow/w143/t1/indata/in_WFK

 Initialisation of the first-order wave-functions :
  ireadwf=   0

--- !BeginCycle
iteration_state: {dtset: 1, }
solver: {iscf: 7, nstep: 100, nline: 4, wfoptalg: 0, }
tolerances: {tolwfr: 1.00E-20, }
...

     iter   2DEtotal(Ha)        deltaE(Ha) residm    vres2
-ETOT  1  -8.4975182766160     -8.498E+00 1.383E-02 0.000E+00
 ETOT  2  -8.4981868549469     -6.686E-04 2.981E-03 0.000E+00
 ETOT  3  -8.4981874335221     -5.786E-07 3.646E-05 0.000E+00
 ETOT  4  -8.4981874344189     -8.968E-10 7.300E-06 0.000E+00
 ETOT  5  -8.4981874344205     -1.558E-12 1.355E-07 0.000E+00
 ETOT  6  -8.4981874344205     -2.132E-14 2.383E-08 0.000E+00
 ETOT  7  -8.4981874344205      0.000E+00 4.987E-10 0.000E+00
 ETOT  8  -8.4981874344205     -5.329E-15 8.427E-11 0.000E+00
 ETOT  9  -8.4981874344205     -3.553E-15 1.814E-12 0.000E+00
 ETOT 10  -8.4981874344205     -1.776E-15 3.067E-13 0.000E+00
 ETOT 11  -8.4981874344205      1.776E-15 6.680E-15 0.000E+00
 ETOT 12  -8.4981874344205      0.000E+00 1.135E-15 0.000E+00
 ETOT 13  -8.4981874344205      3.553E-15 2.486E-17 0.000E+00
 ETOT 14  -8.4981874344205     -5.329E-15 4.258E-18 0.000E+00
 ETOT 15  -8.4981874344205      3.553E-15 9.347E-20 0.000E+00
 ETOT 16  -8.4981874344205     -1.776E-15 1.611E-20 0.000E+00
 ETOT 17  -8.4981874344205     -1.776E-15 9.990E-21 0.000E+00

 At SCF step   17   max residual=  9.99E-21 < tolwfr=  1.00E-20 =>converged.

 ----iterations are completed or convergence reached----

 dfpt_looppert: DFPT cycle converged with prtwf=-1. Will skip output of the 1st-order WFK file.
 dfpt_looppert : ek2=    1.2714163848E+01
          f-sum rule ratio=    1.4120866164E+00
 prteigrs : about to open file /scratch/users/j/a/jabreu/flow_simple_4atoms/flow/w143/t1/tmpdata/tmp_1WF1_EIG
 Expectation of eigenvalue derivatives (hartree) for nkpt=   2  k points:
  (in case of degenerate eigenvalues, averaged derivative)
 kpt#   1, nband= 17, wtk=  0.50000, kpt=  0.0000  0.0000  0.0000 (reduced coord)
  -0.00000   -0.00000   -0.00000   -0.00000   -0.00000    0.00000    0.00000    0.00000
   0.00000    0.00000   -0.00000    0.00000    0.00000    0.00000   -0.00000   -0.00000
  -0.00000
 prteigrs : prtvol=0 or 1, do not print more k-points.

 Eight components of 2nd-order total energy (hartree) are
 1,2,3: 0th-order hamiltonian combined with 1st-order wavefunctions
     kin0=   1.84593009E+00 eigvalue=  -7.55956846E-02  local=  -7.20072682E-01
 4,5,6: 1st-order hamiltonian combined with 1st and 0th-order wfs
     kin1=  -1.79535006E+01  Hartree=   0.00000000E+00     xc=   0.00000000E+00
 7,8,9: eventually, occupation + non-local contributions
    edocc=   7.46461754E+00     enl0=  -1.66918309E-02   enl1=   9.57125739E-01
 1-9 gives the relaxation energy (to be shifted if some occ is /=2.0)
   erelax=  -8.49818743E+00
  No Ewald or frozen-wf contrib.: the relaxation energy is the total one
 2DEtotal=   -0.8498187434E+01 Ha. Also 2DEtotal=   -0.231247440392E+03 eV
    (  non-var. 2DEtotal :   -8.4981874344E+00 Ha)

 CALCULATION OF EFFECTIVE MASSES
 NOTE : Additional infos (eff. mass eigenvalues, eigenvectors and, if degenerate, average mass) are available in stdout.

 COMMENTS:
 - At k-point ( 0.000, 0.000, 0.000), bands     7 through     8
   are DEGENERATE (effective mass tensor is therefore not defined).
   See Section IIIB Eqs. (67)-(70) and Appendix E of PRB 93 205147 (2016).
 - Angular average effective mass for Frohlich model is to be averaged over degenerate bands. See later.
 - Associated theta integrals calculated with ntheta=   1000 points.

 K-point ( 0.000, 0.000, 0.000) | band =     7
 Transport equivalent effective mass tensor:
             -0.2065823388              0.0000000112              0.0000005398
              0.0000000112             -0.2065823470              0.0000000953
              0.0000005398              0.0000000953             -0.5706878041
 Transport equivalent effective mass tensor eigenvalues:
             -0.5706878041             -0.2065823548             -0.2065823310
 Angular average effective mass 1/(<1/m>)=  -0.2623836082
 Angular average effective mass for Frohlich model (<m**0.5>)**2=  -0.2771785077
 Effective masses along directions: (cart. coord. / red. coord. -> eff. mass)
    1:   1.000000  0.000000  0.000000 /   0.894427 -0.447214  0.000000 ->  -0.2065823429
    2:   0.000000  1.000000  0.000000 /   0.000000  1.000000  0.000000 ->  -0.2065823429
    3:   0.000000  0.000000  1.000000 /   0.000000  0.000000  1.000000 ->  -0.5706876042
    4:   0.577350  0.577350  0.577350 /   0.507313  0.185690  0.841518 ->  -0.2623833487
    5:   0.000000  0.707107  0.707107 /   0.000000  0.462809  0.886458 ->  -0.3033539871
    6:   0.707107  0.000000  0.707107 /   0.499904 -0.249952  0.829228 ->  -0.3033536247
    7:   0.707107  0.707107  0.000000 /   0.939071  0.343724  0.000000 ->  -0.2065823429

 K-point ( 0.000, 0.000, 0.000) | band =     8
 Transport equivalent effective mass tensor:
             -0.5790212434             -0.0000000313             -0.0000000068
             -0.0000000313             -0.5790212206              0.0000000418
             -0.0000000068              0.0000000418             -0.5706878041
 Transport equivalent effective mass tensor eigenvalues:
             -0.5790212653             -0.5790211987             -0.5706878041
 Angular average effective mass 1/(<1/m>)=  -0.5762165118
 Angular average effective mass for Frohlich model (<m**0.5>)**2=  -0.5762246054
 Effective masses along directions: (cart. coord. / red. coord. -> eff. mass)
    1:   1.000000  0.000000  0.000000 /   0.894427 -0.447214  0.000000 ->  -0.5790212320
    2:   0.000000  1.000000  0.000000 /   0.000000  1.000000  0.000000 ->  -0.5790212320
    3:   0.000000  0.000000  1.000000 /   0.000000  0.000000  1.000000 ->  -0.5706880040
    4:   0.577350  0.577350  0.577350 /   0.507313  0.185690  0.841518 ->  -0.5762165473
    5:   0.000000  0.707107  0.707107 /   0.000000  0.462809  0.886458 ->  -0.5748242343
    6:   0.707107  0.000000  0.707107 /   0.499904 -0.249952  0.829228 ->  -0.5748243384
    7:   0.707107  0.707107  0.000000 /   0.939071  0.343724  0.000000 ->  -0.5790212320

 Angular average effective mass for Frohlich model, averaged over degenerate bands.
 Value of     (<<m**0.5>>)**2 =     4.131739E-01
 Absolute Value of <<m**0.5>> =     6.427860E-01

 K-point ( 0.333, 0.333, 0.000) | band =     9
 Effective mass tensor:
              0.4221093923             -0.0000003674              0.0000001192
             -0.0000003674              0.4221078484              0.0000008943
              0.0000001192              0.0000008943              0.2448609172
 Effective mass tensor eigenvalues:
              0.2448609172              0.4221077654              0.4221094752
 Angular average effective mass 1/(<1/m>)=   0.3400563232
 Angular average effective mass for Frohlich model (<m**0.5>)**2=   0.3474005931
 Effective masses along directions: (cart. coord. / red. coord. -> eff. mass)
    1:   1.000000  0.000000  0.000000 /   0.894427 -0.447214  0.000000 ->   0.4221093923
    2:   0.000000  1.000000  0.000000 /   0.000000  1.000000  0.000000 ->   0.4221078484
    3:   0.000000  0.000000  1.000000 /   0.000000  0.000000  1.000000 ->   0.2448609172
    4:   0.577350  0.577350  0.577350 /   0.507313  0.185690  0.841518 ->   0.3400569201
    5:   0.000000  0.707107  0.707107 /   0.000000  0.462809  0.886458 ->   0.3099335304
    6:   0.707107  0.000000  0.707107 /   0.499904 -0.249952  0.829228 ->   0.3099332262
    7:   0.707107  0.707107  0.000000 /   0.939071  0.343724  0.000000 ->   0.4221082529

 END OF EFFECTIVE MASSES SECTION

 ---- first-order wavefunction calculations are completed ----

 Total localisation tensor (bohr^2) in cartesian coordinates
  WARNING : still subject to testing - especially symmetries.
      direction              matrix element
   alpha     beta       real part   imaginary part
     1        1       5.8843292153    0.0000000000
     1        2      -2.0383904388    0.0000000000
     1        3       0.0000000000    0.0000000000
     2        1      -2.0383904388    0.0000000000
     2        2       3.5305958058    0.0000000000
     2        3       0.0000000000    0.0000000000
     3        1       0.0000000000    0.0000000000
     3        2       0.0000000000    0.0000000000
     3        3       3.3469488610    0.0000000000

 respfn : d/dk was computed, but no 2DTE, so no DDB output.

== END DATASET(S) ==============================================================

 -outvars: echo values of variables after computation  --------
            acell      1.0000000000E+00  1.0000000000E+00  1.0000000000E+00 Bohr
              amu      1.08110000E+01  3.09737620E+01
             ecut      3.80000000E+01 Hartree
           etotal     -8.4981874344E+00
            fcart      0.0000000000E+00  0.0000000000E+00  0.0000000000E+00
                       0.0000000000E+00  0.0000000000E+00  0.0000000000E+00
                       0.0000000000E+00  0.0000000000E+00  0.0000000000E+00
                       0.0000000000E+00  0.0000000000E+00  0.0000000000E+00
-          fftalg         512
           irdden           1
           irdwfk           1
           istwfk        1    0
              ixc     -116133
              kpt      0.00000000E+00  0.00000000E+00  0.00000000E+00
                       3.33333333E-01  3.33333333E-01  0.00000000E+00
           kptopt           0
P           mkmem           2
P          mkqmem           2
P          mk1mem           2
            natom           4
            nband          17
           nbdbuf           4
            ngfft          36      36      60
             nkpt           2
            nstep         100
             nsym          12
           ntypat           2
              occ      2.000000  2.000000  2.000000  2.000000  2.000000  2.000000
                       2.000000  2.000000  0.000000  0.000000  0.000000  0.000000
                       0.000000  0.000000  0.000000  0.000000  0.000000
        optdriver           1
            prtwf          -1
            rfdir           1       1       1
           rfelfd           2
            rprim      6.0093003525E+00  0.0000000000E+00  0.0000000000E+00
                      -3.0046501762E+00  5.2042067642E+00  0.0000000000E+00
                       0.0000000000E+00  0.0000000000E+00  9.9680671641E+00
          spgroup         186
           strten      0.0000000000E+00  0.0000000000E+00  0.0000000000E+00
                       0.0000000000E+00  0.0000000000E+00  0.0000000000E+00
           symrel      1  0  0   0  1  0   0  0  1       0  1  0   1  0  0   0  0  1
                       1  1  0  -1  0  0   0  0  1      -1  0  0   1  1  0   0  0  1
                       0  1  0  -1 -1  0   0  0  1      -1 -1  0   0  1  0   0  0  1
                      -1  0  0   0 -1  0   0  0  1       0 -1  0  -1  0  0   0  0  1
                      -1 -1  0   1  0  0   0  0  1       1  0  0  -1 -1  0   0  0  1
                       0 -1  0   1  1  0   0  0  1       1  1  0   0 -1  0   0  0  1
            tnons      0.0000000  0.0000000  0.0000000    -0.0000000  0.0000000  0.5000000
                       0.0000000  0.0000000  0.5000000    -0.0000000  0.0000000  0.0000000
                       0.0000000  0.0000000  0.0000000    -0.0000000 -0.0000000  0.5000000
                      -0.0000000  0.0000000  0.5000000     0.0000000  0.0000000  0.0000000
                      -0.0000000  0.0000000  0.0000000     0.0000000  0.0000000  0.5000000
                      -0.0000000 -0.0000000  0.5000000     0.0000000  0.0000000  0.0000000
           tolwfr      1.00000000E-20
            typat      1  1  2  2
           useylm           1
              wtk        0.50000    0.50000
           xangst      1.7638771742E-11  1.8359650723E+00  2.6397842974E+00
                       1.5899923931E+00  9.1798253613E-01  2.3473189108E-03
                       1.7638771742E-11  1.8359650723E+00  4.6131673934E+00
                       1.5899923931E+00  9.1798253613E-01  1.9757304149E+00
            xcart      3.3332447913E-11  3.4694711761E+00  4.9884693719E+00
                       3.0046501763E+00  1.7347355881E+00  4.4357898880E-03
                       3.3332447913E-11  3.4694711761E+00  8.7176229787E+00
                       3.0046501763E+00  1.7347355881E+00  3.7335893966E+00
             xred      3.3333333333E-01  6.6666666667E-01  5.0044500000E-01
                       6.6666666667E-01  3.3333333333E-01  4.4500000000E-04
                       3.3333333333E-01  6.6666666667E-01  8.7455500000E-01
                       6.6666666667E-01  3.3333333333E-01  3.7455500000E-01
            znucl        5.00000   15.00000

- Timing analysis has been suppressed with timopt=0

 Suggested references for the acknowledgment of ABINIT usage.

 Calculation completed.
.Delivered  14 WARNINGs and   9 COMMENTs to log file.