.Version 9.5.1 of ABINIT

 ABINIT is a project of the Universite Catholique de Louvain,
 Corning Inc. and other collaborators, see ~abinit/doc/developers/contributors.txt .
 acknowledgments of the ABINIT effort.

.Starting date : Tue 11 May 2021.
- ( at 21h33 )

- input  file    -> /scratch/users/j/a/jabreu/flow_simple_8atoms/flow/w322/t1/run.abi
- output file    -> /scratch/users/j/a/jabreu/flow_simple_8atoms/flow/w322/t1/run.abo
- root for input  files -> /scratch/users/j/a/jabreu/flow_simple_8atoms/flow/w322/t1/indata/in
- root for output files -> /scratch/users/j/a/jabreu/flow_simple_8atoms/flow/w322/t1/outdata/out

 Symmetries : space group I-4 2 d (#122); Bravais tI (body-center tetrag.)
     intxc =       0      iscf =       7    lmnmax =      18     lnmax =       6
     mgfft =      60  mpssoang =       3    mqgrid =    3001     natom =       8
  nloc_mem =       1    nspden =       1   nspinor =       1    nsppol =       1
      nsym =       8    n1xccc =    2501    ntypat =       3    occopt =       1
   xclevel =       2
-    mband =          33        mffmem =           1         mkmem =           2
-   mkqmem =           2        mk1mem =           2           mpw =        8128
      nfft =      216000          nkpt =           2
  Rough estimation (10% accuracy) of disk space for files :

------------- Echo of variables that govern the present computation ------------
-
- outvars: echo of selected default values
-   iomode0 =  0 , fftalg0 =512 , wfoptalg0 =  0
-
- outvars: echo of global parameters not present in the input file
-  max_nthreads =    0
-
 -outvars: echo values of preprocessed input variables --------
            acell      1.0000000000E+00  1.0000000000E+00  1.0000000000E+00 Bohr
              amu      2.29897680E+01  3.09737620E+01  1.40067400E+01
             ecut      4.40000000E+01 Hartree
-          fftalg         512
           irdden           1
           irdwfk           1
           istwfk        0    1
              ixc     -116133
              kpt      0.00000000E+00  0.00000000E+00  3.70370370E-01
                       0.00000000E+00  0.00000000E+00  0.00000000E+00
           kptopt           0
P           mkmem           2
P          mkqmem           2
P          mk1mem           2
            natom           8
            nband          33
           nbdbuf           4
            ngfft          60      60      60
             nkpt           2
            nstep        2000
             nsym           8
           ntypat           3
              occ      2.000000  2.000000  2.000000  2.000000  2.000000  2.000000
                       2.000000  2.000000  2.000000  2.000000  2.000000  2.000000
                       2.000000  2.000000  2.000000  2.000000  2.000000  2.000000
                       2.000000  2.000000  2.000000  2.000000  2.000000  2.000000
                       0.000000  0.000000  0.000000  0.000000  0.000000  0.000000
                       0.000000  0.000000  0.000000
        optdriver           1
            prtwf          -1
            rfdir           1       1       1
           rfelfd           2
            rprim      8.1241791515E+00  0.0000000000E+00 -4.6909391186E+00
                      -2.7078044880E+00  7.6596397918E+00 -4.6909391186E+00
                       0.0000000000E+00  0.0000000000E+00  9.3812150972E+00
          spgroup         122
           symrel      1  0  0   0  1  0   0  0  1      -1 -1 -1   0  0  1   0  1  0
                       0  1  0   1  0  0  -1 -1 -1       0  0  1  -1 -1 -1   1  0  0
                       0  1  0   1  0  0   0  0  1      -1 -1 -1   0  0  1   1  0  0
                       1  0  0   0  1  0  -1 -1 -1       0  0  1  -1 -1 -1   0  1  0
            tnons      0.0000000  0.0000000  0.0000000    -0.2500000  0.2500000  0.5000000
                       0.0000000  0.0000000  0.0000000    -0.2500000  0.2500000  0.5000000
                      -0.2500000  0.2500000  0.5000000     0.0000000  0.0000000  0.0000000
                      -0.2500000  0.2500000  0.5000000     0.0000000  0.0000000  0.0000000
           tolwfr      1.00000000E-20
            typat      1  1  2  2  3  3  3  3
           useylm           1
              wtk        0.50000    0.50000
           xangst      0.0000000000E+00  0.0000000000E+00  0.0000000000E+00
                       2.8661207290E+00  1.0133267010E+00 -1.7545928705E-04
                       1.0129609348E-04  3.0399801029E+00 -1.7545928705E-04
                       1.4331110126E+00  2.0266534019E+00 -2.4823380684E+00
                       8.9054449533E-01  5.0666335048E-01  2.1688679571E+00
                       5.3578457494E-01  3.0448116446E+00  1.5541127677E+00
                       1.2591220235E+00  2.5333167524E+00 -9.2804984145E-01
                       3.0469929564E+00  2.0218218602E+00 -2.7956327205E+00
            xcart      0.0000000000E+00  0.0000000000E+00  0.0000000000E+00
                       5.4161832416E+00  1.9149099480E+00 -3.3157000000E-04
                       1.9142187500E-04  5.7447298439E+00 -3.3157000000E-04
                       2.7081873318E+00  3.8298198959E+00 -4.6909391186E+00
                       1.6828852053E+00  9.5745497398E-01  4.0985664573E+00
                       1.0124861129E+00  5.7538601345E+00  2.9368475106E+00
                       2.3793957923E+00  4.7872748699E+00 -1.7537600380E+00
                       5.7579822165E+00  3.8206896053E+00 -5.2829802099E+00
             xred      0.0000000000E+00  0.0000000000E+00  0.0000000000E+00
                       7.5000000000E-01  2.5000000000E-01  5.0000000000E-01
                       2.5000000000E-01  7.5000000000E-01  5.0000000000E-01
                       5.0000000000E-01  5.0000000000E-01  2.7755575616E-17
                       2.4880800000E-01  1.2500000000E-01  6.2380800000E-01
                       3.7500000000E-01  7.5119200000E-01  8.7619200000E-01
                       5.0119200000E-01  6.2500000000E-01  3.7619200000E-01
                       8.7500000000E-01  4.9880800000E-01  1.2380800000E-01
            znucl       11.00000   15.00000    7.00000

 chkinp: Checking input parameters for consistency.

== DATASET  1 ==================================================================
-   mpi_nproc: 1, omp_nthreads: -1 (-1 if OMP is not activated)

--- !DatasetInfo
iteration_state: {dtset: 1, }
dimensions: {natom: 8, nkpt: 2, mband: 33, nsppol: 1, nspinor: 1, nspden: 1, mpw: 8128, }
cutoff_energies: {ecut:  44.0, pawecutdg:  -1.0, }
electrons: {nelect:   4.80000000E+01, charge:   0.00000000E+00, occopt:   1.00000000E+00, tsmear:   1.00000000E-02, }
meta: {optdriver: 1, rfelfd: 2, }
...

 Real(R)+Recip(G) space primitive vectors, cartesian coordinates (Bohr,Bohr^-1):
 R(1)=  8.1241792  0.0000000 -4.6909391  G(1)=  0.1230894  0.0435140  0.0000000
 R(2)= -2.7078045  7.6596398 -4.6909391  G(2)=  0.0000000  0.1305544  0.0000000
 R(3)=  0.0000000  0.0000000  9.3812151  G(3)=  0.0615490  0.0870404  0.1065960
 Unit cell volume ucvol=  5.8377694E+02 bohr^3
 Angles (23,13,12)=  1.20002338E+02  1.20002338E+02  8.99959499E+01 degrees

 getcut: wavevector=  0.0000  0.0000  0.0000  ngfft=  60  60  60
         ecut(hartree)=     44.000   => boxcut(ratio)=   2.14191

--- Pseudopotential description ------------------------------------------------
- pspini: atom type   1  psp file is /scratch/users/j/a/jabreu/pseudos/PBEsol/Na.psp8
- pspatm: opening atomic psp file    /scratch/users/j/a/jabreu/pseudos/PBEsol/Na.psp8
- Na    ONCVPSP-3.3.0  r_core=   1.20708   1.55069
- 11.00000   9.00000    180112                znucl, zion, pspdat
    8 -116133    1    4       400   0.00000   pspcod,pspxc,lmax,lloc,mmax,r2well
    3.99000000000000    0.00000000000000    0.00000000000000   rchrg,fchrg,qchrg
     nproj     2     2
     extension_switch     1
  pspatm : epsatm=    9.32878306
         --- l  ekb(1:nproj) -->
             0    2.657905   -0.678300
             1   -6.761319   -2.404728
 pspatm: atomic psp has been read  and splines computed

- pspini: atom type   2  psp file is /scratch/users/j/a/jabreu/pseudos/PBEsol/P.psp8
- pspatm: opening atomic psp file    /scratch/users/j/a/jabreu/pseudos/PBEsol/P.psp8
- P     ONCVPSP-3.3.0  r_core=   1.46089   1.55067   1.70594
- 15.00000   5.00000    180112                znucl, zion, pspdat
    8 -116133    2    4       600   0.00000   pspcod,pspxc,lmax,lloc,mmax,r2well
    5.99000000000000    5.00000000000000    0.00000000000000   rchrg,fchrg,qchrg
     nproj     2     2     2
     extension_switch     1
  pspatm : epsatm=    7.31221086
         --- l  ekb(1:nproj) -->
             0    6.742364    1.063650
             1    3.449117    0.910422
             2   -3.077645   -0.799176
 pspatm: atomic psp has been read  and splines computed

- pspini: atom type   3  psp file is /scratch/users/j/a/jabreu/pseudos/PBEsol/N.psp8
- pspatm: opening atomic psp file    /scratch/users/j/a/jabreu/pseudos/PBEsol/N.psp8
- N     ONCVPSP-3.3.0  r_core=   1.20551   1.35824
-  7.00000   5.00000    180112                znucl, zion, pspdat
    8 -116133    1    4       600   0.00000   pspcod,pspxc,lmax,lloc,mmax,r2well
    5.99000000000000    4.00000000000000    0.00000000000000   rchrg,fchrg,qchrg
     nproj     2     2
     extension_switch     1
  pspatm : epsatm=    5.26508895
         --- l  ekb(1:nproj) -->
             0    7.464189    0.625868
             1   -4.309714   -1.012941
 pspatm: atomic psp has been read  and splines computed

   2.60843250E+03                                ecore*ucvol(ha*bohr**3)

-inwffil : will read wavefunctions from disk file /scratch/users/j/a/jabreu/flow_simple_8atoms/flow/w322/t1/indata/in_WFK

 ==>  initialize data related to q vector <==

 The list of irreducible perturbations for this q vector is:
    1)    idir= 1    ipert=   9
    2)    idir= 2    ipert=   9
    3)    idir= 3    ipert=   9

 Perturbation wavevector (in red.coord.)   0.000000  0.000000  0.000000
 Perturbation : derivative vs k along direction   1

 dfpt_looppert : COMMENT -
  In a d/dk calculation, iscf is set to -3 automatically.
 The set of symmetries contains only one element for this perturbation.
 symkpt : not enough symmetry to change the number of k points.

[...]

 Initialisation of the first-order wave-functions :
  ireadwf=   0

--- !BeginCycle
iteration_state: {dtset: 1, }
solver: {iscf: 7, nstep: 2000, nline: 4, wfoptalg: 0, }
tolerances: {tolwfr: 1.00E-20, }
...

     iter   2DEtotal(Ha)        deltaE(Ha) residm    vres2
-ETOT  1  -35.698278050344     -3.570E+01 9.205E-02 0.000E+00
 ETOT  2  -35.726404800365     -2.813E-02 4.963E-03 0.000E+00
 ETOT  3  -35.726548739363     -1.439E-04 3.598E-04 0.000E+00
 ETOT  4  -35.726550281250     -1.542E-06 3.821E-05 0.000E+00
 ETOT  5  -35.726550302950     -2.170E-08 5.382E-06 0.000E+00
 ETOT  6  -35.726550303293     -3.423E-10 5.638E-07 0.000E+00
 ETOT  7  -35.726550303298     -5.748E-12 8.594E-08 0.000E+00
 ETOT  8  -35.726550303298     -7.816E-14 9.614E-09 0.000E+00
 ETOT  9  -35.726550303298     -1.421E-14 1.433E-09 0.000E+00
 ETOT 10  -35.726550303298     -7.105E-15 1.669E-10 0.000E+00
 ETOT 11  -35.726550303298      2.132E-14 2.449E-11 0.000E+00
 ETOT 12  -35.726550303298     -7.105E-15 2.912E-12 0.000E+00
 ETOT 13  -35.726550303298      0.000E+00 4.240E-13 0.000E+00
 ETOT 14  -35.726550303298      0.000E+00 5.114E-14 0.000E+00
 ETOT 15  -35.726550303298     -7.105E-15 7.411E-15 0.000E+00
 ETOT 16  -35.726550303298      7.105E-15 9.032E-16 0.000E+00
 ETOT 17  -35.726550303298      0.000E+00 1.304E-16 0.000E+00
 ETOT 18  -35.726550303298      7.105E-15 1.602E-17 0.000E+00
 ETOT 19  -35.726550303298     -7.105E-15 2.306E-18 0.000E+00
 ETOT 20  -35.726550303298      0.000E+00 2.852E-19 0.000E+00
 ETOT 21  -35.726550303298      0.000E+00 4.092E-20 0.000E+00
 ETOT 22  -35.726550303298      0.000E+00 9.991E-21 0.000E+00

 At SCF step   22   max residual=  9.99E-21 < tolwfr=  1.00E-20 =>converged.

 ----iterations are completed or convergence reached----

 dfpt_looppert: DFPT cycle converged with prtwf=-1. Will skip output of the 1st-order WFK file.
 dfpt_looppert : ek2=    6.4597286685E+01
          f-sum rule ratio=    1.0377759902E+00
 prteigrs : about to open file /scratch/users/j/a/jabreu/flow_simple_8atoms/flow/w322/t1/tmpdata/tmp_1WF1_EIG
 Expectation of eigenvalue derivatives (hartree) for nkpt=   2  k points:
  (in case of degenerate eigenvalues, averaged derivative)
 kpt#   1, nband= 33, wtk=  0.50000, kpt=  0.0000  0.0000  0.3704 (reduced coord)
   0.00055   -0.00054   -0.00034   -0.00180    0.00090   -0.00166    0.00143    0.00018
   0.07626   -0.11322    0.00426   -0.01868    0.14359   -0.09413    0.05971    0.02130
   0.00584   -0.08660   -0.05627   -0.04553    0.07071    0.02553    0.00467    0.00131
   0.06939   -0.00937    0.08893   -0.06012    0.01540    0.03927   -0.04547   -0.06538
  -0.00688
 prteigrs : prtvol=0 or 1, do not print more k-points.

 Eight components of 2nd-order total energy (hartree) are
 1,2,3: 0th-order hamiltonian combined with 1st-order wavefunctions
     kin0=   4.05298779E+01 eigvalue=   1.59742964E+00  local=  -1.51808980E+01
 4,5,6: 1st-order hamiltonian combined with 1st and 0th-order wfs
     kin1=  -6.70375132E+01  Hartree=   0.00000000E+00     xc=   0.00000000E+00
 7,8,9: eventually, occupation + non-local contributions
    edocc=   1.02323610E+01     enl0=  -1.45222028E+00   enl1=  -4.41558745E+00
 1-9 gives the relaxation energy (to be shifted if some occ is /=2.0)
   erelax=  -3.57265503E+01
  No Ewald or frozen-wf contrib.: the relaxation energy is the total one
 2DEtotal=   -0.3572655030E+02 Ha. Also 2DEtotal=   -0.972168874297E+03 eV
    (  non-var. 2DEtotal :   -3.5726550303E+01 Ha)

 Perturbation wavevector (in red.coord.)   0.000000  0.000000  0.000000
 Perturbation : derivative vs k along direction   2
 The set of symmetries contains only one element for this perturbation.
 symkpt : not enough symmetry to change the number of k points.

[...]

 Perturbation wavevector (in red.coord.)   0.000000  0.000000  0.000000
 Perturbation : derivative vs k along direction   3
 The set of symmetries contains only one element for this perturbation.
 symkpt : not enough symmetry to change the number of k points.

-inwffil : will read wavefunctions from disk file /scratch/users/j/a/jabreu/flow_simple_8atoms/flow/w322/t1/indata/in_WFK

 Initialisation of the first-order wave-functions :
  ireadwf=   0

--- !BeginCycle
iteration_state: {dtset: 1, }
solver: {iscf: 7, nstep: 2000, nline: 4, wfoptalg: 0, }
tolerances: {tolwfr: 1.00E-20, }
...

     iter   2DEtotal(Ha)        deltaE(Ha) residm    vres2
-ETOT  1  -46.920229286172     -4.692E+01 1.034E-01 0.000E+00
 ETOT  2  -46.954591820902     -3.436E-02 4.572E-03 0.000E+00
 ETOT  3  -46.954764026789     -1.722E-04 3.728E-04 0.000E+00
 ETOT  4  -46.954765894599     -1.868E-06 3.304E-05 0.000E+00
 ETOT  5  -46.954765922401     -2.780E-08 4.892E-06 0.000E+00
 ETOT  6  -46.954765922868     -4.673E-10 3.957E-07 0.000E+00
 ETOT  7  -46.954765922876     -8.292E-12 6.927E-08 0.000E+00
 ETOT  8  -46.954765922876     -1.563E-13 6.083E-09 0.000E+00
 ETOT  9  -46.954765922876     -1.421E-14 9.990E-10 0.000E+00
 ETOT 10  -46.954765922876      5.684E-14 8.380E-11 0.000E+00
 ETOT 11  -46.954765922876     -7.105E-14 1.475E-11 0.000E+00
 ETOT 12  -46.954765922876      1.421E-14 1.097E-12 0.000E+00
 ETOT 13  -46.954765922876      0.000E+00 2.274E-13 0.000E+00
 ETOT 14  -46.954765922876      1.421E-14 1.553E-14 0.000E+00
 ETOT 15  -46.954765922876      0.000E+00 3.669E-15 0.000E+00
 ETOT 16  -46.954765922876      0.000E+00 2.553E-16 0.000E+00
 ETOT 17  -46.954765922876     -1.421E-14 5.978E-17 0.000E+00
 ETOT 18  -46.954765922876     -1.421E-14 4.216E-18 0.000E+00
 ETOT 19  -46.954765922876      1.421E-14 9.803E-19 0.000E+00
 ETOT 20  -46.954765922876      0.000E+00 6.992E-20 0.000E+00
 ETOT 21  -46.954765922876      1.421E-14 1.616E-20 0.000E+00
 ETOT 22  -46.954765922876     -1.421E-14 9.744E-21 0.000E+00

 At SCF step   22   max residual=  9.74E-21 < tolwfr=  1.00E-20 =>converged.

 ----iterations are completed or convergence reached----

 dfpt_looppert: DFPT cycle converged with prtwf=-1. Will skip output of the 1st-order WFK file.
 dfpt_looppert : ek2=    8.6133774380E+01
          f-sum rule ratio=    1.0175664890E+00
 prteigrs : about to open file /scratch/users/j/a/jabreu/flow_simple_8atoms/flow/w322/t1/tmpdata/tmp_1WF1_EIG
 Expectation of eigenvalue derivatives (hartree) for nkpt=   2  k points:
  (in case of degenerate eigenvalues, averaged derivative)
 kpt#   1, nband= 33, wtk=  0.50000, kpt=  0.0000  0.0000  0.3704 (reduced coord)
   0.00110   -0.00109   -0.00067   -0.00359    0.00179   -0.00332    0.00286    0.00035
   0.15253   -0.22643    0.00852   -0.03737    0.28718   -0.18827    0.11941    0.04260
   0.01169   -0.17320   -0.11253   -0.09106    0.14142    0.05106    0.00933    0.00262
   0.13878   -0.01875    0.17787   -0.12023    0.03080    0.07854   -0.09094   -0.13075
  -0.01320
 prteigrs : prtvol=0 or 1, do not print more k-points.

 Eight components of 2nd-order total energy (hartree) are
 1,2,3: 0th-order hamiltonian combined with 1st-order wavefunctions
     kin0=   5.55211551E+01 eigvalue=   2.00941297E+00  local=  -2.11023170E+01
 4,5,6: 1st-order hamiltonian combined with 1st and 0th-order wfs
     kin1=  -8.76468424E+01  Hartree=   0.00000000E+00     xc=   0.00000000E+00
 7,8,9: eventually, occupation + non-local contributions
    edocc=   1.26223019E+01     enl0=  -2.09578702E+00   enl1=  -6.26268946E+00
 1-9 gives the relaxation energy (to be shifted if some occ is /=2.0)
   erelax=  -4.69547659E+01
  No Ewald or frozen-wf contrib.: the relaxation energy is the total one
 2DEtotal=   -0.4695476592E+02 Ha. Also 2DEtotal=   -0.127770415958E+04 eV
    (  non-var. 2DEtotal :   -4.6954765923E+01 Ha)

 CALCULATION OF EFFECTIVE MASSES
 NOTE : Additional infos (eff. mass eigenvalues, eigenvectors and, if degenerate, average mass) are available in stdout.

 K-point ( 0.000, 0.000, 0.370) | band =    24
 Effective mass tensor:
             -1.4136783777             -0.3967494500             -0.3218650964
             -0.3967494500             -1.6941691135             -0.4552985941
             -0.3218650964             -0.4552985941             -1.9749737447
 Effective mass tensor eigenvalues:
             -2.5324311166             -1.4172738132             -1.1331163060
 Angular average effective mass 1/(<1/m>)=  -1.5128750415
 Angular average effective mass for Frohlich model (<m**0.5>)**2=  -1.5603930948
 Effective masses along directions: (cart. coord. / red. coord. -> eff. mass)
    1:   1.000000  0.000000  0.000000 /   0.948692 -0.316201  0.000000 ->  -1.2957583412
    2:   0.000000  1.000000  0.000000 /   0.000000  1.000000  0.000000 ->  -1.5127778268
    3:   0.000000  0.000000  1.000000 /  -0.408268 -0.408268  0.816477 ->  -1.8175376544
    4:   0.577350  0.577350  0.577350 /   0.343560  0.026108  0.938768 ->  -2.4259025217
    5:   0.000000  0.707107  0.707107 /  -0.430334  0.272340  0.860607 ->  -2.0887672478
    6:   0.707107  0.000000  0.707107 /   0.276178 -0.595173  0.754648 ->  -1.7503680979
    7:   0.707107  0.707107  0.000000 /   0.853886  0.520459  0.000000 ->  -1.7864908429

 K-point ( 0.000, 0.000, 0.000) | band =    25
 Effective mass tensor:
              1.0572070556             -0.1341676007              0.1643352274
             -0.1341676007              0.9623463996              0.2323968054
              0.1643352274              0.2323968054              0.8674302201
 Effective mass tensor eigenvalues:
              0.5828210200              1.1520812640              1.1520813913
 Angular average effective mass 1/(<1/m>)=   0.8691165096
 Angular average effective mass for Frohlich model (<m**0.5>)**2=   0.8991045742
 Effective masses along directions: (cart. coord. / red. coord. -> eff. mass)
    1:   1.000000  0.000000  0.000000 /   0.948692 -0.316201  0.000000 ->   0.9907951814
    2:   0.000000  1.000000  0.000000 /   0.000000  1.000000  0.000000 ->   0.8691373311
    3:   0.000000  0.000000  1.000000 /  -0.408268 -0.408268  0.816477 ->   0.7740389357
    4:   0.577350  0.577350  0.577350 /   0.343560  0.026108  0.938768 ->   1.1237184652
    5:   0.000000  0.707107  0.707107 /  -0.430334  0.272340  0.860607 ->   1.1426778424
    6:   0.707107  0.000000  0.707107 /   0.276178 -0.595173  0.754648 ->   1.1039192427
    7:   0.707107  0.707107  0.000000 /   0.853886  0.520459  0.000000 ->   0.7814063780

 END OF EFFECTIVE MASSES SECTION

 ---- first-order wavefunction calculations are completed ----

 Total localisation tensor (bohr^2) in cartesian coordinates
  WARNING : still subject to testing - especially symmetries.
      direction              matrix element
   alpha     beta       real part   imaginary part
     1        1       0.9046218462    0.0000000000
     1        2      -0.2558573183    0.0000000000
     1        3      -0.3134139617    0.0000000000
     2        1      -0.2558573183    0.0000000000
     2        2       0.7237505163    0.0000000000
     2        3      -0.4432414188    0.0000000000
     3        1      -0.3134139617    0.0000000000
     3        2      -0.4432414188    0.0000000000
     3        3       1.9373708143    0.0000000000

 respfn : d/dk was computed, but no 2DTE, so no DDB output.

== END DATASET(S) ==============================================================

 -outvars: echo values of variables after computation  --------
            acell      1.0000000000E+00  1.0000000000E+00  1.0000000000E+00 Bohr
              amu      2.29897680E+01  3.09737620E+01  1.40067400E+01
             ecut      4.40000000E+01 Hartree
           etotal     -4.6954765923E+01
            fcart      0.0000000000E+00  0.0000000000E+00  0.0000000000E+00
                       0.0000000000E+00  0.0000000000E+00  0.0000000000E+00
                       0.0000000000E+00  0.0000000000E+00  0.0000000000E+00
                       0.0000000000E+00  0.0000000000E+00  0.0000000000E+00
                       0.0000000000E+00  0.0000000000E+00  0.0000000000E+00
                       0.0000000000E+00  0.0000000000E+00  0.0000000000E+00
                       0.0000000000E+00  0.0000000000E+00  0.0000000000E+00
                       0.0000000000E+00  0.0000000000E+00  0.0000000000E+00
-          fftalg         512
           irdden           1
           irdwfk           1
           istwfk        0    1
              ixc     -116133
              kpt      0.00000000E+00  0.00000000E+00  3.70370370E-01
                       0.00000000E+00  0.00000000E+00  0.00000000E+00
           kptopt           0
P           mkmem           2
P          mkqmem           2
P          mk1mem           2
            natom           8
            nband          33
           nbdbuf           4
            ngfft          60      60      60
             nkpt           2
            nstep        2000
             nsym           8
           ntypat           3
              occ      2.000000  2.000000  2.000000  2.000000  2.000000  2.000000
                       2.000000  2.000000  2.000000  2.000000  2.000000  2.000000
                       2.000000  2.000000  2.000000  2.000000  2.000000  2.000000
                       2.000000  2.000000  2.000000  2.000000  2.000000  2.000000
                       0.000000  0.000000  0.000000  0.000000  0.000000  0.000000
                       0.000000  0.000000  0.000000
        optdriver           1
            prtwf          -1
            rfdir           1       1       1
           rfelfd           2
            rprim      8.1241791515E+00  0.0000000000E+00 -4.6909391186E+00
                      -2.7078044880E+00  7.6596397918E+00 -4.6909391186E+00
                       0.0000000000E+00  0.0000000000E+00  9.3812150972E+00
          spgroup         122
           strten      0.0000000000E+00  0.0000000000E+00  0.0000000000E+00
                       0.0000000000E+00  0.0000000000E+00  0.0000000000E+00
           symrel      1  0  0   0  1  0   0  0  1      -1 -1 -1   0  0  1   0  1  0
                       0  1  0   1  0  0  -1 -1 -1       0  0  1  -1 -1 -1   1  0  0
                       0  1  0   1  0  0   0  0  1      -1 -1 -1   0  0  1   1  0  0
                       1  0  0   0  1  0  -1 -1 -1       0  0  1  -1 -1 -1   0  1  0
            tnons      0.0000000  0.0000000  0.0000000    -0.2500000  0.2500000  0.5000000
                       0.0000000  0.0000000  0.0000000    -0.2500000  0.2500000  0.5000000
                      -0.2500000  0.2500000  0.5000000     0.0000000  0.0000000  0.0000000
                      -0.2500000  0.2500000  0.5000000     0.0000000  0.0000000  0.0000000
           tolwfr      1.00000000E-20
            typat      1  1  2  2  3  3  3  3
           useylm           1
              wtk        0.50000    0.50000
           xangst      0.0000000000E+00  0.0000000000E+00  0.0000000000E+00
                       2.8661207290E+00  1.0133267010E+00 -1.7545928705E-04
                       1.0129609348E-04  3.0399801029E+00 -1.7545928705E-04
                       1.4331110126E+00  2.0266534019E+00 -2.4823380684E+00
                       8.9054449533E-01  5.0666335048E-01  2.1688679571E+00
                       5.3578457494E-01  3.0448116446E+00  1.5541127677E+00
                       1.2591220235E+00  2.5333167524E+00 -9.2804984145E-01
                       3.0469929564E+00  2.0218218602E+00 -2.7956327205E+00
            xcart      0.0000000000E+00  0.0000000000E+00  0.0000000000E+00
                       5.4161832416E+00  1.9149099480E+00 -3.3157000000E-04
                       1.9142187500E-04  5.7447298439E+00 -3.3157000000E-04
                       2.7081873318E+00  3.8298198959E+00 -4.6909391186E+00
                       1.6828852053E+00  9.5745497398E-01  4.0985664573E+00
                       1.0124861129E+00  5.7538601345E+00  2.9368475106E+00
                       2.3793957923E+00  4.7872748699E+00 -1.7537600380E+00
                       5.7579822165E+00  3.8206896053E+00 -5.2829802099E+00
             xred      0.0000000000E+00  0.0000000000E+00  0.0000000000E+00
                       7.5000000000E-01  2.5000000000E-01  5.0000000000E-01
                       2.5000000000E-01  7.5000000000E-01  5.0000000000E-01
                       5.0000000000E-01  5.0000000000E-01  2.7755575616E-17
                       2.4880800000E-01  1.2500000000E-01  6.2380800000E-01
                       3.7500000000E-01  7.5119200000E-01  8.7619200000E-01
                       5.0119200000E-01  6.2500000000E-01  3.7619200000E-01
                       8.7500000000E-01  4.9880800000E-01  1.2380800000E-01
            znucl       11.00000   15.00000    7.00000

- Timing analysis has been suppressed with timopt=0

 Suggested references for the acknowledgment of ABINIT usage.

 Calculation completed.
.Delivered  14 WARNINGs and   9 COMMENTs to log file.