.Version 9.5.1 of ABINIT

 ABINIT is a project of the Universite Catholique de Louvain,
 Corning Inc. and other collaborators, see ~abinit/doc/developers/contributors.txt .
 acknowledgments of the ABINIT effort.

.Starting date : Tue 18 May 2021.
- ( at 13h19 )

- input  file    -> /scratch/users/j/a/jabreu/flow_simple_8atoms/flow/w289/t1/run.abi
- output file    -> /scratch/users/j/a/jabreu/flow_simple_8atoms/flow/w289/t1/run.abo
- root for input  files -> /scratch/users/j/a/jabreu/flow_simple_8atoms/flow/w289/t1/indata/in
- root for output files -> /scratch/users/j/a/jabreu/flow_simple_8atoms/flow/w289/t1/outdata/out

 Symmetries : space group R-3 m (#166); Bravais hR (rhombohedral)
     intxc =       0      iscf =       7    lmnmax =      18     lnmax =       6
     mgfft =     120  mpssoang =       3    mqgrid =    3001     natom =       8
  nloc_mem =       1    nspden =       1   nspinor =       1    nsppol =       1
      nsym =      12    n1xccc =    2501    ntypat =       4    occopt =       1
   xclevel =       2
-    mband =          51        mffmem =           1         mkmem =           2
-   mkqmem =           2        mk1mem =           2           mpw =       12043
      nfft =     1728000          nkpt =           2
  Rough estimation (10% accuracy) of disk space for files :

------------- Echo of variables that govern the present computation ------------
-
- outvars: echo of selected default values
-   iomode0 =  0 , fftalg0 =512 , wfoptalg0 =  0
-
- outvars: echo of global parameters not present in the input file
-  max_nthreads =    0
-
 -outvars: echo values of preprocessed input variables --------
            acell      1.0000000000E+00  1.0000000000E+00  1.0000000000E+00 Bohr
              amu      8.89058500E+01  6.53900000E+01  3.09737620E+01
                       1.59994000E+01
             ecut      4.40000000E+01 Hartree
-          fftalg         512
           irdden           1
           irdwfk           1
           istwfk        1    0
              ixc     -116133
              kpt      5.00000000E-01  5.00000000E-01  5.00000000E-01
                       3.07675590E-01  0.00000000E+00 -3.07675590E-01
           kptopt           0
P           mkmem           2
P          mkqmem           2
P          mk1mem           2
            natom           8
            nband          51
           nbdbuf           4
            ngfft         120     120     120
             nkpt           2
            nstep        2000
             nsym          12
           ntypat           4
              occ      2.000000  2.000000  2.000000  2.000000  2.000000  2.000000
                       2.000000  2.000000  2.000000  2.000000  2.000000  2.000000
                       2.000000  2.000000  2.000000  2.000000  2.000000  2.000000
                       2.000000  2.000000  2.000000  2.000000  2.000000  2.000000
                       2.000000  2.000000  2.000000  2.000000  2.000000  2.000000
                       2.000000  2.000000  2.000000  2.000000  2.000000  2.000000
                       2.000000  2.000000  2.000000  2.000000  2.000000  2.000000
                       0.000000  0.000000  0.000000  0.000000  0.000000  0.000000
                       0.000000  0.000000  0.000000
        optdriver           1
            prtwf          -1
            rfdir           1       1       1
           rfelfd           2
            rprim      7.1389135666E+00  0.0000000000E+00  1.7973994264E+01
                       3.4388014526E+00  6.2560955461E+00  1.7973994264E+01
                       0.0000000000E+00  0.0000000000E+00  1.9339817908E+01
          spgroup         166
           symrel      1  0  0   0  1  0   0  0  1      -1  0  0   0 -1  0   0  0 -1
                       0  1  0   1  0  0   0  0  1       0 -1  0  -1  0  0   0  0 -1
                       0  0  1   1  0  0   0  1  0       0  0 -1  -1  0  0   0 -1  0
                       1  0  0   0  0  1   0  1  0      -1  0  0   0  0 -1   0 -1  0
                       0  1  0   0  0  1   1  0  0       0 -1  0   0  0 -1  -1  0  0
                       0  0  1   0  1  0   1  0  0       0  0 -1   0 -1  0  -1  0  0
           tolwfr      1.00000000E-20
            typat      1  1  2  2  3  3  4  4
           useylm           1
              wtk        0.50000    0.50000
           xangst      2.1261713609E+00  1.2575051566E+00  1.1113113791E+01
                       3.4713143462E+00  2.0530780212E+00  1.8143933288E+01
                       1.0964410978E+00  6.4848034344E-01  5.7308996389E+00
                       4.5010446093E+00  2.6621028343E+00  2.3526147440E+01
                       4.9716756101E+00  2.9404533573E+00  2.5986050702E+01
                       6.2581009703E-01  3.7012982044E-01  3.2709963775E+00
                       1.7086884870E+00  1.0105886208E+00  8.9310061914E+00
                       3.8887972202E+00  2.2999945569E+00  2.0326040888E+01
            xcart      4.0178815838E+00  2.3763403566E+00  2.1000741548E+01
                       6.5598334354E+00  3.8797551895E+00  3.4287064888E+01
                       2.0719733957E+00  1.2254502517E+00  1.0829830813E+01
                       8.5057416235E+00  5.0306452944E+00  4.4457975624E+01
                       9.3951053246E+00  5.5566515519E+00  4.9106519101E+01
                       1.1826096946E+00  6.9944399425E-01  6.1812873352E+00
                       3.2289532868E+00  1.9097357264E+00  1.6877155793E+01
                       7.3487617324E+00  4.3463598197E+00  3.8410650644E+01
             xred      3.7984400000E-01  3.7984400000E-01  3.7984400000E-01
                       6.2015600000E-01  6.2015600000E-01  6.2015600000E-01
                       1.9588100000E-01  1.9588100000E-01  1.9588100000E-01
                       8.0411900000E-01  8.0411900000E-01  8.0411900000E-01
                       8.8819800000E-01  8.8819800000E-01  8.8819800000E-01
                       1.1180200000E-01  1.1180200000E-01  1.1180200000E-01
                       3.0526000000E-01  3.0526000000E-01  3.0526000000E-01
                       6.9474000000E-01  6.9474000000E-01  6.9474000000E-01
            znucl       39.00000   30.00000   15.00000    8.00000

 chkinp: Checking input parameters for consistency.

== DATASET  1 ==================================================================
-   mpi_nproc: 1, omp_nthreads: -1 (-1 if OMP is not activated)

--- !DatasetInfo
iteration_state: {dtset: 1, }
dimensions: {natom: 8, nkpt: 2, mband: 51, nsppol: 1, nspinor: 1, nspden: 1, mpw: 12043, }
cutoff_energies: {ecut:  44.0, pawecutdg:  -1.0, }
electrons: {nelect:   8.40000000E+01, charge:   0.00000000E+00, occopt:   1.00000000E+00, tsmear:   1.00000000E-02, }
meta: {optdriver: 1, rfelfd: 2, }
...

 Real(R)+Recip(G) space primitive vectors, cartesian coordinates (Bohr,Bohr^-1):
 R(1)=  7.1389136  0.0000000 17.9739943  G(1)=  0.1400773 -0.0769966  0.0000000
 R(2)=  3.4388015  6.2560955 17.9739943  G(2)=  0.0000000  0.1598441  0.0000000
 R(3)=  0.0000000  0.0000000 19.3398179  G(3)= -0.1301847 -0.0769966  0.0517068
 Unit cell volume ucvol=  8.6374964E+02 bohr^3
 Angles (23,13,12)=  2.16619931E+01  2.16619931E+01  2.16619931E+01 degrees

 getcut: wavevector=  0.0000  0.0000  0.0000  ngfft= 120 120 120
         ecut(hartree)=     44.000   => boxcut(ratio)=   2.07812

--- Pseudopotential description ------------------------------------------------
- pspini: atom type   1  psp file is /scratch/users/j/a/jabreu/pseudos/PBEsol/Y.psp8
- pspatm: opening atomic psp file    /scratch/users/j/a/jabreu/pseudos/PBEsol/Y.psp8
- Y     ONCVPSP-3.3.0  r_core=   1.60520   1.51226   1.56736
- 39.00000  11.00000    180112                znucl, zion, pspdat
    8 -116133    2    4       600   0.00000   pspcod,pspxc,lmax,lloc,mmax,r2well
    5.99000000000000    4.00000000000000    0.00000000000000   rchrg,fchrg,qchrg
     nproj     2     2     2
     extension_switch     1
  pspatm : epsatm=   18.54790046
         --- l  ekb(1:nproj) -->
             0   10.130768    0.866504
             1    5.598307    0.427135
             2    1.217602    0.315447
 pspatm: atomic psp has been read  and splines computed

- pspini: atom type   2  psp file is /scratch/users/j/a/jabreu/pseudos/PBEsol/Zn.psp8
- pspatm: opening atomic psp file    /scratch/users/j/a/jabreu/pseudos/PBEsol/Zn.psp8
- Zn    ONCVPSP-3.3.0  r_core=   1.35823   1.66358   1.85211
- 30.00000  20.00000    180112                znucl, zion, pspdat
    8 -116133    2    4       600   0.00000   pspcod,pspxc,lmax,lloc,mmax,r2well
    5.99000000000000    2.50000000000000    0.00000000000000   rchrg,fchrg,qchrg
     nproj     2     2     2
     extension_switch     1
  pspatm : epsatm=   26.57343589
         --- l  ekb(1:nproj) -->
             0    2.830835   -1.519107
             1   -4.626739   -1.324150
             2   -6.948510   -2.555500
 pspatm: atomic psp has been read  and splines computed

[...]

- pspini: atom type   4  psp file is /scratch/users/j/a/jabreu/pseudos/PBEsol/O.psp8
- pspatm: opening atomic psp file    /scratch/users/j/a/jabreu/pseudos/PBEsol/O.psp8
- O     ONCVPSP-3.3.0  r_core=   1.35509   1.45563   1.26150
-  8.00000   6.00000    180112                znucl, zion, pspdat
    8 -116133    2    4       600   0.00000   pspcod,pspxc,lmax,lloc,mmax,r2well
    5.99000000000000    4.00000000000000    0.00000000000000   rchrg,fchrg,qchrg
     nproj     2     2     1
     extension_switch     1
  pspatm : epsatm=    6.22910522
         --- l  ekb(1:nproj) -->
             0    6.050032    0.820363
             1   -4.739617   -1.153841
             2   -1.335834
 pspatm: atomic psp has been read  and splines computed

   9.85532561E+03                                ecore*ucvol(ha*bohr**3)

-inwffil : will read wavefunctions from disk file /scratch/users/j/a/jabreu/flow_simple_8atoms/flow/w289/t1/indata/in_WFK

 ==>  initialize data related to q vector <==

 The list of irreducible perturbations for this q vector is:
    1)    idir= 1    ipert=   9
    2)    idir= 2    ipert=   9
    3)    idir= 3    ipert=   9

 Perturbation wavevector (in red.coord.)   0.000000  0.000000  0.000000
 Perturbation : derivative vs k along direction   1

 dfpt_looppert : COMMENT -
  In a d/dk calculation, iscf is set to -3 automatically.
 The set of symmetries contains only one element for this perturbation.
 symkpt : not enough symmetry to change the number of k points.

[...]

 Initialisation of the first-order wave-functions :
  ireadwf=   0

--- !BeginCycle
iteration_state: {dtset: 1, }
solver: {iscf: 7, nstep: 2000, nline: 4, wfoptalg: 0, }
tolerances: {tolwfr: 1.00E-20, }
...

     iter   2DEtotal(Ha)        deltaE(Ha) residm    vres2
-ETOT  1  -107.29780838054     -1.073E+02 1.445E-01 0.000E+00
 ETOT  2  -107.50702591816     -2.092E-01 1.132E-02 0.000E+00
 ETOT  3  -107.51137156242     -4.346E-03 1.840E-03 0.000E+00
 ETOT  4  -107.51152244156     -1.509E-04 2.780E-04 0.000E+00
 ETOT  5  -107.51152924406     -6.802E-06 7.049E-05 0.000E+00
 ETOT  6  -107.51152960686     -3.628E-07 1.215E-05 0.000E+00
 ETOT  7  -107.51152962840     -2.154E-08 2.813E-06 0.000E+00
 ETOT  8  -107.51152962977     -1.368E-09 5.638E-07 0.000E+00
[...]
  -0.00000   -0.00000    0.00010
 prteigrs : prtvol=0 or 1, do not print more k-points.

 Eight components of 2nd-order total energy (hartree) are
 1,2,3: 0th-order hamiltonian combined with 1st-order wavefunctions
     kin0=   1.43504412E+02 eigvalue=  -3.45678681E+00  local=  -6.12705803E+01
 4,5,6: 1st-order hamiltonian combined with 1st and 0th-order wfs
     kin1=  -1.97776829E+02  Hartree=   0.00000000E+00     xc=   0.00000000E+00
 7,8,9: eventually, occupation + non-local contributions
    edocc=   3.27046937E+01     enl0=  -3.97020884E+00   enl1=  -1.72462300E+01
 1-9 gives the relaxation energy (to be shifted if some occ is /=2.0)
   erelax=  -1.07511530E+02
  No Ewald or frozen-wf contrib.: the relaxation energy is the total one
 2DEtotal=   -0.1075115296E+03 Ha. Also 2DEtotal=   -0.292553750213E+04 eV
    (  non-var. 2DEtotal :   -1.0751152963E+02 Ha)

 Perturbation wavevector (in red.coord.)   0.000000  0.000000  0.000000
 Perturbation : derivative vs k along direction   2
 The set of symmetries contains only one element for this perturbation.
 symkpt : not enough symmetry to change the number of k points.

[...]

 Perturbation wavevector (in red.coord.)   0.000000  0.000000  0.000000
 Perturbation : derivative vs k along direction   3
 The set of symmetries contains only one element for this perturbation.
 symkpt : not enough symmetry to change the number of k points.

-inwffil : will read wavefunctions from disk file /scratch/users/j/a/jabreu/flow_simple_8atoms/flow/w289/t1/indata/in_WFK

 Initialisation of the first-order wave-functions :
  ireadwf=   0

--- !BeginCycle
iteration_state: {dtset: 1, }
solver: {iscf: 7, nstep: 2000, nline: 4, wfoptalg: 0, }
tolerances: {tolwfr: 1.00E-20, }
...

     iter   2DEtotal(Ha)        deltaE(Ha) residm    vres2
-ETOT  1  -107.29330436147     -1.073E+02 1.497E-01 0.000E+00
 ETOT  2  -107.50668839161     -2.134E-01 2.225E-02 0.000E+00
 ETOT  3  -107.51135559062     -4.667E-03 1.904E-03 0.000E+00
 ETOT  4  -107.51152512199     -1.695E-04 2.783E-04 0.000E+00
 ETOT  5  -107.51153306200     -7.940E-06 7.019E-05 0.000E+00
 ETOT  6  -107.51153349786     -4.359E-07 1.216E-05 0.000E+00
 ETOT  7  -107.51153352429     -2.644E-08 2.801E-06 0.000E+00
 ETOT  8  -107.51153352600     -1.704E-09 5.650E-07 0.000E+00
 ETOT  9  -107.51153352611     -1.141E-10 1.194E-07 0.000E+00
 ETOT 10  -107.51153352612     -7.745E-12 2.674E-08 0.000E+00
 ETOT 11  -107.51153352612     -5.116E-13 5.284E-09 0.000E+00
 ETOT 12  -107.51153352612      2.842E-14 1.276E-09 0.000E+00
 ETOT 13  -107.51153352612     -5.684E-14 2.390E-10 0.000E+00
 ETOT 14  -107.51153352612      5.684E-14 6.113E-11 0.000E+00
 ETOT 15  -107.51153352612      1.421E-14 1.117E-11 0.000E+00
 ETOT 16  -107.51153352612     -4.263E-14 2.937E-12 0.000E+00
 ETOT 17  -107.51153352612      1.421E-14 5.355E-13 0.000E+00
 ETOT 18  -107.51153352612     -2.842E-14 1.414E-13 0.000E+00
 ETOT 19  -107.51153352612      0.000E+00 2.574E-14 0.000E+00
 ETOT 20  -107.51153352612      0.000E+00 6.823E-15 0.000E+00
 ETOT 21  -107.51153352612      0.000E+00 1.239E-15 0.000E+00
 ETOT 22  -107.51153352612      0.000E+00 3.297E-16 0.000E+00
 ETOT 23  -107.51153352612      2.842E-14 5.979E-17 0.000E+00
 ETOT 24  -107.51153352612      0.000E+00 1.596E-17 0.000E+00
 ETOT 25  -107.51153352612     -2.842E-14 2.890E-18 0.000E+00
 ETOT 26  -107.51153352612      2.842E-14 7.744E-19 0.000E+00
 ETOT 27  -107.51153352612      0.000E+00 1.400E-19 0.000E+00
 ETOT 28  -107.51153352612     -1.421E-14 3.764E-20 0.000E+00
 ETOT 29  -107.51153352612     -1.421E-14 9.866E-21 0.000E+00

 At SCF step   29   max residual=  9.87E-21 < tolwfr=  1.00E-20 =>converged.

 ----iterations are completed or convergence reached----

 dfpt_looppert: DFPT cycle converged with prtwf=-1. Will skip output of the 1st-order WFK file.
 dfpt_looppert : ek2=    1.6945807660E+02
          f-sum rule ratio=    1.1671136627E+00
 prteigrs : about to open file /scratch/users/j/a/jabreu/flow_simple_8atoms/flow/w289/t1/tmpdata/tmp_1WF1_EIG
 Expectation of eigenvalue derivatives (hartree) for nkpt=   2  k points:
  (in case of degenerate eigenvalues, averaged derivative)
 kpt#   1, nband= 51, wtk=  0.50000, kpt=  0.5000  0.5000  0.5000 (reduced coord)
  -0.00000   -0.00000   -0.00000    0.00000    0.00000    0.00000    0.00000    0.00000
  -0.00000   -0.00000   -0.00000    0.00000    0.00000    0.00000    0.00000    0.00000
   0.00000   -0.00000    0.00000   -0.00000   -0.00000   -0.00000    0.00000    0.00000
  -0.00000    0.00000    0.00000   -0.00000    0.00000    0.00000   -0.00000    0.00000
   0.00000    0.00000    0.00000    0.00000   -0.00000    0.00000   -0.00000   -0.00000
  -0.00000   -0.00000   -0.00000    0.00000   -0.00000   -0.00000   -0.00000   -0.00000
  -0.00000   -0.00000   -0.00040
 prteigrs : prtvol=0 or 1, do not print more k-points.

 Eight components of 2nd-order total energy (hartree) are
 1,2,3: 0th-order hamiltonian combined with 1st-order wavefunctions
     kin0=   1.45123441E+02 eigvalue=  -3.69630359E+00  local=  -6.21301388E+01
 4,5,6: 1st-order hamiltonian combined with 1st and 0th-order wfs
     kin1=  -1.97776836E+02  Hartree=   0.00000000E+00     xc=   0.00000000E+00
 7,8,9: eventually, occupation + non-local contributions
    edocc=   3.24852328E+01     enl0=  -4.27069789E+00   enl1=  -1.72462306E+01
 1-9 gives the relaxation energy (to be shifted if some occ is /=2.0)
   erelax=  -1.07511534E+02
  No Ewald or frozen-wf contrib.: the relaxation energy is the total one
 2DEtotal=   -0.1075115335E+03 Ha. Also 2DEtotal=   -0.292553760816E+04 eV
    (  non-var. 2DEtotal :   -1.0751153353E+02 Ha)

 CALCULATION OF EFFECTIVE MASSES
 NOTE : Additional infos (eff. mass eigenvalues, eigenvectors and, if degenerate, average mass) are available in stdout.

 COMMENTS:
 - At k-point ( 0.500, 0.500, 0.500), bands    41 through    42
   are DEGENERATE (effective mass tensor is therefore not defined).
   See Section IIIB Eqs. (67)-(70) and Appendix E of PRB 93 205147 (2016).
 - Angular average effective mass for Frohlich model is to be averaged over degenerate bands. See later.
 - Associated theta integrals calculated with ntheta=   1000 points.

 K-point ( 0.500, 0.500, 0.500) | band =    41
 Transport equivalent effective mass tensor:
             -0.2466543283             -0.0408033633             -0.3606119026
             -0.0408033633             -0.2017903592             -0.2132707325
             -0.3606119026             -0.2132707325             -2.0624913893
 Transport equivalent effective mass tensor eigenvalues:
             -2.1556166188             -0.1776609196             -0.1776585384
 Angular average effective mass 1/(<1/m>)=  -0.2221296066
 Angular average effective mass for Frohlich model (<m**0.5>)**2=  -0.2743933637
 Effective masses along directions: (cart. coord. / red. coord. -> eff. mass)
    1:   1.000000  0.000000  0.000000 /   0.900925  0.433974  0.000000 ->  -0.1594904568
    2:   0.000000  1.000000  0.000000 /   0.000000  1.000000  0.000000 ->  -0.1536361644
    3:   0.000000  0.000000  1.000000 /   0.562744  0.562744  0.605506 ->  -1.0342904362
    4:   0.577350  0.577350  0.577350 /   0.596869  0.657618  0.459658 ->  -0.3342664499
    5:   0.000000  0.707107  0.707107 /   0.501568  0.676146  0.539682 ->  -0.2940849456
    6:   0.707107  0.000000  0.707107 /   0.656517  0.559786  0.505593 ->  -0.3639950406
    7:   0.707107  0.707107  0.000000 /   0.592946  0.805242  0.000000 ->  -0.1658709423

 K-point ( 0.500, 0.500, 0.500) | band =    42
 Transport equivalent effective mass tensor:
             -1.5551100199             -0.1760142249             -1.5555439679
             -0.1760142249             -1.3615945466             -0.9199877188
             -1.5555439679             -0.9199877188             -9.3880929442
 Transport equivalent effective mass tensor eigenvalues:
             -9.7897974582             -1.2575040606             -1.2574959919
 Angular average effective mass 1/(<1/m>)=  -0.7113263303
 Angular average effective mass for Frohlich model (<m**0.5>)**2=  -0.8801244602
 Effective masses along directions: (cart. coord. / red. coord. -> eff. mass)
    1:   1.000000  0.000000  0.000000 /   0.900925  0.433974  0.000000 ->  -0.5297547930
    2:   0.000000  1.000000  0.000000 /   0.000000  1.000000  0.000000 ->  -0.5495110731
    3:   0.000000  0.000000  1.000000 /   0.562744  0.562744  0.605506 ->  -3.7045438518
    4:   0.577350  0.577350  0.577350 /   0.596869  0.657618  0.459658 ->  -0.7384320372
    5:   0.000000  0.707107  0.707107 /   0.501568  0.676146  0.539682 ->  -1.7559121267
    6:   0.707107  0.000000  0.707107 /   0.656517  0.559786  0.505593 ->  -1.7376334825
    7:   0.707107  0.707107  0.000000 /   0.592946  0.805242  0.000000 ->  -0.4857036260

 Angular average effective mass for Frohlich model, averaged over degenerate bands.
 Value of     (<<m**0.5>>)**2 =     5.343429E-01
 Absolute Value of <<m**0.5>> =     7.309876E-01

 K-point ( 0.308, 0.000,-0.308) | band =    43
 Effective mass tensor:
              0.7047617216             -0.0429502667              0.0613023706
             -0.0429502667              0.6963767086             -0.2244876400
              0.0613023706             -0.2244876400              1.0134255694
 Effective mass tensor eigenvalues:
              0.5792285836              0.6930324419              1.1423029742
 Angular average effective mass 1/(<1/m>)=   0.7416944091
 Angular average effective mass for Frohlich model (<m**0.5>)**2=   0.7586288688
 Effective masses along directions: (cart. coord. / red. coord. -> eff. mass)
    1:   1.000000  0.000000  0.000000 /   0.900925  0.433974  0.000000 ->   0.6997194912
    2:   0.000000  1.000000  0.000000 /   0.000000  1.000000  0.000000 ->   0.6454191133
    3:   0.000000  0.000000  1.000000 /   0.562744  0.562744  0.605506 ->   0.9378508999
    4:   0.577350  0.577350  0.577350 /   0.596869  0.657618  0.459658 ->   0.6370724168
    5:   0.000000  0.707107  0.707107 /   0.501568  0.676146  0.539682 ->   0.6071252007
    6:   0.707107  0.000000  0.707107 /   0.656517  0.559786  0.505593 ->   0.8506038134
    7:   0.707107  0.707107  0.000000 /   0.592946  0.805242  0.000000 ->   0.6434283999

 END OF EFFECTIVE MASSES SECTION

 ---- first-order wavefunction calculations are completed ----

 Total localisation tensor (bohr^2) in cartesian coordinates
  WARNING : still subject to testing - especially symmetries.
      direction              matrix element
   alpha     beta       real part   imaginary part
     1        1       2.6741832860    0.0000000000
     1        2       0.9129456527    0.0000000000
     1        3       8.0923907104    0.0000000000
     2        1       0.9129456527    0.0000000000
     2        2       1.6608912467    0.0000000000
     2        3       4.7718020802    0.0000000000
     3        1       8.0923907104    0.0000000000
     3        2       4.7718020802    0.0000000000
     3        3      43.4234083117    0.0000000000

 respfn : d/dk was computed, but no 2DTE, so no DDB output.

== END DATASET(S) ==============================================================

 -outvars: echo values of variables after computation  --------
            acell      1.0000000000E+00  1.0000000000E+00  1.0000000000E+00 Bohr
              amu      8.89058500E+01  6.53900000E+01  3.09737620E+01
                       1.59994000E+01
             ecut      4.40000000E+01 Hartree
           etotal     -1.0751153353E+02
            fcart      0.0000000000E+00  0.0000000000E+00  0.0000000000E+00
                       0.0000000000E+00  0.0000000000E+00  0.0000000000E+00
                       0.0000000000E+00  0.0000000000E+00  0.0000000000E+00
                       0.0000000000E+00  0.0000000000E+00  0.0000000000E+00
                       0.0000000000E+00  0.0000000000E+00  0.0000000000E+00
                       0.0000000000E+00  0.0000000000E+00  0.0000000000E+00
                       0.0000000000E+00  0.0000000000E+00  0.0000000000E+00
                       0.0000000000E+00  0.0000000000E+00  0.0000000000E+00
-          fftalg         512
           irdden           1
           irdwfk           1
           istwfk        1    0
              ixc     -116133
              kpt      5.00000000E-01  5.00000000E-01  5.00000000E-01
                       3.07675590E-01  0.00000000E+00 -3.07675590E-01
           kptopt           0
P           mkmem           2
P          mkqmem           2
P          mk1mem           2
            natom           8
            nband          51
           nbdbuf           4
            ngfft         120     120     120
             nkpt           2
            nstep        2000
             nsym          12
           ntypat           4
              occ      2.000000  2.000000  2.000000  2.000000  2.000000  2.000000
                       2.000000  2.000000  2.000000  2.000000  2.000000  2.000000
                       2.000000  2.000000  2.000000  2.000000  2.000000  2.000000
                       2.000000  2.000000  2.000000  2.000000  2.000000  2.000000
                       2.000000  2.000000  2.000000  2.000000  2.000000  2.000000
                       2.000000  2.000000  2.000000  2.000000  2.000000  2.000000
                       2.000000  2.000000  2.000000  2.000000  2.000000  2.000000
                       0.000000  0.000000  0.000000  0.000000  0.000000  0.000000
                       0.000000  0.000000  0.000000
        optdriver           1
            prtwf          -1
            rfdir           1       1       1
           rfelfd           2
            rprim      7.1389135666E+00  0.0000000000E+00  1.7973994264E+01
                       3.4388014526E+00  6.2560955461E+00  1.7973994264E+01
                       0.0000000000E+00  0.0000000000E+00  1.9339817908E+01
          spgroup         166
           strten      0.0000000000E+00  0.0000000000E+00  0.0000000000E+00
                       0.0000000000E+00  0.0000000000E+00  0.0000000000E+00
           symrel      1  0  0   0  1  0   0  0  1      -1  0  0   0 -1  0   0  0 -1
                       0  1  0   1  0  0   0  0  1       0 -1  0  -1  0  0   0  0 -1
                       0  0  1   1  0  0   0  1  0       0  0 -1  -1  0  0   0 -1  0
                       1  0  0   0  0  1   0  1  0      -1  0  0   0  0 -1   0 -1  0
                       0  1  0   0  0  1   1  0  0       0 -1  0   0  0 -1  -1  0  0
                       0  0  1   0  1  0   1  0  0       0  0 -1   0 -1  0  -1  0  0
           tolwfr      1.00000000E-20
            typat      1  1  2  2  3  3  4  4
           useylm           1
              wtk        0.50000    0.50000
           xangst      2.1261713609E+00  1.2575051566E+00  1.1113113791E+01
                       3.4713143462E+00  2.0530780212E+00  1.8143933288E+01
                       1.0964410978E+00  6.4848034344E-01  5.7308996389E+00
                       4.5010446093E+00  2.6621028343E+00  2.3526147440E+01
                       4.9716756101E+00  2.9404533573E+00  2.5986050702E+01
                       6.2581009703E-01  3.7012982044E-01  3.2709963775E+00
                       1.7086884870E+00  1.0105886208E+00  8.9310061914E+00
                       3.8887972202E+00  2.2999945569E+00  2.0326040888E+01
            xcart      4.0178815838E+00  2.3763403566E+00  2.1000741548E+01
                       6.5598334354E+00  3.8797551895E+00  3.4287064888E+01
                       2.0719733957E+00  1.2254502517E+00  1.0829830813E+01
                       8.5057416235E+00  5.0306452944E+00  4.4457975624E+01
                       9.3951053246E+00  5.5566515519E+00  4.9106519101E+01
                       1.1826096946E+00  6.9944399425E-01  6.1812873352E+00
                       3.2289532868E+00  1.9097357264E+00  1.6877155793E+01
                       7.3487617324E+00  4.3463598197E+00  3.8410650644E+01
             xred      3.7984400000E-01  3.7984400000E-01  3.7984400000E-01
                       6.2015600000E-01  6.2015600000E-01  6.2015600000E-01
                       1.9588100000E-01  1.9588100000E-01  1.9588100000E-01
                       8.0411900000E-01  8.0411900000E-01  8.0411900000E-01
                       8.8819800000E-01  8.8819800000E-01  8.8819800000E-01
                       1.1180200000E-01  1.1180200000E-01  1.1180200000E-01
                       3.0526000000E-01  3.0526000000E-01  3.0526000000E-01
                       6.9474000000E-01  6.9474000000E-01  6.9474000000E-01
            znucl       39.00000   30.00000   15.00000    8.00000

- Timing analysis has been suppressed with timopt=0

 Suggested references for the acknowledgment of ABINIT usage.

 Calculation completed.
.Delivered  14 WARNINGs and  11 COMMENTs to log file.