.Version 9.5.1 of ABINIT

 ABINIT is a project of the Universite Catholique de Louvain,
 Corning Inc. and other collaborators, see ~abinit/doc/developers/contributors.txt .
 acknowledgments of the ABINIT effort.

.Starting date : Wed 19 May 2021.
- ( at 01h20 )

- input  file    -> /scratch/users/j/a/jabreu/flow_simple_8atoms/flow/w425/t1/run.abi
- output file    -> /scratch/users/j/a/jabreu/flow_simple_8atoms/flow/w425/t1/run.abo
- root for input  files -> /scratch/users/j/a/jabreu/flow_simple_8atoms/flow/w425/t1/indata/in
- root for output files -> /scratch/users/j/a/jabreu/flow_simple_8atoms/flow/w425/t1/outdata/out

 Symmetries : space group R-3 m (#166); Bravais hR (rhombohedral)
     intxc =       0      iscf =       7    lmnmax =      18     lnmax =       6
     mgfft =      60  mpssoang =       3    mqgrid =    3001     natom =       8
  nloc_mem =       1    nspden =       1   nspinor =       1    nsppol =       1
      nsym =      12    n1xccc =    2501    ntypat =       3    occopt =       1
   xclevel =       2
-    mband =          42        mffmem =           1         mkmem =           1
-   mkqmem =           1        mk1mem =           1           mpw =       11089
      nfft =      216000          nkpt =           1
  Rough estimation (10% accuracy) of disk space for files :

------------- Echo of variables that govern the present computation ------------
-
- outvars: echo of selected default values
-   iomode0 =  0 , fftalg0 =512 , wfoptalg0 =  0
-
- outvars: echo of global parameters not present in the input file
-  max_nthreads =    0
-
 -outvars: echo values of preprocessed input variables --------
            acell      1.0000000000E+00  1.0000000000E+00  1.0000000000E+00 Bohr
              amu      1.37327000E+02  2.07200000E+02  1.89984032E+01
             ecut      4.20000000E+01 Hartree
-          fftalg         512
           irdden           1
           irdwfk           1
           istwfk        1
              ixc     -116133
           kptopt           0
P           mkmem           1
P          mkqmem           1
P          mk1mem           1
            natom           8
            nband          42
           nbdbuf           4
            ngfft          60      60      60
             nkpt           1
            nstep        2000
             nsym          12
           ntypat           3
              occ      2.000000  2.000000  2.000000  2.000000  2.000000  2.000000
                       2.000000  2.000000  2.000000  2.000000  2.000000  2.000000
                       2.000000  2.000000  2.000000  2.000000  2.000000  2.000000
                       2.000000  2.000000  2.000000  2.000000  2.000000  2.000000
                       2.000000  2.000000  2.000000  2.000000  2.000000  2.000000
                       2.000000  2.000000  2.000000  0.000000  0.000000  0.000000
                       0.000000  0.000000  0.000000  0.000000  0.000000  0.000000
        optdriver           1
            prtwf          -1
            rfdir           1       1       1
           rfelfd           2
            rprim      9.4957687902E+00  0.0000000000E+00 -1.2203702119E+00
                      -1.3872458127E+00  9.3938902470E+00 -1.2203702119E+00
                       0.0000000000E+00  0.0000000000E+00  9.5738669497E+00
          spgroup         166
           symrel      1  0  0   0  1  0   0  0  1      -1  0  0   0 -1  0   0  0 -1
                       0  1  0   1  0  0   0  0  1       0 -1  0  -1  0  0   0  0 -1
                       0  0  1   1  0  0   0  1  0       0  0 -1  -1  0  0   0 -1  0
                       1  0  0   0  0  1   0  1  0      -1  0  0   0  0 -1   0 -1  0
                       0  1  0   0  0  1   1  0  0       0 -1  0   0  0 -1  -1  0  0
                       0  0  1   0  1  0   1  0  0       0  0 -1   0 -1  0  -1  0  0
           tolwfr      1.00000000E-20
            typat      1  2  3  3  3  3  3  3
           useylm           1
           xangst      2.1454227775E+00  2.4855163094E+00  1.8873439917E+00
                       0.0000000000E+00  0.0000000000E+00  0.0000000000E+00
                       8.1260115400E-01  4.6412294596E+00  7.1485113414E-01
                       1.2791525501E+00  1.4819244760E+00  4.3451136092E+00
                       3.0116930049E+00  3.4891081427E+00 -5.7042562573E-01
                       3.4782444010E+00  3.2980315909E-01  3.0598368494E+00
                      -1.8187524775E-01  3.4891081427E+00  3.0598368494E+00
                       4.4727208028E+00  1.4819244760E+00  7.1485113414E-01
            xcart      4.0542614887E+00  4.6969451235E+00  3.5665632629E+00
                       0.0000000000E+00  0.0000000000E+00  0.0000000000E+00
                       1.5355936363E+00  8.7706525986E+00  1.3508728693E+00
                       2.4172480019E+00  2.8004314093E+00  8.2110747377E+00
                       5.6912749756E+00  6.5934588377E+00 -1.0779482118E+00
                       6.5729293412E+00  6.2323764844E-01  5.7822536566E+00
                      -3.4369440860E-01  6.5934588377E+00  5.7822536566E+00
                       8.4522173861E+00  2.8004314093E+00  1.3508728693E+00
             xred      5.0000000000E-01  5.0000000000E-01  5.0000000000E-01
                       0.0000000000E+00  0.0000000000E+00  0.0000000000E+00
                       2.9811200000E-01  9.3365500000E-01  2.9811200000E-01
                       2.9811200000E-01  2.9811200000E-01  9.3365500000E-01
                       7.0188800000E-01  7.0188800000E-01  6.6345000000E-02
                       7.0188800000E-01  6.6345000000E-02  7.0188800000E-01
                       6.6345000000E-02  7.0188800000E-01  7.0188800000E-01
                       9.3365500000E-01  2.9811200000E-01  2.9811200000E-01
            znucl       56.00000   82.00000    9.00000

 chkinp: Checking input parameters for consistency.

== DATASET  1 ==================================================================
-   mpi_nproc: 1, omp_nthreads: -1 (-1 if OMP is not activated)

--- !DatasetInfo
iteration_state: {dtset: 1, }
dimensions: {natom: 8, nkpt: 1, mband: 42, nsppol: 1, nspinor: 1, nspden: 1, mpw: 11089, }
cutoff_energies: {ecut:  42.0, pawecutdg:  -1.0, }
electrons: {nelect:   6.60000000E+01, charge:   0.00000000E+00, occopt:   1.00000000E+00, tsmear:   1.00000000E-02, }
meta: {optdriver: 1, rfelfd: 2, }
...

 Real(R)+Recip(G) space primitive vectors, cartesian coordinates (Bohr,Bohr^-1):
 R(1)=  9.4957688  0.0000000 -1.2203702  G(1)=  0.1053101  0.0155517  0.0000000
 R(2)= -1.3872458  9.3938902 -1.2203702  G(2)=  0.0000000  0.1064522  0.0000000
 R(3)=  0.0000000  0.0000000  9.5738669  G(3)=  0.0134238  0.0155517  0.1044510
 Unit cell volume ucvol=  8.5401009E+02 bohr^3
 Angles (23,13,12)=  9.73233536E+01  9.73233536E+01  9.73233536E+01 degrees

 getcut: wavevector=  0.0000  0.0000  0.0000  ngfft=  60  60  60
         ecut(hartree)=     42.000   => boxcut(ratio)=   2.14828

--- Pseudopotential description ------------------------------------------------
- pspini: atom type   1  psp file is /scratch/users/j/a/jabreu/pseudos/PBEsol/Ba.psp8
- pspatm: opening atomic psp file    /scratch/users/j/a/jabreu/pseudos/PBEsol/Ba.psp8
- Ba    ONCVPSP-3.3.0  r_core=   2.15444   1.91218   2.15444
- 56.00000  10.00000    180112                znucl, zion, pspdat
    8 -116133    2    4       600   0.00000   pspcod,pspxc,lmax,lloc,mmax,r2well
    5.99000000000000    5.00000000000000    0.00000000000000   rchrg,fchrg,qchrg
     nproj     2     2     2
     extension_switch     1
  pspatm : epsatm=   26.37418029
         --- l  ekb(1:nproj) -->
             0    6.652372    0.677024
             1    5.027722    0.408462
             2    2.543237    0.416854
 pspatm: atomic psp has been read  and splines computed

- pspini: atom type   2  psp file is /scratch/users/j/a/jabreu/pseudos/PBEsol/Pb.psp8
- pspatm: opening atomic psp file    /scratch/users/j/a/jabreu/pseudos/PBEsol/Pb.psp8
- Pb    ONCVPSP-3.3.0  r_core=   2.42823   2.42823   2.10438
- 82.00000  14.00000    180112                znucl, zion, pspdat
    8 -116133    2    4       600   0.00000   pspcod,pspxc,lmax,lloc,mmax,r2well
    5.99000000000000    6.00000000000000    0.00000000000000   rchrg,fchrg,qchrg
     nproj     2     2     2
     extension_switch     1
  pspatm : epsatm=   44.32675151
         --- l  ekb(1:nproj) -->
             0    6.256780    1.206521
             1    4.272336    0.573876
             2   -3.251371   -0.847363
 pspatm: atomic psp has been read  and splines computed

- pspini: atom type   3  psp file is /scratch/users/j/a/jabreu/pseudos/PBEsol/F.psp8
- pspatm: opening atomic psp file    /scratch/users/j/a/jabreu/pseudos/PBEsol/F.psp8
- F     ONCVPSP-3.3.0  r_core=   1.30942   1.45782   1.60379
-  9.00000   7.00000    180112                znucl, zion, pspdat
    8 -116133    2    4       600   0.00000   pspcod,pspxc,lmax,lloc,mmax,r2well
    5.99000000000000    2.50000000000000    0.00000000000000   rchrg,fchrg,qchrg
     nproj     2     2     1
     extension_switch     1
  pspatm : epsatm=    4.89824824
         --- l  ekb(1:nproj) -->
             0    6.506434    1.065875
             1   -3.978753   -1.295852
             2   -2.394754
 pspatm: atomic psp has been read  and splines computed

   6.60596780E+03                                ecore*ucvol(ha*bohr**3)

-inwffil : will read wavefunctions from disk file /scratch/users/j/a/jabreu/flow_simple_8atoms/flow/w425/t1/indata/in_WFK

 ==>  initialize data related to q vector <==

 The list of irreducible perturbations for this q vector is:
    1)    idir= 1    ipert=   9
    2)    idir= 2    ipert=   9
    3)    idir= 3    ipert=   9

 Perturbation wavevector (in red.coord.)   0.000000  0.000000  0.000000
 Perturbation : derivative vs k along direction   1

 dfpt_looppert : COMMENT -
  In a d/dk calculation, iscf is set to -3 automatically.
 The set of symmetries contains only one element for this perturbation.
 symkpt : not enough symmetry to change the number of k points.

[...]

 Initialisation of the first-order wave-functions :
  ireadwf=   0

--- !BeginCycle
iteration_state: {dtset: 1, }
solver: {iscf: 7, nstep: 2000, nline: 4, wfoptalg: 0, }
tolerances: {tolwfr: 1.00E-20, }
...

     iter   2DEtotal(Ha)        deltaE(Ha) residm    vres2
-ETOT  1  -40.064745527976     -4.006E+01 9.937E-02 0.000E+00
 ETOT  2  -40.105294827357     -4.055E-02 4.859E-04 0.000E+00
 ETOT  3  -40.105419506122     -1.247E-04 1.023E-04 0.000E+00
 ETOT  4  -40.105420259837     -7.537E-07 1.997E-06 0.000E+00
 ETOT  5  -40.105420265575     -5.738E-09 3.698E-07 0.000E+00
 ETOT  6  -40.105420265638     -6.311E-11 8.607E-09 0.000E+00
 ETOT  7  -40.105420265639     -8.242E-13 1.940E-09 0.000E+00
 ETOT  8  -40.105420265639      5.684E-14 4.337E-10 0.000E+00
 ETOT  9  -40.105420265639     -2.842E-14 6.198E-11 0.000E+00
 ETOT 10  -40.105420265639     -2.842E-14 2.298E-11 0.000E+00
 ETOT 11  -40.105420265639      2.842E-14 3.299E-12 0.000E+00
 ETOT 12  -40.105420265639     -7.105E-15 1.228E-12 0.000E+00
 ETOT 13  -40.105420265639      0.000E+00 1.764E-13 0.000E+00
 ETOT 14  -40.105420265639     -7.105E-15 6.582E-14 0.000E+00
 ETOT 15  -40.105420265639      0.000E+00 9.455E-15 0.000E+00
 ETOT 16  -40.105420265639      7.105E-15 3.534E-15 0.000E+00
 ETOT 17  -40.105420265639     -2.132E-14 5.079E-16 0.000E+00
 ETOT 18  -40.105420265639      0.000E+00 1.907E-16 0.000E+00
 ETOT 19  -40.105420265639      0.000E+00 2.775E-17 0.000E+00
 ETOT 20  -40.105420265639      0.000E+00 1.082E-17 0.000E+00
 ETOT 21  -40.105420265639      0.000E+00 1.620E-18 0.000E+00
 ETOT 22  -40.105420265639      0.000E+00 6.544E-19 0.000E+00
 ETOT 23  -40.105420265639      0.000E+00 9.573E-20 0.000E+00
 ETOT 24  -40.105420265639      7.105E-15 3.924E-20 0.000E+00
 ETOT 25  -40.105420265639      7.105E-15 9.828E-21 0.000E+00

 At SCF step   25   max residual=  9.83E-21 < tolwfr=  1.00E-20 =>converged.

 ----iterations are completed or convergence reached----

 dfpt_looppert: DFPT cycle converged with prtwf=-1. Will skip output of the 1st-order WFK file.
 dfpt_looppert : ek2=    5.9053100461E+01
          f-sum rule ratio=    1.0216667593E+00
 prteigrs : about to open file /scratch/users/j/a/jabreu/flow_simple_8atoms/flow/w425/t1/tmpdata/tmp_1WF1_EIG
 Expectation of eigenvalue derivatives (hartree) for nkpt=   1  k points:
  (in case of degenerate eigenvalues, averaged derivative)
 kpt#   1, nband= 42, wtk=  1.00000, kpt=  0.0000  0.0000  0.0000 (reduced coord)
  -0.00000   -0.00000    0.00000    0.00000    0.00000    0.00000    0.00000   -0.00000
  -0.00000   -0.00000   -0.00000   -0.00000    0.00000    0.00000   -0.00000    0.00000
   0.00000    0.00000    0.00000   -0.00000   -0.00000    0.00000    0.00000    0.00000
   0.00000   -0.00000   -0.00000    0.00000    0.00000    0.00000   -0.00000   -0.00000
   0.00000   -0.00000   -0.00000   -0.00000   -0.00000   -0.00000   -0.00000    0.00000
   0.00000   -0.00000

 Eight components of 2nd-order total energy (hartree) are
 1,2,3: 0th-order hamiltonian combined with 1st-order wavefunctions
     kin0=   4.80680990E+01 eigvalue=   3.47722625E+00  local=  -2.14241646E+01
 4,5,6: 1st-order hamiltonian combined with 1st and 0th-order wfs
     kin1=  -6.03325898E+01  Hartree=   0.00000000E+00     xc=   0.00000000E+00
 7,8,9: eventually, occupation + non-local contributions
    edocc=   7.00104216E+00     enl0=   2.98321746E+00   enl1=  -1.98782508E+01
 1-9 gives the relaxation energy (to be shifted if some occ is /=2.0)
   erelax=  -4.01054203E+01
  No Ewald or frozen-wf contrib.: the relaxation energy is the total one
 2DEtotal=   -0.4010542027E+02 Ha. Also 2DEtotal=   -0.109132398571E+04 eV
    (  non-var. 2DEtotal :   -4.0105420265E+01 Ha)

 Perturbation wavevector (in red.coord.)   0.000000  0.000000  0.000000
 Perturbation : derivative vs k along direction   2
 The set of symmetries contains only one element for this perturbation.
 symkpt : not enough symmetry to change the number of k points.

[...]

 Perturbation wavevector (in red.coord.)   0.000000  0.000000  0.000000
 Perturbation : derivative vs k along direction   3
 The set of symmetries contains only one element for this perturbation.
 symkpt : not enough symmetry to change the number of k points.

-inwffil : will read wavefunctions from disk file /scratch/users/j/a/jabreu/flow_simple_8atoms/flow/w425/t1/indata/in_WFK

 Initialisation of the first-order wave-functions :
  ireadwf=   0

--- !BeginCycle
iteration_state: {dtset: 1, }
solver: {iscf: 7, nstep: 2000, nline: 4, wfoptalg: 0, }
tolerances: {tolwfr: 1.00E-20, }
...

     iter   2DEtotal(Ha)        deltaE(Ha) residm    vres2
-ETOT  1  -40.065188382229     -4.007E+01 9.937E-02 0.000E+00
 ETOT  2  -40.105296551697     -4.011E-02 5.615E-04 0.000E+00
 ETOT  3  -40.105419487270     -1.229E-04 1.023E-04 0.000E+00
 ETOT  4  -40.105420232804     -7.455E-07 1.991E-06 0.000E+00
 ETOT  5  -40.105420238478     -5.674E-09 3.697E-07 0.000E+00
 ETOT  6  -40.105420238540     -6.187E-11 8.512E-09 0.000E+00
 ETOT  7  -40.105420238541     -7.958E-13 1.940E-09 0.000E+00
 ETOT  8  -40.105420238541      7.105E-15 3.944E-10 0.000E+00
 ETOT  9  -40.105420238541     -3.553E-14 7.271E-11 0.000E+00
 ETOT 10  -40.105420238541      0.000E+00 2.113E-11 0.000E+00
 ETOT 11  -40.105420238541     -1.421E-14 3.938E-12 0.000E+00
 ETOT 12  -40.105420238541      0.000E+00 1.147E-12 0.000E+00
 ETOT 13  -40.105420238541     -7.105E-15 2.142E-13 0.000E+00
 ETOT 14  -40.105420238541      0.000E+00 6.255E-14 0.000E+00
 ETOT 15  -40.105420238541      7.105E-15 1.168E-14 0.000E+00
 ETOT 16  -40.105420238541      0.000E+00 3.429E-15 0.000E+00
 ETOT 17  -40.105420238541      0.000E+00 6.394E-16 0.000E+00
 ETOT 18  -40.105420238541      0.000E+00 1.958E-16 0.000E+00
 ETOT 19  -40.105420238541     -7.105E-15 3.654E-17 0.000E+00
 ETOT 20  -40.105420238541     -7.105E-15 1.231E-17 0.000E+00
 ETOT 21  -40.105420238541      0.000E+00 2.167E-18 0.000E+00
 ETOT 22  -40.105420238541      0.000E+00 7.550E-19 0.000E+00
 ETOT 23  -40.105420238541      1.421E-14 1.318E-19 0.000E+00
 ETOT 24  -40.105420238541      0.000E+00 4.608E-20 0.000E+00
 ETOT 25  -40.105420238541     -7.105E-15 9.828E-21 0.000E+00

 At SCF step   25   max residual=  9.83E-21 < tolwfr=  1.00E-20 =>converged.

 ----iterations are completed or convergence reached----

 dfpt_looppert: DFPT cycle converged with prtwf=-1. Will skip output of the 1st-order WFK file.
 dfpt_looppert : ek2=    5.9053100461E+01
          f-sum rule ratio=    1.0216667583E+00
 prteigrs : about to open file /scratch/users/j/a/jabreu/flow_simple_8atoms/flow/w425/t1/tmpdata/tmp_1WF1_EIG
 Expectation of eigenvalue derivatives (hartree) for nkpt=   1  k points:
  (in case of degenerate eigenvalues, averaged derivative)
 kpt#   1, nband= 42, wtk=  1.00000, kpt=  0.0000  0.0000  0.0000 (reduced coord)
   0.00000   -0.00000   -0.00000   -0.00000    0.00000   -0.00000   -0.00000   -0.00000
  -0.00000   -0.00000    0.00000    0.00000   -0.00000   -0.00000   -0.00000    0.00000
   0.00000   -0.00000   -0.00000    0.00000    0.00000    0.00000   -0.00000   -0.00000
  -0.00000   -0.00000   -0.00000    0.00000    0.00000    0.00000    0.00000    0.00000
  -0.00000   -0.00000   -0.00000   -0.00000   -0.00000    0.00000    0.00000    0.00000
   0.00000   -0.00000

 Eight components of 2nd-order total energy (hartree) are
 1,2,3: 0th-order hamiltonian combined with 1st-order wavefunctions
     kin0=   4.80680991E+01 eigvalue=   3.47722625E+00  local=  -2.14241646E+01
 4,5,6: 1st-order hamiltonian combined with 1st and 0th-order wfs
     kin1=  -6.03325897E+01  Hartree=   0.00000000E+00     xc=   0.00000000E+00
 7,8,9: eventually, occupation + non-local contributions
    edocc=   7.00104210E+00     enl0=   2.98321747E+00   enl1=  -1.98782508E+01
 1-9 gives the relaxation energy (to be shifted if some occ is /=2.0)
   erelax=  -4.01054202E+01
  No Ewald or frozen-wf contrib.: the relaxation energy is the total one
 2DEtotal=   -0.4010542024E+02 Ha. Also 2DEtotal=   -0.109132398498E+04 eV
    (  non-var. 2DEtotal :   -4.0105420238E+01 Ha)

 CALCULATION OF EFFECTIVE MASSES
 NOTE : Additional infos (eff. mass eigenvalues, eigenvectors and, if degenerate, average mass) are available in stdout.

 K-point ( 0.000, 0.000, 0.000) | band =    33
 Effective mass tensor:
             -5.8178706849             -4.1179490595             -3.1269102468
             -4.1179490595             -7.0341096319             -3.6225896815
             -3.1269102468             -3.6225896815             -5.0141467947
 Effective mass tensor eigenvalues:
            -13.3393648098             -2.2633811511             -2.2633811507
 Angular average effective mass 1/(<1/m>)=  -3.1295644379
 Angular average effective mass for Frohlich model (<m**0.5>)**2=  -3.5814595123
 Effective masses along directions: (cart. coord. / red. coord. -> eff. mass)
    1:   1.000000  0.000000  0.000000 /   0.989497 -0.144556  0.000000 ->  -3.0855852550
    2:   0.000000  1.000000  0.000000 /   0.000000  1.000000  0.000000 ->  -3.5235556414
    3:   0.000000  0.000000  1.000000 /  -0.125447 -0.125447  0.984137 ->  -2.8513749934
    4:   0.577350  0.577350  0.577350 /   0.576302  0.472599  0.666728 -> -12.5674380936
    5:   0.000000  0.707107  0.707107 /  -0.096492  0.646265  0.756988 ->  -5.0691612833
    6:   0.707107  0.000000  0.707107 /   0.640483 -0.201819  0.740979 ->  -4.2766015352
    7:   0.707107  0.707107  0.000000 /   0.764506  0.644616  0.000000 ->  -5.9682190705

 K-point ( 0.000, 0.000, 0.000) | band =    34
 Effective mass tensor:
              0.6665908701             -0.0533286353             -0.0404943951
             -0.0533286353              0.6508402229             -0.0469135875
             -0.0404943951             -0.0469135875              0.6769993278
 Effective mass tensor eigenvalues:
              0.5691853386              0.7126225411              0.7126225411
 Angular average effective mass 1/(<1/m>)=   0.6573999813
 Angular average effective mass for Frohlich model (<m**0.5>)**2=   0.6596996742
 Effective masses along directions: (cart. coord. / red. coord. -> eff. mass)
    1:   1.000000  0.000000  0.000000 /   0.989497 -0.144556  0.000000 ->   0.6593028086
    2:   0.000000  1.000000  0.000000 /   0.000000  1.000000  0.000000 ->   0.6428448399
    3:   0.000000  0.000000  1.000000 /  -0.125447 -0.125447  0.984137 ->   0.6706490857
    4:   0.577350  0.577350  0.577350 /   0.576302  0.472599  0.666728 ->   0.5706269867
    5:   0.000000  0.707107  0.707107 /  -0.096492  0.646265  0.756988 ->   0.6101282643
    6:   0.707107  0.000000  0.707107 /   0.640483 -0.201819  0.740979 ->   0.6235354773
    7:   0.707107  0.707107  0.000000 /   0.764506  0.644616  0.000000 ->   0.5996477360

 END OF EFFECTIVE MASSES SECTION

 ---- first-order wavefunction calculations are completed ----

 Total localisation tensor (bohr^2) in cartesian coordinates
  WARNING : still subject to testing - especially symmetries.
      direction              matrix element
   alpha     beta       real part   imaginary part
     1        1       0.6899956988    0.0000000000
     1        2      -0.0976368133    0.0000000000
     1        3      -0.0741392245    0.0000000000
     2        1      -0.0976368133    0.0000000000
     2        2       0.6611586060    0.0000000000
     2        3      -0.0858918134    0.0000000000
     3        1      -0.0741392245    0.0000000000
     3        2      -0.0858918134    0.0000000000
     3        3       0.7090520375    0.0000000000

 respfn : d/dk was computed, but no 2DTE, so no DDB output.

== END DATASET(S) ==============================================================

 -outvars: echo values of variables after computation  --------
            acell      1.0000000000E+00  1.0000000000E+00  1.0000000000E+00 Bohr
              amu      1.37327000E+02  2.07200000E+02  1.89984032E+01
             ecut      4.20000000E+01 Hartree
           etotal     -4.0105420239E+01
            fcart      0.0000000000E+00  0.0000000000E+00  0.0000000000E+00
                       0.0000000000E+00  0.0000000000E+00  0.0000000000E+00
                       0.0000000000E+00  0.0000000000E+00  0.0000000000E+00
                       0.0000000000E+00  0.0000000000E+00  0.0000000000E+00
                       0.0000000000E+00  0.0000000000E+00  0.0000000000E+00
                       0.0000000000E+00  0.0000000000E+00  0.0000000000E+00
                       0.0000000000E+00  0.0000000000E+00  0.0000000000E+00
                       0.0000000000E+00  0.0000000000E+00  0.0000000000E+00
-          fftalg         512
           irdden           1
           irdwfk           1
           istwfk        1
              ixc     -116133
           kptopt           0
P           mkmem           1
P          mkqmem           1
P          mk1mem           1
            natom           8
            nband          42
           nbdbuf           4
            ngfft          60      60      60
             nkpt           1
            nstep        2000
             nsym          12
           ntypat           3
              occ      2.000000  2.000000  2.000000  2.000000  2.000000  2.000000
                       2.000000  2.000000  2.000000  2.000000  2.000000  2.000000
                       2.000000  2.000000  2.000000  2.000000  2.000000  2.000000
                       2.000000  2.000000  2.000000  2.000000  2.000000  2.000000
                       2.000000  2.000000  2.000000  2.000000  2.000000  2.000000
                       2.000000  2.000000  2.000000  0.000000  0.000000  0.000000
                       0.000000  0.000000  0.000000  0.000000  0.000000  0.000000
        optdriver           1
            prtwf          -1
            rfdir           1       1       1
           rfelfd           2
            rprim      9.4957687902E+00  0.0000000000E+00 -1.2203702119E+00
                      -1.3872458127E+00  9.3938902470E+00 -1.2203702119E+00
                       0.0000000000E+00  0.0000000000E+00  9.5738669497E+00
          spgroup         166
           strten      0.0000000000E+00  0.0000000000E+00  0.0000000000E+00
                       0.0000000000E+00  0.0000000000E+00  0.0000000000E+00
           symrel      1  0  0   0  1  0   0  0  1      -1  0  0   0 -1  0   0  0 -1
                       0  1  0   1  0  0   0  0  1       0 -1  0  -1  0  0   0  0 -1
                       0  0  1   1  0  0   0  1  0       0  0 -1  -1  0  0   0 -1  0
                       1  0  0   0  0  1   0  1  0      -1  0  0   0  0 -1   0 -1  0
                       0  1  0   0  0  1   1  0  0       0 -1  0   0  0 -1  -1  0  0
                       0  0  1   0  1  0   1  0  0       0  0 -1   0 -1  0  -1  0  0
           tolwfr      1.00000000E-20
            typat      1  2  3  3  3  3  3  3
           useylm           1
           xangst      2.1454227775E+00  2.4855163094E+00  1.8873439917E+00
                       0.0000000000E+00  0.0000000000E+00  0.0000000000E+00
                       8.1260115400E-01  4.6412294596E+00  7.1485113414E-01
                       1.2791525501E+00  1.4819244760E+00  4.3451136092E+00
                       3.0116930049E+00  3.4891081427E+00 -5.7042562573E-01
                       3.4782444010E+00  3.2980315909E-01  3.0598368494E+00
                      -1.8187524775E-01  3.4891081427E+00  3.0598368494E+00
                       4.4727208028E+00  1.4819244760E+00  7.1485113414E-01
            xcart      4.0542614887E+00  4.6969451235E+00  3.5665632629E+00
                       0.0000000000E+00  0.0000000000E+00  0.0000000000E+00
                       1.5355936363E+00  8.7706525986E+00  1.3508728693E+00
                       2.4172480019E+00  2.8004314093E+00  8.2110747377E+00
                       5.6912749756E+00  6.5934588377E+00 -1.0779482118E+00
                       6.5729293412E+00  6.2323764844E-01  5.7822536566E+00
                      -3.4369440860E-01  6.5934588377E+00  5.7822536566E+00
                       8.4522173861E+00  2.8004314093E+00  1.3508728693E+00
             xred      5.0000000000E-01  5.0000000000E-01  5.0000000000E-01
                       0.0000000000E+00  0.0000000000E+00  0.0000000000E+00
                       2.9811200000E-01  9.3365500000E-01  2.9811200000E-01
                       2.9811200000E-01  2.9811200000E-01  9.3365500000E-01
                       7.0188800000E-01  7.0188800000E-01  6.6345000000E-02
                       7.0188800000E-01  6.6345000000E-02  7.0188800000E-01
                       6.6345000000E-02  7.0188800000E-01  7.0188800000E-01
                       9.3365500000E-01  2.9811200000E-01  2.9811200000E-01
            znucl       56.00000   82.00000    9.00000

- Timing analysis has been suppressed with timopt=0

 Suggested references for the acknowledgment of ABINIT usage.

 Calculation completed.
.Delivered   6 WARNINGs and   5 COMMENTs to log file.