.Version 9.5.1 of ABINIT

 ABINIT is a project of the Universite Catholique de Louvain,
 Corning Inc. and other collaborators, see ~abinit/doc/developers/contributors.txt .
 acknowledgments of the ABINIT effort.

.Starting date : Sun 25 Apr 2021.
- ( at 17h18 )

- input  file    -> /scratch/users/j/a/jabreu/flow_simple2/flow/w172/t1/run.abi
- output file    -> /scratch/users/j/a/jabreu/flow_simple2/flow/w172/t1/run.abo
- root for input  files -> /scratch/users/j/a/jabreu/flow_simple2/flow/w172/t1/indata/in
- root for output files -> /scratch/users/j/a/jabreu/flow_simple2/flow/w172/t1/outdata/out

 Symmetries : space group F-4 3 m (#216); Bravais cF (face-center cubic)
     intxc =       0      iscf =       7    lmnmax =      18     lnmax =       6
     mgfft =      48  mpssoang =       3    mqgrid =    3001     natom =       2
  nloc_mem =       1    nspden =       1   nspinor =       1    nsppol =       1
      nsym =      24    n1xccc =    2501    ntypat =       2    occopt =       1
   xclevel =       2
-    mband =          27        mffmem =           1         mkmem =           1
-   mkqmem =           1        mk1mem =           1           mpw =        4015
      nfft =      110592          nkpt =           1
  Rough estimation (10% accuracy) of disk space for files :

------------- Echo of variables that govern the present computation ------------
-
- outvars: echo of selected default values
-   iomode0 =  0 , fftalg0 =512 , wfoptalg0 =  0
-
- outvars: echo of global parameters not present in the input file
-  max_nthreads =    0
-
 -outvars: echo values of preprocessed input variables --------
            acell      1.0000000000E+00  1.0000000000E+00  1.0000000000E+00 Bohr
              amu      6.53900000E+01  7.89600000E+01
             ecut      4.30000000E+01 Hartree
-          fftalg         512
           irdden           1
           irdwfk           1
           istwfk        1
              ixc     -116133
           kptopt           0
P           mkmem           1
P          mkqmem           1
P          mk1mem           1
            natom           2
            nband          27
           nbdbuf           4
            ngfft          48      48      48
             nkpt           1
            nstep         100
             nsym          24
           ntypat           2
              occ      2.000000  2.000000  2.000000  2.000000  2.000000  2.000000
                       2.000000  2.000000  2.000000  2.000000  2.000000  2.000000
                       2.000000  2.000000  2.000000  2.000000  2.000000  2.000000
                       0.000000  0.000000  0.000000  0.000000  0.000000  0.000000
                       0.000000  0.000000  0.000000
        optdriver           1
            prtwf          -1
            rfdir           1       1       1
           rfelfd           2
            rprim      6.5177592651E+00  0.0000000000E+00  3.7630300662E+00
                       2.1725864217E+00  6.1450023660E+00  3.7630300662E+00
                       0.0000000000E+00  0.0000000000E+00  7.5260601325E+00
          spgroup         216
           symrel      1  0  0   0  1  0   0  0  1       0 -1  1   0 -1  0   1 -1  0
                      -1  0  0  -1  0  1  -1  1  0       0  1 -1   1  0 -1   0  0 -1
                      -1  0  0  -1  1  0  -1  0  1       0 -1  1   1 -1  0   0 -1  0
                       1  0  0   0  0  1   0  1  0       0  1 -1   0  0 -1   1  0 -1
                      -1  0  1  -1  1  0  -1  0  0       0 -1  0   1 -1  0   0 -1  1
                       1  0 -1   0  0 -1   0  1 -1       0  1  0   0  0  1   1  0  0
                       1  0 -1   0  1 -1   0  0 -1       0 -1  0   0 -1  1   1 -1  0
                      -1  0  1  -1  0  0  -1  1  0       0  1  0   1  0  0   0  0  1
                       0  0 -1   0  1 -1   1  0 -1       1 -1  0   0 -1  1   0 -1  0
                       0  0  1   1  0  0   0  1  0      -1  1  0  -1  0  0  -1  0  1
                       0  0  1   0  1  0   1  0  0       1 -1  0   0 -1  0   0 -1  1
                       0  0 -1   1  0 -1   0  1 -1      -1  1  0  -1  0  1  -1  0  0
           tolwfr      1.00000000E-20
            typat      1  2
           useylm           1
           xangst      0.0000000000E+00  0.0000000000E+00  0.0000000000E+00
                       1.1496832181E+00  8.1294879970E-01  1.9913097463E+00
            xcart      0.0000000000E+00  0.0000000000E+00  0.0000000000E+00
                       2.1725864217E+00  1.5362505915E+00  3.7630300662E+00
             xred      0.0000000000E+00  0.0000000000E+00  0.0000000000E+00
                       2.5000000000E-01  2.5000000000E-01  2.5000000000E-01
            znucl       30.00000   34.00000

 chkinp: Checking input parameters for consistency.

== DATASET  1 ==================================================================
-   mpi_nproc: 1, omp_nthreads: -1 (-1 if OMP is not activated)

--- !DatasetInfo
iteration_state: {dtset: 1, }
dimensions: {natom: 2, nkpt: 1, mband: 27, nsppol: 1, nspinor: 1, nspden: 1, mpw: 4015, }
cutoff_energies: {ecut:  43.0, pawecutdg:  -1.0, }
electrons: {nelect:   3.60000000E+01, charge:   0.00000000E+00, occopt:   1.00000000E+00, tsmear:   1.00000000E-02, }
meta: {optdriver: 1, rfelfd: 2, }
...

 Real(R)+Recip(G) space primitive vectors, cartesian coordinates (Bohr,Bohr^-1):
 R(1)=  6.5177593  0.0000000  3.7630301  G(1)=  0.1534270 -0.0542446  0.0000000
 R(2)=  2.1725864  6.1450024  3.7630301  G(2)=  0.0000000  0.1627339  0.0000000
 R(3)=  0.0000000  0.0000000  7.5260601  G(3)= -0.0767135 -0.0542446  0.1328716
 Unit cell volume ucvol=  3.0143110E+02 bohr^3
 Angles (23,13,12)=  6.00000000E+01  6.00000000E+01  6.00000000E+01 degrees

 getcut: wavevector=  0.0000  0.0000  0.0000  ngfft=  48  48  48
         ecut(hartree)=     43.000   => boxcut(ratio)=   2.16060

--- Pseudopotential description ------------------------------------------------
- pspini: atom type   1  psp file is /scratch/users/j/a/jabreu/pseudos/PBEsol/Zn.psp8
- pspatm: opening atomic psp file    /scratch/users/j/a/jabreu/pseudos/PBEsol/Zn.psp8
- Zn    ONCVPSP-3.3.0  r_core=   1.35823   1.66358   1.85211
- 30.00000  20.00000    180112                znucl, zion, pspdat
    8 -116133    2    4       600   0.00000   pspcod,pspxc,lmax,lloc,mmax,r2well
    5.99000000000000    2.50000000000000    0.00000000000000   rchrg,fchrg,qchrg
     nproj     2     2     2
     extension_switch     1
  pspatm : epsatm=   26.57343589
         --- l  ekb(1:nproj) -->
             0    2.830835   -1.519107
             1   -4.626739   -1.324150
             2   -6.948510   -2.555500
 pspatm: atomic psp has been read  and splines computed

- pspini: atom type   2  psp file is /scratch/users/j/a/jabreu/pseudos/PBEsol/Se.psp8
- pspatm: opening atomic psp file    /scratch/users/j/a/jabreu/pseudos/PBEsol/Se.psp8
- Se    ONCVPSP-3.3.0  r_core=   1.81943   1.50330   1.90835
- 34.00000  16.00000    180112                znucl, zion, pspdat
    8 -116133    2    4       600   0.00000   pspcod,pspxc,lmax,lloc,mmax,r2well
    5.99000000000000    5.00000000000000    0.00000000000000   rchrg,fchrg,qchrg
     nproj     2     2     2
     extension_switch     1
  pspatm : epsatm=   29.17862020
         --- l  ekb(1:nproj) -->
             0    8.973804    1.019550
             1    6.849857    1.297308
             2   -9.203962   -3.731027
 pspatm: atomic psp has been read  and splines computed

   2.00707402E+03                                ecore*ucvol(ha*bohr**3)

-inwffil : will read wavefunctions from disk file /scratch/users/j/a/jabreu/flow_simple2/flow/w172/t1/indata/in_WFK

 ==>  initialize data related to q vector <==

 The list of irreducible perturbations for this q vector is:
    1)    idir= 1    ipert=   3
    2)    idir= 2    ipert=   3
    3)    idir= 3    ipert=   3

 Perturbation wavevector (in red.coord.)   0.000000  0.000000  0.000000
 Perturbation : derivative vs k along direction   1

 dfpt_looppert : COMMENT -
  In a d/dk calculation, iscf is set to -3 automatically.
 The set of symmetries contains only one element for this perturbation.
 symkpt : not enough symmetry to change the number of k points.

[...]

 Initialisation of the first-order wave-functions :
  ireadwf=   0

--- !BeginCycle
iteration_state: {dtset: 1, }
solver: {iscf: 7, nstep: 100, nline: 4, wfoptalg: 0, }
tolerances: {tolwfr: 1.00E-20, }
...

     iter   2DEtotal(Ha)        deltaE(Ha) residm    vres2
-ETOT  1  -96.592257128804     -9.659E+01 7.266E-02 0.000E+00
 ETOT  2  -96.649413126570     -5.716E-02 4.609E-04 0.000E+00
 ETOT  3  -96.649622661740     -2.095E-04 1.033E-06 0.000E+00
 ETOT  4  -96.649624075911     -1.414E-06 2.259E-08 0.000E+00
 ETOT  5  -96.649624087621     -1.171E-08 5.849E-11 0.000E+00
 ETOT  6  -96.649624087725     -1.044E-10 1.245E-12 0.000E+00
 ETOT  7  -96.649624087726     -8.669E-13 6.682E-15 0.000E+00
 ETOT  8  -96.649624087726      0.000E+00 1.401E-16 0.000E+00
 ETOT  9  -96.649624087726     -5.684E-14 8.090E-19 0.000E+00
 ETOT 10  -96.649624087726      4.263E-14 1.679E-20 0.000E+00
 ETOT 11  -96.649624087726      0.000E+00 9.659E-21 0.000E+00

 At SCF step   11   max residual=  9.66E-21 < tolwfr=  1.00E-20 =>converged.

 ----iterations are completed or convergence reached----

 dfpt_looppert: DFPT cycle converged with prtwf=-1. Will skip output of the 1st-order WFK file.
 dfpt_looppert : ek2=    7.5274542433E+01
          f-sum rule ratio=    1.7401529110E+00
 prteigrs : about to open file /scratch/users/j/a/jabreu/flow_simple2/flow/w172/t1/tmpdata/tmp_1WF1_EIG
 Expectation of eigenvalue derivatives (hartree) for nkpt=   1  k points:
  (in case of degenerate eigenvalues, averaged derivative)
 kpt#   1, nband= 27, wtk=  1.00000, kpt=  0.0000  0.0000  0.0000 (reduced coord)
  -0.00000    0.00000    0.00000    0.00000    0.00000    0.00000    0.00000   -0.00000
  -0.00000    0.00000   -0.00000   -0.00000   -0.00000   -0.00000   -0.00000   -0.00000
  -0.00000   -0.00000    0.00000   -0.00000   -0.00000   -0.00000    0.00000   -0.00001
  -0.00001   -0.00000   -0.00000

 Eight components of 2nd-order total energy (hartree) are
 1,2,3: 0th-order hamiltonian combined with 1st-order wavefunctions
     kin0=   7.47746173E+01 eigvalue=   8.84352086E+00  local=  -2.77050593E+01
 4,5,6: 1st-order hamiltonian combined with 1st and 0th-order wfs
     kin1=  -1.30989214E+02  Hartree=   0.00000000E+00     xc=   0.00000000E+00
 7,8,9: eventually, occupation + non-local contributions
    edocc=   3.63013205E+01     enl0=   4.43522482E+00   enl1=  -6.23100340E+01
 1-9 gives the relaxation energy (to be shifted if some occ is /=2.0)
   erelax=  -9.66496241E+01
  No Ewald or frozen-wf contrib.: the relaxation energy is the total one
 2DEtotal=   -0.9664962409E+02 Ha. Also 2DEtotal=   -0.262997002098E+04 eV
    (  non-var. 2DEtotal :   -9.6649624088E+01 Ha)

 Perturbation wavevector (in red.coord.)   0.000000  0.000000  0.000000
 Perturbation : derivative vs k along direction   2
 The set of symmetries contains only one element for this perturbation.
 symkpt : not enough symmetry to change the number of k points.

[...]

 Perturbation wavevector (in red.coord.)   0.000000  0.000000  0.000000
 Perturbation : derivative vs k along direction   3
 The set of symmetries contains only one element for this perturbation.
 symkpt : not enough symmetry to change the number of k points.

-inwffil : will read wavefunctions from disk file /scratch/users/j/a/jabreu/flow_simple2/flow/w172/t1/indata/in_WFK

 Initialisation of the first-order wave-functions :
  ireadwf=   0

--- !BeginCycle
iteration_state: {dtset: 1, }
solver: {iscf: 7, nstep: 100, nline: 4, wfoptalg: 0, }
tolerances: {tolwfr: 1.00E-20, }
...

     iter   2DEtotal(Ha)        deltaE(Ha) residm    vres2
-ETOT  1  -96.579826155335     -9.658E+01 7.282E-02 0.000E+00
 ETOT  2  -96.649320129211     -6.949E-02 5.369E-04 0.000E+00
 ETOT  3  -96.649622593161     -3.025E-04 1.089E-06 0.000E+00
 ETOT  4  -96.649624745567     -2.152E-06 2.231E-08 0.000E+00
 ETOT  5  -96.649624763477     -1.791E-08 6.087E-11 0.000E+00
 ETOT  6  -96.649624763636     -1.586E-10 1.161E-12 0.000E+00
 ETOT  7  -96.649624763637     -1.577E-12 1.495E-14 0.000E+00
 ETOT  8  -96.649624763637     -4.263E-14 1.298E-16 0.000E+00
 ETOT  9  -96.649624763637     -2.842E-14 2.641E-18 0.000E+00
 ETOT 10  -96.649624763637      0.000E+00 3.255E-20 0.000E+00
 ETOT 11  -96.649624763637      7.105E-14 9.931E-21 0.000E+00

 At SCF step   11   max residual=  9.93E-21 < tolwfr=  1.00E-20 =>converged.

 ----iterations are completed or convergence reached----

 dfpt_looppert: DFPT cycle converged with prtwf=-1. Will skip output of the 1st-order WFK file.
 dfpt_looppert : ek2=    7.5274542432E+01
          f-sum rule ratio=    1.7401529202E+00
 prteigrs : about to open file /scratch/users/j/a/jabreu/flow_simple2/flow/w172/t1/tmpdata/tmp_1WF1_EIG
 Expectation of eigenvalue derivatives (hartree) for nkpt=   1  k points:
  (in case of degenerate eigenvalues, averaged derivative)
 kpt#   1, nband= 27, wtk=  1.00000, kpt=  0.0000  0.0000  0.0000 (reduced coord)
   0.00000   -0.00000   -0.00000   -0.00000   -0.00000   -0.00000   -0.00000    0.00000
   0.00000    0.00000   -0.00000   -0.00000   -0.00000   -0.00000   -0.00000    0.00000
   0.00000    0.00000   -0.00000    0.00000    0.00000    0.00000    0.00000   -0.00000
  -0.00000    0.00000    0.00000

 Eight components of 2nd-order total energy (hartree) are
 1,2,3: 0th-order hamiltonian combined with 1st-order wavefunctions
     kin0=   7.48989096E+01 eigvalue=   8.85704842E+00  local=  -2.77698133E+01
 4,5,6: 1st-order hamiltonian combined with 1st and 0th-order wfs
     kin1=  -1.30989215E+02  Hartree=   0.00000000E+00     xc=   0.00000000E+00
 7,8,9: eventually, occupation + non-local contributions
    edocc=   3.62581661E+01     enl0=   4.40531394E+00   enl1=  -6.23100347E+01
 1-9 gives the relaxation energy (to be shifted if some occ is /=2.0)
   erelax=  -9.66496248E+01
  No Ewald or frozen-wf contrib.: the relaxation energy is the total one
 2DEtotal=   -0.9664962476E+02 Ha. Also 2DEtotal=   -0.262997003937E+04 eV
    (  non-var. 2DEtotal :   -9.6649624764E+01 Ha)

 CALCULATION OF EFFECTIVE MASSES
 NOTE : Additional infos (eff. mass eigenvalues, eigenvectors and, if degenerate, average mass) are available in stdout.

 COMMENTS:
 - At k-point ( 0.000, 0.000, 0.000), bands    16 through    18
   are DEGENERATE (effective mass tensor is therefore not defined).
   See Section IIIB Eqs. (67)-(70) and Appendix E of PRB 93 205147 (2016).
 - Angular average effective mass for Frohlich model is to be averaged over degenerate bands. See later.
 - Associated theta integrals calculated with ntheta=   1000 points.

 K-point ( 0.000, 0.000, 0.000) | band =    16
 Transport equivalent effective mass tensor:
             -0.0881239039              0.0000000049             -0.0000000027
              0.0000000049             -0.0881239118              0.0000000017
             -0.0000000027              0.0000000017             -0.0881239102
 Transport equivalent effective mass tensor eigenvalues:
             -0.0881239156             -0.0881239091             -0.0881239012
 Angular average effective mass 1/(<1/m>)=  -0.0864152422
 Angular average effective mass for Frohlich model (<m**0.5>)**2=  -0.0865316882
 Effective masses along directions: (cart. coord. / red. coord. -> eff. mass)
    1:   1.000000  0.000000  0.000000 /   0.948683  0.316228  0.000000 ->  -0.0842762139
    2:   0.000000  1.000000  0.000000 /   0.000000  1.000000  0.000000 ->  -0.0813199344
    3:   0.000000  0.000000  1.000000 /   0.408248  0.408248  0.816497 ->  -0.0845621841
    4:   0.577350  0.577350  0.577350 /   0.585539  0.688047  0.428644 ->  -0.0842136336
    5:   0.000000  0.707107  0.707107 /   0.289489  0.762222  0.578977 ->  -0.0886049648
    6:   0.707107  0.000000  0.707107 /   0.731423  0.422287  0.535439 ->  -0.0844184321
    7:   0.707107  0.707107  0.000000 /   0.616798  0.787122  0.000000 ->  -0.0944096477

[...]

 K-point ( 0.000, 0.000, 0.000) | band =    18
 Transport equivalent effective mass tensor:
             -8.5584449124              0.0000095162              0.0000013661
              0.0000095162             -8.5584391150              0.0000007232
              0.0000013661              0.0000007232             -8.5584335815
 Transport equivalent effective mass tensor eigenvalues:
             -8.5584519859             -8.5584343919             -8.5584312311
 Angular average effective mass 1/(<1/m>)=  -1.2634108321
 Angular average effective mass for Frohlich model (<m**0.5>)**2=  -1.4611407255
 Effective masses along directions: (cart. coord. / red. coord. -> eff. mass)
    1:   1.000000  0.000000  0.000000 /   0.948683  0.316228  0.000000 ->  -1.3416294857
    2:   0.000000  1.000000  0.000000 /   0.000000  1.000000  0.000000 ->  -1.2730939227
    3:   0.000000  0.000000  1.000000 /   0.408248  0.408248  0.816497 ->  -3.1847357310
    4:   0.577350  0.577350  0.577350 /   0.585539  0.688047  0.428644 ->  -1.5907024137
    5:   0.000000  0.707107  0.707107 /   0.289489  0.762222  0.578977 ->  -1.1233152779
    6:   0.707107  0.000000  0.707107 /   0.731423  0.422287  0.535439 ->  -2.0840232672
    7:   0.707107  0.707107  0.000000 /   0.616798  0.787122  0.000000 ->  -0.6297525898

 Angular average effective mass for Frohlich model, averaged over degenerate bands.
 Value of     (<<m**0.5>>)**2 =     6.014525E-01
 Absolute Value of <<m**0.5>> =     7.755337E-01

 K-point ( 0.000, 0.000, 0.000) | band =    19
 Effective mass tensor:
              0.0913627780              0.0000000000              0.0000000000
              0.0000000000              0.0913627780              0.0000000000
              0.0000000000              0.0000000000              0.0913627780
 Effective mass tensor eigenvalues:
              0.0913627779              0.0913627780              0.0913627780
 Angular average effective mass 1/(<1/m>)=   0.0913627780
 Angular average effective mass for Frohlich model (<m**0.5>)**2=   0.0913627780
 Effective masses along directions: (cart. coord. / red. coord. -> eff. mass)
    1:   1.000000  0.000000  0.000000 /   0.948683  0.316228  0.000000 ->   0.0913627780
    2:   0.000000  1.000000  0.000000 /   0.000000  1.000000  0.000000 ->   0.0913627780
    3:   0.000000  0.000000  1.000000 /   0.408248  0.408248  0.816497 ->   0.0913627780
    4:   0.577350  0.577350  0.577350 /   0.585539  0.688047  0.428644 ->   0.0913627780
    5:   0.000000  0.707107  0.707107 /   0.289489  0.762222  0.578977 ->   0.0913627780
    6:   0.707107  0.000000  0.707107 /   0.731423  0.422287  0.535439 ->   0.0913627780
    7:   0.707107  0.707107  0.000000 /   0.616798  0.787122  0.000000 ->   0.0913627780

 END OF EFFECTIVE MASSES SECTION

 ---- first-order wavefunction calculations are completed ----

 Total localisation tensor (bohr^2) in cartesian coordinates
  WARNING : still subject to testing - especially symmetries.
      direction              matrix element
   alpha     beta       real part   imaginary part
     1        1       8.6926839121    0.0000000000
     1        2       2.4586622670    0.0000000000
     1        3       6.0224680639    0.0000000000
     2        1       2.4586622670    0.0000000000
     2        2       6.9541470466    0.0000000000
     2        3       4.2585279651    0.0000000000
     3        1       6.0224680639    0.0000000000
     3        2       4.2585279651    0.0000000000
     3        3      15.6468310619    0.0000000000

 respfn : d/dk was computed, but no 2DTE, so no DDB output.

== END DATASET(S) ==============================================================

 -outvars: echo values of variables after computation  --------
            acell      1.0000000000E+00  1.0000000000E+00  1.0000000000E+00 Bohr
              amu      6.53900000E+01  7.89600000E+01
             ecut      4.30000000E+01 Hartree
           etotal     -9.6649624764E+01
            fcart      0.0000000000E+00  0.0000000000E+00  0.0000000000E+00
                       0.0000000000E+00  0.0000000000E+00  0.0000000000E+00
-          fftalg         512
           irdden           1
           irdwfk           1
           istwfk        1
              ixc     -116133
           kptopt           0
P           mkmem           1
P          mkqmem           1
P          mk1mem           1
            natom           2
            nband          27
           nbdbuf           4
            ngfft          48      48      48
             nkpt           1
            nstep         100
             nsym          24
           ntypat           2
              occ      2.000000  2.000000  2.000000  2.000000  2.000000  2.000000
                       2.000000  2.000000  2.000000  2.000000  2.000000  2.000000
                       2.000000  2.000000  2.000000  2.000000  2.000000  2.000000
                       0.000000  0.000000  0.000000  0.000000  0.000000  0.000000
                       0.000000  0.000000  0.000000
        optdriver           1
            prtwf          -1
            rfdir           1       1       1
           rfelfd           2
            rprim      6.5177592651E+00  0.0000000000E+00  3.7630300662E+00
                       2.1725864217E+00  6.1450023660E+00  3.7630300662E+00
                       0.0000000000E+00  0.0000000000E+00  7.5260601325E+00
          spgroup         216
           strten      0.0000000000E+00  0.0000000000E+00  0.0000000000E+00
                       0.0000000000E+00  0.0000000000E+00  0.0000000000E+00
           symrel      1  0  0   0  1  0   0  0  1       0 -1  1   0 -1  0   1 -1  0
                      -1  0  0  -1  0  1  -1  1  0       0  1 -1   1  0 -1   0  0 -1
                      -1  0  0  -1  1  0  -1  0  1       0 -1  1   1 -1  0   0 -1  0
                       1  0  0   0  0  1   0  1  0       0  1 -1   0  0 -1   1  0 -1
                      -1  0  1  -1  1  0  -1  0  0       0 -1  0   1 -1  0   0 -1  1
                       1  0 -1   0  0 -1   0  1 -1       0  1  0   0  0  1   1  0  0
                       1  0 -1   0  1 -1   0  0 -1       0 -1  0   0 -1  1   1 -1  0
                      -1  0  1  -1  0  0  -1  1  0       0  1  0   1  0  0   0  0  1
                       0  0 -1   0  1 -1   1  0 -1       1 -1  0   0 -1  1   0 -1  0
                       0  0  1   1  0  0   0  1  0      -1  1  0  -1  0  0  -1  0  1
                       0  0  1   0  1  0   1  0  0       1 -1  0   0 -1  0   0 -1  1
                       0  0 -1   1  0 -1   0  1 -1      -1  1  0  -1  0  1  -1  0  0
           tolwfr      1.00000000E-20
            typat      1  2
           useylm           1
           xangst      0.0000000000E+00  0.0000000000E+00  0.0000000000E+00
                       1.1496832181E+00  8.1294879970E-01  1.9913097463E+00
            xcart      0.0000000000E+00  0.0000000000E+00  0.0000000000E+00
                       2.1725864217E+00  1.5362505915E+00  3.7630300662E+00
             xred      0.0000000000E+00  0.0000000000E+00  0.0000000000E+00
                       2.5000000000E-01  2.5000000000E-01  2.5000000000E-01
            znucl       30.00000   34.00000

- Timing analysis has been suppressed with timopt=0

 Suggested references for the acknowledgment of ABINIT usage.

 Calculation completed.
.Delivered   6 WARNINGs and   5 COMMENTs to log file.