.Version 9.7.2 of ABINIT

 ABINIT is a project of the Universite Catholique de Louvain,
 Corning Inc. and other collaborators, see ~abinit/doc/developers/contributors.txt .
 acknowledgments of the ABINIT effort.

.Starting date : Wed  1 Dec 2021.
- ( at 21h57 )

- input  file    -> /scratch/users/j/a/jabreu/flow_simple_remain_atoms/flow/w240/t1/run.abi
- output file    -> /scratch/users/j/a/jabreu/flow_simple_remain_atoms/flow/w240/t1/run.abo
- root for input  files -> /scratch/users/j/a/jabreu/flow_simple_remain_atoms/flow/w240/t1/indata/in
- root for output files -> /scratch/users/j/a/jabreu/flow_simple_remain_atoms/flow/w240/t1/outdata/out

 Symmetries : space group R-3 m (#166); Bravais hR (rhombohedral)
     intxc =       0      iscf =       7    lmnmax =      32     lnmax =       8
     mgfft =     108  mpssoang =       4    mqgrid =    3001     natom =       4
  nloc_mem =       1    nspden =       1   nspinor =       1    nsppol =       1
      nsym =      12    n1xccc =    2501    ntypat =       3    occopt =       1
   xclevel =       2
-    mband =          35        mffmem =           1         mkmem =           2
-   mkqmem =           2        mk1mem =           2           mpw =       18186
      nfft =     1259712          nkpt =           2
  Rough estimation (10% accuracy) of disk space for files :

------------- Echo of variables that govern the present computation ------------
-
- outvars: echo of selected default values
-   iomode0 =  0 , fftalg0 =512 , wfoptalg0 =  0
-
- outvars: echo of global parameters not present in the input file
-  max_nthreads =    0
-
 -outvars: echo values of preprocessed input variables --------
            acell      1.0000000000E+00  1.0000000000E+00  1.0000000000E+00 Bohr
              amu      3.90983000E+01  1.38905500E+02  1.27600000E+02
             ecut      5.20000000E+01 Hartree
-          fftalg         512
           irdden           1
           irdwfk           1
           istwfk        1    1
              ixc     -116133
              kpt      0.00000000E+00  0.00000000E+00  0.00000000E+00
                       5.00000000E-01  5.00000000E-01  0.00000000E+00
           kptopt           0
P           mkmem           2
P          mkqmem           2
P          mk1mem           2
            natom           4
            nband          35
           nbdbuf           4
            ngfft         108     108     108
             nkpt           2
            nstep        2000
             nsym          12
           ntypat           3
              occ      2.000000  2.000000  2.000000  2.000000  2.000000  2.000000
                       2.000000  2.000000  2.000000  2.000000  2.000000  2.000000
                       2.000000  2.000000  2.000000  2.000000  2.000000  2.000000
                       2.000000  2.000000  2.000000  2.000000  2.000000  2.000000
                       2.000000  2.000000  0.000000  0.000000  0.000000  0.000000
                       0.000000  0.000000  0.000000  0.000000  0.000000
        optdriver           1
            prtwf          -1
            rfdir           1       1       1
           rfelfd           2
            rprim      8.4410049232E+00  0.0000000000E+00  1.3643020465E+01
                       3.8792748286E+00  7.4967853723E+00  1.3643020465E+01
                       0.0000000000E+00  0.0000000000E+00  1.6043147182E+01
          spgroup         166
           symrel      1  0  0   0  1  0   0  0  1      -1  0  0   0 -1  0   0  0 -1
                       0  1  0   1  0  0   0  0  1       0 -1  0  -1  0  0   0  0 -1
                       0  0  1   1  0  0   0  1  0       0  0 -1  -1  0  0   0 -1  0
                       1  0  0   0  0  1   0  1  0      -1  0  0   0  0 -1   0 -1  0
                       0  1  0   0  0  1   1  0  0       0 -1  0   0  0 -1  -1  0  0
                       0  0  1   0  1  0   1  0  0       0  0 -1   0 -1  0  -1  0  0
           tolwfr      1.00000000E-20
            typat      1  2  3  3
           useylm           1
              wtk        0.50000    0.50000
           xangst      3.2598056241E+00  1.9835639784E+00  1.1464409408E+01
                       0.0000000000E+00  0.0000000000E+00  0.0000000000E+00
                       1.6997213289E+00  1.0342659625E+00  5.9777494245E+00
                       4.8198899192E+00  2.9328619942E+00  1.6951069391E+01
            xcart      6.1601398759E+00  3.7483926861E+00  2.1664594056E+01
                       0.0000000000E+00  0.0000000000E+00  0.0000000000E+00
                       3.2120078138E+00  1.9544794176E+00  1.1296309303E+01
                       9.1082719380E+00  5.5423059547E+00  3.2032878808E+01
             xred      5.0000000000E-01  5.0000000000E-01  5.0000000000E-01
                       0.0000000000E+00  0.0000000000E+00  0.0000000000E+00
                       2.6070900000E-01  2.6070900000E-01  2.6070900000E-01
                       7.3929100000E-01  7.3929100000E-01  7.3929100000E-01
            znucl       19.00000   57.00000   52.00000

 chkinp: Checking input parameters for consistency.

== DATASET  1 ==================================================================
-   mpi_nproc: 1, omp_nthreads: -1 (-1 if OMP is not activated)

--- !DatasetInfo
iteration_state: {dtset: 1, }
dimensions: {natom: 4, nkpt: 2, mband: 35, nsppol: 1, nspinor: 1, nspden: 1, mpw: 18186, }
cutoff_energies: {ecut:  52.0, pawecutdg:  -1.0, }
electrons: {nelect:   5.20000000E+01, charge:   0.00000000E+00, occopt:   1.00000000E+00, tsmear:   1.00000000E-02, }
meta: {optdriver: 1, rfelfd: 2, }
...

 Real(R)+Recip(G) space primitive vectors, cartesian coordinates (Bohr,Bohr^-1):
 R(1)=  8.4410049  0.0000000 13.6430205  G(1)=  0.1184693 -0.0613029  0.0000000
 R(2)=  3.8792748  7.4967854 13.6430205  G(2)=  0.0000000  0.1333905  0.0000000
 R(3)=  0.0000000  0.0000000 16.0431472  G(3)= -0.1007458 -0.0613029  0.0623319
 Unit cell volume ucvol=  1.0152168E+03 bohr^3
 Angles (23,13,12)=  3.17452858E+01  3.17452858E+01  3.17452858E+01 degrees

 getcut: wavevector=  0.0000  0.0000  0.0000  ngfft= 108 108 108
         ecut(hartree)=     52.000   => boxcut(ratio)=   2.07381

--- Pseudopotential description ------------------------------------------------
- pspini: atom type   1  psp file is /scratch/users/j/a/jabreu/pseudos/PBEsol/K.psp8
- pspatm: opening atomic psp file    /scratch/users/j/a/jabreu/pseudos/PBEsol/K.psp8
- K     ONCVPSP-3.3.0  r_core=   1.36296   1.46408   1.61068
- 19.00000   9.00000    180112                znucl, zion, pspdat
    8 -116133    2    4       400   0.00000   pspcod,pspxc,lmax,lloc,mmax,r2well
    3.99000000000000    5.00000000000000    0.00000000000000   rchrg,fchrg,qchrg
     nproj     2     2     2
     extension_switch     1
  pspatm : epsatm=    8.32487830
         --- l  ekb(1:nproj) -->
             0   10.921326    0.816676
             1    4.431000    0.560368
             2   -3.384038   -1.043186
 pspatm: atomic psp has been read  and splines computed

- pspini: atom type   2  psp file is /scratch/users/j/a/jabreu/pseudos/PBEsol/La.psp8
- pspatm: opening atomic psp file    /scratch/users/j/a/jabreu/pseudos/PBEsol/La.psp8
- La    ONCVPSP-3.3.0  r_core=   2.11664   1.60878   1.85636   1.66739
- 57.00000  11.00000    180112                znucl, zion, pspdat
    8 -116133    3    4       600   0.00000   pspcod,pspxc,lmax,lloc,mmax,r2well
    5.99000000000000    5.00000000000000    0.00000000000000   rchrg,fchrg,qchrg
     nproj     2     2     2     2
     extension_switch     1
  pspatm : epsatm=   29.08531775
         --- l  ekb(1:nproj) -->
             0    6.695600    0.639047
             1    6.383649    1.151322
             2    3.612966    0.847811
             3  -13.718437   -4.858923
 pspatm: atomic psp has been read  and splines computed

- pspini: atom type   3  psp file is /scratch/users/j/a/jabreu/pseudos/PBEsol/Te.psp8
- pspatm: opening atomic psp file    /scratch/users/j/a/jabreu/pseudos/PBEsol/Te.psp8
- Te    ONCVPSP-3.3.0  r_core=   2.26547   1.91704   1.80604
- 52.00000  16.00000    180112                znucl, zion, pspdat
    8 -116133    2    4       600   0.00000   pspcod,pspxc,lmax,lloc,mmax,r2well
    5.99000000000000    5.00000000000000    0.00000000000000   rchrg,fchrg,qchrg
     nproj     2     2     2
     extension_switch     1
  pspatm : epsatm=   36.82679836
         --- l  ekb(1:nproj) -->
             0    6.345999    0.785432
             1    5.709019    1.070069
             2   -6.035173   -1.870937
 pspatm: atomic psp has been read  and splines computed

   5.77531722E+03                                ecore*ucvol(ha*bohr**3)

 ==>  initialize data related to q vector <==

 The list of irreducible perturbations for this q vector is:
    1)    idir= 1    ipert=   5
    2)    idir= 2    ipert=   5
    3)    idir= 3    ipert=   5

 Perturbation wavevector (in red.coord.)   0.000000  0.000000  0.000000
 Perturbation : derivative vs k along direction   1

 dfpt_looppert : COMMENT -
  In a d/dk calculation, iscf is set to -3 automatically.
 The set of symmetries contains only one element for this perturbation.
 symkpt : not enough symmetry to change the number of k points.

 Initialisation of the first-order wave-functions :
  ireadwf=   0

--- !BeginCycle
iteration_state: {dtset: 1, }
solver: {iscf: 7, nstep: 2000, nline: 4, wfoptalg: 0, }
tolerances: {tolwfr: 1.00E-20, }
...

     iter   2DEtotal(Ha)        deltaE(Ha) residm    vres2
-ETOT  1  -71.509343399037     -7.151E+01 1.835E-01 0.000E+00
 ETOT  2  -71.679849702851     -1.705E-01 6.380E-02 0.000E+00
 ETOT  3  -71.684842075594     -4.992E-03 1.528E-02 0.000E+00
 ETOT  4  -71.685380419951     -5.383E-04 2.193E-02 0.000E+00
 ETOT  5  -71.685498426089     -1.180E-04 7.597E-03 0.000E+00
 ETOT  6  -71.685529719235     -3.129E-05 1.421E-02 0.000E+00
 ETOT  7  -71.685538385210     -8.666E-06 4.766E-03 0.000E+00
 ETOT  8  -71.685540820981     -2.436E-06 9.417E-03 0.000E+00
 ETOT  9  -71.685541509166     -6.882E-07 3.011E-03 0.000E+00
 ETOT 10  -71.685541703849     -1.947E-07 6.189E-03 0.000E+00
 ETOT 11  -71.685541759426     -5.558E-08 1.910E-03 0.000E+00
 ETOT 12  -71.685541775235     -1.581E-08 4.059E-03 0.000E+00
 ETOT 13  -71.685541779841     -4.606E-09 1.246E-03 0.000E+00
 ETOT 14  -71.685541781192     -1.351E-09 3.017E-03 0.000E+00
 ETOT 15  -71.685541781590     -3.987E-10 8.391E-04 0.000E+00
 ETOT 16  -71.685541781710     -1.196E-10 2.054E-03 0.000E+00
 ETOT 17  -71.685541781746     -3.608E-11 5.444E-04 0.000E+00
 ETOT 18  -71.685541781757     -1.103E-11 1.347E-03 0.000E+00
 ETOT 19  -71.685541781760     -3.340E-12 3.581E-04 0.000E+00
 ETOT 20  -71.685541781762     -1.023E-12 8.843E-04 0.000E+00
 ETOT 21  -71.685541781762     -3.126E-13 2.356E-04 0.000E+00
 ETOT 22  -71.685541781762     -7.105E-14 5.818E-04 0.000E+00
 ETOT 23  -71.685541781762     -2.842E-14 1.552E-04 0.000E+00
 ETOT 24  -71.685541781762      0.000E+00 3.834E-04 0.000E+00
 ETOT 25  -71.685541781762     -2.842E-14 1.023E-04 0.000E+00
 ETOT 26  -71.685541781762      2.842E-14 2.529E-04 0.000E+00
 ETOT 27  -71.685541781762     -2.842E-14 6.746E-05 0.000E+00
 ETOT 28  -71.685541781762      2.842E-14 1.670E-04 0.000E+00
[...]
 Perturbation : derivative vs k along direction   3
 The set of symmetries contains only one element for this perturbation.
 symkpt : not enough symmetry to change the number of k points.

 Initialisation of the first-order wave-functions :
  ireadwf=   0

--- !BeginCycle
iteration_state: {dtset: 1, }
solver: {iscf: 7, nstep: 2000, nline: 4, wfoptalg: 0, }
tolerances: {tolwfr: 1.00E-20, }
...

     iter   2DEtotal(Ha)        deltaE(Ha) residm    vres2
-ETOT  1  -69.426074209965     -6.943E+01 2.031E-01 0.000E+00
 ETOT  2  -69.584230354311     -1.582E-01 8.617E-02 0.000E+00
 ETOT  3  -69.588386299917     -4.156E-03 1.190E-02 0.000E+00
 ETOT  4  -69.588832917002     -4.466E-04 2.397E-02 0.000E+00
 ETOT  5  -69.588929815084     -9.690E-05 5.192E-03 0.000E+00
 ETOT  6  -69.588955341323     -2.553E-05 1.233E-02 0.000E+00
 ETOT  7  -69.588962325418     -6.984E-06 2.941E-03 0.000E+00
 ETOT  8  -69.588964328394     -2.003E-06 7.526E-03 0.000E+00
 ETOT  9  -69.588964908889     -5.805E-07 1.725E-03 0.000E+00
 ETOT 10  -69.588965076479     -1.676E-07 4.602E-03 0.000E+00
 ETOT 11  -69.588965127800     -5.132E-08 1.023E-03 0.000E+00
 ETOT 12  -69.588965143572     -1.577E-08 2.793E-03 0.000E+00
 ETOT 13  -69.588965148443     -4.871E-09 6.499E-04 0.000E+00
 ETOT 14  -69.588965149956     -1.514E-09 1.690E-03 0.000E+00
 ETOT 15  -69.588965150427     -4.705E-10 4.327E-04 0.000E+00
 ETOT 16  -69.588965150575     -1.482E-10 1.089E-03 0.000E+00
 ETOT 17  -69.588965150622     -4.694E-11 2.847E-04 0.000E+00
 ETOT 18  -69.588965150637     -1.523E-11 7.458E-04 0.000E+00
 ETOT 19  -69.588965150642     -4.889E-12 1.759E-04 0.000E+00
 ETOT 20  -69.588965150644     -1.592E-12 4.702E-04 0.000E+00
 ETOT 21  -69.588965150644     -4.690E-13 1.099E-04 0.000E+00
 ETOT 22  -69.588965150645     -1.847E-13 2.964E-04 0.000E+00
 ETOT 23  -69.588965150645     -1.421E-14 6.870E-05 0.000E+00
 ETOT 24  -69.588965150645     -5.684E-14 1.868E-04 0.000E+00
 ETOT 25  -69.588965150645     -7.105E-14 4.309E-05 0.000E+00
 ETOT 26  -69.588965150645      1.421E-14 1.177E-04 0.000E+00
 ETOT 27  -69.588965150645      4.263E-14 3.007E-05 0.000E+00
 ETOT 28  -69.588965150645     -2.842E-14 7.411E-05 0.000E+00
 ETOT 29  -69.588965150645      1.421E-14 2.097E-05 0.000E+00
 ETOT 30  -69.588965150645      0.000E+00 4.666E-05 0.000E+00
 ETOT 31  -69.588965150645      5.684E-14 1.461E-05 0.000E+00
 ETOT 32  -69.588965150645     -5.684E-14 2.937E-05 0.000E+00
 ETOT 33  -69.588965150645     -2.842E-14 1.018E-05 0.000E+00
 ETOT 34  -69.588965150645      1.421E-14 1.848E-05 0.000E+00
 ETOT 35  -69.588965150645      1.421E-14 7.089E-06 0.000E+00
 ETOT 36  -69.588965150645      1.421E-14 1.162E-05 0.000E+00
 ETOT 37  -69.588965150645     -1.421E-14 4.939E-06 0.000E+00
 ETOT 38  -69.588965150645      1.421E-14 7.309E-06 0.000E+00
 ETOT 39  -69.588965150645     -2.842E-14 3.442E-06 0.000E+00
 ETOT 40  -69.588965150645      1.421E-14 4.595E-06 0.000E+00
 ETOT 41  -69.588965150645      0.000E+00 2.400E-06 0.000E+00
 ETOT 42  -69.588965150645      0.000E+00 2.889E-06 0.000E+00
 ETOT 43  -69.588965150645     -1.421E-14 1.674E-06 0.000E+00
 ETOT 44  -69.588965150645      1.421E-14 1.816E-06 0.000E+00
 ETOT 45  -69.588965150645      0.000E+00 1.169E-06 0.000E+00
 ETOT 46  -69.588965150645     -1.421E-14 1.142E-06 0.000E+00
 ETOT 47  -69.588965150645     -1.421E-14 8.164E-07 0.000E+00
 ETOT 48  -69.588965150645      1.421E-14 7.178E-07 0.000E+00
 ETOT 49  -69.588965150645      0.000E+00 5.707E-07 0.000E+00
 ETOT 50  -69.588965150645     -1.421E-14 4.512E-07 0.000E+00
 ETOT 51  -69.588965150645      1.421E-14 3.992E-07 0.000E+00
 ETOT 52  -69.588965150645      0.000E+00 2.837E-07 0.000E+00
 ETOT 53  -69.588965150645      0.000E+00 2.794E-07 0.000E+00
 ETOT 54  -69.588965150645      0.000E+00 1.784E-07 0.000E+00
 ETOT 55  -69.588965150645      4.263E-14 1.957E-07 0.000E+00
 ETOT 56  -69.588965150645     -4.263E-14 1.132E-07 0.000E+00
 ETOT 57  -69.588965150645      2.842E-14 1.372E-07 0.000E+00
 ETOT 58  -69.588965150645     -2.842E-14 7.950E-08 0.000E+00
 ETOT 59  -69.588965150645      1.421E-14 9.618E-08 0.000E+00
 ETOT 60  -69.588965150645      1.421E-14 5.585E-08 0.000E+00
 ETOT 61  -69.588965150645      1.421E-14 6.749E-08 0.000E+00
[...]
 ETOT  214  -69.588965150645      1.421E-14 1.130E-19 0.000E+00
 ETOT  215  -69.588965150645     -1.421E-14 1.377E-19 0.000E+00
 ETOT  216  -69.588965150645      1.421E-14 7.973E-20 0.000E+00
 ETOT  217  -69.588965150645     -1.421E-14 9.713E-20 0.000E+00
 ETOT  218  -69.588965150645      1.421E-14 5.624E-20 0.000E+00
 ETOT  219  -69.588965150645     -2.842E-14 6.851E-20 0.000E+00
 ETOT  220  -69.588965150645      1.421E-14 3.967E-20 0.000E+00
 ETOT  221  -69.588965150645      1.421E-14 4.832E-20 0.000E+00
 ETOT  222  -69.588965150645     -1.421E-14 2.798E-20 0.000E+00
 ETOT  223  -69.588965150645      0.000E+00 3.409E-20 0.000E+00
 ETOT  224  -69.588965150645     -1.421E-14 1.974E-20 0.000E+00
 ETOT  225  -69.588965150645      1.421E-14 2.404E-20 0.000E+00
 ETOT  226  -69.588965150645      1.421E-14 1.392E-20 0.000E+00
 ETOT  227  -69.588965150645      1.421E-14 1.696E-20 0.000E+00
 ETOT  228  -69.588965150645     -2.842E-14 9.899E-21 0.000E+00

 At SCF step  228   max residual=  9.90E-21 < tolwfr=  1.00E-20 =>converged.

 ----iterations are completed or convergence reached----

 dfpt_looppert: DFPT cycle converged with prtwf=-1. Will skip output of the 1st-order WFK file.
 dfpt_looppert : ek2=    7.3053818460E+01
          f-sum rule ratio=    1.0759850593E+00
 prteigrs : about to open file /scratch/users/j/a/jabreu/flow_simple_remain_atoms/flow/w240/t1/tmpdata/tmp_1WF1_EIG
 Expectation of eigenvalue derivatives (hartree) for nkpt=   2  k points:
  (in case of degenerate eigenvalues, averaged derivative)
 kpt#   1, nband= 35, wtk=  0.50000, kpt=  0.0000  0.0000  0.0000 (reduced coord)
  -0.00000   -0.00000   -0.00000   -0.00000    0.00000    0.00000   -0.00000   -0.00000
   0.00000    0.00000   -0.00000    0.00000    0.00000   -0.00000   -0.00000   -0.00000
   0.00000    0.00000    0.00000   -0.00000    0.00000    0.00000    0.00000   -0.00000
  -0.00000   -0.00000    0.00000    0.00000   -0.00000   -0.00000   -0.00000    0.00000
  -0.00000   -0.00000    0.00000
 prteigrs : prtvol=0 or 1, do not print more k-points.

 Eight components of 2nd-order total energy (hartree) are
 1,2,3: 0th-order hamiltonian combined with 1st-order wavefunctions
     kin0=   1.13328766E+02 eigvalue=   8.91889037E+00  local=  -7.08537256E+01
 4,5,6: 1st-order hamiltonian combined with 1st and 0th-order wfs
     kin1=  -7.86048172E+01  Hartree=   0.00000000E+00     xc=   0.00000000E+00
 7,8,9: eventually, occupation + non-local contributions
    edocc=   5.00026069E+00     enl0=   1.31947733E+01   enl1=  -6.05731131E+01
 1-9 gives the relaxation energy (to be shifted if some occ is /=2.0)
   erelax=  -6.95889652E+01
  No Ewald or frozen-wf contrib.: the relaxation energy is the total one
 2DEtotal=   -0.6958896515E+02 Ha. Also 2DEtotal=   -0.189361204313E+04 eV
    (  non-var. 2DEtotal :   -6.9588965150E+01 Ha)

 CALCULATION OF EFFECTIVE MASSES
 NOTE : Additional infos (eff. mass eigenvalues, eigenvectors and, if degenerate, average mass) are available in stdout.

 COMMENTS:
 - At k-point ( 0.000, 0.000, 0.000), bands    25 through    26
   are DEGENERATE (effective mass tensor is therefore not defined).
   See Section IIIB Eqs. (67)-(70) and Appendix E of PRB 93 205147 (2016).
 - Angular average effective mass for Frohlich model is to be averaged over degenerate bands. See later.
 - Associated theta integrals calculated with ntheta=   1000 points.

 K-point ( 0.000, 0.000, 0.000) | band =    25
 Transport equivalent effective mass tensor:
             -0.3315383210             -0.0692850200             -0.4004481845
             -0.0692850200             -0.2598325536             -0.2436675048
             -0.4004481845             -0.2436675048             -1.6259913112
 Transport equivalent effective mass tensor eigenvalues:
             -1.7820160684             -0.2176736440             -0.2176724734
 Angular average effective mass 1/(<1/m>)=  -0.3010054547
 Angular average effective mass for Frohlich model (<m**0.5>)**2=  -0.3571887551
 Effective masses along directions: (cart. coord. / red. coord. -> eff. mass)
    1:   1.000000  0.000000  0.000000 /   0.908637  0.417587  0.000000 ->  -0.2270160291
    2:   0.000000  1.000000  0.000000 /   0.000000  1.000000  0.000000 ->  -0.2160631273
    3:   0.000000  0.000000  1.000000 /   0.543703  0.543703  0.639354 ->  -0.9386721211
    4:   0.577350  0.577350  0.577350 /   0.596421  0.675688  0.433276 ->  -0.5001910060
    5:   0.000000  0.707107  0.707107 /   0.457211  0.708446  0.537645 ->  -0.4490540137
    6:   0.707107  0.000000  0.707107 /   0.680842  0.540205  0.494604 ->  -0.5776507556
    7:   0.707107  0.707107  0.000000 /   0.595879  0.803074  0.000000 ->  -0.2355677931

 K-point ( 0.000, 0.000, 0.000) | band =    26
 Transport equivalent effective mass tensor:
             -0.9864287123             -0.0515517544             -0.2979457660
             -0.0515517544             -0.9330797154             -0.1812991610
             -0.2979457660             -0.1812991610             -1.9495770035
 Transport equivalent effective mass tensor eigenvalues:
             -2.0656618347             -0.9017135861             -0.9017100105
 Angular average effective mass 1/(<1/m>)=  -1.0095954178
 Angular average effective mass for Frohlich model (<m**0.5>)**2=  -1.0500950965
 Effective masses along directions: (cart. coord. / red. coord. -> eff. mass)
    1:   1.000000  0.000000  0.000000 /   0.908637  0.417587  0.000000 ->  -0.8703671379
    2:   0.000000  1.000000  0.000000 /   0.000000  1.000000  0.000000 ->  -0.8741269553
    3:   0.000000  0.000000  1.000000 /   0.543703  0.543703  0.639354 ->  -1.8296316339
    4:   0.577350  0.577350  0.577350 /   0.596421  0.675688  0.433276 ->  -1.1559085959
    5:   0.000000  0.707107  0.707107 /   0.457211  0.708446  0.537645 ->  -1.3828568247
    6:   0.707107  0.000000  0.707107 /   0.680842  0.540205  0.494604 ->  -1.5815782070
    7:   0.707107  0.707107  0.000000 /   0.595879  0.803074  0.000000 ->  -0.8284725889

 Angular average effective mass for Frohlich model, averaged over degenerate bands.
 Value of     (<<m**0.5>>)**2 =     6.580407E-01
 Absolute Value of <<m**0.5>> =     8.111971E-01

 K-point ( 0.500, 0.500, 0.000) | band =    27
 Effective mass tensor:
              0.8370733627              0.2997851130             -0.6779500807
              0.2997851130              0.5268206918             -0.4125268541
             -0.6779500807             -0.4125268541              1.5356647701
 Effective mass tensor eigenvalues:
              0.3444040020              0.4430692915              2.1120855311
 Angular average effective mass 1/(<1/m>)=   0.5324798777
 Angular average effective mass for Frohlich model (<m**0.5>)**2=   0.6065923095
 Effective masses along directions: (cart. coord. / red. coord. -> eff. mass)
    1:   1.000000  0.000000  0.000000 /   0.908637  0.417587  0.000000 ->   0.5044965172
    2:   0.000000  1.000000  0.000000 /   0.000000  1.000000  0.000000 ->   0.3902575787
    3:   0.000000  0.000000  1.000000 /   0.543703  0.543703  0.639354 ->   0.9179101234
    4:   0.577350  0.577350  0.577350 /   0.596421  0.675688  0.433276 ->   0.4383867158
    5:   0.000000  0.707107  0.707107 /   0.457211  0.708446  0.537645 ->   0.4411605164
    6:   0.707107  0.000000  0.707107 /   0.680842  0.540205  0.494604 ->   0.4424263874
    7:   0.707107  0.707107  0.000000 /   0.595879  0.803074  0.000000 ->   0.5842374830

 END OF EFFECTIVE MASSES SECTION

 ---- first-order wavefunction calculations are completed ----

 Total localisation tensor (bohr^2) in cartesian coordinates
  WARNING : still subject to testing - especially symmetries.
      direction              matrix element
   alpha     beta       real part   imaginary part
     1        1       2.6974680392    0.0000000000
     1        2       0.9090222718    0.0000000000
     1        3       5.2538776565    0.0000000000
     2        1       0.9090222718    0.0000000000
     2        2       1.7567058719    0.0000000000
     2        3       3.1969401511    0.0000000000
     3        1       5.2538776565    0.0000000000
     3        2       3.1969401511    0.0000000000
     3        3      18.3386070664    0.0000000000

 respfn : d/dk was computed, but no 2DTE, so no DDB output.

== END DATASET(S) ==============================================================

 -outvars: echo values of variables after computation  --------
            acell      1.0000000000E+00  1.0000000000E+00  1.0000000000E+00 Bohr
              amu      3.90983000E+01  1.38905500E+02  1.27600000E+02
             ecut      5.20000000E+01 Hartree
           etotal     -6.9588965151E+01
            fcart      0.0000000000E+00  0.0000000000E+00  0.0000000000E+00
                       0.0000000000E+00  0.0000000000E+00  0.0000000000E+00
                       0.0000000000E+00  0.0000000000E+00  0.0000000000E+00
                       0.0000000000E+00  0.0000000000E+00  0.0000000000E+00
-          fftalg         512
           irdden           1
           irdwfk           1
           istwfk        1    1
              ixc     -116133
              kpt      0.00000000E+00  0.00000000E+00  0.00000000E+00
                       5.00000000E-01  5.00000000E-01  0.00000000E+00
           kptopt           0
P           mkmem           2
P          mkqmem           2
P          mk1mem           2
            natom           4
            nband          35
           nbdbuf           4
            ngfft         108     108     108
             nkpt           2
            nstep        2000
             nsym          12
           ntypat           3
              occ      2.000000  2.000000  2.000000  2.000000  2.000000  2.000000
                       2.000000  2.000000  2.000000  2.000000  2.000000  2.000000
                       2.000000  2.000000  2.000000  2.000000  2.000000  2.000000
                       2.000000  2.000000  2.000000  2.000000  2.000000  2.000000
                       2.000000  2.000000  0.000000  0.000000  0.000000  0.000000
                       0.000000  0.000000  0.000000  0.000000  0.000000
        optdriver           1
            prtwf          -1
            rfdir           1       1       1
           rfelfd           2
            rprim      8.4410049232E+00  0.0000000000E+00  1.3643020465E+01
                       3.8792748286E+00  7.4967853723E+00  1.3643020465E+01
                       0.0000000000E+00  0.0000000000E+00  1.6043147182E+01
          spgroup         166
           strten      0.0000000000E+00  0.0000000000E+00  0.0000000000E+00
                       0.0000000000E+00  0.0000000000E+00  0.0000000000E+00
           symrel      1  0  0   0  1  0   0  0  1      -1  0  0   0 -1  0   0  0 -1
                       0  1  0   1  0  0   0  0  1       0 -1  0  -1  0  0   0  0 -1
                       0  0  1   1  0  0   0  1  0       0  0 -1  -1  0  0   0 -1  0
                       1  0  0   0  0  1   0  1  0      -1  0  0   0  0 -1   0 -1  0
                       0  1  0   0  0  1   1  0  0       0 -1  0   0  0 -1  -1  0  0
                       0  0  1   0  1  0   1  0  0       0  0 -1   0 -1  0  -1  0  0
           tolwfr      1.00000000E-20
            typat      1  2  3  3
           useylm           1
              wtk        0.50000    0.50000
           xangst      3.2598056241E+00  1.9835639784E+00  1.1464409408E+01
                       0.0000000000E+00  0.0000000000E+00  0.0000000000E+00
                       1.6997213289E+00  1.0342659625E+00  5.9777494245E+00
                       4.8198899192E+00  2.9328619942E+00  1.6951069391E+01
            xcart      6.1601398759E+00  3.7483926861E+00  2.1664594056E+01
                       0.0000000000E+00  0.0000000000E+00  0.0000000000E+00
                       3.2120078138E+00  1.9544794176E+00  1.1296309303E+01
                       9.1082719380E+00  5.5423059547E+00  3.2032878808E+01
             xred      5.0000000000E-01  5.0000000000E-01  5.0000000000E-01
                       0.0000000000E+00  0.0000000000E+00  0.0000000000E+00
                       2.6070900000E-01  2.6070900000E-01  2.6070900000E-01
                       7.3929100000E-01  7.3929100000E-01  7.3929100000E-01
            znucl       19.00000   57.00000   52.00000

- Timing analysis has been suppressed with timopt=0

 Suggested references for the acknowledgment of ABINIT usage.

 Calculation completed.
.Delivered   2 WARNINGs and   5 COMMENTs to log file.