.Version 9.5.1 of ABINIT

 ABINIT is a project of the Universite Catholique de Louvain,
 Corning Inc. and other collaborators, see ~abinit/doc/developers/contributors.txt .
 acknowledgments of the ABINIT effort.

.Starting date : Tue 11 May 2021.
- ( at 21h49 )

- input  file    -> /scratch/users/j/a/jabreu/flow_simple_8atoms/flow/w361/t1/run.abi
- output file    -> /scratch/users/j/a/jabreu/flow_simple_8atoms/flow/w361/t1/run.abo
- root for input  files -> /scratch/users/j/a/jabreu/flow_simple_8atoms/flow/w361/t1/indata/in
- root for output files -> /scratch/users/j/a/jabreu/flow_simple_8atoms/flow/w361/t1/outdata/out

 Symmetries : space group P6_3 m c (#186); Bravais hP (primitive hexag.)
     intxc =       0      iscf =       7    lmnmax =      18     lnmax =       6
     mgfft =     120  mpssoang =       3    mqgrid =    5490     natom =       8
  nloc_mem =       1    nspden =       1   nspinor =       1    nsppol =       1
      nsym =      12    n1xccc =    2501    ntypat =       2    occopt =       1
   xclevel =       2
-    mband =          25        mffmem =           1         mkmem =           2
-   mkqmem =           2        mk1mem =           2           mpw =        7033
      nfft =      155520          nkpt =           2
  Rough estimation (10% accuracy) of disk space for files :

------------- Echo of variables that govern the present computation ------------
-
- outvars: echo of selected default values
-   iomode0 =  0 , fftalg0 =512 , wfoptalg0 =  0
-
- outvars: echo of global parameters not present in the input file
-  max_nthreads =    0
-
 -outvars: echo values of preprocessed input variables --------
            acell      1.0000000000E+00  1.0000000000E+00  1.0000000000E+00 Bohr
              amu      2.80855000E+01  1.20110000E+01
             ecut      4.10000000E+01 Hartree
-          fftalg         512
           irdden           1
           irdwfk           1
           istwfk        1    1
              ixc     -116133
              kpt      0.00000000E+00  0.00000000E+00  0.00000000E+00
                       5.00000000E-01  0.00000000E+00  0.00000000E+00
           kptopt           0
P           mkmem           2
P          mkqmem           2
P          mk1mem           2
            natom           8
            nband          25
           nbdbuf           4
            ngfft          36      36     120
             nkpt           2
            nstep        2000
             nsym          12
           ntypat           2
              occ      2.000000  2.000000  2.000000  2.000000  2.000000  2.000000
                       2.000000  2.000000  2.000000  2.000000  2.000000  2.000000
                       2.000000  2.000000  2.000000  2.000000  0.000000  0.000000
                       0.000000  0.000000  0.000000  0.000000  0.000000  0.000000
                       0.000000
        optdriver           1
            prtwf          -1
            rfdir           1       1       1
           rfelfd           2
            rprim      5.8178278780E+00  0.0000000000E+00  0.0000000000E+00
                      -2.9089139390E+00  5.0383867372E+00  0.0000000000E+00
                       0.0000000000E+00  0.0000000000E+00  1.9044511994E+01
          spgroup         186
           symrel      1  0  0   0  1  0   0  0  1       0  1  0   1  0  0   0  0  1
                       1  1  0  -1  0  0   0  0  1      -1  0  0   1  1  0   0  0  1
                       0  1  0  -1 -1  0   0  0  1      -1 -1  0   0  1  0   0  0  1
                      -1  0  0   0 -1  0   0  0  1       0 -1  0  -1  0  0   0  0  1
                      -1 -1  0   1  0  0   0  0  1       1  0  0  -1 -1  0   0  0  1
                       0 -1  0   1  1  0   0  0  1       1  1  0   0 -1  0   0  0  1
            tnons      0.0000000  0.0000000  0.0000000     0.0000000  0.0000000  0.5000000
                       0.0000000  0.0000000  0.5000000    -0.0000000  0.0000000  0.0000000
                       0.0000000  0.0000000  0.0000000     0.0000000 -0.0000000  0.5000000
                       0.0000000  0.0000000  0.5000000     0.0000000  0.0000000  0.0000000
                      -0.0000000  0.0000000  0.0000000     0.0000000  0.0000000  0.5000000
                       0.0000000 -0.0000000  0.5000000     0.0000000  0.0000000  0.0000000
           tolwfr      1.00000000E-20
            typat      1  1  1  1  2  2  2  2
           useylm           1
              wtk        0.50000    0.50000
           xangst     -3.5250283265E-16  1.7774662863E+00  6.2644361262E-01
                       1.5393309583E+00  8.8873314313E-01  5.6654044606E+00
                      -2.8483344540E-17 -4.9334599912E-17  3.1452790496E+00
                      -2.8483344540E-17 -4.9334599912E-17  8.1842398976E+00
                      -3.5250283265E-16  1.7774662863E+00  2.5214053070E+00
                       1.5393309583E+00  8.8873314313E-01  7.5603661550E+00
                      -2.8483344540E-17 -4.9334599912E-17  5.0344560170E+00
                      -2.8483344540E-17 -4.9334599912E-17  1.0073416865E+01
            xcart     -6.6613381478E-16  3.3589244915E+00  1.1838068655E+00
                       2.9089139390E+00  1.6794622457E+00  1.0706062863E+01
                      -5.3825720529E-17 -9.3228882710E-17  5.9437160153E+00
                      -5.3825720529E-17 -9.3228882710E-17  1.5465972012E+01
                      -6.6613381478E-16  3.3589244915E+00  4.7647655003E+00
                       2.9089139390E+00  1.6794622457E+00  1.4287021497E+01
                      -5.3825720529E-17 -9.3228882710E-17  9.5137431001E+00
                      -5.3825720529E-17 -9.3228882710E-17  1.9035999097E+01
             xred      3.3333333333E-01  6.6666666667E-01  6.2160000000E-02
                       6.6666666667E-01  3.3333333333E-01  5.6216000000E-01
                      -1.8503717077E-17 -1.8503717077E-17  3.1209600000E-01
                      -1.8503717077E-17 -1.8503717077E-17  8.1209600000E-01
                       3.3333333333E-01  6.6666666667E-01  2.5019100000E-01
                       6.6666666667E-01  3.3333333333E-01  7.5019100000E-01
                      -1.8503717077E-17 -1.8503717077E-17  4.9955300000E-01
                      -1.8503717077E-17 -1.8503717077E-17  9.9955300000E-01
            znucl       14.00000    6.00000

 chkinp: Checking input parameters for consistency.

== DATASET  1 ==================================================================
-   mpi_nproc: 1, omp_nthreads: -1 (-1 if OMP is not activated)

--- !DatasetInfo
iteration_state: {dtset: 1, }
dimensions: {natom: 8, nkpt: 2, mband: 25, nsppol: 1, nspinor: 1, nspden: 1, mpw: 7033, }
cutoff_energies: {ecut:  41.0, pawecutdg:  -1.0, }
electrons: {nelect:   3.20000000E+01, charge:   0.00000000E+00, occopt:   1.00000000E+00, tsmear:   1.00000000E-02, }
meta: {optdriver: 1, rfelfd: 2, }
...

 Real(R)+Recip(G) space primitive vectors, cartesian coordinates (Bohr,Bohr^-1):
 R(1)=  5.8178279  0.0000000  0.0000000  G(1)=  0.1718855  0.0992381  0.0000000
 R(2)= -2.9089139  5.0383867  0.0000000  G(2)=  0.0000000  0.1984762  0.0000000
 R(3)=  0.0000000  0.0000000 19.0445120  G(3)=  0.0000000  0.0000000  0.0525086
 Unit cell volume ucvol=  5.5824163E+02 bohr^3
 Angles (23,13,12)=  9.00000000E+01  9.00000000E+01  1.20000000E+02 degrees

 getcut: wavevector=  0.0000  0.0000  0.0000  ngfft=  36  36 120
         ecut(hartree)=     41.000   => boxcut(ratio)=   2.14677

--- Pseudopotential description ------------------------------------------------
- pspini: atom type   1  psp file is /scratch/users/j/a/jabreu/pseudos/PBEsol/Si.psp8
- pspatm: opening atomic psp file    /scratch/users/j/a/jabreu/pseudos/PBEsol/Si.psp8
- Si    ONCVPSP-3.3.0  r_core=   1.60303   1.72197   1.91712
- 14.00000   4.00000    180112                znucl, zion, pspdat
    8 -116133    2    4       600   0.00000   pspcod,pspxc,lmax,lloc,mmax,r2well
    5.99000000000000    4.00000000000000    0.00000000000000   rchrg,fchrg,qchrg
     nproj     2     2     2
     extension_switch     1
  pspatm : epsatm=    7.86468782
         --- l  ekb(1:nproj) -->
             0    5.384426    0.843824
             1    2.663259    0.615854
             2   -2.267219   -0.458043
 pspatm: atomic psp has been read  and splines computed

- pspini: atom type   2  psp file is /scratch/users/j/a/jabreu/pseudos/PBEsol/C.psp8
- pspatm: opening atomic psp file    /scratch/users/j/a/jabreu/pseudos/PBEsol/C.psp8
- C     ONCVPSP-3.3.0  r_core=   1.20440   1.26326
-  6.00000   4.00000    180112                znucl, zion, pspdat
    8 -116133    1    4       600   0.00000   pspcod,pspxc,lmax,lloc,mmax,r2well
    5.99000000000000    4.00000000000000    0.00000000000000   rchrg,fchrg,qchrg
     nproj     2     2
     extension_switch     1
  pspatm : epsatm=    4.34909529
         --- l  ekb(1:nproj) -->
             0    6.468939    0.390031
             1   -4.179695   -0.878453
 pspatm: atomic psp has been read  and splines computed

   1.56336424E+03                                ecore*ucvol(ha*bohr**3)

-inwffil : will read wavefunctions from disk file /scratch/users/j/a/jabreu/flow_simple_8atoms/flow/w361/t1/indata/in_WFK

 ==>  initialize data related to q vector <==

 The list of irreducible perturbations for this q vector is:
    1)    idir= 1    ipert=   9
    2)    idir= 2    ipert=   9
    3)    idir= 3    ipert=   9

 Perturbation wavevector (in red.coord.)   0.000000  0.000000  0.000000
 Perturbation : derivative vs k along direction   1

 dfpt_looppert : COMMENT -
  In a d/dk calculation, iscf is set to -3 automatically.
 The set of symmetries contains only one element for this perturbation.
 symkpt : not enough symmetry to change the number of k points.

[...]

 Initialisation of the first-order wave-functions :
  ireadwf=   0

--- !BeginCycle
iteration_state: {dtset: 1, }
solver: {iscf: 7, nstep: 2000, nline: 4, wfoptalg: 0, }
tolerances: {tolwfr: 1.00E-20, }
...

     iter   2DEtotal(Ha)        deltaE(Ha) residm    vres2
-ETOT  1  -67.863921876371     -6.786E+01 1.098E-01 0.000E+00
 ETOT  2  -67.910344846210     -4.642E-02 1.215E-02 0.000E+00
 ETOT  3  -67.910634360028     -2.895E-04 9.623E-04 0.000E+00
 ETOT  4  -67.910637129856     -2.770E-06 1.631E-04 0.000E+00
 ETOT  5  -67.910637160310     -3.045E-08 1.684E-05 0.000E+00
 ETOT  6  -67.910637160659     -3.488E-10 3.295E-06 0.000E+00
 ETOT  7  -67.910637160663     -4.164E-12 3.516E-07 0.000E+00
 ETOT  8  -67.910637160663     -8.527E-14 7.191E-08 0.000E+00
 ETOT  9  -67.910637160663      1.421E-14 7.866E-09 0.000E+00
 ETOT 10  -67.910637160663      2.842E-14 1.628E-09 0.000E+00
 ETOT 11  -67.910637160663      5.684E-14 1.813E-10 0.000E+00
 ETOT 12  -67.910637160663      1.421E-14 3.746E-11 0.000E+00
 ETOT 13  -67.910637160663     -2.842E-14 4.229E-12 0.000E+00
 ETOT 14  -67.910637160663      2.842E-14 8.674E-13 0.000E+00
 ETOT 15  -67.910637160663      0.000E+00 9.923E-14 0.000E+00
 ETOT 16  -67.910637160663     -5.684E-14 2.016E-14 0.000E+00
 ETOT 17  -67.910637160663      4.263E-14 2.336E-15 0.000E+00
 ETOT 18  -67.910637160663      0.000E+00 4.695E-16 0.000E+00
[...]
 kpt#   1, nband= 25, wtk=  0.50000, kpt=  0.0000  0.0000  0.0000 (reduced coord)
  -0.00000   -0.00000   -0.00000   -0.00000   -0.00000   -0.00000    0.00000   -0.00000
  -0.00000    0.00000    0.00000   -0.00000   -0.00000    0.00000    0.00000    0.00000
   0.00000   -0.00000    0.00000    0.00000    0.00000    0.00000   -0.00000   -0.00000
  -0.00000
 prteigrs : prtvol=0 or 1, do not print more k-points.

 Eight components of 2nd-order total energy (hartree) are
 1,2,3: 0th-order hamiltonian combined with 1st-order wavefunctions
     kin0=   6.72253908E+01 eigvalue=  -1.11594884E+01  local=  -3.00441664E+01
 4,5,6: 1st-order hamiltonian combined with 1st and 0th-order wfs
     kin1=  -1.43321617E+02  Hartree=   0.00000000E+00     xc=   0.00000000E+00
 7,8,9: eventually, occupation + non-local contributions
    edocc=   4.03913350E+01     enl0=   1.49756616E+00   enl1=   7.50034305E+00
 1-9 gives the relaxation energy (to be shifted if some occ is /=2.0)
   erelax=  -6.79106372E+01
  No Ewald or frozen-wf contrib.: the relaxation energy is the total one
 2DEtotal=   -0.6791063716E+02 Ha. Also 2DEtotal=   -0.184794241596E+04 eV
    (  non-var. 2DEtotal :   -6.7910637160E+01 Ha)

 Perturbation wavevector (in red.coord.)   0.000000  0.000000  0.000000
 Perturbation : derivative vs k along direction   2
 The set of symmetries contains only one element for this perturbation.
 symkpt : not enough symmetry to change the number of k points.

[...]

 Perturbation wavevector (in red.coord.)   0.000000  0.000000  0.000000
 Perturbation : derivative vs k along direction   3
 The set of symmetries contains only one element for this perturbation.
 symkpt : not enough symmetry to change the number of k points.

-inwffil : will read wavefunctions from disk file /scratch/users/j/a/jabreu/flow_simple_8atoms/flow/w361/t1/indata/in_WFK

 Initialisation of the first-order wave-functions :
  ireadwf=   0

--- !BeginCycle
iteration_state: {dtset: 1, }
solver: {iscf: 7, nstep: 2000, nline: 4, wfoptalg: 0, }
tolerances: {tolwfr: 1.00E-20, }
...

     iter   2DEtotal(Ha)        deltaE(Ha) residm    vres2
-ETOT  1  -3.8964011869135     -3.896E+00 4.587E-03 0.000E+00
 ETOT  2  -3.8979966961204     -1.596E-03 3.889E-04 0.000E+00
 ETOT  3  -3.8980034167303     -6.721E-06 2.372E-05 0.000E+00
 ETOT  4  -3.8980034668824     -5.015E-08 3.345E-06 0.000E+00
 ETOT  5  -3.8980034673794     -4.970E-10 4.402E-07 0.000E+00
 ETOT  6  -3.8980034673853     -5.861E-12 1.596E-07 0.000E+00
 ETOT  7  -3.8980034673853     -7.772E-14 2.905E-08 0.000E+00
 ETOT  8  -3.8980034673853     -3.109E-15 4.163E-09 0.000E+00
 ETOT  9  -3.8980034673853     -1.332E-15 8.904E-10 0.000E+00
 ETOT 10  -3.8980034673853      5.329E-15 1.389E-10 0.000E+00
 ETOT 11  -3.8980034673853     -3.997E-15 3.596E-11 0.000E+00
 ETOT 12  -3.8980034673853      4.441E-16 5.936E-12 0.000E+00
 ETOT 13  -3.8980034673853      4.441E-16 1.606E-12 0.000E+00
 ETOT 14  -3.8980034673853     -4.441E-16 2.749E-13 0.000E+00
 ETOT 15  -3.8980034673853      0.000E+00 7.577E-14 0.000E+00
 ETOT 16  -3.8980034673853      0.000E+00 1.344E-14 0.000E+00
 ETOT 17  -3.8980034673853     -4.441E-16 3.769E-15 0.000E+00
 ETOT 18  -3.8980034673853      4.441E-16 6.965E-16 0.000E+00
 ETOT 19  -3.8980034673853     -4.441E-16 2.006E-16 0.000E+00
 ETOT 20  -3.8980034673853      4.441E-16 3.824E-17 0.000E+00
 ETOT 21  -3.8980034673853     -4.441E-16 1.121E-17 0.000E+00
 ETOT 22  -3.8980034673853      8.882E-16 2.165E-18 0.000E+00
 ETOT 23  -3.8980034673853     -1.332E-15 6.393E-19 0.000E+00
 ETOT 24  -3.8980034673853      8.882E-16 1.239E-19 0.000E+00
 ETOT 25  -3.8980034673853      0.000E+00 3.668E-20 0.000E+00
 ETOT 26  -3.8980034673853      0.000E+00 9.860E-21 0.000E+00

 At SCF step   26   max residual=  9.86E-21 < tolwfr=  1.00E-20 =>converged.

 ----iterations are completed or convergence reached----

 dfpt_looppert: DFPT cycle converged with prtwf=-1. Will skip output of the 1st-order WFK file.
 dfpt_looppert : ek2=    6.9662653588E+00
          f-sum rule ratio=    1.1501405007E+00
 prteigrs : about to open file /scratch/users/j/a/jabreu/flow_simple_8atoms/flow/w361/t1/tmpdata/tmp_1WF1_EIG
 Expectation of eigenvalue derivatives (hartree) for nkpt=   2  k points:
  (in case of degenerate eigenvalues, averaged derivative)
 kpt#   1, nband= 25, wtk=  0.50000, kpt=  0.0000  0.0000  0.0000 (reduced coord)
   0.00000    0.00000   -0.00000   -0.00000   -0.00000    0.00000    0.00000    0.00000
   0.00000    0.00000    0.00000   -0.00000   -0.00000    0.00000    0.00000    0.00000
  -0.00000    0.00000   -0.00000    0.00000   -0.00000   -0.00000    0.00000    0.00000
   0.00000
 prteigrs : prtvol=0 or 1, do not print more k-points.

 Eight components of 2nd-order total energy (hartree) are
 1,2,3: 0th-order hamiltonian combined with 1st-order wavefunctions
     kin0=   3.64028036E+00 eigvalue=  -4.20965687E-01  local=  -1.49962747E+00
 4,5,6: 1st-order hamiltonian combined with 1st and 0th-order wfs
     kin1=  -8.01218393E+00  Hartree=   0.00000000E+00     xc=   0.00000000E+00
 7,8,9: eventually, occupation + non-local contributions
    edocc=   2.22194290E+00     enl0=  -4.36266403E-02   enl1=   2.16176993E-01
 1-9 gives the relaxation energy (to be shifted if some occ is /=2.0)
   erelax=  -3.89800347E+00
  No Ewald or frozen-wf contrib.: the relaxation energy is the total one
 2DEtotal=   -0.3898003467E+01 Ha. Also 2DEtotal=   -0.106070068639E+03 eV
    (  non-var. 2DEtotal :   -3.8980034673E+00 Ha)

 CALCULATION OF EFFECTIVE MASSES
 NOTE : Additional infos (eff. mass eigenvalues, eigenvectors and, if degenerate, average mass) are available in stdout.

 COMMENTS:
 - At k-point ( 0.000, 0.000, 0.000), bands    15 through    16
   are DEGENERATE (effective mass tensor is therefore not defined).
   See Section IIIB Eqs. (67)-(70) and Appendix E of PRB 93 205147 (2016).
 - Angular average effective mass for Frohlich model is to be averaged over degenerate bands. See later.
 - Associated theta integrals calculated with ntheta=   1000 points.

 K-point ( 0.000, 0.000, 0.000) | band =    15
 Transport equivalent effective mass tensor:
             -0.3081095298              0.0000000001             -0.0000000003
              0.0000000001             -0.3081095296              0.0000000000
             -0.0000000003              0.0000000000             -1.6100724247
 Transport equivalent effective mass tensor eigenvalues:
             -1.6100724247             -0.3081095298             -0.3081095296
 Angular average effective mass 1/(<1/m>)=  -0.4218051798
 Angular average effective mass for Frohlich model (<m**0.5>)**2=  -0.4762793397
 Effective masses along directions: (cart. coord. / red. coord. -> eff. mass)
    1:   1.000000  0.000000  0.000000 /   0.894427 -0.447214  0.000000 ->  -0.3081095298
    2:   0.000000  1.000000  0.000000 /   0.000000  1.000000  0.000000 ->  -0.3081095296
    3:   0.000000  0.000000  1.000000 /   0.000000  0.000000  1.000000 ->  -1.6100724247
    4:   0.577350  0.577350  0.577350 /   0.290501  0.106331  0.950948 ->  -0.4218051798
    5:   0.000000  0.707107  0.707107 /   0.000000  0.255759  0.966740 ->  -0.5172383739
    6:   0.707107  0.000000  0.707107 /   0.289089 -0.144545  0.946327 ->  -0.5172383742
    7:   0.707107  0.707107  0.000000 /   0.939071  0.343724  0.000000 ->  -0.3081095297

 K-point ( 0.000, 0.000, 0.000) | band =    16
 Transport equivalent effective mass tensor:
             -3.6833942039              0.0000000000             -0.0000000000
              0.0000000000             -3.6833941972             -0.0000000003
             -0.0000000000             -0.0000000003             -1.6100724247
 Transport equivalent effective mass tensor eigenvalues:
             -3.6833942039             -3.6833941972             -1.6100724247
 Angular average effective mass 1/(<1/m>)=  -2.5771700811
 Angular average effective mass for Frohlich model (<m**0.5>)**2=  -2.7110288611
 Effective masses along directions: (cart. coord. / red. coord. -> eff. mass)
    1:   1.000000  0.000000  0.000000 /   0.894427 -0.447214  0.000000 ->  -3.6833942080
    2:   0.000000  1.000000  0.000000 /   0.000000  1.000000  0.000000 ->  -3.6833942012
    3:   0.000000  0.000000  1.000000 /   0.000000  0.000000  1.000000 ->  -1.6100724247
    4:   0.577350  0.577350  0.577350 /   0.290501  0.106331  0.950948 ->  -2.5771700798
    5:   0.000000  0.707107  0.707107 /   0.000000  0.255759  0.966740 ->  -2.2406985260
    6:   0.707107  0.000000  0.707107 /   0.289089 -0.144545  0.946327 ->  -2.2406985271
    7:   0.707107  0.707107  0.000000 /   0.939071  0.343724  0.000000 ->  -3.6833941949

 Angular average effective mass for Frohlich model, averaged over degenerate bands.
 Value of     (<<m**0.5>>)**2 =     1.364984E+00
 Absolute Value of <<m**0.5>> =     1.168325E+00

 K-point ( 0.500, 0.000, 0.000) | band =    17
 Effective mass tensor:
              0.4853755779              0.1219353071             -0.0000000057
              0.1219353071              0.3445768131              0.0000000256
             -0.0000000057              0.0000000256              0.3057083322
 Effective mass tensor eigenvalues:
              0.2741774307              0.3057083322              0.5557749603
 Angular average effective mass 1/(<1/m>)=   0.3441292662
 Angular average effective mass for Frohlich model (<m**0.5>)**2=   0.3530280687
 Effective masses along directions: (cart. coord. / red. coord. -> eff. mass)
    1:   1.000000  0.000000  0.000000 /   0.894427 -0.447214  0.000000 ->   0.4422263626
    2:   0.000000  1.000000  0.000000 /   0.000000  1.000000  0.000000 ->   0.3139444126
    3:   0.000000  0.000000  1.000000 /   0.000000  0.000000  1.000000 ->   0.3057083322
    4:   0.577350  0.577350  0.577350 /   0.290501  0.106331  0.950948 ->   0.4215109339
    5:   0.000000  0.707107  0.707107 /   0.000000  0.255759  0.966740 ->   0.3097716646
    6:   0.707107  0.000000  0.707107 /   0.289089 -0.144545  0.946327 ->   0.3615082423
    7:   0.707107  0.707107  0.000000 /   0.939071  0.343724  0.000000 ->   0.5199989377

 END OF EFFECTIVE MASSES SECTION

 ---- first-order wavefunction calculations are completed ----

 Total localisation tensor (bohr^2) in cartesian coordinates
  WARNING : still subject to testing - especially symmetries.
      direction              matrix element
   alpha     beta       real part   imaginary part
     1        1       3.8454677977    0.0000000000
     1        2      -1.8222107701    0.0000000000
     1        3       0.0000000000    0.0000000000
     2        1      -1.8222107701    0.0000000000
     2        2       3.1561616360    0.0000000000
     2        3       0.0000000000    0.0000000000
     3        1       0.0000000000    0.0000000000
     3        2       0.0000000000    0.0000000000
     3        3       1.6858158241    0.0000000000

 respfn : d/dk was computed, but no 2DTE, so no DDB output.

== END DATASET(S) ==============================================================

 -outvars: echo values of variables after computation  --------
            acell      1.0000000000E+00  1.0000000000E+00  1.0000000000E+00 Bohr
              amu      2.80855000E+01  1.20110000E+01
             ecut      4.10000000E+01 Hartree
           etotal     -3.8980034674E+00
            fcart      0.0000000000E+00  0.0000000000E+00  0.0000000000E+00
                       0.0000000000E+00  0.0000000000E+00  0.0000000000E+00
                       0.0000000000E+00  0.0000000000E+00  0.0000000000E+00
                       0.0000000000E+00  0.0000000000E+00  0.0000000000E+00
                       0.0000000000E+00  0.0000000000E+00  0.0000000000E+00
                       0.0000000000E+00  0.0000000000E+00  0.0000000000E+00
                       0.0000000000E+00  0.0000000000E+00  0.0000000000E+00
                       0.0000000000E+00  0.0000000000E+00  0.0000000000E+00
-          fftalg         512
           irdden           1
           irdwfk           1
           istwfk        1    1
              ixc     -116133
              kpt      0.00000000E+00  0.00000000E+00  0.00000000E+00
                       5.00000000E-01  0.00000000E+00  0.00000000E+00
           kptopt           0
P           mkmem           2
P          mkqmem           2
P          mk1mem           2
            natom           8
            nband          25
           nbdbuf           4
            ngfft          36      36     120
             nkpt           2
            nstep        2000
             nsym          12
           ntypat           2
              occ      2.000000  2.000000  2.000000  2.000000  2.000000  2.000000
                       2.000000  2.000000  2.000000  2.000000  2.000000  2.000000
                       2.000000  2.000000  2.000000  2.000000  0.000000  0.000000
                       0.000000  0.000000  0.000000  0.000000  0.000000  0.000000
                       0.000000
        optdriver           1
            prtwf          -1
            rfdir           1       1       1
           rfelfd           2
            rprim      5.8178278780E+00  0.0000000000E+00  0.0000000000E+00
                      -2.9089139390E+00  5.0383867372E+00  0.0000000000E+00
                       0.0000000000E+00  0.0000000000E+00  1.9044511994E+01
          spgroup         186
           strten      0.0000000000E+00  0.0000000000E+00  0.0000000000E+00
                       0.0000000000E+00  0.0000000000E+00  0.0000000000E+00
           symrel      1  0  0   0  1  0   0  0  1       0  1  0   1  0  0   0  0  1
                       1  1  0  -1  0  0   0  0  1      -1  0  0   1  1  0   0  0  1
                       0  1  0  -1 -1  0   0  0  1      -1 -1  0   0  1  0   0  0  1
                      -1  0  0   0 -1  0   0  0  1       0 -1  0  -1  0  0   0  0  1
                      -1 -1  0   1  0  0   0  0  1       1  0  0  -1 -1  0   0  0  1
                       0 -1  0   1  1  0   0  0  1       1  1  0   0 -1  0   0  0  1
            tnons      0.0000000  0.0000000  0.0000000     0.0000000  0.0000000  0.5000000
                       0.0000000  0.0000000  0.5000000    -0.0000000  0.0000000  0.0000000
                       0.0000000  0.0000000  0.0000000     0.0000000 -0.0000000  0.5000000
                       0.0000000  0.0000000  0.5000000     0.0000000  0.0000000  0.0000000
                      -0.0000000  0.0000000  0.0000000     0.0000000  0.0000000  0.5000000
                       0.0000000 -0.0000000  0.5000000     0.0000000  0.0000000  0.0000000
           tolwfr      1.00000000E-20
            typat      1  1  1  1  2  2  2  2
           useylm           1
              wtk        0.50000    0.50000
           xangst     -3.5250283265E-16  1.7774662863E+00  6.2644361262E-01
                       1.5393309583E+00  8.8873314313E-01  5.6654044606E+00
                      -2.8483344540E-17 -4.9334599912E-17  3.1452790496E+00
                      -2.8483344540E-17 -4.9334599912E-17  8.1842398976E+00
                      -3.5250283265E-16  1.7774662863E+00  2.5214053070E+00
                       1.5393309583E+00  8.8873314313E-01  7.5603661550E+00
                      -2.8483344540E-17 -4.9334599912E-17  5.0344560170E+00
                      -2.8483344540E-17 -4.9334599912E-17  1.0073416865E+01
            xcart     -6.6613381478E-16  3.3589244915E+00  1.1838068655E+00
                       2.9089139390E+00  1.6794622457E+00  1.0706062863E+01
                      -5.3825720529E-17 -9.3228882710E-17  5.9437160153E+00
                      -5.3825720529E-17 -9.3228882710E-17  1.5465972012E+01
                      -6.6613381478E-16  3.3589244915E+00  4.7647655003E+00
                       2.9089139390E+00  1.6794622457E+00  1.4287021497E+01
                      -5.3825720529E-17 -9.3228882710E-17  9.5137431001E+00
                      -5.3825720529E-17 -9.3228882710E-17  1.9035999097E+01
             xred      3.3333333333E-01  6.6666666667E-01  6.2160000000E-02
                       6.6666666667E-01  3.3333333333E-01  5.6216000000E-01
                      -1.8503717077E-17 -1.8503717077E-17  3.1209600000E-01
                      -1.8503717077E-17 -1.8503717077E-17  8.1209600000E-01
                       3.3333333333E-01  6.6666666667E-01  2.5019100000E-01
                       6.6666666667E-01  3.3333333333E-01  7.5019100000E-01
                      -1.8503717077E-17 -1.8503717077E-17  4.9955300000E-01
                      -1.8503717077E-17 -1.8503717077E-17  9.9955300000E-01
            znucl       14.00000    6.00000

- Timing analysis has been suppressed with timopt=0

 Suggested references for the acknowledgment of ABINIT usage.

 Calculation completed.
.Delivered  14 WARNINGs and   9 COMMENTs to log file.