.Version 9.5.1 of ABINIT

 ABINIT is a project of the Universite Catholique de Louvain,
 Corning Inc. and other collaborators, see ~abinit/doc/developers/contributors.txt .
 acknowledgments of the ABINIT effort.

.Starting date : Sun 25 Apr 2021.
- ( at 17h18 )

- input  file    -> /scratch/users/j/a/jabreu/flow_simple2/flow/w175/t1/run.abi
- output file    -> /scratch/users/j/a/jabreu/flow_simple2/flow/w175/t1/run.abo
- root for input  files -> /scratch/users/j/a/jabreu/flow_simple2/flow/w175/t1/indata/in
- root for output files -> /scratch/users/j/a/jabreu/flow_simple2/flow/w175/t1/outdata/out

 Symmetries : space group F-4 3 m (#216); Bravais cF (face-center cubic)
     intxc =       0      iscf =       7    lmnmax =       8     lnmax =       4
     mgfft =      30  mpssoang =       2    mqgrid =    3001     natom =       2
  nloc_mem =       1    nspden =       1   nspinor =       1    nsppol =       1
      nsym =      24    n1xccc =    2501    ntypat =       2    occopt =       1
   xclevel =       2
-    mband =          13        mffmem =           1         mkmem =           2
-   mkqmem =           2        mk1mem =           2           mpw =        1034
      nfft =       27000          nkpt =           2
  Rough estimation (10% accuracy) of disk space for files :

------------- Echo of variables that govern the present computation ------------
-
- outvars: echo of selected default values
-   iomode0 =  0 , fftalg0 =512 , wfoptalg0 =  0
-
- outvars: echo of global parameters not present in the input file
-  max_nthreads =    0
-
 -outvars: echo values of preprocessed input variables --------
            acell      1.0000000000E+00  1.0000000000E+00  1.0000000000E+00 Bohr
              amu      1.08110000E+01  1.40067400E+01
             ecut      4.20000000E+01 Hartree
-          fftalg         512
           irdden           1
           irdwfk           1
           istwfk        1    1
              ixc     -116133
              kpt      0.00000000E+00  0.00000000E+00  0.00000000E+00
                       5.00000000E-01  0.00000000E+00  5.00000000E-01
           kptopt           0
P           mkmem           2
P          mkqmem           2
P          mk1mem           2
            natom           2
            nband          13
           nbdbuf           4
            ngfft          30      30      30
             nkpt           2
            nstep         100
             nsym          24
           ntypat           2
              occ      2.000000  2.000000  2.000000  2.000000  0.000000  0.000000
                       0.000000  0.000000  0.000000  0.000000  0.000000  0.000000
                       0.000000
        optdriver           1
            prtwf          -1
            rfdir           1       1       1
           rfelfd           2
            rprim      4.1749826475E+00  0.0000000000E+00  2.4104273554E+00
                       1.3916608825E+00  3.9362113885E+00  2.4104273554E+00
                       0.0000000000E+00  0.0000000000E+00  4.8208547107E+00
          spgroup         216
           symrel      1  0  0   0  1  0   0  0  1       0 -1  1   0 -1  0   1 -1  0
                      -1  0  0  -1  0  1  -1  1  0       0  1 -1   1  0 -1   0  0 -1
                      -1  0  0  -1  1  0  -1  0  1       0 -1  1   1 -1  0   0 -1  0
                       1  0  0   0  0  1   0  1  0       0  1 -1   0  0 -1   1  0 -1
                      -1  0  1  -1  1  0  -1  0  0       0 -1  0   1 -1  0   0 -1  1
                       1  0 -1   0  0 -1   0  1 -1       0  1  0   0  0  1   1  0  0
                       1  0 -1   0  1 -1   0  0 -1       0 -1  0   0 -1  1   1 -1  0
                      -1  0  1  -1  0  0  -1  1  0       0  1  0   1  0  0   0  0  1
                       0  0 -1   0  1 -1   1  0 -1       1 -1  0   0 -1  1   0 -1  0
                       0  0  1   1  0  0   0  1  0      -1  1  0  -1  0  0  -1  0  1
                       0  0  1   0  1  0   1  0  0       1 -1  0   0 -1  0   0 -1  1
                       0  0 -1   1  0 -1   0  1 -1      -1  1  0  -1  0  1  -1  0  0
           tolwfr      1.00000000E-20
            typat      1  2
           useylm           1
              wtk        0.50000    0.50000
           xangst      0.0000000000E+00  0.0000000000E+00  0.0000000000E+00
                       7.3643522111E-01  5.2073833875E-01  1.2755432194E+00
            xcart      0.0000000000E+00  0.0000000000E+00  0.0000000000E+00
                       1.3916608825E+00  9.8405284713E-01  2.4104273554E+00
             xred      0.0000000000E+00  0.0000000000E+00  0.0000000000E+00
                       2.5000000000E-01  2.5000000000E-01  2.5000000000E-01
            znucl        5.00000    7.00000

 chkinp: Checking input parameters for consistency.

== DATASET  1 ==================================================================
-   mpi_nproc: 1, omp_nthreads: -1 (-1 if OMP is not activated)

--- !DatasetInfo
iteration_state: {dtset: 1, }
dimensions: {natom: 2, nkpt: 2, mband: 13, nsppol: 1, nspinor: 1, nspden: 1, mpw: 1034, }
cutoff_energies: {ecut:  42.0, pawecutdg:  -1.0, }
electrons: {nelect:   8.00000000E+00, charge:   0.00000000E+00, occopt:   1.00000000E+00, tsmear:   1.00000000E-02, }
meta: {optdriver: 1, rfelfd: 2, }
...

 Real(R)+Recip(G) space primitive vectors, cartesian coordinates (Bohr,Bohr^-1):
 R(1)=  4.1749826  0.0000000  2.4104274  G(1)=  0.2395220 -0.0846838  0.0000000
 R(2)=  1.3916609  3.9362114  2.4104274  G(2)=  0.0000000  0.2540514  0.0000000
 R(3)=  0.0000000  0.0000000  4.8208547  G(3)= -0.1197610 -0.0846838  0.2074321
 Unit cell volume ucvol=  7.9224067E+01 bohr^3
 Angles (23,13,12)=  6.00000000E+01  6.00000000E+01  6.00000000E+01 degrees

 getcut: wavevector=  0.0000  0.0000  0.0000  ngfft=  30  30  30
         ecut(hartree)=     42.000   => boxcut(ratio)=   2.13545

--- Pseudopotential description ------------------------------------------------
- pspini: atom type   1  psp file is /scratch/users/j/a/jabreu/pseudos/PBEsol/B.psp8
- pspatm: opening atomic psp file    /scratch/users/j/a/jabreu/pseudos/PBEsol/B.psp8
- B     ONCVPSP-3.3.0  r_core=   1.20849   1.20849
-  5.00000   3.00000    180112                znucl, zion, pspdat
    8 -116133    1    4       600   0.00000   pspcod,pspxc,lmax,lloc,mmax,r2well
    5.99000000000000    2.90000000000000    0.00000000000000   rchrg,fchrg,qchrg
     nproj     2     2
     extension_switch     1
  pspatm : epsatm=    3.20154566
         --- l  ekb(1:nproj) -->
             0    8.466603    1.247630
             1   -3.609180   -0.822621
 pspatm: atomic psp has been read  and splines computed

- pspini: atom type   2  psp file is /scratch/users/j/a/jabreu/pseudos/PBEsol/N.psp8
- pspatm: opening atomic psp file    /scratch/users/j/a/jabreu/pseudos/PBEsol/N.psp8
- N     ONCVPSP-3.3.0  r_core=   1.20551   1.35824
-  7.00000   5.00000    180112                znucl, zion, pspdat
    8 -116133    1    4       600   0.00000   pspcod,pspxc,lmax,lloc,mmax,r2well
    5.99000000000000    4.00000000000000    0.00000000000000   rchrg,fchrg,qchrg
     nproj     2     2
     extension_switch     1
  pspatm : epsatm=    5.26508895
         --- l  ekb(1:nproj) -->
             0    7.464189    0.625868
             1   -4.309714   -1.012941
 pspatm: atomic psp has been read  and splines computed

   6.77330769E+01                                ecore*ucvol(ha*bohr**3)

-inwffil : will read wavefunctions from disk file /scratch/users/j/a/jabreu/flow_simple2/flow/w175/t1/indata/in_WFK

 ==>  initialize data related to q vector <==

 The list of irreducible perturbations for this q vector is:
    1)    idir= 1    ipert=   3
    2)    idir= 2    ipert=   3
    3)    idir= 3    ipert=   3

 Perturbation wavevector (in red.coord.)   0.000000  0.000000  0.000000
 Perturbation : derivative vs k along direction   1

 dfpt_looppert : COMMENT -
  In a d/dk calculation, iscf is set to -3 automatically.
 The set of symmetries contains only one element for this perturbation.
 symkpt : not enough symmetry to change the number of k points.

[...]

 Initialisation of the first-order wave-functions :
  ireadwf=   0

--- !BeginCycle
iteration_state: {dtset: 1, }
solver: {iscf: 7, nstep: 100, nline: 4, wfoptalg: 0, }
tolerances: {tolwfr: 1.00E-20, }
...

     iter   2DEtotal(Ha)        deltaE(Ha) residm    vres2
-ETOT  1  -36.166799647254     -3.617E+01 1.069E-01 0.000E+00
 ETOT  2  -36.171385425499     -4.586E-03 2.058E-04 0.000E+00
 ETOT  3  -36.171385796638     -3.711E-07 6.681E-07 0.000E+00
 ETOT  4  -36.171385796852     -2.142E-10 1.835E-08 0.000E+00
 ETOT  5  -36.171385796852     -1.421E-14 1.825E-10 0.000E+00
 ETOT  6  -36.171385796852      4.263E-14 9.653E-12 0.000E+00
 ETOT  7  -36.171385796852     -5.684E-14 1.926E-13 0.000E+00
 ETOT  8  -36.171385796852     -2.132E-14 1.076E-14 0.000E+00
 ETOT  9  -36.171385796852      2.132E-14 2.146E-16 0.000E+00
 ETOT 10  -36.171385796852     -7.105E-15 1.256E-17 0.000E+00
 ETOT 11  -36.171385796852      0.000E+00 2.486E-19 0.000E+00
 ETOT 12  -36.171385796852      0.000E+00 1.513E-20 0.000E+00
 ETOT 13  -36.171385796852      0.000E+00 9.750E-21 0.000E+00

 At SCF step   13   max residual=  9.75E-21 < tolwfr=  1.00E-20 =>converged.

 ----iterations are completed or convergence reached----

 dfpt_looppert: DFPT cycle converged with prtwf=-1. Will skip output of the 1st-order WFK file.
 dfpt_looppert : ek2=    4.0768327236E+01
          f-sum rule ratio=    1.8364440717E+00
 prteigrs : about to open file /scratch/users/j/a/jabreu/flow_simple2/flow/w175/t1/tmpdata/tmp_1WF1_EIG
 Expectation of eigenvalue derivatives (hartree) for nkpt=   2  k points:
  (in case of degenerate eigenvalues, averaged derivative)
 kpt#   1, nband= 13, wtk=  0.50000, kpt=  0.0000  0.0000  0.0000 (reduced coord)
  -0.00000   -0.00000   -0.00000   -0.00000    0.00000    0.00000    0.00000   -0.00000
  -0.00000    0.00000   -0.00881   -0.00000   -0.00000
 prteigrs : prtvol=0 or 1, do not print more k-points.

 Eight components of 2nd-order total energy (hartree) are
 1,2,3: 0th-order hamiltonian combined with 1st-order wavefunctions
     kin0=   7.22354679E+00 eigvalue=  -2.22088919E-01  local=  -1.97175241E+00
 4,5,6: 1st-order hamiltonian combined with 1st and 0th-order wfs
     kin1=  -7.48687529E+01  Hartree=   0.00000000E+00     xc=   0.00000000E+00
 7,8,9: eventually, occupation + non-local contributions
    edocc=   3.15301081E+01     enl0=  -3.88427739E-01   enl1=   2.52598127E+00
 1-9 gives the relaxation energy (to be shifted if some occ is /=2.0)
   erelax=  -3.61713858E+01
  No Ewald or frozen-wf contrib.: the relaxation energy is the total one
 2DEtotal=   -0.3617138580E+02 Ha. Also 2DEtotal=   -0.984273463666E+03 eV
    (  non-var. 2DEtotal :   -3.6171385797E+01 Ha)

 Perturbation wavevector (in red.coord.)   0.000000  0.000000  0.000000
 Perturbation : derivative vs k along direction   2
 The set of symmetries contains only one element for this perturbation.
 symkpt : not enough symmetry to change the number of k points.

[...]

 Perturbation wavevector (in red.coord.)   0.000000  0.000000  0.000000
 Perturbation : derivative vs k along direction   3
 The set of symmetries contains only one element for this perturbation.
 symkpt : not enough symmetry to change the number of k points.

-inwffil : will read wavefunctions from disk file /scratch/users/j/a/jabreu/flow_simple2/flow/w175/t1/indata/in_WFK

 Initialisation of the first-order wave-functions :
  ireadwf=   0

--- !BeginCycle
iteration_state: {dtset: 1, }
solver: {iscf: 7, nstep: 100, nline: 4, wfoptalg: 0, }
tolerances: {tolwfr: 1.00E-20, }
...

     iter   2DEtotal(Ha)        deltaE(Ha) residm    vres2
-ETOT  1  -36.166741461516     -3.617E+01 2.332E-01 0.000E+00
 ETOT  2  -36.171243864416     -4.502E-03 1.207E-04 0.000E+00
 ETOT  3  -36.171244236627     -3.722E-07 2.886E-06 0.000E+00
 ETOT  4  -36.171244236839     -2.116E-10 2.826E-09 0.000E+00
 ETOT  5  -36.171244236839     -6.395E-14 1.588E-10 0.000E+00
 ETOT  6  -36.171244236839      0.000E+00 5.781E-13 0.000E+00
 ETOT  7  -36.171244236839     -2.132E-14 1.133E-13 0.000E+00
 ETOT  8  -36.171244236839      0.000E+00 4.776E-16 0.000E+00
 ETOT  9  -36.171244236839      7.105E-15 9.318E-17 0.000E+00
 ETOT 10  -36.171244236839      0.000E+00 4.282E-19 0.000E+00
 ETOT 11  -36.171244236839      0.000E+00 8.127E-20 0.000E+00
 ETOT 12  -36.171244236839      0.000E+00 9.772E-21 0.000E+00

 At SCF step   12   max residual=  9.77E-21 < tolwfr=  1.00E-20 =>converged.

 ----iterations are completed or convergence reached----

 dfpt_looppert: DFPT cycle converged with prtwf=-1. Will skip output of the 1st-order WFK file.
 dfpt_looppert : ek2=    4.0768327238E+01
          f-sum rule ratio=    1.8364372492E+00
 prteigrs : about to open file /scratch/users/j/a/jabreu/flow_simple2/flow/w175/t1/tmpdata/tmp_1WF1_EIG
 Expectation of eigenvalue derivatives (hartree) for nkpt=   2  k points:
  (in case of degenerate eigenvalues, averaged derivative)
 kpt#   1, nband= 13, wtk=  0.50000, kpt=  0.0000  0.0000  0.0000 (reduced coord)
   0.00000   -0.00000   -0.00000   -0.00000    0.00000    0.00000    0.00000   -0.00000
  -0.00000   -0.00000   -0.01337    0.00000    0.00000
 prteigrs : prtvol=0 or 1, do not print more k-points.

 Eight components of 2nd-order total energy (hartree) are
 1,2,3: 0th-order hamiltonian combined with 1st-order wavefunctions
     kin0=   7.41797892E+00 eigvalue=  -2.54111248E-01  local=  -2.02372401E+00
 4,5,6: 1st-order hamiltonian combined with 1st and 0th-order wfs
     kin1=  -7.48684747E+01  Hartree=   0.00000000E+00     xc=   0.00000000E+00
 7,8,9: eventually, occupation + non-local contributions
    edocc=   3.14185112E+01     enl0=  -3.87410676E-01   enl1=   2.52598625E+00
 1-9 gives the relaxation energy (to be shifted if some occ is /=2.0)
   erelax=  -3.61712442E+01
  No Ewald or frozen-wf contrib.: the relaxation energy is the total one
 2DEtotal=   -0.3617124424E+02 Ha. Also 2DEtotal=   -0.984269611622E+03 eV
    (  non-var. 2DEtotal :   -3.6171244237E+01 Ha)

 CALCULATION OF EFFECTIVE MASSES
 NOTE : Additional infos (eff. mass eigenvalues, eigenvectors and, if degenerate, average mass) are available in stdout.

 COMMENTS:
 - At k-point ( 0.000, 0.000, 0.000), bands     2 through     4
   are DEGENERATE (effective mass tensor is therefore not defined).
   See Section IIIB Eqs. (67)-(70) and Appendix E of PRB 93 205147 (2016).
 - Angular average effective mass for Frohlich model is to be averaged over degenerate bands. See later.
 - Associated theta integrals calculated with ntheta=   1000 points.

 K-point ( 0.000, 0.000, 0.000) | band =     2
 Transport equivalent effective mass tensor:
             -0.3735203447              0.0000010639              0.0000027457
              0.0000010639             -0.3735229696             -0.0000023625
              0.0000027457             -0.0000023625             -0.3735235770
 Transport equivalent effective mass tensor eigenvalues:
             -0.3735268599             -0.3735212761             -0.3735187553
 Angular average effective mass 1/(<1/m>)=  -0.2859934768
 Angular average effective mass for Frohlich model (<m**0.5>)**2=  -0.2903515275
 Effective masses along directions: (cart. coord. / red. coord. -> eff. mass)
    1:   1.000000  0.000000  0.000000 /   0.948683  0.316228  0.000000 ->  -0.2612309287
    2:   0.000000  1.000000  0.000000 /   0.000000  1.000000  0.000000 ->  -0.2392750075
    3:   0.000000  0.000000  1.000000 /   0.408248  0.408248  0.816497 ->  -0.2759473174
    4:   0.577350  0.577350  0.577350 /   0.585539  0.688047  0.428644 ->  -0.2623445940
    5:   0.000000  0.707107  0.707107 /   0.289489  0.762222  0.578977 ->  -0.3076344744
    6:   0.707107  0.000000  0.707107 /   0.731423  0.422287  0.535439 ->  -0.2677966099
    7:   0.707107  0.707107  0.000000 /   0.616798  0.787122  0.000000 ->  -0.3963029653

[...]

 K-point ( 0.000, 0.000, 0.000) | band =     4
 Transport equivalent effective mass tensor:
            -10.8534002727              0.0000872462             -0.0000330374
              0.0000872462            -10.8532524428             -0.0001189379
             -0.0000330374             -0.0001189379            -10.8533057779
 Transport equivalent effective mass tensor eigenvalues:
            -10.8534459361            -10.8533845915            -10.8531279657
 Angular average effective mass 1/(<1/m>)=  -1.5259534219
 Angular average effective mass for Frohlich model (<m**0.5>)**2=  -1.7726224084
 Effective masses along directions: (cart. coord. / red. coord. -> eff. mass)
    1:   1.000000  0.000000  0.000000 /   0.948683  0.316228  0.000000 ->  -1.6615908728
    2:   0.000000  1.000000  0.000000 /   0.000000  1.000000  0.000000 ->  -1.2408153747
    3:   0.000000  0.000000  1.000000 /   0.408248  0.408248  0.816497 ->  -3.9909448173
    4:   0.577350  0.577350  0.577350 /   0.585539  0.688047  0.428644 ->  -1.9338737054
    5:   0.000000  0.707107  0.707107 /   0.289489  0.762222  0.578977 ->  -1.4780692829
    6:   0.707107  0.000000  0.707107 /   0.731423  0.422287  0.535439 ->  -2.5495730168
    7:   0.707107  0.707107  0.000000 /   0.616798  0.787122  0.000000 ->  -0.7148931955

 Angular average effective mass for Frohlich model, averaged over degenerate bands.
 Value of     (<<m**0.5>>)**2 =     7.867470E-01
 Absolute Value of <<m**0.5>> =     8.869876E-01

 K-point ( 0.500, 0.000, 0.500) | band =     5
 Effective mass tensor:
              0.3945207145             -0.1400259151              0.1714960211
             -0.1400259151              0.4935339890             -0.2425320005
              0.1714960211             -0.2425320005              0.5925472635
 Effective mass tensor eigenvalues:
              0.2955074397              0.2955074409              0.8895870863
 Angular average effective mass 1/(<1/m>)=   0.3801252219
 Angular average effective mass for Frohlich model (<m**0.5>)**2=   0.4048686235
 Effective masses along directions: (cart. coord. / red. coord. -> eff. mass)
    1:   1.000000  0.000000  0.000000 /   0.948683  0.316228  0.000000 ->   0.3325174691
    2:   0.000000  1.000000  0.000000 /   0.000000  1.000000  0.000000 ->   0.3801252215
    3:   0.000000  0.000000  1.000000 /   0.408248  0.408248  0.816497 ->   0.4436432654
    4:   0.577350  0.577350  0.577350 /   0.585539  0.688047  0.428644 ->   0.3158591403
    5:   0.000000  0.707107  0.707107 /   0.289489  0.762222  0.578977 ->   0.2971781510
    6:   0.707107  0.000000  0.707107 /   0.731423  0.422287  0.535439 ->   0.5054749831
    7:   0.707107  0.707107  0.000000 /   0.616798  0.787122  0.000000 ->   0.2983562190

 END OF EFFECTIVE MASSES SECTION

 ---- first-order wavefunction calculations are completed ----

 Total localisation tensor (bohr^2) in cartesian coordinates
  WARNING : still subject to testing - especially symmetries.
      direction              matrix element
   alpha     beta       real part   imaginary part
     1        1       2.4061911547    0.0000000000
     1        2       0.6805715512    0.0000000000
     1        3       1.6670572832    0.0000000000
     2        1       0.6805715512    0.0000000000
     2        2       1.9249470357    0.0000000000
     2        3       1.1787845049    0.0000000000
     3        1       1.6670572832    0.0000000000
     3        2       1.1787845049    0.0000000000
     3        3       4.3311349625    0.0000000000

 respfn : d/dk was computed, but no 2DTE, so no DDB output.

== END DATASET(S) ==============================================================

 -outvars: echo values of variables after computation  --------
            acell      1.0000000000E+00  1.0000000000E+00  1.0000000000E+00 Bohr
              amu      1.08110000E+01  1.40067400E+01
             ecut      4.20000000E+01 Hartree
           etotal     -3.6171244237E+01
            fcart      0.0000000000E+00  0.0000000000E+00  0.0000000000E+00
                       0.0000000000E+00  0.0000000000E+00  0.0000000000E+00
-          fftalg         512
           irdden           1
           irdwfk           1
           istwfk        1    1
              ixc     -116133
              kpt      0.00000000E+00  0.00000000E+00  0.00000000E+00
                       5.00000000E-01  0.00000000E+00  5.00000000E-01
           kptopt           0
P           mkmem           2
P          mkqmem           2
P          mk1mem           2
            natom           2
            nband          13
           nbdbuf           4
            ngfft          30      30      30
             nkpt           2
            nstep         100
             nsym          24
           ntypat           2
              occ      2.000000  2.000000  2.000000  2.000000  0.000000  0.000000
                       0.000000  0.000000  0.000000  0.000000  0.000000  0.000000
                       0.000000
        optdriver           1
            prtwf          -1
            rfdir           1       1       1
           rfelfd           2
            rprim      4.1749826475E+00  0.0000000000E+00  2.4104273554E+00
                       1.3916608825E+00  3.9362113885E+00  2.4104273554E+00
                       0.0000000000E+00  0.0000000000E+00  4.8208547107E+00
          spgroup         216
           strten      0.0000000000E+00  0.0000000000E+00  0.0000000000E+00
                       0.0000000000E+00  0.0000000000E+00  0.0000000000E+00
           symrel      1  0  0   0  1  0   0  0  1       0 -1  1   0 -1  0   1 -1  0
                      -1  0  0  -1  0  1  -1  1  0       0  1 -1   1  0 -1   0  0 -1
                      -1  0  0  -1  1  0  -1  0  1       0 -1  1   1 -1  0   0 -1  0
                       1  0  0   0  0  1   0  1  0       0  1 -1   0  0 -1   1  0 -1
                      -1  0  1  -1  1  0  -1  0  0       0 -1  0   1 -1  0   0 -1  1
                       1  0 -1   0  0 -1   0  1 -1       0  1  0   0  0  1   1  0  0
                       1  0 -1   0  1 -1   0  0 -1       0 -1  0   0 -1  1   1 -1  0
                      -1  0  1  -1  0  0  -1  1  0       0  1  0   1  0  0   0  0  1
                       0  0 -1   0  1 -1   1  0 -1       1 -1  0   0 -1  1   0 -1  0
                       0  0  1   1  0  0   0  1  0      -1  1  0  -1  0  0  -1  0  1
                       0  0  1   0  1  0   1  0  0       1 -1  0   0 -1  0   0 -1  1
                       0  0 -1   1  0 -1   0  1 -1      -1  1  0  -1  0  1  -1  0  0
           tolwfr      1.00000000E-20
            typat      1  2
           useylm           1
              wtk        0.50000    0.50000
           xangst      0.0000000000E+00  0.0000000000E+00  0.0000000000E+00
                       7.3643522111E-01  5.2073833875E-01  1.2755432194E+00
            xcart      0.0000000000E+00  0.0000000000E+00  0.0000000000E+00
                       1.3916608825E+00  9.8405284713E-01  2.4104273554E+00
             xred      0.0000000000E+00  0.0000000000E+00  0.0000000000E+00
                       2.5000000000E-01  2.5000000000E-01  2.5000000000E-01
            znucl        5.00000    7.00000

- Timing analysis has been suppressed with timopt=0

 Suggested references for the acknowledgment of ABINIT usage.

 Calculation completed.
.Delivered  14 WARNINGs and   9 COMMENTs to log file.