.Version 9.5.1 of ABINIT

 ABINIT is a project of the Universite Catholique de Louvain,
 Corning Inc. and other collaborators, see ~abinit/doc/developers/contributors.txt .
 acknowledgments of the ABINIT effort.

.Starting date : Tue 11 May 2021.
- ( at 21h06 )

- input  file    -> /scratch/users/j/a/jabreu/flow_simple_8atoms/flow/w256/t1/run.abi
- output file    -> /scratch/users/j/a/jabreu/flow_simple_8atoms/flow/w256/t1/run.abo
- root for input  files -> /scratch/users/j/a/jabreu/flow_simple_8atoms/flow/w256/t1/indata/in
- root for output files -> /scratch/users/j/a/jabreu/flow_simple_8atoms/flow/w256/t1/outdata/out

 Symmetries : space group R-3 (#148); Bravais hR (rhombohedral)
     intxc =       0      iscf =       7    lmnmax =      18     lnmax =       6
     mgfft =      64  mpssoang =       3    mqgrid =    3001     natom =       8
  nloc_mem =       1    nspden =       1   nspinor =       1    nsppol =       1
      nsym =       6    n1xccc =    2501    ntypat =       3    occopt =       1
   xclevel =       2
-    mband =          47        mffmem =           1         mkmem =           1
-   mkqmem =           1        mk1mem =           1           mpw =       10011
      nfft =      262144          nkpt =           1
  Rough estimation (10% accuracy) of disk space for files :

------------- Echo of variables that govern the present computation ------------
-
- outvars: echo of selected default values
-   iomode0 =  0 , fftalg0 =512 , wfoptalg0 =  0
-
- outvars: echo of global parameters not present in the input file
-  max_nthreads =    0
-
 -outvars: echo values of preprocessed input variables --------
            acell      1.0000000000E+00  1.0000000000E+00  1.0000000000E+00 Bohr
              amu      6.53900000E+01  2.07200000E+02  1.89984032E+01
             ecut      4.20000000E+01 Hartree
-          fftalg         512
           irdden           1
           irdwfk           1
           istwfk        1
              ixc     -116133
           kptopt           0
P           mkmem           1
P          mkqmem           1
P          mk1mem           1
            natom           8
            nband          47
           nbdbuf           4
            ngfft          64      64      64
             nkpt           1
            nstep        2000
             nsym           6
           ntypat           3
              occ      2.000000  2.000000  2.000000  2.000000  2.000000  2.000000
                       2.000000  2.000000  2.000000  2.000000  2.000000  2.000000
                       2.000000  2.000000  2.000000  2.000000  2.000000  2.000000
                       2.000000  2.000000  2.000000  2.000000  2.000000  2.000000
                       2.000000  2.000000  2.000000  2.000000  2.000000  2.000000
                       2.000000  2.000000  2.000000  2.000000  2.000000  2.000000
                       2.000000  2.000000  0.000000  0.000000  0.000000  0.000000
                       0.000000  0.000000  0.000000  0.000000  0.000000
        optdriver           1
            prtwf          -1
            rfdir           1       1       1
           rfelfd           2
            rprim      8.7942161799E+00  0.0000000000E+00  6.0183191678E+00
                       3.1740545282E+00  8.2014398779E+00  6.0183191678E+00
                       0.0000000000E+00  0.0000000000E+00  1.0656378551E+01
          spgroup         148
           symrel      1  0  0   0  1  0   0  0  1      -1  0  0   0 -1  0   0  0 -1
                       0  0  1   1  0  0   0  1  0       0  0 -1  -1  0  0   0 -1  0
                       0  1  0   0  0  1   1  0  0       0 -1  0   0  0 -1  -1  0  0
           tolwfr      1.00000000E-20
            typat      1  2  3  3  3  3  3  3
           useylm           1
           xangst      0.0000000000E+00  0.0000000000E+00  0.0000000000E+00
                       3.1666680425E+00  2.1700075305E+00  6.0043136653E+00
                       3.3015532956E+00  1.0551444616E+00  7.7738271168E+00
                       5.1866629548E+00  2.6981830234E+00  6.1858150478E+00
                       3.7068198396E+00  4.7680273463E-01  4.8936449010E+00
                       1.1466731302E+00  1.6418320376E+00  5.8228122828E+00
                       3.0317827894E+00  3.2848705994E+00  4.2348002138E+00
                       2.6265162453E+00  3.8632123264E+00  7.1149824296E+00
            xcart      0.0000000000E+00  0.0000000000E+00  0.0000000000E+00
                       5.9841353541E+00  4.1007199389E+00  1.1346508443E+01
                       6.2390315417E+00  1.9939340631E+00  1.4690404255E+01
                       9.8013725281E+00  5.0988269707E+00  1.1689496349E+01
                       7.0048743208E+00  9.0102658787E-01  9.2476486544E+00
                       2.1668981800E+00  3.1026129072E+00  1.1003520538E+01
                       5.7292391664E+00  6.2075058148E+00  8.0026126316E+00
                       4.9633963873E+00  7.3004132900E+00  1.3445368232E+01
             xred      0.0000000000E+00  0.0000000000E+00  0.0000000000E+00
                       5.0000000000E-01  5.0000000000E-01  5.0000000000E-01
                       6.2169900000E-01  2.4312000000E-01  8.9013800000E-01
                       8.9013800000E-01  6.2169900000E-01  2.4312000000E-01
                       7.5688000000E-01  1.0986200000E-01  3.7830100000E-01
                       1.0986200000E-01  3.7830100000E-01  7.5688000000E-01
                       3.7830100000E-01  7.5688000000E-01  1.0986200000E-01
                       2.4312000000E-01  8.9013800000E-01  6.2169900000E-01
            znucl       30.00000   82.00000    9.00000

 chkinp: Checking input parameters for consistency.

== DATASET  1 ==================================================================
-   mpi_nproc: 1, omp_nthreads: -1 (-1 if OMP is not activated)

--- !DatasetInfo
iteration_state: {dtset: 1, }
dimensions: {natom: 8, nkpt: 1, mband: 47, nsppol: 1, nspinor: 1, nspden: 1, mpw: 10011, }
cutoff_energies: {ecut:  42.0, pawecutdg:  -1.0, }
electrons: {nelect:   7.60000000E+01, charge:   0.00000000E+00, occopt:   1.00000000E+00, tsmear:   1.00000000E-02, }
meta: {optdriver: 1, rfelfd: 2, }
...

 Real(R)+Recip(G) space primitive vectors, cartesian coordinates (Bohr,Bohr^-1):
 R(1)=  8.7942162  0.0000000  6.0183192  G(1)=  0.1137111 -0.0440075  0.0000000
 R(2)=  3.1740545  8.2014399  6.0183192  G(2)=  0.0000000  0.1219298  0.0000000
 R(3)=  0.0000000  0.0000000 10.6563786  G(3)= -0.0642197 -0.0440075  0.0938405
 Unit cell volume ucvol=  7.6859381E+02 bohr^3
 Angles (23,13,12)=  5.56142244E+01  5.56142244E+01  5.56142244E+01 degrees

 getcut: wavevector=  0.0000  0.0000  0.0000  ngfft=  64  64  64
         ecut(hartree)=     42.000   => boxcut(ratio)=   2.05865

--- Pseudopotential description ------------------------------------------------
- pspini: atom type   1  psp file is /scratch/users/j/a/jabreu/pseudos/PBEsol/Zn.psp8
- pspatm: opening atomic psp file    /scratch/users/j/a/jabreu/pseudos/PBEsol/Zn.psp8
- Zn    ONCVPSP-3.3.0  r_core=   1.35823   1.66358   1.85211
- 30.00000  20.00000    180112                znucl, zion, pspdat
    8 -116133    2    4       600   0.00000   pspcod,pspxc,lmax,lloc,mmax,r2well
    5.99000000000000    2.50000000000000    0.00000000000000   rchrg,fchrg,qchrg
     nproj     2     2     2
     extension_switch     1
  pspatm : epsatm=   26.57343589
         --- l  ekb(1:nproj) -->
             0    2.830835   -1.519107
             1   -4.626739   -1.324150
             2   -6.948510   -2.555500
 pspatm: atomic psp has been read  and splines computed

- pspini: atom type   2  psp file is /scratch/users/j/a/jabreu/pseudos/PBEsol/Pb.psp8
- pspatm: opening atomic psp file    /scratch/users/j/a/jabreu/pseudos/PBEsol/Pb.psp8
- Pb    ONCVPSP-3.3.0  r_core=   2.42823   2.42823   2.10438
- 82.00000  14.00000    180112                znucl, zion, pspdat
    8 -116133    2    4       600   0.00000   pspcod,pspxc,lmax,lloc,mmax,r2well
    5.99000000000000    6.00000000000000    0.00000000000000   rchrg,fchrg,qchrg
     nproj     2     2     2
     extension_switch     1
  pspatm : epsatm=   44.32675151
         --- l  ekb(1:nproj) -->
             0    6.256780    1.206521
             1    4.272336    0.573876
             2   -3.251371   -0.847363
 pspatm: atomic psp has been read  and splines computed

- pspini: atom type   3  psp file is /scratch/users/j/a/jabreu/pseudos/PBEsol/F.psp8
- pspatm: opening atomic psp file    /scratch/users/j/a/jabreu/pseudos/PBEsol/F.psp8
- F     ONCVPSP-3.3.0  r_core=   1.30942   1.45782   1.60379
-  9.00000   7.00000    180112                znucl, zion, pspdat
    8 -116133    2    4       600   0.00000   pspcod,pspxc,lmax,lloc,mmax,r2well
    5.99000000000000    2.50000000000000    0.00000000000000   rchrg,fchrg,qchrg
     nproj     2     2     1
     extension_switch     1
  pspatm : epsatm=    4.89824824
         --- l  ekb(1:nproj) -->
             0    6.506434    1.065875
             1   -3.978753   -1.295852
             2   -2.394754
 pspatm: atomic psp has been read  and splines computed

   7.62201544E+03                                ecore*ucvol(ha*bohr**3)

-inwffil : will read wavefunctions from disk file /scratch/users/j/a/jabreu/flow_simple_8atoms/flow/w256/t1/indata/in_WFK

 ==>  initialize data related to q vector <==

 The list of irreducible perturbations for this q vector is:
    1)    idir= 1    ipert=   9
    2)    idir= 2    ipert=   9
    3)    idir= 3    ipert=   9

 Perturbation wavevector (in red.coord.)   0.000000  0.000000  0.000000
 Perturbation : derivative vs k along direction   1

 dfpt_looppert : COMMENT -
  In a d/dk calculation, iscf is set to -3 automatically.
 The set of symmetries contains only one element for this perturbation.
 symkpt : not enough symmetry to change the number of k points.

[...]

 Initialisation of the first-order wave-functions :
  ireadwf=   0

--- !BeginCycle
iteration_state: {dtset: 1, }
solver: {iscf: 7, nstep: 2000, nline: 4, wfoptalg: 0, }
tolerances: {tolwfr: 1.00E-20, }
...

     iter   2DEtotal(Ha)        deltaE(Ha) residm    vres2
-ETOT  1  -61.523608913673     -6.152E+01 1.222E-01 0.000E+00
 ETOT  2  -61.589960726598     -6.635E-02 8.789E-04 0.000E+00
 ETOT  3  -61.590261927048     -3.012E-04 4.761E-05 0.000E+00
 ETOT  4  -61.590264597735     -2.671E-06 1.073E-06 0.000E+00
 ETOT  5  -61.590264635624     -3.789E-08 1.054E-07 0.000E+00
 ETOT  6  -61.590264636262     -6.377E-10 2.773E-09 0.000E+00
 ETOT  7  -61.590264636273     -1.157E-11 2.860E-10 0.000E+00
 ETOT  8  -61.590264636274     -2.203E-13 8.023E-12 0.000E+00
 ETOT  9  -61.590264636274     -4.263E-14 8.813E-13 0.000E+00
 ETOT 10  -61.590264636274      0.000E+00 2.441E-14 0.000E+00
 ETOT 11  -61.590264636274     -1.421E-14 2.860E-15 0.000E+00
 ETOT 12  -61.590264636274      3.553E-14 7.597E-17 0.000E+00
 ETOT 13  -61.590264636274      7.105E-15 9.548E-18 0.000E+00
 ETOT 14  -61.590264636274      0.000E+00 2.397E-19 0.000E+00
 ETOT 15  -61.590264636274     -1.421E-14 3.256E-20 0.000E+00
 ETOT 16  -61.590264636274      1.421E-14 9.809E-21 0.000E+00

 At SCF step   16   max residual=  9.81E-21 < tolwfr=  1.00E-20 =>converged.

 ----iterations are completed or convergence reached----

 dfpt_looppert: DFPT cycle converged with prtwf=-1. Will skip output of the 1st-order WFK file.
 dfpt_looppert : ek2=    8.9211966683E+01
          f-sum rule ratio=    1.0380979624E+00
 prteigrs : about to open file /scratch/users/j/a/jabreu/flow_simple_8atoms/flow/w256/t1/tmpdata/tmp_1WF1_EIG
 Expectation of eigenvalue derivatives (hartree) for nkpt=   1  k points:
  (in case of degenerate eigenvalues, averaged derivative)
 kpt#   1, nband= 47, wtk=  1.00000, kpt=  0.0000  0.0000  0.0000 (reduced coord)
  -0.00000   -0.00000   -0.00000   -0.00000   -0.00000   -0.00000   -0.00000    0.00000
  -0.00000   -0.00000    0.00000    0.00000    0.00000    0.00000    0.00000   -0.00000
  -0.00000   -0.00000   -0.00000   -0.00000    0.00000   -0.00000    0.00000    0.00000
  -0.00000   -0.00000    0.00000    0.00000    0.00000    0.00000    0.00000   -0.00000
  -0.00000   -0.00000   -0.00000   -0.00000   -0.00000   -0.00000   -0.00000   -0.00000
   0.00000   -0.00000   -0.00000   -0.00000   -0.00004    0.01723    0.00586

 Eight components of 2nd-order total energy (hartree) are
 1,2,3: 0th-order hamiltonian combined with 1st-order wavefunctions
     kin0=   7.92211519E+01 eigvalue=   5.83433991E+00  local=  -3.28376933E+01
 4,5,6: 1st-order hamiltonian combined with 1st and 0th-order wfs
     kin1=  -9.26107608E+01  Hartree=   0.00000000E+00     xc=   0.00000000E+00
 7,8,9: eventually, occupation + non-local contributions
    edocc=   7.86280950E+00     enl0=   1.50965658E+00   enl1=  -3.05697684E+01
 1-9 gives the relaxation energy (to be shifted if some occ is /=2.0)
   erelax=  -6.15902646E+01
  No Ewald or frozen-wf contrib.: the relaxation energy is the total one
 2DEtotal=   -0.6159026464E+02 Ha. Also 2DEtotal=   -0.167595633306E+04 eV
    (  non-var. 2DEtotal :   -6.1590264636E+01 Ha)

 Perturbation wavevector (in red.coord.)   0.000000  0.000000  0.000000
 Perturbation : derivative vs k along direction   2
 The set of symmetries contains only one element for this perturbation.
 symkpt : not enough symmetry to change the number of k points.

[...]

 Perturbation wavevector (in red.coord.)   0.000000  0.000000  0.000000
 Perturbation : derivative vs k along direction   3
 The set of symmetries contains only one element for this perturbation.
 symkpt : not enough symmetry to change the number of k points.

-inwffil : will read wavefunctions from disk file /scratch/users/j/a/jabreu/flow_simple_8atoms/flow/w256/t1/indata/in_WFK

 Initialisation of the first-order wave-functions :
  ireadwf=   0

--- !BeginCycle
iteration_state: {dtset: 1, }
solver: {iscf: 7, nstep: 2000, nline: 4, wfoptalg: 0, }
tolerances: {tolwfr: 1.00E-20, }
...

     iter   2DEtotal(Ha)        deltaE(Ha) residm    vres2
-ETOT  1  -61.522378294474     -6.152E+01 1.540E-01 0.000E+00
 ETOT  2  -61.590907945924     -6.853E-02 8.790E-04 0.000E+00
 ETOT  3  -61.591166693177     -2.587E-04 3.532E-05 0.000E+00
 ETOT  4  -61.591168712667     -2.019E-06 6.893E-07 0.000E+00
 ETOT  5  -61.591168739232     -2.657E-08 5.746E-08 0.000E+00
 ETOT  6  -61.591168739660     -4.279E-10 1.292E-09 0.000E+00
 ETOT  7  -61.591168739667     -7.702E-12 1.047E-10 0.000E+00
 ETOT  8  -61.591168739667     -1.421E-13 3.509E-12 0.000E+00
 ETOT  9  -61.591168739667     -4.263E-14 2.050E-13 0.000E+00
 ETOT 10  -61.591168739667      1.421E-14 1.082E-14 0.000E+00
 ETOT 11  -61.591168739667     -1.421E-14 4.539E-16 0.000E+00
 ETOT 12  -61.591168739667      0.000E+00 3.453E-17 0.000E+00
 ETOT 13  -61.591168739667      0.000E+00 1.447E-18 0.000E+00
 ETOT 14  -61.591168739668     -1.421E-14 1.118E-19 0.000E+00
 ETOT 15  -61.591168739667      1.421E-14 9.339E-21 0.000E+00

 At SCF step   15   max residual=  9.34E-21 < tolwfr=  1.00E-20 =>converged.

 ----iterations are completed or convergence reached----

 dfpt_looppert: DFPT cycle converged with prtwf=-1. Will skip output of the 1st-order WFK file.
 dfpt_looppert : ek2=    8.9211966683E+01
          f-sum rule ratio=    1.0381121613E+00
 prteigrs : about to open file /scratch/users/j/a/jabreu/flow_simple_8atoms/flow/w256/t1/tmpdata/tmp_1WF1_EIG
 Expectation of eigenvalue derivatives (hartree) for nkpt=   1  k points:
  (in case of degenerate eigenvalues, averaged derivative)
 kpt#   1, nband= 47, wtk=  1.00000, kpt=  0.0000  0.0000  0.0000 (reduced coord)
   0.00000    0.00000    0.00000    0.00000    0.00000    0.00000    0.00000    0.00000
   0.00000    0.00000    0.00000    0.00000   -0.00000   -0.00000   -0.00000   -0.00000
   0.00000    0.00000    0.00000    0.00000   -0.00000   -0.00000    0.00000    0.00000
   0.00000    0.00000    0.00000    0.00000    0.00000    0.00000    0.00000   -0.00000
   0.00000    0.00000    0.00000    0.00000   -0.00000   -0.00000    0.00000   -0.00000
   0.00000    0.00000    0.00000   -0.00000   -0.00003   -0.00729    0.00110

 Eight components of 2nd-order total energy (hartree) are
 1,2,3: 0th-order hamiltonian combined with 1st-order wavefunctions
     kin0=   7.91171238E+01 eigvalue=   5.83626054E+00  local=  -3.28065621E+01
 4,5,6: 1st-order hamiltonian combined with 1st and 0th-order wfs
     kin1=  -9.26120275E+01  Hartree=   0.00000000E+00     xc=   0.00000000E+00
 7,8,9: eventually, occupation + non-local contributions
    edocc=   7.89026399E+00     enl0=   1.55408255E+00   enl1=  -3.05703099E+01
 1-9 gives the relaxation energy (to be shifted if some occ is /=2.0)
   erelax=  -6.15911687E+01
  No Ewald or frozen-wf contrib.: the relaxation energy is the total one
 2DEtotal=   -0.6159116874E+02 Ha. Also 2DEtotal=   -0.167598093496E+04 eV
    (  non-var. 2DEtotal :   -6.1591168739E+01 Ha)

 CALCULATION OF EFFECTIVE MASSES
 NOTE : Additional infos (eff. mass eigenvalues, eigenvectors and, if degenerate, average mass) are available in stdout.

 COMMENTS:
 - At k-point ( 0.000, 0.000, 0.000), bands    37 through    38
   are DEGENERATE (effective mass tensor is therefore not defined).
   See Section IIIB Eqs. (67)-(70) and Appendix E of PRB 93 205147 (2016).
 - Angular average effective mass for Frohlich model is to be averaged over degenerate bands. See later.
 - Associated theta integrals calculated with ntheta=   1000 points.

 K-point ( 0.000, 0.000, 0.000) | band =    37
 Transport equivalent effective mass tensor:
             -1.8984077322              0.0720261737              0.1951966657
              0.0720261737             -1.9525935369              0.1350919691
              0.1951966657              0.1350919691             -1.6307062780
 Transport equivalent effective mass tensor eigenvalues:
             -2.0024539695             -2.0008072539             -1.4784463236
 Angular average effective mass 1/(<1/m>)=  -1.4077581355
 Angular average effective mass for Frohlich model (<m**0.5>)**2=  -1.4340454474
 Effective masses along directions: (cart. coord. / red. coord. -> eff. mass)
    1:   1.000000  0.000000  0.000000 /   0.940610  0.339490  0.000000 ->  -1.5893196127
    2:   0.000000  1.000000  0.000000 /   0.000000  1.000000  0.000000 ->  -2.0774293077
    3:   0.000000  0.000000  1.000000 /   0.441286  0.441286  0.781366 ->  -1.3434452792
    4:   0.577350  0.577350  0.577350 /   0.587580  0.689973  0.422714 ->  -1.2989719223
    5:   0.000000  0.707107  0.707107 /   0.320787  0.757937  0.568003 ->  -1.2412470660
    6:   0.707107  0.000000  0.707107 /   0.724965  0.449899  0.521552 ->  -1.3452100281
    7:   0.707107  0.707107  0.000000 /   0.611624  0.791148  0.000000 ->  -1.1497476315

 K-point ( 0.000, 0.000, 0.000) | band =    38
 Transport equivalent effective mass tensor:
           -179.0178399966              5.7202677845             15.6447028514
              5.7202677845           -183.2945283944             10.5910264961
             15.6447028514             10.5910264961           -157.6816061642
 Transport equivalent effective mass tensor eigenvalues:
           -187.3385956298           -187.0822815871           -145.5730973383
 Angular average effective mass 1/(<1/m>)=  -5.2317273917
 Angular average effective mass for Frohlich model (<m**0.5>)**2=  -7.2479778404
 Effective masses along directions: (cart. coord. / red. coord. -> eff. mass)
    1:   1.000000  0.000000  0.000000 /   0.940610  0.339490  0.000000 ->  -4.1464348742
    2:   0.000000  1.000000  0.000000 /   0.000000  1.000000  0.000000 ->  -2.7367477013
    3:   0.000000  0.000000  1.000000 /   0.441286  0.441286  0.781366 ->  -4.1154813244
    4:   0.577350  0.577350  0.577350 /   0.587580  0.689973  0.422714 ->  -4.0185569170
    5:   0.000000  0.707107  0.707107 /   0.320787  0.757937  0.568003 ->  -5.8672935592
    6:   0.707107  0.000000  0.707107 /   0.724965  0.449899  0.521552 ->  -3.6940226158
    7:   0.707107  0.707107  0.000000 /   0.611624  0.791148  0.000000 -> -49.1543458798

 Angular average effective mass for Frohlich model, averaged over degenerate bands.
 Value of     (<<m**0.5>>)**2 =     3.782487E+00
 Absolute Value of <<m**0.5>> =     1.944862E+00

 K-point ( 0.000, 0.000, 0.000) | band =    39
 Effective mass tensor:
              0.6647264645             -0.0136941877             -0.0378350689
             -0.0136941877              0.6752778897             -0.0258854891
             -0.0378350689             -0.0258854891              0.6130016857
 Effective mass tensor eigenvalues:
              0.5836726530              0.6846277667              0.6847056200
 Angular average effective mass 1/(<1/m>)=   0.6473304028
 Angular average effective mass for Frohlich model (<m**0.5>)**2=   0.6484599628
 Effective masses along directions: (cart. coord. / red. coord. -> eff. mass)
    1:   1.000000  0.000000  0.000000 /   0.940610  0.339490  0.000000 ->   0.6620443964
    2:   0.000000  1.000000  0.000000 /   0.000000  1.000000  0.000000 ->   0.6738317861
    3:   0.000000  0.000000  1.000000 /   0.441286  0.441286  0.781366 ->   0.6097948117
    4:   0.577350  0.577350  0.577350 /   0.587580  0.689973  0.422714 ->   0.5973890209
    5:   0.000000  0.707107  0.707107 /   0.320787  0.757937  0.568003 ->   0.6147206750
    6:   0.707107  0.000000  0.707107 /   0.724965  0.449899  0.521552 ->   0.5988529921
    7:   0.707107  0.707107  0.000000 /   0.611624  0.791148  0.000000 ->   0.6529452960

 END OF EFFECTIVE MASSES SECTION

 ---- first-order wavefunction calculations are completed ----

 Total localisation tensor (bohr^2) in cartesian coordinates
  WARNING : still subject to testing - especially symmetries.
      direction              matrix element
   alpha     beta       real part   imaginary part
     1        1       0.7428509485    0.0000000000
     1        2       0.2212382717    0.0000000000
     1        3       0.6121219545    0.0000000000
     2        1       0.2212382717    0.0000000000
     2        2       0.5716575969    0.0000000000
     2        3       0.4194894950    0.0000000000
     3        1       0.6121219545    0.0000000000
     3        2       0.4194894950    0.0000000000
     3        3       1.5807088309    0.0000000000

 respfn : d/dk was computed, but no 2DTE, so no DDB output.

== END DATASET(S) ==============================================================

 -outvars: echo values of variables after computation  --------
            acell      1.0000000000E+00  1.0000000000E+00  1.0000000000E+00 Bohr
              amu      6.53900000E+01  2.07200000E+02  1.89984032E+01
             ecut      4.20000000E+01 Hartree
           etotal     -6.1591168740E+01
            fcart      0.0000000000E+00  0.0000000000E+00  0.0000000000E+00
                       0.0000000000E+00  0.0000000000E+00  0.0000000000E+00
                       0.0000000000E+00  0.0000000000E+00  0.0000000000E+00
                       0.0000000000E+00  0.0000000000E+00  0.0000000000E+00
                       0.0000000000E+00  0.0000000000E+00  0.0000000000E+00
                       0.0000000000E+00  0.0000000000E+00  0.0000000000E+00
                       0.0000000000E+00  0.0000000000E+00  0.0000000000E+00
                       0.0000000000E+00  0.0000000000E+00  0.0000000000E+00
-          fftalg         512
           irdden           1
           irdwfk           1
           istwfk        1
              ixc     -116133
           kptopt           0
P           mkmem           1
P          mkqmem           1
P          mk1mem           1
            natom           8
            nband          47
           nbdbuf           4
            ngfft          64      64      64
             nkpt           1
            nstep        2000
             nsym           6
           ntypat           3
              occ      2.000000  2.000000  2.000000  2.000000  2.000000  2.000000
                       2.000000  2.000000  2.000000  2.000000  2.000000  2.000000
                       2.000000  2.000000  2.000000  2.000000  2.000000  2.000000
                       2.000000  2.000000  2.000000  2.000000  2.000000  2.000000
                       2.000000  2.000000  2.000000  2.000000  2.000000  2.000000
                       2.000000  2.000000  2.000000  2.000000  2.000000  2.000000
                       2.000000  2.000000  0.000000  0.000000  0.000000  0.000000
                       0.000000  0.000000  0.000000  0.000000  0.000000
        optdriver           1
            prtwf          -1
            rfdir           1       1       1
           rfelfd           2
            rprim      8.7942161799E+00  0.0000000000E+00  6.0183191678E+00
                       3.1740545282E+00  8.2014398779E+00  6.0183191678E+00
                       0.0000000000E+00  0.0000000000E+00  1.0656378551E+01
          spgroup         148
           strten      0.0000000000E+00  0.0000000000E+00  0.0000000000E+00
                       0.0000000000E+00  0.0000000000E+00  0.0000000000E+00
           symrel      1  0  0   0  1  0   0  0  1      -1  0  0   0 -1  0   0  0 -1
                       0  0  1   1  0  0   0  1  0       0  0 -1  -1  0  0   0 -1  0
                       0  1  0   0  0  1   1  0  0       0 -1  0   0  0 -1  -1  0  0
           tolwfr      1.00000000E-20
            typat      1  2  3  3  3  3  3  3
           useylm           1
           xangst      0.0000000000E+00  0.0000000000E+00  0.0000000000E+00
                       3.1666680425E+00  2.1700075305E+00  6.0043136653E+00
                       3.3015532956E+00  1.0551444616E+00  7.7738271168E+00
                       5.1866629548E+00  2.6981830234E+00  6.1858150478E+00
                       3.7068198396E+00  4.7680273463E-01  4.8936449010E+00
                       1.1466731302E+00  1.6418320376E+00  5.8228122828E+00
                       3.0317827894E+00  3.2848705994E+00  4.2348002138E+00
                       2.6265162453E+00  3.8632123264E+00  7.1149824296E+00
            xcart      0.0000000000E+00  0.0000000000E+00  0.0000000000E+00
                       5.9841353541E+00  4.1007199389E+00  1.1346508443E+01
                       6.2390315417E+00  1.9939340631E+00  1.4690404255E+01
                       9.8013725281E+00  5.0988269707E+00  1.1689496349E+01
                       7.0048743208E+00  9.0102658787E-01  9.2476486544E+00
                       2.1668981800E+00  3.1026129072E+00  1.1003520538E+01
                       5.7292391664E+00  6.2075058148E+00  8.0026126316E+00
                       4.9633963873E+00  7.3004132900E+00  1.3445368232E+01
             xred      0.0000000000E+00  0.0000000000E+00  0.0000000000E+00
                       5.0000000000E-01  5.0000000000E-01  5.0000000000E-01
                       6.2169900000E-01  2.4312000000E-01  8.9013800000E-01
                       8.9013800000E-01  6.2169900000E-01  2.4312000000E-01
                       7.5688000000E-01  1.0986200000E-01  3.7830100000E-01
                       1.0986200000E-01  3.7830100000E-01  7.5688000000E-01
                       3.7830100000E-01  7.5688000000E-01  1.0986200000E-01
                       2.4312000000E-01  8.9013800000E-01  6.2169900000E-01
            znucl       30.00000   82.00000    9.00000

- Timing analysis has been suppressed with timopt=0

 Suggested references for the acknowledgment of ABINIT usage.

 Calculation completed.
.Delivered   6 WARNINGs and   5 COMMENTs to log file.