.Version 9.5.1 of ABINIT

 ABINIT is a project of the Universite Catholique de Louvain,
 Corning Inc. and other collaborators, see ~abinit/doc/developers/contributors.txt .
 acknowledgments of the ABINIT effort.

.Starting date : Sun 25 Apr 2021.
- ( at 18h03 )

- input  file    -> /scratch/users/j/a/jabreu/flow_simple2/flow/w246/t1/run.abi
- output file    -> /scratch/users/j/a/jabreu/flow_simple2/flow/w246/t1/run.abo
- root for input  files -> /scratch/users/j/a/jabreu/flow_simple2/flow/w246/t1/indata/in
- root for output files -> /scratch/users/j/a/jabreu/flow_simple2/flow/w246/t1/outdata/out

 Symmetries : space group Fm -3 m (#225); Bravais cF (face-center cubic)
     intxc =       0      iscf =       7    lmnmax =      18     lnmax =       6
     mgfft =      45  mpssoang =       3    mqgrid =    3001     natom =       2
  nloc_mem =       1    nspden =       1   nspinor =       1    nsppol =       1
      nsym =      48    n1xccc =    2501    ntypat =       2    occopt =       1
   xclevel =       2
-    mband =          17        mffmem =           1         mkmem =           2
-   mkqmem =           2        mk1mem =           2           mpw =        3479
      nfft =       91125          nkpt =           2
  Rough estimation (10% accuracy) of disk space for files :

------------- Echo of variables that govern the present computation ------------
-
- outvars: echo of selected default values
-   iomode0 =  0 , fftalg0 =512 , wfoptalg0 =  0
-
- outvars: echo of global parameters not present in the input file
-  max_nthreads =    0
-
 -outvars: echo values of preprocessed input variables --------
            acell      1.0000000000E+00  1.0000000000E+00  1.0000000000E+00 Bohr
              amu      8.76200000E+01  3.20660000E+01
             ecut      3.40000000E+01 Hartree
-          fftalg         512
           irdden           1
           irdwfk           1
           istwfk        1    1
              ixc     -116133
              kpt      0.00000000E+00  0.00000000E+00  0.00000000E+00
                       5.00000000E-01  0.00000000E+00  5.00000000E-01
           kptopt           0
P           mkmem           2
P          mkqmem           2
P          mk1mem           2
            natom           2
            nband          17
           nbdbuf           4
            ngfft          45      45      45
             nkpt           2
            nstep         100
             nsym          48
           ntypat           2
              occ      2.000000  2.000000  2.000000  2.000000  2.000000  2.000000
                       2.000000  2.000000  0.000000  0.000000  0.000000  0.000000
                       0.000000  0.000000  0.000000  0.000000  0.000000
        optdriver           1
            prtwf          -1
            rfdir           1       1       1
           rfelfd           2
            rprim      6.9067483807E+00  0.0000000000E+00  3.9876130368E+00
                       2.3022494602E+00  6.5117448213E+00  3.9876130368E+00
                       0.0000000000E+00  0.0000000000E+00  7.9752260737E+00
          spgroup         225
           symrel      1  0  0   0  1  0   0  0  1      -1  0  0   0 -1  0   0  0 -1
                       0 -1  1   0 -1  0   1 -1  0       0  1 -1   0  1  0  -1  1  0
                      -1  0  0  -1  0  1  -1  1  0       1  0  0   1  0 -1   1 -1  0
                       0  1 -1   1  0 -1   0  0 -1       0 -1  1  -1  0  1   0  0  1
                      -1  0  0  -1  1  0  -1  0  1       1  0  0   1 -1  0   1  0 -1
                       0 -1  1   1 -1  0   0 -1  0       0  1 -1  -1  1  0   0  1  0
                       1  0  0   0  0  1   0  1  0      -1  0  0   0  0 -1   0 -1  0
                       0  1 -1   0  0 -1   1  0 -1       0 -1  1   0  0  1  -1  0  1
                      -1  0  1  -1  1  0  -1  0  0       1  0 -1   1 -1  0   1  0  0
                       0 -1  0   1 -1  0   0 -1  1       0  1  0  -1  1  0   0  1 -1
                       1  0 -1   0  0 -1   0  1 -1      -1  0  1   0  0  1   0 -1  1
                       0  1  0   0  0  1   1  0  0       0 -1  0   0  0 -1  -1  0  0
                       1  0 -1   0  1 -1   0  0 -1      -1  0  1   0 -1  1   0  0  1
                       0 -1  0   0 -1  1   1 -1  0       0  1  0   0  1 -1  -1  1  0
                      -1  0  1  -1  0  0  -1  1  0       1  0 -1   1  0  0   1 -1  0
                       0  1  0   1  0  0   0  0  1       0 -1  0  -1  0  0   0  0 -1
                       0  0 -1   0  1 -1   1  0 -1       0  0  1   0 -1  1  -1  0  1
                       1 -1  0   0 -1  1   0 -1  0      -1  1  0   0  1 -1   0  1  0
                       0  0  1   1  0  0   0  1  0       0  0 -1  -1  0  0   0 -1  0
                      -1  1  0  -1  0  0  -1  0  1       1 -1  0   1  0  0   1  0 -1
                       0  0  1   0  1  0   1  0  0       0  0 -1   0 -1  0  -1  0  0
                       1 -1  0   0 -1  0   0 -1  1      -1  1  0   0  1  0   0  1 -1
                       0  0 -1   1  0 -1   0  1 -1       0  0  1  -1  0  1   0 -1  1
                      -1  1  0  -1  0  1  -1  0  0       1 -1  0   1  0 -1   1  0  0
           tolwfr      1.00000000E-20
            typat      1  2
           useylm           1
              wtk        0.50000    0.50000
           xangst      2.4365958857E+00  1.7229334738E+00  4.2203078715E+00
                       0.0000000000E+00  0.0000000000E+00  0.0000000000E+00
            xcart      4.6044989205E+00  3.2558724106E+00  7.9752260736E+00
                       0.0000000000E+00  0.0000000000E+00  0.0000000000E+00
             xred      5.0000000000E-01  5.0000000000E-01  5.0000000000E-01
                       0.0000000000E+00  0.0000000000E+00  0.0000000000E+00
            znucl       38.00000   16.00000

 chkinp: Checking input parameters for consistency.

== DATASET  1 ==================================================================
-   mpi_nproc: 1, omp_nthreads: -1 (-1 if OMP is not activated)

--- !DatasetInfo
iteration_state: {dtset: 1, }
dimensions: {natom: 2, nkpt: 2, mband: 17, nsppol: 1, nspinor: 1, nspden: 1, mpw: 3479, }
cutoff_energies: {ecut:  34.0, pawecutdg:  -1.0, }
electrons: {nelect:   1.60000000E+01, charge:   0.00000000E+00, occopt:   1.00000000E+00, tsmear:   1.00000000E-02, }
meta: {optdriver: 1, rfelfd: 2, }
...

 Real(R)+Recip(G) space primitive vectors, cartesian coordinates (Bohr,Bohr^-1):
 R(1)=  6.9067484  0.0000000  3.9876130  G(1)=  0.1447859 -0.0511896  0.0000000
 R(2)=  2.3022495  6.5117448  3.9876130  G(2)=  0.0000000  0.1535687  0.0000000
 R(3)=  0.0000000  0.0000000  7.9752261  G(3)= -0.0723930 -0.0511896  0.1253883
 Unit cell volume ucvol=  3.5868566E+02 bohr^3
 Angles (23,13,12)=  6.00000000E+01  6.00000000E+01  6.00000000E+01 degrees

 getcut: wavevector=  0.0000  0.0000  0.0000  ngfft=  45  45  45
         ecut(hartree)=     34.000   => boxcut(ratio)=   2.10187

--- Pseudopotential description ------------------------------------------------
- pspini: atom type   1  psp file is /scratch/users/j/a/jabreu/pseudos/PBEsol/Sr.psp8
- pspatm: opening atomic psp file    /scratch/users/j/a/jabreu/pseudos/PBEsol/Sr.psp8
- Sr    ONCVPSP-3.3.0  r_core=   1.66721   1.31335   1.51547
- 38.00000  10.00000    180112                znucl, zion, pspdat
    8 -116133    2    4       600   0.00000   pspcod,pspxc,lmax,lloc,mmax,r2well
    5.99000000000000    6.00000000000000    0.00000000000000   rchrg,fchrg,qchrg
     nproj     2     2     2
     extension_switch     1
  pspatm : epsatm=   12.46450977
         --- l  ekb(1:nproj) -->
             0   10.029206    1.044171
             1    7.472414    1.670829
             2    4.142950    0.968140
 pspatm: atomic psp has been read  and splines computed

- pspini: atom type   2  psp file is /scratch/users/j/a/jabreu/pseudos/PBEsol/S.psp8
- pspatm: opening atomic psp file    /scratch/users/j/a/jabreu/pseudos/PBEsol/S.psp8
- S     ONCVPSP-3.3.0  r_core=   1.45376   1.45376   1.61851
- 16.00000   6.00000    180112                znucl, zion, pspdat
    8 -116133    2    4       600   0.00000   pspcod,pspxc,lmax,lloc,mmax,r2well
    5.99000000000000    6.00000000000000    0.00000000000000   rchrg,fchrg,qchrg
     nproj     2     2     2
     extension_switch     1
  pspatm : epsatm=    8.71840985
         --- l  ekb(1:nproj) -->
             0    6.834532    0.579453
             1    3.282851    0.896984
             2   -3.496974   -0.974265
 pspatm: atomic psp has been read  and splines computed

   3.38926714E+02                                ecore*ucvol(ha*bohr**3)

-inwffil : will read wavefunctions from disk file /scratch/users/j/a/jabreu/flow_simple2/flow/w246/t1/indata/in_WFK

 ==>  initialize data related to q vector <==

 The list of irreducible perturbations for this q vector is:
    1)    idir= 1    ipert=   3
    2)    idir= 2    ipert=   3
    3)    idir= 3    ipert=   3

 Perturbation wavevector (in red.coord.)   0.000000  0.000000  0.000000
 Perturbation : derivative vs k along direction   1

 dfpt_looppert : COMMENT -
  In a d/dk calculation, iscf is set to -3 automatically.
 The set of symmetries contains only one element for this perturbation.
 symkpt : not enough symmetry to change the number of k points.

[...]

 Initialisation of the first-order wave-functions :
  ireadwf=   0

--- !BeginCycle
iteration_state: {dtset: 1, }
solver: {iscf: 7, nstep: 100, nline: 4, wfoptalg: 0, }
tolerances: {tolwfr: 1.00E-20, }
...

     iter   2DEtotal(Ha)        deltaE(Ha) residm    vres2
-ETOT  1  -22.302391660702     -2.230E+01 1.149E-02 0.000E+00
 ETOT  2  -22.305760848830     -3.369E-03 1.817E-05 0.000E+00
 ETOT  3  -22.305768896297     -8.047E-06 1.184E-07 0.000E+00
 ETOT  4  -22.305768920239     -2.394E-08 1.569E-09 0.000E+00
 ETOT  5  -22.305768920317     -7.839E-11 3.659E-11 0.000E+00
 ETOT  6  -22.305768920318     -3.055E-13 5.152E-13 0.000E+00
 ETOT  7  -22.305768920318     -1.066E-14 1.418E-14 0.000E+00
 ETOT  8  -22.305768920317      3.197E-14 2.085E-16 0.000E+00
 ETOT  9  -22.305768920317      1.066E-14 5.793E-18 0.000E+00
 ETOT 10  -22.305768920317     -3.553E-15 8.820E-20 0.000E+00
 ETOT 11  -22.305768920317      7.105E-15 9.519E-21 0.000E+00

 At SCF step   11   max residual=  9.52E-21 < tolwfr=  1.00E-20 =>converged.

 ----iterations are completed or convergence reached----

 dfpt_looppert: DFPT cycle converged with prtwf=-1. Will skip output of the 1st-order WFK file.
 dfpt_looppert : ek2=    2.9793050202E+01
          f-sum rule ratio=    1.5416675444E+00
 prteigrs : about to open file /scratch/users/j/a/jabreu/flow_simple2/flow/w246/t1/tmpdata/tmp_1WF1_EIG
 Expectation of eigenvalue derivatives (hartree) for nkpt=   2  k points:
  (in case of degenerate eigenvalues, averaged derivative)
 kpt#   1, nband= 17, wtk=  0.50000, kpt=  0.0000  0.0000  0.0000 (reduced coord)
   0.00000    0.00000    0.00000    0.00000   -0.00000   -0.00000   -0.00000   -0.00000
   0.00000   -0.00000   -0.00000   -0.00000   -0.00000   -0.00000   -0.00000    0.00000
   0.00000
 prteigrs : prtvol=0 or 1, do not print more k-points.

 Eight components of 2nd-order total energy (hartree) are
 1,2,3: 0th-order hamiltonian combined with 1st-order wavefunctions
     kin0=   5.95017848E+00 eigvalue=   1.50620962E-01  local=  -3.34334816E+00
 4,5,6: 1st-order hamiltonian combined with 1st and 0th-order wfs
     kin1=  -4.59309785E+01  Hartree=   0.00000000E+00     xc=   0.00000000E+00
 7,8,9: eventually, occupation + non-local contributions
    edocc=   1.85576134E+01     enl0=   9.90704258E-01   enl1=   1.31944070E+00
 1-9 gives the relaxation energy (to be shifted if some occ is /=2.0)
   erelax=  -2.23057689E+01
  No Ewald or frozen-wf contrib.: the relaxation energy is the total one
 2DEtotal=   -0.2230576892E+02 Ha. Also 2DEtotal=   -0.606970840383E+03 eV
    (  non-var. 2DEtotal :   -2.2305768920E+01 Ha)

 Perturbation wavevector (in red.coord.)   0.000000  0.000000  0.000000
 Perturbation : derivative vs k along direction   2
 The set of symmetries contains only one element for this perturbation.
 symkpt : not enough symmetry to change the number of k points.

[...]

 Perturbation wavevector (in red.coord.)   0.000000  0.000000  0.000000
 Perturbation : derivative vs k along direction   3
 The set of symmetries contains only one element for this perturbation.
 symkpt : not enough symmetry to change the number of k points.

-inwffil : will read wavefunctions from disk file /scratch/users/j/a/jabreu/flow_simple2/flow/w246/t1/indata/in_WFK

 Initialisation of the first-order wave-functions :
  ireadwf=   0

--- !BeginCycle
iteration_state: {dtset: 1, }
solver: {iscf: 7, nstep: 100, nline: 4, wfoptalg: 0, }
tolerances: {tolwfr: 1.00E-20, }
...

     iter   2DEtotal(Ha)        deltaE(Ha) residm    vres2
-ETOT  1  -22.301868480431     -2.230E+01 1.149E-02 0.000E+00
 ETOT  2  -22.305770103743     -3.902E-03 1.817E-05 0.000E+00
 ETOT  3  -22.305779417938     -9.314E-06 1.183E-07 0.000E+00
 ETOT  4  -22.305779445357     -2.742E-08 1.570E-09 0.000E+00
 ETOT  5  -22.305779445446     -8.869E-11 3.659E-11 0.000E+00
 ETOT  6  -22.305779445446     -2.736E-13 5.153E-13 0.000E+00
 ETOT  7  -22.305779445446     -4.974E-14 1.417E-14 0.000E+00
 ETOT  8  -22.305779445446      3.553E-15 2.086E-16 0.000E+00
 ETOT  9  -22.305779445446      1.066E-14 5.790E-18 0.000E+00
 ETOT 10  -22.305779445446      3.553E-15 8.821E-20 0.000E+00
 ETOT 11  -22.305779445446     -3.553E-15 9.519E-21 0.000E+00

 At SCF step   11   max residual=  9.52E-21 < tolwfr=  1.00E-20 =>converged.

 ----iterations are completed or convergence reached----

 dfpt_looppert: DFPT cycle converged with prtwf=-1. Will skip output of the 1st-order WFK file.
 dfpt_looppert : ek2=    2.9793050201E+01
          f-sum rule ratio=    1.5416685301E+00
 prteigrs : about to open file /scratch/users/j/a/jabreu/flow_simple2/flow/w246/t1/tmpdata/tmp_1WF1_EIG
 Expectation of eigenvalue derivatives (hartree) for nkpt=   2  k points:
  (in case of degenerate eigenvalues, averaged derivative)
 kpt#   1, nband= 17, wtk=  0.50000, kpt=  0.0000  0.0000  0.0000 (reduced coord)
  -0.00000    0.00000    0.00000    0.00000    0.00000    0.00000    0.00000    0.00000
  -0.00000    0.00000    0.00000    0.00000   -0.00000   -0.00000    0.00000    0.00000
   0.00000
 prteigrs : prtvol=0 or 1, do not print more k-points.

 Eight components of 2nd-order total energy (hartree) are
 1,2,3: 0th-order hamiltonian combined with 1st-order wavefunctions
     kin0=   6.57203388E+00 eigvalue=   1.32972169E-01  local=  -3.70511500E+00
 4,5,6: 1st-order hamiltonian combined with 1st and 0th-order wfs
     kin1=  -4.59310079E+01  Hartree=   0.00000000E+00     xc=   0.00000000E+00
 7,8,9: eventually, occupation + non-local contributions
    edocc=   1.82704170E+01     enl0=   1.03547142E+00   enl1=   1.31944902E+00
 1-9 gives the relaxation energy (to be shifted if some occ is /=2.0)
   erelax=  -2.23057794E+01
  No Ewald or frozen-wf contrib.: the relaxation energy is the total one
 2DEtotal=   -0.2230577945E+02 Ha. Also 2DEtotal=   -0.606971126787E+03 eV
    (  non-var. 2DEtotal :   -2.2305779445E+01 Ha)

 CALCULATION OF EFFECTIVE MASSES
 NOTE : Additional infos (eff. mass eigenvalues, eigenvectors and, if degenerate, average mass) are available in stdout.

 COMMENTS:
 - At k-point ( 0.000, 0.000, 0.000), bands     6 through     8
   are DEGENERATE (effective mass tensor is therefore not defined).
   See Section IIIB Eqs. (67)-(70) and Appendix E of PRB 93 205147 (2016).
 - Angular average effective mass for Frohlich model is to be averaged over degenerate bands. See later.
 - Associated theta integrals calculated with ntheta=   1000 points.

 K-point ( 0.000, 0.000, 0.000) | band =     6
 Transport equivalent effective mass tensor:
             -0.2604493625             -0.0000000008             -0.0000000019
             -0.0000000008             -0.2604493664             -0.0000000013
             -0.0000000019             -0.0000000013             -0.2604493637
 Transport equivalent effective mass tensor eigenvalues:
             -0.2604493674             -0.2604493641             -0.2604493611
 Angular average effective mass 1/(<1/m>)=  -0.2440626716
 Angular average effective mass for Frohlich model (<m**0.5>)**2=  -0.2451685894
 Effective masses along directions: (cart. coord. / red. coord. -> eff. mass)
    1:   1.000000  0.000000  0.000000 /   0.948683  0.316228  0.000000 ->  -0.2535675210
    2:   0.000000  1.000000  0.000000 /   0.000000  1.000000  0.000000 ->  -0.2794389922
    3:   0.000000  0.000000  1.000000 /   0.408248  0.408248  0.816497 ->  -0.2578945218
    4:   0.577350  0.577350  0.577350 /   0.585539  0.688047  0.428644 ->  -0.2550070599
    5:   0.000000  0.707107  0.707107 /   0.289489  0.762222  0.578977 ->  -0.2316865143
    6:   0.707107  0.000000  0.707107 /   0.731423  0.422287  0.535439 ->  -0.2556615665
    7:   0.707107  0.707107  0.000000 /   0.616798  0.787122  0.000000 ->  -0.2130093444

[...]

 K-point ( 0.000, 0.000, 0.000) | band =     8
 Transport equivalent effective mass tensor:
             -1.9949298107              0.0000011205             -0.0000000179
              0.0000011205             -1.9949298951             -0.0000000166
             -0.0000000179             -0.0000000166             -1.9949307655
 Transport equivalent effective mass tensor eigenvalues:
             -1.9949309742             -1.9949307658             -1.9949287313
 Angular average effective mass 1/(<1/m>)=  -1.2811988378
 Angular average effective mass for Frohlich model (<m**0.5>)**2=  -1.3098506590
 Effective masses along directions: (cart. coord. / red. coord. -> eff. mass)
    1:   1.000000  0.000000  0.000000 /   0.948683  0.316228  0.000000 ->  -1.0600542222
    2:   0.000000  1.000000  0.000000 /   0.000000  1.000000  0.000000 ->  -0.8049562761
    3:   0.000000  0.000000  1.000000 /   0.408248  0.408248  0.816497 ->  -1.5518494113
    4:   0.577350  0.577350  0.577350 /   0.585539  0.688047  0.428644 ->  -1.1602908156
    5:   0.000000  0.707107  0.707107 /   0.289489  0.762222  0.578977 ->  -1.5042526039
    6:   0.707107  0.000000  0.707107 /   0.731423  0.422287  0.535439 ->  -1.3325608006
    7:   0.707107  0.707107  0.000000 /   0.616798  0.787122  0.000000 ->  -1.4924509886

 Angular average effective mass for Frohlich model, averaged over degenerate bands.
 Value of     (<<m**0.5>>)**2 =     7.371272E-01
 Absolute Value of <<m**0.5>> =     8.585611E-01

 K-point ( 0.500, 0.000, 0.500) | band =     9
 Effective mass tensor:
              0.4566012954             -0.2265236700              0.2774367846
             -0.2265236700              0.6167820666             -0.3923571879
              0.2774367846             -0.3923571879              0.7769750820
 Effective mass tensor eigenvalues:
              0.2964262460              0.2964296321              1.2575025659
 Angular average effective mass 1/(<1/m>)=   0.3977603783
 Angular average effective mass for Frohlich model (<m**0.5>)**2=   0.4389593961
 Effective masses along directions: (cart. coord. / red. coord. -> eff. mass)
    1:   1.000000  0.000000  0.000000 /   0.948683  0.316228  0.000000 ->   0.3396953554
    2:   0.000000  1.000000  0.000000 /   0.000000  1.000000  0.000000 ->   0.3977591051
    3:   0.000000  0.000000  1.000000 /   0.408248  0.408248  0.816497 ->   0.4797703200
    4:   0.577350  0.577350  0.577350 /   0.585539  0.688047  0.428644 ->   0.3200266686
    5:   0.000000  0.707107  0.707107 /   0.289489  0.762222  0.578977 ->   0.2983492575
    6:   0.707107  0.000000  0.707107 /   0.731423  0.422287  0.535439 ->   0.5650373453
    7:   0.707107  0.707107  0.000000 /   0.616798  0.787122  0.000000 ->   0.2997015155

 END OF EFFECTIVE MASSES SECTION

 ---- first-order wavefunction calculations are completed ----

 Total localisation tensor (bohr^2) in cartesian coordinates
  WARNING : still subject to testing - especially symmetries.
      direction              matrix element
   alpha     beta       real part   imaginary part
     1        1       3.5067179527    0.0000000000
     1        2       0.9918496992    0.0000000000
     1        3       2.4295254980    0.0000000000
     2        1       0.9918496992    0.0000000000
     2        2       2.8053745929    0.0000000000
     2        3       1.7179340725    0.0000000000
     3        1       2.4295254980    0.0000000000
     3        2       1.7179340725    0.0000000000
     3        3       6.3120934532    0.0000000000

 respfn : d/dk was computed, but no 2DTE, so no DDB output.

== END DATASET(S) ==============================================================

 -outvars: echo values of variables after computation  --------
            acell      1.0000000000E+00  1.0000000000E+00  1.0000000000E+00 Bohr
              amu      8.76200000E+01  3.20660000E+01
             ecut      3.40000000E+01 Hartree
           etotal     -2.2305779445E+01
            fcart      0.0000000000E+00  0.0000000000E+00  0.0000000000E+00
                       0.0000000000E+00  0.0000000000E+00  0.0000000000E+00
-          fftalg         512
           irdden           1
           irdwfk           1
           istwfk        1    1
              ixc     -116133
              kpt      0.00000000E+00  0.00000000E+00  0.00000000E+00
                       5.00000000E-01  0.00000000E+00  5.00000000E-01
           kptopt           0
P           mkmem           2
P          mkqmem           2
P          mk1mem           2
            natom           2
            nband          17
           nbdbuf           4
            ngfft          45      45      45
             nkpt           2
            nstep         100
             nsym          48
           ntypat           2
              occ      2.000000  2.000000  2.000000  2.000000  2.000000  2.000000
                       2.000000  2.000000  0.000000  0.000000  0.000000  0.000000
                       0.000000  0.000000  0.000000  0.000000  0.000000
        optdriver           1
            prtwf          -1
            rfdir           1       1       1
           rfelfd           2
            rprim      6.9067483807E+00  0.0000000000E+00  3.9876130368E+00
                       2.3022494602E+00  6.5117448213E+00  3.9876130368E+00
                       0.0000000000E+00  0.0000000000E+00  7.9752260737E+00
          spgroup         225
           strten      0.0000000000E+00  0.0000000000E+00  0.0000000000E+00
                       0.0000000000E+00  0.0000000000E+00  0.0000000000E+00
           symrel      1  0  0   0  1  0   0  0  1      -1  0  0   0 -1  0   0  0 -1
                       0 -1  1   0 -1  0   1 -1  0       0  1 -1   0  1  0  -1  1  0
                      -1  0  0  -1  0  1  -1  1  0       1  0  0   1  0 -1   1 -1  0
                       0  1 -1   1  0 -1   0  0 -1       0 -1  1  -1  0  1   0  0  1
                      -1  0  0  -1  1  0  -1  0  1       1  0  0   1 -1  0   1  0 -1
                       0 -1  1   1 -1  0   0 -1  0       0  1 -1  -1  1  0   0  1  0
                       1  0  0   0  0  1   0  1  0      -1  0  0   0  0 -1   0 -1  0
                       0  1 -1   0  0 -1   1  0 -1       0 -1  1   0  0  1  -1  0  1
                      -1  0  1  -1  1  0  -1  0  0       1  0 -1   1 -1  0   1  0  0
                       0 -1  0   1 -1  0   0 -1  1       0  1  0  -1  1  0   0  1 -1
                       1  0 -1   0  0 -1   0  1 -1      -1  0  1   0  0  1   0 -1  1
                       0  1  0   0  0  1   1  0  0       0 -1  0   0  0 -1  -1  0  0
                       1  0 -1   0  1 -1   0  0 -1      -1  0  1   0 -1  1   0  0  1
                       0 -1  0   0 -1  1   1 -1  0       0  1  0   0  1 -1  -1  1  0
                      -1  0  1  -1  0  0  -1  1  0       1  0 -1   1  0  0   1 -1  0
                       0  1  0   1  0  0   0  0  1       0 -1  0  -1  0  0   0  0 -1
                       0  0 -1   0  1 -1   1  0 -1       0  0  1   0 -1  1  -1  0  1
                       1 -1  0   0 -1  1   0 -1  0      -1  1  0   0  1 -1   0  1  0
                       0  0  1   1  0  0   0  1  0       0  0 -1  -1  0  0   0 -1  0
                      -1  1  0  -1  0  0  -1  0  1       1 -1  0   1  0  0   1  0 -1
                       0  0  1   0  1  0   1  0  0       0  0 -1   0 -1  0  -1  0  0
                       1 -1  0   0 -1  0   0 -1  1      -1  1  0   0  1  0   0  1 -1
                       0  0 -1   1  0 -1   0  1 -1       0  0  1  -1  0  1   0 -1  1
                      -1  1  0  -1  0  1  -1  0  0       1 -1  0   1  0 -1   1  0  0
           tolwfr      1.00000000E-20
            typat      1  2
           useylm           1
              wtk        0.50000    0.50000
           xangst      2.4365958857E+00  1.7229334738E+00  4.2203078715E+00
                       0.0000000000E+00  0.0000000000E+00  0.0000000000E+00
            xcart      4.6044989205E+00  3.2558724106E+00  7.9752260736E+00
                       0.0000000000E+00  0.0000000000E+00  0.0000000000E+00
             xred      5.0000000000E-01  5.0000000000E-01  5.0000000000E-01
                       0.0000000000E+00  0.0000000000E+00  0.0000000000E+00
            znucl       38.00000   16.00000

- Timing analysis has been suppressed with timopt=0

 Suggested references for the acknowledgment of ABINIT usage.

 Calculation completed.
.Delivered  14 WARNINGs and   9 COMMENTs to log file.