.Version 9.5.2 of ABINIT

 ABINIT is a project of the Universite Catholique de Louvain,
 Corning Inc. and other collaborators, see ~abinit/doc/developers/contributors.txt .
 acknowledgments of the ABINIT effort.

.Starting date : Mon 24 May 2021.
- ( at 10h54 )

- input  file    -> /scratch/users/j/a/jabreu/flow_simple_10atoms/flow/w271/t1/run.abi
- output file    -> /scratch/users/j/a/jabreu/flow_simple_10atoms/flow/w271/t1/run.abo
- root for input  files -> /scratch/users/j/a/jabreu/flow_simple_10atoms/flow/w271/t1/indata/in
- root for output files -> /scratch/users/j/a/jabreu/flow_simple_10atoms/flow/w271/t1/outdata/out

 Symmetries : space group Fm -3 m (#225); Bravais cF (face-center cubic)
     intxc =       0      iscf =       7    lmnmax =      32     lnmax =       8
     mgfft =      72  mpssoang =       4    mqgrid =    3001     natom =      10
  nloc_mem =       1    nspden =       1   nspinor =       1    nsppol =       1
      nsym =      48    n1xccc =    2501    ntypat =       4    occopt =       1
   xclevel =       2
-    mband =          50        mffmem =           1         mkmem =           1
-   mkqmem =           1        mk1mem =           1           mpw =       16889
      nfft =      373248          nkpt =           1
  Rough estimation (10% accuracy) of disk space for files :

------------- Echo of variables that govern the present computation ------------
-
- outvars: echo of selected default values
-   iomode0 =  0 , fftalg0 =512 , wfoptalg0 =  0
-
- outvars: echo of global parameters not present in the input file
-  max_nthreads =    0
-
 -outvars: echo values of preprocessed input variables --------
            acell      1.0000000000E+00  1.0000000000E+00  1.0000000000E+00 Bohr
              amu      1.32905430E+02  2.29897680E+01  2.04383300E+02
                       1.89984032E+01
             ecut      4.40000000E+01 Hartree
-          fftalg         512
           irdden           1
           irdwfk           1
           istwfk        1
              ixc     -116133
           kptopt           0
P           mkmem           1
P          mkqmem           1
P          mk1mem           1
            natom          10
            nband          50
           nbdbuf           4
            ngfft          72      72      72
             nkpt           1
            nstep        2000
             nsym          48
           ntypat           4
              occ      2.000000  2.000000  2.000000  2.000000  2.000000  2.000000
                       2.000000  2.000000  2.000000  2.000000  2.000000  2.000000
                       2.000000  2.000000  2.000000  2.000000  2.000000  2.000000
                       2.000000  2.000000  2.000000  2.000000  2.000000  2.000000
                       2.000000  2.000000  2.000000  2.000000  2.000000  2.000000
                       2.000000  2.000000  2.000000  2.000000  2.000000  2.000000
                       2.000000  2.000000  2.000000  2.000000  2.000000  0.000000
                       0.000000  0.000000  0.000000  0.000000  0.000000  0.000000
                       0.000000  0.000000
        optdriver           1
            prtwf          -1
            rfdir           1       1       1
           rfelfd           2
            rprim      1.0398864647E+01  0.0000000000E+00  6.0037873033E+00
                       3.4662882157E+00  9.8041436115E+00  6.0037873033E+00
                       0.0000000000E+00  0.0000000000E+00  1.2007574607E+01
          spgroup         225
           symrel      1  0  0   0  1  0   0  0  1      -1  0  0   0 -1  0   0  0 -1
                       0 -1  1   0 -1  0   1 -1  0       0  1 -1   0  1  0  -1  1  0
                      -1  0  0  -1  0  1  -1  1  0       1  0  0   1  0 -1   1 -1  0
                       0  1 -1   1  0 -1   0  0 -1       0 -1  1  -1  0  1   0  0  1
                      -1  0  0  -1  1  0  -1  0  1       1  0  0   1 -1  0   1  0 -1
                       0 -1  1   1 -1  0   0 -1  0       0  1 -1  -1  1  0   0  1  0
                       1  0  0   0  0  1   0  1  0      -1  0  0   0  0 -1   0 -1  0
                       0  1 -1   0  0 -1   1  0 -1       0 -1  1   0  0  1  -1  0  1
                      -1  0  1  -1  1  0  -1  0  0       1  0 -1   1 -1  0   1  0  0
                       0 -1  0   1 -1  0   0 -1  1       0  1  0  -1  1  0   0  1 -1
                       1  0 -1   0  0 -1   0  1 -1      -1  0  1   0  0  1   0 -1  1
                       0  1  0   0  0  1   1  0  0       0 -1  0   0  0 -1  -1  0  0
                       1  0 -1   0  1 -1   0  0 -1      -1  0  1   0 -1  1   0  0  1
                       0 -1  0   0 -1  1   1 -1  0       0  1  0   0  1 -1  -1  1  0
                      -1  0  1  -1  0  0  -1  1  0       1  0 -1   1  0  0   1 -1  0
                       0  1  0   1  0  0   0  0  1       0 -1  0  -1  0  0   0  0 -1
                       0  0 -1   0  1 -1   1  0 -1       0  0  1   0 -1  1  -1  0  1
                       1 -1  0   0 -1  1   0 -1  0      -1  1  0   0  1 -1   0  1  0
                       0  0  1   1  0  0   0  1  0       0  0 -1  -1  0  0   0 -1  0
                      -1  1  0  -1  0  0  -1  0  1       1 -1  0   1  0  0   1  0 -1
                       0  0  1   0  1  0   1  0  0       0  0 -1   0 -1  0  -1  0  0
                       1 -1  0   0 -1  0   0 -1  1      -1  1  0   0  1  0   0  1 -1
                       0  0 -1   1  0 -1   0  1 -1       0  0  1  -1  0  1   0 -1  1
                      -1  1  0  -1  0  1  -1  0  0       1 -1  0   1  0 -1   1  0  0
           tolwfr      1.00000000E-20
            typat      1  1  2  3  4  4  4  4  4  4
           useylm           1
           xangst      5.5028421665E+00  3.8910970117E+00  9.5312022183E+00
                       1.8342807222E+00  1.2970323372E+00  3.1770674061E+00
                       3.6685614443E+00  2.5940646745E+00  6.3541348122E+00
                       0.0000000000E+00  0.0000000000E+00  0.0000000000E+00
                       4.6126143721E+00  1.2589722203E+00  7.9892824483E+00
                       2.7245085165E+00  3.9291571286E+00  7.9892824483E+00
                       4.6126143721E+00  1.2589722203E+00  4.7189871762E+00
                       1.7804555886E+00  1.2589722203E+00  6.3541348122E+00
                       2.7245085165E+00  3.9291571286E+00  4.7189871762E+00
                       5.5566673000E+00  3.9291571286E+00  6.3541348122E+00
            xcart      1.0398864647E+01  7.3531077086E+00  1.8011361910E+01
                       3.4662882157E+00  2.4510359029E+00  6.0037873033E+00
                       6.9325764314E+00  4.9020718058E+00  1.2007574607E+01
                       0.0000000000E+00  0.0000000000E+00  0.0000000000E+00
                       8.7165779200E+00  2.3791127053E+00  1.5097555825E+01
                       5.1485749428E+00  7.4250309062E+00  1.5097555825E+01
                       8.7165779200E+00  2.3791127053E+00  8.9175933876E+00
                       3.3645734543E+00  2.3791127053E+00  1.2007574607E+01
                       5.1485749428E+00  7.4250309062E+00  8.9175933876E+00
                       1.0500579409E+01  7.4250309062E+00  1.2007574607E+01
             xred      7.5000000000E-01  7.5000000000E-01  7.5000000000E-01
                       2.5000000000E-01  2.5000000000E-01  2.5000000000E-01
                       5.0000000000E-01  5.0000000000E-01  5.0000000000E-01
                       0.0000000000E+00  0.0000000000E+00  0.0000000000E+00
                       7.5733600000E-01  2.4266400000E-01  7.5733600000E-01
                       2.4266400000E-01  7.5733600000E-01  7.5733600000E-01
                       7.5733600000E-01  2.4266400000E-01  2.4266400000E-01
                       2.4266400000E-01  2.4266400000E-01  7.5733600000E-01
                       2.4266400000E-01  7.5733600000E-01  2.4266400000E-01
                       7.5733600000E-01  7.5733600000E-01  2.4266400000E-01
            znucl       55.00000   11.00000   81.00000    9.00000

 chkinp: Checking input parameters for consistency.

== DATASET  1 ==================================================================
-   mpi_nproc: 1, omp_nthreads: -1 (-1 if OMP is not activated)

--- !DatasetInfo
iteration_state: {dtset: 1, }
dimensions: {natom: 10, nkpt: 1, mband: 50, nsppol: 1, nspinor: 1, nspden: 1, mpw: 16889, }
cutoff_energies: {ecut:  44.0, pawecutdg:  -1.0, }
electrons: {nelect:   8.20000000E+01, charge:   0.00000000E+00, occopt:   1.00000000E+00, tsmear:   1.00000000E-02, }
meta: {optdriver: 1, rfelfd: 2, }
...

 Real(R)+Recip(G) space primitive vectors, cartesian coordinates (Bohr,Bohr^-1):
 R(1)= 10.3988646  0.0000000  6.0037873  G(1)=  0.0961643 -0.0339992  0.0000000
 R(2)=  3.4662882  9.8041436  6.0037873  G(2)=  0.0000000  0.1019977  0.0000000
 R(3)=  0.0000000  0.0000000 12.0075746  G(3)= -0.0480822 -0.0339992  0.0832808
 Unit cell volume ucvol=  1.2241958E+03 bohr^3
 Angles (23,13,12)=  6.00000000E+01  6.00000000E+01  6.00000000E+01 degrees

 getcut: wavevector=  0.0000  0.0000  0.0000  ngfft=  72  72  72
         ecut(hartree)=     44.000   => boxcut(ratio)=   2.00810

--- Pseudopotential description ------------------------------------------------
- pspini: atom type   1  psp file is /scratch/users/j/a/jabreu/pseudos/PBEsol/Cs.psp8
- pspatm: opening atomic psp file    /scratch/users/j/a/jabreu/pseudos/PBEsol/Cs.psp8
- Cs    ONCVPSP-3.3.0  r_core=   2.27353   1.85623   2.01788   1.90105
- 55.00000   9.00000    180112                znucl, zion, pspdat
    8 -116133    3    4       600   0.00000   pspcod,pspxc,lmax,lloc,mmax,r2well
    5.99000000000000    5.00000000000000    0.00000000000000   rchrg,fchrg,qchrg
     nproj     2     2     2     2
     extension_switch     1
  pspatm : epsatm=   22.12462445
         --- l  ekb(1:nproj) -->
             0    6.214110    0.767882
             1    6.311966    0.793598
             2    3.769790    0.913105
             3   -9.247129   -2.432478
 pspatm: atomic psp has been read  and splines computed

- pspini: atom type   2  psp file is /scratch/users/j/a/jabreu/pseudos/PBEsol/Na.psp8
- pspatm: opening atomic psp file    /scratch/users/j/a/jabreu/pseudos/PBEsol/Na.psp8
- Na    ONCVPSP-3.3.0  r_core=   1.20708   1.55069
- 11.00000   9.00000    180112                znucl, zion, pspdat
    8 -116133    1    4       400   0.00000   pspcod,pspxc,lmax,lloc,mmax,r2well
    3.99000000000000    0.00000000000000    0.00000000000000   rchrg,fchrg,qchrg
     nproj     2     2
     extension_switch     1
  pspatm : epsatm=    9.32878306
         --- l  ekb(1:nproj) -->
             0    2.657905   -0.678300
             1   -6.761319   -2.404728
 pspatm: atomic psp has been read  and splines computed

[...]

- pspini: atom type   4  psp file is /scratch/users/j/a/jabreu/pseudos/PBEsol/F.psp8
- pspatm: opening atomic psp file    /scratch/users/j/a/jabreu/pseudos/PBEsol/F.psp8
- F     ONCVPSP-3.3.0  r_core=   1.30942   1.45782   1.60379
-  9.00000   7.00000    180112                znucl, zion, pspdat
    8 -116133    2    4       600   0.00000   pspcod,pspxc,lmax,lloc,mmax,r2well
[...]
solver: {iscf: 7, nstep: 2000, nline: 4, wfoptalg: 0, }
tolerances: {tolwfr: 1.00E-20, }
...

     iter   2DEtotal(Ha)        deltaE(Ha) residm    vres2
-ETOT  1  -45.648804145403     -4.565E+01 1.946E-02 0.000E+00
 ETOT  2  -45.683599918677     -3.480E-02 2.227E-04 0.000E+00
 ETOT  3  -45.683760870856     -1.610E-04 5.866E-05 0.000E+00
 ETOT  4  -45.683766163436     -5.293E-06 4.156E-06 0.000E+00
 ETOT  5  -45.683766440004     -2.766E-07 1.088E-06 0.000E+00
 ETOT  6  -45.683766457498     -1.749E-08 1.149E-07 0.000E+00
 ETOT  7  -45.683766458731     -1.233E-09 2.999E-08 0.000E+00
 ETOT  8  -45.683766458823     -9.226E-11 3.678E-09 0.000E+00
 ETOT  9  -45.683766458830     -7.212E-12 1.042E-09 0.000E+00
 ETOT 10  -45.683766458831     -5.187E-13 1.335E-10 0.000E+00
 ETOT 11  -45.683766458831     -7.816E-14 3.846E-11 0.000E+00
 ETOT 12  -45.683766458831      1.421E-14 5.093E-12 0.000E+00
 ETOT 13  -45.683766458831     -7.105E-15 1.474E-12 0.000E+00
 ETOT 14  -45.683766458831      0.000E+00 2.005E-13 0.000E+00
 ETOT 15  -45.683766458831      0.000E+00 5.748E-14 0.000E+00
 ETOT 16  -45.683766458831      0.000E+00 7.973E-15 0.000E+00
 ETOT 17  -45.683766458831      0.000E+00 2.265E-15 0.000E+00
 ETOT 18  -45.683766458831      0.000E+00 3.198E-16 0.000E+00
 ETOT 19  -45.683766458831      0.000E+00 8.985E-17 0.000E+00
 ETOT 20  -45.683766458831      7.105E-15 1.289E-17 0.000E+00
 ETOT 21  -45.683766458831     -1.421E-14 3.582E-18 0.000E+00
 ETOT 22  -45.683766458831      7.105E-15 5.355E-19 0.000E+00
 ETOT 23  -45.683766458831      0.000E+00 1.434E-19 0.000E+00
 ETOT 24  -45.683766458831      0.000E+00 2.296E-20 0.000E+00
 ETOT 25  -45.683766458831      0.000E+00 9.978E-21 0.000E+00

 At SCF step   25   max residual=  9.98E-21 < tolwfr=  1.00E-20 =>converged.

 ----iterations are completed or convergence reached----

 dfpt_looppert: DFPT cycle converged with prtwf=-1. Will skip output of the 1st-order WFK file.
 dfpt_looppert : ek2=    6.7357235811E+01
          f-sum rule ratio=    1.0824114891E+00
 prteigrs : about to open file /scratch/users/j/a/jabreu/flow_simple_10atoms/flow/w271/t1/tmpdata/tmp_1WF1_EIG
 Expectation of eigenvalue derivatives (hartree) for nkpt=   1  k points:
  (in case of degenerate eigenvalues, averaged derivative)
 kpt#   1, nband= 50, wtk=  1.00000, kpt=  0.0000  0.0000  0.0000 (reduced coord)
  -0.00000    0.00000   -0.00000   -0.00000   -0.00000   -0.00000   -0.00000   -0.00000
  -0.00000   -0.00000   -0.00000    0.00000    0.00000    0.00000   -0.00000   -0.00000
  -0.00000    0.00000    0.00000    0.00000   -0.00000    0.00000    0.00000    0.00000
   0.00000    0.00000    0.00000    0.00000    0.00000    0.00000    0.00000    0.00000
   0.00000   -0.00000   -0.00000   -0.00000   -0.00000   -0.00000   -0.00000   -0.00000
  -0.00000   -0.00000   -0.00000   -0.00000   -0.00000   -0.00000   -0.00000    0.00000
  -0.00000   -0.00000

 Eight components of 2nd-order total energy (hartree) are
 1,2,3: 0th-order hamiltonian combined with 1st-order wavefunctions
     kin0=   5.50672662E+01 eigvalue=   3.49138573E+00  local=  -2.58019813E+01
 4,5,6: 1st-order hamiltonian combined with 1st and 0th-order wfs
     kin1=  -7.29082459E+01  Hartree=   0.00000000E+00     xc=   0.00000000E+00
 7,8,9: eventually, occupation + non-local contributions
    edocc=   8.06928604E+00     enl0=   4.85780978E+00   enl1=  -1.84592870E+01
 1-9 gives the relaxation energy (to be shifted if some occ is /=2.0)
   erelax=  -4.56837665E+01
  No Ewald or frozen-wf contrib.: the relaxation energy is the total one
 2DEtotal=   -0.4568376646E+02 Ha. Also 2DEtotal=   -0.124311850528E+04 eV
    (  non-var. 2DEtotal :   -4.5683766459E+01 Ha)

 CALCULATION OF EFFECTIVE MASSES
 NOTE : Additional infos (eff. mass eigenvalues, eigenvectors and, if degenerate, average mass) are available in stdout.

 COMMENTS:
 - At k-point ( 0.000, 0.000, 0.000), bands    40 through    41
   are DEGENERATE (effective mass tensor is therefore not defined).
   See Section IIIB Eqs. (67)-(70) and Appendix E of PRB 93 205147 (2016).
 - Angular average effective mass for Frohlich model is to be averaged over degenerate bands. See later.
 - Associated theta integrals calculated with ntheta=   1000 points.

 K-point ( 0.000, 0.000, 0.000) | band =    40
 Transport equivalent effective mass tensor:
             -5.1479267162             -0.0000023821              0.0000000367
             -0.0000023821             -5.1479156719              0.0000000269
              0.0000000367              0.0000000269             -5.1478680087
 Transport equivalent effective mass tensor eigenvalues:
             -5.1479272081             -5.1479151800             -5.1478680087
 Angular average effective mass 1/(<1/m>)=  -4.0133367519
 Angular average effective mass for Frohlich model (<m**0.5>)**2=  -4.0720407241
 Effective masses along directions: (cart. coord. / red. coord. -> eff. mass)
    1:   1.000000  0.000000  0.000000 /   0.948683  0.316228  0.000000 ->  -4.2601771521
    2:   0.000000  1.000000  0.000000 /   0.000000  1.000000  0.000000 ->  -6.3576743113
    3:   0.000000  0.000000  1.000000 /   0.408248  0.408248  0.816497 ->  -4.2601771625
    4:   0.577350  0.577350  0.577350 /   0.585539  0.688047  0.428644 ->  -4.2850339884
    5:   0.000000  0.707107  0.707107 /   0.289489  0.762222  0.578977 ->  -3.6569365826
    6:   0.707107  0.000000  0.707107 /   0.731423  0.422287  0.535439 ->  -4.2601771311
    7:   0.707107  0.707107  0.000000 /   0.616798  0.787122  0.000000 ->  -3.2729970794

 K-point ( 0.000, 0.000, 0.000) | band =    41
 Transport equivalent effective mass tensor:
          -1169.2315106121              0.0001906054              0.0000054936
              0.0001906054          -1169.2314857406              0.0000047395
              0.0000054936              0.0000047395          -1169.2313863105
 Transport equivalent effective mass tensor eigenvalues:
          -1169.2316891890          -1169.2313869609          -1169.2313065133
 Angular average effective mass 1/(<1/m>)= -15.2878975301
 Angular average effective mass for Frohlich model (<m**0.5>)**2= -22.6209695171
 Effective masses along directions: (cart. coord. / red. coord. -> eff. mass)
    1:   1.000000  0.000000  0.000000 /   0.948683  0.316228  0.000000 -> -12.5237294882
    2:   0.000000  1.000000  0.000000 /   0.000000  1.000000  0.000000 ->  -6.3576743999
    3:   0.000000  0.000000  1.000000 /   0.408248  0.408248  0.816497 -> -12.5237295213
    4:   0.577350  0.577350  0.577350 /   0.585539  0.688047  0.428644 -> -12.3137445973
    5:   0.000000  0.707107  0.707107 /   0.289489  0.762222  0.578977 -> -24.3146205182
    6:   0.707107  0.000000  0.707107 /   0.731423  0.422287  0.535439 -> -12.5237294875
    7:   0.707107  0.707107  0.000000 /   0.616798  0.787122  0.000000 -> **************

 Angular average effective mass for Frohlich model, averaged over degenerate bands.
 Value of     (<<m**0.5>>)**2 =     1.147204E+01
 Absolute Value of <<m**0.5>> =     3.387040E+00

 K-point ( 0.000, 0.000, 0.000) | band =    42
 Effective mass tensor:
              0.7082206521             -0.0000000001             -0.0000000004
             -0.0000000001              0.7082206522             -0.0000000002
             -0.0000000004             -0.0000000002              0.7082206518
 Effective mass tensor eigenvalues:
              0.7082206515              0.7082206523              0.7082206524
 Angular average effective mass 1/(<1/m>)=   0.7082206521
 Angular average effective mass for Frohlich model (<m**0.5>)**2=   0.7082206521
 Effective masses along directions: (cart. coord. / red. coord. -> eff. mass)
    1:   1.000000  0.000000  0.000000 /   0.948683  0.316228  0.000000 ->   0.7082206521
    2:   0.000000  1.000000  0.000000 /   0.000000  1.000000  0.000000 ->   0.7082206522
    3:   0.000000  0.000000  1.000000 /   0.408248  0.408248  0.816497 ->   0.7082206518
    4:   0.577350  0.577350  0.577350 /   0.585539  0.688047  0.428644 ->   0.7082206516
    5:   0.000000  0.707107  0.707107 /   0.289489  0.762222  0.578977 ->   0.7082206518
    6:   0.707107  0.000000  0.707107 /   0.731423  0.422287  0.535439 ->   0.7082206516
    7:   0.707107  0.707107  0.000000 /   0.616798  0.787122  0.000000 ->   0.7082206520

 END OF EFFECTIVE MASSES SECTION

 ---- first-order wavefunction calculations are completed ----

 Total localisation tensor (bohr^2) in cartesian coordinates
  WARNING : still subject to testing - especially symmetries.
      direction              matrix element
   alpha     beta       real part   imaginary part
     1        1       0.9286149021    0.0000000000
     1        2       0.2626519577    0.0000000000
     1        3       0.6433632765    0.0000000000
     2        1       0.2626519577    0.0000000000
     2        2       0.7428919217    0.0000000000
     2        3       0.4549265355    0.0000000000
     3        1       0.6433632765    0.0000000000
     3        2       0.4549265355    0.0000000000
     3        3       1.6715068237    0.0000000000

 respfn : d/dk was computed, but no 2DTE, so no DDB output.

== END DATASET(S) ==============================================================

 -outvars: echo values of variables after computation  --------
            acell      1.0000000000E+00  1.0000000000E+00  1.0000000000E+00 Bohr
              amu      1.32905430E+02  2.29897680E+01  2.04383300E+02
                       1.89984032E+01
             ecut      4.40000000E+01 Hartree
           etotal     -4.5683766459E+01
            fcart      0.0000000000E+00  0.0000000000E+00  0.0000000000E+00
                       0.0000000000E+00  0.0000000000E+00  0.0000000000E+00
                       0.0000000000E+00  0.0000000000E+00  0.0000000000E+00
                       0.0000000000E+00  0.0000000000E+00  0.0000000000E+00
                       0.0000000000E+00  0.0000000000E+00  0.0000000000E+00
                       0.0000000000E+00  0.0000000000E+00  0.0000000000E+00
                       0.0000000000E+00  0.0000000000E+00  0.0000000000E+00
                       0.0000000000E+00  0.0000000000E+00  0.0000000000E+00
                       0.0000000000E+00  0.0000000000E+00  0.0000000000E+00
                       0.0000000000E+00  0.0000000000E+00  0.0000000000E+00
-          fftalg         512
           irdden           1
           irdwfk           1
           istwfk        1
              ixc     -116133
           kptopt           0
P           mkmem           1
P          mkqmem           1
P          mk1mem           1
            natom          10
            nband          50
           nbdbuf           4
            ngfft          72      72      72
             nkpt           1
            nstep        2000
             nsym          48
           ntypat           4
              occ      2.000000  2.000000  2.000000  2.000000  2.000000  2.000000
                       2.000000  2.000000  2.000000  2.000000  2.000000  2.000000
                       2.000000  2.000000  2.000000  2.000000  2.000000  2.000000
                       2.000000  2.000000  2.000000  2.000000  2.000000  2.000000
                       2.000000  2.000000  2.000000  2.000000  2.000000  2.000000
                       2.000000  2.000000  2.000000  2.000000  2.000000  2.000000
                       2.000000  2.000000  2.000000  2.000000  2.000000  0.000000
                       0.000000  0.000000  0.000000  0.000000  0.000000  0.000000
                       0.000000  0.000000
        optdriver           1
            prtwf          -1
            rfdir           1       1       1
           rfelfd           2
            rprim      1.0398864647E+01  0.0000000000E+00  6.0037873033E+00
                       3.4662882157E+00  9.8041436115E+00  6.0037873033E+00
                       0.0000000000E+00  0.0000000000E+00  1.2007574607E+01
          spgroup         225
           strten      0.0000000000E+00  0.0000000000E+00  0.0000000000E+00
                       0.0000000000E+00  0.0000000000E+00  0.0000000000E+00
           symrel      1  0  0   0  1  0   0  0  1      -1  0  0   0 -1  0   0  0 -1
                       0 -1  1   0 -1  0   1 -1  0       0  1 -1   0  1  0  -1  1  0
                      -1  0  0  -1  0  1  -1  1  0       1  0  0   1  0 -1   1 -1  0
                       0  1 -1   1  0 -1   0  0 -1       0 -1  1  -1  0  1   0  0  1
                      -1  0  0  -1  1  0  -1  0  1       1  0  0   1 -1  0   1  0 -1
                       0 -1  1   1 -1  0   0 -1  0       0  1 -1  -1  1  0   0  1  0
                       1  0  0   0  0  1   0  1  0      -1  0  0   0  0 -1   0 -1  0
                       0  1 -1   0  0 -1   1  0 -1       0 -1  1   0  0  1  -1  0  1
                      -1  0  1  -1  1  0  -1  0  0       1  0 -1   1 -1  0   1  0  0
                       0 -1  0   1 -1  0   0 -1  1       0  1  0  -1  1  0   0  1 -1
                       1  0 -1   0  0 -1   0  1 -1      -1  0  1   0  0  1   0 -1  1
                       0  1  0   0  0  1   1  0  0       0 -1  0   0  0 -1  -1  0  0
                       1  0 -1   0  1 -1   0  0 -1      -1  0  1   0 -1  1   0  0  1
                       0 -1  0   0 -1  1   1 -1  0       0  1  0   0  1 -1  -1  1  0
                      -1  0  1  -1  0  0  -1  1  0       1  0 -1   1  0  0   1 -1  0
                       0  1  0   1  0  0   0  0  1       0 -1  0  -1  0  0   0  0 -1
                       0  0 -1   0  1 -1   1  0 -1       0  0  1   0 -1  1  -1  0  1
                       1 -1  0   0 -1  1   0 -1  0      -1  1  0   0  1 -1   0  1  0
                       0  0  1   1  0  0   0  1  0       0  0 -1  -1  0  0   0 -1  0
                      -1  1  0  -1  0  0  -1  0  1       1 -1  0   1  0  0   1  0 -1
                       0  0  1   0  1  0   1  0  0       0  0 -1   0 -1  0  -1  0  0
                       1 -1  0   0 -1  0   0 -1  1      -1  1  0   0  1  0   0  1 -1
                       0  0 -1   1  0 -1   0  1 -1       0  0  1  -1  0  1   0 -1  1
                      -1  1  0  -1  0  1  -1  0  0       1 -1  0   1  0 -1   1  0  0
           tolwfr      1.00000000E-20
            typat      1  1  2  3  4  4  4  4  4  4
           useylm           1
           xangst      5.5028421665E+00  3.8910970117E+00  9.5312022183E+00
                       1.8342807222E+00  1.2970323372E+00  3.1770674061E+00
                       3.6685614443E+00  2.5940646745E+00  6.3541348122E+00
                       0.0000000000E+00  0.0000000000E+00  0.0000000000E+00
                       4.6126143721E+00  1.2589722203E+00  7.9892824483E+00
                       2.7245085165E+00  3.9291571286E+00  7.9892824483E+00
                       4.6126143721E+00  1.2589722203E+00  4.7189871762E+00
                       1.7804555886E+00  1.2589722203E+00  6.3541348122E+00
                       2.7245085165E+00  3.9291571286E+00  4.7189871762E+00
                       5.5566673000E+00  3.9291571286E+00  6.3541348122E+00
            xcart      1.0398864647E+01  7.3531077086E+00  1.8011361910E+01
                       3.4662882157E+00  2.4510359029E+00  6.0037873033E+00
                       6.9325764314E+00  4.9020718058E+00  1.2007574607E+01
                       0.0000000000E+00  0.0000000000E+00  0.0000000000E+00
                       8.7165779200E+00  2.3791127053E+00  1.5097555825E+01
                       5.1485749428E+00  7.4250309062E+00  1.5097555825E+01
                       8.7165779200E+00  2.3791127053E+00  8.9175933876E+00
                       3.3645734543E+00  2.3791127053E+00  1.2007574607E+01
                       5.1485749428E+00  7.4250309062E+00  8.9175933876E+00
                       1.0500579409E+01  7.4250309062E+00  1.2007574607E+01
             xred      7.5000000000E-01  7.5000000000E-01  7.5000000000E-01
                       2.5000000000E-01  2.5000000000E-01  2.5000000000E-01
                       5.0000000000E-01  5.0000000000E-01  5.0000000000E-01
                       0.0000000000E+00  0.0000000000E+00  0.0000000000E+00
                       7.5733600000E-01  2.4266400000E-01  7.5733600000E-01
                       2.4266400000E-01  7.5733600000E-01  7.5733600000E-01
                       7.5733600000E-01  2.4266400000E-01  2.4266400000E-01
                       2.4266400000E-01  2.4266400000E-01  7.5733600000E-01
                       2.4266400000E-01  7.5733600000E-01  2.4266400000E-01
                       7.5733600000E-01  7.5733600000E-01  2.4266400000E-01
            znucl       55.00000   11.00000   81.00000    9.00000

- Timing analysis has been suppressed with timopt=0

 Suggested references for the acknowledgment of ABINIT usage.

 Calculation completed.
.Delivered   2 WARNINGs and   5 COMMENTs to log file.