.Version 9.5.1 of ABINIT

 ABINIT is a project of the Universite Catholique de Louvain,
 Corning Inc. and other collaborators, see ~abinit/doc/developers/contributors.txt .
 acknowledgments of the ABINIT effort.

.Starting date : Tue 11 May 2021.
- ( at 22h04 )

- input  file    -> /scratch/users/j/a/jabreu/flow_simple_8atoms/flow/w384/t1/run.abi
- output file    -> /scratch/users/j/a/jabreu/flow_simple_8atoms/flow/w384/t1/run.abo
- root for input  files -> /scratch/users/j/a/jabreu/flow_simple_8atoms/flow/w384/t1/indata/in
- root for output files -> /scratch/users/j/a/jabreu/flow_simple_8atoms/flow/w384/t1/outdata/out

 Symmetries : space group I-4 2 d (#122); Bravais tI (body-center tetrag.)
     intxc =       0      iscf =       7    lmnmax =      18     lnmax =       6
     mgfft =      72  mpssoang =       3    mqgrid =    3001     natom =       8
  nloc_mem =       1    nspden =       1   nspinor =       1    nsppol =       1
      nsym =       8    n1xccc =    2501    ntypat =       3    occopt =       1
   xclevel =       2
-    mband =          43        mffmem =           1         mkmem =           1
-   mkqmem =           1        mk1mem =           1           mpw =       11015
      nfft =      373248          nkpt =           1
  Rough estimation (10% accuracy) of disk space for files :

------------- Echo of variables that govern the present computation ------------
-
- outvars: echo of selected default values
-   iomode0 =  0 , fftalg0 =512 , wfoptalg0 =  0
-
- outvars: echo of global parameters not present in the input file
-  max_nthreads =    0
-
 -outvars: echo values of preprocessed input variables --------
            acell      1.0000000000E+00  1.0000000000E+00  1.0000000000E+00 Bohr
              amu      6.35460000E+01  1.08110000E+01  3.20660000E+01
             ecut      4.60000000E+01 Hartree
-          fftalg         512
           irdden           1
           irdwfk           1
           istwfk        1
              ixc     -116133
           kptopt           0
P           mkmem           1
P          mkqmem           1
P          mk1mem           1
            natom           8
            nband          43
           nbdbuf           4
            ngfft          72      72      72
             nkpt           1
            nstep        2000
             nsym           8
           ntypat           3
              occ      2.000000  2.000000  2.000000  2.000000  2.000000  2.000000
                       2.000000  2.000000  2.000000  2.000000  2.000000  2.000000
                       2.000000  2.000000  2.000000  2.000000  2.000000  2.000000
                       2.000000  2.000000  2.000000  2.000000  2.000000  2.000000
                       2.000000  2.000000  2.000000  2.000000  2.000000  2.000000
                       2.000000  2.000000  2.000000  2.000000  0.000000  0.000000
                       0.000000  0.000000  0.000000  0.000000  0.000000  0.000000
                       0.000000
        optdriver           1
            prtwf          -1
            rfdir           1       1       1
           rfelfd           2
            rprim      8.4111348892E+00  0.0000000000E+00 -6.7487426197E+00
                      -1.9358358660E+00  8.1853362560E+00 -6.7487426197E+00
                       0.0000000000E+00  0.0000000000E+00  1.0783910101E+01
          spgroup         122
           symrel      1  0  0   0  1  0   0  0  1       0  0  1  -1 -1 -1   1  0  0
                       0  1  0   1  0  0  -1 -1 -1      -1 -1 -1   0  0  1   0  1  0
                       0  1  0   1  0  0   0  0  1       0  0  1  -1 -1 -1   0  1  0
                       1  0  0   0  1  0  -1 -1 -1      -1 -1 -1   0  0  1   1  0  0
            tnons      0.0000000  0.0000000  0.0000000    -0.2500000  0.2500000  0.5000000
                       0.0000000  0.0000000  0.0000000    -0.2500000  0.2500000  0.5000000
                      -0.2500000  0.2500000  0.5000000     0.0000000  0.0000000  0.0000000
                      -0.2500000  0.2500000  0.5000000     0.0000000  0.0000000  0.0000000
           tolwfr      1.00000000E-20
            typat      1  1  2  2  3  3  3  3
           useylm           1
           xangst      0.0000000000E+00  0.0000000000E+00  0.0000000000E+00
                       3.0821356063E+00  1.0828733478E+00 -7.1798105847E-01
                       3.4444505554E-01  3.2486200435E+00 -7.1798105847E-01
                       1.7132903309E+00  2.1657466957E+00 -3.5712807810E+00
                       6.5475288215E-01  5.4143667392E-01  2.0691074584E+00
                       3.4583449011E+00  1.8446617535E+00 -4.3554730452E+00
                       1.9151826143E+00  2.7071833696E+00 -1.7194291848E+00
                       8.2488092626E-01  3.5697049856E+00  1.1338705377E+00
            xcart      0.0000000000E+00  0.0000000000E+00  0.0000000000E+00
                       5.8243922004E+00  2.0463340640E+00 -1.3567875691E+00
                       6.5090682280E-01  6.1390021920E+00 -1.3567875691E+00
                       3.2376495116E+00  4.0926681280E+00 -6.7487426197E+00
                       1.2373036320E+00  1.0231670320E+00  3.9100464358E+00
                       6.5353247361E+00  3.4859055220E+00 -8.2306512345E+00
                       3.6191706354E+00  5.1158351600E+00 -3.2492502641E+00
                       1.5587990429E+00  6.7457647980E+00  2.1427047865E+00
             xred      0.0000000000E+00  0.0000000000E+00  0.0000000000E+00
                       7.5000000000E-01  2.5000000000E-01  5.0000000000E-01
                       2.5000000000E-01  7.5000000000E-01  5.0000000000E-01
                       5.0000000000E-01  5.0000000000E-01  1.1102230246E-16
                       1.7587200000E-01  1.2500000000E-01  5.5087200000E-01
                       8.7500000000E-01  4.2587200000E-01  5.0872000000E-02
                       5.7412800000E-01  6.2500000000E-01  4.4912800000E-01
                       3.7500000000E-01  8.2412800000E-01  9.4912800000E-01
            znucl       29.00000    5.00000   16.00000

 chkinp: Checking input parameters for consistency.

== DATASET  1 ==================================================================
-   mpi_nproc: 1, omp_nthreads: -1 (-1 if OMP is not activated)

--- !DatasetInfo
iteration_state: {dtset: 1, }
dimensions: {natom: 8, nkpt: 1, mband: 43, nsppol: 1, nspinor: 1, nspden: 1, mpw: 11015, }
cutoff_energies: {ecut:  46.0, pawecutdg:  -1.0, }
electrons: {nelect:   6.80000000E+01, charge:   0.00000000E+00, occopt:   1.00000000E+00, tsmear:   1.00000000E-02, }
meta: {optdriver: 1, rfelfd: 2, }
...

 Real(R)+Recip(G) space primitive vectors, cartesian coordinates (Bohr,Bohr^-1):
 R(1)=  8.4111349  0.0000000 -6.7487426  G(1)=  0.1188900  0.0281175  0.0000000
 R(2)= -1.9358359  8.1853363 -6.7487426  G(2)=  0.0000000  0.1221697  0.0000000
 R(3)=  0.0000000  0.0000000 10.7839101  G(3)=  0.0744033  0.0940521  0.0927307
 Unit cell volume ucvol=  7.4245029E+02 bohr^3
 Angles (23,13,12)=  1.28742099E+02  1.28742099E+02  7.54259029E+01 degrees

 getcut: wavevector=  0.0000  0.0000  0.0000  ngfft=  72  72  72
         ecut(hartree)=     46.000   => boxcut(ratio)=   2.18738

--- Pseudopotential description ------------------------------------------------
- pspini: atom type   1  psp file is /scratch/users/j/a/jabreu/pseudos/PBEsol/Cu.psp8
- pspatm: opening atomic psp file    /scratch/users/j/a/jabreu/pseudos/PBEsol/Cu.psp8
- Cu    ONCVPSP-3.3.0  r_core=   1.26204   1.45626   1.76249
- 29.00000  19.00000    180112                znucl, zion, pspdat
    8 -116133    2    4       600   0.00000   pspcod,pspxc,lmax,lloc,mmax,r2well
    5.99000000000000    3.50000000000000    0.00000000000000   rchrg,fchrg,qchrg
     nproj     2     2     2
     extension_switch     1
  pspatm : epsatm=   21.63488701
         --- l  ekb(1:nproj) -->
             0    5.008230   -0.401634
             1   -3.496700   -0.765945
             2   -6.895851   -2.521180
 pspatm: atomic psp has been read  and splines computed

- pspini: atom type   2  psp file is /scratch/users/j/a/jabreu/pseudos/PBEsol/B.psp8
- pspatm: opening atomic psp file    /scratch/users/j/a/jabreu/pseudos/PBEsol/B.psp8
- B     ONCVPSP-3.3.0  r_core=   1.20849   1.20849
-  5.00000   3.00000    180112                znucl, zion, pspdat
    8 -116133    1    4       600   0.00000   pspcod,pspxc,lmax,lloc,mmax,r2well
    5.99000000000000    2.90000000000000    0.00000000000000   rchrg,fchrg,qchrg
     nproj     2     2
     extension_switch     1
  pspatm : epsatm=    3.20154566
         --- l  ekb(1:nproj) -->
             0    8.466603    1.247630
             1   -3.609180   -0.822621
 pspatm: atomic psp has been read  and splines computed

- pspini: atom type   3  psp file is /scratch/users/j/a/jabreu/pseudos/PBEsol/S.psp8
- pspatm: opening atomic psp file    /scratch/users/j/a/jabreu/pseudos/PBEsol/S.psp8
- S     ONCVPSP-3.3.0  r_core=   1.45376   1.45376   1.61851
- 16.00000   6.00000    180112                znucl, zion, pspdat
    8 -116133    2    4       600   0.00000   pspcod,pspxc,lmax,lloc,mmax,r2well
    5.99000000000000    6.00000000000000    0.00000000000000   rchrg,fchrg,qchrg
     nproj     2     2     2
     extension_switch     1
  pspatm : epsatm=    8.71840985
         --- l  ekb(1:nproj) -->
             0    6.834532    0.579453
             1    3.282851    0.896984
             2   -3.496974   -0.974265
 pspatm: atomic psp has been read  and splines computed

   5.74916232E+03                                ecore*ucvol(ha*bohr**3)

-inwffil : will read wavefunctions from disk file /scratch/users/j/a/jabreu/flow_simple_8atoms/flow/w384/t1/indata/in_WFK

 ==>  initialize data related to q vector <==

 The list of irreducible perturbations for this q vector is:
    1)    idir= 1    ipert=   9
    2)    idir= 2    ipert=   9
    3)    idir= 3    ipert=   9

 Perturbation wavevector (in red.coord.)   0.000000  0.000000  0.000000
 Perturbation : derivative vs k along direction   1

 dfpt_looppert : COMMENT -
  In a d/dk calculation, iscf is set to -3 automatically.
 The set of symmetries contains only one element for this perturbation.
 symkpt : not enough symmetry to change the number of k points.

[...]

 Initialisation of the first-order wave-functions :
  ireadwf=   0

--- !BeginCycle
iteration_state: {dtset: 1, }
solver: {iscf: 7, nstep: 2000, nline: 4, wfoptalg: 0, }
tolerances: {tolwfr: 1.00E-20, }
...

     iter   2DEtotal(Ha)        deltaE(Ha) residm    vres2
-ETOT  1  -48.743821876118     -4.874E+01 9.921E-02 0.000E+00
 ETOT  2  -48.927887048196     -1.841E-01 2.069E-03 0.000E+00
 ETOT  3  -48.934555485333     -6.668E-03 9.664E-05 0.000E+00
 ETOT  4  -48.934923804225     -3.683E-04 5.334E-06 0.000E+00
 ETOT  5  -48.934947941132     -2.414E-05 3.972E-07 0.000E+00
 ETOT  6  -48.934949600855     -1.660E-06 2.612E-08 0.000E+00
 ETOT  7  -48.934949719354     -1.185E-07 2.164E-09 0.000E+00
 ETOT  8  -48.934949727986     -8.632E-09 1.465E-10 0.000E+00
 ETOT  9  -48.934949728626     -6.399E-10 1.261E-11 0.000E+00
 ETOT 10  -48.934949728674     -4.795E-11 8.526E-13 0.000E+00
 ETOT 11  -48.934949728677     -3.588E-12 7.507E-14 0.000E+00
 ETOT 12  -48.934949728678     -2.913E-13 5.050E-15 0.000E+00
 ETOT 13  -48.934949728678     -2.132E-14 4.567E-16 0.000E+00
 ETOT 14  -48.934949728678     -1.421E-14 3.027E-17 0.000E+00
 ETOT 15  -48.934949728678     -5.684E-14 2.803E-18 0.000E+00
 ETOT 16  -48.934949728678      4.974E-14 1.841E-19 0.000E+00
 ETOT 17  -48.934949728678      3.553E-14 1.728E-20 0.000E+00
 ETOT 18  -48.934949728678     -5.684E-14 9.443E-21 0.000E+00

 At SCF step   18   max residual=  9.44E-21 < tolwfr=  1.00E-20 =>converged.

 ----iterations are completed or convergence reached----

 dfpt_looppert: DFPT cycle converged with prtwf=-1. Will skip output of the 1st-order WFK file.
 dfpt_looppert : ek2=    8.0135618820E+01
          f-sum rule ratio=    1.1758728231E+00
 prteigrs : about to open file /scratch/users/j/a/jabreu/flow_simple_8atoms/flow/w384/t1/tmpdata/tmp_1WF1_EIG
 Expectation of eigenvalue derivatives (hartree) for nkpt=   1  k points:
  (in case of degenerate eigenvalues, averaged derivative)
 kpt#   1, nband= 43, wtk=  1.00000, kpt=  0.0000  0.0000  0.0000 (reduced coord)
   0.00000   -0.00000   -0.00000    0.00000   -0.00000   -0.00000   -0.00000   -0.00000
   0.00000   -0.00000   -0.00000   -0.00000    0.00000    0.00000   -0.00000   -0.00000
  -0.00000    0.00000    0.00000    0.00000    0.00000    0.00000   -0.00000   -0.00000
   0.00000   -0.00000   -0.00000   -0.00000   -0.00000   -0.00000   -0.00000   -0.00000
  -0.00000   -0.00000    0.00000   -0.00000   -0.00000   -0.00000   -0.00000    0.00000
  -0.00000    0.00000    0.00000

 Eight components of 2nd-order total energy (hartree) are
 1,2,3: 0th-order hamiltonian combined with 1st-order wavefunctions
     kin0=   5.64578670E+01 eigvalue=  -2.38156525E+00  local=  -2.23086750E+01
 4,5,6: 1st-order hamiltonian combined with 1st and 0th-order wfs
     kin1=  -9.42292963E+01  Hartree=   0.00000000E+00     xc=   0.00000000E+00
 7,8,9: eventually, occupation + non-local contributions
    edocc=   1.82828697E+01     enl0=  -1.11554671E+00   enl1=  -3.64060312E+00
 1-9 gives the relaxation energy (to be shifted if some occ is /=2.0)
   erelax=  -4.89349497E+01
  No Ewald or frozen-wf contrib.: the relaxation energy is the total one
 2DEtotal=   -0.4893494973E+02 Ha. Also 2DEtotal=   -0.133158770124E+04 eV
    (  non-var. 2DEtotal :   -4.8934949728E+01 Ha)

 Perturbation wavevector (in red.coord.)   0.000000  0.000000  0.000000
 Perturbation : derivative vs k along direction   2
 The set of symmetries contains only one element for this perturbation.
 symkpt : not enough symmetry to change the number of k points.

[...]

 Perturbation wavevector (in red.coord.)   0.000000  0.000000  0.000000
 Perturbation : derivative vs k along direction   3
 The set of symmetries contains only one element for this perturbation.
 symkpt : not enough symmetry to change the number of k points.

-inwffil : will read wavefunctions from disk file /scratch/users/j/a/jabreu/flow_simple_8atoms/flow/w384/t1/indata/in_WFK

 Initialisation of the first-order wave-functions :
  ireadwf=   0

--- !BeginCycle
iteration_state: {dtset: 1, }
solver: {iscf: 7, nstep: 2000, nline: 4, wfoptalg: 0, }
tolerances: {tolwfr: 1.00E-20, }
...

     iter   2DEtotal(Ha)        deltaE(Ha) residm    vres2
-ETOT  1  -76.030567698633     -7.603E+01 1.457E-01 0.000E+00
 ETOT  2  -76.269526043920     -2.390E-01 3.013E-03 0.000E+00
 ETOT  3  -76.277319518983     -7.793E-03 1.253E-04 0.000E+00
 ETOT  4  -76.277722711504     -4.032E-04 9.303E-06 0.000E+00
 ETOT  5  -76.277748448991     -2.574E-05 7.101E-07 0.000E+00
 ETOT  6  -76.277750207376     -1.758E-06 4.350E-08 0.000E+00
 ETOT  7  -76.277750332998     -1.256E-07 4.397E-09 0.000E+00
 ETOT  8  -76.277750342206     -9.207E-09 2.700E-10 0.000E+00
 ETOT  9  -76.277750342893     -6.875E-10 2.773E-11 0.000E+00
 ETOT 10  -76.277750342945     -5.204E-11 1.707E-12 0.000E+00
 ETOT 11  -76.277750342949     -3.922E-12 1.763E-13 0.000E+00
 ETOT 12  -76.277750342949     -3.837E-13 1.087E-14 0.000E+00
 ETOT 13  -76.277750342949      8.527E-14 1.125E-15 0.000E+00
 ETOT 14  -76.277750342950     -1.421E-13 6.958E-17 0.000E+00
 ETOT 15  -76.277750342949      2.842E-14 7.203E-18 0.000E+00
 ETOT 16  -76.277750342949      1.279E-13 4.464E-19 0.000E+00
 ETOT 17  -76.277750342949     -2.842E-14 4.618E-20 0.000E+00
 ETOT 18  -76.277750342949     -2.842E-14 9.241E-21 0.000E+00

 At SCF step   18   max residual=  9.24E-21 < tolwfr=  1.00E-20 =>converged.

 ----iterations are completed or convergence reached----

 dfpt_looppert: DFPT cycle converged with prtwf=-1. Will skip output of the 1st-order WFK file.
 dfpt_looppert : ek2=    1.2338456129E+02
          f-sum rule ratio=    1.1939218598E+00
 prteigrs : about to open file /scratch/users/j/a/jabreu/flow_simple_8atoms/flow/w384/t1/tmpdata/tmp_1WF1_EIG
 Expectation of eigenvalue derivatives (hartree) for nkpt=   1  k points:
  (in case of degenerate eigenvalues, averaged derivative)
 kpt#   1, nband= 43, wtk=  1.00000, kpt=  0.0000  0.0000  0.0000 (reduced coord)
  -0.00000   -0.00000   -0.00000    0.00000    0.00000    0.00000   -0.00000   -0.00000
   0.00000   -0.00000   -0.00000   -0.00000    0.00000   -0.00000   -0.00000   -0.00000
  -0.00000   -0.00000    0.00000    0.00000    0.00000    0.00000   -0.00000   -0.00000
  -0.00000   -0.00000    0.00000   -0.00000   -0.00000   -0.00000    0.00000   -0.00000
  -0.00000    0.00000    0.00000   -0.00000   -0.00000   -0.00000   -0.00000    0.00000
   0.00000    0.00000   -0.00002

 Eight components of 2nd-order total energy (hartree) are
 1,2,3: 0th-order hamiltonian combined with 1st-order wavefunctions
     kin0=   8.73201329E+01 eigvalue=  -3.89689803E+00  local=  -3.44719012E+01
 4,5,6: 1st-order hamiltonian combined with 1st and 0th-order wfs
     kin1=  -1.47311525E+02  Hartree=   0.00000000E+00     xc=   0.00000000E+00
 7,8,9: eventually, occupation + non-local contributions
    edocc=   2.93639980E+01     enl0=  -2.03758130E+00   enl1=  -5.24397580E+00
 1-9 gives the relaxation energy (to be shifted if some occ is /=2.0)
   erelax=  -7.62777503E+01
  No Ewald or frozen-wf contrib.: the relaxation energy is the total one
 2DEtotal=   -0.7627775034E+02 Ha. Also 2DEtotal=   -0.207562314456E+04 eV
    (  non-var. 2DEtotal :   -7.6277750342E+01 Ha)

 CALCULATION OF EFFECTIVE MASSES
 NOTE : Additional infos (eff. mass eigenvalues, eigenvectors and, if degenerate, average mass) are available in stdout.

 K-point ( 0.000, 0.000, 0.000) | band =    34
 Effective mass tensor:
             -0.6672888669              0.0531577431             -0.0876566425
              0.0531577431             -0.6421453060             -0.1108055848
             -0.0876566425             -0.1108055848             -0.5266247038
 Effective mass tensor eigenvalues:
             -0.7093415796             -0.7093412069             -0.4173760901
 Angular average effective mass 1/(<1/m>)=  -0.5752154060
 Angular average effective mass for Frohlich model (<m**0.5>)**2=  -0.5869728627
 Effective masses along directions: (cart. coord. / red. coord. -> eff. mass)
    1:   1.000000  0.000000  0.000000 /   0.974523 -0.224288  0.000000 ->  -0.6444138541
    2:   0.000000  1.000000  0.000000 /   0.000000  1.000000  0.000000 ->  -0.6109763236
    3:   0.000000  0.000000  1.000000 /  -0.468636 -0.468636  0.748840 ->  -0.4933605831
    4:   0.577350  0.577350  0.577350 /   0.152196 -0.045707  0.987293 ->  -0.7085737335
    5:   0.000000  0.707107  0.707107 /  -0.527146  0.112213  0.842333 ->  -0.6860802929
    6:   0.707107  0.000000  0.707107 /   0.119206 -0.622749  0.773287 ->  -0.6696661811
    7:   0.707107  0.707107  0.000000 /   0.802688  0.596400  0.000000 ->  -0.5637580221

 K-point ( 0.000, 0.000, 0.000) | band =    35
 Effective mass tensor:
              0.4336839791              0.1007404373             -0.1661193525
              0.1007404373              0.4813341280             -0.2099890525
             -0.1661193525             -0.2099890525              0.7002582721
 Effective mass tensor eigenvalues:
              0.3539896275              0.3539896690              0.9072970828
 Angular average effective mass 1/(<1/m>)=   0.4443090091
 Angular average effective mass for Frohlich model (<m**0.5>)**2=   0.4661526454
 Effective masses along directions: (cart. coord. / red. coord. -> eff. mass)
    1:   1.000000  0.000000  0.000000 /   0.974523 -0.224288  0.000000 ->   0.3880772258
    2:   0.000000  1.000000  0.000000 /   0.000000  1.000000  0.000000 ->   0.4117862621
    3:   0.000000  0.000000  1.000000 /  -0.468636 -0.468636  0.748840 ->   0.5724732397
    4:   0.577350  0.577350  0.577350 /   0.152196 -0.045707  0.987293 ->   0.3543244047
    5:   0.000000  0.707107  0.707107 /  -0.527146  0.112213  0.842333 ->   0.3647714019
    6:   0.707107  0.000000  0.707107 /   0.119206 -0.622749  0.773287 ->   0.3732691039
    7:   0.707107  0.707107  0.000000 /   0.802688  0.596400  0.000000 ->   0.4568375108

 END OF EFFECTIVE MASSES SECTION

 ---- first-order wavefunction calculations are completed ----

 Total localisation tensor (bohr^2) in cartesian coordinates
  WARNING : still subject to testing - especially symmetries.
      direction              matrix element
   alpha     beta       real part   imaginary part
     1        1       1.7042947612    0.0000000000
     1        2      -0.3625134941    0.0000000000
     1        3      -0.9997755225    0.0000000000
     2        1      -0.3625134941    0.0000000000
     2        2       1.5328235717    0.0000000000
     2        3      -1.2638004650    0.0000000000
     3        1      -0.9997755225    0.0000000000
     3        2      -1.2638004650    0.0000000000
     3        3       6.2764244566    0.0000000000

 respfn : d/dk was computed, but no 2DTE, so no DDB output.

== END DATASET(S) ==============================================================

 -outvars: echo values of variables after computation  --------
            acell      1.0000000000E+00  1.0000000000E+00  1.0000000000E+00 Bohr
              amu      6.35460000E+01  1.08110000E+01  3.20660000E+01
             ecut      4.60000000E+01 Hartree
           etotal     -7.6277750343E+01
            fcart      0.0000000000E+00  0.0000000000E+00  0.0000000000E+00
                       0.0000000000E+00  0.0000000000E+00  0.0000000000E+00
                       0.0000000000E+00  0.0000000000E+00  0.0000000000E+00
                       0.0000000000E+00  0.0000000000E+00  0.0000000000E+00
                       0.0000000000E+00  0.0000000000E+00  0.0000000000E+00
                       0.0000000000E+00  0.0000000000E+00  0.0000000000E+00
                       0.0000000000E+00  0.0000000000E+00  0.0000000000E+00
                       0.0000000000E+00  0.0000000000E+00  0.0000000000E+00
-          fftalg         512
           irdden           1
           irdwfk           1
           istwfk        1
              ixc     -116133
           kptopt           0
P           mkmem           1
P          mkqmem           1
P          mk1mem           1
            natom           8
            nband          43
           nbdbuf           4
            ngfft          72      72      72
             nkpt           1
            nstep        2000
             nsym           8
           ntypat           3
              occ      2.000000  2.000000  2.000000  2.000000  2.000000  2.000000
                       2.000000  2.000000  2.000000  2.000000  2.000000  2.000000
                       2.000000  2.000000  2.000000  2.000000  2.000000  2.000000
                       2.000000  2.000000  2.000000  2.000000  2.000000  2.000000
                       2.000000  2.000000  2.000000  2.000000  2.000000  2.000000
                       2.000000  2.000000  2.000000  2.000000  0.000000  0.000000
                       0.000000  0.000000  0.000000  0.000000  0.000000  0.000000
                       0.000000
        optdriver           1
            prtwf          -1
            rfdir           1       1       1
           rfelfd           2
            rprim      8.4111348892E+00  0.0000000000E+00 -6.7487426197E+00
                      -1.9358358660E+00  8.1853362560E+00 -6.7487426197E+00
                       0.0000000000E+00  0.0000000000E+00  1.0783910101E+01
          spgroup         122
           strten      0.0000000000E+00  0.0000000000E+00  0.0000000000E+00
                       0.0000000000E+00  0.0000000000E+00  0.0000000000E+00
           symrel      1  0  0   0  1  0   0  0  1       0  0  1  -1 -1 -1   1  0  0
                       0  1  0   1  0  0  -1 -1 -1      -1 -1 -1   0  0  1   0  1  0
                       0  1  0   1  0  0   0  0  1       0  0  1  -1 -1 -1   0  1  0
                       1  0  0   0  1  0  -1 -1 -1      -1 -1 -1   0  0  1   1  0  0
            tnons      0.0000000  0.0000000  0.0000000    -0.2500000  0.2500000  0.5000000
                       0.0000000  0.0000000  0.0000000    -0.2500000  0.2500000  0.5000000
                      -0.2500000  0.2500000  0.5000000     0.0000000  0.0000000  0.0000000
                      -0.2500000  0.2500000  0.5000000     0.0000000  0.0000000  0.0000000
           tolwfr      1.00000000E-20
            typat      1  1  2  2  3  3  3  3
           useylm           1
           xangst      0.0000000000E+00  0.0000000000E+00  0.0000000000E+00
                       3.0821356063E+00  1.0828733478E+00 -7.1798105847E-01
                       3.4444505554E-01  3.2486200435E+00 -7.1798105847E-01
                       1.7132903309E+00  2.1657466957E+00 -3.5712807810E+00
                       6.5475288215E-01  5.4143667392E-01  2.0691074584E+00
                       3.4583449011E+00  1.8446617535E+00 -4.3554730452E+00
                       1.9151826143E+00  2.7071833696E+00 -1.7194291848E+00
                       8.2488092626E-01  3.5697049856E+00  1.1338705377E+00
            xcart      0.0000000000E+00  0.0000000000E+00  0.0000000000E+00
                       5.8243922004E+00  2.0463340640E+00 -1.3567875691E+00
                       6.5090682280E-01  6.1390021920E+00 -1.3567875691E+00
                       3.2376495116E+00  4.0926681280E+00 -6.7487426197E+00
                       1.2373036320E+00  1.0231670320E+00  3.9100464358E+00
                       6.5353247361E+00  3.4859055220E+00 -8.2306512345E+00
                       3.6191706354E+00  5.1158351600E+00 -3.2492502641E+00
                       1.5587990429E+00  6.7457647980E+00  2.1427047865E+00
             xred      0.0000000000E+00  0.0000000000E+00  0.0000000000E+00
                       7.5000000000E-01  2.5000000000E-01  5.0000000000E-01
                       2.5000000000E-01  7.5000000000E-01  5.0000000000E-01
                       5.0000000000E-01  5.0000000000E-01  1.1102230246E-16
                       1.7587200000E-01  1.2500000000E-01  5.5087200000E-01
                       8.7500000000E-01  4.2587200000E-01  5.0872000000E-02
                       5.7412800000E-01  6.2500000000E-01  4.4912800000E-01
                       3.7500000000E-01  8.2412800000E-01  9.4912800000E-01
            znucl       29.00000    5.00000   16.00000

- Timing analysis has been suppressed with timopt=0

 Suggested references for the acknowledgment of ABINIT usage.

 Calculation completed.
.Delivered   6 WARNINGs and   5 COMMENTs to log file.