.Version 9.5.1 of ABINIT

 ABINIT is a project of the Universite Catholique de Louvain,
 Corning Inc. and other collaborators, see ~abinit/doc/developers/contributors.txt .
 acknowledgments of the ABINIT effort.

.Starting date : Sun 25 Apr 2021.
- ( at 17h26 )

- input  file    -> /scratch/users/j/a/jabreu/flow_simple2/flow/w229/t1/run.abi
- output file    -> /scratch/users/j/a/jabreu/flow_simple2/flow/w229/t1/run.abo
- root for input  files -> /scratch/users/j/a/jabreu/flow_simple2/flow/w229/t1/indata/in
- root for output files -> /scratch/users/j/a/jabreu/flow_simple2/flow/w229/t1/outdata/out

 Symmetries : space group F-4 3 m (#216); Bravais cF (face-center cubic)
     intxc =       0      iscf =       7    lmnmax =      18     lnmax =       6
     mgfft =      45  mpssoang =       3    mqgrid =    3001     natom =       2
  nloc_mem =       1    nspden =       1   nspinor =       1    nsppol =       1
      nsym =      24    n1xccc =    2501    ntypat =       2    occopt =       1
   xclevel =       2
-    mband =          22        mffmem =           1         mkmem =           1
-   mkqmem =           1        mk1mem =           1           mpw =        3383
      nfft =       91125          nkpt =           1
  Rough estimation (10% accuracy) of disk space for files :

------------- Echo of variables that govern the present computation ------------
-
- outvars: echo of selected default values
-   iomode0 =  0 , fftalg0 =512 , wfoptalg0 =  0
-
- outvars: echo of global parameters not present in the input file
-  max_nthreads =    0
-
 -outvars: echo values of preprocessed input variables --------
            acell      1.0000000000E+00  1.0000000000E+00  1.0000000000E+00 Bohr
              amu      6.53900000E+01  3.20660000E+01
             ecut      4.20000000E+01 Hartree
-          fftalg         512
           irdden           1
           irdwfk           1
           istwfk        1
              ixc     -116133
           kptopt           0
P           mkmem           1
P          mkqmem           1
P          mk1mem           1
            natom           2
            nband          22
           nbdbuf           4
            ngfft          45      45      45
             nkpt           1
            nstep         100
             nsym          24
           ntypat           2
              occ      2.000000  2.000000  2.000000  2.000000  2.000000  2.000000
                       2.000000  2.000000  2.000000  2.000000  2.000000  2.000000
                       2.000000  0.000000  0.000000  0.000000  0.000000  0.000000
                       0.000000  0.000000  0.000000  0.000000
        optdriver           1
            prtwf          -1
            rfdir           1       1       1
           rfelfd           2
            rprim      6.1969956298E+00  0.0000000000E+00  3.5778370950E+00
                       2.0656652099E+00  5.8425835104E+00  3.5778370950E+00
                       0.0000000000E+00  0.0000000000E+00  7.1556741900E+00
          spgroup         216
           symrel      1  0  0   0  1  0   0  0  1       0 -1  1   0 -1  0   1 -1  0
                      -1  0  0  -1  0  1  -1  1  0       0  1 -1   1  0 -1   0  0 -1
                      -1  0  0  -1  1  0  -1  0  1       0 -1  1   1 -1  0   0 -1  0
                       1  0  0   0  0  1   0  1  0       0  1 -1   0  0 -1   1  0 -1
                      -1  0  1  -1  1  0  -1  0  0       0 -1  0   1 -1  0   0 -1  1
                       1  0 -1   0  0 -1   0  1 -1       0  1  0   0  0  1   1  0  0
                       1  0 -1   0  1 -1   0  0 -1       0 -1  0   0 -1  1   1 -1  0
                      -1  0  1  -1  0  0  -1  1  0       0  1  0   1  0  0   0  0  1
                       0  0 -1   0  1 -1   1  0 -1       1 -1  0   0 -1  1   0 -1  0
                       0  0  1   1  0  0   0  1  0      -1  1  0  -1  0  0  -1  0  1
                       0  0  1   0  1  0   1  0  0       1 -1  0   0 -1  0   0 -1  1
                       0  0 -1   1  0 -1   0  1 -1      -1  1  0  -1  0  1  -1  0  0
           tolwfr      1.00000000E-20
            typat      1  2
           useylm           1
           xangst      0.0000000000E+00  0.0000000000E+00  0.0000000000E+00
                       1.0931029497E+00  7.7294050825E-01  1.8933098467E+00
            xcart      0.0000000000E+00  0.0000000000E+00  0.0000000000E+00
                       2.0656652099E+00  1.4606458776E+00  3.5778370950E+00
             xred      0.0000000000E+00  0.0000000000E+00  0.0000000000E+00
                       2.5000000000E-01  2.5000000000E-01  2.5000000000E-01
            znucl       30.00000   16.00000

 chkinp: Checking input parameters for consistency.

== DATASET  1 ==================================================================
-   mpi_nproc: 1, omp_nthreads: -1 (-1 if OMP is not activated)

--- !DatasetInfo
iteration_state: {dtset: 1, }
dimensions: {natom: 2, nkpt: 1, mband: 22, nsppol: 1, nspinor: 1, nspden: 1, mpw: 3383, }
cutoff_energies: {ecut:  42.0, pawecutdg:  -1.0, }
electrons: {nelect:   2.60000000E+01, charge:   0.00000000E+00, occopt:   1.00000000E+00, tsmear:   1.00000000E-02, }
meta: {optdriver: 1, rfelfd: 2, }
...

 Real(R)+Recip(G) space primitive vectors, cartesian coordinates (Bohr,Bohr^-1):
 R(1)=  6.1969956  0.0000000  3.5778371  G(1)=  0.1613685 -0.0570524  0.0000000
 R(2)=  2.0656652  5.8425835  3.5778371  G(2)=  0.0000000  0.1711572  0.0000000
 R(3)=  0.0000000  0.0000000  7.1556742  G(3)= -0.0806843 -0.0570524  0.1397492
 Unit cell volume ucvol=  2.5908166E+02 bohr^3
 Angles (23,13,12)=  6.00000000E+01  6.00000000E+01  6.00000000E+01 degrees

 getcut: wavevector=  0.0000  0.0000  0.0000  ngfft=  45  45  45
         ecut(hartree)=     42.000   => boxcut(ratio)=   2.10772

--- Pseudopotential description ------------------------------------------------
- pspini: atom type   1  psp file is /scratch/users/j/a/jabreu/pseudos/PBEsol/Zn.psp8
- pspatm: opening atomic psp file    /scratch/users/j/a/jabreu/pseudos/PBEsol/Zn.psp8
- Zn    ONCVPSP-3.3.0  r_core=   1.35823   1.66358   1.85211
- 30.00000  20.00000    180112                znucl, zion, pspdat
    8 -116133    2    4       600   0.00000   pspcod,pspxc,lmax,lloc,mmax,r2well
    5.99000000000000    2.50000000000000    0.00000000000000   rchrg,fchrg,qchrg
     nproj     2     2     2
     extension_switch     1
  pspatm : epsatm=   26.57343589
         --- l  ekb(1:nproj) -->
             0    2.830835   -1.519107
             1   -4.626739   -1.324150
             2   -6.948510   -2.555500
 pspatm: atomic psp has been read  and splines computed

- pspini: atom type   2  psp file is /scratch/users/j/a/jabreu/pseudos/PBEsol/S.psp8
- pspatm: opening atomic psp file    /scratch/users/j/a/jabreu/pseudos/PBEsol/S.psp8
- S     ONCVPSP-3.3.0  r_core=   1.45376   1.45376   1.61851
- 16.00000   6.00000    180112                znucl, zion, pspdat
    8 -116133    2    4       600   0.00000   pspcod,pspxc,lmax,lloc,mmax,r2well
    5.99000000000000    6.00000000000000    0.00000000000000   rchrg,fchrg,qchrg
     nproj     2     2     2
     extension_switch     1
  pspatm : epsatm=    8.71840985
         --- l  ekb(1:nproj) -->
             0    6.834532    0.579453
             1    3.282851    0.896984
             2   -3.496974   -0.974265
 pspatm: atomic psp has been read  and splines computed

   9.17587989E+02                                ecore*ucvol(ha*bohr**3)

-inwffil : will read wavefunctions from disk file /scratch/users/j/a/jabreu/flow_simple2/flow/w229/t1/indata/in_WFK

 ==>  initialize data related to q vector <==

 The list of irreducible perturbations for this q vector is:
    1)    idir= 1    ipert=   3
    2)    idir= 2    ipert=   3
    3)    idir= 3    ipert=   3

 Perturbation wavevector (in red.coord.)   0.000000  0.000000  0.000000
 Perturbation : derivative vs k along direction   1

 dfpt_looppert : COMMENT -
  In a d/dk calculation, iscf is set to -3 automatically.
 The set of symmetries contains only one element for this perturbation.
 symkpt : not enough symmetry to change the number of k points.

[...]

 Initialisation of the first-order wave-functions :
  ireadwf=   0

--- !BeginCycle
iteration_state: {dtset: 1, }
solver: {iscf: 7, nstep: 100, nline: 4, wfoptalg: 0, }
tolerances: {tolwfr: 1.00E-20, }
...

     iter   2DEtotal(Ha)        deltaE(Ha) residm    vres2
-ETOT  1  -53.663364251740     -5.366E+01 4.793E-02 0.000E+00
 ETOT  2  -53.691979078298     -2.861E-02 9.003E-05 0.000E+00
 ETOT  3  -53.692035889625     -5.681E-05 1.874E-06 0.000E+00
 ETOT  4  -53.692036101789     -2.122E-07 1.713E-09 0.000E+00
 ETOT  5  -53.692036102717     -9.283E-10 2.010E-10 0.000E+00
 ETOT  6  -53.692036102722     -4.334E-12 1.748E-13 0.000E+00
 ETOT  7  -53.692036102721      2.842E-14 6.590E-14 0.000E+00
 ETOT  8  -53.692036102721      2.132E-14 5.878E-17 0.000E+00
 ETOT  9  -53.692036102722     -3.553E-14 2.600E-17 0.000E+00
 ETOT 10  -53.692036102721      7.105E-15 2.797E-20 0.000E+00
 ETOT 11  -53.692036102722     -2.132E-14 1.096E-20 0.000E+00
 ETOT 12  -53.692036102722      1.421E-14 8.908E-21 0.000E+00

 At SCF step   12   max residual=  8.91E-21 < tolwfr=  1.00E-20 =>converged.

 ----iterations are completed or convergence reached----

 dfpt_looppert: DFPT cycle converged with prtwf=-1. Will skip output of the 1st-order WFK file.
 dfpt_looppert : ek2=    6.0138587446E+01
          f-sum rule ratio=    1.6735804983E+00
 prteigrs : about to open file /scratch/users/j/a/jabreu/flow_simple2/flow/w229/t1/tmpdata/tmp_1WF1_EIG
 Expectation of eigenvalue derivatives (hartree) for nkpt=   1  k points:
  (in case of degenerate eigenvalues, averaged derivative)
 kpt#   1, nband= 22, wtk=  1.00000, kpt=  0.0000  0.0000  0.0000 (reduced coord)
  -0.00000   -0.00000   -0.00000   -0.00000    0.00000    0.00000    0.00000    0.00000
  -0.00000   -0.00000    0.00000    0.00000    0.00000    0.00000   -0.00000   -0.00000
  -0.00000    0.00000    0.00000    0.00000    0.00000    0.00000

 Eight components of 2nd-order total energy (hartree) are
 1,2,3: 0th-order hamiltonian combined with 1st-order wavefunctions
     kin0=   4.05899227E+01 eigvalue=   9.35778552E-01  local=  -1.42435937E+01
 4,5,6: 1st-order hamiltonian combined with 1st and 0th-order wfs
     kin1=  -1.00646767E+02  Hartree=   0.00000000E+00     xc=   0.00000000E+00
 7,8,9: eventually, occupation + non-local contributions
    edocc=   2.68926306E+01     enl0=  -4.82701962E-01   enl1=  -6.73730506E+00
 1-9 gives the relaxation energy (to be shifted if some occ is /=2.0)
   erelax=  -5.36920361E+01
  No Ewald or frozen-wf contrib.: the relaxation energy is the total one
 2DEtotal=   -0.5369203610E+02 Ha. Also 2DEtotal=   -0.146103460462E+04 eV
    (  non-var. 2DEtotal :   -5.3692036103E+01 Ha)

 Perturbation wavevector (in red.coord.)   0.000000  0.000000  0.000000
 Perturbation : derivative vs k along direction   2
 The set of symmetries contains only one element for this perturbation.
 symkpt : not enough symmetry to change the number of k points.

[...]

 Perturbation wavevector (in red.coord.)   0.000000  0.000000  0.000000
 Perturbation : derivative vs k along direction   3
 The set of symmetries contains only one element for this perturbation.
 symkpt : not enough symmetry to change the number of k points.

-inwffil : will read wavefunctions from disk file /scratch/users/j/a/jabreu/flow_simple2/flow/w229/t1/indata/in_WFK

 Initialisation of the first-order wave-functions :
  ireadwf=   0

--- !BeginCycle
iteration_state: {dtset: 1, }
solver: {iscf: 7, nstep: 100, nline: 4, wfoptalg: 0, }
tolerances: {tolwfr: 1.00E-20, }
...

     iter   2DEtotal(Ha)        deltaE(Ha) residm    vres2
-ETOT  1  -53.655152538274     -5.366E+01 5.257E-02 0.000E+00
 ETOT  2  -53.691939500730     -3.679E-02 1.904E-04 0.000E+00
 ETOT  3  -53.692035720871     -9.622E-05 2.095E-06 0.000E+00
 ETOT  4  -53.692036098521     -3.776E-07 1.543E-09 0.000E+00
 ETOT  5  -53.692036100195     -1.675E-09 2.089E-10 0.000E+00
 ETOT  6  -53.692036100203     -7.809E-12 1.594E-13 0.000E+00
 ETOT  7  -53.692036100203     -1.137E-13 7.969E-14 0.000E+00
 ETOT  8  -53.692036100203     -7.105E-15 6.350E-17 0.000E+00
 ETOT  9  -53.692036100203     -2.842E-14 3.079E-17 0.000E+00
 ETOT 10  -53.692036100203      7.105E-15 3.015E-20 0.000E+00
 ETOT 11  -53.692036100203      1.421E-14 1.333E-20 0.000E+00
 ETOT 12  -53.692036100203     -7.105E-15 9.425E-21 0.000E+00

 At SCF step   12   max residual=  9.43E-21 < tolwfr=  1.00E-20 =>converged.

 ----iterations are completed or convergence reached----

 dfpt_looppert: DFPT cycle converged with prtwf=-1. Will skip output of the 1st-order WFK file.
 dfpt_looppert : ek2=    6.0138587447E+01
          f-sum rule ratio=    1.6735804981E+00
 prteigrs : about to open file /scratch/users/j/a/jabreu/flow_simple2/flow/w229/t1/tmpdata/tmp_1WF1_EIG
 Expectation of eigenvalue derivatives (hartree) for nkpt=   1  k points:
  (in case of degenerate eigenvalues, averaged derivative)
 kpt#   1, nband= 22, wtk=  1.00000, kpt=  0.0000  0.0000  0.0000 (reduced coord)
  -0.00000    0.00000    0.00000    0.00000    0.00000    0.00000    0.00000    0.00000
   0.00000    0.00000    0.00000    0.00000    0.00000    0.00000   -0.00000   -0.00000
  -0.00000    0.00000    0.00000   -0.00000   -0.00000   -0.00000

 Eight components of 2nd-order total energy (hartree) are
 1,2,3: 0th-order hamiltonian combined with 1st-order wavefunctions
     kin0=   4.02447170E+01 eigvalue=   9.13448889E-01  local=  -1.40740060E+01
 4,5,6: 1st-order hamiltonian combined with 1st and 0th-order wfs
     kin1=  -1.00646767E+02  Hartree=   0.00000000E+00     xc=   0.00000000E+00
 7,8,9: eventually, occupation + non-local contributions
    edocc=   2.69850064E+01     enl0=  -3.77130214E-01   enl1=  -6.73730506E+00
 1-9 gives the relaxation energy (to be shifted if some occ is /=2.0)
   erelax=  -5.36920361E+01
  No Ewald or frozen-wf contrib.: the relaxation energy is the total one
 2DEtotal=   -0.5369203610E+02 Ha. Also 2DEtotal=   -0.146103460455E+04 eV
    (  non-var. 2DEtotal :   -5.3692036100E+01 Ha)

 CALCULATION OF EFFECTIVE MASSES
 NOTE : Additional infos (eff. mass eigenvalues, eigenvectors and, if degenerate, average mass) are available in stdout.

 COMMENTS:
 - At k-point ( 0.000, 0.000, 0.000), bands    11 through    13
   are DEGENERATE (effective mass tensor is therefore not defined).
   See Section IIIB Eqs. (67)-(70) and Appendix E of PRB 93 205147 (2016).
 - Angular average effective mass for Frohlich model is to be averaged over degenerate bands. See later.
 - Associated theta integrals calculated with ntheta=   1000 points.

 K-point ( 0.000, 0.000, 0.000) | band =    11
 Transport equivalent effective mass tensor:
             -0.1607181413             -0.0000000000              0.0000000000
             -0.0000000000             -0.1607181413              0.0000000000
              0.0000000000              0.0000000000             -0.1607181413
 Transport equivalent effective mass tensor eigenvalues:
             -0.1607181413             -0.1607181413             -0.1607181413
 Angular average effective mass 1/(<1/m>)=  -0.1534883629
 Angular average effective mass for Frohlich model (<m**0.5>)**2=  -0.1539684517
 Effective masses along directions: (cart. coord. / red. coord. -> eff. mass)
    1:   1.000000  0.000000  0.000000 /   0.948683  0.316228  0.000000 ->  -0.1476589445
    2:   0.000000  1.000000  0.000000 /   0.000000  1.000000  0.000000 ->  -0.1403538462
    3:   0.000000  0.000000  1.000000 /   0.408248  0.408248  0.816497 ->  -0.1488579116
    4:   0.577350  0.577350  0.577350 /   0.585539  0.688047  0.428644 ->  -0.1475744303
    5:   0.000000  0.707107  0.707107 /   0.289489  0.762222  0.578977 ->  -0.1592456477
    6:   0.707107  0.000000  0.707107 /   0.731423  0.422287  0.535439 ->  -0.1482503871
    7:   0.707107  0.707107  0.000000 /   0.616798  0.787122  0.000000 ->  -0.1763971328

[...]

 K-point ( 0.000, 0.000, 0.000) | band =    13
 Transport equivalent effective mass tensor:
             -8.5016900315              0.0000097857             -0.0000000005
              0.0000097857             -8.5016878903             -0.0000000006
             -0.0000000005             -0.0000000006             -8.5016797781
 Transport equivalent effective mass tensor eigenvalues:
             -8.5016988050             -8.5016797781             -8.5016791168
 Angular average effective mass 1/(<1/m>)=  -1.4530911879
 Angular average effective mass for Frohlich model (<m**0.5>)**2=  -1.6610559103
 Effective masses along directions: (cart. coord. / red. coord. -> eff. mass)
    1:   1.000000  0.000000  0.000000 /   0.948683  0.316228  0.000000 ->  -1.5546019037
    2:   0.000000  1.000000  0.000000 /   0.000000  1.000000  0.000000 ->  -1.4330772554
    3:   0.000000  0.000000  1.000000 /   0.408248  0.408248  0.816497 ->  -3.4391987032
    4:   0.577350  0.577350  0.577350 /   0.585539  0.688047  0.428644 ->  -1.8206823314
    5:   0.000000  0.707107  0.707107 /   0.289489  0.762222  0.578977 ->  -1.3132577038
    6:   0.707107  0.000000  0.707107 /   0.731423  0.422287  0.535439 ->  -2.3417513586
    7:   0.707107  0.707107  0.000000 /   0.616798  0.787122  0.000000 ->  -0.7275517960

 Angular average effective mass for Frohlich model, averaged over degenerate bands.
 Value of     (<<m**0.5>>)**2 =     7.289003E-01
 Absolute Value of <<m**0.5>> =     8.537566E-01

 K-point ( 0.000, 0.000, 0.000) | band =    14
 Effective mass tensor:
              0.1670201593              0.0000000000             -0.0000000000
              0.0000000000              0.1670201593             -0.0000000000
             -0.0000000000             -0.0000000000              0.1670201593
 Effective mass tensor eigenvalues:
              0.1670201593              0.1670201593              0.1670201593
 Angular average effective mass 1/(<1/m>)=   0.1670201593
 Angular average effective mass for Frohlich model (<m**0.5>)**2=   0.1670201593
 Effective masses along directions: (cart. coord. / red. coord. -> eff. mass)
    1:   1.000000  0.000000  0.000000 /   0.948683  0.316228  0.000000 ->   0.1670201593
    2:   0.000000  1.000000  0.000000 /   0.000000  1.000000  0.000000 ->   0.1670201593
    3:   0.000000  0.000000  1.000000 /   0.408248  0.408248  0.816497 ->   0.1670201593
    4:   0.577350  0.577350  0.577350 /   0.585539  0.688047  0.428644 ->   0.1670201593
    5:   0.000000  0.707107  0.707107 /   0.289489  0.762222  0.578977 ->   0.1670201593
    6:   0.707107  0.000000  0.707107 /   0.731423  0.422287  0.535439 ->   0.1670201593
    7:   0.707107  0.707107  0.000000 /   0.616798  0.787122  0.000000 ->   0.1670201593

 END OF EFFECTIVE MASSES SECTION

 ---- first-order wavefunction calculations are completed ----

 Total localisation tensor (bohr^2) in cartesian coordinates
  WARNING : still subject to testing - especially symmetries.
      direction              matrix element
   alpha     beta       real part   imaginary part
     1        1       4.3859579642    0.0000000000
     1        2       1.2405362472    0.0000000000
     1        3       3.0386808134    0.0000000000
     2        1       1.2405362472    0.0000000000
     2        2       3.5087663708    0.0000000000
     2        3       2.1486718087    0.0000000000
     3        1       3.0386808134    0.0000000000
     3        2       2.1486718087    0.0000000000
     3        3       7.8947243334    0.0000000000

 respfn : d/dk was computed, but no 2DTE, so no DDB output.

== END DATASET(S) ==============================================================

 -outvars: echo values of variables after computation  --------
            acell      1.0000000000E+00  1.0000000000E+00  1.0000000000E+00 Bohr
              amu      6.53900000E+01  3.20660000E+01
             ecut      4.20000000E+01 Hartree
           etotal     -5.3692036100E+01
            fcart      0.0000000000E+00  0.0000000000E+00  0.0000000000E+00
                       0.0000000000E+00  0.0000000000E+00  0.0000000000E+00
-          fftalg         512
           irdden           1
           irdwfk           1
           istwfk        1
              ixc     -116133
           kptopt           0
P           mkmem           1
P          mkqmem           1
P          mk1mem           1
            natom           2
            nband          22
           nbdbuf           4
            ngfft          45      45      45
             nkpt           1
            nstep         100
             nsym          24
           ntypat           2
              occ      2.000000  2.000000  2.000000  2.000000  2.000000  2.000000
                       2.000000  2.000000  2.000000  2.000000  2.000000  2.000000
                       2.000000  0.000000  0.000000  0.000000  0.000000  0.000000
                       0.000000  0.000000  0.000000  0.000000
        optdriver           1
            prtwf          -1
            rfdir           1       1       1
           rfelfd           2
            rprim      6.1969956298E+00  0.0000000000E+00  3.5778370950E+00
                       2.0656652099E+00  5.8425835104E+00  3.5778370950E+00
                       0.0000000000E+00  0.0000000000E+00  7.1556741900E+00
          spgroup         216
           strten      0.0000000000E+00  0.0000000000E+00  0.0000000000E+00
                       0.0000000000E+00  0.0000000000E+00  0.0000000000E+00
           symrel      1  0  0   0  1  0   0  0  1       0 -1  1   0 -1  0   1 -1  0
                      -1  0  0  -1  0  1  -1  1  0       0  1 -1   1  0 -1   0  0 -1
                      -1  0  0  -1  1  0  -1  0  1       0 -1  1   1 -1  0   0 -1  0
                       1  0  0   0  0  1   0  1  0       0  1 -1   0  0 -1   1  0 -1
                      -1  0  1  -1  1  0  -1  0  0       0 -1  0   1 -1  0   0 -1  1
                       1  0 -1   0  0 -1   0  1 -1       0  1  0   0  0  1   1  0  0
                       1  0 -1   0  1 -1   0  0 -1       0 -1  0   0 -1  1   1 -1  0
                      -1  0  1  -1  0  0  -1  1  0       0  1  0   1  0  0   0  0  1
                       0  0 -1   0  1 -1   1  0 -1       1 -1  0   0 -1  1   0 -1  0
                       0  0  1   1  0  0   0  1  0      -1  1  0  -1  0  0  -1  0  1
                       0  0  1   0  1  0   1  0  0       1 -1  0   0 -1  0   0 -1  1
                       0  0 -1   1  0 -1   0  1 -1      -1  1  0  -1  0  1  -1  0  0
           tolwfr      1.00000000E-20
            typat      1  2
           useylm           1
           xangst      0.0000000000E+00  0.0000000000E+00  0.0000000000E+00
                       1.0931029497E+00  7.7294050825E-01  1.8933098467E+00
            xcart      0.0000000000E+00  0.0000000000E+00  0.0000000000E+00
                       2.0656652099E+00  1.4606458776E+00  3.5778370950E+00
             xred      0.0000000000E+00  0.0000000000E+00  0.0000000000E+00
                       2.5000000000E-01  2.5000000000E-01  2.5000000000E-01
            znucl       30.00000   16.00000

- Timing analysis has been suppressed with timopt=0

 Suggested references for the acknowledgment of ABINIT usage.

 Calculation completed.
.Delivered   6 WARNINGs and   5 COMMENTs to log file.