.Version 9.5.1 of ABINIT

 ABINIT is a project of the Universite Catholique de Louvain,
 Corning Inc. and other collaborators, see ~abinit/doc/developers/contributors.txt .
 acknowledgments of the ABINIT effort.

.Starting date : Tue 11 May 2021.
- ( at 21h34 )

- input  file    -> /scratch/users/j/a/jabreu/flow_simple_8atoms/flow/w321/t1/run.abi
- output file    -> /scratch/users/j/a/jabreu/flow_simple_8atoms/flow/w321/t1/run.abo
- root for input  files -> /scratch/users/j/a/jabreu/flow_simple_8atoms/flow/w321/t1/indata/in
- root for output files -> /scratch/users/j/a/jabreu/flow_simple_8atoms/flow/w321/t1/outdata/out

 Symmetries : space group P-4 3 m (#215); Bravais cP (primitive cubic)
     intxc =       0      iscf =       7    lmnmax =      32     lnmax =       8
     mgfft =      64  mpssoang =       4    mqgrid =    3133     natom =       8
  nloc_mem =       1    nspden =       1   nspinor =       1    nsppol =       1
      nsym =      24    n1xccc =    2501    ntypat =       3    occopt =       1
   xclevel =       2
-    mband =          56        mffmem =           1         mkmem =           2
-   mkqmem =           2        mk1mem =           2           mpw =       16176
      nfft =      262144          nkpt =           2
  Rough estimation (10% accuracy) of disk space for files :

------------- Echo of variables that govern the present computation ------------
-
- outvars: echo of selected default values
-   iomode0 =  0 , fftalg0 =512 , wfoptalg0 =  0
-
- outvars: echo of global parameters not present in the input file
-  max_nthreads =    0
-
 -outvars: echo values of preprocessed input variables --------
            acell      1.0000000000E+00  1.0000000000E+00  1.0000000000E+00 Bohr
              amu      1.80947900E+02  6.35460000E+01  3.20660000E+01
             ecut      4.60000000E+01 Hartree
-          fftalg         512
           irdden           1
           irdwfk           1
           istwfk        1    1
              ixc     -116133
              kpt      5.00000000E-01  5.00000000E-01  5.00000000E-01
                       0.00000000E+00  5.00000000E-01  0.00000000E+00
           kptopt           0
P           mkmem           2
P          mkqmem           2
P          mk1mem           2
            natom           8
            nband          56
           nbdbuf           4
            ngfft          64      64      64
             nkpt           2
            nstep        2000
             nsym          24
           ntypat           3
              occ      2.000000  2.000000  2.000000  2.000000  2.000000  2.000000
                       2.000000  2.000000  2.000000  2.000000  2.000000  2.000000
                       2.000000  2.000000  2.000000  2.000000  2.000000  2.000000
                       2.000000  2.000000  2.000000  2.000000  2.000000  2.000000
                       2.000000  2.000000  2.000000  2.000000  2.000000  2.000000
                       2.000000  2.000000  2.000000  2.000000  2.000000  2.000000
                       2.000000  2.000000  2.000000  2.000000  2.000000  2.000000
                       2.000000  2.000000  2.000000  2.000000  2.000000  0.000000
                       0.000000  0.000000  0.000000  0.000000  0.000000  0.000000
                       0.000000  0.000000
        optdriver           1
            prtwf          -1
            rfdir           1       1       1
           rfelfd           2
            rprim      1.0258376302E+01  0.0000000000E+00  0.0000000000E+00
                       0.0000000000E+00  1.0258376302E+01  0.0000000000E+00
                       0.0000000000E+00  0.0000000000E+00  1.0258376302E+01
          spgroup         215
           symrel      1  0  0   0  1  0   0  0  1      -1  0  0   0  1  0   0  0 -1
                      -1  0  0   0 -1  0   0  0  1       1  0  0   0 -1  0   0  0 -1
                       0  1  0   1  0  0   0  0  1       0 -1  0   1  0  0   0  0 -1
                       0 -1  0  -1  0  0   0  0  1       0  1  0  -1  0  0   0  0 -1
                       0  0  1   1  0  0   0  1  0       0  0 -1   1  0  0   0 -1  0
                       0  0 -1  -1  0  0   0  1  0       0  0  1  -1  0  0   0 -1  0
                       1  0  0   0  0  1   0  1  0      -1  0  0   0  0  1   0 -1  0
                      -1  0  0   0  0 -1   0  1  0       1  0  0   0  0 -1   0 -1  0
                       0  1  0   0  0  1   1  0  0       0 -1  0   0  0  1  -1  0  0
                       0 -1  0   0  0 -1   1  0  0       0  1  0   0  0 -1  -1  0  0
                       0  0  1   0  1  0   1  0  0       0  0 -1   0  1  0  -1  0  0
                       0  0 -1   0 -1  0   1  0  0       0  0  1   0 -1  0  -1  0  0
           tolwfr      1.00000000E-20
            typat      1  2  2  2  3  3  3  3
           useylm           1
              wtk        0.50000    0.50000
           xangst      0.0000000000E+00  0.0000000000E+00  0.0000000000E+00
                       0.0000000000E+00  0.0000000000E+00  2.7142494681E+00
                       0.0000000000E+00  2.7142494681E+00  0.0000000000E+00
                       2.7142494681E+00  0.0000000000E+00  0.0000000000E+00
                       1.3298736694E+00  4.0986252669E+00  4.0986252669E+00
                       4.0986252669E+00  4.0986252669E+00  1.3298736694E+00
                       4.0986252669E+00  1.3298736694E+00  4.0986252669E+00
                       1.3298736694E+00  1.3298736694E+00  1.3298736694E+00
            xcart      0.0000000000E+00  0.0000000000E+00  0.0000000000E+00
                       0.0000000000E+00  0.0000000000E+00  5.1291881511E+00
                       0.0000000000E+00  5.1291881511E+00  0.0000000000E+00
                       5.1291881511E+00  0.0000000000E+00  0.0000000000E+00
                       2.5130970265E+00  7.7452792757E+00  7.7452792757E+00
                       7.7452792757E+00  7.7452792757E+00  2.5130970265E+00
                       7.7452792757E+00  2.5130970265E+00  7.7452792757E+00
                       2.5130970265E+00  2.5130970265E+00  2.5130970265E+00
             xred      0.0000000000E+00  0.0000000000E+00  0.0000000000E+00
                       0.0000000000E+00  0.0000000000E+00  5.0000000000E-01
                       0.0000000000E+00  5.0000000000E-01  0.0000000000E+00
                       5.0000000000E-01  0.0000000000E+00  0.0000000000E+00
                       2.4498000000E-01  7.5502000000E-01  7.5502000000E-01
                       7.5502000000E-01  7.5502000000E-01  2.4498000000E-01
                       7.5502000000E-01  2.4498000000E-01  7.5502000000E-01
                       2.4498000000E-01  2.4498000000E-01  2.4498000000E-01
            znucl       73.00000   29.00000   16.00000

 chkinp: Checking input parameters for consistency.

== DATASET  1 ==================================================================
-   mpi_nproc: 1, omp_nthreads: -1 (-1 if OMP is not activated)

--- !DatasetInfo
iteration_state: {dtset: 1, }
dimensions: {natom: 8, nkpt: 2, mband: 56, nsppol: 1, nspinor: 1, nspden: 1, mpw: 16176, }
cutoff_energies: {ecut:  46.0, pawecutdg:  -1.0, }
electrons: {nelect:   9.40000000E+01, charge:   0.00000000E+00, occopt:   1.00000000E+00, tsmear:   1.00000000E-02, }
meta: {optdriver: 1, rfelfd: 2, }
...

 Real(R)+Recip(G) space primitive vectors, cartesian coordinates (Bohr,Bohr^-1):
 R(1)= 10.2583763  0.0000000  0.0000000  G(1)=  0.0974813  0.0000000  0.0000000
 R(2)=  0.0000000 10.2583763  0.0000000  G(2)=  0.0000000  0.0974813  0.0000000
 R(3)=  0.0000000  0.0000000 10.2583763  G(3)=  0.0000000  0.0000000  0.0974813
 Unit cell volume ucvol=  1.0795329E+03 bohr^3
 Angles (23,13,12)=  9.00000000E+01  9.00000000E+01  9.00000000E+01 degrees

 getcut: wavevector=  0.0000  0.0000  0.0000  ngfft=  64  64  64
         ecut(hartree)=     46.000   => boxcut(ratio)=   2.04342

--- Pseudopotential description ------------------------------------------------
- pspini: atom type   1  psp file is /scratch/users/j/a/jabreu/pseudos/PBEsol/Ta.psp8
- pspatm: opening atomic psp file    /scratch/users/j/a/jabreu/pseudos/PBEsol/Ta.psp8
- Ta    ONCVPSP-3.3.0  r_core=   1.71294   1.71294   1.71294   2.25368
- 73.00000  13.00000    180112                znucl, zion, pspdat
    8 -116133    3    4       600   0.00000   pspcod,pspxc,lmax,lloc,mmax,r2well
    5.99000000000000    5.00000000000000    0.00000000000000   rchrg,fchrg,qchrg
     nproj     2     2     2     2
     extension_switch     1
  pspatm : epsatm=   21.70781236
         --- l  ekb(1:nproj) -->
             0   11.480337    1.447149
             1    5.630373    0.817168
             2    1.844704    0.232364
             3    4.923559    0.251242
 pspatm: atomic psp has been read  and splines computed

- pspini: atom type   2  psp file is /scratch/users/j/a/jabreu/pseudos/PBEsol/Cu.psp8
- pspatm: opening atomic psp file    /scratch/users/j/a/jabreu/pseudos/PBEsol/Cu.psp8
- Cu    ONCVPSP-3.3.0  r_core=   1.26204   1.45626   1.76249
- 29.00000  19.00000    180112                znucl, zion, pspdat
    8 -116133    2    4       600   0.00000   pspcod,pspxc,lmax,lloc,mmax,r2well
    5.99000000000000    3.50000000000000    0.00000000000000   rchrg,fchrg,qchrg
     nproj     2     2     2
     extension_switch     1
  pspatm : epsatm=   21.63488701
         --- l  ekb(1:nproj) -->
             0    5.008230   -0.401634
             1   -3.496700   -0.765945
             2   -6.895851   -2.521180
 pspatm: atomic psp has been read  and splines computed

- pspini: atom type   3  psp file is /scratch/users/j/a/jabreu/pseudos/PBEsol/S.psp8
- pspatm: opening atomic psp file    /scratch/users/j/a/jabreu/pseudos/PBEsol/S.psp8
- S     ONCVPSP-3.3.0  r_core=   1.45376   1.45376   1.61851
- 16.00000   6.00000    180112                znucl, zion, pspdat
    8 -116133    2    4       600   0.00000   pspcod,pspxc,lmax,lloc,mmax,r2well
    5.99000000000000    6.00000000000000    0.00000000000000   rchrg,fchrg,qchrg
     nproj     2     2     2
     extension_switch     1
  pspatm : epsatm=    8.71840985
         --- l  ekb(1:nproj) -->
             0    6.834532    0.579453
             1    3.282851    0.896984
             2   -3.496974   -0.974265
 pspatm: atomic psp has been read  and splines computed

   1.14196946E+04                                ecore*ucvol(ha*bohr**3)

-inwffil : will read wavefunctions from disk file /scratch/users/j/a/jabreu/flow_simple_8atoms/flow/w321/t1/indata/in_WFK

 ==>  initialize data related to q vector <==

 The list of irreducible perturbations for this q vector is:
    1)    idir= 1    ipert=   9
    2)    idir= 2    ipert=   9
    3)    idir= 3    ipert=   9

 Perturbation wavevector (in red.coord.)   0.000000  0.000000  0.000000
 Perturbation : derivative vs k along direction   1

 dfpt_looppert : COMMENT -
  In a d/dk calculation, iscf is set to -3 automatically.
 The set of symmetries contains only one element for this perturbation.
 symkpt : not enough symmetry to change the number of k points.

[...]

 Initialisation of the first-order wave-functions :
  ireadwf=   0

--- !BeginCycle
iteration_state: {dtset: 1, }
[...]
 prteigrs : prtvol=0 or 1, do not print more k-points.

 Eight components of 2nd-order total energy (hartree) are
 1,2,3: 0th-order hamiltonian combined with 1st-order wavefunctions
     kin0=   5.99671482E+01 eigvalue=  -8.23316009E-01  local=  -2.69297880E+01
 4,5,6: 1st-order hamiltonian combined with 1st and 0th-order wfs
     kin1=  -7.32160640E+01  Hartree=   0.00000000E+00     xc=   0.00000000E+00
 7,8,9: eventually, occupation + non-local contributions
    edocc=   8.98200883E+00     enl0=  -1.34023871E+00   enl1=  -6.49556460E+00
 1-9 gives the relaxation energy (to be shifted if some occ is /=2.0)
   erelax=  -3.98558143E+01
  No Ewald or frozen-wf contrib.: the relaxation energy is the total one
 2DEtotal=   -0.3985581432E+02 Ha. Also 2DEtotal=   -0.108453186257E+04 eV
    (  non-var. 2DEtotal :   -3.9855814322E+01 Ha)

 Perturbation wavevector (in red.coord.)   0.000000  0.000000  0.000000
 Perturbation : derivative vs k along direction   2
 The set of symmetries contains only one element for this perturbation.
 symkpt : not enough symmetry to change the number of k points.

[...]

 Perturbation wavevector (in red.coord.)   0.000000  0.000000  0.000000
 Perturbation : derivative vs k along direction   3
 The set of symmetries contains only one element for this perturbation.
 symkpt : not enough symmetry to change the number of k points.

-inwffil : will read wavefunctions from disk file /scratch/users/j/a/jabreu/flow_simple_8atoms/flow/w321/t1/indata/in_WFK

 Initialisation of the first-order wave-functions :
  ireadwf=   0

--- !BeginCycle
iteration_state: {dtset: 1, }
solver: {iscf: 7, nstep: 2000, nline: 4, wfoptalg: 0, }
tolerances: {tolwfr: 1.00E-20, }
...

     iter   2DEtotal(Ha)        deltaE(Ha) residm    vres2
-ETOT  1  -39.666732863772     -3.967E+01 1.547E-01 0.000E+00
 ETOT  2  -39.850471621533     -1.837E-01 3.904E-03 0.000E+00
 ETOT  3  -39.855552174061     -5.081E-03 1.388E-04 0.000E+00
 ETOT  4  -39.855778700657     -2.265E-04 5.387E-06 0.000E+00
 ETOT  5  -39.855791056368     -1.236E-05 2.937E-07 0.000E+00
 ETOT  6  -39.855791805246     -7.489E-07 1.485E-08 0.000E+00
 ETOT  7  -39.855791854445     -4.920E-08 1.368E-09 0.000E+00
 ETOT  8  -39.855791857918     -3.473E-09 1.012E-10 0.000E+00
 ETOT  9  -39.855791858179     -2.606E-10 1.292E-11 0.000E+00
 ETOT 10  -39.855791858199     -2.051E-11 1.143E-12 0.000E+00
 ETOT 11  -39.855791858201     -1.741E-12 1.552E-13 0.000E+00
 ETOT 12  -39.855791858201     -1.208E-13 1.406E-14 0.000E+00
 ETOT 13  -39.855791858201      2.842E-14 1.938E-15 0.000E+00
 ETOT 14  -39.855791858201     -1.421E-14 1.769E-16 0.000E+00
 ETOT 15  -39.855791858201     -7.105E-15 2.460E-17 0.000E+00
 ETOT 16  -39.855791858201      7.105E-15 2.255E-18 0.000E+00
 ETOT 17  -39.855791858201      2.132E-14 3.153E-19 0.000E+00
 ETOT 18  -39.855791858201      0.000E+00 2.895E-20 0.000E+00
 ETOT 19  -39.855791858201      1.421E-14 9.697E-21 0.000E+00

 At SCF step   19   max residual=  9.70E-21 < tolwfr=  1.00E-20 =>converged.

 ----iterations are completed or convergence reached----

 dfpt_looppert: DFPT cycle converged with prtwf=-1. Will skip output of the 1st-order WFK file.
 dfpt_looppert : ek2=    7.0527799518E+01
          f-sum rule ratio=    1.0381155389E+00
 prteigrs : about to open file /scratch/users/j/a/jabreu/flow_simple_8atoms/flow/w321/t1/tmpdata/tmp_1WF1_EIG
 Expectation of eigenvalue derivatives (hartree) for nkpt=   2  k points:
  (in case of degenerate eigenvalues, averaged derivative)
 kpt#   1, nband= 56, wtk=  0.50000, kpt=  0.5000  0.5000  0.5000 (reduced coord)
   0.00000    0.00000    0.00000   -0.00000    0.00000    0.00000    0.00000    0.00000
   0.00000    0.00000    0.00000    0.00000   -0.00000   -0.00000   -0.00000   -0.00000
  -0.00000   -0.00000   -0.00000   -0.00000    0.00000    0.00000    0.00000   -0.00000
   0.00000    0.00000   -0.00000   -0.00000   -0.00000    0.00000    0.00000    0.00000
   0.00000    0.00000    0.00000    0.00000    0.00000    0.00000    0.00000    0.00000
   0.00000   -0.00000   -0.00000   -0.00000    0.00000    0.00000    0.00000   -0.00000
  -0.00000   -0.00000   -0.00000   -0.00000   -0.00000   -0.00000   -0.00000    0.00000
 prteigrs : prtvol=0 or 1, do not print more k-points.

 Eight components of 2nd-order total energy (hartree) are
 1,2,3: 0th-order hamiltonian combined with 1st-order wavefunctions
     kin0=   5.99690911E+01 eigvalue=  -8.23376636E-01  local=  -2.69309436E+01
 4,5,6: 1st-order hamiltonian combined with 1st and 0th-order wfs
     kin1=  -7.32160046E+01  Hartree=   0.00000000E+00     xc=   0.00000000E+00
 7,8,9: eventually, occupation + non-local contributions
    edocc=   8.98149533E+00     enl0=  -1.34047435E+00   enl1=  -6.49557911E+00
 1-9 gives the relaxation energy (to be shifted if some occ is /=2.0)
   erelax=  -3.98557919E+01
  No Ewald or frozen-wf contrib.: the relaxation energy is the total one
 2DEtotal=   -0.3985579186E+02 Ha. Also 2DEtotal=   -0.108453125130E+04 eV
    (  non-var. 2DEtotal :   -3.9855791858E+01 Ha)

 CALCULATION OF EFFECTIVE MASSES
 NOTE : Additional infos (eff. mass eigenvalues, eigenvectors and, if degenerate, average mass) are available in stdout.

 COMMENTS:
 - At k-point ( 0.500, 0.500, 0.500), bands    45 through    47
   are DEGENERATE (effective mass tensor is therefore not defined).
   See Section IIIB Eqs. (67)-(70) and Appendix E of PRB 93 205147 (2016).
 - Angular average effective mass for Frohlich model is to be averaged over degenerate bands. See later.
 - Associated theta integrals calculated with ntheta=   1000 points.

 K-point ( 0.500, 0.500, 0.500) | band =    45
 Transport equivalent effective mass tensor:
             -0.5973578266             -0.0000000001              0.0000000006
             -0.0000000001             -0.5973580705              0.0000000005
              0.0000000006              0.0000000005             -0.5973568423
 Transport equivalent effective mass tensor eigenvalues:
             -0.5973580705             -0.5973578267             -0.5973568423
 Angular average effective mass 1/(<1/m>)=  -0.5746425876
 Angular average effective mass for Frohlich model (<m**0.5>)**2=  -0.5755210005
 Effective masses along directions: (cart. coord. / red. coord. -> eff. mass)
    1:   1.000000  0.000000  0.000000 /   1.000000  0.000000  0.000000 ->  -0.5518281578
    2:   0.000000  1.000000  0.000000 /   0.000000  1.000000  0.000000 ->  -0.5518281582
    3:   0.000000  0.000000  1.000000 /   0.000000  0.000000  1.000000 ->  -0.5518281559
    4:   0.577350  0.577350  0.577350 /   0.577350  0.577350  0.577350 ->  -0.6733845852
    5:   0.000000  0.707107  0.707107 /   0.000000  0.707107  0.707107 ->  -0.5518281577
    6:   0.707107  0.000000  0.707107 /   0.707107  0.000000  0.707107 ->  -0.5518281568
    7:   0.707107  0.707107  0.000000 /   0.707107  0.707107  0.000000 ->  -0.5518281595

[...]

 K-point ( 0.500, 0.500, 0.500) | band =    47
 Transport equivalent effective mass tensor:
             -2.7727715330             -0.0000000001              0.0000000008
             -0.0000000001             -2.7727715314              0.0000000005
              0.0000000008              0.0000000005             -2.7727715312
 Transport equivalent effective mass tensor eigenvalues:
             -2.7727715333             -2.7727715317             -2.7727715306
 Angular average effective mass 1/(<1/m>)=  -1.3886628760
 Angular average effective mass for Frohlich model (<m**0.5>)**2=  -1.4629617102
 Effective masses along directions: (cart. coord. / red. coord. -> eff. mass)
    1:   1.000000  0.000000  0.000000 /   1.000000  0.000000  0.000000 ->  -2.6935826048
    2:   0.000000  1.000000  0.000000 /   0.000000  1.000000  0.000000 ->  -2.6935826037
    3:   0.000000  0.000000  1.000000 /   0.000000  0.000000  1.000000 ->  -2.6935826028
    4:   0.577350  0.577350  0.577350 /   0.577350  0.577350  0.577350 ->  -0.9751355086
    5:   0.000000  0.707107  0.707107 /   0.000000  0.707107  0.707107 ->  -1.1601775107
    6:   0.707107  0.000000  0.707107 /   0.707107  0.000000  0.707107 ->  -1.1601775110
    7:   0.707107  0.707107  0.000000 /   0.707107  0.707107  0.000000 ->  -1.1601775113

 Angular average effective mass for Frohlich model, averaged over degenerate bands.
 Value of     (<<m**0.5>>)**2 =     8.572240E-01
 Absolute Value of <<m**0.5>> =     9.258639E-01

 K-point ( 0.000, 0.500, 0.000) | band =    48
 Effective mass tensor:
              0.8745186648              0.0001762725              0.0000018629
              0.0001762725              7.8771001201              0.0000533415
              0.0000018629              0.0000533415              0.8745196448
 Effective mass tensor eigenvalues:
              0.8745172269              0.8745210778              7.8771001249
 Angular average effective mass 1/(<1/m>)=   1.2427911177
 Angular average effective mass for Frohlich model (<m**0.5>)**2=   1.4909628428
 Effective masses along directions: (cart. coord. / red. coord. -> eff. mass)
    1:   1.000000  0.000000  0.000000 /   1.000000  0.000000  0.000000 ->   0.8745186608
    2:   0.000000  1.000000  0.000000 /   0.000000  1.000000  0.000000 ->   7.8771000813
    3:   0.000000  0.000000  1.000000 /   0.000000  0.000000  1.000000 ->   0.8745196444
    4:   0.577350  0.577350  0.577350 /   0.577350  0.577350  0.577350 ->   1.2428279469
    5:   0.000000  0.707107  0.707107 /   0.000000  0.707107  0.707107 ->   1.5742829218
    6:   0.707107  0.000000  0.707107 /   0.707107  0.000000  0.707107 ->   0.8745210143
    7:   0.707107  0.707107  0.000000 /   0.707107  0.707107  0.000000 ->   1.5743255567

 END OF EFFECTIVE MASSES SECTION

 ---- first-order wavefunction calculations are completed ----

 Total localisation tensor (bohr^2) in cartesian coordinates
  WARNING : still subject to testing - especially symmetries.
      direction              matrix element
   alpha     beta       real part   imaginary part
     1        1       0.8947684255    0.0000000000
     1        2       0.0000000000    0.0000000000
     1        3       0.0000000000    0.0000000000
     2        1       0.0000000000    0.0000000000
     2        2       0.7886986845    0.0000000000
     2        3       0.0000000000    0.0000000000
     3        1       0.0000000000    0.0000000000
     3        2       0.0000000000    0.0000000000
     3        3       0.8947672876    0.0000000000

 respfn : d/dk was computed, but no 2DTE, so no DDB output.

== END DATASET(S) ==============================================================

 -outvars: echo values of variables after computation  --------
            acell      1.0000000000E+00  1.0000000000E+00  1.0000000000E+00 Bohr
              amu      1.80947900E+02  6.35460000E+01  3.20660000E+01
             ecut      4.60000000E+01 Hartree
           etotal     -3.9855791858E+01
            fcart      0.0000000000E+00  0.0000000000E+00  0.0000000000E+00
                       0.0000000000E+00  0.0000000000E+00  0.0000000000E+00
                       0.0000000000E+00  0.0000000000E+00  0.0000000000E+00
                       0.0000000000E+00  0.0000000000E+00  0.0000000000E+00
                       0.0000000000E+00  0.0000000000E+00  0.0000000000E+00
                       0.0000000000E+00  0.0000000000E+00  0.0000000000E+00
                       0.0000000000E+00  0.0000000000E+00  0.0000000000E+00
                       0.0000000000E+00  0.0000000000E+00  0.0000000000E+00
-          fftalg         512
           irdden           1
           irdwfk           1
           istwfk        1    1
              ixc     -116133
              kpt      5.00000000E-01  5.00000000E-01  5.00000000E-01
                       0.00000000E+00  5.00000000E-01  0.00000000E+00
           kptopt           0
P           mkmem           2
P          mkqmem           2
P          mk1mem           2
            natom           8
            nband          56
           nbdbuf           4
            ngfft          64      64      64
             nkpt           2
            nstep        2000
             nsym          24
           ntypat           3
              occ      2.000000  2.000000  2.000000  2.000000  2.000000  2.000000
                       2.000000  2.000000  2.000000  2.000000  2.000000  2.000000
                       2.000000  2.000000  2.000000  2.000000  2.000000  2.000000
                       2.000000  2.000000  2.000000  2.000000  2.000000  2.000000
                       2.000000  2.000000  2.000000  2.000000  2.000000  2.000000
                       2.000000  2.000000  2.000000  2.000000  2.000000  2.000000
                       2.000000  2.000000  2.000000  2.000000  2.000000  2.000000
                       2.000000  2.000000  2.000000  2.000000  2.000000  0.000000
                       0.000000  0.000000  0.000000  0.000000  0.000000  0.000000
                       0.000000  0.000000
        optdriver           1
            prtwf          -1
            rfdir           1       1       1
           rfelfd           2
            rprim      1.0258376302E+01  0.0000000000E+00  0.0000000000E+00
                       0.0000000000E+00  1.0258376302E+01  0.0000000000E+00
                       0.0000000000E+00  0.0000000000E+00  1.0258376302E+01
          spgroup         215
           strten      0.0000000000E+00  0.0000000000E+00  0.0000000000E+00
                       0.0000000000E+00  0.0000000000E+00  0.0000000000E+00
           symrel      1  0  0   0  1  0   0  0  1      -1  0  0   0  1  0   0  0 -1
                      -1  0  0   0 -1  0   0  0  1       1  0  0   0 -1  0   0  0 -1
                       0  1  0   1  0  0   0  0  1       0 -1  0   1  0  0   0  0 -1
                       0 -1  0  -1  0  0   0  0  1       0  1  0  -1  0  0   0  0 -1
                       0  0  1   1  0  0   0  1  0       0  0 -1   1  0  0   0 -1  0
                       0  0 -1  -1  0  0   0  1  0       0  0  1  -1  0  0   0 -1  0
                       1  0  0   0  0  1   0  1  0      -1  0  0   0  0  1   0 -1  0
                      -1  0  0   0  0 -1   0  1  0       1  0  0   0  0 -1   0 -1  0
                       0  1  0   0  0  1   1  0  0       0 -1  0   0  0  1  -1  0  0
                       0 -1  0   0  0 -1   1  0  0       0  1  0   0  0 -1  -1  0  0
                       0  0  1   0  1  0   1  0  0       0  0 -1   0  1  0  -1  0  0
                       0  0 -1   0 -1  0   1  0  0       0  0  1   0 -1  0  -1  0  0
           tolwfr      1.00000000E-20
            typat      1  2  2  2  3  3  3  3
           useylm           1
              wtk        0.50000    0.50000
           xangst      0.0000000000E+00  0.0000000000E+00  0.0000000000E+00
                       0.0000000000E+00  0.0000000000E+00  2.7142494681E+00
                       0.0000000000E+00  2.7142494681E+00  0.0000000000E+00
                       2.7142494681E+00  0.0000000000E+00  0.0000000000E+00
                       1.3298736694E+00  4.0986252669E+00  4.0986252669E+00
                       4.0986252669E+00  4.0986252669E+00  1.3298736694E+00
                       4.0986252669E+00  1.3298736694E+00  4.0986252669E+00
                       1.3298736694E+00  1.3298736694E+00  1.3298736694E+00
            xcart      0.0000000000E+00  0.0000000000E+00  0.0000000000E+00
                       0.0000000000E+00  0.0000000000E+00  5.1291881511E+00
                       0.0000000000E+00  5.1291881511E+00  0.0000000000E+00
                       5.1291881511E+00  0.0000000000E+00  0.0000000000E+00
                       2.5130970265E+00  7.7452792757E+00  7.7452792757E+00
                       7.7452792757E+00  7.7452792757E+00  2.5130970265E+00
                       7.7452792757E+00  2.5130970265E+00  7.7452792757E+00
                       2.5130970265E+00  2.5130970265E+00  2.5130970265E+00
             xred      0.0000000000E+00  0.0000000000E+00  0.0000000000E+00
                       0.0000000000E+00  0.0000000000E+00  5.0000000000E-01
                       0.0000000000E+00  5.0000000000E-01  0.0000000000E+00
                       5.0000000000E-01  0.0000000000E+00  0.0000000000E+00
                       2.4498000000E-01  7.5502000000E-01  7.5502000000E-01
                       7.5502000000E-01  7.5502000000E-01  2.4498000000E-01
                       7.5502000000E-01  2.4498000000E-01  7.5502000000E-01
                       2.4498000000E-01  2.4498000000E-01  2.4498000000E-01
            znucl       73.00000   29.00000   16.00000

- Timing analysis has been suppressed with timopt=0

 Suggested references for the acknowledgment of ABINIT usage.

 Calculation completed.
.Delivered  14 WARNINGs and   9 COMMENTs to log file.