.Version 9.5.1 of ABINIT

 ABINIT is a project of the Universite Catholique de Louvain,
 Corning Inc. and other collaborators, see ~abinit/doc/developers/contributors.txt .
 acknowledgments of the ABINIT effort.

.Starting date : Tue  4 May 2021.
- ( at 19h49 )

- input  file    -> /scratch/users/j/a/jabreu/flow_simple_6atoms/flow/w246/t1/run.abi
- output file    -> /scratch/users/j/a/jabreu/flow_simple_6atoms/flow/w246/t1/run.abo
- root for input  files -> /scratch/users/j/a/jabreu/flow_simple_6atoms/flow/w246/t1/indata/in
- root for output files -> /scratch/users/j/a/jabreu/flow_simple_6atoms/flow/w246/t1/outdata/out

 Symmetries : space group P4/n m m (#129); Bravais tP (primitive tetrag.)
     intxc =       0      iscf =       7    lmnmax =      18     lnmax =       6
     mgfft =      80  mpssoang =       3    mqgrid =    3733     natom =       6
  nloc_mem =       1    nspden =       1   nspinor =       1    nsppol =       1
      nsym =      16    n1xccc =    2501    ntypat =       3    occopt =       1
   xclevel =       2
-    mband =          33        mffmem =           1         mkmem =           1
-   mkqmem =           1        mk1mem =           1           mpw =        8345
      nfft =      162000          nkpt =           1
  Rough estimation (10% accuracy) of disk space for files :

------------- Echo of variables that govern the present computation ------------
-
- outvars: echo of selected default values
-   iomode0 =  0 , fftalg0 =512 , wfoptalg0 =  0
-
- outvars: echo of global parameters not present in the input file
-  max_nthreads =    0
-
 -outvars: echo values of preprocessed input variables --------
            acell      1.0000000000E+00  1.0000000000E+00  1.0000000000E+00 Bohr
              amu      8.89058500E+01  3.20660000E+01  1.89984032E+01
             ecut      4.20000000E+01 Hartree
-          fftalg         512
           irdden           1
           irdwfk           1
           istwfk        1
              ixc     -116133
           kptopt           0
P           mkmem           1
P          mkqmem           1
P          mk1mem           1
            natom           6
            nband          33
           nbdbuf           4
            ngfft          45      45      80
             nkpt           1
            nstep        1000
             nsym          16
           ntypat           3
              occ      2.000000  2.000000  2.000000  2.000000  2.000000  2.000000
                       2.000000  2.000000  2.000000  2.000000  2.000000  2.000000
                       2.000000  2.000000  2.000000  2.000000  2.000000  2.000000
                       2.000000  2.000000  2.000000  2.000000  2.000000  2.000000
                       0.000000  0.000000  0.000000  0.000000  0.000000  0.000000
                       0.000000  0.000000  0.000000
        optdriver           1
            prtwf          -1
            rfdir           1       1       1
           rfelfd           2
            rprim      7.0581569332E+00  0.0000000000E+00  0.0000000000E+00
                       0.0000000000E+00  7.0581569332E+00  0.0000000000E+00
                       0.0000000000E+00  0.0000000000E+00  1.2793241339E+01
          spgroup         129
           symrel      1  0  0   0  1  0   0  0  1      -1  0  0   0 -1  0   0  0 -1
                      -1  0  0   0  1  0   0  0 -1       1  0  0   0 -1  0   0  0  1
                      -1  0  0   0 -1  0   0  0  1       1  0  0   0  1  0   0  0 -1
                       1  0  0   0 -1  0   0  0 -1      -1  0  0   0  1  0   0  0  1
                       0  1  0   1  0  0   0  0  1       0 -1  0  -1  0  0   0  0 -1
                       0 -1  0   1  0  0   0  0 -1       0  1  0  -1  0  0   0  0  1
                       0 -1  0  -1  0  0   0  0  1       0  1  0   1  0  0   0  0 -1
                       0  1  0  -1  0  0   0  0 -1       0 -1  0   1  0  0   0  0  1
            tnons      0.0000000  0.0000000  0.0000000     0.5000000  0.5000000  0.0000000
                       0.5000000  0.5000000  0.0000000     0.0000000  0.0000000  0.0000000
                       0.0000000  0.0000000  0.0000000     0.5000000  0.5000000  0.0000000
                       0.5000000  0.5000000  0.0000000     0.0000000  0.0000000  0.0000000
                       0.5000000  0.5000000  0.0000000     0.0000000  0.0000000  0.0000000
                       0.0000000  0.0000000  0.0000000     0.5000000  0.5000000  0.0000000
                       0.5000000  0.5000000  0.0000000     0.0000000  0.0000000  0.0000000
                       0.0000000  0.0000000  0.0000000     0.5000000  0.5000000  0.0000000
           tolwfr      1.00000000E-20
            typat      1  1  2  2  3  3
           useylm           1
           xangst      0.0000000000E+00  1.8675078919E+00  1.5369008229E+00
                       1.8675078919E+00  0.0000000000E+00  5.2329909175E+00
                       0.0000000000E+00  1.8675078919E+00  4.3519978258E+00
                       1.8675078919E+00  0.0000000000E+00  2.4178939147E+00
                       0.0000000000E+00  0.0000000000E+00  0.0000000000E+00
                       1.8675078919E+00  1.8675078919E+00  0.0000000000E+00
            xcart      0.0000000000E+00  3.5290784666E+00  2.9043216487E+00
                       3.5290784666E+00  0.0000000000E+00  9.8889196900E+00
                       0.0000000000E+00  3.5290784666E+00  8.2240840216E+00
                       3.5290784666E+00  0.0000000000E+00  4.5691573171E+00
                       0.0000000000E+00  0.0000000000E+00  0.0000000000E+00
                       3.5290784666E+00  3.5290784666E+00  0.0000000000E+00
             xred      0.0000000000E+00  5.0000000000E-01  2.2702000000E-01
                       5.0000000000E-01  0.0000000000E+00  7.7298000000E-01
                       0.0000000000E+00  5.0000000000E-01  6.4284600000E-01
                       5.0000000000E-01  0.0000000000E+00  3.5715400000E-01
                       0.0000000000E+00  0.0000000000E+00  0.0000000000E+00
                       5.0000000000E-01  5.0000000000E-01  0.0000000000E+00
            znucl       39.00000   16.00000    9.00000

 chkinp: Checking input parameters for consistency.

== DATASET  1 ==================================================================
-   mpi_nproc: 1, omp_nthreads: -1 (-1 if OMP is not activated)

--- !DatasetInfo
iteration_state: {dtset: 1, }
dimensions: {natom: 6, nkpt: 1, mband: 33, nsppol: 1, nspinor: 1, nspden: 1, mpw: 8345, }
cutoff_energies: {ecut:  42.0, pawecutdg:  -1.0, }
electrons: {nelect:   4.80000000E+01, charge:   0.00000000E+00, occopt:   1.00000000E+00, tsmear:   1.00000000E-02, }
meta: {optdriver: 1, rfelfd: 2, }
...

 Real(R)+Recip(G) space primitive vectors, cartesian coordinates (Bohr,Bohr^-1):
 R(1)=  7.0581569  0.0000000  0.0000000  G(1)=  0.1416800  0.0000000  0.0000000
 R(2)=  0.0000000  7.0581569  0.0000000  G(2)=  0.0000000  0.1416800  0.0000000
 R(3)=  0.0000000  0.0000000 12.7932413  G(3)=  0.0000000  0.0000000  0.0781663
 Unit cell volume ucvol=  6.3732831E+02 bohr^3
 Angles (23,13,12)=  9.00000000E+01  9.00000000E+01  9.00000000E+01 degrees

 getcut: wavevector=  0.0000  0.0000  0.0000  ngfft=  45  45  80
         ecut(hartree)=     42.000   => boxcut(ratio)=   2.13684

--- Pseudopotential description ------------------------------------------------
- pspini: atom type   1  psp file is /scratch/users/j/a/jabreu/pseudos/PBEsol/Y.psp8
- pspatm: opening atomic psp file    /scratch/users/j/a/jabreu/pseudos/PBEsol/Y.psp8
- Y     ONCVPSP-3.3.0  r_core=   1.60520   1.51226   1.56736
- 39.00000  11.00000    180112                znucl, zion, pspdat
    8 -116133    2    4       600   0.00000   pspcod,pspxc,lmax,lloc,mmax,r2well
    5.99000000000000    4.00000000000000    0.00000000000000   rchrg,fchrg,qchrg
     nproj     2     2     2
     extension_switch     1
  pspatm : epsatm=   18.54790046
         --- l  ekb(1:nproj) -->
             0   10.130768    0.866504
             1    5.598307    0.427135
             2    1.217602    0.315447
 pspatm: atomic psp has been read  and splines computed

- pspini: atom type   2  psp file is /scratch/users/j/a/jabreu/pseudos/PBEsol/S.psp8
- pspatm: opening atomic psp file    /scratch/users/j/a/jabreu/pseudos/PBEsol/S.psp8
- S     ONCVPSP-3.3.0  r_core=   1.45376   1.45376   1.61851
- 16.00000   6.00000    180112                znucl, zion, pspdat
    8 -116133    2    4       600   0.00000   pspcod,pspxc,lmax,lloc,mmax,r2well
    5.99000000000000    6.00000000000000    0.00000000000000   rchrg,fchrg,qchrg
     nproj     2     2     2
     extension_switch     1
  pspatm : epsatm=    8.71840985
         --- l  ekb(1:nproj) -->
             0    6.834532    0.579453
             1    3.282851    0.896984
             2   -3.496974   -0.974265
 pspatm: atomic psp has been read  and splines computed

- pspini: atom type   3  psp file is /scratch/users/j/a/jabreu/pseudos/PBEsol/F.psp8
- pspatm: opening atomic psp file    /scratch/users/j/a/jabreu/pseudos/PBEsol/F.psp8
- F     ONCVPSP-3.3.0  r_core=   1.30942   1.45782   1.60379
-  9.00000   7.00000    180112                znucl, zion, pspdat
    8 -116133    2    4       600   0.00000   pspcod,pspxc,lmax,lloc,mmax,r2well
    5.99000000000000    2.50000000000000    0.00000000000000   rchrg,fchrg,qchrg
     nproj     2     2     1
     extension_switch     1
  pspatm : epsatm=    4.89824824
         --- l  ekb(1:nproj) -->
             0    6.506434    1.065875
             1   -3.978753   -1.295852
             2   -2.394754
 pspatm: atomic psp has been read  and splines computed

   3.08779762E+03                                ecore*ucvol(ha*bohr**3)

-inwffil : will read wavefunctions from disk file /scratch/users/j/a/jabreu/flow_simple_6atoms/flow/w246/t1/indata/in_WFK

 ==>  initialize data related to q vector <==

 The list of irreducible perturbations for this q vector is:
    1)    idir= 1    ipert=   7
    2)    idir= 2    ipert=   7
    3)    idir= 3    ipert=   7

 Perturbation wavevector (in red.coord.)   0.000000  0.000000  0.000000
 Perturbation : derivative vs k along direction   1

 dfpt_looppert : COMMENT -
  In a d/dk calculation, iscf is set to -3 automatically.
 The set of symmetries contains only one element for this perturbation.
 symkpt : not enough symmetry to change the number of k points.

[...]

 Initialisation of the first-order wave-functions :
  ireadwf=   0

--- !BeginCycle
iteration_state: {dtset: 1, }
solver: {iscf: 7, nstep: 1000, nline: 4, wfoptalg: 0, }
tolerances: {tolwfr: 1.00E-20, }
...

     iter   2DEtotal(Ha)        deltaE(Ha) residm    vres2
-ETOT  1  -49.976322612981     -4.998E+01 2.186E-01 0.000E+00
 ETOT  2  -50.000773649709     -2.445E-02 1.392E-02 0.000E+00
 ETOT  3  -50.000826787956     -5.314E-05 3.418E-03 0.000E+00
 ETOT  4  -50.000826974314     -1.864E-07 4.421E-04 0.000E+00
 ETOT  5  -50.000826975409     -1.096E-09 6.885E-05 0.000E+00
 ETOT  6  -50.000826975423     -1.356E-11 7.643E-06 0.000E+00
 ETOT  7  -50.000826975423     -2.416E-13 1.708E-06 0.000E+00
 ETOT  8  -50.000826975423     -4.974E-14 2.220E-07 0.000E+00
[...]
 ETOT 21  -50.000826975423      0.000E+00 1.314E-16 0.000E+00
 ETOT 22  -50.000826975423      1.421E-14 2.658E-17 0.000E+00
 ETOT 23  -50.000826975423     -1.421E-14 5.147E-18 0.000E+00
 ETOT 24  -50.000826975423      2.842E-14 1.056E-18 0.000E+00
 ETOT 25  -50.000826975423      0.000E+00 2.065E-19 0.000E+00
 ETOT 26  -50.000826975423      0.000E+00 4.253E-20 0.000E+00
 ETOT 27  -50.000826975423     -7.105E-15 9.955E-21 0.000E+00

 At SCF step   27   max residual=  9.95E-21 < tolwfr=  1.00E-20 =>converged.

 ----iterations are completed or convergence reached----

 dfpt_looppert: DFPT cycle converged with prtwf=-1. Will skip output of the 1st-order WFK file.
 dfpt_looppert : ek2=    7.6076118988E+01
          f-sum rule ratio=    1.3368125742E+00
 prteigrs : about to open file /scratch/users/j/a/jabreu/flow_simple_6atoms/flow/w246/t1/tmpdata/tmp_1WF1_EIG
 Expectation of eigenvalue derivatives (hartree) for nkpt=   1  k points:
  (in case of degenerate eigenvalues, averaged derivative)
 kpt#   1, nband= 33, wtk=  1.00000, kpt=  0.0000  0.0000  0.0000 (reduced coord)
   0.00000   -0.00000    0.00000    0.00000   -0.00000    0.00000    0.00000   -0.00000
  -0.00000   -0.00000    0.00000    0.00000    0.00000    0.00000   -0.00000    0.00000
   0.00000    0.00000    0.00000    0.00000    0.00000   -0.00000   -0.00000   -0.00000
  -0.00000   -0.00000   -0.00000    0.00000   -0.00000   -0.00000    0.00000    0.00000
  -0.00000

 Eight components of 2nd-order total energy (hartree) are
 1,2,3: 0th-order hamiltonian combined with 1st-order wavefunctions
     kin0=   4.78240654E+01 eigvalue=  -2.82180509E+00  local=  -2.34562622E+01
 4,5,6: 1st-order hamiltonian combined with 1st and 0th-order wfs
     kin1=  -1.01699512E+02  Hartree=   0.00000000E+00     xc=   0.00000000E+00
 7,8,9: eventually, occupation + non-local contributions
    edocc=   2.51407264E+01     enl0=   3.31410252E+00   enl1=   1.69785851E+00
 1-9 gives the relaxation energy (to be shifted if some occ is /=2.0)
   erelax=  -5.00008270E+01
  No Ewald or frozen-wf contrib.: the relaxation energy is the total one
 2DEtotal=   -0.5000082698E+02 Ha. Also 2DEtotal=   -0.136059169615E+04 eV
    (  non-var. 2DEtotal :   -5.0000826975E+01 Ha)

 Perturbation wavevector (in red.coord.)   0.000000  0.000000  0.000000
 Perturbation : derivative vs k along direction   2
 The set of symmetries contains only one element for this perturbation.
 symkpt : not enough symmetry to change the number of k points.

[...]

 Perturbation wavevector (in red.coord.)   0.000000  0.000000  0.000000
 Perturbation : derivative vs k along direction   3
 The set of symmetries contains only one element for this perturbation.
 symkpt : not enough symmetry to change the number of k points.

-inwffil : will read wavefunctions from disk file /scratch/users/j/a/jabreu/flow_simple_6atoms/flow/w246/t1/indata/in_WFK

 Initialisation of the first-order wave-functions :
  ireadwf=   0

--- !BeginCycle
iteration_state: {dtset: 1, }
solver: {iscf: 7, nstep: 1000, nline: 4, wfoptalg: 0, }
tolerances: {tolwfr: 1.00E-20, }
...

     iter   2DEtotal(Ha)        deltaE(Ha) residm    vres2
-ETOT  1  -12.345160207330     -1.235E+01 1.585E-02 0.000E+00
 ETOT  2  -12.351794617080     -6.634E-03 3.916E-05 0.000E+00
 ETOT  3  -12.351806903003     -1.229E-05 1.164E-07 0.000E+00
 ETOT  4  -12.351806980226     -7.722E-08 1.045E-09 0.000E+00
 ETOT  5  -12.351806980999     -7.735E-10 7.413E-12 0.000E+00
 ETOT  6  -12.351806981008     -8.795E-12 3.303E-13 0.000E+00
 ETOT  7  -12.351806981008     -1.350E-13 3.661E-14 0.000E+00
 ETOT  8  -12.351806981008     -1.776E-15 4.055E-15 0.000E+00
 ETOT  9  -12.351806981008      7.105E-15 4.158E-16 0.000E+00
 ETOT 10  -12.351806981008      1.776E-15 4.906E-17 0.000E+00
 ETOT 11  -12.351806981008      0.000E+00 4.942E-18 0.000E+00
 ETOT 12  -12.351806981008      0.000E+00 6.300E-19 0.000E+00
 ETOT 13  -12.351806981008     -5.329E-15 6.834E-20 0.000E+00
 ETOT 14  -12.351806981008      5.329E-15 9.772E-21 0.000E+00

 At SCF step   14   max residual=  9.77E-21 < tolwfr=  1.00E-20 =>converged.

 ----iterations are completed or convergence reached----

 dfpt_looppert: DFPT cycle converged with prtwf=-1. Will skip output of the 1st-order WFK file.
 dfpt_looppert : ek2=    2.3156332892E+01
          f-sum rule ratio=    1.0790023093E+00
 prteigrs : about to open file /scratch/users/j/a/jabreu/flow_simple_6atoms/flow/w246/t1/tmpdata/tmp_1WF1_EIG
 Expectation of eigenvalue derivatives (hartree) for nkpt=   1  k points:
  (in case of degenerate eigenvalues, averaged derivative)
 kpt#   1, nband= 33, wtk=  1.00000, kpt=  0.0000  0.0000  0.0000 (reduced coord)
   0.00000    0.00000    0.00000    0.00000   -0.00000    0.00000    0.00000   -0.00000
  -0.00000   -0.00000    0.00000    0.00000   -0.00000   -0.00000    0.00000    0.00000
   0.00000    0.00000    0.00000   -0.00000   -0.00000    0.00000    0.00000    0.00000
  -0.00000    0.00000    0.00000   -0.00000    0.00000    0.00000   -0.00000   -0.00000
   0.00000

 Eight components of 2nd-order total energy (hartree) are
 1,2,3: 0th-order hamiltonian combined with 1st-order wavefunctions
     kin0=   1.34242063E+01 eigvalue=  -8.00609986E-01  local=  -5.68286828E+00
 4,5,6: 1st-order hamiltonian combined with 1st and 0th-order wfs
     kin1=  -2.49857367E+01  Hartree=   0.00000000E+00     xc=   0.00000000E+00
 7,8,9: eventually, occupation + non-local contributions
    edocc=   4.95433989E+00     enl0=   4.56739041E-01   enl1=   2.82122703E-01
 1-9 gives the relaxation energy (to be shifted if some occ is /=2.0)
   erelax=  -1.23518070E+01
  No Ewald or frozen-wf contrib.: the relaxation energy is the total one
 2DEtotal=   -0.1235180698E+02 Ha. Also 2DEtotal=   -0.336109761125E+03 eV
    (  non-var. 2DEtotal :   -1.2351806981E+01 Ha)

 CALCULATION OF EFFECTIVE MASSES
 NOTE : Additional infos (eff. mass eigenvalues, eigenvectors and, if degenerate, average mass) are available in stdout.

 COMMENTS:
 - At k-point ( 0.000, 0.000, 0.000), bands    23 through    24
   are DEGENERATE (effective mass tensor is therefore not defined).
   See Section IIIB Eqs. (67)-(70) and Appendix E of PRB 93 205147 (2016).
 - Angular average effective mass for Frohlich model is to be averaged over degenerate bands. See later.
 - Associated theta integrals calculated with ntheta=   1000 points.

 K-point ( 0.000, 0.000, 0.000) | band =    23
 Transport equivalent effective mass tensor:
             -0.2361898648             -0.0000000004             -0.0000001926
             -0.0000000004             -0.2361899546              0.0000005160
             -0.0000001926              0.0000005160             -5.2331780798
 Transport equivalent effective mass tensor eigenvalues:
             -5.2331780798             -0.2361899546             -0.2361898648
 Angular average effective mass 1/(<1/m>)=  -0.3376529985
 Angular average effective mass for Frohlich model (<m**0.5>)**2=  -0.4444527785
 Effective masses along directions: (cart. coord. / red. coord. -> eff. mass)
    1:   1.000000  0.000000  0.000000 /   1.000000  0.000000  0.000000 ->  -0.2581454489
    2:   0.000000  1.000000  0.000000 /   0.000000  1.000000  0.000000 ->  -0.2581455506
    3:   0.000000  0.000000  1.000000 /   0.000000  0.000000  1.000000 ->  -5.0235904169
    4:   0.577350  0.577350  0.577350 /   0.434975  0.434975  0.788412 ->  -0.3098005645
    5:   0.000000  0.707107  0.707107 /   0.000000  0.483068  0.875583 ->  -0.4910572001
    6:   0.707107  0.000000  0.707107 /   0.483068  0.000000  0.875583 ->  -0.4910571596
    7:   0.707107  0.707107  0.000000 /   0.707107  0.707107  0.000000 ->  -0.2108684136

 K-point ( 0.000, 0.000, 0.000) | band =    24
 Transport equivalent effective mass tensor:
             -0.7744913538              0.0000000001             -0.0000000346
              0.0000000001             -0.7744914451              0.0000000926
             -0.0000000346              0.0000000926             -6.7077816438
 Transport equivalent effective mass tensor eigenvalues:
             -6.7077816438             -0.7744914451             -0.7744913538
 Angular average effective mass 1/(<1/m>)=  -0.9089005938
 Angular average effective mass for Frohlich model (<m**0.5>)**2=  -1.0962906962
 Effective masses along directions: (cart. coord. / red. coord. -> eff. mass)
    1:   1.000000  0.000000  0.000000 /   1.000000  0.000000  0.000000 ->  -0.4950664451
    2:   0.000000  1.000000  0.000000 /   0.000000  1.000000  0.000000 ->  -0.4950664451
    3:   0.000000  0.000000  1.000000 /   0.000000  0.000000  1.000000 ->  -5.0235904182
    4:   0.577350  0.577350  0.577350 /   0.434975  0.434975  0.788412 ->  -1.1990870610
    5:   0.000000  0.707107  0.707107 /   0.000000  0.483068  0.875583 ->  -0.9013102686
    6:   0.707107  0.000000  0.707107 /   0.483068  0.000000  0.875583 ->  -0.9013102686
    7:   0.707107  0.707107  0.000000 /   0.707107  0.707107  0.000000 ->  -0.8684918408

 Angular average effective mass for Frohlich model, averaged over degenerate bands.
 Value of     (<<m**0.5>>)**2 =     7.342021E-01
 Absolute Value of <<m**0.5>> =     8.568560E-01

 K-point ( 0.000, 0.000, 0.000) | band =    25
 Effective mass tensor:
              0.2942439372              0.0000000000             -0.0000000000
              0.0000000000              0.2942439372             -0.0000000000
             -0.0000000000             -0.0000000000              0.9275807927
 Effective mass tensor eigenvalues:
              0.2942439372              0.2942439372              0.9275807927
 Angular average effective mass 1/(<1/m>)=   0.3809449008
 Angular average effective mass for Frohlich model (<m**0.5>)**2=   0.4075874395
 Effective masses along directions: (cart. coord. / red. coord. -> eff. mass)
    1:   1.000000  0.000000  0.000000 /   1.000000  0.000000  0.000000 ->   0.2942439372
    2:   0.000000  1.000000  0.000000 /   0.000000  1.000000  0.000000 ->   0.2942439372
    3:   0.000000  0.000000  1.000000 /   0.000000  0.000000  1.000000 ->   0.9275807927
    4:   0.577350  0.577350  0.577350 /   0.434975  0.434975  0.788412 ->   0.3809449008
    5:   0.000000  0.707107  0.707107 /   0.000000  0.483068  0.875583 ->   0.4467662470
    6:   0.707107  0.000000  0.707107 /   0.483068  0.000000  0.875583 ->   0.4467662470
    7:   0.707107  0.707107  0.000000 /   0.707107  0.707107  0.000000 ->   0.2942439372

 END OF EFFECTIVE MASSES SECTION

 ---- first-order wavefunction calculations are completed ----

 Total localisation tensor (bohr^2) in cartesian coordinates
  WARNING : still subject to testing - especially symmetries.
      direction              matrix element
   alpha     beta       real part   imaginary part
     1        1       2.0043183894    0.0000000000
     1        2       0.0000000000    0.0000000000
     1        3       0.0000000000    0.0000000000
     2        1       0.0000000000    0.0000000000
     2        2       2.0043181845    0.0000000000
     2        3       0.0000000000    0.0000000000
     3        1       0.0000000000    0.0000000000
     3        2       0.0000000000    0.0000000000
     3        3       0.9926035193    0.0000000000

 respfn : d/dk was computed, but no 2DTE, so no DDB output.

== END DATASET(S) ==============================================================

 -outvars: echo values of variables after computation  --------
            acell      1.0000000000E+00  1.0000000000E+00  1.0000000000E+00 Bohr
              amu      8.89058500E+01  3.20660000E+01  1.89984032E+01
             ecut      4.20000000E+01 Hartree
           etotal     -1.2351806981E+01
            fcart      0.0000000000E+00  0.0000000000E+00  0.0000000000E+00
                       0.0000000000E+00  0.0000000000E+00  0.0000000000E+00
                       0.0000000000E+00  0.0000000000E+00  0.0000000000E+00
                       0.0000000000E+00  0.0000000000E+00  0.0000000000E+00
                       0.0000000000E+00  0.0000000000E+00  0.0000000000E+00
                       0.0000000000E+00  0.0000000000E+00  0.0000000000E+00
-          fftalg         512
           irdden           1
           irdwfk           1
           istwfk        1
              ixc     -116133
           kptopt           0
P           mkmem           1
P          mkqmem           1
P          mk1mem           1
            natom           6
            nband          33
           nbdbuf           4
            ngfft          45      45      80
             nkpt           1
            nstep        1000
             nsym          16
           ntypat           3
              occ      2.000000  2.000000  2.000000  2.000000  2.000000  2.000000
                       2.000000  2.000000  2.000000  2.000000  2.000000  2.000000
                       2.000000  2.000000  2.000000  2.000000  2.000000  2.000000
                       2.000000  2.000000  2.000000  2.000000  2.000000  2.000000
                       0.000000  0.000000  0.000000  0.000000  0.000000  0.000000
                       0.000000  0.000000  0.000000
        optdriver           1
            prtwf          -1
            rfdir           1       1       1
           rfelfd           2
            rprim      7.0581569332E+00  0.0000000000E+00  0.0000000000E+00
                       0.0000000000E+00  7.0581569332E+00  0.0000000000E+00
                       0.0000000000E+00  0.0000000000E+00  1.2793241339E+01
          spgroup         129
           strten      0.0000000000E+00  0.0000000000E+00  0.0000000000E+00
                       0.0000000000E+00  0.0000000000E+00  0.0000000000E+00
           symrel      1  0  0   0  1  0   0  0  1      -1  0  0   0 -1  0   0  0 -1
                      -1  0  0   0  1  0   0  0 -1       1  0  0   0 -1  0   0  0  1
                      -1  0  0   0 -1  0   0  0  1       1  0  0   0  1  0   0  0 -1
                       1  0  0   0 -1  0   0  0 -1      -1  0  0   0  1  0   0  0  1
                       0  1  0   1  0  0   0  0  1       0 -1  0  -1  0  0   0  0 -1
                       0 -1  0   1  0  0   0  0 -1       0  1  0  -1  0  0   0  0  1
                       0 -1  0  -1  0  0   0  0  1       0  1  0   1  0  0   0  0 -1
                       0  1  0  -1  0  0   0  0 -1       0 -1  0   1  0  0   0  0  1
            tnons      0.0000000  0.0000000  0.0000000     0.5000000  0.5000000  0.0000000
                       0.5000000  0.5000000  0.0000000     0.0000000  0.0000000  0.0000000
                       0.0000000  0.0000000  0.0000000     0.5000000  0.5000000  0.0000000
                       0.5000000  0.5000000  0.0000000     0.0000000  0.0000000  0.0000000
                       0.5000000  0.5000000  0.0000000     0.0000000  0.0000000  0.0000000
                       0.0000000  0.0000000  0.0000000     0.5000000  0.5000000  0.0000000
                       0.5000000  0.5000000  0.0000000     0.0000000  0.0000000  0.0000000
                       0.0000000  0.0000000  0.0000000     0.5000000  0.5000000  0.0000000
           tolwfr      1.00000000E-20
            typat      1  1  2  2  3  3
           useylm           1
           xangst      0.0000000000E+00  1.8675078919E+00  1.5369008229E+00
                       1.8675078919E+00  0.0000000000E+00  5.2329909175E+00
                       0.0000000000E+00  1.8675078919E+00  4.3519978258E+00
                       1.8675078919E+00  0.0000000000E+00  2.4178939147E+00
                       0.0000000000E+00  0.0000000000E+00  0.0000000000E+00
                       1.8675078919E+00  1.8675078919E+00  0.0000000000E+00
            xcart      0.0000000000E+00  3.5290784666E+00  2.9043216487E+00
                       3.5290784666E+00  0.0000000000E+00  9.8889196900E+00
                       0.0000000000E+00  3.5290784666E+00  8.2240840216E+00
                       3.5290784666E+00  0.0000000000E+00  4.5691573171E+00
                       0.0000000000E+00  0.0000000000E+00  0.0000000000E+00
                       3.5290784666E+00  3.5290784666E+00  0.0000000000E+00
             xred      0.0000000000E+00  5.0000000000E-01  2.2702000000E-01
                       5.0000000000E-01  0.0000000000E+00  7.7298000000E-01
                       0.0000000000E+00  5.0000000000E-01  6.4284600000E-01
                       5.0000000000E-01  0.0000000000E+00  3.5715400000E-01
                       0.0000000000E+00  0.0000000000E+00  0.0000000000E+00
                       5.0000000000E-01  5.0000000000E-01  0.0000000000E+00
            znucl       39.00000   16.00000    9.00000

- Timing analysis has been suppressed with timopt=0

 Suggested references for the acknowledgment of ABINIT usage.

 Calculation completed.
.Delivered   6 WARNINGs and   5 COMMENTs to log file.