.Version 9.5.1 of ABINIT

 ABINIT is a project of the Universite Catholique de Louvain,
 Corning Inc. and other collaborators, see ~abinit/doc/developers/contributors.txt .
 acknowledgments of the ABINIT effort.

.Starting date : Sun 25 Apr 2021.
- ( at 17h18 )

- input  file    -> /scratch/users/j/a/jabreu/flow_simple2/flow/w187/t1/run.abi
- output file    -> /scratch/users/j/a/jabreu/flow_simple2/flow/w187/t1/run.abo
- root for input  files -> /scratch/users/j/a/jabreu/flow_simple2/flow/w187/t1/indata/in
- root for output files -> /scratch/users/j/a/jabreu/flow_simple2/flow/w187/t1/outdata/out

 Symmetries : space group F-4 3 m (#216); Bravais cF (face-center cubic)
     intxc =       0      iscf =       7    lmnmax =      18     lnmax =       6
     mgfft =      45  mpssoang =       3    mqgrid =    3001     natom =       2
  nloc_mem =       1    nspden =       1   nspinor =       1    nsppol =       1
      nsym =      24    n1xccc =    2501    ntypat =       2    occopt =       1
   xclevel =       2
-    mband =          18        mffmem =           1         mkmem =           2
-   mkqmem =           2        mk1mem =           2           mpw =        3750
      nfft =       91125          nkpt =           2
  Rough estimation (10% accuracy) of disk space for files :

------------- Echo of variables that govern the present computation ------------
-
- outvars: echo of selected default values
-   iomode0 =  0 , fftalg0 =512 , wfoptalg0 =  0
-
- outvars: echo of global parameters not present in the input file
-  max_nthreads =    0
-
 -outvars: echo values of preprocessed input variables --------
            acell      1.0000000000E+00  1.0000000000E+00  1.0000000000E+00 Bohr
              amu      2.80855000E+01  1.18710000E+02
             ecut      3.60000000E+01 Hartree
-          fftalg         512
           irdden           1
           irdwfk           1
           istwfk        1    1
              ixc     -116133
              kpt      0.00000000E+00  0.00000000E+00  0.00000000E+00
                       5.00000000E-01  5.00000000E-01  5.00000000E-01
           kptopt           0
P           mkmem           2
P          mkqmem           2
P          mk1mem           2
            natom           2
            nband          18
           nbdbuf           4
            ngfft          45      45      45
             nkpt           2
            nstep         100
             nsym          24
           ntypat           2
              occ      2.000000  2.000000  2.000000  2.000000  2.000000  2.000000
                       2.000000  2.000000  2.000000  0.000000  0.000000  0.000000
                       0.000000  0.000000  0.000000  0.000000  0.000000  0.000000
        optdriver           1
            prtwf          -1
            rfdir           1       1       1
           rfelfd           2
            rprim      6.9429027835E+00  0.0000000000E+00  4.0084867910E+00
                       2.3143009278E+00  6.5458315191E+00  4.0084867910E+00
                       0.0000000000E+00  0.0000000000E+00  8.0169735820E+00
          spgroup         216
           symrel      1  0  0   0  1  0   0  0  1       0 -1  1   0 -1  0   1 -1  0
                      -1  0  0  -1  0  1  -1  1  0       0  1 -1   1  0 -1   0  0 -1
                      -1  0  0  -1  1  0  -1  0  1       0 -1  1   1 -1  0   0 -1  0
                       1  0  0   0  0  1   0  1  0       0  1 -1   0  0 -1   1  0 -1
                      -1  0  1  -1  1  0  -1  0  0       0 -1  0   1 -1  0   0 -1  1
                       1  0 -1   0  0 -1   0  1 -1       0  1  0   0  0  1   1  0  0
                       1  0 -1   0  1 -1   0  0 -1       0 -1  0   0 -1  1   1 -1  0
                      -1  0  1  -1  0  0  -1  1  0       0  1  0   1  0  0   0  0  1
                       0  0 -1   0  1 -1   1  0 -1       1 -1  0   0 -1  1   0 -1  0
                       0  0  1   1  0  0   0  1  0      -1  1  0  -1  0  0  -1  0  1
                       0  0  1   0  1  0   1  0  0       1 -1  0   0 -1  0   0 -1  1
                       0  0 -1   1  0 -1   0  1 -1      -1  1  0  -1  0  1  -1  0  0
           tolwfr      1.00000000E-20
            typat      1  2
           useylm           1
              wtk        0.50000    0.50000
           xangst      0.0000000000E+00  0.0000000000E+00  0.0000000000E+00
                       3.6740259145E+00  2.5979286384E+00  6.3635995522E+00
            xcart      0.0000000000E+00  0.0000000000E+00  0.0000000000E+00
                       6.9429027835E+00  4.9093736393E+00  1.2025460373E+01
             xred      0.0000000000E+00  0.0000000000E+00  0.0000000000E+00
                       7.5000000000E-01  7.5000000000E-01  7.5000000000E-01
            znucl       14.00000   50.00000

 chkinp: Checking input parameters for consistency.

== DATASET  1 ==================================================================
-   mpi_nproc: 1, omp_nthreads: -1 (-1 if OMP is not activated)

--- !DatasetInfo
iteration_state: {dtset: 1, }
dimensions: {natom: 2, nkpt: 2, mband: 18, nsppol: 1, nspinor: 1, nspden: 1, mpw: 3750, }
cutoff_energies: {ecut:  36.0, pawecutdg:  -1.0, }
electrons: {nelect:   1.80000000E+01, charge:   0.00000000E+00, occopt:   1.00000000E+00, tsmear:   1.00000000E-02, }
meta: {optdriver: 1, rfelfd: 2, }
...

 Real(R)+Recip(G) space primitive vectors, cartesian coordinates (Bohr,Bohr^-1):
 R(1)=  6.9429028  0.0000000  4.0084868  G(1)=  0.1440320 -0.0509230  0.0000000
 R(2)=  2.3143009  6.5458315  4.0084868  G(2)=  0.0000000  0.1527690  0.0000000
 R(3)=  0.0000000  0.0000000  8.0169736  G(3)= -0.0720160 -0.0509230  0.1247353
 Unit cell volume ucvol=  3.6434797E+02 bohr^3
 Angles (23,13,12)=  6.00000000E+01  6.00000000E+01  6.00000000E+01 degrees

 getcut: wavevector=  0.0000  0.0000  0.0000  ngfft=  45  45  45
         ecut(hartree)=     36.000   => boxcut(ratio)=   2.03201

--- Pseudopotential description ------------------------------------------------
- pspini: atom type   1  psp file is /scratch/users/j/a/jabreu/pseudos/PBEsol/Si.psp8
- pspatm: opening atomic psp file    /scratch/users/j/a/jabreu/pseudos/PBEsol/Si.psp8
- Si    ONCVPSP-3.3.0  r_core=   1.60303   1.72197   1.91712
- 14.00000   4.00000    180112                znucl, zion, pspdat
    8 -116133    2    4       600   0.00000   pspcod,pspxc,lmax,lloc,mmax,r2well
    5.99000000000000    4.00000000000000    0.00000000000000   rchrg,fchrg,qchrg
     nproj     2     2     2
     extension_switch     1
  pspatm : epsatm=    7.86468782
         --- l  ekb(1:nproj) -->
             0    5.384426    0.843824
             1    2.663259    0.615854
             2   -2.267219   -0.458043
 pspatm: atomic psp has been read  and splines computed

- pspini: atom type   2  psp file is /scratch/users/j/a/jabreu/pseudos/PBEsol/Sn.psp8
- pspatm: opening atomic psp file    /scratch/users/j/a/jabreu/pseudos/PBEsol/Sn.psp8
- Sn    ONCVPSP-3.3.0  r_core=   2.27326   2.62311   1.85601
- 50.00000  14.00000    180112                znucl, zion, pspdat
    8 -116133    2    4       600   0.00000   pspcod,pspxc,lmax,lloc,mmax,r2well
    5.99000000000000    6.50000000000000    0.00000000000000   rchrg,fchrg,qchrg
     nproj     2     2     2
     extension_switch     1
  pspatm : epsatm=   32.44586081
         --- l  ekb(1:nproj) -->
             0    5.587869    0.749373
             1    4.197111    0.728791
             2   -5.271877   -1.523486
 pspatm: atomic psp has been read  and splines computed

   7.25589875E+02                                ecore*ucvol(ha*bohr**3)

-inwffil : will read wavefunctions from disk file /scratch/users/j/a/jabreu/flow_simple2/flow/w187/t1/indata/in_WFK

 ==>  initialize data related to q vector <==

 The list of irreducible perturbations for this q vector is:
    1)    idir= 1    ipert=   3
    2)    idir= 2    ipert=   3
    3)    idir= 3    ipert=   3

 Perturbation wavevector (in red.coord.)   0.000000  0.000000  0.000000
 Perturbation : derivative vs k along direction   1

 dfpt_looppert : COMMENT -
  In a d/dk calculation, iscf is set to -3 automatically.
 The set of symmetries contains only one element for this perturbation.
 symkpt : not enough symmetry to change the number of k points.

[...]

 Initialisation of the first-order wave-functions :
  ireadwf=   0

--- !BeginCycle
iteration_state: {dtset: 1, }
solver: {iscf: 7, nstep: 100, nline: 4, wfoptalg: 0, }
tolerances: {tolwfr: 1.00E-20, }
...

     iter   2DEtotal(Ha)        deltaE(Ha) residm    vres2
-ETOT  1  -75.933165776879     -7.593E+01 3.079E-01 0.000E+00
 ETOT  2  -75.949852455554     -1.669E-02 1.490E-03 0.000E+00
 ETOT  3  -75.949859548500     -7.093E-06 1.883E-04 0.000E+00
 ETOT  4  -75.949859558904     -1.040E-08 6.914E-07 0.000E+00
 ETOT  5  -75.949859558930     -2.576E-11 1.706E-07 0.000E+00
 ETOT  6  -75.949859558930     -4.263E-14 8.444E-10 0.000E+00
 ETOT  7  -75.949859558930      8.527E-14 2.899E-10 0.000E+00
 ETOT  8  -75.949859558930      2.842E-14 1.462E-12 0.000E+00
 ETOT  9  -75.949859558930      1.421E-13 5.781E-13 0.000E+00
 ETOT 10  -75.949859558930     -2.842E-14 2.809E-15 0.000E+00
 ETOT 11  -75.949859558930      0.000E+00 1.186E-15 0.000E+00
 ETOT 12  -75.949859558930      2.842E-14 5.599E-18 0.000E+00
 ETOT 13  -75.949859558930     -4.263E-14 2.443E-18 0.000E+00
 ETOT 14  -75.949859558930      1.421E-14 1.143E-20 0.000E+00
 ETOT 15  -75.949859558930      0.000E+00 9.637E-21 0.000E+00

 At SCF step   15   max residual=  9.64E-21 < tolwfr=  1.00E-20 =>converged.

 ----iterations are completed or convergence reached----

 dfpt_looppert: DFPT cycle converged with prtwf=-1. Will skip output of the 1st-order WFK file.
 dfpt_looppert : ek2=    3.3169016285E+01
          f-sum rule ratio=    3.4450102984E+00
 prteigrs : about to open file /scratch/users/j/a/jabreu/flow_simple2/flow/w187/t1/tmpdata/tmp_1WF1_EIG
 Expectation of eigenvalue derivatives (hartree) for nkpt=   2  k points:
  (in case of degenerate eigenvalues, averaged derivative)
 kpt#   1, nband= 18, wtk=  0.50000, kpt=  0.0000  0.0000  0.0000 (reduced coord)
   0.00000    0.00000    0.00000    0.00000    0.00000   -0.00000    0.00000    0.00000
   0.00000    0.00000    0.00000    0.00000    0.00000    0.00000    0.00000    0.00000
  -0.00000   -0.00000
 prteigrs : prtvol=0 or 1, do not print more k-points.

 Eight components of 2nd-order total energy (hartree) are
 1,2,3: 0th-order hamiltonian combined with 1st-order wavefunctions
     kin0=   3.11209456E+01 eigvalue=   4.32966973E+00  local=  -1.53723672E+01
 4,5,6: 1st-order hamiltonian combined with 1st and 0th-order wfs
     kin1=  -1.14267603E+02  Hartree=   0.00000000E+00     xc=   0.00000000E+00
 7,8,9: eventually, occupation + non-local contributions
    edocc=   5.08444518E+01     enl0=   5.02715971E+00   enl1=  -3.76321164E+01
 1-9 gives the relaxation energy (to be shifted if some occ is /=2.0)
   erelax=  -7.59498596E+01
  No Ewald or frozen-wf contrib.: the relaxation energy is the total one
 2DEtotal=   -0.7594985956E+02 Ha. Also 2DEtotal=   -0.206670078257E+04 eV
    (  non-var. 2DEtotal :   -7.5949859559E+01 Ha)

 Perturbation wavevector (in red.coord.)   0.000000  0.000000  0.000000
 Perturbation : derivative vs k along direction   2
 The set of symmetries contains only one element for this perturbation.
 symkpt : not enough symmetry to change the number of k points.

[...]

 Perturbation wavevector (in red.coord.)   0.000000  0.000000  0.000000
 Perturbation : derivative vs k along direction   3
 The set of symmetries contains only one element for this perturbation.
 symkpt : not enough symmetry to change the number of k points.

-inwffil : will read wavefunctions from disk file /scratch/users/j/a/jabreu/flow_simple2/flow/w187/t1/indata/in_WFK

 Initialisation of the first-order wave-functions :
  ireadwf=   0

--- !BeginCycle
iteration_state: {dtset: 1, }
solver: {iscf: 7, nstep: 100, nline: 4, wfoptalg: 0, }
tolerances: {tolwfr: 1.00E-20, }
...

     iter   2DEtotal(Ha)        deltaE(Ha) residm    vres2
-ETOT  1  -75.931062052715     -7.593E+01 1.172E-01 0.000E+00
 ETOT  2  -75.949849563970     -1.879E-02 1.150E-03 0.000E+00
 ETOT  3  -75.949857097843     -7.534E-06 1.885E-04 0.000E+00
 ETOT  4  -75.949857109192     -1.135E-08 1.500E-06 0.000E+00
 ETOT  5  -75.949857109222     -2.925E-11 3.407E-07 0.000E+00
 ETOT  6  -75.949857109222      0.000E+00 3.208E-09 0.000E+00
 ETOT  7  -75.949857109222     -5.684E-14 8.171E-10 0.000E+00
 ETOT  8  -75.949857109222     -8.527E-14 9.218E-12 0.000E+00
 ETOT  9  -75.949857109222     -2.842E-14 2.582E-12 0.000E+00
 ETOT 10  -75.949857109222      0.000E+00 2.878E-14 0.000E+00
 ETOT 11  -75.949857109222     -2.842E-14 8.409E-15 0.000E+00
 ETOT 12  -75.949857109222      2.842E-14 9.240E-17 0.000E+00
 ETOT 13  -75.949857109222      0.000E+00 2.767E-17 0.000E+00
 ETOT 14  -75.949857109222     -2.842E-14 3.011E-19 0.000E+00
 ETOT 15  -75.949857109222      2.842E-14 9.173E-20 0.000E+00
 ETOT 16  -75.949857109222      0.000E+00 7.890E-21 0.000E+00

 At SCF step   16   max residual=  7.89E-21 < tolwfr=  1.00E-20 =>converged.

 ----iterations are completed or convergence reached----

 dfpt_looppert: DFPT cycle converged with prtwf=-1. Will skip output of the 1st-order WFK file.
 dfpt_looppert : ek2=    3.3169016286E+01
          f-sum rule ratio=    3.4450102350E+00
 prteigrs : about to open file /scratch/users/j/a/jabreu/flow_simple2/flow/w187/t1/tmpdata/tmp_1WF1_EIG
 Expectation of eigenvalue derivatives (hartree) for nkpt=   2  k points:
  (in case of degenerate eigenvalues, averaged derivative)
 kpt#   1, nband= 18, wtk=  0.50000, kpt=  0.0000  0.0000  0.0000 (reduced coord)
   0.00000    0.00000    0.00000    0.00000    0.00000    0.00000    0.00000    0.00000
   0.00000   -0.00000   -0.00000   -0.00000   -0.00000   -0.00000   -0.00000   -0.00000
  -0.00000   -0.00000
 prteigrs : prtvol=0 or 1, do not print more k-points.

 Eight components of 2nd-order total energy (hartree) are
 1,2,3: 0th-order hamiltonian combined with 1st-order wavefunctions
     kin0=   3.11964860E+01 eigvalue=   4.34825318E+00  local=  -1.54606131E+01
 4,5,6: 1st-order hamiltonian combined with 1st and 0th-order wfs
     kin1=  -1.14267601E+02  Hartree=   0.00000000E+00     xc=   0.00000000E+00
 7,8,9: eventually, occupation + non-local contributions
    edocc=   5.07926390E+01     enl0=   5.07309202E+00   enl1=  -3.76321136E+01
 1-9 gives the relaxation energy (to be shifted if some occ is /=2.0)
   erelax=  -7.59498571E+01
  No Ewald or frozen-wf contrib.: the relaxation energy is the total one
 2DEtotal=   -0.7594985711E+02 Ha. Also 2DEtotal=   -0.206670071591E+04 eV
    (  non-var. 2DEtotal :   -7.5949857109E+01 Ha)

 CALCULATION OF EFFECTIVE MASSES
 NOTE : Additional infos (eff. mass eigenvalues, eigenvectors and, if degenerate, average mass) are available in stdout.

 COMMENTS:
 - At k-point ( 0.000, 0.000, 0.000), bands     7 through     9
   are DEGENERATE (effective mass tensor is therefore not defined).
   See Section IIIB Eqs. (67)-(70) and Appendix E of PRB 93 205147 (2016).
 - Angular average effective mass for Frohlich model is to be averaged over degenerate bands. See later.
 - Associated theta integrals calculated with ntheta=   1000 points.

 K-point ( 0.000, 0.000, 0.000) | band =     7
 Transport equivalent effective mass tensor:
             -0.0327926988              0.0000000002             -0.0000000001
              0.0000000002             -0.0327926989              0.0000000002
             -0.0000000001              0.0000000002             -0.0327926990
 Transport equivalent effective mass tensor eigenvalues:
             -0.0327926993             -0.0327926988             -0.0327926987
 Angular average effective mass 1/(<1/m>)=  -0.0321497092
 Angular average effective mass for Frohlich model (<m**0.5>)**2=  -0.0321935235
 Effective masses along directions: (cart. coord. / red. coord. -> eff. mass)
    1:   1.000000  0.000000  0.000000 /   0.948683  0.316228  0.000000 ->  -0.0313497126
    2:   0.000000  1.000000  0.000000 /   0.000000  1.000000  0.000000 ->  -0.0302439964
    3:   0.000000  0.000000  1.000000 /   0.408248  0.408248  0.816497 ->  -0.0314563228
    4:   0.577350  0.577350  0.577350 /   0.585539  0.688047  0.428644 ->  -0.0313262408
    5:   0.000000  0.707107  0.707107 /   0.289489  0.762222  0.578977 ->  -0.0329691742
    6:   0.707107  0.000000  0.707107 /   0.731423  0.422287  0.535439 ->  -0.0314027312
    7:   0.707107  0.707107  0.000000 /   0.616798  0.787122  0.000000 ->  -0.0351418014

[...]

 K-point ( 0.000, 0.000, 0.000) | band =     9
 Transport equivalent effective mass tensor:
             -6.1613561093              0.0000060734             -0.0000002101
              0.0000060734             -6.1613539370              0.0000002797
             -0.0000002101              0.0000002797             -6.1613462084
 Transport equivalent effective mass tensor eigenvalues:
             -6.1613612006             -6.1613488558             -6.1613461983
 Angular average effective mass 1/(<1/m>)=  -0.5337612542
 Angular average effective mass for Frohlich model (<m**0.5>)**2=  -0.6496619725
 Effective masses along directions: (cart. coord. / red. coord. -> eff. mass)
    1:   1.000000  0.000000  0.000000 /   0.948683  0.316228  0.000000 ->  -0.5717950411
    2:   0.000000  1.000000  0.000000 /   0.000000  1.000000  0.000000 ->  -0.5385070684
    3:   0.000000  0.000000  1.000000 /   0.408248  0.408248  0.816497 ->  -1.7161979739
    4:   0.577350  0.577350  0.577350 /   0.585539  0.688047  0.428644 ->  -0.6976767482
    5:   0.000000  0.707107  0.707107 /   0.289489  0.762222  0.578977 ->  -0.4671826323
    6:   0.707107  0.000000  0.707107 /   0.731423  0.422287  0.535439 ->  -0.9699044315
    7:   0.707107  0.707107  0.000000 /   0.616798  0.787122  0.000000 ->  -0.2483871191

 Angular average effective mass for Frohlich model, averaged over degenerate bands.
 Value of     (<<m**0.5>>)**2 =     2.515247E-01
 Absolute Value of <<m**0.5>> =     5.015224E-01

 K-point ( 0.500, 0.500, 0.500) | band =    10
 Effective mass tensor:
              0.4631853449              0.2657687056              0.6509977073
              0.2657687056              0.2752584977              0.4603248988
              0.6509977073              0.4603248988              1.2148927406
 Effective mass tensor eigenvalues:
              0.0873316415              0.0873316415              1.7786733002
 Angular average effective mass 1/(<1/m>)=   0.1278585780
 Angular average effective mass for Frohlich model (<m**0.5>)**2=   0.1667257034
 Effective masses along directions: (cart. coord. / red. coord. -> eff. mass)
    1:   1.000000  0.000000  0.000000 /   0.948683  0.316228  0.000000 ->   0.1107301747
    2:   0.000000  1.000000  0.000000 /   0.000000  1.000000  0.000000 ->   0.0976487860
    3:   0.000000  0.000000  1.000000 /   0.408248  0.408248  0.816497 ->   0.2385678824
    4:   0.577350  0.577350  0.577350 /   0.585539  0.688047  0.428644 ->   0.5233078832
    5:   0.000000  0.707107  0.707107 /   0.289489  0.762222  0.578977 ->   0.2351399014
    6:   0.707107  0.000000  0.707107 /   0.731423  0.422287  0.535439 ->   0.4131585131
    7:   0.707107  0.707107  0.000000 /   0.616798  0.787122  0.000000 ->   0.1261841208

 END OF EFFECTIVE MASSES SECTION

 ---- first-order wavefunction calculations are completed ----

 Total localisation tensor (bohr^2) in cartesian coordinates
  WARNING : still subject to testing - especially symmetries.
      direction              matrix element
   alpha     beta       real part   imaginary part
     1        1      52.7158214793    0.0000000000
     1        2      14.9102859261    0.0000000000
     1        3      36.5225924612    0.0000000000
     2        1      14.9102859261    0.0000000000
     2        2      42.1726571517    0.0000000000
     2        3      25.8253727797    0.0000000000
     3        1      36.5225924612    0.0000000000
     3        2      25.8253727797    0.0000000000
     3        3      94.8884784996    0.0000000000

 respfn : d/dk was computed, but no 2DTE, so no DDB output.

== END DATASET(S) ==============================================================

 -outvars: echo values of variables after computation  --------
            acell      1.0000000000E+00  1.0000000000E+00  1.0000000000E+00 Bohr
              amu      2.80855000E+01  1.18710000E+02
             ecut      3.60000000E+01 Hartree
           etotal     -7.5949857109E+01
            fcart      0.0000000000E+00  0.0000000000E+00  0.0000000000E+00
                       0.0000000000E+00  0.0000000000E+00  0.0000000000E+00
-          fftalg         512
           irdden           1
           irdwfk           1
           istwfk        1    1
              ixc     -116133
              kpt      0.00000000E+00  0.00000000E+00  0.00000000E+00
                       5.00000000E-01  5.00000000E-01  5.00000000E-01
           kptopt           0
P           mkmem           2
P          mkqmem           2
P          mk1mem           2
            natom           2
            nband          18
           nbdbuf           4
            ngfft          45      45      45
             nkpt           2
            nstep         100
             nsym          24
           ntypat           2
              occ      2.000000  2.000000  2.000000  2.000000  2.000000  2.000000
                       2.000000  2.000000  2.000000  0.000000  0.000000  0.000000
                       0.000000  0.000000  0.000000  0.000000  0.000000  0.000000
        optdriver           1
            prtwf          -1
            rfdir           1       1       1
           rfelfd           2
            rprim      6.9429027835E+00  0.0000000000E+00  4.0084867910E+00
                       2.3143009278E+00  6.5458315191E+00  4.0084867910E+00
                       0.0000000000E+00  0.0000000000E+00  8.0169735820E+00
          spgroup         216
           strten      0.0000000000E+00  0.0000000000E+00  0.0000000000E+00
                       0.0000000000E+00  0.0000000000E+00  0.0000000000E+00
           symrel      1  0  0   0  1  0   0  0  1       0 -1  1   0 -1  0   1 -1  0
                      -1  0  0  -1  0  1  -1  1  0       0  1 -1   1  0 -1   0  0 -1
                      -1  0  0  -1  1  0  -1  0  1       0 -1  1   1 -1  0   0 -1  0
                       1  0  0   0  0  1   0  1  0       0  1 -1   0  0 -1   1  0 -1
                      -1  0  1  -1  1  0  -1  0  0       0 -1  0   1 -1  0   0 -1  1
                       1  0 -1   0  0 -1   0  1 -1       0  1  0   0  0  1   1  0  0
                       1  0 -1   0  1 -1   0  0 -1       0 -1  0   0 -1  1   1 -1  0
                      -1  0  1  -1  0  0  -1  1  0       0  1  0   1  0  0   0  0  1
                       0  0 -1   0  1 -1   1  0 -1       1 -1  0   0 -1  1   0 -1  0
                       0  0  1   1  0  0   0  1  0      -1  1  0  -1  0  0  -1  0  1
                       0  0  1   0  1  0   1  0  0       1 -1  0   0 -1  0   0 -1  1
                       0  0 -1   1  0 -1   0  1 -1      -1  1  0  -1  0  1  -1  0  0
           tolwfr      1.00000000E-20
            typat      1  2
           useylm           1
              wtk        0.50000    0.50000
           xangst      0.0000000000E+00  0.0000000000E+00  0.0000000000E+00
                       3.6740259145E+00  2.5979286384E+00  6.3635995522E+00
            xcart      0.0000000000E+00  0.0000000000E+00  0.0000000000E+00
                       6.9429027835E+00  4.9093736393E+00  1.2025460373E+01
             xred      0.0000000000E+00  0.0000000000E+00  0.0000000000E+00
                       7.5000000000E-01  7.5000000000E-01  7.5000000000E-01
            znucl       14.00000   50.00000

- Timing analysis has been suppressed with timopt=0

 Suggested references for the acknowledgment of ABINIT usage.

 Calculation completed.
.Delivered  14 WARNINGs and   9 COMMENTs to log file.