.Version 9.5.2 of ABINIT

 ABINIT is a project of the Universite Catholique de Louvain,
 Corning Inc. and other collaborators, see ~abinit/doc/developers/contributors.txt .
 acknowledgments of the ABINIT effort.

.Starting date : Mon 31 May 2021.
- ( at 21h54 )

- input  file    -> /scratch/users/j/a/jabreu/flow_simple_11atoms/flow/w314/t1/run.abi
- output file    -> /scratch/users/j/a/jabreu/flow_simple_11atoms/flow/w314/t1/run.abo
- root for input  files -> /scratch/users/j/a/jabreu/flow_simple_11atoms/flow/w314/t1/indata/in
- root for output files -> /scratch/users/j/a/jabreu/flow_simple_11atoms/flow/w314/t1/outdata/out

 Symmetries : space group C2/m (# 12); Bravais mC (1-face-center monocl.)
     intxc =       0      iscf =       7    lmnmax =      18     lnmax =       6
     mgfft =      72  mpssoang =       3    mqgrid =    3001     natom =      11
  nloc_mem =       1    nspden =       1   nspinor =       1    nsppol =       1
      nsym =       4    n1xccc =    2501    ntypat =       4    occopt =       1
   xclevel =       2
-    mband =          45        mffmem =           1         mkmem =           1
-   mkqmem =           1        mk1mem =           1           mpw =       11575
      nfft =      259200          nkpt =           1
  Rough estimation (10% accuracy) of disk space for files :

------------- Echo of variables that govern the present computation ------------
-
- outvars: echo of selected default values
-   iomode0 =  0 , fftalg0 =512 , wfoptalg0 =  0
-
- outvars: echo of global parameters not present in the input file
-  max_nthreads =    0
-
 -outvars: echo values of preprocessed input variables --------
            acell      1.0000000000E+00  1.0000000000E+00  1.0000000000E+00 Bohr
              amu      8.76200000E+01  2.43050000E+01  1.08110000E+01
                       1.59994000E+01
             ecut      4.40000000E+01 Hartree
-          fftalg         512
           irdden           1
           irdwfk           1
           istwfk        1
              ixc     -116133
           kptopt           0
P           mkmem           1
P          mkqmem           1
P          mk1mem           1
            natom          11
            nband          45
           nbdbuf           4
            ngfft          60      60      72
             nkpt           1
            nstep        2000
             nsym           4
           ntypat           4
              occ      2.000000  2.000000  2.000000  2.000000  2.000000  2.000000
                       2.000000  2.000000  2.000000  2.000000  2.000000  2.000000
                       2.000000  2.000000  2.000000  2.000000  2.000000  2.000000
                       2.000000  2.000000  2.000000  2.000000  2.000000  2.000000
                       2.000000  2.000000  2.000000  2.000000  2.000000  2.000000
                       2.000000  2.000000  2.000000  2.000000  2.000000  2.000000
                       0.000000  0.000000  0.000000  0.000000  0.000000  0.000000
                       0.000000  0.000000  0.000000
        optdriver           1
            prtwf          -1
            rfdir           1       1       1
           rfelfd           2
            rprim      8.8965590712E+00  0.0000000000E+00  4.1021353303E+00
                       3.6091606654E+00  8.1315879506E+00  4.1021353303E+00
                       0.0000000000E+00  0.0000000000E+00  1.1462686629E+01
          spgroup          12
           symrel      1  0  0   0  1  0   0  0  1      -1  0  0   0 -1  0   0  0 -1
                       0 -1  0  -1  0  0   0  0 -1       0  1  0   1  0  0   0  0  1
           tolwfr      1.00000000E-20
            typat      1  1  2  3  3  4  4  4  4  4  4
           useylm           1
           xangst      1.9240290334E+00  1.2510604454E+00  2.3805080648E+00
                       4.6937128283E+00  3.0519905677E+00  8.0267974954E+00
                       3.3088709308E+00  2.1515255066E+00  5.2036527801E+00
                       4.0894335834E-01  2.6590703735E-01  4.7470466221E+00
                       6.2087985033E+00  4.0371439757E+00  5.6602589380E+00
                       1.5382610070E+00  1.0002226927E+00  5.0214239187E+00
                       4.2283020437E+00  1.1099418875E+00  3.6668359859E+00
                       3.8878986378E+00  8.8860154946E-01  6.7404695743E+00
                       2.3894398179E+00  3.1931091256E+00  6.7404695743E+00
                       2.7298432238E+00  3.4144494636E+00  3.6668359859E+00
                       5.0794808546E+00  3.3028283204E+00  5.3858816414E+00
            xcart      3.6358879448E+00  2.3641616176E+00  4.4985082996E+00
                       8.8698317918E+00  5.7674263330E+00  1.5168448990E+01
                       6.2528598683E+00  4.0657939753E+00  9.8334786450E+00
                       7.7279095112E-01  5.0249147741E-01  8.9706180559E+00
                       1.1732928785E+01  7.6290964732E+00  1.0696339234E+01
                       2.9068920242E+00  1.8901469612E+00  9.4891160035E+00
                       7.9903328697E+00  2.0974861907E+00  6.9293157876E+00
                       7.3470636579E+00  1.6792135697E+00  1.2737641502E+01
                       4.5153868669E+00  6.0341017599E+00  1.2737641502E+01
                       5.1586560787E+00  6.4523743809E+00  6.9293157876E+00
                       9.5988277124E+00  6.2414409894E+00  1.0177841286E+01
             xred      2.9073800000E-01  2.9073800000E-01  1.8435600000E-01
                       7.0926200000E-01  7.0926200000E-01  8.1564400000E-01
                       5.0000000000E-01  5.0000000000E-01  5.0000000000E-01
                       6.1795000000E-02  6.1795000000E-02  7.3836400000E-01
                       9.3820500000E-01  9.3820500000E-01  2.6163600000E-01
                       2.3244500000E-01  2.3244500000E-01  6.6145700000E-01
                       7.9349500000E-01  2.5794300000E-01  2.2823400000E-01
                       7.4205700000E-01  2.0650500000E-01  7.7176600000E-01
                       2.0650500000E-01  7.4205700000E-01  7.7176600000E-01
                       2.5794300000E-01  7.9349500000E-01  2.2823400000E-01
                       7.6755500000E-01  7.6755500000E-01  3.3854300000E-01
            znucl       38.00000   12.00000    5.00000    8.00000

 chkinp: Checking input parameters for consistency.

== DATASET  1 ==================================================================
-   mpi_nproc: 1, omp_nthreads: -1 (-1 if OMP is not activated)

--- !DatasetInfo
iteration_state: {dtset: 1, }
dimensions: {natom: 11, nkpt: 1, mband: 45, nsppol: 1, nspinor: 1, nspden: 1, mpw: 11575, }
cutoff_energies: {ecut:  44.0, pawecutdg:  -1.0, }
electrons: {nelect:   7.20000000E+01, charge:   0.00000000E+00, occopt:   1.00000000E+00, tsmear:   1.00000000E-02, }
meta: {optdriver: 1, rfelfd: 2, }
...

 Real(R)+Recip(G) space primitive vectors, cartesian coordinates (Bohr,Bohr^-1):
 R(1)=  8.8965591  0.0000000  4.1021353  G(1)=  0.1124030 -0.0498895  0.0000000
 R(2)=  3.6091607  8.1315880  4.1021353  G(2)=  0.0000000  0.1229772  0.0000000
 R(3)=  0.0000000  0.0000000 11.4626866  G(3)= -0.0402255 -0.0261558  0.0872396
 Unit cell volume ucvol=  8.2924689E+02 bohr^3
 Angles (23,13,12)=  6.52459347E+01  6.52459347E+01  5.93439959E+01 degrees

 getcut: wavevector=  0.0000  0.0000  0.0000  ngfft=  60  60  72
         ecut(hartree)=     44.000   => boxcut(ratio)=   2.05136

--- Pseudopotential description ------------------------------------------------
- pspini: atom type   1  psp file is /scratch/users/j/a/jabreu/pseudos/PBEsol/Sr.psp8
- pspatm: opening atomic psp file    /scratch/users/j/a/jabreu/pseudos/PBEsol/Sr.psp8
- Sr    ONCVPSP-3.3.0  r_core=   1.66721   1.31335   1.51547
- 38.00000  10.00000    180112                znucl, zion, pspdat
    8 -116133    2    4       600   0.00000   pspcod,pspxc,lmax,lloc,mmax,r2well
    5.99000000000000    6.00000000000000    0.00000000000000   rchrg,fchrg,qchrg
     nproj     2     2     2
     extension_switch     1
  pspatm : epsatm=   12.46450977
         --- l  ekb(1:nproj) -->
             0   10.029206    1.044171
             1    7.472414    1.670829
             2    4.142950    0.968140
 pspatm: atomic psp has been read  and splines computed

- pspini: atom type   2  psp file is /scratch/users/j/a/jabreu/pseudos/PBEsol/Mg.psp8
- pspatm: opening atomic psp file    /scratch/users/j/a/jabreu/pseudos/PBEsol/Mg.psp8
- Mg    ONCVPSP-3.3.0  r_core=   1.16056   1.56380
- 12.00000  10.00000    180112                znucl, zion, pspdat
    8 -116133    1    4       400   0.00000   pspcod,pspxc,lmax,lloc,mmax,r2well
    3.99000000000000    0.00000000000000    0.00000000000000   rchrg,fchrg,qchrg
     nproj     2     2
     extension_switch     1
  pspatm : epsatm=    9.18164846
         --- l  ekb(1:nproj) -->
             0    2.230603   -0.826587
             1   -6.503151   -2.501445
 pspatm: atomic psp has been read  and splines computed

[...]

- pspini: atom type   4  psp file is /scratch/users/j/a/jabreu/pseudos/PBEsol/O.psp8
- pspatm: opening atomic psp file    /scratch/users/j/a/jabreu/pseudos/PBEsol/O.psp8
- O     ONCVPSP-3.3.0  r_core=   1.35509   1.45563   1.26150
-  8.00000   6.00000    180112                znucl, zion, pspdat
    8 -116133    2    4       600   0.00000   pspcod,pspxc,lmax,lloc,mmax,r2well
    5.99000000000000    4.00000000000000    0.00000000000000   rchrg,fchrg,qchrg
     nproj     2     2     1
     extension_switch     1
  pspatm : epsatm=    6.22910522
         --- l  ekb(1:nproj) -->
             0    6.050032    0.820363
             1   -4.739617   -1.153841
             2   -1.335834
 pspatm: atomic psp has been read  and splines computed

   5.60796412E+03                                ecore*ucvol(ha*bohr**3)

 ==>  initialize data related to q vector <==

 The list of irreducible perturbations for this q vector is:
    1)    idir= 1    ipert=  12
    2)    idir= 2    ipert=  12
    3)    idir= 3    ipert=  12

 Perturbation wavevector (in red.coord.)   0.000000  0.000000  0.000000
 Perturbation : derivative vs k along direction   1

 dfpt_looppert : COMMENT -
  In a d/dk calculation, iscf is set to -3 automatically.
 The set of symmetries contains only one element for this perturbation.
 symkpt : not enough symmetry to change the number of k points.

 Initialisation of the first-order wave-functions :
  ireadwf=   0

--- !BeginCycle
iteration_state: {dtset: 1, }
solver: {iscf: 7, nstep: 2000, nline: 4, wfoptalg: 0, }
tolerances: {tolwfr: 1.00E-20, }
...

     iter   2DEtotal(Ha)        deltaE(Ha) residm    vres2
-ETOT  1  -50.118037991159     -5.012E+01 6.170E-02 0.000E+00
 ETOT  2  -50.198987075608     -8.095E-02 1.910E-03 0.000E+00
 ETOT  3  -50.199685559311     -6.985E-04 3.430E-05 0.000E+00
 ETOT  4  -50.199695023321     -9.464E-06 2.914E-06 0.000E+00
 ETOT  5  -50.199695172340     -1.490E-07 3.431E-07 0.000E+00
 ETOT  6  -50.199695174839     -2.499E-09 3.241E-08 0.000E+00
 ETOT  7  -50.199695174883     -4.371E-11 4.025E-09 0.000E+00
 ETOT  8  -50.199695174884     -8.029E-13 3.860E-10 0.000E+00
 ETOT  9  -50.199695174884     -1.421E-14 4.837E-11 0.000E+00
 ETOT 10  -50.199695174884      1.421E-14 4.677E-12 0.000E+00
 ETOT 11  -50.199695174883      6.395E-14 5.857E-13 0.000E+00
 ETOT 12  -50.199695174884     -4.263E-14 5.708E-14 0.000E+00
 ETOT 13  -50.199695174884      0.000E+00 7.120E-15 0.000E+00
 ETOT 14  -50.199695174884      0.000E+00 6.995E-16 0.000E+00
 ETOT 15  -50.199695174884      0.000E+00 8.682E-17 0.000E+00
 ETOT 16  -50.199695174884      7.105E-15 8.602E-18 0.000E+00
 ETOT 17  -50.199695174884     -2.132E-14 1.062E-18 0.000E+00
 ETOT 18  -50.199695174884      1.421E-14 1.061E-19 0.000E+00
 ETOT 19  -50.199695174884      0.000E+00 1.303E-20 0.000E+00
 ETOT 20  -50.199695174884      1.421E-14 9.734E-21 0.000E+00

 At SCF step   20   max residual=  9.73E-21 < tolwfr=  1.00E-20 =>converged.

 ----iterations are completed or convergence reached----

 dfpt_looppert: DFPT cycle converged with prtwf=-1. Will skip output of the 1st-order WFK file.
 dfpt_looppert : ek2=    8.5974864791E+01
          f-sum rule ratio=    1.1444090111E+00
 prteigrs : about to open file /scratch/users/j/a/jabreu/flow_simple_11atoms/flow/w314/t1/tmpdata/tmp_1WF1_EIG
 Expectation of eigenvalue derivatives (hartree) for nkpt=   1  k points:
  (in case of degenerate eigenvalues, averaged derivative)
 kpt#   1, nband= 45, wtk=  1.00000, kpt=  0.0000  0.0000  0.0000 (reduced coord)
   0.00000   -0.00000    0.00000    0.00000    0.00000    0.00000   -0.00000    0.00000
  -0.00000   -0.00000   -0.00000   -0.00000    0.00000    0.00000    0.00000   -0.00000
  -0.00000    0.00000   -0.00000   -0.00000   -0.00000   -0.00000    0.00000   -0.00000
  -0.00000    0.00000    0.00000   -0.00000    0.00000   -0.00000   -0.00000    0.00000
  -0.00000    0.00000    0.00000    0.00000    0.00000    0.00000   -0.00000    0.00000
  -0.00000   -0.00000   -0.00000    0.00000   -0.00000

 Eight components of 2nd-order total energy (hartree) are
 1,2,3: 0th-order hamiltonian combined with 1st-order wavefunctions
     kin0=   7.08830401E+01 eigvalue=   1.82541539E-01  local=  -3.29278632E+01
 4,5,6: 1st-order hamiltonian combined with 1st and 0th-order wfs
     kin1=  -9.83904100E+01  Hartree=   0.00000000E+00     xc=   0.00000000E+00
 7,8,9: eventually, occupation + non-local contributions
    edocc=   1.17846778E+01     enl0=   2.77298854E-01   enl1=  -2.00898035E+00
 1-9 gives the relaxation energy (to be shifted if some occ is /=2.0)
   erelax=  -5.01996952E+01
  No Ewald or frozen-wf contrib.: the relaxation energy is the total one
 2DEtotal=   -0.5019969517E+02 Ha. Also 2DEtotal=   -0.136600317506E+04 eV
    (  non-var. 2DEtotal :   -5.0199695175E+01 Ha)

 Perturbation wavevector (in red.coord.)   0.000000  0.000000  0.000000
 Perturbation : derivative vs k along direction   2
 The set of symmetries contains only one element for this perturbation.
 symkpt : not enough symmetry to change the number of k points.

[...]

 Perturbation wavevector (in red.coord.)   0.000000  0.000000  0.000000
 Perturbation : derivative vs k along direction   3
 The set of symmetries contains only one element for this perturbation.
 symkpt : not enough symmetry to change the number of k points.

 Initialisation of the first-order wave-functions :
  ireadwf=   0

--- !BeginCycle
iteration_state: {dtset: 1, }
solver: {iscf: 7, nstep: 2000, nline: 4, wfoptalg: 0, }
tolerances: {tolwfr: 1.00E-20, }
...

     iter   2DEtotal(Ha)        deltaE(Ha) residm    vres2
-ETOT  1  -31.308409254065     -3.131E+01 4.155E-02 0.000E+00
 ETOT  2  -31.330204008341     -2.179E-02 2.641E-03 0.000E+00
 ETOT  3  -31.330284626286     -8.062E-05 2.118E-04 0.000E+00
 ETOT  4  -31.330285360425     -7.341E-07 1.822E-05 0.000E+00
 ETOT  5  -31.330285369469     -9.044E-09 2.054E-06 0.000E+00
 ETOT  6  -31.330285369598     -1.289E-10 2.091E-07 0.000E+00
 ETOT  7  -31.330285369600     -1.986E-12 2.467E-08 0.000E+00
 ETOT  8  -31.330285369600     -4.263E-14 2.610E-09 0.000E+00
 ETOT  9  -31.330285369600     -3.553E-15 3.105E-10 0.000E+00
 ETOT 10  -31.330285369600      3.197E-14 3.328E-11 0.000E+00
 ETOT 11  -31.330285369600      1.421E-14 3.970E-12 0.000E+00
 ETOT 12  -31.330285369600     -7.105E-15 4.281E-13 0.000E+00
 ETOT 13  -31.330285369600      0.000E+00 5.116E-14 0.000E+00
 ETOT 14  -31.330285369600      0.000E+00 5.540E-15 0.000E+00
 ETOT 15  -31.330285369600      0.000E+00 6.638E-16 0.000E+00
 ETOT 16  -31.330285369600      3.553E-15 7.209E-17 0.000E+00
 ETOT 17  -31.330285369600     -7.105E-15 8.666E-18 0.000E+00
 ETOT 18  -31.330285369600      0.000E+00 9.433E-19 0.000E+00
 ETOT 19  -31.330285369600      3.553E-15 1.138E-19 0.000E+00
 ETOT 20  -31.330285369600      3.553E-15 1.241E-20 0.000E+00
 ETOT 21  -31.330285369600     -3.553E-15 9.918E-21 0.000E+00

 At SCF step   21   max residual=  9.92E-21 < tolwfr=  1.00E-20 =>converged.

 ----iterations are completed or convergence reached----

 dfpt_looppert: DFPT cycle converged with prtwf=-1. Will skip output of the 1st-order WFK file.
 dfpt_looppert : ek2=    5.6354121955E+01
          f-sum rule ratio=    1.0749487580E+00
 prteigrs : about to open file /scratch/users/j/a/jabreu/flow_simple_11atoms/flow/w314/t1/tmpdata/tmp_1WF1_EIG
 Expectation of eigenvalue derivatives (hartree) for nkpt=   1  k points:
  (in case of degenerate eigenvalues, averaged derivative)
 kpt#   1, nband= 45, wtk=  1.00000, kpt=  0.0000  0.0000  0.0000 (reduced coord)
   0.00000    0.00000    0.00000   -0.00000   -0.00000    0.00000   -0.00000   -0.00000
   0.00000   -0.00000   -0.00000    0.00000   -0.00000    0.00000    0.00000    0.00000
   0.00000   -0.00000    0.00000   -0.00000    0.00000    0.00000   -0.00000   -0.00000
   0.00000   -0.00000   -0.00000    0.00000    0.00000   -0.00000    0.00000    0.00000
  -0.00000   -0.00000   -0.00000    0.00000   -0.00000    0.00000    0.00000   -0.00000
   0.00000   -0.00000    0.00000   -0.00000    0.00000

 Eight components of 2nd-order total energy (hartree) are
 1,2,3: 0th-order hamiltonian combined with 1st-order wavefunctions
     kin0=   3.88652691E+01 eigvalue=   9.30687078E-01  local=  -1.57774045E+01
 4,5,6: 1st-order hamiltonian combined with 1st and 0th-order wfs
     kin1=  -6.05777934E+01  Hartree=   0.00000000E+00     xc=   0.00000000E+00
 7,8,9: eventually, occupation + non-local contributions
    edocc=   7.99289899E+00     enl0=  -6.81165260E-01   enl1=  -2.08277733E+00
 1-9 gives the relaxation energy (to be shifted if some occ is /=2.0)
   erelax=  -3.13302854E+01
  No Ewald or frozen-wf contrib.: the relaxation energy is the total one
 2DEtotal=   -0.3133028537E+02 Ha. Also 2DEtotal=   -0.852540421636E+03 eV
    (  non-var. 2DEtotal :   -3.1330285370E+01 Ha)

 CALCULATION OF EFFECTIVE MASSES
 NOTE : Additional infos (eff. mass eigenvalues, eigenvectors and, if degenerate, average mass) are available in stdout.

--- !WARNING
src_file: m_efmas.F90
src_line: 0
message: |

    Band(s)    36,
    are not band extrema, but saddle points;
    the transport equivalent formalism breaks down in these conditions.
    The associated tensor(s) will therefore not be printed.
...

 K-point ( 0.000, 0.000, 0.000) | band =    36
 Effective mass tensor:
     *** SADDLE POINT: TRANSPORT EQV. EFF. MASS NOT DEFINED (see WARNING above) ***
 Angular average effective mass 1/(<1/m>)=  -2.1690273437
 Angular average effective mass for Frohlich model (<m**0.5>)**2=  -5.2507477800
 Effective masses along directions: (cart. coord. / red. coord. -> eff. mass)
    1:   1.000000  0.000000  0.000000 /   0.926650  0.375924  0.000000 ->  -2.3875830847
    2:   0.000000  1.000000  0.000000 /   0.000000  1.000000  0.000000 ->  -1.1611926624
    3:   0.000000  0.000000  1.000000 /   0.319304  0.319304  0.892239 ->  -9.7001393452
    4:   0.577350  0.577350  0.577350 /   0.553584  0.674711  0.488169 ->  -4.3993904362
    5:   0.000000  0.707107  0.707107 /   0.237676  0.708818  0.664144 ->  -1.8506798049
    6:   0.707107  0.000000  0.707107 /   0.685260  0.406521  0.604285 ->  -2.8532597395
    7:   0.707107  0.707107  0.000000 /   0.603946  0.797025  0.000000 ->  -7.0575502393

 K-point ( 0.000, 0.000, 0.000) | band =    37
 Effective mass tensor:
              0.6777927156             -0.0849441222              0.1224350521
             -0.0849441222              0.7531966805              0.0796108833
              0.1224350521              0.0796108833              0.4741814291
 Effective mass tensor eigenvalues:
              0.3845649579              0.7121760124              0.8084298549
 Angular average effective mass 1/(<1/m>)=   0.5723602766
 Angular average effective mass for Frohlich model (<m**0.5>)**2=   0.5922910846
 Effective masses along directions: (cart. coord. / red. coord. -> eff. mass)
    1:   1.000000  0.000000  0.000000 /   0.926650  0.375924  0.000000 ->   0.6311353336
    2:   0.000000  1.000000  0.000000 /   0.000000  1.000000  0.000000 ->   0.7226060513
    3:   0.000000  0.000000  1.000000 /   0.319304  0.319304  0.892239 ->   0.4399224815
    4:   0.577350  0.577350  0.577350 /   0.553584  0.674711  0.488169 ->   0.7112556049
    5:   0.000000  0.707107  0.707107 /   0.237676  0.708818  0.664144 ->   0.6502696112
    6:   0.707107  0.000000  0.707107 /   0.685260  0.406521  0.604285 ->   0.6748801449
    7:   0.707107  0.707107  0.000000 /   0.603946  0.797025  0.000000 ->   0.5847593587

 END OF EFFECTIVE MASSES SECTION

 ---- first-order wavefunction calculations are completed ----

 Total localisation tensor (bohr^2) in cartesian coordinates
  WARNING : still subject to testing - especially symmetries.
      direction              matrix element
   alpha     beta       real part   imaginary part
     1        1       1.1161098198    0.0000000000
     1        2       0.3553663165    0.0000000000
     1        3       0.6211741543    0.0000000000
     2        1       0.3553663165    0.0000000000
     2        2       0.8006549791    0.0000000000
     2        3       0.4039057435    0.0000000000
     3        1       0.6211741543    0.0000000000
     3        2       0.4039057435    0.0000000000
     3        3       1.3003845433    0.0000000000

 respfn : d/dk was computed, but no 2DTE, so no DDB output.

== END DATASET(S) ==============================================================

 -outvars: echo values of variables after computation  --------
            acell      1.0000000000E+00  1.0000000000E+00  1.0000000000E+00 Bohr
              amu      8.76200000E+01  2.43050000E+01  1.08110000E+01
                       1.59994000E+01
             ecut      4.40000000E+01 Hartree
           etotal     -3.1330285370E+01
            fcart      0.0000000000E+00  0.0000000000E+00  0.0000000000E+00
                       0.0000000000E+00  0.0000000000E+00  0.0000000000E+00
                       0.0000000000E+00  0.0000000000E+00  0.0000000000E+00
                       0.0000000000E+00  0.0000000000E+00  0.0000000000E+00
                       0.0000000000E+00  0.0000000000E+00  0.0000000000E+00
                       0.0000000000E+00  0.0000000000E+00  0.0000000000E+00
                       0.0000000000E+00  0.0000000000E+00  0.0000000000E+00
                       0.0000000000E+00  0.0000000000E+00  0.0000000000E+00
                       0.0000000000E+00  0.0000000000E+00  0.0000000000E+00
                       0.0000000000E+00  0.0000000000E+00  0.0000000000E+00
                       0.0000000000E+00  0.0000000000E+00  0.0000000000E+00
-          fftalg         512
           irdden           1
           irdwfk           1
           istwfk        1
              ixc     -116133
           kptopt           0
P           mkmem           1
P          mkqmem           1
P          mk1mem           1
            natom          11
            nband          45
           nbdbuf           4
            ngfft          60      60      72
             nkpt           1
            nstep        2000
             nsym           4
           ntypat           4
              occ      2.000000  2.000000  2.000000  2.000000  2.000000  2.000000
                       2.000000  2.000000  2.000000  2.000000  2.000000  2.000000
                       2.000000  2.000000  2.000000  2.000000  2.000000  2.000000
                       2.000000  2.000000  2.000000  2.000000  2.000000  2.000000
                       2.000000  2.000000  2.000000  2.000000  2.000000  2.000000
                       2.000000  2.000000  2.000000  2.000000  2.000000  2.000000
                       0.000000  0.000000  0.000000  0.000000  0.000000  0.000000
                       0.000000  0.000000  0.000000
        optdriver           1
            prtwf          -1
            rfdir           1       1       1
           rfelfd           2
            rprim      8.8965590712E+00  0.0000000000E+00  4.1021353303E+00
                       3.6091606654E+00  8.1315879506E+00  4.1021353303E+00
                       0.0000000000E+00  0.0000000000E+00  1.1462686629E+01
          spgroup          12
           strten      0.0000000000E+00  0.0000000000E+00  0.0000000000E+00
                       0.0000000000E+00  0.0000000000E+00  0.0000000000E+00
           symrel      1  0  0   0  1  0   0  0  1      -1  0  0   0 -1  0   0  0 -1
                       0 -1  0  -1  0  0   0  0 -1       0  1  0   1  0  0   0  0  1
           tolwfr      1.00000000E-20
            typat      1  1  2  3  3  4  4  4  4  4  4
           useylm           1
           xangst      1.9240290334E+00  1.2510604454E+00  2.3805080648E+00
                       4.6937128283E+00  3.0519905677E+00  8.0267974954E+00
                       3.3088709308E+00  2.1515255066E+00  5.2036527801E+00
                       4.0894335834E-01  2.6590703735E-01  4.7470466221E+00
                       6.2087985033E+00  4.0371439757E+00  5.6602589380E+00
                       1.5382610070E+00  1.0002226927E+00  5.0214239187E+00
                       4.2283020437E+00  1.1099418875E+00  3.6668359859E+00
                       3.8878986378E+00  8.8860154946E-01  6.7404695743E+00
                       2.3894398179E+00  3.1931091256E+00  6.7404695743E+00
                       2.7298432238E+00  3.4144494636E+00  3.6668359859E+00
                       5.0794808546E+00  3.3028283204E+00  5.3858816414E+00
            xcart      3.6358879448E+00  2.3641616176E+00  4.4985082996E+00
                       8.8698317918E+00  5.7674263330E+00  1.5168448990E+01
                       6.2528598683E+00  4.0657939753E+00  9.8334786450E+00
                       7.7279095112E-01  5.0249147741E-01  8.9706180559E+00
                       1.1732928785E+01  7.6290964732E+00  1.0696339234E+01
                       2.9068920242E+00  1.8901469612E+00  9.4891160035E+00
                       7.9903328697E+00  2.0974861907E+00  6.9293157876E+00
                       7.3470636579E+00  1.6792135697E+00  1.2737641502E+01
                       4.5153868669E+00  6.0341017599E+00  1.2737641502E+01
                       5.1586560787E+00  6.4523743809E+00  6.9293157876E+00
                       9.5988277124E+00  6.2414409894E+00  1.0177841286E+01
             xred      2.9073800000E-01  2.9073800000E-01  1.8435600000E-01
                       7.0926200000E-01  7.0926200000E-01  8.1564400000E-01
                       5.0000000000E-01  5.0000000000E-01  5.0000000000E-01
                       6.1795000000E-02  6.1795000000E-02  7.3836400000E-01
                       9.3820500000E-01  9.3820500000E-01  2.6163600000E-01
                       2.3244500000E-01  2.3244500000E-01  6.6145700000E-01
                       7.9349500000E-01  2.5794300000E-01  2.2823400000E-01
                       7.4205700000E-01  2.0650500000E-01  7.7176600000E-01
                       2.0650500000E-01  7.4205700000E-01  7.7176600000E-01
                       2.5794300000E-01  7.9349500000E-01  2.2823400000E-01
                       7.6755500000E-01  7.6755500000E-01  3.3854300000E-01
            znucl       38.00000   12.00000    5.00000    8.00000

- Timing analysis has been suppressed with timopt=0

 Suggested references for the acknowledgment of ABINIT usage.

 Calculation completed.
.Delivered   3 WARNINGs and   5 COMMENTs to log file.