.Version 9.5.1 of ABINIT

 ABINIT is a project of the Universite Catholique de Louvain,
 Corning Inc. and other collaborators, see ~abinit/doc/developers/contributors.txt .
 acknowledgments of the ABINIT effort.

.Starting date : Sun 25 Apr 2021.
- ( at 17h13 )

- input  file    -> /scratch/users/j/a/jabreu/flow_simple2/flow/w145/t1/run.abi
- output file    -> /scratch/users/j/a/jabreu/flow_simple2/flow/w145/t1/run.abo
- root for input  files -> /scratch/users/j/a/jabreu/flow_simple2/flow/w145/t1/indata/in
- root for output files -> /scratch/users/j/a/jabreu/flow_simple2/flow/w145/t1/outdata/out

 Symmetries : space group F-4 3 m (#216); Bravais cF (face-center cubic)
     intxc =       0      iscf =       7    lmnmax =      18     lnmax =       6
     mgfft =      40  mpssoang =       3    mqgrid =    3001     natom =       2
  nloc_mem =       1    nspden =       1   nspinor =       1    nsppol =       1
      nsym =      24    n1xccc =    2501    ntypat =       2    occopt =       1
   xclevel =       2
-    mband =          18        mffmem =           1         mkmem =           1
-   mkqmem =           1        mk1mem =           1           mpw =        2733
      nfft =       64000          nkpt =           1
  Rough estimation (10% accuracy) of disk space for files :

------------- Echo of variables that govern the present computation ------------
-
- outvars: echo of selected default values
-   iomode0 =  0 , fftalg0 =512 , wfoptalg0 =  0
-
- outvars: echo of global parameters not present in the input file
-  max_nthreads =    0
-
 -outvars: echo values of preprocessed input variables --------
            acell      1.0000000000E+00  1.0000000000E+00  1.0000000000E+00 Bohr
              amu      1.18710000E+02  1.20110000E+01
             ecut      4.10000000E+01 Hartree
-          fftalg         512
           irdden           1
           irdwfk           1
           istwfk        1
              ixc     -116133
           kptopt           0
P           mkmem           1
P          mkqmem           1
P          mk1mem           1
            natom           2
            nband          18
           nbdbuf           4
            ngfft          40      40      40
             nkpt           1
            nstep         100
             nsym          24
           ntypat           2
              occ      2.000000  2.000000  2.000000  2.000000  2.000000  2.000000
                       2.000000  2.000000  2.000000  0.000000  0.000000  0.000000
                       0.000000  0.000000  0.000000  0.000000  0.000000  0.000000
        optdriver           1
            prtwf          -1
            rfdir           1       1       1
           rfelfd           2
            rprim      5.8366488049E+00  0.0000000000E+00  3.3697907587E+00
                       1.9455496016E+00  5.5028452658E+00  3.3697907587E+00
                       0.0000000000E+00  0.0000000000E+00  6.7395815173E+00
          spgroup         216
           symrel      1  0  0   0  1  0   0  0  1       0 -1  1   0 -1  0   1 -1  0
                      -1  0  0  -1  0  1  -1  1  0       0  1 -1   1  0 -1   0  0 -1
                      -1  0  0  -1  1  0  -1  0  1       0 -1  1   1 -1  0   0 -1  0
                       1  0  0   0  0  1   0  1  0       0  1 -1   0  0 -1   1  0 -1
                      -1  0  1  -1  1  0  -1  0  0       0 -1  0   1 -1  0   0 -1  1
                       1  0 -1   0  0 -1   0  1 -1       0  1  0   0  0  1   1  0  0
                       1  0 -1   0  1 -1   0  0 -1       0 -1  0   0 -1  1   1 -1  0
                      -1  0  1  -1  0  0  -1  1  0       0  1  0   1  0  0   0  0  1
                       0  0 -1   0  1 -1   1  0 -1       1 -1  0   0 -1  1   0 -1  0
                       0  0  1   1  0  0   0  1  0      -1  1  0  -1  0  0  -1  0  1
                       0  0  1   0  1  0   1  0  0       1 -1  0   0 -1  0   0 -1  1
                       0  0 -1   1  0 -1   0  1 -1      -1  1  0  -1  0  1  -1  0  0
           tolwfr      1.00000000E-20
            typat      1  2
           useylm           1
           xangst      0.0000000000E+00  0.0000000000E+00  0.0000000000E+00
                       3.0886215221E+00  2.1839852228E+00  5.3496494016E+00
            xcart      0.0000000000E+00  0.0000000000E+00  0.0000000000E+00
                       5.8366488049E+00  4.1271339494E+00  1.0109372276E+01
             xred      0.0000000000E+00  0.0000000000E+00  0.0000000000E+00
                       7.5000000000E-01  7.5000000000E-01  7.5000000000E-01
            znucl       50.00000    6.00000

 chkinp: Checking input parameters for consistency.

== DATASET  1 ==================================================================
-   mpi_nproc: 1, omp_nthreads: -1 (-1 if OMP is not activated)

--- !DatasetInfo
iteration_state: {dtset: 1, }
dimensions: {natom: 2, nkpt: 1, mband: 18, nsppol: 1, nspinor: 1, nspden: 1, mpw: 2733, }
cutoff_energies: {ecut:  41.0, pawecutdg:  -1.0, }
electrons: {nelect:   1.80000000E+01, charge:   0.00000000E+00, occopt:   1.00000000E+00, tsmear:   1.00000000E-02, }
meta: {optdriver: 1, rfelfd: 2, }
...

 Real(R)+Recip(G) space primitive vectors, cartesian coordinates (Bohr,Bohr^-1):
 R(1)=  5.8366488  0.0000000  3.3697908  G(1)=  0.1713312 -0.0605747  0.0000000
 R(2)=  1.9455496  5.5028453  3.3697908  G(2)=  0.0000000  0.1817242  0.0000000
 R(3)=  0.0000000  0.0000000  6.7395815  G(3)= -0.0856656 -0.0605747  0.1483772
 Unit cell volume ucvol=  2.1646306E+02 bohr^3
 Angles (23,13,12)=  6.00000000E+01  6.00000000E+01  6.00000000E+01 degrees

 getcut: wavevector=  0.0000  0.0000  0.0000  ngfft=  40  40  40
         ecut(hartree)=     41.000   => boxcut(ratio)=   2.05906

--- Pseudopotential description ------------------------------------------------
- pspini: atom type   1  psp file is /scratch/users/j/a/jabreu/pseudos/PBEsol/Sn.psp8
- pspatm: opening atomic psp file    /scratch/users/j/a/jabreu/pseudos/PBEsol/Sn.psp8
- Sn    ONCVPSP-3.3.0  r_core=   2.27326   2.62311   1.85601
- 50.00000  14.00000    180112                znucl, zion, pspdat
    8 -116133    2    4       600   0.00000   pspcod,pspxc,lmax,lloc,mmax,r2well
    5.99000000000000    6.50000000000000    0.00000000000000   rchrg,fchrg,qchrg
     nproj     2     2     2
     extension_switch     1
  pspatm : epsatm=   32.44586081
         --- l  ekb(1:nproj) -->
             0    5.587869    0.749373
             1    4.197111    0.728791
             2   -5.271877   -1.523486
 pspatm: atomic psp has been read  and splines computed

- pspini: atom type   2  psp file is /scratch/users/j/a/jabreu/pseudos/PBEsol/C.psp8
- pspatm: opening atomic psp file    /scratch/users/j/a/jabreu/pseudos/PBEsol/C.psp8
- C     ONCVPSP-3.3.0  r_core=   1.20440   1.26326
-  6.00000   4.00000    180112                znucl, zion, pspdat
    8 -116133    1    4       600   0.00000   pspcod,pspxc,lmax,lloc,mmax,r2well
    5.99000000000000    4.00000000000000    0.00000000000000   rchrg,fchrg,qchrg
     nproj     2     2
     extension_switch     1
  pspatm : epsatm=    4.34909529
         --- l  ekb(1:nproj) -->
             0    6.468939    0.390031
             1   -4.179695   -0.878453
 pspatm: atomic psp has been read  and splines computed

   6.62309210E+02                                ecore*ucvol(ha*bohr**3)

-inwffil : will read wavefunctions from disk file /scratch/users/j/a/jabreu/flow_simple2/flow/w145/t1/indata/in_WFK

 ==>  initialize data related to q vector <==

 The list of irreducible perturbations for this q vector is:
    1)    idir= 1    ipert=   3
    2)    idir= 2    ipert=   3
    3)    idir= 3    ipert=   3

 Perturbation wavevector (in red.coord.)   0.000000  0.000000  0.000000
 Perturbation : derivative vs k along direction   1

 dfpt_looppert : COMMENT -
  In a d/dk calculation, iscf is set to -3 automatically.
 The set of symmetries contains only one element for this perturbation.
 symkpt : not enough symmetry to change the number of k points.

[...]

 Initialisation of the first-order wave-functions :
  ireadwf=   0

--- !BeginCycle
iteration_state: {dtset: 1, }
solver: {iscf: 7, nstep: 100, nline: 4, wfoptalg: 0, }
tolerances: {tolwfr: 1.00E-20, }
...

     iter   2DEtotal(Ha)        deltaE(Ha) residm    vres2
-ETOT  1  -91.264027649932     -9.126E+01 3.550E-02 0.000E+00
 ETOT  2  -91.277110754807     -1.308E-02 7.979E-06 0.000E+00
 ETOT  3  -91.277114342556     -3.588E-06 5.043E-09 0.000E+00
 ETOT  4  -91.277114344818     -2.262E-09 1.031E-11 0.000E+00
 ETOT  5  -91.277114344820     -1.961E-12 1.109E-14 0.000E+00
 ETOT  6  -91.277114344820     -2.274E-13 1.912E-17 0.000E+00
 ETOT  7  -91.277114344820      2.842E-13 1.021E-19 0.000E+00
 ETOT  8  -91.277114344820      2.842E-14 9.257E-21 0.000E+00

 At SCF step    8   max residual=  9.26E-21 < tolwfr=  1.00E-20 =>converged.

 ----iterations are completed or convergence reached----

 dfpt_looppert: DFPT cycle converged with prtwf=-1. Will skip output of the 1st-order WFK file.
 dfpt_looppert : ek2=    4.6934007167E+01
          f-sum rule ratio=    3.1266331350E+00
 prteigrs : about to open file /scratch/users/j/a/jabreu/flow_simple2/flow/w145/t1/tmpdata/tmp_1WF1_EIG
 Expectation of eigenvalue derivatives (hartree) for nkpt=   1  k points:
  (in case of degenerate eigenvalues, averaged derivative)
 kpt#   1, nband= 18, wtk=  1.00000, kpt=  0.0000  0.0000  0.0000 (reduced coord)
  -0.00000   -0.00000   -0.00000    0.00000    0.00000    0.00000    0.00000    0.00000
   0.00000    0.00000    0.00000    0.00000    0.00000   -0.00000   -0.00000   -0.00000
  -0.00000    0.00000

 Eight components of 2nd-order total energy (hartree) are
 1,2,3: 0th-order hamiltonian combined with 1st-order wavefunctions
     kin0=   5.22735388E+01 eigvalue=   3.45006943E+00  local=  -2.24706534E+01
 4,5,6: 1st-order hamiltonian combined with 1st and 0th-order wfs
     kin1=  -1.46745422E+02  Hartree=   0.00000000E+00     xc=   0.00000000E+00
 7,8,9: eventually, occupation + non-local contributions
    edocc=   5.27500133E+01     enl0=   5.27414620E+00   enl1=  -3.58088067E+01
 1-9 gives the relaxation energy (to be shifted if some occ is /=2.0)
   erelax=  -9.12771143E+01
  No Ewald or frozen-wf contrib.: the relaxation energy is the total one
 2DEtotal=   -0.9127711434E+02 Ha. Also 2DEtotal=   -0.248377659607E+04 eV
    (  non-var. 2DEtotal :   -9.1277114345E+01 Ha)

 Perturbation wavevector (in red.coord.)   0.000000  0.000000  0.000000
 Perturbation : derivative vs k along direction   2
 The set of symmetries contains only one element for this perturbation.
 symkpt : not enough symmetry to change the number of k points.

[...]

 Perturbation wavevector (in red.coord.)   0.000000  0.000000  0.000000
 Perturbation : derivative vs k along direction   3
 The set of symmetries contains only one element for this perturbation.
 symkpt : not enough symmetry to change the number of k points.

-inwffil : will read wavefunctions from disk file /scratch/users/j/a/jabreu/flow_simple2/flow/w145/t1/indata/in_WFK

 Initialisation of the first-order wave-functions :
  ireadwf=   0

--- !BeginCycle
iteration_state: {dtset: 1, }
solver: {iscf: 7, nstep: 100, nline: 4, wfoptalg: 0, }
tolerances: {tolwfr: 1.00E-20, }
...

     iter   2DEtotal(Ha)        deltaE(Ha) residm    vres2
-ETOT  1  -91.264303565223     -9.126E+01 3.598E-02 0.000E+00
 ETOT  2  -91.277111405198     -1.281E-02 6.992E-06 0.000E+00
 ETOT  3  -91.277114801446     -3.396E-06 1.020E-08 0.000E+00
 ETOT  4  -91.277114803615     -2.169E-09 1.055E-11 0.000E+00
 ETOT  5  -91.277114803617     -2.217E-12 2.277E-14 0.000E+00
 ETOT  6  -91.277114803617     -1.563E-13 2.511E-17 0.000E+00
 ETOT  7  -91.277114803617      1.421E-14 8.792E-20 0.000E+00
 ETOT  8  -91.277114803617      8.527E-14 7.496E-21 0.000E+00

 At SCF step    8   max residual=  7.50E-21 < tolwfr=  1.00E-20 =>converged.

 ----iterations are completed or convergence reached----

 dfpt_looppert: DFPT cycle converged with prtwf=-1. Will skip output of the 1st-order WFK file.
 dfpt_looppert : ek2=    4.6934007169E+01
          f-sum rule ratio=    3.1266331202E+00
 prteigrs : about to open file /scratch/users/j/a/jabreu/flow_simple2/flow/w145/t1/tmpdata/tmp_1WF1_EIG
 Expectation of eigenvalue derivatives (hartree) for nkpt=   1  k points:
  (in case of degenerate eigenvalues, averaged derivative)
 kpt#   1, nband= 18, wtk=  1.00000, kpt=  0.0000  0.0000  0.0000 (reduced coord)
   0.00000    0.00000    0.00000   -0.00000   -0.00000   -0.00000    0.00000    0.00000
   0.00000    0.00000    0.00000    0.00000    0.00000   -0.00000   -0.00000   -0.00000
  -0.00000   -0.00000

 Eight components of 2nd-order total energy (hartree) are
 1,2,3: 0th-order hamiltonian combined with 1st-order wavefunctions
     kin0=   5.22735397E+01 eigvalue=   3.45006863E+00  local=  -2.24706517E+01
 4,5,6: 1st-order hamiltonian combined with 1st and 0th-order wfs
     kin1=  -1.46745421E+02  Hartree=   0.00000000E+00     xc=   0.00000000E+00
 7,8,9: eventually, occupation + non-local contributions
    edocc=   5.27500149E+01     enl0=   5.27414324E+00   enl1=  -3.58088083E+01
 1-9 gives the relaxation energy (to be shifted if some occ is /=2.0)
   erelax=  -9.12771148E+01
  No Ewald or frozen-wf contrib.: the relaxation energy is the total one
 2DEtotal=   -0.9127711480E+02 Ha. Also 2DEtotal=   -0.248377660855E+04 eV
    (  non-var. 2DEtotal :   -9.1277114803E+01 Ha)

 CALCULATION OF EFFECTIVE MASSES
 NOTE : Additional infos (eff. mass eigenvalues, eigenvectors and, if degenerate, average mass) are available in stdout.

 COMMENTS:
 - At k-point ( 0.000, 0.000, 0.000), bands     7 through     9
   are DEGENERATE (effective mass tensor is therefore not defined).
   See Section IIIB Eqs. (67)-(70) and Appendix E of PRB 93 205147 (2016).
 - Angular average effective mass for Frohlich model is to be averaged over degenerate bands. See later.
 - Associated theta integrals calculated with ntheta=   1000 points.

 K-point ( 0.000, 0.000, 0.000) | band =     7
 Transport equivalent effective mass tensor:
             -0.0695840906             -0.0000000002             -0.0000000000
             -0.0000000002             -0.0695840905              0.0000000003
             -0.0000000000              0.0000000003             -0.0695840904
 Transport equivalent effective mass tensor eigenvalues:
             -0.0695840908             -0.0695840905             -0.0695840902
 Angular average effective mass 1/(<1/m>)=  -0.0682857253
 Angular average effective mass for Frohlich model (<m**0.5>)**2=  -0.0683742792
 Effective masses along directions: (cart. coord. / red. coord. -> eff. mass)
    1:   1.000000  0.000000  0.000000 /   0.948683  0.316228  0.000000 ->  -0.0666285138
    2:   0.000000  1.000000  0.000000 /   0.000000  1.000000  0.000000 ->  -0.0643284654
    3:   0.000000  0.000000  1.000000 /   0.408248  0.408248  0.816497 ->  -0.0668446640
    4:   0.577350  0.577350  0.577350 /   0.585539  0.688047  0.428644 ->  -0.0665788959
    5:   0.000000  0.707107  0.707107 /   0.289489  0.762222  0.578977 ->  -0.0699852559
    6:   0.707107  0.000000  0.707107 /   0.731423  0.422287  0.535439 ->  -0.0667360332
    7:   0.707107  0.707107  0.000000 /   0.616798  0.787122  0.000000 ->  -0.0744694532

[...]

 K-point ( 0.000, 0.000, 0.000) | band =     9
 Transport equivalent effective mass tensor:
            -10.2027072772              0.0000110665             -0.0000001227
              0.0000110665            -10.2027043144             -0.0000000832
             -0.0000001227             -0.0000000832            -10.2026926550
 Transport equivalent effective mass tensor eigenvalues:
            -10.2027169611            -10.2026946409            -10.2026926446
 Angular average effective mass 1/(<1/m>)=  -1.1035344979
 Angular average effective mass for Frohlich model (<m**0.5>)**2=  -1.3141514839
 Effective masses along directions: (cart. coord. / red. coord. -> eff. mass)
    1:   1.000000  0.000000  0.000000 /   0.948683  0.316228  0.000000 ->  -1.1774711016
    2:   0.000000  1.000000  0.000000 /   0.000000  1.000000  0.000000 ->  -1.1138216108
    3:   0.000000  0.000000  1.000000 /   0.408248  0.408248  0.816497 ->  -3.1984714754
    4:   0.577350  0.577350  0.577350 /   0.585539  0.688047  0.428644 ->  -1.4204520364
    5:   0.000000  0.707107  0.707107 /   0.289489  0.762222  0.578977 ->  -0.9714149474
    6:   0.707107  0.000000  0.707107 /   0.731423  0.422287  0.535439 ->  -1.9270861661
    7:   0.707107  0.707107  0.000000 /   0.616798  0.787122  0.000000 ->  -0.5278213024

 Angular average effective mass for Frohlich model, averaged over degenerate bands.
 Value of     (<<m**0.5>>)**2 =     5.201728E-01
 Absolute Value of <<m**0.5>> =     7.212301E-01

 K-point ( 0.000, 0.000, 0.000) | band =    10
 Effective mass tensor:
              0.0771510657             -0.0000000007              0.0000000005
             -0.0000000007              0.0771510660              0.0000000022
              0.0000000005              0.0000000022              0.0771510621
 Effective mass tensor eigenvalues:
              0.0771510609              0.0771510657              0.0771510672
 Angular average effective mass 1/(<1/m>)=   0.0771510646
 Angular average effective mass for Frohlich model (<m**0.5>)**2=   0.0771510646
 Effective masses along directions: (cart. coord. / red. coord. -> eff. mass)
    1:   1.000000  0.000000  0.000000 /   0.948683  0.316228  0.000000 ->   0.0771510657
    2:   0.000000  1.000000  0.000000 /   0.000000  1.000000  0.000000 ->   0.0771510660
    3:   0.000000  0.000000  1.000000 /   0.408248  0.408248  0.816497 ->   0.0771510621
    4:   0.577350  0.577350  0.577350 /   0.585539  0.688047  0.428644 ->   0.0771510660
    5:   0.000000  0.707107  0.707107 /   0.289489  0.762222  0.578977 ->   0.0771510663
    6:   0.707107  0.000000  0.707107 /   0.731423  0.422287  0.535439 ->   0.0771510644
    7:   0.707107  0.707107  0.000000 /   0.616798  0.787122  0.000000 ->   0.0771510651

 END OF EFFECTIVE MASSES SECTION

 ---- first-order wavefunction calculations are completed ----

 Total localisation tensor (bohr^2) in cartesian coordinates
  WARNING : still subject to testing - especially symmetries.
      direction              matrix element
   alpha     beta       real part   imaginary part
     1        1      32.0035556696    0.0000000000
     1        2       9.0519724924    0.0000000000
     1        3      22.1727137764    0.0000000000
     2        1       9.0519724924    0.0000000000
     2        2      25.6028445304    0.0000000000
     2        3      15.6784762660    0.0000000000
     3        1      22.1727137764    0.0000000000
     3        2      15.6784762660    0.0000000000
     3        3      57.6064001735    0.0000000000

 respfn : d/dk was computed, but no 2DTE, so no DDB output.

== END DATASET(S) ==============================================================

 -outvars: echo values of variables after computation  --------
            acell      1.0000000000E+00  1.0000000000E+00  1.0000000000E+00 Bohr
              amu      1.18710000E+02  1.20110000E+01
             ecut      4.10000000E+01 Hartree
           etotal     -9.1277114804E+01
            fcart      0.0000000000E+00  0.0000000000E+00  0.0000000000E+00
                       0.0000000000E+00  0.0000000000E+00  0.0000000000E+00
-          fftalg         512
           irdden           1
           irdwfk           1
           istwfk        1
              ixc     -116133
           kptopt           0
P           mkmem           1
P          mkqmem           1
P          mk1mem           1
            natom           2
            nband          18
           nbdbuf           4
            ngfft          40      40      40
             nkpt           1
            nstep         100
             nsym          24
           ntypat           2
              occ      2.000000  2.000000  2.000000  2.000000  2.000000  2.000000
                       2.000000  2.000000  2.000000  0.000000  0.000000  0.000000
                       0.000000  0.000000  0.000000  0.000000  0.000000  0.000000
        optdriver           1
            prtwf          -1
            rfdir           1       1       1
           rfelfd           2
            rprim      5.8366488049E+00  0.0000000000E+00  3.3697907587E+00
                       1.9455496016E+00  5.5028452658E+00  3.3697907587E+00
                       0.0000000000E+00  0.0000000000E+00  6.7395815173E+00
          spgroup         216
           strten      0.0000000000E+00  0.0000000000E+00  0.0000000000E+00
                       0.0000000000E+00  0.0000000000E+00  0.0000000000E+00
           symrel      1  0  0   0  1  0   0  0  1       0 -1  1   0 -1  0   1 -1  0
                      -1  0  0  -1  0  1  -1  1  0       0  1 -1   1  0 -1   0  0 -1
                      -1  0  0  -1  1  0  -1  0  1       0 -1  1   1 -1  0   0 -1  0
                       1  0  0   0  0  1   0  1  0       0  1 -1   0  0 -1   1  0 -1
                      -1  0  1  -1  1  0  -1  0  0       0 -1  0   1 -1  0   0 -1  1
                       1  0 -1   0  0 -1   0  1 -1       0  1  0   0  0  1   1  0  0
                       1  0 -1   0  1 -1   0  0 -1       0 -1  0   0 -1  1   1 -1  0
                      -1  0  1  -1  0  0  -1  1  0       0  1  0   1  0  0   0  0  1
                       0  0 -1   0  1 -1   1  0 -1       1 -1  0   0 -1  1   0 -1  0
                       0  0  1   1  0  0   0  1  0      -1  1  0  -1  0  0  -1  0  1
                       0  0  1   0  1  0   1  0  0       1 -1  0   0 -1  0   0 -1  1
                       0  0 -1   1  0 -1   0  1 -1      -1  1  0  -1  0  1  -1  0  0
           tolwfr      1.00000000E-20
            typat      1  2
           useylm           1
           xangst      0.0000000000E+00  0.0000000000E+00  0.0000000000E+00
                       3.0886215221E+00  2.1839852228E+00  5.3496494016E+00
            xcart      0.0000000000E+00  0.0000000000E+00  0.0000000000E+00
                       5.8366488049E+00  4.1271339494E+00  1.0109372276E+01
             xred      0.0000000000E+00  0.0000000000E+00  0.0000000000E+00
                       7.5000000000E-01  7.5000000000E-01  7.5000000000E-01
            znucl       50.00000    6.00000

- Timing analysis has been suppressed with timopt=0

 Suggested references for the acknowledgment of ABINIT usage.

 Calculation completed.
.Delivered   6 WARNINGs and   5 COMMENTs to log file.