.Version 9.5.1 of ABINIT

 ABINIT is a project of the Universite Catholique de Louvain,
 Corning Inc. and other collaborators, see ~abinit/doc/developers/contributors.txt .
 acknowledgments of the ABINIT effort.

.Starting date : Wed 19 May 2021.
- ( at 13h50 )

- input  file    -> /scratch/users/j/a/jabreu/flow_simple_9atoms/flow/w193/t1/run.abi
- output file    -> /scratch/users/j/a/jabreu/flow_simple_9atoms/flow/w193/t1/run.abo
- root for input  files -> /scratch/users/j/a/jabreu/flow_simple_9atoms/flow/w193/t1/indata/in
- root for output files -> /scratch/users/j/a/jabreu/flow_simple_9atoms/flow/w193/t1/outdata/out

 Symmetries : space group P-3 m 1 (#164); Bravais hP (primitive hexag.)
     intxc =       0      iscf =       7    lmnmax =      32     lnmax =       8
     mgfft =      72  mpssoang =       4    mqgrid =    3001     natom =       9
  nloc_mem =       1    nspden =       1   nspinor =       1    nsppol =       1
      nsym =      12    n1xccc =    2501    ntypat =       3    occopt =       1
   xclevel =       2
-    mband =          45        mffmem =           1         mkmem =           2
-   mkqmem =           2        mk1mem =           2           mpw =       13510
      nfft =      279936          nkpt =           2
  Rough estimation (10% accuracy) of disk space for files :

------------- Echo of variables that govern the present computation ------------
-
- outvars: echo of selected default values
-   iomode0 =  0 , fftalg0 =512 , wfoptalg0 =  0
-
- outvars: echo of global parameters not present in the input file
-  max_nthreads =    0
-
 -outvars: echo values of preprocessed input variables --------
            acell      1.0000000000E+00  1.0000000000E+00  1.0000000000E+00 Bohr
              amu      8.54678000E+01  1.78490000E+02  1.89984032E+01
             ecut      4.20000000E+01 Hartree
-          fftalg         512
           irdden           1
           irdwfk           1
           istwfk        0    1
              ixc     -116133
              kpt      5.00000000E-01  0.00000000E+00  3.25000000E-01
                       0.00000000E+00  0.00000000E+00  0.00000000E+00
           kptopt           0
P           mkmem           2
P          mkqmem           2
P          mk1mem           2
            natom           9
            nband          45
           nbdbuf           4
            ngfft          72      72      54
             nkpt           2
            nstep        2000
             nsym          12
           ntypat           3
              occ      2.000000  2.000000  2.000000  2.000000  2.000000  2.000000
                       2.000000  2.000000  2.000000  2.000000  2.000000  2.000000
                       2.000000  2.000000  2.000000  2.000000  2.000000  2.000000
                       2.000000  2.000000  2.000000  2.000000  2.000000  2.000000
                       2.000000  2.000000  2.000000  2.000000  2.000000  2.000000
                       2.000000  2.000000  2.000000  2.000000  2.000000  2.000000
                       0.000000  0.000000  0.000000  0.000000  0.000000  0.000000
                       0.000000  0.000000  0.000000
        optdriver           1
            prtwf          -1
            rfdir           1       1       1
           rfelfd           2
            rprim      1.1505818192E+01  0.0000000000E+00  0.0000000000E+00
                      -5.7529090960E+00  9.9643308456E+00  0.0000000000E+00
                       0.0000000000E+00  0.0000000000E+00  9.0621620153E+00
          spgroup         164
           symrel      1  0  0   0  1  0   0  0  1      -1  0  0   0 -1  0   0  0 -1
                      -1  0  0   1  1  0   0  0  1       1  0  0  -1 -1  0   0  0 -1
                       0  1  0  -1 -1  0   0  0  1       0 -1  0   1  1  0   0  0 -1
                       0 -1  0  -1  0  0   0  0  1       0  1  0   1  0  0   0  0 -1
                      -1 -1  0   1  0  0   0  0  1       1  1  0  -1  0  0   0  0 -1
                       1  1  0   0 -1  0   0  0  1      -1 -1  0   0  1  0   0  0 -1
           tolwfr      1.00000000E-20
            typat      1  1  2  3  3  3  3  3  3
           useylm           1
              wtk        0.50000    0.50000
           xangst      0.0000000000E+00  3.5152645216E+00  1.4713425278E+00
                       3.0443083767E+00  1.7576322608E+00  3.3241470712E+00
                       0.0000000000E+00  0.0000000000E+00  0.0000000000E+00
                       3.0443083767E+00  3.6086756457E+00  1.0958077373E+00
                       4.6473589715E+00  8.3211056832E-01  1.0958077373E+00
                       1.4412577819E+00  8.3211056832E-01  1.0958077373E+00
                       0.0000000000E+00  1.6642211366E+00  3.6996818617E+00
                      -1.6030505948E+00  4.4407862140E+00  3.6996818617E+00
                       1.6030505948E+00  4.4407862140E+00  3.6996818617E+00
            xcart      0.0000000000E+00  6.6428872304E+00  2.7804344252E+00
                       5.7529090960E+00  3.3214436152E+00  6.2817275901E+00
                       0.0000000000E+00  0.0000000000E+00  0.0000000000E+00
                       5.7529090960E+00  6.8194086728E+00  2.0707765178E+00
                       8.7822356974E+00  1.5724610864E+00  2.0707765178E+00
                       2.7235824946E+00  1.5724610864E+00  2.0707765178E+00
                       0.0000000000E+00  3.1449221728E+00  6.9913854975E+00
                      -3.0293266014E+00  8.3918697592E+00  6.9913854975E+00
                       3.0293266014E+00  8.3918697592E+00  6.9913854975E+00
             xred      3.3333333333E-01  6.6666666667E-01  3.0681800000E-01
                       6.6666666667E-01  3.3333333333E-01  6.9318200000E-01
                       0.0000000000E+00  0.0000000000E+00  0.0000000000E+00
                       8.4219100000E-01  6.8438200000E-01  2.2850800000E-01
                       8.4219100000E-01  1.5780900000E-01  2.2850800000E-01
                       3.1561800000E-01  1.5780900000E-01  2.2850800000E-01
                       1.5780900000E-01  3.1561800000E-01  7.7149200000E-01
                       1.5780900000E-01  8.4219100000E-01  7.7149200000E-01
                       6.8438200000E-01  8.4219100000E-01  7.7149200000E-01
            znucl       37.00000   72.00000    9.00000

 chkinp: Checking input parameters for consistency.

== DATASET  1 ==================================================================
-   mpi_nproc: 1, omp_nthreads: -1 (-1 if OMP is not activated)

--- !DatasetInfo
iteration_state: {dtset: 1, }
dimensions: {natom: 9, nkpt: 2, mband: 45, nsppol: 1, nspinor: 1, nspden: 1, mpw: 13510, }
cutoff_energies: {ecut:  42.0, pawecutdg:  -1.0, }
electrons: {nelect:   7.20000000E+01, charge:   0.00000000E+00, occopt:   1.00000000E+00, tsmear:   1.00000000E-02, }
meta: {optdriver: 1, rfelfd: 2, }
...

 Real(R)+Recip(G) space primitive vectors, cartesian coordinates (Bohr,Bohr^-1):
 R(1)= 11.5058182  0.0000000  0.0000000  G(1)=  0.0869126  0.0501790  0.0000000
 R(2)= -5.7529091  9.9643308  0.0000000  G(2)=  0.0000000  0.1003580  0.0000000
 R(3)=  0.0000000  0.0000000  9.0621620  G(3)=  0.0000000  0.0000000  0.1103489
 Unit cell volume ucvol=  1.0389567E+03 bohr^3
 Angles (23,13,12)=  9.00000000E+01  9.00000000E+01  1.20000000E+02 degrees

 getcut: wavevector=  0.0000  0.0000  0.0000  ngfft=  72  72  54
         ecut(hartree)=     42.000   => boxcut(ratio)=   2.04255

--- Pseudopotential description ------------------------------------------------
- pspini: atom type   1  psp file is /scratch/users/j/a/jabreu/pseudos/PBEsol/Rb.psp8
- pspatm: opening atomic psp file    /scratch/users/j/a/jabreu/pseudos/PBEsol/Rb.psp8
- Rb    ONCVPSP-3.3.0  r_core=   1.71227   1.75361   1.90633
- 37.00000   9.00000    180112                znucl, zion, pspdat
    8 -116133    2    4       600   0.00000   pspcod,pspxc,lmax,lloc,mmax,r2well
    5.99000000000000    7.00000000000000    0.00000000000000   rchrg,fchrg,qchrg
     nproj     2     2     2
     extension_switch     1
  pspatm : epsatm=   34.48400912
         --- l  ekb(1:nproj) -->
             0    8.196957   -0.477221
             1    3.231347   -0.378736
             2   -1.047201    0.996637
 pspatm: atomic psp has been read  and splines computed

- pspini: atom type   2  psp file is /scratch/users/j/a/jabreu/pseudos/PBEsol/Hf.psp8
- pspatm: opening atomic psp file    /scratch/users/j/a/jabreu/pseudos/PBEsol/Hf.psp8
- Hf    ONCVPSP-3.3.0  r_core=   1.71613   1.71613   1.71613   2.42541
- 72.00000  12.00000    180112                znucl, zion, pspdat
    8 -116133    3    4       600   0.00000   pspcod,pspxc,lmax,lloc,mmax,r2well
    5.99000000000000    5.40000000000000    0.00000000000000   rchrg,fchrg,qchrg
     nproj     2     2     2     2
     extension_switch     1
  pspatm : epsatm=   21.99082902
         --- l  ekb(1:nproj) -->
             0    5.882750   -0.519107
             1    2.555685   -1.768609
             2    1.383259    0.138001
             3    9.464546    0.347497
 pspatm: atomic psp has been read  and splines computed

- pspini: atom type   3  psp file is /scratch/users/j/a/jabreu/pseudos/PBEsol/F.psp8
- pspatm: opening atomic psp file    /scratch/users/j/a/jabreu/pseudos/PBEsol/F.psp8
- F     ONCVPSP-3.3.0  r_core=   1.30942   1.45782   1.60379
-  9.00000   7.00000    180112                znucl, zion, pspdat
    8 -116133    2    4       600   0.00000   pspcod,pspxc,lmax,lloc,mmax,r2well
    5.99000000000000    2.50000000000000    0.00000000000000   rchrg,fchrg,qchrg
     nproj     2     2     1
     extension_switch     1
  pspatm : epsatm=    4.89824824
         --- l  ekb(1:nproj) -->
             0    6.506434    1.065875
             1   -3.978753   -1.295852
             2   -2.394754
 pspatm: atomic psp has been read  and splines computed

   8.66508024E+03                                ecore*ucvol(ha*bohr**3)

-inwffil : will read wavefunctions from disk file /scratch/users/j/a/jabreu/flow_simple_9atoms/flow/w193/t1/indata/in_WFK

 ==>  initialize data related to q vector <==

 The list of irreducible perturbations for this q vector is:
    1)    idir= 1    ipert=  10
    2)    idir= 2    ipert=  10
    3)    idir= 3    ipert=  10

 Perturbation wavevector (in red.coord.)   0.000000  0.000000  0.000000
 Perturbation : derivative vs k along direction   1

 dfpt_looppert : COMMENT -
  In a d/dk calculation, iscf is set to -3 automatically.
 The set of symmetries contains only one element for this perturbation.
 symkpt : not enough symmetry to change the number of k points.

[...]

 Initialisation of the first-order wave-functions :
  ireadwf=   0

--- !BeginCycle
iteration_state: {dtset: 1, }
solver: {iscf: 7, nstep: 2000, nline: 4, wfoptalg: 0, }
tolerances: {tolwfr: 1.00E-20, }
...

     iter   2DEtotal(Ha)        deltaE(Ha) residm    vres2
-ETOT  1  -30.091535278123     -3.009E+01 1.798E-01 0.000E+00
 ETOT  2  -30.137860046716     -4.632E-02 1.075E-02 0.000E+00
 ETOT  3  -30.138220328503     -3.603E-04 6.714E-04 0.000E+00
 ETOT  4  -30.138225224136     -4.896E-06 1.202E-04 0.000E+00
 ETOT  5  -30.138225302690     -7.855E-08 1.339E-05 0.000E+00
[...]
 ETOT 14  -30.138225304061      1.776E-14 2.358E-12 0.000E+00
 ETOT 15  -30.138225304061     -1.066E-14 3.128E-12 0.000E+00
 ETOT 16  -30.138225304061     -7.105E-15 1.333E-13 0.000E+00
 ETOT 17  -30.138225304061      2.132E-14 1.770E-13 0.000E+00
 ETOT 18  -30.138225304061     -1.066E-14 7.546E-15 0.000E+00
 ETOT 19  -30.138225304061      0.000E+00 1.002E-14 0.000E+00
 ETOT 20  -30.138225304061     -3.553E-15 4.279E-16 0.000E+00
 ETOT 21  -30.138225304061      0.000E+00 5.679E-16 0.000E+00
 ETOT 22  -30.138225304061     -3.553E-15 2.431E-17 0.000E+00
 ETOT 23  -30.138225304061      0.000E+00 3.224E-17 0.000E+00
 ETOT 24  -30.138225304061      3.553E-15 1.383E-18 0.000E+00
 ETOT 25  -30.138225304061      7.105E-15 1.834E-18 0.000E+00
 ETOT 26  -30.138225304061     -3.553E-15 7.881E-20 0.000E+00
 ETOT 27  -30.138225304061      3.553E-15 1.044E-19 0.000E+00
 ETOT 28  -30.138225304061      0.000E+00 9.998E-21 0.000E+00

 At SCF step   28   max residual=  1.00E-20 < tolwfr=  1.00E-20 =>converged.

 ----iterations are completed or convergence reached----

 dfpt_looppert: DFPT cycle converged with prtwf=-1. Will skip output of the 1st-order WFK file.
 dfpt_looppert : ek2=    5.7256652154E+01
          f-sum rule ratio=    1.0033192178E+00
 prteigrs : about to open file /scratch/users/j/a/jabreu/flow_simple_9atoms/flow/w193/t1/tmpdata/tmp_1WF1_EIG
 Expectation of eigenvalue derivatives (hartree) for nkpt=   2  k points:
  (in case of degenerate eigenvalues, averaged derivative)
 kpt#   1, nband= 45, wtk=  0.50000, kpt=  0.5000  0.0000  0.3250 (reduced coord)
   0.00000    0.00000   -0.00000    0.00000   -0.00026    0.00027   -0.00038    0.00013
   0.00022    0.00173   -0.00145   -0.00026   -0.00302    0.00070   -0.00229    0.00379
   0.00085    0.00093   -0.00080   -0.00271   -0.01947    0.01805    0.00603   -0.00721
   0.00930    0.00100    0.00591   -0.00422   -0.01005   -0.00001    0.01154   -0.00043
  -0.00568    0.00222   -0.00628    0.00186    0.00556   -0.00762    0.00035   -0.13230
   0.13528    0.04345    0.03475   -0.06093   -0.00570
 prteigrs : prtvol=0 or 1, do not print more k-points.

 Eight components of 2nd-order total energy (hartree) are
 1,2,3: 0th-order hamiltonian combined with 1st-order wavefunctions
     kin0=   4.04062523E+01 eigvalue=   3.62425196E+00  local=  -1.93894354E+01
 4,5,6: 1st-order hamiltonian combined with 1st and 0th-order wfs
     kin1=  -5.74466995E+01  Hartree=   0.00000000E+00     xc=   0.00000000E+00
 7,8,9: eventually, occupation + non-local contributions
    edocc=   5.65145733E+00     enl0=  -1.54300835E-01   enl1=  -2.82975116E+00
 1-9 gives the relaxation energy (to be shifted if some occ is /=2.0)
   erelax=  -3.01382253E+01
  No Ewald or frozen-wf contrib.: the relaxation energy is the total one
 2DEtotal=   -0.3013822530E+02 Ha. Also 2DEtotal=   -0.820102817608E+03 eV
    (  non-var. 2DEtotal :   -3.0138225304E+01 Ha)

 Perturbation wavevector (in red.coord.)   0.000000  0.000000  0.000000
 Perturbation : derivative vs k along direction   2
 The set of symmetries contains only one element for this perturbation.
 symkpt : not enough symmetry to change the number of k points.

[...]

 Perturbation wavevector (in red.coord.)   0.000000  0.000000  0.000000
 Perturbation : derivative vs k along direction   3
 The set of symmetries contains only one element for this perturbation.
 symkpt : not enough symmetry to change the number of k points.

-inwffil : will read wavefunctions from disk file /scratch/users/j/a/jabreu/flow_simple_9atoms/flow/w193/t1/indata/in_WFK

 Initialisation of the first-order wave-functions :
  ireadwf=   0

--- !BeginCycle
iteration_state: {dtset: 1, }
solver: {iscf: 7, nstep: 2000, nline: 4, wfoptalg: 0, }
tolerances: {tolwfr: 1.00E-20, }
...

     iter   2DEtotal(Ha)        deltaE(Ha) residm    vres2
-ETOT  1  -36.331591583039     -3.633E+01 2.306E-01 0.000E+00
 ETOT  2  -36.370933388003     -3.934E-02 8.913E-03 0.000E+00
 ETOT  3  -36.371165463298     -2.321E-04 1.488E-03 0.000E+00
 ETOT  4  -36.371168424375     -2.961E-06 9.471E-05 0.000E+00
 ETOT  5  -36.371168471496     -4.712E-08 2.517E-05 0.000E+00
 ETOT  6  -36.371168472311     -8.150E-10 1.571E-06 0.000E+00
 ETOT  7  -36.371168472326     -1.500E-11 4.210E-07 0.000E+00
 ETOT  8  -36.371168472326     -2.984E-13 3.072E-08 0.000E+00
 ETOT  9  -36.371168472326      7.105E-15 7.110E-09 0.000E+00
 ETOT 10  -36.371168472326     -2.132E-14 7.843E-10 0.000E+00
 ETOT 11  -36.371168472326      7.105E-15 1.391E-10 0.000E+00
 ETOT 12  -36.371168472326     -7.105E-15 2.116E-11 0.000E+00
 ETOT 13  -36.371168472326      0.000E+00 3.761E-12 0.000E+00
 ETOT 14  -36.371168472326      0.000E+00 5.912E-13 0.000E+00
 ETOT 15  -36.371168472326      0.000E+00 1.049E-13 0.000E+00
 ETOT 16  -36.371168472326      7.105E-15 1.689E-14 0.000E+00
 ETOT 17  -36.371168472326     -1.421E-14 2.989E-15 0.000E+00
 ETOT 18  -36.371168472326      7.105E-15 4.893E-16 0.000E+00
 ETOT 19  -36.371168472326      0.000E+00 8.628E-17 0.000E+00
 ETOT 20  -36.371168472326      0.000E+00 1.429E-17 0.000E+00
 ETOT 21  -36.371168472326      0.000E+00 2.512E-18 0.000E+00
 ETOT 22  -36.371168472326     -1.421E-14 4.198E-19 0.000E+00
 ETOT 23  -36.371168472326      0.000E+00 7.354E-20 0.000E+00
 ETOT 24  -36.371168472326      1.421E-14 1.237E-20 0.000E+00
 ETOT 25  -36.371168472326     -1.421E-14 9.976E-21 0.000E+00

 At SCF step   25   max residual=  9.98E-21 < tolwfr=  1.00E-20 =>converged.

 ----iterations are completed or convergence reached----

 dfpt_looppert: DFPT cycle converged with prtwf=-1. Will skip output of the 1st-order WFK file.
 dfpt_looppert : ek2=    6.9224301807E+01
          f-sum rule ratio=    1.0014030555E+00
 prteigrs : about to open file /scratch/users/j/a/jabreu/flow_simple_9atoms/flow/w193/t1/tmpdata/tmp_1WF1_EIG
 Expectation of eigenvalue derivatives (hartree) for nkpt=   2  k points:
  (in case of degenerate eigenvalues, averaged derivative)
 kpt#   1, nband= 45, wtk=  0.50000, kpt=  0.5000  0.0000  0.3250 (reduced coord)
   0.00000    0.00019    0.00016   -0.00064    0.00132    0.00064    0.00913   -0.00388
  -0.00458   -0.00451   -0.00381    0.00489   -0.00152   -0.00437   -0.00926   -0.00601
   0.00150   -0.00066   -0.00469    0.00120    0.00724    0.01041   -0.01308    0.06689
  -0.04365   -0.00808   -0.02551    0.00926    0.00948    0.00610   -0.00460    0.01212
   0.03222   -0.01489   -0.00354    0.00007    0.00417   -0.00590    0.02117    0.05104
   0.12070    0.05946   -0.01197   -0.00711   -0.07272
 prteigrs : prtvol=0 or 1, do not print more k-points.

 Eight components of 2nd-order total energy (hartree) are
 1,2,3: 0th-order hamiltonian combined with 1st-order wavefunctions
     kin0=   4.98235375E+01 eigvalue=   4.61856299E+00  local=  -2.36952760E+01
 4,5,6: 1st-order hamiltonian combined with 1st and 0th-order wfs
     kin1=  -6.93214273E+01  Hartree=   0.00000000E+00     xc=   0.00000000E+00
 7,8,9: eventually, occupation + non-local contributions
    edocc=   5.88702151E+00     enl0=  -2.62677544E-01   enl1=  -3.42090960E+00
 1-9 gives the relaxation energy (to be shifted if some occ is /=2.0)
   erelax=  -3.63711685E+01
  No Ewald or frozen-wf contrib.: the relaxation energy is the total one
 2DEtotal=   -0.3637116847E+02 Ha. Also 2DEtotal=   -0.989709826737E+03 eV
    (  non-var. 2DEtotal :   -3.6371168472E+01 Ha)

 CALCULATION OF EFFECTIVE MASSES
 NOTE : Additional infos (eff. mass eigenvalues, eigenvectors and, if degenerate, average mass) are available in stdout.

--- !WARNING
src_file: m_efmas.F90
src_line: 0
message: |

    Band(s)    36,
    are not band extrema, but saddle points;
    the transport equivalent formalism breaks down in these conditions.
    The associated tensor(s) will therefore not be printed.
...

 K-point ( 0.500, 0.000, 0.325) | band =    36
 Effective mass tensor:
     *** SADDLE POINT: TRANSPORT EQV. EFF. MASS NOT DEFINED (see WARNING above) ***
 Angular average effective mass 1/(<1/m>)=  -6.6163034200
 Angular average effective mass for Frohlich model (<m**0.5>)**2= -12.8212285122
 Effective masses along directions: (cart. coord. / red. coord. -> eff. mass)
    1:   1.000000  0.000000  0.000000 /   0.894427 -0.447214  0.000000 -> -21.3761956148
    2:   0.000000  1.000000  0.000000 /   0.000000  1.000000  0.000000 ->  -6.5694169951
    3:   0.000000  0.000000  1.000000 /   0.000000  0.000000  1.000000 ->  -3.9304486970
    4:   0.577350  0.577350  0.577350 /   0.754999  0.276349  0.594649 -> -11.6065226536
    5:   0.000000  0.707107  0.707107 /   0.000000  0.739804  0.672822 ->  -4.9735471297
    6:   0.707107  0.000000  0.707107 /   0.731206 -0.365603  0.575909 ->  -6.8167737924
    7:   0.707107  0.707107  0.000000 /   0.939071  0.343724  0.000000 -> **************

 K-point ( 0.000, 0.000, 0.000) | band =    37
 Effective mass tensor:
              0.5341672408             -0.0000000007             -0.0000000036
             -0.0000000007              0.5341672344             -0.0000000095
             -0.0000000036             -0.0000000095              0.5645240451
 Effective mass tensor eigenvalues:
              0.5341672343              0.5341672409              0.5645240451
 Angular average effective mass 1/(<1/m>)=   0.5439167942
 Angular average effective mass for Frohlich model (<m**0.5>)**2=   0.5440265083
 Effective masses along directions: (cart. coord. / red. coord. -> eff. mass)
    1:   1.000000  0.000000  0.000000 /   0.894427 -0.447214  0.000000 ->   0.5341672408
    2:   0.000000  1.000000  0.000000 /   0.000000  1.000000  0.000000 ->   0.5341672344
    3:   0.000000  0.000000  1.000000 /   0.000000  0.000000  1.000000 ->   0.5645240451
    4:   0.577350  0.577350  0.577350 /   0.754999  0.276349  0.594649 ->   0.5439167852
    5:   0.000000  0.707107  0.707107 /   0.000000  0.739804  0.672822 ->   0.5489262514
    6:   0.707107  0.000000  0.707107 /   0.731206 -0.365603  0.575909 ->   0.5489262606
    7:   0.707107  0.707107  0.000000 /   0.939071  0.343724  0.000000 ->   0.5341672370

 END OF EFFECTIVE MASSES SECTION

 ---- first-order wavefunction calculations are completed ----

 Total localisation tensor (bohr^2) in cartesian coordinates
  WARNING : still subject to testing - especially symmetries.
      direction              matrix element
   alpha     beta       real part   imaginary part
     1        1       0.8915623328    0.0000000000
     1        2      -0.3186548813    0.0000000000
     1        3       0.0000000000    0.0000000000
     2        1      -0.3186548813    0.0000000000
     2        2       0.5519264445    0.0000000000
     2        3       0.0000000000    0.0000000000
     3        1       0.0000000000    0.0000000000
     3        2       0.0000000000    0.0000000000
     3        3       0.5189346089    0.0000000000

 respfn : d/dk was computed, but no 2DTE, so no DDB output.

== END DATASET(S) ==============================================================

 -outvars: echo values of variables after computation  --------
            acell      1.0000000000E+00  1.0000000000E+00  1.0000000000E+00 Bohr
              amu      8.54678000E+01  1.78490000E+02  1.89984032E+01
             ecut      4.20000000E+01 Hartree
           etotal     -3.6371168472E+01
            fcart      0.0000000000E+00  0.0000000000E+00  0.0000000000E+00
                       0.0000000000E+00  0.0000000000E+00  0.0000000000E+00
                       0.0000000000E+00  0.0000000000E+00  0.0000000000E+00
                       0.0000000000E+00  0.0000000000E+00  0.0000000000E+00
                       0.0000000000E+00  0.0000000000E+00  0.0000000000E+00
                       0.0000000000E+00  0.0000000000E+00  0.0000000000E+00
                       0.0000000000E+00  0.0000000000E+00  0.0000000000E+00
                       0.0000000000E+00  0.0000000000E+00  0.0000000000E+00
                       0.0000000000E+00  0.0000000000E+00  0.0000000000E+00
-          fftalg         512
           irdden           1
           irdwfk           1
           istwfk        0    1
              ixc     -116133
              kpt      5.00000000E-01  0.00000000E+00  3.25000000E-01
                       0.00000000E+00  0.00000000E+00  0.00000000E+00
           kptopt           0
P           mkmem           2
P          mkqmem           2
P          mk1mem           2
            natom           9
            nband          45
           nbdbuf           4
            ngfft          72      72      54
             nkpt           2
            nstep        2000
             nsym          12
           ntypat           3
              occ      2.000000  2.000000  2.000000  2.000000  2.000000  2.000000
                       2.000000  2.000000  2.000000  2.000000  2.000000  2.000000
                       2.000000  2.000000  2.000000  2.000000  2.000000  2.000000
                       2.000000  2.000000  2.000000  2.000000  2.000000  2.000000
                       2.000000  2.000000  2.000000  2.000000  2.000000  2.000000
                       2.000000  2.000000  2.000000  2.000000  2.000000  2.000000
                       0.000000  0.000000  0.000000  0.000000  0.000000  0.000000
                       0.000000  0.000000  0.000000
        optdriver           1
            prtwf          -1
            rfdir           1       1       1
           rfelfd           2
            rprim      1.1505818192E+01  0.0000000000E+00  0.0000000000E+00
                      -5.7529090960E+00  9.9643308456E+00  0.0000000000E+00
                       0.0000000000E+00  0.0000000000E+00  9.0621620153E+00
          spgroup         164
           strten      0.0000000000E+00  0.0000000000E+00  0.0000000000E+00
                       0.0000000000E+00  0.0000000000E+00  0.0000000000E+00
           symrel      1  0  0   0  1  0   0  0  1      -1  0  0   0 -1  0   0  0 -1
                      -1  0  0   1  1  0   0  0  1       1  0  0  -1 -1  0   0  0 -1
                       0  1  0  -1 -1  0   0  0  1       0 -1  0   1  1  0   0  0 -1
                       0 -1  0  -1  0  0   0  0  1       0  1  0   1  0  0   0  0 -1
                      -1 -1  0   1  0  0   0  0  1       1  1  0  -1  0  0   0  0 -1
                       1  1  0   0 -1  0   0  0  1      -1 -1  0   0  1  0   0  0 -1
           tolwfr      1.00000000E-20
            typat      1  1  2  3  3  3  3  3  3
           useylm           1
              wtk        0.50000    0.50000
           xangst      0.0000000000E+00  3.5152645216E+00  1.4713425278E+00
                       3.0443083767E+00  1.7576322608E+00  3.3241470712E+00
                       0.0000000000E+00  0.0000000000E+00  0.0000000000E+00
                       3.0443083767E+00  3.6086756457E+00  1.0958077373E+00
                       4.6473589715E+00  8.3211056832E-01  1.0958077373E+00
                       1.4412577819E+00  8.3211056832E-01  1.0958077373E+00
                       0.0000000000E+00  1.6642211366E+00  3.6996818617E+00
                      -1.6030505948E+00  4.4407862140E+00  3.6996818617E+00
                       1.6030505948E+00  4.4407862140E+00  3.6996818617E+00
            xcart      0.0000000000E+00  6.6428872304E+00  2.7804344252E+00
                       5.7529090960E+00  3.3214436152E+00  6.2817275901E+00
                       0.0000000000E+00  0.0000000000E+00  0.0000000000E+00
                       5.7529090960E+00  6.8194086728E+00  2.0707765178E+00
                       8.7822356974E+00  1.5724610864E+00  2.0707765178E+00
                       2.7235824946E+00  1.5724610864E+00  2.0707765178E+00
                       0.0000000000E+00  3.1449221728E+00  6.9913854975E+00
                      -3.0293266014E+00  8.3918697592E+00  6.9913854975E+00
                       3.0293266014E+00  8.3918697592E+00  6.9913854975E+00
             xred      3.3333333333E-01  6.6666666667E-01  3.0681800000E-01
                       6.6666666667E-01  3.3333333333E-01  6.9318200000E-01
                       0.0000000000E+00  0.0000000000E+00  0.0000000000E+00
                       8.4219100000E-01  6.8438200000E-01  2.2850800000E-01
                       8.4219100000E-01  1.5780900000E-01  2.2850800000E-01
                       3.1561800000E-01  1.5780900000E-01  2.2850800000E-01
                       1.5780900000E-01  3.1561800000E-01  7.7149200000E-01
                       1.5780900000E-01  8.4219100000E-01  7.7149200000E-01
                       6.8438200000E-01  8.4219100000E-01  7.7149200000E-01
            znucl       37.00000   72.00000    9.00000

- Timing analysis has been suppressed with timopt=0

 Suggested references for the acknowledgment of ABINIT usage.

 Calculation completed.
.Delivered  15 WARNINGs and   9 COMMENTs to log file.