.Version 9.5.2 of ABINIT

 ABINIT is a project of the Universite Catholique de Louvain,
 Corning Inc. and other collaborators, see ~abinit/doc/developers/contributors.txt .
 acknowledgments of the ABINIT effort.

.Starting date : Mon 24 May 2021.
- ( at 20h54 )

- input  file    -> /scratch/users/j/a/jabreu/flow_simple_10atoms/flow/w386/t1/run.abi
- output file    -> /scratch/users/j/a/jabreu/flow_simple_10atoms/flow/w386/t1/run.abo
- root for input  files -> /scratch/users/j/a/jabreu/flow_simple_10atoms/flow/w386/t1/indata/in
- root for output files -> /scratch/users/j/a/jabreu/flow_simple_10atoms/flow/w386/t1/outdata/out

 Symmetries : space group Cm c 2_1 (# 36); Bravais oC (1-face-center ortho.)
     intxc =       0      iscf =       7    lmnmax =      32     lnmax =       8
     mgfft =     128  mpssoang =       4    mqgrid =    6347     natom =      10
  nloc_mem =       1    nspden =       1   nspinor =       1    nsppol =       1
      nsym =       4    n1xccc =    2501    ntypat =       3    occopt =       1
   xclevel =       2
-    mband =          77        mffmem =           1         mkmem =           2
-   mkqmem =           2        mk1mem =           2           mpw =       20983
      nfft =      524288          nkpt =           2
  Rough estimation (10% accuracy) of disk space for files :

------------- Echo of variables that govern the present computation ------------
-
- outvars: echo of selected default values
-   iomode0 =  0 , fftalg0 =512 , wfoptalg0 =  0
-
- outvars: echo of global parameters not present in the input file
-  max_nthreads =    0
-
 -outvars: echo values of preprocessed input variables --------
            acell      1.0000000000E+00  1.0000000000E+00  1.0000000000E+00 Bohr
              amu      2.29897680E+01  1.95080000E+02  7.89600000E+01
             ecut      4.40000000E+01 Hartree
-          fftalg         512
           irdden           1
           irdwfk           1
              ixc     -116133
              kpt     -5.00000000E-01  5.00000000E-01  0.00000000E+00
                       1.25453748E-01  1.25453748E-01  0.00000000E+00
           kptopt           0
P           mkmem           2
P          mkqmem           2
P          mk1mem           2
            natom          10
            nband          77
           nbdbuf           4
            ngfft          64      64     128
             nkpt           2
            nstep        2000
             nsym           4
           ntypat           3
              occ      2.000000  2.000000  2.000000  2.000000  2.000000  2.000000
                       2.000000  2.000000  2.000000  2.000000  2.000000  2.000000
                       2.000000  2.000000  2.000000  2.000000  2.000000  2.000000
                       2.000000  2.000000  2.000000  2.000000  2.000000  2.000000
                       2.000000  2.000000  2.000000  2.000000  2.000000  2.000000
                       2.000000  2.000000  2.000000  2.000000  2.000000  2.000000
                       2.000000  2.000000  2.000000  2.000000  2.000000  2.000000
                       2.000000  2.000000  2.000000  2.000000  2.000000  2.000000
                       2.000000  2.000000  2.000000  2.000000  2.000000  2.000000
                       2.000000  2.000000  2.000000  2.000000  2.000000  2.000000
                       2.000000  2.000000  2.000000  2.000000  2.000000  2.000000
                       2.000000  2.000000  0.000000  0.000000  0.000000  0.000000
                       0.000000  0.000000  0.000000  0.000000  0.000000
        optdriver           1
            prtwf          -1
            rfdir           1       1       1
           rfelfd           2
            rprim      1.0707714775E+01  0.0000000000E+00  0.0000000000E+00
                      -8.4228816724E+00  6.6113705118E+00  0.0000000000E+00
                       0.0000000000E+00  0.0000000000E+00  2.1253567705E+01
          spgroup          36
           symrel      1  0  0   0  1  0   0  0  1       0 -1  0  -1  0  0   0  0  1
                      -1  0  0   0 -1  0   0  0  1       0  1  0   1  0  0   0  0  1
            tnons      0.0000000  0.0000000  0.0000000    -0.0000000 -0.0000000  0.0000000
                      -0.0000000  0.0000000  0.5000000     0.0000000  0.0000000  0.5000000
           tolwfr      1.00000000E-20
            typat      1  1  1  1  2  2  3  3  3  3
           useylm           1
              wtk        0.50000    0.50000
           xangst     -3.8178792789E+00  3.2776438519E+00  1.4869756228E+00
                       5.0269608824E+00  2.2094274048E-01  7.1104274382E+00
                       2.3192955974E+00  1.1566887048E+00  4.5118640951E+00
                      -1.1102139938E+00  2.3418978876E+00  1.0135315910E+01
                      -7.9974724329E-01  2.2346032339E+00  2.7908741484E+00
                       2.0088288468E+00  1.2639833584E+00  8.4143259638E+00
                       5.0890279115E+00  1.9949290608E-01  4.1653020066E+00
                      -3.8799463080E+00  3.2990936863E+00  9.7887538220E+00
                       3.4346900185E+00  7.7121793267E-01  1.4151641432E+00
                      -2.2256084149E+00  2.7273686597E+00  7.0386159586E+00
            xcart     -7.2147462455E+00  6.1938492412E+00  2.8099766934E+00
                       9.4995793485E+00  4.1752127056E-01  1.3436760546E+01
                       4.3828335002E+00  2.1858248731E+00  8.5261874885E+00
                      -2.0980003972E+00  4.4255456387E+00  1.9152971341E+01
                      -1.5113032654E+00  4.2227881278E+00  5.2739878118E+00
                       3.7961363684E+00  2.3885823840E+00  1.5900771664E+01
                       9.6168690353E+00  3.7698695795E-01  7.8712800532E+00
                      -7.3320359323E+00  6.2343835538E+00  1.8498063906E+01
                       6.4906234862E+00  1.4573906815E+00  2.6742726636E+00
                      -4.2057903832E+00  5.1539798303E+00  1.3301056516E+01
             xred      6.3152000000E-02  9.3684800000E-01  1.3221200000E-01
                       9.3684800000E-01  6.3152000000E-02  6.3221200000E-01
                       6.6938400000E-01  3.3061600000E-01  4.0116500000E-01
                       3.3061600000E-01  6.6938400000E-01  9.0116500000E-01
                       3.6128400000E-01  6.3871600000E-01  2.4814600000E-01
                       6.3871600000E-01  3.6128400000E-01  7.4814600000E-01
                       9.4297900000E-01  5.7021000000E-02  3.7035100000E-01
                       5.7021000000E-02  9.4297900000E-01  8.7035100000E-01
                       7.7956300000E-01  2.2043700000E-01  1.2582700000E-01
                       2.2043700000E-01  7.7956300000E-01  6.2582700000E-01
            znucl       11.00000   78.00000   34.00000

 chkinp: Checking input parameters for consistency.

== DATASET  1 ==================================================================
-   mpi_nproc: 1, omp_nthreads: -1 (-1 if OMP is not activated)

--- !DatasetInfo
iteration_state: {dtset: 1, }
dimensions: {natom: 10, nkpt: 2, mband: 77, nsppol: 1, nspinor: 1, nspden: 1, mpw: 20983, }
cutoff_energies: {ecut:  44.0, pawecutdg:  -1.0, }
electrons: {nelect:   1.36000000E+02, charge:   0.00000000E+00, occopt:   1.00000000E+00, tsmear:   1.00000000E-02, }
meta: {optdriver: 1, rfelfd: 2, }
...

 Real(R)+Recip(G) space primitive vectors, cartesian coordinates (Bohr,Bohr^-1):
 R(1)= 10.7077148  0.0000000  0.0000000  G(1)=  0.0933906  0.1189796  0.0000000
 R(2)= -8.4228817  6.6113705  0.0000000  G(2)=  0.0000000  0.1512546  0.0000000
 R(3)=  0.0000000  0.0000000 21.2535677  G(3)=  0.0000000  0.0000000  0.0470509
 Unit cell volume ucvol=  1.5045968E+03 bohr^3
 Angles (23,13,12)=  9.00000000E+01  9.00000000E+01  1.41870576E+02 degrees

 getcut: wavevector=  0.0000  0.0000  0.0000  ngfft=  64  64 128
         ecut(hartree)=     44.000   => boxcut(ratio)=   2.00174

--- Pseudopotential description ------------------------------------------------
- pspini: atom type   1  psp file is /scratch/users/j/a/jabreu/pseudos/PBEsol/Na.psp8
- pspatm: opening atomic psp file    /scratch/users/j/a/jabreu/pseudos/PBEsol/Na.psp8
- Na    ONCVPSP-3.3.0  r_core=   1.20708   1.55069
- 11.00000   9.00000    180112                znucl, zion, pspdat
    8 -116133    1    4       400   0.00000   pspcod,pspxc,lmax,lloc,mmax,r2well
    3.99000000000000    0.00000000000000    0.00000000000000   rchrg,fchrg,qchrg
     nproj     2     2
     extension_switch     1
  pspatm : epsatm=    9.32878306
         --- l  ekb(1:nproj) -->
             0    2.657905   -0.678300
             1   -6.761319   -2.404728
 pspatm: atomic psp has been read  and splines computed

- pspini: atom type   2  psp file is /scratch/users/j/a/jabreu/pseudos/PBEsol/Pt.psp8
- pspatm: opening atomic psp file    /scratch/users/j/a/jabreu/pseudos/PBEsol/Pt.psp8
- Pt    ONCVPSP-3.3.0  r_core=   1.45722   1.45722   1.45722   1.91724
- 78.00000  18.00000    180112                znucl, zion, pspdat
    8 -116133    3    4       500   0.00000   pspcod,pspxc,lmax,lloc,mmax,r2well
    4.99000000000000    5.00000000000000    0.00000000000000   rchrg,fchrg,qchrg
     nproj     2     2     2     2
     extension_switch     1
  pspatm : epsatm=   26.54019552
         --- l  ekb(1:nproj) -->
             0   18.149684    1.747248
             1    8.048135    1.208190
             2    2.365973    0.348456
             3    3.491561    0.381218
 pspatm: atomic psp has been read  and splines computed

- pspini: atom type   3  psp file is /scratch/users/j/a/jabreu/pseudos/PBEsol/Se.psp8
- pspatm: opening atomic psp file    /scratch/users/j/a/jabreu/pseudos/PBEsol/Se.psp8
- Se    ONCVPSP-3.3.0  r_core=   1.81943   1.50330   1.90835
- 34.00000  16.00000    180112                znucl, zion, pspdat
    8 -116133    2    4       600   0.00000   pspcod,pspxc,lmax,lloc,mmax,r2well
    5.99000000000000    5.00000000000000    0.00000000000000   rchrg,fchrg,qchrg
     nproj     2     2     2
     extension_switch     1
  pspatm : epsatm=   29.17862020
         --- l  ekb(1:nproj) -->
             0    8.973804    1.019550
             1    6.849857    1.297308
             2   -9.203962   -3.731027
 pspatm: atomic psp has been read  and splines computed

   2.81669606E+04                                ecore*ucvol(ha*bohr**3)

 ==>  initialize data related to q vector <==

 The list of irreducible perturbations for this q vector is:
    1)    idir= 1    ipert=  11
    2)    idir= 2    ipert=  11
    3)    idir= 3    ipert=  11

 Perturbation wavevector (in red.coord.)   0.000000  0.000000  0.000000
 Perturbation : derivative vs k along direction   1

 dfpt_looppert : COMMENT -
  In a d/dk calculation, iscf is set to -3 automatically.
 The set of symmetries contains only one element for this perturbation.
 symkpt : not enough symmetry to change the number of k points.

 Initialisation of the first-order wave-functions :
  ireadwf=   0

--- !BeginCycle
iteration_state: {dtset: 1, }
solver: {iscf: 7, nstep: 2000, nline: 4, wfoptalg: 0, }
tolerances: {tolwfr: 1.00E-20, }
...

     iter   2DEtotal(Ha)        deltaE(Ha) residm    vres2
[...]
 ETOT 18  -225.64579261687     -2.842E-14 1.248E-17 0.000E+00
 ETOT 19  -225.64579261687      5.684E-14 3.149E-18 0.000E+00
 ETOT 20  -225.64579261687      5.684E-14 1.873E-19 0.000E+00
 ETOT 21  -225.64579261687     -5.684E-14 4.734E-20 0.000E+00
 ETOT 22  -225.64579261687     -5.684E-14 9.984E-21 0.000E+00

 At SCF step   22   max residual=  9.98E-21 < tolwfr=  1.00E-20 =>converged.

 ----iterations are completed or convergence reached----

 dfpt_looppert: DFPT cycle converged with prtwf=-1. Will skip output of the 1st-order WFK file.
 dfpt_looppert : ek2=    2.4566633564E+02
          f-sum rule ratio=    1.0234902058E+00
 prteigrs : about to open file /scratch/users/j/a/jabreu/flow_simple_10atoms/flow/w386/t1/tmpdata/tmp_1WF1_EIG
 Expectation of eigenvalue derivatives (hartree) for nkpt=   2  k points:
  (in case of degenerate eigenvalues, averaged derivative)
 kpt#   1, nband= 77, wtk=  0.50000, kpt= -0.5000  0.5000  0.0000 (reduced coord)
  -0.00000   -0.00000   -0.00000    0.00000   -0.00000   -0.00000   -0.00000    0.00000
  -0.00000   -0.00000   -0.00000   -0.00000   -0.00000    0.00000    0.00000   -0.00000
  -0.00000    0.00000    0.00000    0.00000   -0.00000   -0.00000   -0.00000   -0.00000
   0.00000   -0.00000    0.00000   -0.00000    0.00000    0.00000   -0.00000   -0.00000
  -0.00000    0.00000   -0.00000   -0.00000    0.00000    0.00000    0.00000   -0.00000
   0.00000    0.00000    0.00000    0.00000   -0.00000    0.00000    0.00000    0.00000
   0.00000   -0.00000   -0.00000    0.00000   -0.00000    0.00000   -0.00000   -0.00000
   0.00000   -0.00000   -0.00000    0.00000   -0.00000   -0.00000    0.00000   -0.00000
  -0.00000    0.00000    0.00000    0.00000    0.00000   -0.00000   -0.00000    0.00000
  -0.00000    0.00000    0.00000    0.00001    0.00002
 prteigrs : prtvol=0 or 1, do not print more k-points.

 Eight components of 2nd-order total energy (hartree) are
 1,2,3: 0th-order hamiltonian combined with 1st-order wavefunctions
     kin0=   2.65969714E+02 eigvalue=   3.29892976E+01  local=  -1.15653728E+02
 4,5,6: 1st-order hamiltonian combined with 1st and 0th-order wfs
     kin1=  -2.51437088E+02  Hartree=   0.00000000E+00     xc=   0.00000000E+00
 7,8,9: eventually, occupation + non-local contributions
    edocc=   2.50315963E+01     enl0=   1.73089131E+01   enl1=  -1.99854497E+02
 1-9 gives the relaxation energy (to be shifted if some occ is /=2.0)
   erelax=  -2.25645793E+02
  No Ewald or frozen-wf contrib.: the relaxation energy is the total one
 2DEtotal=   -0.2256457926E+03 Ha. Also 2DEtotal=   -0.614013427929E+04 eV
    (  non-var. 2DEtotal :   -2.2564579262E+02 Ha)

 Perturbation wavevector (in red.coord.)   0.000000  0.000000  0.000000
 Perturbation : derivative vs k along direction   2
 The set of symmetries contains only one element for this perturbation.
 symkpt : not enough symmetry to change the number of k points.

[...]

 Perturbation wavevector (in red.coord.)   0.000000  0.000000  0.000000
 Perturbation : derivative vs k along direction   3
 The set of symmetries contains only one element for this perturbation.
 symkpt : not enough symmetry to change the number of k points.

 Initialisation of the first-order wave-functions :
  ireadwf=   0

--- !BeginCycle
iteration_state: {dtset: 1, }
solver: {iscf: 7, nstep: 2000, nline: 4, wfoptalg: 0, }
tolerances: {tolwfr: 1.00E-20, }
...

     iter   2DEtotal(Ha)        deltaE(Ha) residm    vres2
-ETOT  1  -21.613075024947     -2.161E+01 2.650E-02 0.000E+00
 ETOT  2  -21.635034636677     -2.196E-02 2.421E-04 0.000E+00
 ETOT  3  -21.635170834756     -1.362E-04 2.311E-05 0.000E+00
 ETOT  4  -21.635173160519     -2.326E-06 6.506E-07 0.000E+00
 ETOT  5  -21.635173212425     -5.191E-08 9.136E-08 0.000E+00
 ETOT  6  -21.635173213734     -1.308E-09 3.025E-09 0.000E+00
 ETOT  7  -21.635173213769     -3.562E-11 4.381E-10 0.000E+00
 ETOT  8  -21.635173213770     -1.020E-12 1.577E-11 0.000E+00
 ETOT  9  -21.635173213770     -1.066E-14 2.242E-12 0.000E+00
 ETOT 10  -21.635173213770     -1.066E-14 8.479E-14 0.000E+00
 ETOT 11  -21.635173213770      0.000E+00 1.181E-14 0.000E+00
 ETOT 12  -21.635173213770      7.105E-15 4.602E-16 0.000E+00
 ETOT 13  -21.635173213770     -7.105E-15 6.327E-17 0.000E+00
 ETOT 14  -21.635173213770      0.000E+00 2.522E-18 0.000E+00
 ETOT 15  -21.635173213770     -7.105E-15 3.463E-19 0.000E+00
 ETOT 16  -21.635173213770      7.105E-15 1.427E-20 0.000E+00
 ETOT 17  -21.635173213770     -7.105E-15 9.706E-21 0.000E+00

 At SCF step   17   max residual=  9.71E-21 < tolwfr=  1.00E-20 =>converged.

 ----iterations are completed or convergence reached----

 dfpt_looppert: DFPT cycle converged with prtwf=-1. Will skip output of the 1st-order WFK file.
 dfpt_looppert : ek2=    2.3771958043E+01
          f-sum rule ratio=    1.0086207085E+00
 prteigrs : about to open file /scratch/users/j/a/jabreu/flow_simple_10atoms/flow/w386/t1/tmpdata/tmp_1WF1_EIG
 Expectation of eigenvalue derivatives (hartree) for nkpt=   2  k points:
  (in case of degenerate eigenvalues, averaged derivative)
 kpt#   1, nband= 77, wtk=  0.50000, kpt= -0.5000  0.5000  0.0000 (reduced coord)
  -0.00000   -0.00000    0.00000   -0.00000    0.00000    0.00000    0.00000   -0.00000
   0.00000    0.00000    0.00000    0.00000   -0.00000    0.00000   -0.00000    0.00000
  -0.00000    0.00000   -0.00000    0.00000    0.00000    0.00000   -0.00000   -0.00000
   0.00000    0.00000    0.00000    0.00000   -0.00000   -0.00000    0.00000    0.00000
   0.00000   -0.00000    0.00000   -0.00000    0.00000    0.00000    0.00000   -0.00000
  -0.00000   -0.00000   -0.00000   -0.00000   -0.00000    0.00000   -0.00000    0.00000
  -0.00000   -0.00000   -0.00000   -0.00000    0.00000    0.00000    0.00000   -0.00000
  -0.00000   -0.00000    0.00000   -0.00000    0.00000    0.00000   -0.00000   -0.00000
  -0.00000    0.00000    0.00000   -0.00000    0.00000    0.00000   -0.00000   -0.00000
  -0.00000   -0.00000    0.00000   -0.00017    0.00000
 prteigrs : prtvol=0 or 1, do not print more k-points.

 Eight components of 2nd-order total energy (hartree) are
 1,2,3: 0th-order hamiltonian combined with 1st-order wavefunctions
     kin0=   2.60731826E+01 eigvalue=   3.17724422E+00  local=  -1.13304080E+01
 4,5,6: 1st-order hamiltonian combined with 1st and 0th-order wfs
     kin1=  -2.39768892E+01  Hartree=   0.00000000E+00     xc=   0.00000000E+00
 7,8,9: eventually, occupation + non-local contributions
    edocc=   1.99053712E+00     enl0=   1.72461731E+00   enl1=  -1.92934573E+01
 1-9 gives the relaxation energy (to be shifted if some occ is /=2.0)
   erelax=  -2.16351732E+01
  No Ewald or frozen-wf contrib.: the relaxation energy is the total one
 2DEtotal=   -0.2163517321E+02 Ha. Also 2DEtotal=   -0.588723003197E+03 eV
    (  non-var. 2DEtotal :   -2.1635173214E+01 Ha)

 CALCULATION OF EFFECTIVE MASSES
 NOTE : Additional infos (eff. mass eigenvalues, eigenvectors and, if degenerate, average mass) are available in stdout.

 K-point (-0.500, 0.500, 0.000) | band =    68
 Effective mass tensor:
             -6.5985863780              1.8499455401              0.0000447872
              1.8499455401             -1.8848946463             -0.0000090912
              0.0000447872             -0.0000090912             -0.6949241558
 Effective mass tensor eigenvalues:
             -7.2379082208             -1.2455728038             -0.6949241554
 Angular average effective mass 1/(<1/m>)=  -1.2604984294
 Angular average effective mass for Frohlich model (<m**0.5>)**2=  -1.5299081245
 Effective masses along directions: (cart. coord. / red. coord. -> eff. mass)
    1:   1.000000  0.000000  0.000000 /   0.785973 -0.618261  0.000000 ->  -4.7829419272
    2:   0.000000  1.000000  0.000000 /   0.000000  1.000000  0.000000 ->  -1.3662534851
    3:   0.000000  0.000000  1.000000 /   0.000000  0.000000  1.000000 ->  -0.6949241555
    4:   0.577350  0.577350  0.577350 /   0.448634 -0.075899  0.890487 ->  -1.0750995719
    5:   0.000000  0.707107  0.707107 /   0.000000  0.297032  0.954868 ->  -0.9212591272
    6:   0.707107  0.000000  0.707107 /   0.424151 -0.333644  0.841889 ->  -1.2135157403
    7:   0.707107  0.707107  0.000000 /   0.985989 -0.166808  0.000000 ->  -1.4799419336

 K-point ( 0.125, 0.125, 0.000) | band =    69
 Effective mass tensor:
              5.3479074323             -1.7677282117              0.0002360106
             -1.7677282117              0.8430431730             -0.0000803779
              0.0002360106             -0.0000803779              1.0311091135
 Effective mass tensor eigenvalues:
              0.2322055758              1.0311091008              5.9587450422
 Angular average effective mass 1/(<1/m>)=   0.5510472896
 Angular average effective mass for Frohlich model (<m**0.5>)**2=   0.8105908604
 Effective masses along directions: (cart. coord. / red. coord. -> eff. mass)
    1:   1.000000  0.000000  0.000000 /   0.785973 -0.618261  0.000000 ->   1.6412609235
    2:   0.000000  1.000000  0.000000 /   0.000000  1.000000  0.000000 ->   0.2587280797
    3:   0.000000  0.000000  1.000000 /   0.000000  0.000000  1.000000 ->   1.0311091030
    4:   0.577350  0.577350  0.577350 /   0.448634 -0.075899  0.890487 ->   0.3750339169
    5:   0.000000  0.707107  0.707107 /   0.000000  0.297032  0.954868 ->   0.4136582559
    6:   0.707107  0.000000  0.707107 /   0.424151 -0.333644  0.841889 ->   1.2665944612
    7:   0.707107  0.707107  0.000000 /   0.985989 -0.166808  0.000000 ->   0.2845148915

 END OF EFFECTIVE MASSES SECTION

 ---- first-order wavefunction calculations are completed ----

 Total localisation tensor (bohr^2) in cartesian coordinates
  WARNING : still subject to testing - especially symmetries.
      direction              matrix element
   alpha     beta       real part   imaginary part
     1        1       3.8880105323    0.0000000000
     1        2      -1.1665543558    0.0000000000
     1        3       0.0000000000    0.0000000000
     2        1      -1.1665543558    0.0000000000
     2        2       0.9156632336    0.0000000000
     2        3       0.0000000000    0.0000000000
     3        1       0.0000000000    0.0000000000
     3        2       0.0000000000    0.0000000000
     3        3       0.8002025102    0.0000000000

 respfn : d/dk was computed, but no 2DTE, so no DDB output.

== END DATASET(S) ==============================================================

 -outvars: echo values of variables after computation  --------
            acell      1.0000000000E+00  1.0000000000E+00  1.0000000000E+00 Bohr
              amu      2.29897680E+01  1.95080000E+02  7.89600000E+01
             ecut      4.40000000E+01 Hartree
           etotal     -2.1635173214E+01
            fcart      0.0000000000E+00  0.0000000000E+00  0.0000000000E+00
                       0.0000000000E+00  0.0000000000E+00  0.0000000000E+00
                       0.0000000000E+00  0.0000000000E+00  0.0000000000E+00
                       0.0000000000E+00  0.0000000000E+00  0.0000000000E+00
                       0.0000000000E+00  0.0000000000E+00  0.0000000000E+00
                       0.0000000000E+00  0.0000000000E+00  0.0000000000E+00
                       0.0000000000E+00  0.0000000000E+00  0.0000000000E+00
                       0.0000000000E+00  0.0000000000E+00  0.0000000000E+00
                       0.0000000000E+00  0.0000000000E+00  0.0000000000E+00
                       0.0000000000E+00  0.0000000000E+00  0.0000000000E+00
-          fftalg         512
           irdden           1
           irdwfk           1
              ixc     -116133
              kpt     -5.00000000E-01  5.00000000E-01  0.00000000E+00
                       1.25453748E-01  1.25453748E-01  0.00000000E+00
           kptopt           0
P           mkmem           2
P          mkqmem           2
P          mk1mem           2
            natom          10
            nband          77
           nbdbuf           4
            ngfft          64      64     128
             nkpt           2
            nstep        2000
             nsym           4
           ntypat           3
              occ      2.000000  2.000000  2.000000  2.000000  2.000000  2.000000
                       2.000000  2.000000  2.000000  2.000000  2.000000  2.000000
                       2.000000  2.000000  2.000000  2.000000  2.000000  2.000000
                       2.000000  2.000000  2.000000  2.000000  2.000000  2.000000
                       2.000000  2.000000  2.000000  2.000000  2.000000  2.000000
                       2.000000  2.000000  2.000000  2.000000  2.000000  2.000000
                       2.000000  2.000000  2.000000  2.000000  2.000000  2.000000
                       2.000000  2.000000  2.000000  2.000000  2.000000  2.000000
                       2.000000  2.000000  2.000000  2.000000  2.000000  2.000000
                       2.000000  2.000000  2.000000  2.000000  2.000000  2.000000
                       2.000000  2.000000  2.000000  2.000000  2.000000  2.000000
                       2.000000  2.000000  0.000000  0.000000  0.000000  0.000000
                       0.000000  0.000000  0.000000  0.000000  0.000000
        optdriver           1
            prtwf          -1
            rfdir           1       1       1
           rfelfd           2
            rprim      1.0707714775E+01  0.0000000000E+00  0.0000000000E+00
                      -8.4228816724E+00  6.6113705118E+00  0.0000000000E+00
                       0.0000000000E+00  0.0000000000E+00  2.1253567705E+01
          spgroup          36
           strten      0.0000000000E+00  0.0000000000E+00  0.0000000000E+00
                       0.0000000000E+00  0.0000000000E+00  0.0000000000E+00
           symrel      1  0  0   0  1  0   0  0  1       0 -1  0  -1  0  0   0  0  1
                      -1  0  0   0 -1  0   0  0  1       0  1  0   1  0  0   0  0  1
            tnons      0.0000000  0.0000000  0.0000000    -0.0000000 -0.0000000  0.0000000
                      -0.0000000  0.0000000  0.5000000     0.0000000  0.0000000  0.5000000
           tolwfr      1.00000000E-20
            typat      1  1  1  1  2  2  3  3  3  3
           useylm           1
              wtk        0.50000    0.50000
           xangst     -3.8178792789E+00  3.2776438519E+00  1.4869756228E+00
                       5.0269608824E+00  2.2094274048E-01  7.1104274382E+00
                       2.3192955974E+00  1.1566887048E+00  4.5118640951E+00
                      -1.1102139938E+00  2.3418978876E+00  1.0135315910E+01
                      -7.9974724329E-01  2.2346032339E+00  2.7908741484E+00
                       2.0088288468E+00  1.2639833584E+00  8.4143259638E+00
                       5.0890279115E+00  1.9949290608E-01  4.1653020066E+00
                      -3.8799463080E+00  3.2990936863E+00  9.7887538220E+00
                       3.4346900185E+00  7.7121793267E-01  1.4151641432E+00
                      -2.2256084149E+00  2.7273686597E+00  7.0386159586E+00
            xcart     -7.2147462455E+00  6.1938492412E+00  2.8099766934E+00
                       9.4995793485E+00  4.1752127056E-01  1.3436760546E+01
                       4.3828335002E+00  2.1858248731E+00  8.5261874885E+00
                      -2.0980003972E+00  4.4255456387E+00  1.9152971341E+01
                      -1.5113032654E+00  4.2227881278E+00  5.2739878118E+00
                       3.7961363684E+00  2.3885823840E+00  1.5900771664E+01
                       9.6168690353E+00  3.7698695795E-01  7.8712800532E+00
                      -7.3320359323E+00  6.2343835538E+00  1.8498063906E+01
                       6.4906234862E+00  1.4573906815E+00  2.6742726636E+00
                      -4.2057903832E+00  5.1539798303E+00  1.3301056516E+01
             xred      6.3152000000E-02  9.3684800000E-01  1.3221200000E-01
                       9.3684800000E-01  6.3152000000E-02  6.3221200000E-01
                       6.6938400000E-01  3.3061600000E-01  4.0116500000E-01
                       3.3061600000E-01  6.6938400000E-01  9.0116500000E-01
                       3.6128400000E-01  6.3871600000E-01  2.4814600000E-01
                       6.3871600000E-01  3.6128400000E-01  7.4814600000E-01
                       9.4297900000E-01  5.7021000000E-02  3.7035100000E-01
                       5.7021000000E-02  9.4297900000E-01  8.7035100000E-01
                       7.7956300000E-01  2.2043700000E-01  1.2582700000E-01
                       2.2043700000E-01  7.7956300000E-01  6.2582700000E-01
            znucl       11.00000   78.00000   34.00000

- Timing analysis has been suppressed with timopt=0

 Suggested references for the acknowledgment of ABINIT usage.

 Calculation completed.
.Delivered   2 WARNINGs and   7 COMMENTs to log file.