.Version 9.5.2 of ABINIT

 ABINIT is a project of the Universite Catholique de Louvain,
 Corning Inc. and other collaborators, see ~abinit/doc/developers/contributors.txt .
 acknowledgments of the ABINIT effort.

.Starting date : Mon 24 May 2021.
- ( at 11h10 )

- input  file    -> /scratch/users/j/a/jabreu/flow_simple_10atoms/flow/w298/t1/run.abi
- output file    -> /scratch/users/j/a/jabreu/flow_simple_10atoms/flow/w298/t1/run.abo
- root for input  files -> /scratch/users/j/a/jabreu/flow_simple_10atoms/flow/w298/t1/indata/in
- root for output files -> /scratch/users/j/a/jabreu/flow_simple_10atoms/flow/w298/t1/outdata/out

 Symmetries : space group I4/m c m (#140); Bravais tI (body-center tetrag.)
     intxc =       0      iscf =       7    lmnmax =      18     lnmax =       6
     mgfft =      60  mpssoang =       3    mqgrid =    3001     natom =      10
  nloc_mem =       1    nspden =       1   nspinor =       1    nsppol =       1
      nsym =      16    n1xccc =    2501    ntypat =       3    occopt =       1
   xclevel =       2
-    mband =          33        mffmem =           1         mkmem =           2
-   mkqmem =           2        mk1mem =           2           mpw =        8780
      nfft =      216000          nkpt =           2
  Rough estimation (10% accuracy) of disk space for files :

------------- Echo of variables that govern the present computation ------------
-
- outvars: echo of selected default values
-   iomode0 =  0 , fftalg0 =512 , wfoptalg0 =  0
-
- outvars: echo of global parameters not present in the input file
-  max_nthreads =    0
-
 -outvars: echo values of preprocessed input variables --------
            acell      1.0000000000E+00  1.0000000000E+00  1.0000000000E+00 Bohr
              amu      4.00780000E+01  1.08110000E+01  1.20110000E+01
             ecut      4.10000000E+01 Hartree
-          fftalg         512
           irdden           1
           irdwfk           1
              ixc     -116133
              kpt      0.00000000E+00  0.00000000E+00  3.20000000E-01
                       4.07407407E-01  4.07407407E-01 -4.07407407E-01
           kptopt           0
P           mkmem           2
P          mkqmem           2
P          mk1mem           2
            natom          10
            nband          33
           nbdbuf           4
            ngfft          60      60      60
             nkpt           2
            nstep        2000
             nsym          16
           ntypat           3
              occ      2.000000  2.000000  2.000000  2.000000  2.000000  2.000000
                       2.000000  2.000000  2.000000  2.000000  2.000000  2.000000
                       2.000000  2.000000  2.000000  2.000000  2.000000  2.000000
                       2.000000  2.000000  2.000000  2.000000  2.000000  2.000000
                       0.000000  0.000000  0.000000  0.000000  0.000000  0.000000
                       0.000000  0.000000  0.000000
        optdriver           1
            prtwf          -1
            rfdir           1       1       1
           rfelfd           2
            rprim      8.6899725178E+00  0.0000000000E+00 -4.7377292550E+00
                      -3.0637446638E+00  8.1319795250E+00 -4.7377292550E+00
                       0.0000000000E+00  0.0000000000E+00  9.8975603486E+00
          spgroup         140
           symrel      1  0  0   0  1  0   0  0  1      -1  0  0   0 -1  0   0  0 -1
                      -1 -1 -1   0  0  1   0  1  0       1  1  1   0  0 -1   0 -1  0
                       0  1  0   1  0  0  -1 -1 -1       0 -1  0  -1  0  0   1  1  1
                       0  0  1  -1 -1 -1   1  0  0       0  0 -1   1  1  1  -1  0  0
                       0  1  0   1  0  0   0  0  1       0 -1  0  -1  0  0   0  0 -1
                      -1 -1 -1   0  0  1   1  0  0       1  1  1   0  0 -1  -1  0  0
                       1  0  0   0  1  0  -1 -1 -1      -1  0  0   0 -1  0   1  1  1
                       0  0  1  -1 -1 -1   0  1  0       0  0 -1   1  1  1   0 -1  0
            tnons      0.0000000  0.0000000  0.0000000     0.0000000  0.0000000 -0.0000000
                       0.5000000  0.5000000 -0.0000000     0.5000000  0.5000000  0.0000000
                       0.0000000  0.0000000 -0.0000000     0.0000000  0.0000000  0.0000000
                       0.5000000  0.5000000 -0.0000000     0.5000000  0.5000000  0.0000000
                       0.5000000  0.5000000  0.0000000     0.5000000  0.5000000 -0.0000000
                       0.0000000  0.0000000  0.0000000     0.0000000  0.0000000 -0.0000000
                       0.5000000  0.5000000 -0.0000000     0.5000000  0.5000000  0.0000000
                       0.0000000  0.0000000  0.0000000     0.0000000  0.0000000 -0.0000000
           tolwfr      1.00000000E-20
            typat      1  1  2  2  2  2  3  3  3  3
           useylm           1
              wtk        0.50000    0.50000
           xangst      2.2329536630E+00  3.2274436690E+00 -3.7606475133E+00
                       7.4431788767E-01  1.0758145563E+00 -1.2535491711E+00
                       2.7109618326E+00  5.9505024414E-01  2.1203644510E+00
                       4.9435695802E-02  1.5565788685E+00  1.3652325075E+00
                       2.9278358549E+00  2.7466793568E+00 -1.1418658348E+00
                       2.6630971807E-01  3.7082079812E+00 -1.8969977784E+00
                       1.3056361105E+00  6.8745841127E-01  1.3652325075E+00
                       3.3122754131E+00  1.4641707014E+00 -2.0142657898E+00
                       1.6716354402E+00  3.6157998141E+00 -1.1418658348E+00
                      -3.3500386248E-01  2.8390875239E+00  2.2376324625E+00
            xcart      4.2196708905E+00  6.0989846438E+00 -7.1065938825E+00
                       1.4065569635E+00  2.0329948812E+00 -2.3688646275E+00
                       5.1229754203E+00  1.1244819967E+00  4.0069081144E+00
                       9.3419926254E-02  2.9415077658E+00  2.5799155468E+00
                       5.5328079277E+00  5.1904717592E+00 -2.1578137082E+00
                       5.0325243368E-01  7.0074975283E+00 -3.5848062758E+00
                       2.4672946780E+00  1.2991081251E+00  2.5799155468E+00
                       6.2592934075E+00  2.7668816374E+00 -3.8064107016E+00
                       3.1589331760E+00  6.8328713999E+00 -2.1578137082E+00
                      -6.3306555354E-01  5.3650978876E+00  4.2285125402E+00
             xred      7.5000000000E-01  7.5000000000E-01 -5.5511151231E-17
                       2.5000000000E-01  2.5000000000E-01  1.3877787808E-17
                       6.3827900000E-01  1.3827900000E-01  7.7655800000E-01
                       1.3827900000E-01  3.6172100000E-01  5.0000000000E-01
                       8.6172100000E-01  6.3827900000E-01  5.0000000000E-01
                       3.6172100000E-01  8.6172100000E-01  2.2344200000E-01
                       3.4024700000E-01  1.5975300000E-01  5.0000000000E-01
                       8.4024700000E-01  3.4024700000E-01  1.8049400000E-01
                       6.5975300000E-01  8.4024700000E-01  5.0000000000E-01
                       1.5975300000E-01  6.5975300000E-01  8.1950600000E-01
            znucl       20.00000    5.00000    6.00000

 chkinp: Checking input parameters for consistency.

== DATASET  1 ==================================================================
-   mpi_nproc: 1, omp_nthreads: -1 (-1 if OMP is not activated)

--- !DatasetInfo
iteration_state: {dtset: 1, }
dimensions: {natom: 10, nkpt: 2, mband: 33, nsppol: 1, nspinor: 1, nspden: 1, mpw: 8780, }
cutoff_energies: {ecut:  41.0, pawecutdg:  -1.0, }
electrons: {nelect:   4.80000000E+01, charge:   0.00000000E+00, occopt:   1.00000000E+00, tsmear:   1.00000000E-02, }
meta: {optdriver: 1, rfelfd: 2, }
...

 Real(R)+Recip(G) space primitive vectors, cartesian coordinates (Bohr,Bohr^-1):
 R(1)=  8.6899725  0.0000000 -4.7377293  G(1)=  0.1150752  0.0433549  0.0000000
 R(2)= -3.0637447  8.1319795 -4.7377293  G(2)=  0.0000000  0.1229713  0.0000000
 R(3)=  0.0000000  0.0000000  9.8975603  G(3)=  0.0550838  0.0796164  0.1010350
 Unit cell volume ucvol=  6.9942772E+02 bohr^3
 Angles (23,13,12)=  1.18598996E+02  1.18598996E+02  9.24442378E+01 degrees

 getcut: wavevector=  0.0000  0.0000  0.0000  ngfft=  60  60  60
         ecut(hartree)=     41.000   => boxcut(ratio)=   2.10374

--- Pseudopotential description ------------------------------------------------
- pspini: atom type   1  psp file is /scratch/users/j/a/jabreu/pseudos/PBEsol/Ca.psp8
- pspatm: opening atomic psp file    /scratch/users/j/a/jabreu/pseudos/PBEsol/Ca.psp8
- Ca    ONCVPSP-3.3.0  r_core=   1.45885   1.45885   1.85192
- 20.00000  10.00000    180112                znucl, zion, pspdat
    8 -116133    2    4       400   0.00000   pspcod,pspxc,lmax,lloc,mmax,r2well
    3.99000000000000    6.00000000000000    0.00000000000000   rchrg,fchrg,qchrg
     nproj     2     2     2
     extension_switch     1
  pspatm : epsatm=   12.46045226
         --- l  ekb(1:nproj) -->
             0   10.054847    0.973777
             1    2.998958    0.458102
             2   -3.447298   -1.091650
 pspatm: atomic psp has been read  and splines computed

- pspini: atom type   2  psp file is /scratch/users/j/a/jabreu/pseudos/PBEsol/B.psp8
- pspatm: opening atomic psp file    /scratch/users/j/a/jabreu/pseudos/PBEsol/B.psp8
- B     ONCVPSP-3.3.0  r_core=   1.20849   1.20849
-  5.00000   3.00000    180112                znucl, zion, pspdat
    8 -116133    1    4       600   0.00000   pspcod,pspxc,lmax,lloc,mmax,r2well
    5.99000000000000    2.90000000000000    0.00000000000000   rchrg,fchrg,qchrg
     nproj     2     2
     extension_switch     1
  pspatm : epsatm=    3.20154566
         --- l  ekb(1:nproj) -->
             0    8.466603    1.247630
             1   -3.609180   -0.822621
 pspatm: atomic psp has been read  and splines computed

- pspini: atom type   3  psp file is /scratch/users/j/a/jabreu/pseudos/PBEsol/C.psp8
- pspatm: opening atomic psp file    /scratch/users/j/a/jabreu/pseudos/PBEsol/C.psp8
- C     ONCVPSP-3.3.0  r_core=   1.20440   1.26326
-  6.00000   4.00000    180112                znucl, zion, pspdat
    8 -116133    1    4       600   0.00000   pspcod,pspxc,lmax,lloc,mmax,r2well
    5.99000000000000    4.00000000000000    0.00000000000000   rchrg,fchrg,qchrg
     nproj     2     2
     extension_switch     1
  pspatm : epsatm=    4.34909529
         --- l  ekb(1:nproj) -->
             0    6.468939    0.390031
             1   -4.179695   -0.878453
 pspatm: atomic psp has been read  and splines computed

   2.64592648E+03                                ecore*ucvol(ha*bohr**3)

 ==>  initialize data related to q vector <==

 The list of irreducible perturbations for this q vector is:
    1)    idir= 1    ipert=  11
    2)    idir= 2    ipert=  11
    3)    idir= 3    ipert=  11

 Perturbation wavevector (in red.coord.)   0.000000  0.000000  0.000000
 Perturbation : derivative vs k along direction   1

 dfpt_looppert : COMMENT -
  In a d/dk calculation, iscf is set to -3 automatically.
 The set of symmetries contains only one element for this perturbation.
[...]
 The set of symmetries contains only one element for this perturbation.
 symkpt : not enough symmetry to change the number of k points.

 Initialisation of the first-order wave-functions :
  ireadwf=   0

--- !BeginCycle
iteration_state: {dtset: 1, }
solver: {iscf: 7, nstep: 2000, nline: 4, wfoptalg: 0, }
tolerances: {tolwfr: 1.00E-20, }
...

     iter   2DEtotal(Ha)        deltaE(Ha) residm    vres2
-ETOT  1  -39.143535500306     -3.914E+01 6.458E-01 0.000E+00
 ETOT  2  -39.246866495292     -1.033E-01 4.212E-02 0.000E+00
 ETOT  3  -39.249078172489     -2.212E-03 7.894E-03 0.000E+00
 ETOT  4  -39.249160362728     -8.219E-05 8.943E-04 0.000E+00
 ETOT  5  -39.249164758639     -4.396E-06 6.382E-04 0.000E+00
 ETOT  6  -39.249165045485     -2.868E-07 9.783E-05 0.000E+00
 ETOT  7  -39.249165066044     -2.056E-08 8.012E-05 0.000E+00
 ETOT  8  -39.249165067630     -1.585E-09 1.313E-05 0.000E+00
 ETOT  9  -39.249165067760     -1.305E-10 1.131E-05 0.000E+00
 ETOT 10  -39.249165067772     -1.147E-11 1.791E-06 0.000E+00
 ETOT 11  -39.249165067773     -9.663E-13 1.565E-06 0.000E+00
 ETOT 12  -39.249165067773     -1.066E-13 2.473E-07 0.000E+00
 ETOT 13  -39.249165067773      0.000E+00 2.181E-07 0.000E+00
 ETOT 14  -39.249165067773      1.421E-14 3.444E-08 0.000E+00
 ETOT 15  -39.249165067773      2.132E-14 3.051E-08 0.000E+00
 ETOT 16  -39.249165067773     -7.105E-14 4.820E-09 0.000E+00
 ETOT 17  -39.249165067773      9.237E-14 4.281E-09 0.000E+00
 ETOT 18  -39.249165067773     -2.842E-14 6.770E-10 0.000E+00
 ETOT 19  -39.249165067773      0.000E+00 6.018E-10 0.000E+00
 ETOT 20  -39.249165067773      2.842E-14 9.529E-11 0.000E+00
 ETOT 21  -39.249165067773      0.000E+00 8.474E-11 0.000E+00
 ETOT 22  -39.249165067773      7.105E-15 1.344E-11 0.000E+00
 ETOT 23  -39.249165067773     -1.421E-14 1.195E-11 0.000E+00
 ETOT 24  -39.249165067773      1.421E-14 1.896E-12 0.000E+00
 ETOT 25  -39.249165067773     -2.132E-14 1.685E-12 0.000E+00
 ETOT 26  -39.249165067773      1.421E-14 2.679E-13 0.000E+00
 ETOT 27  -39.249165067773     -7.105E-15 2.380E-13 0.000E+00
 ETOT 28  -39.249165067773      7.105E-15 3.788E-14 0.000E+00
 ETOT 29  -39.249165067773      0.000E+00 3.362E-14 0.000E+00
 ETOT 30  -39.249165067773      7.105E-15 5.358E-15 0.000E+00
 ETOT 31  -39.249165067773      0.000E+00 4.752E-15 0.000E+00
 ETOT 32  -39.249165067773     -7.105E-15 7.582E-16 0.000E+00
 ETOT 33  -39.249165067773      7.105E-15 6.721E-16 0.000E+00
 ETOT 34  -39.249165067773     -1.421E-14 1.600E-16 0.000E+00
 ETOT 35  -39.249165067773      0.000E+00 1.106E-16 0.000E+00
 ETOT 36  -39.249165067773     -1.421E-14 8.687E-17 0.000E+00
 ETOT 37  -39.249165067773      0.000E+00 5.966E-17 0.000E+00
 ETOT 38  -39.249165067773      1.421E-14 4.727E-17 0.000E+00
 ETOT 39  -39.249165067773     -1.421E-14 3.229E-17 0.000E+00
 ETOT 40  -39.249165067773      1.421E-14 2.573E-17 0.000E+00
 ETOT 41  -39.249165067773     -1.421E-14 1.750E-17 0.000E+00
 ETOT 42  -39.249165067773      1.421E-14 1.400E-17 0.000E+00
 ETOT 43  -39.249165067773      7.105E-15 9.483E-18 0.000E+00
 ETOT 44  -39.249165067773      1.421E-14 7.605E-18 0.000E+00
 ETOT 45  -39.249165067773     -1.421E-14 5.138E-18 0.000E+00
 ETOT 46  -39.249165067773      0.000E+00 4.126E-18 0.000E+00
 ETOT 47  -39.249165067773      0.000E+00 2.782E-18 0.000E+00
 ETOT 48  -39.249165067773     -7.105E-15 2.235E-18 0.000E+00
 ETOT 49  -39.249165067773      7.105E-15 1.505E-18 0.000E+00
 ETOT 50  -39.249165067773      0.000E+00 1.209E-18 0.000E+00
 ETOT 51  -39.249165067773      0.000E+00 8.137E-19 0.000E+00
 ETOT 52  -39.249165067773     -7.105E-15 6.536E-19 0.000E+00
 ETOT 53  -39.249165067773      0.000E+00 4.395E-19 0.000E+00
 ETOT 54  -39.249165067773     -7.105E-15 3.529E-19 0.000E+00
 ETOT 55  -39.249165067773      7.105E-15 2.373E-19 0.000E+00
 ETOT 56  -39.249165067773      0.000E+00 1.904E-19 0.000E+00
 ETOT 57  -39.249165067773      7.105E-15 1.280E-19 0.000E+00
 ETOT 58  -39.249165067773      0.000E+00 1.027E-19 0.000E+00
 ETOT 59  -39.249165067773     -7.105E-15 6.903E-20 0.000E+00
 ETOT 60  -39.249165067773      7.105E-15 5.534E-20 0.000E+00
 ETOT 61  -39.249165067773     -7.105E-15 3.721E-20 0.000E+00
 ETOT 62  -39.249165067773      0.000E+00 2.981E-20 0.000E+00
 ETOT 63  -39.249165067773      7.105E-15 2.005E-20 0.000E+00
 ETOT 64  -39.249165067773     -7.105E-15 1.606E-20 0.000E+00
 ETOT 65  -39.249165067773      1.421E-14 1.080E-20 0.000E+00
 ETOT 66  -39.249165067773     -7.105E-15 9.967E-21 0.000E+00

 At SCF step   66   max residual=  9.97E-21 < tolwfr=  1.00E-20 =>converged.

 ----iterations are completed or convergence reached----

 dfpt_looppert: DFPT cycle converged with prtwf=-1. Will skip output of the 1st-order WFK file.
 dfpt_looppert : ek2=    7.4210836349E+01
          f-sum rule ratio=    1.1009580231E+00
 prteigrs : about to open file /scratch/users/j/a/jabreu/flow_simple_10atoms/flow/w298/t1/tmpdata/tmp_1WF1_EIG
 Expectation of eigenvalue derivatives (hartree) for nkpt=   2  k points:
  (in case of degenerate eigenvalues, averaged derivative)
 kpt#   1, nband= 33, wtk=  0.50000, kpt=  0.0000  0.0000  0.3200 (reduced coord)
   0.00102   -0.00093   -0.00583   -0.02072   -0.00230    0.00249    0.01506    0.00169
   0.13707   -0.07762   -0.18636    0.00549    0.22563    0.03666    0.11172    0.17499
  -0.08749   -0.08528    0.05463   -0.11348   -0.07058   -0.23725   -0.18860   -0.01356
   0.19478    0.09599    0.15625    0.10312    0.08005   -0.07429   -0.09092   -0.04056
  -0.17230
 prteigrs : prtvol=0 or 1, do not print more k-points.

 Eight components of 2nd-order total energy (hartree) are
 1,2,3: 0th-order hamiltonian combined with 1st-order wavefunctions
     kin0=   6.34262044E+01 eigvalue=  -2.60394398E+00  local=  -3.58526983E+01
 4,5,6: 1st-order hamiltonian combined with 1st and 0th-order wfs
     kin1=  -8.17030157E+01  Hartree=   0.00000000E+00     xc=   0.00000000E+00
 7,8,9: eventually, occupation + non-local contributions
    edocc=   1.52618702E+01     enl0=  -9.82267355E-01   enl1=   3.20468554E+00
 1-9 gives the relaxation energy (to be shifted if some occ is /=2.0)
   erelax=  -3.92491651E+01
  No Ewald or frozen-wf contrib.: the relaxation energy is the total one
 2DEtotal=   -0.3924916507E+02 Ha. Also 2DEtotal=   -0.106802409684E+04 eV
    (  non-var. 2DEtotal :   -3.9249165068E+01 Ha)

 CALCULATION OF EFFECTIVE MASSES
 NOTE : Additional infos (eff. mass eigenvalues, eigenvectors and, if degenerate, average mass) are available in stdout.

 K-point ( 0.000, 0.000, 0.320) | band =    24
 Effective mass tensor:
             -0.9894925284              0.3614990736              0.0885388366
              0.3614990736             -0.7171065597              0.1279844534
              0.0885388366              0.1279844534             -0.4537068153
 Effective mass tensor eigenvalues:
             -1.2396026754             -0.6161184242             -0.3045848037
 Angular average effective mass 1/(<1/m>)=  -0.5251243486
 Angular average effective mass for Frohlich model (<m**0.5>)**2=  -0.5763940719
 Effective masses along directions: (cart. coord. / red. coord. -> eff. mass)
    1:   1.000000  0.000000  0.000000 /   0.943103 -0.332501  0.000000 ->  -0.7528873969
    2:   0.000000  1.000000  0.000000 /   0.000000  1.000000  0.000000 ->  -0.5273725279
    3:   0.000000  0.000000  1.000000 /  -0.396391 -0.396391  0.828099 ->  -0.4018452909
    4:   0.577350  0.577350  0.577350 /   0.370664  0.030997  0.928250 ->  -0.3148580365
    5:   0.000000  0.707107  0.707107 /  -0.412478  0.295511  0.861705 ->  -0.3479057182
    6:   0.707107  0.000000  0.707107 /   0.299236 -0.590674  0.749375 ->  -0.4201335756
    7:   0.707107  0.707107  0.000000 /   0.863819  0.503803  0.000000 ->  -0.4226577048

 K-point ( 0.407, 0.407,-0.407) | band =    25
 Effective mass tensor:
              0.5518514932             -0.0356002901              0.0414817903
             -0.0356002901              0.5250264876              0.0599565246
              0.0414817903              0.0599565246              0.5066201666
 Effective mass tensor eigenvalues:
              0.4305340085              0.5764820692              0.5764820698
 Angular average effective mass 1/(<1/m>)=   0.5179544112
 Angular average effective mass for Frohlich model (<m**0.5>)**2=   0.5210448713
 Effective masses along directions: (cart. coord. / red. coord. -> eff. mass)
    1:   1.000000  0.000000  0.000000 /   0.943103 -0.332501  0.000000 ->   0.5452865721
    2:   0.000000  1.000000  0.000000 /   0.000000  1.000000  0.000000 ->   0.5149387895
    3:   0.000000  0.000000  1.000000 /  -0.396391 -0.396391  0.828099 ->   0.4959975303
    4:   0.577350  0.577350  0.577350 /   0.370664  0.030997  0.928250 ->   0.5701816467
    5:   0.000000  0.707107  0.707107 /  -0.412478  0.295511  0.861705 ->   0.5755433359
    6:   0.707107  0.000000  0.707107 /   0.299236 -0.590674  0.749375 ->   0.5688654906
    7:   0.707107  0.707107  0.000000 /   0.863819  0.503803  0.000000 ->   0.4922774150

 END OF EFFECTIVE MASSES SECTION

 ---- first-order wavefunction calculations are completed ----

 Total localisation tensor (bohr^2) in cartesian coordinates
  WARNING : still subject to testing - especially symmetries.
      direction              matrix element
   alpha     beta       real part   imaginary part
     1        1       2.1657681431    0.0000000000
     1        2      -0.6355390197    0.0000000000
     1        3      -0.6799558582    0.0000000000
     2        1      -0.6355390197    0.0000000000
     2        2       1.6868867555    0.0000000000
     2        3      -0.9827881030    0.0000000000
     3        1      -0.6799558582    0.0000000000
     3        2      -0.9827881030    0.0000000000
     3        3       5.3210179767    0.0000000000

 respfn : d/dk was computed, but no 2DTE, so no DDB output.

== END DATASET(S) ==============================================================

 -outvars: echo values of variables after computation  --------
            acell      1.0000000000E+00  1.0000000000E+00  1.0000000000E+00 Bohr
              amu      4.00780000E+01  1.08110000E+01  1.20110000E+01
             ecut      4.10000000E+01 Hartree
           etotal     -3.9249165068E+01
            fcart      0.0000000000E+00  0.0000000000E+00  0.0000000000E+00
                       0.0000000000E+00  0.0000000000E+00  0.0000000000E+00
                       0.0000000000E+00  0.0000000000E+00  0.0000000000E+00
                       0.0000000000E+00  0.0000000000E+00  0.0000000000E+00
                       0.0000000000E+00  0.0000000000E+00  0.0000000000E+00
                       0.0000000000E+00  0.0000000000E+00  0.0000000000E+00
                       0.0000000000E+00  0.0000000000E+00  0.0000000000E+00
                       0.0000000000E+00  0.0000000000E+00  0.0000000000E+00
                       0.0000000000E+00  0.0000000000E+00  0.0000000000E+00
                       0.0000000000E+00  0.0000000000E+00  0.0000000000E+00
-          fftalg         512
           irdden           1
           irdwfk           1
              ixc     -116133
              kpt      0.00000000E+00  0.00000000E+00  3.20000000E-01
                       4.07407407E-01  4.07407407E-01 -4.07407407E-01
           kptopt           0
P           mkmem           2
P          mkqmem           2
P          mk1mem           2
            natom          10
            nband          33
           nbdbuf           4
            ngfft          60      60      60
             nkpt           2
            nstep        2000
             nsym          16
           ntypat           3
              occ      2.000000  2.000000  2.000000  2.000000  2.000000  2.000000
                       2.000000  2.000000  2.000000  2.000000  2.000000  2.000000
                       2.000000  2.000000  2.000000  2.000000  2.000000  2.000000
                       2.000000  2.000000  2.000000  2.000000  2.000000  2.000000
                       0.000000  0.000000  0.000000  0.000000  0.000000  0.000000
                       0.000000  0.000000  0.000000
        optdriver           1
            prtwf          -1
            rfdir           1       1       1
           rfelfd           2
            rprim      8.6899725178E+00  0.0000000000E+00 -4.7377292550E+00
                      -3.0637446638E+00  8.1319795250E+00 -4.7377292550E+00
                       0.0000000000E+00  0.0000000000E+00  9.8975603486E+00
          spgroup         140
           strten      0.0000000000E+00  0.0000000000E+00  0.0000000000E+00
                       0.0000000000E+00  0.0000000000E+00  0.0000000000E+00
           symrel      1  0  0   0  1  0   0  0  1      -1  0  0   0 -1  0   0  0 -1
                      -1 -1 -1   0  0  1   0  1  0       1  1  1   0  0 -1   0 -1  0
                       0  1  0   1  0  0  -1 -1 -1       0 -1  0  -1  0  0   1  1  1
                       0  0  1  -1 -1 -1   1  0  0       0  0 -1   1  1  1  -1  0  0
                       0  1  0   1  0  0   0  0  1       0 -1  0  -1  0  0   0  0 -1
                      -1 -1 -1   0  0  1   1  0  0       1  1  1   0  0 -1  -1  0  0
                       1  0  0   0  1  0  -1 -1 -1      -1  0  0   0 -1  0   1  1  1
                       0  0  1  -1 -1 -1   0  1  0       0  0 -1   1  1  1   0 -1  0
            tnons      0.0000000  0.0000000  0.0000000     0.0000000  0.0000000 -0.0000000
                       0.5000000  0.5000000 -0.0000000     0.5000000  0.5000000  0.0000000
                       0.0000000  0.0000000 -0.0000000     0.0000000  0.0000000  0.0000000
                       0.5000000  0.5000000 -0.0000000     0.5000000  0.5000000  0.0000000
                       0.5000000  0.5000000  0.0000000     0.5000000  0.5000000 -0.0000000
                       0.0000000  0.0000000  0.0000000     0.0000000  0.0000000 -0.0000000
                       0.5000000  0.5000000 -0.0000000     0.5000000  0.5000000  0.0000000
                       0.0000000  0.0000000  0.0000000     0.0000000  0.0000000 -0.0000000
           tolwfr      1.00000000E-20
            typat      1  1  2  2  2  2  3  3  3  3
           useylm           1
              wtk        0.50000    0.50000
           xangst      2.2329536630E+00  3.2274436690E+00 -3.7606475133E+00
                       7.4431788767E-01  1.0758145563E+00 -1.2535491711E+00
                       2.7109618326E+00  5.9505024414E-01  2.1203644510E+00
                       4.9435695802E-02  1.5565788685E+00  1.3652325075E+00
                       2.9278358549E+00  2.7466793568E+00 -1.1418658348E+00
                       2.6630971807E-01  3.7082079812E+00 -1.8969977784E+00
                       1.3056361105E+00  6.8745841127E-01  1.3652325075E+00
                       3.3122754131E+00  1.4641707014E+00 -2.0142657898E+00
                       1.6716354402E+00  3.6157998141E+00 -1.1418658348E+00
                      -3.3500386248E-01  2.8390875239E+00  2.2376324625E+00
            xcart      4.2196708905E+00  6.0989846438E+00 -7.1065938825E+00
                       1.4065569635E+00  2.0329948812E+00 -2.3688646275E+00
                       5.1229754203E+00  1.1244819967E+00  4.0069081144E+00
                       9.3419926254E-02  2.9415077658E+00  2.5799155468E+00
                       5.5328079277E+00  5.1904717592E+00 -2.1578137082E+00
                       5.0325243368E-01  7.0074975283E+00 -3.5848062758E+00
                       2.4672946780E+00  1.2991081251E+00  2.5799155468E+00
                       6.2592934075E+00  2.7668816374E+00 -3.8064107016E+00
                       3.1589331760E+00  6.8328713999E+00 -2.1578137082E+00
                      -6.3306555354E-01  5.3650978876E+00  4.2285125402E+00
             xred      7.5000000000E-01  7.5000000000E-01 -5.5511151231E-17
                       2.5000000000E-01  2.5000000000E-01  1.3877787808E-17
                       6.3827900000E-01  1.3827900000E-01  7.7655800000E-01
                       1.3827900000E-01  3.6172100000E-01  5.0000000000E-01
                       8.6172100000E-01  6.3827900000E-01  5.0000000000E-01
                       3.6172100000E-01  8.6172100000E-01  2.2344200000E-01
                       3.4024700000E-01  1.5975300000E-01  5.0000000000E-01
                       8.4024700000E-01  3.4024700000E-01  1.8049400000E-01
                       6.5975300000E-01  8.4024700000E-01  5.0000000000E-01
                       1.5975300000E-01  6.5975300000E-01  8.1950600000E-01
            znucl       20.00000    5.00000    6.00000

- Timing analysis has been suppressed with timopt=0

 Suggested references for the acknowledgment of ABINIT usage.

 Calculation completed.
.Delivered   2 WARNINGs and   5 COMMENTs to log file.