.Version 9.5.2 of ABINIT

 ABINIT is a project of the Universite Catholique de Louvain,
 Corning Inc. and other collaborators, see ~abinit/doc/developers/contributors.txt .
 acknowledgments of the ABINIT effort.

.Starting date : Mon 24 May 2021.
- ( at 18h12 )

- input  file    -> /scratch/users/j/a/jabreu/flow_simple_10atoms/flow/w393/t1/run.abi
- output file    -> /scratch/users/j/a/jabreu/flow_simple_10atoms/flow/w393/t1/run.abo
- root for input  files -> /scratch/users/j/a/jabreu/flow_simple_10atoms/flow/w393/t1/indata/in
- root for output files -> /scratch/users/j/a/jabreu/flow_simple_10atoms/flow/w393/t1/outdata/out

 Symmetries : space group R-3 (#148); Bravais hR (rhombohedral)
     intxc =       0      iscf =       7    lmnmax =      18     lnmax =       6
     mgfft =      72  mpssoang =       3    mqgrid =    3001     natom =      10
  nloc_mem =       1    nspden =       1   nspinor =       1    nsppol =       1
      nsym =       6    n1xccc =    2501    ntypat =       4    occopt =       1
   xclevel =       2
-    mband =          42        mffmem =           1         mkmem =           2
-   mkqmem =           2        mk1mem =           2           mpw =        9043
      nfft =      373248          nkpt =           2
  Rough estimation (10% accuracy) of disk space for files :

------------- Echo of variables that govern the present computation ------------
-
- outvars: echo of selected default values
-   iomode0 =  0 , fftalg0 =512 , wfoptalg0 =  0
-
- outvars: echo of global parameters not present in the input file
-  max_nthreads =    0
-
 -outvars: echo values of preprocessed input variables --------
            acell      1.0000000000E+00  1.0000000000E+00  1.0000000000E+00 Bohr
              amu      2.43050000E+01  1.18710000E+02  1.08110000E+01
                       1.59994000E+01
             ecut      4.40000000E+01 Hartree
-          fftalg         512
           irdden           1
           irdwfk           1
           istwfk        0    1
              ixc     -116133
              kpt      2.84281303E-01  0.00000000E+00 -2.84281303E-01
                       0.00000000E+00  0.00000000E+00  0.00000000E+00
           kptopt           0
P           mkmem           2
P          mkqmem           2
P          mk1mem           2
            natom          10
            nband          42
           nbdbuf           4
            ngfft          72      72      72
             nkpt           2
            nstep        2000
             nsym           6
           ntypat           4
              occ      2.000000  2.000000  2.000000  2.000000  2.000000  2.000000
                       2.000000  2.000000  2.000000  2.000000  2.000000  2.000000
                       2.000000  2.000000  2.000000  2.000000  2.000000  2.000000
                       2.000000  2.000000  2.000000  2.000000  2.000000  2.000000
                       2.000000  2.000000  2.000000  2.000000  2.000000  2.000000
                       2.000000  2.000000  2.000000  0.000000  0.000000  0.000000
                       0.000000  0.000000  0.000000  0.000000  0.000000  0.000000
        optdriver           1
            prtwf          -1
            rfdir           1       1       1
           rfelfd           2
            rprim      8.1240631029E+00  0.0000000000E+00  6.9989068595E+00
                       3.2084135719E+00  7.4636776225E+00  6.9989068595E+00
                       0.0000000000E+00  0.0000000000E+00  1.0723110487E+01
          spgroup         148
           symrel      1  0  0   0  1  0   0  0  1      -1  0  0   0 -1  0   0  0 -1
                       0  0  1   1  0  0   0  1  0       0  0 -1  -1  0  0   0 -1  0
                       0  1  0   0  0  1   1  0  0       0 -1  0   0  0 -1  -1  0  0
           tolwfr      1.00000000E-20
            typat      1  2  3  3  4  4  4  4  4  4
           useylm           1
              wtk        0.50000    0.50000
           xangst      0.0000000000E+00  0.0000000000E+00  0.0000000000E+00
                       2.9984441866E+00  1.9748040450E+00  6.5408748327E+00
                       4.5107394965E+00  2.9708162132E+00  9.8398304633E+00
                       1.4861488766E+00  9.7879187689E-01  3.2419192021E+00
                       2.0509739375E+00  1.7193433938E-01  6.1250383758E+00
                       4.0086923509E+00  1.8163536677E+00  4.7311093419E+00
                       4.5349574195E+00  9.8410015016E-01  7.5301128653E+00
                       3.9459144357E+00  3.7776737507E+00  6.9567112895E+00
                       1.9881960223E+00  2.1332544224E+00  8.3506403235E+00
                       1.4619309537E+00  2.9655079399E+00  5.5516368001E+00
            xcart      0.0000000000E+00  0.0000000000E+00  0.0000000000E+00
                       5.6662383374E+00  3.7318388112E+00  1.2360462103E+01
                       8.5240623053E+00  5.6140290341E+00  1.8594584770E+01
                       2.8084143695E+00  1.8496485884E+00  6.1263394369E+00
                       3.8757790475E+00  3.2490881426E-01  1.1574645084E+01
                       7.5753306942E+00  3.4324109924E+00  8.9405009609E+00
                       8.5698275471E+00  1.8596797711E+00  1.4229851065E+01
                       7.4566976273E+00  7.1387688082E+00  1.3146279123E+01
                       3.7571459806E+00  4.0312666301E+00  1.5780423246E+01
                       2.7626491277E+00  5.6039978514E+00  1.0491073141E+01
             xred      0.0000000000E+00  0.0000000000E+00  0.0000000000E+00
                       5.0000000000E-01  5.0000000000E-01  5.0000000000E-01
                       7.5218000000E-01  7.5218000000E-01  7.5218000000E-01
                       2.4782000000E-01  2.4782000000E-01  2.4782000000E-01
                       4.5988200000E-01  4.3532000000E-02  7.5083600000E-01
                       7.5083600000E-01  4.5988200000E-01  4.3532000000E-02
                       9.5646800000E-01  2.4916400000E-01  5.4011800000E-01
                       5.4011800000E-01  9.5646800000E-01  2.4916400000E-01
                       2.4916400000E-01  5.4011800000E-01  9.5646800000E-01
                       4.3532000000E-02  7.5083600000E-01  4.5988200000E-01
            znucl       12.00000   50.00000    5.00000    8.00000

 chkinp: Checking input parameters for consistency.

== DATASET  1 ==================================================================
-   mpi_nproc: 1, omp_nthreads: -1 (-1 if OMP is not activated)

--- !DatasetInfo
iteration_state: {dtset: 1, }
dimensions: {natom: 10, nkpt: 2, mband: 42, nsppol: 1, nspinor: 1, nspden: 1, mpw: 9043, }
cutoff_energies: {ecut:  44.0, pawecutdg:  -1.0, }
electrons: {nelect:   6.60000000E+01, charge:   0.00000000E+00, occopt:   1.00000000E+00, tsmear:   1.00000000E-02, }
meta: {optdriver: 1, rfelfd: 2, }
...

 Real(R)+Recip(G) space primitive vectors, cartesian coordinates (Bohr,Bohr^-1):
 R(1)=  8.1240631  0.0000000  6.9989069  G(1)=  0.1230911 -0.0529132  0.0000000
 R(2)=  3.2084136  7.4636776  6.9989069  G(2)=  0.0000000  0.1339822  0.0000000
 R(3)=  0.0000000  0.0000000 10.7231105  G(3)= -0.0803408 -0.0529132  0.0932565
 Unit cell volume ucvol=  6.5019996E+02 bohr^3
 Angles (23,13,12)=  4.92549941E+01  4.92549940E+01  4.92549941E+01 degrees

 getcut: wavevector=  0.0000  0.0000  0.0000  ngfft=  72  72  72
         ecut(hartree)=     44.000   => boxcut(ratio)=   2.24918

 getcut : COMMENT -
  Note that boxcut > 2.2 ; recall that boxcut=Gcut(box)/Gcut(sphere) = 2
  is sufficient for exact treatment of convolution.
  Such a large boxcut is a waste : you could raise ecut
  e.g. ecut=   55.646759 Hartrees makes boxcut=2

--- Pseudopotential description ------------------------------------------------
- pspini: atom type   1  psp file is /scratch/users/j/a/jabreu/pseudos/PBEsol/Mg.psp8
- pspatm: opening atomic psp file    /scratch/users/j/a/jabreu/pseudos/PBEsol/Mg.psp8
- Mg    ONCVPSP-3.3.0  r_core=   1.16056   1.56380
- 12.00000  10.00000    180112                znucl, zion, pspdat
    8 -116133    1    4       400   0.00000   pspcod,pspxc,lmax,lloc,mmax,r2well
    3.99000000000000    0.00000000000000    0.00000000000000   rchrg,fchrg,qchrg
     nproj     2     2
     extension_switch     1
  pspatm : epsatm=    9.18164846
         --- l  ekb(1:nproj) -->
             0    2.230603   -0.826587
             1   -6.503151   -2.501445
 pspatm: atomic psp has been read  and splines computed

- pspini: atom type   2  psp file is /scratch/users/j/a/jabreu/pseudos/PBEsol/Sn.psp8
- pspatm: opening atomic psp file    /scratch/users/j/a/jabreu/pseudos/PBEsol/Sn.psp8
- Sn    ONCVPSP-3.3.0  r_core=   2.27326   2.62311   1.85601
- 50.00000  14.00000    180112                znucl, zion, pspdat
    8 -116133    2    4       600   0.00000   pspcod,pspxc,lmax,lloc,mmax,r2well
    5.99000000000000    6.50000000000000    0.00000000000000   rchrg,fchrg,qchrg
     nproj     2     2     2
     extension_switch     1
  pspatm : epsatm=   32.44586081
         --- l  ekb(1:nproj) -->
             0    5.587869    0.749373
             1    4.197111    0.728791
             2   -5.271877   -1.523486
 pspatm: atomic psp has been read  and splines computed

[...]

- pspini: atom type   4  psp file is /scratch/users/j/a/jabreu/pseudos/PBEsol/O.psp8
- pspatm: opening atomic psp file    /scratch/users/j/a/jabreu/pseudos/PBEsol/O.psp8
- O     ONCVPSP-3.3.0  r_core=   1.35509   1.45563   1.26150
-  8.00000   6.00000    180112                znucl, zion, pspdat
    8 -116133    2    4       600   0.00000   pspcod,pspxc,lmax,lloc,mmax,r2well
    5.99000000000000    4.00000000000000    0.00000000000000   rchrg,fchrg,qchrg
     nproj     2     2     1
     extension_switch     1
  pspatm : epsatm=    6.22910522
         --- l  ekb(1:nproj) -->
             0    6.050032    0.820363
             1   -4.739617   -1.153841
             2   -1.335834
 pspatm: atomic psp has been read  and splines computed

   5.63674530E+03                                ecore*ucvol(ha*bohr**3)

 ==>  initialize data related to q vector <==

 The list of irreducible perturbations for this q vector is:
    1)    idir= 1    ipert=  11
    2)    idir= 2    ipert=  11
    3)    idir= 3    ipert=  11

 Perturbation wavevector (in red.coord.)   0.000000  0.000000  0.000000
 Perturbation : derivative vs k along direction   1

 dfpt_looppert : COMMENT -
  In a d/dk calculation, iscf is set to -3 automatically.
 The set of symmetries contains only one element for this perturbation.
 symkpt : not enough symmetry to change the number of k points.

 Initialisation of the first-order wave-functions :
  ireadwf=   0

--- !BeginCycle
iteration_state: {dtset: 1, }
solver: {iscf: 7, nstep: 2000, nline: 4, wfoptalg: 0, }
tolerances: {tolwfr: 1.00E-20, }
...

     iter   2DEtotal(Ha)        deltaE(Ha) residm    vres2
-ETOT  1  -63.396570099408     -6.340E+01 1.195E-01 0.000E+00
 ETOT  2  -63.464694679164     -6.812E-02 2.347E-03 0.000E+00
 ETOT  3  -63.464983960664     -2.893E-04 4.987E-05 0.000E+00
 ETOT  4  -63.464986089549     -2.129E-06 4.037E-06 0.000E+00
 ETOT  5  -63.464986110339     -2.079E-08 2.639E-07 0.000E+00
 ETOT  6  -63.464986110582     -2.433E-10 1.822E-08 0.000E+00
 ETOT  7  -63.464986110585     -3.247E-12 1.373E-09 0.000E+00
 ETOT  8  -63.464986110585     -4.974E-14 1.043E-10 0.000E+00
 ETOT  9  -63.464986110585     -7.105E-15 7.705E-12 0.000E+00
 ETOT 10  -63.464986110585      1.421E-14 6.492E-13 0.000E+00
 ETOT 11  -63.464986110585     -2.842E-14 4.457E-14 0.000E+00
 ETOT 12  -63.464986110585      2.842E-14 4.174E-15 0.000E+00
 ETOT 13  -63.464986110585     -7.105E-15 2.627E-16 0.000E+00
 ETOT 14  -63.464986110585      7.105E-15 2.731E-17 0.000E+00
 ETOT 15  -63.464986110585      0.000E+00 1.572E-18 0.000E+00
 ETOT 16  -63.464986110585      0.000E+00 1.808E-19 0.000E+00
 ETOT 17  -63.464986110585     -1.421E-14 9.973E-21 0.000E+00

 At SCF step   17   max residual=  9.97E-21 < tolwfr=  1.00E-20 =>converged.

 ----iterations are completed or convergence reached----

 dfpt_looppert: DFPT cycle converged with prtwf=-1. Will skip output of the 1st-order WFK file.
 dfpt_looppert : ek2=    9.3546581693E+01
          f-sum rule ratio=    1.0339785863E+00
 prteigrs : about to open file /scratch/users/j/a/jabreu/flow_simple_10atoms/flow/w393/t1/tmpdata/tmp_1WF1_EIG
 Expectation of eigenvalue derivatives (hartree) for nkpt=   2  k points:
  (in case of degenerate eigenvalues, averaged derivative)
 kpt#   1, nband= 42, wtk=  0.50000, kpt=  0.2843  0.0000 -0.2843 (reduced coord)
   0.00000    0.00000   -0.00002    0.00000    0.00402   -0.00842    0.00014   -0.00024
   0.00015    0.09753   -0.06348   -0.03939    0.02615   -0.02684   -0.00699    0.03235
   0.01104    0.08844    0.00220    0.00139    0.04925   -0.10707   -0.00595   -0.01232
  -0.04473    0.03641   -0.06326   -0.03630   -0.02769   -0.02280    0.06138    0.02848
   0.00720    0.05107    0.03532   -0.04252    0.05468   -0.08003    0.01303   -0.09187
  -0.05172   -0.00144
 prteigrs : prtvol=0 or 1, do not print more k-points.

 Eight components of 2nd-order total energy (hartree) are
 1,2,3: 0th-order hamiltonian combined with 1st-order wavefunctions
     kin0=   8.37556468E+01 eigvalue=   4.80897610E+00  local=  -3.49101470E+01
 4,5,6: 1st-order hamiltonian combined with 1st and 0th-order wfs
     kin1=  -9.67251623E+01  Hartree=   0.00000000E+00     xc=   0.00000000E+00
 7,8,9: eventually, occupation + non-local contributions
    edocc=   1.04867175E+01     enl0=  -6.76207272E-01   enl1=  -3.02048099E+01
 1-9 gives the relaxation energy (to be shifted if some occ is /=2.0)
   erelax=  -6.34649861E+01
  No Ewald or frozen-wf contrib.: the relaxation energy is the total one
 2DEtotal=   -0.6346498611E+02 Ha. Also 2DEtotal=   -0.172697009872E+04 eV
    (  non-var. 2DEtotal :   -6.3464986110E+01 Ha)

 Perturbation wavevector (in red.coord.)   0.000000  0.000000  0.000000
 Perturbation : derivative vs k along direction   2
 The set of symmetries contains only one element for this perturbation.
 symkpt : not enough symmetry to change the number of k points.

[...]

 Perturbation wavevector (in red.coord.)   0.000000  0.000000  0.000000
 Perturbation : derivative vs k along direction   3
 The set of symmetries contains only one element for this perturbation.
 symkpt : not enough symmetry to change the number of k points.

 Initialisation of the first-order wave-functions :
  ireadwf=   0

--- !BeginCycle
iteration_state: {dtset: 1, }
solver: {iscf: 7, nstep: 2000, nline: 4, wfoptalg: 0, }
tolerances: {tolwfr: 1.00E-20, }
...

     iter   2DEtotal(Ha)        deltaE(Ha) residm    vres2
-ETOT  1  -63.413550742072     -6.341E+01 1.359E-01 0.000E+00
 ETOT  2  -63.481507307461     -6.796E-02 3.646E-03 0.000E+00
 ETOT  3  -63.481793530158     -2.862E-04 2.601E-04 0.000E+00
 ETOT  4  -63.481795523697     -1.994E-06 1.535E-05 0.000E+00
 ETOT  5  -63.481795541112     -1.741E-08 1.535E-06 0.000E+00
 ETOT  6  -63.481795541285     -1.737E-10 1.013E-07 0.000E+00
 ETOT  7  -63.481795541287     -1.783E-12 1.096E-08 0.000E+00
 ETOT  8  -63.481795541287     -2.132E-14 7.640E-10 0.000E+00
 ETOT  9  -63.481795541287     -2.842E-14 8.417E-11 0.000E+00
 ETOT 10  -63.481795541287      2.842E-14 6.032E-12 0.000E+00
 ETOT 11  -63.481795541287     -2.842E-14 6.695E-13 0.000E+00
 ETOT 12  -63.481795541287      0.000E+00 4.865E-14 0.000E+00
 ETOT 13  -63.481795541287      4.263E-14 5.431E-15 0.000E+00
 ETOT 14  -63.481795541287     -2.132E-14 3.973E-16 0.000E+00
 ETOT 15  -63.481795541287     -7.105E-15 4.459E-17 0.000E+00
 ETOT 16  -63.481795541287      7.105E-15 3.272E-18 0.000E+00
 ETOT 17  -63.481795541287      7.105E-15 3.690E-19 0.000E+00
 ETOT 18  -63.481795541287     -2.132E-14 2.712E-20 0.000E+00
 ETOT 19  -63.481795541287      0.000E+00 9.707E-21 0.000E+00

 At SCF step   19   max residual=  9.71E-21 < tolwfr=  1.00E-20 =>converged.

 ----iterations are completed or convergence reached----

 dfpt_looppert: DFPT cycle converged with prtwf=-1. Will skip output of the 1st-order WFK file.
 dfpt_looppert : ek2=    9.3546581694E+01
          f-sum rule ratio=    1.0342478107E+00
 prteigrs : about to open file /scratch/users/j/a/jabreu/flow_simple_10atoms/flow/w393/t1/tmpdata/tmp_1WF1_EIG
 Expectation of eigenvalue derivatives (hartree) for nkpt=   2  k points:
  (in case of degenerate eigenvalues, averaged derivative)
 kpt#   1, nband= 42, wtk=  0.50000, kpt=  0.2843  0.0000 -0.2843 (reduced coord)
  -0.00000   -0.00000    0.00002   -0.00000   -0.00467    0.00890   -0.00018    0.00029
  -0.00015   -0.09540    0.06011    0.04463   -0.02008   -0.01779    0.04194   -0.02538
  -0.12119    0.00789    0.00937   -0.01082   -0.05200    0.10406    0.06379   -0.08214
   0.09026   -0.01061    0.04806    0.00695    0.03441    0.02301   -0.03738   -0.04589
   0.00025   -0.03921   -0.08337    0.08022   -0.13879    0.19148    0.01534    0.00340
   0.01072    0.02894
 prteigrs : prtvol=0 or 1, do not print more k-points.

 Eight components of 2nd-order total energy (hartree) are
 1,2,3: 0th-order hamiltonian combined with 1st-order wavefunctions
     kin0=   8.42343361E+01 eigvalue=   4.81123127E+00  local=  -3.51634527E+01
 4,5,6: 1st-order hamiltonian combined with 1st and 0th-order wfs
     kin1=  -9.67503473E+01  Hartree=   0.00000000E+00     xc=   0.00000000E+00
 7,8,9: eventually, occupation + non-local contributions
    edocc=   1.03657719E+01     enl0=  -7.66091120E-01   enl1=  -3.02132438E+01
 1-9 gives the relaxation energy (to be shifted if some occ is /=2.0)
   erelax=  -6.34817955E+01
  No Ewald or frozen-wf contrib.: the relaxation energy is the total one
 2DEtotal=   -0.6348179554E+02 Ha. Also 2DEtotal=   -0.172742750660E+04 eV
    (  non-var. 2DEtotal :   -6.3481795541E+01 Ha)

 CALCULATION OF EFFECTIVE MASSES
 NOTE : Additional infos (eff. mass eigenvalues, eigenvectors and, if degenerate, average mass) are available in stdout.

 K-point ( 0.284, 0.000,-0.284) | band =    33
 Effective mass tensor:
             -1.7405106256              0.3638787567             -1.0499972907
              0.3638787567             -3.6730607407              0.6822162367
             -1.0499972907              0.6822162367             -3.6643683292
 Effective mass tensor eigenvalues:
             -4.7037413713             -3.0973193071             -1.2768790172
 Angular average effective mass 1/(<1/m>)=  -2.2751125036
 Angular average effective mass for Frohlich model (<m**0.5>)**2=  -2.4977304995
 Effective masses along directions: (cart. coord. / red. coord. -> eff. mass)
    1:   1.000000  0.000000  0.000000 /   0.930095  0.367320  0.000000 ->  -1.4316450340
    2:   0.000000  1.000000  0.000000 /   0.000000  1.000000  0.000000 ->  -3.5263515447
    3:   0.000000  0.000000  1.000000 /   0.479608  0.479608  0.734814 ->  -2.9714173770
    4:   0.577350  0.577350  0.577350 /   0.590474  0.689961  0.418682 ->  -2.7685721405
    5:   0.000000  0.707107  0.707107 /   0.362324  0.748708  0.555120 ->  -2.8300524779
    6:   0.707107  0.000000  0.707107 /   0.714590  0.482316  0.506688 ->  -3.0907619839
    7:   0.707107  0.707107  0.000000 /   0.605710  0.795685  0.000000 ->  -1.9076381400

 K-point ( 0.000, 0.000, 0.000) | band =    34
 Effective mass tensor:
              0.6892146046              0.0936481843              0.3098627628
              0.0936481843              0.6087945987              0.2041800609
              0.3098627628              0.2041800609              1.2228258063
 Effective mass tensor eigenvalues:
              0.5470885232              0.5471256102              1.4266208762
 Angular average effective mass 1/(<1/m>)=   0.6886184950
 Angular average effective mass for Frohlich model (<m**0.5>)**2=   0.7235938148
 Effective masses along directions: (cart. coord. / red. coord. -> eff. mass)
    1:   1.000000  0.000000  0.000000 /   0.930095  0.367320  0.000000 ->   0.6076395525
    2:   0.000000  1.000000  0.000000 /   0.000000  1.000000  0.000000 ->   0.5718258171
    3:   0.000000  0.000000  1.000000 /   0.479608  0.479608  0.734814 ->   1.0394449420
    4:   0.577350  0.577350  0.577350 /   0.590474  0.689961  0.418682 ->   1.0716661889
    5:   0.000000  0.707107  0.707107 /   0.362324  0.748708  0.555120 ->   0.9142211101
    6:   0.707107  0.000000  0.707107 /   0.714590  0.482316  0.506688 ->   1.1026585136
    7:   0.707107  0.707107  0.000000 /   0.605710  0.795685  0.000000 ->   0.6340199052

 END OF EFFECTIVE MASSES SECTION

 ---- first-order wavefunction calculations are completed ----

 Total localisation tensor (bohr^2) in cartesian coordinates
  WARNING : still subject to testing - especially symmetries.
      direction              matrix element
   alpha     beta       real part   imaginary part
     1        1       0.8820029940    0.0000000000
     1        2       0.2798900695    0.0000000000
     1        3       0.9186564846    0.0000000000
     2        1       0.2798900695    0.0000000000
     2        2       0.6511034819    0.0000000000
     2        3       0.6105586088    0.0000000000
     3        1       0.9186564846    0.0000000000
     3        2       0.6105586088    0.0000000000
     3        3       2.4621438193    0.0000000000

 respfn : d/dk was computed, but no 2DTE, so no DDB output.

== END DATASET(S) ==============================================================

 -outvars: echo values of variables after computation  --------
            acell      1.0000000000E+00  1.0000000000E+00  1.0000000000E+00 Bohr
              amu      2.43050000E+01  1.18710000E+02  1.08110000E+01
                       1.59994000E+01
             ecut      4.40000000E+01 Hartree
           etotal     -6.3481795541E+01
            fcart      0.0000000000E+00  0.0000000000E+00  0.0000000000E+00
                       0.0000000000E+00  0.0000000000E+00  0.0000000000E+00
                       0.0000000000E+00  0.0000000000E+00  0.0000000000E+00
                       0.0000000000E+00  0.0000000000E+00  0.0000000000E+00
                       0.0000000000E+00  0.0000000000E+00  0.0000000000E+00
                       0.0000000000E+00  0.0000000000E+00  0.0000000000E+00
                       0.0000000000E+00  0.0000000000E+00  0.0000000000E+00
                       0.0000000000E+00  0.0000000000E+00  0.0000000000E+00
                       0.0000000000E+00  0.0000000000E+00  0.0000000000E+00
                       0.0000000000E+00  0.0000000000E+00  0.0000000000E+00
-          fftalg         512
           irdden           1
           irdwfk           1
           istwfk        0    1
              ixc     -116133
              kpt      2.84281303E-01  0.00000000E+00 -2.84281303E-01
                       0.00000000E+00  0.00000000E+00  0.00000000E+00
           kptopt           0
P           mkmem           2
P          mkqmem           2
P          mk1mem           2
            natom          10
            nband          42
           nbdbuf           4
            ngfft          72      72      72
             nkpt           2
            nstep        2000
             nsym           6
           ntypat           4
              occ      2.000000  2.000000  2.000000  2.000000  2.000000  2.000000
                       2.000000  2.000000  2.000000  2.000000  2.000000  2.000000
                       2.000000  2.000000  2.000000  2.000000  2.000000  2.000000
                       2.000000  2.000000  2.000000  2.000000  2.000000  2.000000
                       2.000000  2.000000  2.000000  2.000000  2.000000  2.000000
                       2.000000  2.000000  2.000000  0.000000  0.000000  0.000000
                       0.000000  0.000000  0.000000  0.000000  0.000000  0.000000
        optdriver           1
            prtwf          -1
            rfdir           1       1       1
           rfelfd           2
            rprim      8.1240631029E+00  0.0000000000E+00  6.9989068595E+00
                       3.2084135719E+00  7.4636776225E+00  6.9989068595E+00
                       0.0000000000E+00  0.0000000000E+00  1.0723110487E+01
          spgroup         148
           strten      0.0000000000E+00  0.0000000000E+00  0.0000000000E+00
                       0.0000000000E+00  0.0000000000E+00  0.0000000000E+00
           symrel      1  0  0   0  1  0   0  0  1      -1  0  0   0 -1  0   0  0 -1
                       0  0  1   1  0  0   0  1  0       0  0 -1  -1  0  0   0 -1  0
                       0  1  0   0  0  1   1  0  0       0 -1  0   0  0 -1  -1  0  0
           tolwfr      1.00000000E-20
            typat      1  2  3  3  4  4  4  4  4  4
           useylm           1
              wtk        0.50000    0.50000
           xangst      0.0000000000E+00  0.0000000000E+00  0.0000000000E+00
                       2.9984441866E+00  1.9748040450E+00  6.5408748327E+00
                       4.5107394965E+00  2.9708162132E+00  9.8398304633E+00
                       1.4861488766E+00  9.7879187689E-01  3.2419192021E+00
                       2.0509739375E+00  1.7193433938E-01  6.1250383758E+00
                       4.0086923509E+00  1.8163536677E+00  4.7311093419E+00
                       4.5349574195E+00  9.8410015016E-01  7.5301128653E+00
                       3.9459144357E+00  3.7776737507E+00  6.9567112895E+00
                       1.9881960223E+00  2.1332544224E+00  8.3506403235E+00
                       1.4619309537E+00  2.9655079399E+00  5.5516368001E+00
            xcart      0.0000000000E+00  0.0000000000E+00  0.0000000000E+00
                       5.6662383374E+00  3.7318388112E+00  1.2360462103E+01
                       8.5240623053E+00  5.6140290341E+00  1.8594584770E+01
                       2.8084143695E+00  1.8496485884E+00  6.1263394369E+00
                       3.8757790475E+00  3.2490881426E-01  1.1574645084E+01
                       7.5753306942E+00  3.4324109924E+00  8.9405009609E+00
                       8.5698275471E+00  1.8596797711E+00  1.4229851065E+01
                       7.4566976273E+00  7.1387688082E+00  1.3146279123E+01
                       3.7571459806E+00  4.0312666301E+00  1.5780423246E+01
                       2.7626491277E+00  5.6039978514E+00  1.0491073141E+01
             xred      0.0000000000E+00  0.0000000000E+00  0.0000000000E+00
                       5.0000000000E-01  5.0000000000E-01  5.0000000000E-01
                       7.5218000000E-01  7.5218000000E-01  7.5218000000E-01
                       2.4782000000E-01  2.4782000000E-01  2.4782000000E-01
                       4.5988200000E-01  4.3532000000E-02  7.5083600000E-01
                       7.5083600000E-01  4.5988200000E-01  4.3532000000E-02
                       9.5646800000E-01  2.4916400000E-01  5.4011800000E-01
                       5.4011800000E-01  9.5646800000E-01  2.4916400000E-01
                       2.4916400000E-01  5.4011800000E-01  9.5646800000E-01
                       4.3532000000E-02  7.5083600000E-01  4.5988200000E-01
            znucl       12.00000   50.00000    5.00000    8.00000

- Timing analysis has been suppressed with timopt=0

 Suggested references for the acknowledgment of ABINIT usage.

 Calculation completed.
.Delivered   2 WARNINGs and  11 COMMENTs to log file.