.Version 9.5.1 of ABINIT

 ABINIT is a project of the Universite Catholique de Louvain,
 Corning Inc. and other collaborators, see ~abinit/doc/developers/contributors.txt .
 acknowledgments of the ABINIT effort.

.Starting date : Tue 11 May 2021.
- ( at 21h12 )

- input  file    -> /scratch/users/j/a/jabreu/flow_simple_8atoms/flow/w269/t1/run.abi
- output file    -> /scratch/users/j/a/jabreu/flow_simple_8atoms/flow/w269/t1/run.abo
- root for input  files -> /scratch/users/j/a/jabreu/flow_simple_8atoms/flow/w269/t1/indata/in
- root for output files -> /scratch/users/j/a/jabreu/flow_simple_8atoms/flow/w269/t1/outdata/out

 Symmetries : space group I-4 2 d (#122); Bravais tI (body-center tetrag.)
     intxc =       0      iscf =       7    lmnmax =      18     lnmax =       6
     mgfft =      80  mpssoang =       3    mqgrid =    3001     natom =       8
  nloc_mem =       1    nspden =       1   nspinor =       1    nsppol =       1
      nsym =       8    n1xccc =    2501    ntypat =       3    occopt =       1
   xclevel =       2
-    mband =          53        mffmem =           1         mkmem =           1
-   mkqmem =           1        mk1mem =           1           mpw =       17347
      nfft =      512000          nkpt =           1
  Rough estimation (10% accuracy) of disk space for files :

------------- Echo of variables that govern the present computation ------------
-
- outvars: echo of selected default values
-   iomode0 =  0 , fftalg0 =512 , wfoptalg0 =  0
-
- outvars: echo of global parameters not present in the input file
-  max_nthreads =    0
-
 -outvars: echo values of preprocessed input variables --------
            acell      1.0000000000E+00  1.0000000000E+00  1.0000000000E+00 Bohr
              amu      1.14820000E+02  1.07868200E+02  3.20660000E+01
             ecut      4.30000000E+01 Hartree
-          fftalg         512
           irdden           1
           irdwfk           1
           istwfk        1
              ixc     -116133
           kptopt           0
P           mkmem           1
P          mkqmem           1
P          mk1mem           1
            natom           8
            nband          53
           nbdbuf           4
            ngfft          80      80      80
             nkpt           1
            nstep        2000
             nsym           8
           ntypat           3
              occ      2.000000  2.000000  2.000000  2.000000  2.000000  2.000000
                       2.000000  2.000000  2.000000  2.000000  2.000000  2.000000
                       2.000000  2.000000  2.000000  2.000000  2.000000  2.000000
                       2.000000  2.000000  2.000000  2.000000  2.000000  2.000000
                       2.000000  2.000000  2.000000  2.000000  2.000000  2.000000
                       2.000000  2.000000  2.000000  2.000000  2.000000  2.000000
                       2.000000  2.000000  2.000000  2.000000  2.000000  2.000000
                       2.000000  2.000000  0.000000  0.000000  0.000000  0.000000
                       0.000000  0.000000  0.000000  0.000000  0.000000
        optdriver           1
            prtwf          -1
            rfdir           1       1       1
           rfelfd           2
            rprim      9.9814961411E+00  0.0000000000E+00 -8.6876481814E+00
                      -2.0696185867E+00  9.7645759827E+00 -8.6876481814E+00
                       0.0000000000E+00  0.0000000000E+00  1.3232743334E+01
          spgroup         122
           symrel      1  0  0   0  1  0   0  0  1       0  0  1  -1 -1 -1   1  0  0
                       0  1  0   1  0  0  -1 -1 -1      -1 -1 -1   0  0  1   0  1  0
                       0  1  0   1  0  0   0  0  1       0  0  1  -1 -1 -1   0  1  0
                       1  0  0   0  1  0  -1 -1 -1      -1 -1 -1   0  0  1   1  0  0
            tnons      0.0000000  0.0000000  0.0000000    -0.2500000  0.2500000  0.5000000
                       0.0000000 -0.0000000  0.0000000    -0.2500000  0.2500000  0.5000000
                      -0.2500000  0.2500000  0.5000000    -0.0000000 -0.0000000 -0.0000000
                      -0.2500000  0.2500000  0.5000000     0.0000000 -0.0000000  0.0000000
           tolwfr      1.00000000E-20
            typat      1  1  2  2  3  3  3  3
           useylm           1
           xangst      4.9909882646E-01  3.8753932962E+00 -1.0960723242E+00
                       2.0933926395E+00  2.5835955308E+00 -4.5973054138E+00
                       0.0000000000E+00  0.0000000000E+00  0.0000000000E+00
                       3.6876864525E+00  1.2917977654E+00 -1.0960723242E+00
                       1.5655136579E+00  1.9590733175E+00  6.3204179387E-02
                      -2.3977810517E-03  3.2294944135E+00 -3.4380289103E+00
                       3.6679679407E+00  4.4999155095E+00 -4.5540015346E+00
                       3.1424867403E+00  6.4589888270E-01  3.5445369689E+00
            xcart      9.4316009525E-01  7.3234319870E+00 -2.0712765145E+00
                       3.9559387772E+00  4.8822879913E+00 -8.6876481814E+00
                       0.0000000000E+00  0.0000000000E+00  0.0000000000E+00
                       6.9687174591E+00  2.4411439957E+00 -2.0712765145E+00
                       2.9583920708E+00  3.7021120444E+00  1.1943858950E-01
                      -4.5311495143E-03  6.1028599892E+00 -6.4969330774E+00
                       6.9314548722E+00  8.5036079340E+00 -8.6058157092E+00
                       5.9384393153E+00  1.2205719978E+00  6.6982041391E+00
             xred      2.5000000000E-01  7.5000000000E-01  5.0000000000E-01
                       5.0000000000E-01  5.0000000000E-01  1.1102230246E-16
                       0.0000000000E+00  0.0000000000E+00  0.0000000000E+00
                       7.5000000000E-01  2.5000000000E-01  5.0000000000E-01
                       3.7500000000E-01  3.7913700000E-01  5.0413700000E-01
                       1.2913700000E-01  6.2500000000E-01  4.1370000000E-03
                       8.7500000000E-01  8.7086300000E-01  4.9586300000E-01
                       6.2086300000E-01  1.2500000000E-01  9.9586300000E-01
            znucl       49.00000   47.00000   16.00000

 chkinp: Checking input parameters for consistency.

== DATASET  1 ==================================================================
-   mpi_nproc: 1, omp_nthreads: -1 (-1 if OMP is not activated)

--- !DatasetInfo
iteration_state: {dtset: 1, }
dimensions: {natom: 8, nkpt: 1, mband: 53, nsppol: 1, nspinor: 1, nspden: 1, mpw: 17347, }
cutoff_energies: {ecut:  43.0, pawecutdg:  -1.0, }
electrons: {nelect:   8.80000000E+01, charge:   0.00000000E+00, occopt:   1.00000000E+00, tsmear:   1.00000000E-02, }
meta: {optdriver: 1, rfelfd: 2, }
...

 Real(R)+Recip(G) space primitive vectors, cartesian coordinates (Bohr,Bohr^-1):
 R(1)=  9.9814961  0.0000000 -8.6876482  G(1)=  0.1001854  0.0212345  0.0000000
 R(2)= -2.0696186  9.7645760 -8.6876482  G(2)=  0.0000000  0.1024110  0.0000000
 R(3)=  0.0000000  0.0000000 13.2327433  G(3)=  0.0657744  0.0811765  0.0755701
 Unit cell volume ucvol=  1.2897304E+03 bohr^3
 Angles (23,13,12)=  1.31035508E+02  1.31035508E+02  7.17566711E+01 degrees

 getcut: wavevector=  0.0000  0.0000  0.0000  ngfft=  80  80  80
         ecut(hartree)=     43.000   => boxcut(ratio)=   2.04824

--- Pseudopotential description ------------------------------------------------
- pspini: atom type   1  psp file is /scratch/users/j/a/jabreu/pseudos/PBEsol/In.psp8
- pspatm: opening atomic psp file    /scratch/users/j/a/jabreu/pseudos/PBEsol/In.psp8
- In    ONCVPSP-3.3.0  r_core=   2.10853   2.37566   1.87143
- 49.00000  13.00000    180112                znucl, zion, pspdat
    8 -116133    2    4       600   0.00000   pspcod,pspxc,lmax,lloc,mmax,r2well
    5.99000000000000    5.00000000000000    0.00000000000000   rchrg,fchrg,qchrg
     nproj     2     2     2
     extension_switch     1
  pspatm : epsatm=   25.17984752
         --- l  ekb(1:nproj) -->
             0   12.999887    1.931740
             1    5.981707    1.012544
             2   -4.048011   -1.239028
 pspatm: atomic psp has been read  and splines computed

- pspini: atom type   2  psp file is /scratch/users/j/a/jabreu/pseudos/PBEsol/Ag.psp8
- pspatm: opening atomic psp file    /scratch/users/j/a/jabreu/pseudos/PBEsol/Ag.psp8
- Ag    ONCVPSP-3.3.0  r_core=   1.41384   1.46535   1.61207
- 47.00000  19.00000    180112                znucl, zion, pspdat
    8 -116133    2    4       600   0.00000   pspcod,pspxc,lmax,lloc,mmax,r2well
    5.99000000000000    7.00000000000000    0.00000000000000   rchrg,fchrg,qchrg
     nproj     2     2     2
     extension_switch     1
  pspatm : epsatm=   27.64581383
         --- l  ekb(1:nproj) -->
             0    9.559407   -0.398585
             1    3.418858   -0.136622
             2   -1.644397   -0.401551
 pspatm: atomic psp has been read  and splines computed

- pspini: atom type   3  psp file is /scratch/users/j/a/jabreu/pseudos/PBEsol/S.psp8
- pspatm: opening atomic psp file    /scratch/users/j/a/jabreu/pseudos/PBEsol/S.psp8
- S     ONCVPSP-3.3.0  r_core=   1.45376   1.45376   1.61851
- 16.00000   6.00000    180112                znucl, zion, pspdat
    8 -116133    2    4       600   0.00000   pspcod,pspxc,lmax,lloc,mmax,r2well
    5.99000000000000    6.00000000000000    0.00000000000000   rchrg,fchrg,qchrg
     nproj     2     2     2
     extension_switch     1
  pspatm : epsatm=    8.71840985
         --- l  ekb(1:nproj) -->
             0    6.834532    0.579453
             1    3.282851    0.896984
             2   -3.496974   -0.974265
 pspatm: atomic psp has been read  and splines computed

   1.23661967E+04                                ecore*ucvol(ha*bohr**3)

-inwffil : will read wavefunctions from disk file /scratch/users/j/a/jabreu/flow_simple_8atoms/flow/w269/t1/indata/in_WFK

 ==>  initialize data related to q vector <==

 The list of irreducible perturbations for this q vector is:
    1)    idir= 1    ipert=   9
    2)    idir= 2    ipert=   9
    3)    idir= 3    ipert=   9

 Perturbation wavevector (in red.coord.)   0.000000  0.000000  0.000000
 Perturbation : derivative vs k along direction   1

 dfpt_looppert : COMMENT -
  In a d/dk calculation, iscf is set to -3 automatically.
 The set of symmetries contains only one element for this perturbation.
 symkpt : not enough symmetry to change the number of k points.

[...]

 Initialisation of the first-order wave-functions :
  ireadwf=   0

--- !BeginCycle
iteration_state: {dtset: 1, }
solver: {iscf: 7, nstep: 2000, nline: 4, wfoptalg: 0, }
tolerances: {tolwfr: 1.00E-20, }
...

     iter   2DEtotal(Ha)        deltaE(Ha) residm    vres2
-ETOT  1  -62.805660432066     -6.281E+01 1.587E-01 0.000E+00
 ETOT  2  -63.036502517801     -2.308E-01 1.127E-02 0.000E+00
 ETOT  3  -63.045354246571     -8.852E-03 6.781E-04 0.000E+00
 ETOT  4  -63.045854820811     -5.006E-04 1.309E-04 0.000E+00
 ETOT  5  -63.045886225013     -3.140E-05 3.022E-05 0.000E+00
 ETOT  6  -63.045888304919     -2.080E-06 1.031E-05 0.000E+00
 ETOT  7  -63.045888446241     -1.413E-07 3.883E-06 0.000E+00
 ETOT  8  -63.045888456004     -9.762E-09 1.397E-06 0.000E+00
[...]

 ----iterations are completed or convergence reached----

 dfpt_looppert: DFPT cycle converged with prtwf=-1. Will skip output of the 1st-order WFK file.
 dfpt_looppert : ek2=    7.2872828411E+01
          f-sum rule ratio=    1.3811200015E+00
 prteigrs : about to open file /scratch/users/j/a/jabreu/flow_simple_8atoms/flow/w269/t1/tmpdata/tmp_1WF1_EIG
 Expectation of eigenvalue derivatives (hartree) for nkpt=   1  k points:
  (in case of degenerate eigenvalues, averaged derivative)
 kpt#   1, nband= 53, wtk=  1.00000, kpt=  0.0000  0.0000  0.0000 (reduced coord)
  -0.00000    0.00000   -0.00000   -0.00000   -0.00000   -0.00000    0.00000    0.00000
   0.00000    0.00000    0.00000    0.00000   -0.00000   -0.00000    0.00000    0.00000
  -0.00000   -0.00000   -0.00000    0.00000    0.00000    0.00000   -0.00000    0.00000
   0.00000   -0.00000   -0.00000   -0.00000    0.00000    0.00000    0.00000   -0.00000
  -0.00000   -0.00000   -0.00000   -0.00000   -0.00000    0.00000   -0.00000   -0.00000
  -0.00000    0.00000    0.00000    0.00000    0.00000   -0.00000    0.00000    0.00000
   0.00000   -0.00000    0.00000   -0.00080    0.00084

 Eight components of 2nd-order total energy (hartree) are
 1,2,3: 0th-order hamiltonian combined with 1st-order wavefunctions
     kin0=   7.09535893E+01 eigvalue=   1.19296701E+00  local=  -3.83451733E+01
 4,5,6: 1st-order hamiltonian combined with 1st and 0th-order wfs
     kin1=  -1.00646121E+02  Hartree=   0.00000000E+00     xc=   0.00000000E+00
 7,8,9: eventually, occupation + non-local contributions
    edocc=   2.10928019E+01     enl0=   8.15170349E+00   enl1=  -2.54456560E+01
 1-9 gives the relaxation energy (to be shifted if some occ is /=2.0)
   erelax=  -6.30458885E+01
  No Ewald or frozen-wf contrib.: the relaxation energy is the total one
 2DEtotal=   -0.6304588846E+02 Ha. Also 2DEtotal=   -0.171556587159E+04 eV
    (  non-var. 2DEtotal :   -6.3045888456E+01 Ha)

 Perturbation wavevector (in red.coord.)   0.000000  0.000000  0.000000
 Perturbation : derivative vs k along direction   2
 The set of symmetries contains only one element for this perturbation.
 symkpt : not enough symmetry to change the number of k points.

[...]

 Perturbation wavevector (in red.coord.)   0.000000  0.000000  0.000000
 Perturbation : derivative vs k along direction   3
 The set of symmetries contains only one element for this perturbation.
 symkpt : not enough symmetry to change the number of k points.

-inwffil : will read wavefunctions from disk file /scratch/users/j/a/jabreu/flow_simple_8atoms/flow/w269/t1/indata/in_WFK

 Initialisation of the first-order wave-functions :
  ireadwf=   0

--- !BeginCycle
iteration_state: {dtset: 1, }
solver: {iscf: 7, nstep: 2000, nline: 4, wfoptalg: 0, }
tolerances: {tolwfr: 1.00E-20, }
...

     iter   2DEtotal(Ha)        deltaE(Ha) residm    vres2
-ETOT  1  -98.415032543294     -9.842E+01 5.106E-01 0.000E+00
 ETOT  2  -98.712170716545     -2.971E-01 1.861E-02 0.000E+00
 ETOT  3  -98.723080809212     -1.091E-02 1.124E-03 0.000E+00
 ETOT  4  -98.723714061451     -6.333E-04 1.835E-04 0.000E+00
 ETOT  5  -98.723754218574     -4.016E-05 4.472E-05 0.000E+00
 ETOT  6  -98.723756889531     -2.671E-06 1.922E-05 0.000E+00
 ETOT  7  -98.723757070099     -1.806E-07 6.118E-06 0.000E+00
 ETOT  8  -98.723757082465     -1.237E-08 2.575E-06 0.000E+00
 ETOT  9  -98.723757083317     -8.516E-10 8.648E-07 0.000E+00
 ETOT 10  -98.723757083376     -5.899E-11 3.489E-07 0.000E+00
 ETOT 11  -98.723757083380     -3.951E-12 1.230E-07 0.000E+00
 ETOT 12  -98.723757083380     -2.274E-13 4.774E-08 0.000E+00
 ETOT 13  -98.723757083380     -1.137E-13 1.759E-08 0.000E+00
 ETOT 14  -98.723757083380      1.563E-13 6.709E-09 0.000E+00
 ETOT 15  -98.723757083380     -1.847E-13 2.526E-09 0.000E+00
 ETOT 16  -98.723757083380      8.527E-14 9.652E-10 0.000E+00
 ETOT 17  -98.723757083380     -5.684E-14 3.641E-10 0.000E+00
 ETOT 18  -98.723757083380     -2.842E-14 1.393E-10 0.000E+00
 ETOT 19  -98.723757083380      0.000E+00 5.265E-11 0.000E+00
 ETOT 20  -98.723757083380      0.000E+00 2.017E-11 0.000E+00
 ETOT 21  -98.723757083380      0.000E+00 7.633E-12 0.000E+00
 ETOT 22  -98.723757083380     -1.421E-14 2.926E-12 0.000E+00
 ETOT 23  -98.723757083380      1.421E-14 1.109E-12 0.000E+00
 ETOT 24  -98.723757083380      1.421E-14 4.254E-13 0.000E+00
 ETOT 25  -98.723757083380     -1.421E-14 1.614E-13 0.000E+00
 ETOT 26  -98.723757083380      0.000E+00 6.193E-14 0.000E+00
 ETOT 27  -98.723757083380      0.000E+00 2.352E-14 0.000E+00
 ETOT 28  -98.723757083380     -1.421E-14 9.028E-15 0.000E+00
 ETOT 29  -98.723757083380      4.263E-14 3.432E-15 0.000E+00
 ETOT 30  -98.723757083380      0.000E+00 1.318E-15 0.000E+00
 ETOT 31  -98.723757083380     -2.842E-14 5.012E-16 0.000E+00
 ETOT 32  -98.723757083380      0.000E+00 1.925E-16 0.000E+00
 ETOT 33  -98.723757083380      0.000E+00 7.327E-17 0.000E+00
 ETOT 34  -98.723757083380      0.000E+00 2.814E-17 0.000E+00
 ETOT 35  -98.723757083380     -1.421E-14 1.072E-17 0.000E+00
 ETOT 36  -98.723757083380      1.421E-14 4.116E-18 0.000E+00
 ETOT 37  -98.723757083380     -2.842E-14 1.569E-18 0.000E+00
 ETOT 38  -98.723757083380      5.684E-14 6.025E-19 0.000E+00
 ETOT 39  -98.723757083380     -4.263E-14 2.297E-19 0.000E+00
 ETOT 40  -98.723757083380      1.421E-14 8.825E-20 0.000E+00
 ETOT 41  -98.723757083380      0.000E+00 3.366E-20 0.000E+00
 ETOT 42  -98.723757083380      0.000E+00 1.293E-20 0.000E+00
 ETOT 43  -98.723757083380      1.421E-14 9.994E-21 0.000E+00

 At SCF step   43   max residual=  9.99E-21 < tolwfr=  1.00E-20 =>converged.

 ----iterations are completed or convergence reached----

 dfpt_looppert: DFPT cycle converged with prtwf=-1. Will skip output of the 1st-order WFK file.
 dfpt_looppert : ek2=    1.1552594665E+02
          f-sum rule ratio=    1.3580314667E+00
 prteigrs : about to open file /scratch/users/j/a/jabreu/flow_simple_8atoms/flow/w269/t1/tmpdata/tmp_1WF1_EIG
 Expectation of eigenvalue derivatives (hartree) for nkpt=   1  k points:
  (in case of degenerate eigenvalues, averaged derivative)
 kpt#   1, nband= 53, wtk=  1.00000, kpt=  0.0000  0.0000  0.0000 (reduced coord)
  -0.00000    0.00000    0.00000    0.00000   -0.00000   -0.00000    0.00000    0.00000
   0.00000    0.00000   -0.00000    0.00000   -0.00000   -0.00000    0.00000    0.00000
   0.00000    0.00000   -0.00000   -0.00000   -0.00000   -0.00000    0.00000    0.00000
   0.00000   -0.00000   -0.00000   -0.00000    0.00000    0.00000    0.00000   -0.00000
  -0.00000   -0.00000   -0.00000   -0.00000   -0.00000    0.00000   -0.00000   -0.00000
  -0.00000    0.00000    0.00000   -0.00000   -0.00000   -0.00000    0.00000    0.00000
   0.00000   -0.00000    0.00000   -0.00046    0.00088

 Eight components of 2nd-order total energy (hartree) are
 1,2,3: 0th-order hamiltonian combined with 1st-order wavefunctions
     kin0=   1.13842661E+02 eigvalue=   1.51533308E+00  local=  -6.17737262E+01
 4,5,6: 1st-order hamiltonian combined with 1st and 0th-order wfs
     kin1=  -1.56887871E+02  Hartree=   0.00000000E+00     xc=   0.00000000E+00
 7,8,9: eventually, occupation + non-local contributions
    edocc=   3.20102581E+01     enl0=   1.31292316E+01   enl1=  -4.05596434E+01
 1-9 gives the relaxation energy (to be shifted if some occ is /=2.0)
   erelax=  -9.87237571E+01
  No Ewald or frozen-wf contrib.: the relaxation energy is the total one
 2DEtotal=   -0.9872375708E+02 Ha. Also 2DEtotal=   -0.268641005010E+04 eV
    (  non-var. 2DEtotal :   -9.8723757083E+01 Ha)

 CALCULATION OF EFFECTIVE MASSES
 NOTE : Additional infos (eff. mass eigenvalues, eigenvectors and, if degenerate, average mass) are available in stdout.

 K-point ( 0.000, 0.000, 0.000) | band =    44
 Effective mass tensor:
             -0.7841528362              0.1431046810             -0.2546052015
              0.1431046810             -0.7235437784             -0.3142558388
             -0.2546052015             -0.3142558388             -0.3409384399
 Effective mass tensor eigenvalues:
             -0.9001520194             -0.9000851383             -0.0483978967
 Angular average effective mass 1/(<1/m>)=  -0.1310960516
 Angular average effective mass for Frohlich model (<m**0.5>)**2=  -0.2344479435
 Effective masses along directions: (cart. coord. / red. coord. -> eff. mass)
    1:   1.000000  0.000000  0.000000 /   0.979173 -0.203027  0.000000 ->  -0.2650806552
    2:   0.000000  1.000000  0.000000 /   0.000000  1.000000  0.000000 ->  -0.1936196211
    3:   0.000000  0.000000  1.000000 /  -0.481123 -0.481123  0.732831 ->  -0.0717011287
    4:   0.577350  0.577350  0.577350 /   0.097042 -0.074454  0.992491 ->  -0.8990651132
    5:   0.000000  0.707107  0.707107 /  -0.547552  0.067875  0.834014 ->  -0.4269333224
    6:   0.707107  0.000000  0.707107 /   0.075652 -0.628985  0.773728 ->  -0.3316946155
    7:   0.707107  0.707107  0.000000 /   0.791976  0.610552  0.000000 ->  -0.1289775968

 K-point ( 0.000, 0.000, 0.000) | band =    45
 Effective mass tensor:
              0.0629418232             -0.0034004239              0.0060506190
             -0.0034004239              0.0615001926              0.0074677038
              0.0060506190              0.0074677038              0.0524090697
 Effective mass tensor eigenvalues:
              0.0454571327              0.0656969562              0.0656969967
 Angular average effective mass 1/(<1/m>)=   0.0572065480
 Angular average effective mass for Frohlich model (<m**0.5>)**2=   0.0577564871
 Effective masses along directions: (cart. coord. / red. coord. -> eff. mass)
    1:   1.000000  0.000000  0.000000 /   0.979173 -0.203027  0.000000 ->   0.0619426406
    2:   0.000000  1.000000  0.000000 /   0.000000  1.000000  0.000000 ->   0.0601442178
    3:   0.000000  0.000000  1.000000 /  -0.481123 -0.481123  0.732831 ->   0.0508365691
    4:   0.577350  0.577350  0.577350 /   0.097042 -0.074454  0.992491 ->   0.0656950348
    5:   0.000000  0.707107  0.707107 /  -0.547552  0.067875  0.834014 ->   0.0639050446
    6:   0.707107  0.000000  0.707107 /   0.075652 -0.628985  0.773728 ->   0.0629668919
    7:   0.707107  0.707107  0.000000 /   0.791976  0.610552  0.000000 ->   0.0570646899

 END OF EFFECTIVE MASSES SECTION

 ---- first-order wavefunction calculations are completed ----

 Total localisation tensor (bohr^2) in cartesian coordinates
  WARNING : still subject to testing - especially symmetries.
      direction              matrix element
   alpha     beta       real part   imaginary part
     1        1      15.5696723220    0.0000000000
     1        2      -3.0279500119    0.0000000000
     1        3     -10.2988705256    0.0000000000
     2        1      -3.0279500119    0.0000000000
     2        2      14.2860371242    0.0000000000
     2        3     -12.7104407464    0.0000000000
     3        1     -10.2988705256    0.0000000000
     3        2     -12.7104407464    0.0000000000
     3        3      55.6279441741    0.0000000000

 respfn : d/dk was computed, but no 2DTE, so no DDB output.

== END DATASET(S) ==============================================================

 -outvars: echo values of variables after computation  --------
            acell      1.0000000000E+00  1.0000000000E+00  1.0000000000E+00 Bohr
              amu      1.14820000E+02  1.07868200E+02  3.20660000E+01
             ecut      4.30000000E+01 Hartree
           etotal     -9.8723757083E+01
            fcart      0.0000000000E+00  0.0000000000E+00  0.0000000000E+00
                       0.0000000000E+00  0.0000000000E+00  0.0000000000E+00
                       0.0000000000E+00  0.0000000000E+00  0.0000000000E+00
                       0.0000000000E+00  0.0000000000E+00  0.0000000000E+00
                       0.0000000000E+00  0.0000000000E+00  0.0000000000E+00
                       0.0000000000E+00  0.0000000000E+00  0.0000000000E+00
                       0.0000000000E+00  0.0000000000E+00  0.0000000000E+00
                       0.0000000000E+00  0.0000000000E+00  0.0000000000E+00
-          fftalg         512
           irdden           1
           irdwfk           1
           istwfk        1
              ixc     -116133
           kptopt           0
P           mkmem           1
P          mkqmem           1
P          mk1mem           1
            natom           8
            nband          53
           nbdbuf           4
            ngfft          80      80      80
             nkpt           1
            nstep        2000
             nsym           8
           ntypat           3
              occ      2.000000  2.000000  2.000000  2.000000  2.000000  2.000000
                       2.000000  2.000000  2.000000  2.000000  2.000000  2.000000
                       2.000000  2.000000  2.000000  2.000000  2.000000  2.000000
                       2.000000  2.000000  2.000000  2.000000  2.000000  2.000000
                       2.000000  2.000000  2.000000  2.000000  2.000000  2.000000
                       2.000000  2.000000  2.000000  2.000000  2.000000  2.000000
                       2.000000  2.000000  2.000000  2.000000  2.000000  2.000000
                       2.000000  2.000000  0.000000  0.000000  0.000000  0.000000
                       0.000000  0.000000  0.000000  0.000000  0.000000
        optdriver           1
            prtwf          -1
            rfdir           1       1       1
           rfelfd           2
            rprim      9.9814961411E+00  0.0000000000E+00 -8.6876481814E+00
                      -2.0696185867E+00  9.7645759827E+00 -8.6876481814E+00
                       0.0000000000E+00  0.0000000000E+00  1.3232743334E+01
          spgroup         122
           strten      0.0000000000E+00  0.0000000000E+00  0.0000000000E+00
                       0.0000000000E+00  0.0000000000E+00  0.0000000000E+00
           symrel      1  0  0   0  1  0   0  0  1       0  0  1  -1 -1 -1   1  0  0
                       0  1  0   1  0  0  -1 -1 -1      -1 -1 -1   0  0  1   0  1  0
                       0  1  0   1  0  0   0  0  1       0  0  1  -1 -1 -1   0  1  0
                       1  0  0   0  1  0  -1 -1 -1      -1 -1 -1   0  0  1   1  0  0
            tnons      0.0000000  0.0000000  0.0000000    -0.2500000  0.2500000  0.5000000
                       0.0000000 -0.0000000  0.0000000    -0.2500000  0.2500000  0.5000000
                      -0.2500000  0.2500000  0.5000000    -0.0000000 -0.0000000 -0.0000000
                      -0.2500000  0.2500000  0.5000000     0.0000000 -0.0000000  0.0000000
           tolwfr      1.00000000E-20
            typat      1  1  2  2  3  3  3  3
           useylm           1
           xangst      4.9909882646E-01  3.8753932962E+00 -1.0960723242E+00
                       2.0933926395E+00  2.5835955308E+00 -4.5973054138E+00
                       0.0000000000E+00  0.0000000000E+00  0.0000000000E+00
                       3.6876864525E+00  1.2917977654E+00 -1.0960723242E+00
                       1.5655136579E+00  1.9590733175E+00  6.3204179387E-02
                      -2.3977810517E-03  3.2294944135E+00 -3.4380289103E+00
                       3.6679679407E+00  4.4999155095E+00 -4.5540015346E+00
                       3.1424867403E+00  6.4589888270E-01  3.5445369689E+00
            xcart      9.4316009525E-01  7.3234319870E+00 -2.0712765145E+00
                       3.9559387772E+00  4.8822879913E+00 -8.6876481814E+00
                       0.0000000000E+00  0.0000000000E+00  0.0000000000E+00
                       6.9687174591E+00  2.4411439957E+00 -2.0712765145E+00
                       2.9583920708E+00  3.7021120444E+00  1.1943858950E-01
                      -4.5311495143E-03  6.1028599892E+00 -6.4969330774E+00
                       6.9314548722E+00  8.5036079340E+00 -8.6058157092E+00
                       5.9384393153E+00  1.2205719978E+00  6.6982041391E+00
             xred      2.5000000000E-01  7.5000000000E-01  5.0000000000E-01
                       5.0000000000E-01  5.0000000000E-01  1.1102230246E-16
                       0.0000000000E+00  0.0000000000E+00  0.0000000000E+00
                       7.5000000000E-01  2.5000000000E-01  5.0000000000E-01
                       3.7500000000E-01  3.7913700000E-01  5.0413700000E-01
                       1.2913700000E-01  6.2500000000E-01  4.1370000000E-03
                       8.7500000000E-01  8.7086300000E-01  4.9586300000E-01
                       6.2086300000E-01  1.2500000000E-01  9.9586300000E-01
            znucl       49.00000   47.00000   16.00000

- Timing analysis has been suppressed with timopt=0

 Suggested references for the acknowledgment of ABINIT usage.

 Calculation completed.
.Delivered   6 WARNINGs and   5 COMMENTs to log file.