.Version 9.5.1 of ABINIT

 ABINIT is a project of the Universite Catholique de Louvain,
 Corning Inc. and other collaborators, see ~abinit/doc/developers/contributors.txt .
 acknowledgments of the ABINIT effort.

.Starting date : Tue 27 Apr 2021.
- ( at 18h34 )

- input  file    -> /scratch/users/j/a/jabreu/flow_simple_4atoms/flow/w198/t1/run.abi
- output file    -> /scratch/users/j/a/jabreu/flow_simple_4atoms/flow/w198/t1/run.abo
- root for input  files -> /scratch/users/j/a/jabreu/flow_simple_4atoms/flow/w198/t1/indata/in
- root for output files -> /scratch/users/j/a/jabreu/flow_simple_4atoms/flow/w198/t1/outdata/out

 Symmetries : space group R-3 m (#166); Bravais hR (rhombohedral)
     intxc =       0      iscf =       7    lmnmax =      18     lnmax =       6
     mgfft =      64  mpssoang =       3    mqgrid =    3001     natom =       4
  nloc_mem =       1    nspden =       1   nspinor =       1    nsppol =       1
      nsym =      12    n1xccc =    2501    ntypat =       3    occopt =       1
   xclevel =       2
-    mband =          26        mffmem =           1         mkmem =           2
-   mkqmem =           2        mk1mem =           2           mpw =        6119
      nfft =      262144          nkpt =           2
  Rough estimation (10% accuracy) of disk space for files :

------------- Echo of variables that govern the present computation ------------
-
- outvars: echo of selected default values
-   iomode0 =  0 , fftalg0 =512 , wfoptalg0 =  0
-
- outvars: echo of global parameters not present in the input file
-  max_nthreads =    0
-
 -outvars: echo values of preprocessed input variables --------
            acell      1.0000000000E+00  1.0000000000E+00  1.0000000000E+00 Bohr
              amu      1.12411000E+02  1.20110000E+01  1.40067400E+01
             ecut      5.10000000E+01 Hartree
-          fftalg         512
           irdden           1
           irdwfk           1
           istwfk        1    1
              ixc     -116133
              kpt      0.00000000E+00  0.00000000E+00  0.00000000E+00
                       5.00000000E-01  0.00000000E+00  2.77555756E-17
           kptopt           0
P           mkmem           2
P          mkqmem           2
P          mk1mem           2
            natom           4
            nband          26
           nbdbuf           4
            ngfft          64      64      64
             nkpt           2
            nstep         100
             nsym          12
           ntypat           3
              occ      2.000000  2.000000  2.000000  2.000000  2.000000  2.000000
                       2.000000  2.000000  2.000000  2.000000  2.000000  2.000000
                       2.000000  2.000000  2.000000  2.000000  2.000000  0.000000
                       0.000000  0.000000  0.000000  0.000000  0.000000  0.000000
                       0.000000  0.000000
        optdriver           1
            prtwf          -1
            rfdir           1       1       1
           rfelfd           2
            rprim      6.2753669863E+00  0.0000000000E+00  7.6899149133E+00
                       2.7394819416E+00  5.6458364752E+00  7.6899149133E+00
                       0.0000000000E+00  0.0000000000E+00  9.9254733987E+00
          spgroup         166
           symrel      1  0  0   0  1  0   0  0  1      -1  0  0   0 -1  0   0  0 -1
                       0  1  0   1  0  0   0  0  1       0 -1  0  -1  0  0   0  0 -1
                       0  0  1   1  0  0   0  1  0       0  0 -1  -1  0  0   0 -1  0
                       1  0  0   0  0  1   0  1  0      -1  0  0   0  0 -1   0 -1  0
                       0  1  0   0  0  1   1  0  0       0 -1  0   0  0 -1  -1  0  0
                       0  0  1   0  1  0   1  0  0       0  0 -1   0 -1  0  -1  0  0
           tolwfr      1.00000000E-20
            typat      1  2  3  3
           useylm           1
              wtk        0.50000    0.50000
           xangst      0.0000000000E+00  0.0000000000E+00  0.0000000000E+00
                       2.3852262958E+00  1.4938239931E+00  6.6954948616E+00
                       2.7909771409E+00  1.7479383925E+00  7.8344654926E+00
                       1.9794754506E+00  1.2397095936E+00  5.5565242307E+00
            xcart      0.0000000000E+00  0.0000000000E+00  0.0000000000E+00
                       4.5074244639E+00  2.8229182376E+00  1.2652651613E+01
                       5.2741824395E+00  3.3031248590E+00  1.4804994178E+01
                       3.7406664884E+00  2.3427116162E+00  1.0500309047E+01
             xred      0.0000000000E+00  0.0000000000E+00  0.0000000000E+00
                       5.0000000000E-01  5.0000000000E-01  5.0000000000E-01
                       5.8505500000E-01  5.8505500000E-01  5.8505500000E-01
                       4.1494500000E-01  4.1494500000E-01  4.1494500000E-01
            znucl       48.00000    6.00000    7.00000

 chkinp: Checking input parameters for consistency.

== DATASET  1 ==================================================================
-   mpi_nproc: 1, omp_nthreads: -1 (-1 if OMP is not activated)

--- !DatasetInfo
iteration_state: {dtset: 1, }
dimensions: {natom: 4, nkpt: 2, mband: 26, nsppol: 1, nspinor: 1, nspden: 1, mpw: 6119, }
cutoff_energies: {ecut:  51.0, pawecutdg:  -1.0, }
electrons: {nelect:   3.40000000E+01, charge:   0.00000000E+00, occopt:   1.00000000E+00, tsmear:   1.00000000E-02, }
meta: {optdriver: 1, rfelfd: 2, }
...

 Real(R)+Recip(G) space primitive vectors, cartesian coordinates (Bohr,Bohr^-1):
 R(1)=  6.2753670  0.0000000  7.6899149  G(1)=  0.1593532 -0.0773216  0.0000000
 R(2)=  2.7394819  5.6458365  7.6899149  G(2)=  0.0000000  0.1771217  0.0000000
 R(3)=  0.0000000  0.0000000  9.9254734  G(3)= -0.1234614 -0.0773216  0.1007509
 Unit cell volume ucvol=  3.5165650E+02 bohr^3
 Angles (23,13,12)=  3.92162181E+01  3.92162181E+01  3.92162181E+01 degrees

 getcut: wavevector=  0.0000  0.0000  0.0000  ngfft=  64  64  64
         ecut(hartree)=     51.000   => boxcut(ratio)=   2.00590

--- Pseudopotential description ------------------------------------------------
- pspini: atom type   1  psp file is /scratch/users/j/a/jabreu/pseudos/PBEsol/Cd.psp8
- pspatm: opening atomic psp file    /scratch/users/j/a/jabreu/pseudos/PBEsol/Cd.psp8
- Cd    ONCVPSP-3.3.0  r_core=   1.25838   1.30423   1.35174
- 48.00000  20.00000    180112                znucl, zion, pspdat
    8 -116133    2    4       600   0.00000   pspcod,pspxc,lmax,lloc,mmax,r2well
    5.99000000000000    6.00000000000000    0.00000000000000   rchrg,fchrg,qchrg
     nproj     2     2     2
     extension_switch     1
  pspatm : epsatm=   23.26728021
         --- l  ekb(1:nproj) -->
             0   63.701523    3.700425
             1    8.703569    1.290373
             2    0.983656   -0.721725
 pspatm: atomic psp has been read  and splines computed

- pspini: atom type   2  psp file is /scratch/users/j/a/jabreu/pseudos/PBEsol/C.psp8
- pspatm: opening atomic psp file    /scratch/users/j/a/jabreu/pseudos/PBEsol/C.psp8
- C     ONCVPSP-3.3.0  r_core=   1.20440   1.26326
-  6.00000   4.00000    180112                znucl, zion, pspdat
    8 -116133    1    4       600   0.00000   pspcod,pspxc,lmax,lloc,mmax,r2well
    5.99000000000000    4.00000000000000    0.00000000000000   rchrg,fchrg,qchrg
     nproj     2     2
     extension_switch     1
  pspatm : epsatm=    4.34909529
         --- l  ekb(1:nproj) -->
             0    6.468939    0.390031
             1   -4.179695   -0.878453
 pspatm: atomic psp has been read  and splines computed

- pspini: atom type   3  psp file is /scratch/users/j/a/jabreu/pseudos/PBEsol/N.psp8
- pspatm: opening atomic psp file    /scratch/users/j/a/jabreu/pseudos/PBEsol/N.psp8
- N     ONCVPSP-3.3.0  r_core=   1.20551   1.35824
-  7.00000   5.00000    180112                znucl, zion, pspdat
    8 -116133    1    4       600   0.00000   pspcod,pspxc,lmax,lloc,mmax,r2well
    5.99000000000000    4.00000000000000    0.00000000000000   rchrg,fchrg,qchrg
     nproj     2     2
     extension_switch     1
  pspatm : epsatm=    5.26508895
         --- l  ekb(1:nproj) -->
             0    7.464189    0.625868
             1   -4.309714   -1.012941
 pspatm: atomic psp has been read  and splines computed

   1.29698282E+03                                ecore*ucvol(ha*bohr**3)

-inwffil : will read wavefunctions from disk file /scratch/users/j/a/jabreu/flow_simple_4atoms/flow/w198/t1/indata/in_WFK

 ==>  initialize data related to q vector <==

 The list of irreducible perturbations for this q vector is:
    1)    idir= 1    ipert=   5
    2)    idir= 2    ipert=   5
    3)    idir= 3    ipert=   5

 Perturbation wavevector (in red.coord.)   0.000000  0.000000  0.000000
 Perturbation : derivative vs k along direction   1

 dfpt_looppert : COMMENT -
  In a d/dk calculation, iscf is set to -3 automatically.
 The set of symmetries contains only one element for this perturbation.
 symkpt : not enough symmetry to change the number of k points.

[...]

 Initialisation of the first-order wave-functions :
  ireadwf=   0

--- !BeginCycle
iteration_state: {dtset: 1, }
solver: {iscf: 7, nstep: 100, nline: 4, wfoptalg: 0, }
tolerances: {tolwfr: 1.00E-20, }
...

     iter   2DEtotal(Ha)        deltaE(Ha) residm    vres2
-ETOT  1  -44.773884146216     -4.477E+01 1.437E-01 0.000E+00
 ETOT  2  -44.795120668365     -2.124E-02 1.047E-02 0.000E+00
 ETOT  3  -44.795194616949     -7.395E-05 2.914E-05 0.000E+00
 ETOT  4  -44.795195083186     -4.662E-07 4.791E-06 0.000E+00
 ETOT  5  -44.795195087054     -3.868E-09 3.401E-08 0.000E+00
 ETOT  6  -44.795195087092     -3.784E-11 7.123E-09 0.000E+00
 ETOT  7  -44.795195087092     -3.482E-13 5.562E-11 0.000E+00
 ETOT  8  -44.795195087092      2.132E-14 1.130E-11 0.000E+00
 ETOT  9  -44.795195087092     -4.974E-14 9.171E-14 0.000E+00
 ETOT 10  -44.795195087092      1.421E-14 2.745E-14 0.000E+00
 ETOT 11  -44.795195087092      0.000E+00 1.515E-16 0.000E+00
 ETOT 12  -44.795195087092      0.000E+00 1.257E-16 0.000E+00
 ETOT 13  -44.795195087092      1.421E-14 6.273E-19 0.000E+00
 ETOT 14  -44.795195087092     -7.105E-15 5.949E-19 0.000E+00
 ETOT 15  -44.795195087092      0.000E+00 8.752E-21 0.000E+00

 At SCF step   15   max residual=  8.75E-21 < tolwfr=  1.00E-20 =>converged.

 ----iterations are completed or convergence reached----

 dfpt_looppert: DFPT cycle converged with prtwf=-1. Will skip output of the 1st-order WFK file.
 dfpt_looppert : ek2=    8.4219383709E+01
          f-sum rule ratio=    1.0439248075E+00
 prteigrs : about to open file /scratch/users/j/a/jabreu/flow_simple_4atoms/flow/w198/t1/tmpdata/tmp_1WF1_EIG
 Expectation of eigenvalue derivatives (hartree) for nkpt=   2  k points:
  (in case of degenerate eigenvalues, averaged derivative)
 kpt#   1, nband= 26, wtk=  0.50000, kpt=  0.0000  0.0000  0.0000 (reduced coord)
  -0.00000    0.00000   -0.00000   -0.00000    0.00000    0.00000    0.00000   -0.00000
  -0.00000    0.00000    0.00000   -0.00000    0.00000    0.00000    0.00000   -0.00000
  -0.00000    0.00000    0.00000   -0.00000   -0.00000   -0.00000    0.00000    0.00000
   0.00067    0.00000
 prteigrs : prtvol=0 or 1, do not print more k-points.

 Eight components of 2nd-order total energy (hartree) are
 1,2,3: 0th-order hamiltonian combined with 1st-order wavefunctions
     kin0=   5.83351294E+01 eigvalue=   1.15883614E+00  local=  -2.74137663E+01
 4,5,6: 1st-order hamiltonian combined with 1st and 0th-order wfs
     kin1=  -8.79187039E+01  Hartree=   0.00000000E+00     xc=   0.00000000E+00
 7,8,9: eventually, occupation + non-local contributions
    edocc=   1.22089741E+01     enl0=   5.06021808E-01   enl1=  -1.67168625E+00
 1-9 gives the relaxation energy (to be shifted if some occ is /=2.0)
   erelax=  -4.47951951E+01
  No Ewald or frozen-wf contrib.: the relaxation energy is the total one
 2DEtotal=   -0.4479519509E+02 Ha. Also 2DEtotal=   -0.121893924860E+04 eV
    (  non-var. 2DEtotal :   -4.4795195087E+01 Ha)

 Perturbation wavevector (in red.coord.)   0.000000  0.000000  0.000000
 Perturbation : derivative vs k along direction   2
 The set of symmetries contains only one element for this perturbation.
 symkpt : not enough symmetry to change the number of k points.

[...]

 Perturbation wavevector (in red.coord.)   0.000000  0.000000  0.000000
 Perturbation : derivative vs k along direction   3
 The set of symmetries contains only one element for this perturbation.
 symkpt : not enough symmetry to change the number of k points.

-inwffil : will read wavefunctions from disk file /scratch/users/j/a/jabreu/flow_simple_4atoms/flow/w198/t1/indata/in_WFK

 Initialisation of the first-order wave-functions :
  ireadwf=   0

--- !BeginCycle
iteration_state: {dtset: 1, }
solver: {iscf: 7, nstep: 100, nline: 4, wfoptalg: 0, }
tolerances: {tolwfr: 1.00E-20, }
...

     iter   2DEtotal(Ha)        deltaE(Ha) residm    vres2
-ETOT  1  -47.152386295186     -4.715E+01 1.528E-01 0.000E+00
 ETOT  2  -47.176862650593     -2.448E-02 2.948E-02 0.000E+00
 ETOT  3  -47.176952084508     -8.943E-05 1.291E-04 0.000E+00
 ETOT  4  -47.176952733556     -6.490E-07 5.793E-05 0.000E+00
 ETOT  5  -47.176952740230     -6.674E-09 3.300E-07 0.000E+00
 ETOT  6  -47.176952740311     -8.087E-11 1.783E-07 0.000E+00
 ETOT  7  -47.176952740312     -1.052E-12 1.106E-09 0.000E+00
 ETOT  8  -47.176952740312     -7.105E-15 7.445E-10 0.000E+00
 ETOT  9  -47.176952740312      7.105E-15 4.937E-12 0.000E+00
 ETOT 10  -47.176952740312     -4.263E-14 3.467E-12 0.000E+00
 ETOT 11  -47.176952740312     -7.105E-15 2.322E-14 0.000E+00
 ETOT 12  -47.176952740312     -1.421E-14 1.691E-14 0.000E+00
 ETOT 13  -47.176952740312      0.000E+00 1.139E-16 0.000E+00
 ETOT 14  -47.176952740312      0.000E+00 8.479E-17 0.000E+00
 ETOT 15  -47.176952740312      0.000E+00 5.728E-19 0.000E+00
 ETOT 16  -47.176952740312      0.000E+00 4.334E-19 0.000E+00
 ETOT 17  -47.176952740312      0.000E+00 9.845E-21 0.000E+00

 At SCF step   17   max residual=  9.84E-21 < tolwfr=  1.00E-20 =>converged.

 ----iterations are completed or convergence reached----

 dfpt_looppert: DFPT cycle converged with prtwf=-1. Will skip output of the 1st-order WFK file.
 dfpt_looppert : ek2=    8.4219383707E+01
          f-sum rule ratio=    1.1058075653E+00
 prteigrs : about to open file /scratch/users/j/a/jabreu/flow_simple_4atoms/flow/w198/t1/tmpdata/tmp_1WF1_EIG
 Expectation of eigenvalue derivatives (hartree) for nkpt=   2  k points:
  (in case of degenerate eigenvalues, averaged derivative)
 kpt#   1, nband= 26, wtk=  0.50000, kpt=  0.0000  0.0000  0.0000 (reduced coord)
  -0.00000   -0.00000    0.00000    0.00000    0.00000    0.00000   -0.00000    0.00000
   0.00000   -0.00000   -0.00000    0.00000   -0.00000   -0.00000    0.00000    0.00000
   0.00000   -0.00000    0.00000   -0.00000   -0.00000    0.00000   -0.00000   -0.00000
   0.00016    0.00000
 prteigrs : prtvol=0 or 1, do not print more k-points.

 Eight components of 2nd-order total energy (hartree) are
 1,2,3: 0th-order hamiltonian combined with 1st-order wavefunctions
     kin0=   5.71696657E+01 eigvalue=   1.28598384E+00  local=  -2.70335758E+01
 4,5,6: 1st-order hamiltonian combined with 1st and 0th-order wfs
     kin1=  -9.31304316E+01  Hartree=   0.00000000E+00     xc=   0.00000000E+00
 7,8,9: eventually, occupation + non-local contributions
    edocc=   1.52995936E+01     enl0=   4.55285447E-01   enl1=  -1.22347383E+00
 1-9 gives the relaxation energy (to be shifted if some occ is /=2.0)
   erelax=  -4.71769527E+01
  No Ewald or frozen-wf contrib.: the relaxation energy is the total one
 2DEtotal=   -0.4717695274E+02 Ha. Also 2DEtotal=   -0.128375017036E+04 eV
    (  non-var. 2DEtotal :   -4.7176952740E+01 Ha)

 CALCULATION OF EFFECTIVE MASSES
 NOTE : Additional infos (eff. mass eigenvalues, eigenvectors and, if degenerate, average mass) are available in stdout.

 COMMENTS:
 - At k-point ( 0.000, 0.000, 0.000), bands    16 through    17
   are DEGENERATE (effective mass tensor is therefore not defined).
   See Section IIIB Eqs. (67)-(70) and Appendix E of PRB 93 205147 (2016).
 - Angular average effective mass for Frohlich model is to be averaged over degenerate bands. See later.
 - Associated theta integrals calculated with ntheta=   1000 points.

 K-point ( 0.000, 0.000, 0.000) | band =    16
 Transport equivalent effective mass tensor:
             -0.6379535282             -0.0056717213             -0.0254227190
             -0.0056717213             -0.6324507142             -0.0159221891
             -0.0254227190             -0.0159221891             -0.7002683617
 Transport equivalent effective mass tensor eigenvalues:
             -0.7128762784             -0.6288985695             -0.6288977562
 Angular average effective mass 1/(<1/m>)=  -0.5221987828
 Angular average effective mass for Frohlich model (<m**0.5>)**2=  -0.5295662141
 Effective masses along directions: (cart. coord. / red. coord. -> eff. mass)
    1:   1.000000  0.000000  0.000000 /   0.916478  0.400084  0.000000 ->  -0.5234008963
    2:   0.000000  1.000000  0.000000 /   0.000000  1.000000  0.000000 ->  -0.6496063826
    3:   0.000000  0.000000  1.000000 /   0.522285  0.522285  0.674120 ->  -0.6109660081
    4:   0.577350  0.577350  0.577350 /   0.594425  0.684234  0.422473 ->  -0.4988485158
    5:   0.000000  0.707107  0.707107 /   0.419837  0.728075  0.541889 ->  -0.5250980106
    6:   0.707107  0.000000  0.707107 /   0.696251  0.519966  0.494843 ->  -0.5873859077
    7:   0.707107  0.707107  0.000000 /   0.599167  0.800624  0.000000 ->  -0.4429706673

 K-point ( 0.000, 0.000, 0.000) | band =    17
 Transport equivalent effective mass tensor:
            -17.5381318137             -0.1413630918             -0.6338346974
             -0.1413630918            -17.4009510439             -0.3969931083
             -0.6338346974             -0.3969931083            -19.0917757721
 Transport equivalent effective mass tensor eigenvalues:
            -19.4061146946            -17.3124177352            -17.3123261999
 Angular average effective mass 1/(<1/m>)=  -1.7728458923
 Angular average effective mass for Frohlich model (<m**0.5>)**2=  -2.1864762249
 Effective masses along directions: (cart. coord. / red. coord. -> eff. mass)
    1:   1.000000  0.000000  0.000000 /   0.916478  0.400084  0.000000 ->  -1.5839011294
    2:   0.000000  1.000000  0.000000 /   0.000000  1.000000  0.000000 ->  -0.9796053465
    3:   0.000000  0.000000  1.000000 /   0.522285  0.522285  0.674120 ->  -1.4321846327
    4:   0.577350  0.577350  0.577350 /   0.594425  0.684234  0.422473 ->  -2.7003583989
    5:   0.000000  0.707107  0.707107 /   0.419837  0.728075  0.541889 ->  -2.0395233484
    6:   0.707107  0.000000  0.707107 /   0.696251  0.519966  0.494843 ->  -1.5347709992
    7:   0.707107  0.707107  0.000000 /   0.599167  0.800624  0.000000 ->  -3.6396837950

 Angular average effective mass for Frohlich model, averaged over degenerate bands.
 Value of     (<<m**0.5>>)**2 =     1.217036E+00
 Absolute Value of <<m**0.5>> =     1.103193E+00

 K-point ( 0.500, 0.000, 0.000) | band =    18
 Effective mass tensor:
              0.8230730145             -0.0528499218             -0.0582968230
             -0.0528499218              0.7695389305             -0.0450513284
             -0.0582968230             -0.0450513284              0.5765261705
 Effective mass tensor eigenvalues:
              0.5490535868              0.7617333171              0.8583512116
 Angular average effective mass 1/(<1/m>)=   0.6978147063
 Angular average effective mass for Frohlich model (<m**0.5>)**2=   0.7056441071
 Effective masses along directions: (cart. coord. / red. coord. -> eff. mass)
    1:   1.000000  0.000000  0.000000 /   0.916478  0.400084  0.000000 ->   0.8128762339
    2:   0.000000  1.000000  0.000000 /   0.000000  1.000000  0.000000 ->   0.7619858643
    3:   0.000000  0.000000  1.000000 /   0.522285  0.522285  0.674120 ->   0.5692894574
    4:   0.577350  0.577350  0.577350 /   0.594425  0.684234  0.422473 ->   0.6035656120
    5:   0.000000  0.707107  0.707107 /   0.419837  0.728075  0.541889 ->   0.6074073874
    6:   0.707107  0.000000  0.707107 /   0.696251  0.519966  0.494843 ->   0.6153898213
    7:   0.707107  0.707107  0.000000 /   0.599167  0.800624  0.000000 ->   0.7334222480

 END OF EFFECTIVE MASSES SECTION

 ---- first-order wavefunction calculations are completed ----

 Total localisation tensor (bohr^2) in cartesian coordinates
  WARNING : still subject to testing - especially symmetries.
      direction              matrix element
   alpha     beta       real part   imaginary part
     1        1       0.9461171340    0.0000000000
     1        2       0.3613517380    0.0000000000
     1        3       1.4367047978    0.0000000000
     2        1       0.3613517380    0.0000000000
     2        2       0.7447148280    0.0000000000
     2        3       1.0143392723    0.0000000000
     3        1       1.4367047978    0.0000000000
     3        2       1.0143392723    0.0000000000
     3        3       4.8406526333    0.0000000000

 respfn : d/dk was computed, but no 2DTE, so no DDB output.

== END DATASET(S) ==============================================================

 -outvars: echo values of variables after computation  --------
            acell      1.0000000000E+00  1.0000000000E+00  1.0000000000E+00 Bohr
              amu      1.12411000E+02  1.20110000E+01  1.40067400E+01
             ecut      5.10000000E+01 Hartree
           etotal     -4.7176952740E+01
            fcart      0.0000000000E+00  0.0000000000E+00  0.0000000000E+00
                       0.0000000000E+00  0.0000000000E+00  0.0000000000E+00
                       0.0000000000E+00  0.0000000000E+00  0.0000000000E+00
                       0.0000000000E+00  0.0000000000E+00  0.0000000000E+00
-          fftalg         512
           irdden           1
           irdwfk           1
           istwfk        1    1
              ixc     -116133
              kpt      0.00000000E+00  0.00000000E+00  0.00000000E+00
                       5.00000000E-01  0.00000000E+00  2.77555756E-17
           kptopt           0
P           mkmem           2
P          mkqmem           2
P          mk1mem           2
            natom           4
            nband          26
           nbdbuf           4
            ngfft          64      64      64
             nkpt           2
            nstep         100
             nsym          12
           ntypat           3
              occ      2.000000  2.000000  2.000000  2.000000  2.000000  2.000000
                       2.000000  2.000000  2.000000  2.000000  2.000000  2.000000
                       2.000000  2.000000  2.000000  2.000000  2.000000  0.000000
                       0.000000  0.000000  0.000000  0.000000  0.000000  0.000000
                       0.000000  0.000000
        optdriver           1
            prtwf          -1
            rfdir           1       1       1
           rfelfd           2
            rprim      6.2753669863E+00  0.0000000000E+00  7.6899149133E+00
                       2.7394819416E+00  5.6458364752E+00  7.6899149133E+00
                       0.0000000000E+00  0.0000000000E+00  9.9254733987E+00
          spgroup         166
           strten      0.0000000000E+00  0.0000000000E+00  0.0000000000E+00
                       0.0000000000E+00  0.0000000000E+00  0.0000000000E+00
           symrel      1  0  0   0  1  0   0  0  1      -1  0  0   0 -1  0   0  0 -1
                       0  1  0   1  0  0   0  0  1       0 -1  0  -1  0  0   0  0 -1
                       0  0  1   1  0  0   0  1  0       0  0 -1  -1  0  0   0 -1  0
                       1  0  0   0  0  1   0  1  0      -1  0  0   0  0 -1   0 -1  0
                       0  1  0   0  0  1   1  0  0       0 -1  0   0  0 -1  -1  0  0
                       0  0  1   0  1  0   1  0  0       0  0 -1   0 -1  0  -1  0  0
           tolwfr      1.00000000E-20
            typat      1  2  3  3
           useylm           1
              wtk        0.50000    0.50000
           xangst      0.0000000000E+00  0.0000000000E+00  0.0000000000E+00
                       2.3852262958E+00  1.4938239931E+00  6.6954948616E+00
                       2.7909771409E+00  1.7479383925E+00  7.8344654926E+00
                       1.9794754506E+00  1.2397095936E+00  5.5565242307E+00
            xcart      0.0000000000E+00  0.0000000000E+00  0.0000000000E+00
                       4.5074244639E+00  2.8229182376E+00  1.2652651613E+01
                       5.2741824395E+00  3.3031248590E+00  1.4804994178E+01
                       3.7406664884E+00  2.3427116162E+00  1.0500309047E+01
             xred      0.0000000000E+00  0.0000000000E+00  0.0000000000E+00
                       5.0000000000E-01  5.0000000000E-01  5.0000000000E-01
                       5.8505500000E-01  5.8505500000E-01  5.8505500000E-01
                       4.1494500000E-01  4.1494500000E-01  4.1494500000E-01
            znucl       48.00000    6.00000    7.00000

- Timing analysis has been suppressed with timopt=0

 Suggested references for the acknowledgment of ABINIT usage.

 Calculation completed.
.Delivered  14 WARNINGs and   9 COMMENTs to log file.