.Version 9.7.2 of ABINIT

 ABINIT is a project of the Universite Catholique de Louvain,
 Corning Inc. and other collaborators, see ~abinit/doc/developers/contributors.txt .
 acknowledgments of the ABINIT effort.

.Starting date : Wed  1 Dec 2021.
- ( at 21h47 )

- input  file    -> /scratch/users/j/a/jabreu/flow_simple_remain_atoms/flow/w250/t1/run.abi
- output file    -> /scratch/users/j/a/jabreu/flow_simple_remain_atoms/flow/w250/t1/run.abo
- root for input  files -> /scratch/users/j/a/jabreu/flow_simple_remain_atoms/flow/w250/t1/indata/in
- root for output files -> /scratch/users/j/a/jabreu/flow_simple_remain_atoms/flow/w250/t1/outdata/out

 Symmetries : space group Pn n m (# 58); Bravais oP (primitive ortho.)
     intxc =       0      iscf =       7    lmnmax =      18     lnmax =       6
     mgfft =      64  mpssoang =       3    mqgrid =    3110     natom =       6
  nloc_mem =       1    nspden =       1   nspinor =       1    nsppol =       1
      nsym =       8    n1xccc =    2501    ntypat =       2    occopt =       1
   xclevel =       2
-    mband =          37        mffmem =           1         mkmem =           2
-   mkqmem =           2        mk1mem =           2           mpw =        8132
      nfft =      138240          nkpt =           2
  Rough estimation (10% accuracy) of disk space for files :

------------- Echo of variables that govern the present computation ------------
-
- outvars: echo of selected default values
-   iomode0 =  0 , fftalg0 =512 , wfoptalg0 =  0
-
- outvars: echo of global parameters not present in the input file
-  max_nthreads =    0
-
 -outvars: echo values of preprocessed input variables --------
            acell      1.0000000000E+00  1.0000000000E+00  1.0000000000E+00 Bohr
              amu      5.58470000E+01  3.20660000E+01
             ecut      4.70000000E+01 Hartree
-          fftalg         512
           irdden           1
           irdwfk           1
           istwfk        0    1
              ixc     -116133
              kpt      0.00000000E+00  4.09090909E-01  0.00000000E+00
                       5.00000000E-01  0.00000000E+00  5.00000000E-01
           kptopt           0
P           mkmem           2
P          mkqmem           2
P          mk1mem           2
            natom           6
            nband          37
           nbdbuf           4
            ngfft          40      54      64
             nkpt           2
            nstep        2000
             nsym           8
           ntypat           2
              occ      2.000000  2.000000  2.000000  2.000000  2.000000  2.000000
                       2.000000  2.000000  2.000000  2.000000  2.000000  2.000000
                       2.000000  2.000000  2.000000  2.000000  2.000000  2.000000
                       2.000000  2.000000  2.000000  2.000000  2.000000  2.000000
                       2.000000  2.000000  2.000000  2.000000  0.000000  0.000000
                       0.000000  0.000000  0.000000  0.000000  0.000000  0.000000
                       0.000000
        optdriver           1
            prtwf          -1
            rfdir           1       1       1
           rfelfd           2
            rprim      6.3182606528E+00  0.0000000000E+00  0.0000000000E+00
                       0.0000000000E+00  8.2509714516E+00  0.0000000000E+00
                       0.0000000000E+00  0.0000000000E+00  1.0074238044E+01
          spgroup          58
           symrel      1  0  0   0  1  0   0  0  1      -1  0  0   0 -1  0   0  0 -1
                      -1  0  0   0  1  0   0  0 -1       1  0  0   0 -1  0   0  0  1
                      -1  0  0   0 -1  0   0  0  1       1  0  0   0  1  0   0  0 -1
                       1  0  0   0 -1  0   0  0 -1      -1  0  0   0  1  0   0  0  1
            tnons      0.0000000  0.0000000  0.0000000     0.0000000  0.0000000  0.0000000
                       0.5000000  0.5000000  0.5000000     0.5000000  0.5000000  0.5000000
                       0.5000000  0.5000000  0.5000000     0.5000000  0.5000000  0.5000000
                       0.0000000  0.0000000  0.0000000     0.0000000  0.0000000  0.0000000
           tolwfr      1.00000000E-20
            typat      1  1  2  2  2  2
           useylm           1
              wtk        0.50000    0.50000
           xangst      1.6717397677E+00  2.1831130205E+00  0.0000000000E+00
                       0.0000000000E+00  0.0000000000E+00  2.6655285833E+00
                       1.6717397677E+00  1.2764268870E+00  1.9945297420E+00
                       1.6717397677E+00  3.0897991539E+00  3.3365274247E+00
                       0.0000000000E+00  9.0668613343E-01  4.6600583253E+00
                       0.0000000000E+00  3.4595399075E+00  6.7099884134E-01
            xcart      3.1591303264E+00  4.1254857258E+00  0.0000000000E+00
                       0.0000000000E+00  0.0000000000E+00  5.0371190219E+00
                       3.1591303264E+00  2.4120972451E+00  3.7691149763E+00
                       3.1591303264E+00  5.8388742065E+00  6.3051230675E+00
                       0.0000000000E+00  1.7133884807E+00  8.8062339982E+00
                       0.0000000000E+00  6.5375829709E+00  1.2680040456E+00
             xred      5.0000000000E-01  5.0000000000E-01  0.0000000000E+00
                       0.0000000000E+00  0.0000000000E+00  5.0000000000E-01
                       5.0000000000E-01  2.9234100000E-01  3.7413400000E-01
                       5.0000000000E-01  7.0765900000E-01  6.2586600000E-01
                       0.0000000000E+00  2.0765900000E-01  8.7413400000E-01
                       0.0000000000E+00  7.9234100000E-01  1.2586600000E-01
            znucl       26.00000   16.00000

 chkinp: Checking input parameters for consistency.

== DATASET  1 ==================================================================
-   mpi_nproc: 1, omp_nthreads: -1 (-1 if OMP is not activated)

--- !DatasetInfo
iteration_state: {dtset: 1, }
dimensions: {natom: 6, nkpt: 2, mband: 37, nsppol: 1, nspinor: 1, nspden: 1, mpw: 8132, }
cutoff_energies: {ecut:  47.0, pawecutdg:  -1.0, }
electrons: {nelect:   5.60000000E+01, charge:   0.00000000E+00, occopt:   1.00000000E+00, tsmear:   1.00000000E-02, }
meta: {optdriver: 1, rfelfd: 2, }
...

 Real(R)+Recip(G) space primitive vectors, cartesian coordinates (Bohr,Bohr^-1):
 R(1)=  6.3182607  0.0000000  0.0000000  G(1)=  0.1582714  0.0000000  0.0000000
 R(2)=  0.0000000  8.2509715  0.0000000  G(2)=  0.0000000  0.1211979  0.0000000
 R(3)=  0.0000000  0.0000000 10.0742380  G(3)=  0.0000000  0.0000000  0.0992631
 Unit cell volume ucvol=  5.2518804E+02 bohr^3
 Angles (23,13,12)=  9.00000000E+01  9.00000000E+01  9.00000000E+01 degrees

 getcut: wavevector=  0.0000  0.0000  0.0000  ngfft=  40  54  64
         ecut(hartree)=     47.000   => boxcut(ratio)=   2.05139

--- Pseudopotential description ------------------------------------------------
- pspini: atom type   1  psp file is /scratch/users/j/a/jabreu/pseudos/PBEsol/Fe.psp8
- pspatm: opening atomic psp file    /scratch/users/j/a/jabreu/pseudos/PBEsol/Fe.psp8
- Fe    ONCVPSP-3.3.0  r_core=   1.26437   1.20546   1.56719
- 26.00000  16.00000    180112                znucl, zion, pspdat
    8 -116133    2    4       600   0.00000   pspcod,pspxc,lmax,lloc,mmax,r2well
    5.99000000000000    3.00000000000000    0.00000000000000   rchrg,fchrg,qchrg
     nproj     2     2     2
     extension_switch     1
  pspatm : epsatm=   15.04792780
         --- l  ekb(1:nproj) -->
             0   10.133364    1.456638
             1    1.580231   -0.508538
             2   -5.545701   -2.037616
 pspatm: atomic psp has been read  and splines computed

- pspini: atom type   2  psp file is /scratch/users/j/a/jabreu/pseudos/PBEsol/S.psp8
- pspatm: opening atomic psp file    /scratch/users/j/a/jabreu/pseudos/PBEsol/S.psp8
- S     ONCVPSP-3.3.0  r_core=   1.45376   1.45376   1.61851
- 16.00000   6.00000    180112                znucl, zion, pspdat
    8 -116133    2    4       600   0.00000   pspcod,pspxc,lmax,lloc,mmax,r2well
    5.99000000000000    6.00000000000000    0.00000000000000   rchrg,fchrg,qchrg
     nproj     2     2     2
     extension_switch     1
  pspatm : epsatm=    8.71840985
         --- l  ekb(1:nproj) -->
             0    6.834532    0.579453
             1    3.282851    0.896984
             2   -3.496974   -0.974265
 pspatm: atomic psp has been read  and splines computed

   3.63829172E+03                                ecore*ucvol(ha*bohr**3)

 ==>  initialize data related to q vector <==

 The list of irreducible perturbations for this q vector is:
    1)    idir= 1    ipert=   7
    2)    idir= 2    ipert=   7
    3)    idir= 3    ipert=   7

 Perturbation wavevector (in red.coord.)   0.000000  0.000000  0.000000
 Perturbation : derivative vs k along direction   1

 dfpt_looppert : COMMENT -
  In a d/dk calculation, iscf is set to -3 automatically.
 The set of symmetries contains only one element for this perturbation.
 symkpt : not enough symmetry to change the number of k points.

 Initialisation of the first-order wave-functions :
  ireadwf=   0

--- !BeginCycle
iteration_state: {dtset: 1, }
solver: {iscf: 7, nstep: 2000, nline: 4, wfoptalg: 0, }
tolerances: {tolwfr: 1.00E-20, }
...

     iter   2DEtotal(Ha)        deltaE(Ha) residm    vres2
-ETOT  1  -55.507601893299     -5.551E+01 5.125E-01 0.000E+00
 ETOT  2  -55.687680743737     -1.801E-01 9.217E-03 0.000E+00
 ETOT  3  -55.692300579176     -4.620E-03 5.149E-04 0.000E+00
 ETOT  4  -55.692465562250     -1.650E-04 4.690E-05 0.000E+00
 ETOT  5  -55.692472232256     -6.670E-06 2.885E-06 0.000E+00
 ETOT  6  -55.692472519899     -2.876E-07 4.061E-07 0.000E+00
 ETOT  7  -55.692472532959     -1.306E-08 2.532E-08 0.000E+00
 ETOT  8  -55.692472533576     -6.169E-10 3.985E-09 0.000E+00
 ETOT  9  -55.692472533606     -3.025E-11 2.489E-10 0.000E+00
 ETOT 10  -55.692472533607     -1.492E-12 4.038E-11 0.000E+00
 ETOT 11  -55.692472533608     -1.279E-13 2.539E-12 0.000E+00
 ETOT 12  -55.692472533608      2.842E-14 4.195E-13 0.000E+00
 ETOT 13  -55.692472533608     -8.527E-14 2.652E-14 0.000E+00
 ETOT 14  -55.692472533608      3.553E-14 4.434E-15 0.000E+00
 ETOT 15  -55.692472533608      7.105E-15 2.814E-16 0.000E+00
 ETOT 16  -55.692472533608      7.105E-15 4.745E-17 0.000E+00
 ETOT 17  -55.692472533608      0.000E+00 3.019E-18 0.000E+00
 ETOT 18  -55.692472533608     -7.105E-15 5.120E-19 0.000E+00
 ETOT 19  -55.692472533608      0.000E+00 3.264E-20 0.000E+00
 ETOT 20  -55.692472533608      0.000E+00 9.949E-21 0.000E+00

 At SCF step   20   max residual=  9.95E-21 < tolwfr=  1.00E-20 =>converged.

 ----iterations are completed or convergence reached----

 dfpt_looppert: DFPT cycle converged with prtwf=-1. Will skip output of the 1st-order WFK file.
 dfpt_looppert : ek2=    1.1075993261E+02
          f-sum rule ratio=    1.0346810034E+00
 prteigrs : about to open file /scratch/users/j/a/jabreu/flow_simple_remain_atoms/flow/w250/t1/tmpdata/tmp_1WF1_EIG
 Expectation of eigenvalue derivatives (hartree) for nkpt=   2  k points:
  (in case of degenerate eigenvalues, averaged derivative)
 kpt#   1, nband= 37, wtk=  0.50000, kpt=  0.0000  0.4091  0.0000 (reduced coord)
  -0.00000   -0.00000    0.00000    0.00000    0.00000   -0.00000   -0.00000    0.00000
  -0.00000   -0.00000   -0.00000    0.00000   -0.00000    0.00000    0.00000   -0.00000
   0.00000   -0.00000   -0.00000   -0.00000    0.00000    0.00000    0.00000    0.00000
   0.00000    0.00000   -0.00000   -0.00000    0.00000   -0.00000   -0.00000    0.00000
  -0.00000    0.00000    0.00000    0.00000   -0.00000
 prteigrs : prtvol=0 or 1, do not print more k-points.

 Eight components of 2nd-order total energy (hartree) are
 1,2,3: 0th-order hamiltonian combined with 1st-order wavefunctions
     kin0=   8.31803107E+01 eigvalue=  -8.23901561E+00  local=  -3.83622456E+01
 4,5,6: 1st-order hamiltonian combined with 1st and 0th-order wfs
     kin1=  -1.14601198E+02  Hartree=   0.00000000E+00     xc=   0.00000000E+00
 7,8,9: eventually, occupation + non-local contributions
    edocc=   2.00561439E+01     enl0=  -9.42720982E-01   enl1=   3.21625315E+00
 1-9 gives the relaxation energy (to be shifted if some occ is /=2.0)
   erelax=  -5.56924725E+01
  No Ewald or frozen-wf contrib.: the relaxation energy is the total one
 2DEtotal=   -0.5569247253E+02 Ha. Also 2DEtotal=   -0.151546924822E+04 eV
    (  non-var. 2DEtotal :   -5.5692472533E+01 Ha)

 Perturbation wavevector (in red.coord.)   0.000000  0.000000  0.000000
 Perturbation : derivative vs k along direction   2
 The set of symmetries contains only one element for this perturbation.
 symkpt : not enough symmetry to change the number of k points.

[...]

 Perturbation wavevector (in red.coord.)   0.000000  0.000000  0.000000
 Perturbation : derivative vs k along direction   3
 The set of symmetries contains only one element for this perturbation.
 symkpt : not enough symmetry to change the number of k points.

 Initialisation of the first-order wave-functions :
  ireadwf=   0

--- !BeginCycle
iteration_state: {dtset: 1, }
solver: {iscf: 7, nstep: 2000, nline: 4, wfoptalg: 0, }
tolerances: {tolwfr: 1.00E-20, }
...

     iter   2DEtotal(Ha)        deltaE(Ha) residm    vres2
-ETOT  1  -22.076546831251     -2.208E+01 1.873E-01 0.000E+00
 ETOT  2  -22.141495325250     -6.495E-02 3.896E-03 0.000E+00
 ETOT  3  -22.142646442778     -1.151E-03 4.760E-04 0.000E+00
 ETOT  4  -22.142677162588     -3.072E-05 2.449E-05 0.000E+00
 ETOT  5  -22.142678226629     -1.064E-06 3.654E-06 0.000E+00
 ETOT  6  -22.142678268024     -4.140E-08 2.366E-07 0.000E+00
 ETOT  7  -22.142678269763     -1.738E-09 3.627E-08 0.000E+00
 ETOT  8  -22.142678269839     -7.647E-11 2.479E-09 0.000E+00
 ETOT  9  -22.142678269843     -3.510E-12 3.840E-10 0.000E+00
 ETOT 10  -22.142678269843     -1.599E-13 2.741E-11 0.000E+00
 ETOT 11  -22.142678269843      0.000E+00 4.246E-12 0.000E+00
 ETOT 12  -22.142678269843      1.421E-14 3.131E-13 0.000E+00
 ETOT 13  -22.142678269843     -1.066E-14 4.819E-14 0.000E+00
 ETOT 14  -22.142678269843     -3.553E-15 3.656E-15 0.000E+00
 ETOT 15  -22.142678269843      3.553E-15 5.571E-16 0.000E+00
 ETOT 16  -22.142678269843      1.066E-14 4.337E-17 0.000E+00
 ETOT 17  -22.142678269843     -1.421E-14 6.539E-18 0.000E+00
 ETOT 18  -22.142678269843      1.066E-14 5.209E-19 0.000E+00
 ETOT 19  -22.142678269843      0.000E+00 7.779E-20 0.000E+00
 ETOT 20  -22.142678269843     -7.105E-15 9.968E-21 0.000E+00

 At SCF step   20   max residual=  9.97E-21 < tolwfr=  1.00E-20 =>converged.

 ----iterations are completed or convergence reached----

 dfpt_looppert: DFPT cycle converged with prtwf=-1. Will skip output of the 1st-order WFK file.
 dfpt_looppert : ek2=    4.3566567292E+01
          f-sum rule ratio=    1.0446475269E+00
 prteigrs : about to open file /scratch/users/j/a/jabreu/flow_simple_remain_atoms/flow/w250/t1/tmpdata/tmp_1WF1_EIG
 Expectation of eigenvalue derivatives (hartree) for nkpt=   2  k points:
  (in case of degenerate eigenvalues, averaged derivative)
 kpt#   1, nband= 37, wtk=  0.50000, kpt=  0.0000  0.4091  0.0000 (reduced coord)
  -0.00000   -0.00000    0.00000   -0.00000   -0.00000   -0.00000    0.00000    0.00000
   0.00000   -0.00000   -0.00000   -0.00000    0.00000    0.00000    0.00000   -0.00000
  -0.00000    0.00000   -0.00000   -0.00000    0.00000    0.00000   -0.00000    0.00000
   0.00000   -0.00000   -0.00000    0.00000    0.00000   -0.00000   -0.00000    0.00000
   0.00000   -0.00000    0.00000   -0.00000   -0.00009
 prteigrs : prtvol=0 or 1, do not print more k-points.

 Eight components of 2nd-order total energy (hartree) are
 1,2,3: 0th-order hamiltonian combined with 1st-order wavefunctions
     kin0=   2.95914518E+01 eigvalue=  -3.10306094E+00  local=  -1.28489249E+01
 4,5,6: 1st-order hamiltonian combined with 1st and 0th-order wfs
     kin1=  -4.55117068E+01  Hartree=   0.00000000E+00     xc=   0.00000000E+00
 7,8,9: eventually, occupation + non-local contributions
    edocc=   8.58768167E+00     enl0=  -8.44693247E-02   enl1=   1.22635024E+00
 1-9 gives the relaxation energy (to be shifted if some occ is /=2.0)
   erelax=  -2.21426783E+01
  No Ewald or frozen-wf contrib.: the relaxation energy is the total one
 2DEtotal=   -0.2214267827E+02 Ha. Also 2DEtotal=   -0.602532918089E+03 eV
    (  non-var. 2DEtotal :   -2.2142678270E+01 Ha)

 CALCULATION OF EFFECTIVE MASSES
 NOTE : Additional infos (eff. mass eigenvalues, eigenvectors and, if degenerate, average mass) are available in stdout.

--- !WARNING
src_file: m_efmas.F90
src_line: 0
message: |
    Effective masses calculations require given k-point(s) to be band extrema for given bands, but max abs gradient of band(s) was found to be greater than 1e-5. Abinit will continue anyway.
...

--- !WARNING
src_file: m_efmas.F90
src_line: 0
message: |
    Effective masses calculations require given k-point(s) to be band extrema for given bands, but max abs gradient of band(s) was found to be greater than 1e-5. Abinit will continue anyway.
...

 K-point ( 0.000, 0.409, 0.000) | band =    28
 Effective mass tensor:
             -3.2446616012             -0.0000000014             -0.0000000237
             -0.0000000014             -0.3651916058              0.0000000000
             -0.0000000237              0.0000000000             -1.3382655456
 Effective mass tensor eigenvalues:
             -3.2446616012             -1.3382655456             -0.3651916058
 Angular average effective mass 1/(<1/m>)=  -0.7907799329
 Angular average effective mass for Frohlich model (<m**0.5>)**2=  -0.9960265761
 Effective masses along directions: (cart. coord. / red. coord. -> eff. mass)
    1:   1.000000  0.000000  0.000000 /   1.000000  0.000000  0.000000 ->  -3.2446616012
    2:   0.000000  1.000000  0.000000 /   0.000000  1.000000  0.000000 ->  -0.3651916058
    3:   0.000000  0.000000  1.000000 /   0.000000  0.000000  1.000000 ->  -1.3382655456
    4:   0.577350  0.577350  0.577350 /   0.436533  0.570065  0.696035 ->  -0.7907799357
    5:   0.000000  0.707107  0.707107 /   0.000000  0.633625  0.773641 ->  -0.5738017457
    6:   0.707107  0.000000  0.707107 /   0.531320  0.000000  0.847171 ->  -1.8949543529
    7:   0.707107  0.707107  0.000000 /   0.607978  0.793954  0.000000 ->  -0.6564938314

 COMMENTS:
 - At k-point ( 0.500, 0.000, 0.500), bands    29 through    30
   are DEGENERATE (effective mass tensor is therefore not defined).
   See Section IIIB Eqs. (67)-(70) and Appendix E of PRB 93 205147 (2016).
 - Angular average effective mass for Frohlich model is to be averaged over degenerate bands. See later.
 - Associated theta integrals calculated with ntheta=   1000 points.

 K-point ( 0.500, 0.000, 0.500) | band =    29
 Transport equivalent effective mass tensor:
             14.2760585846             -0.0000002219             -0.0000042923
             -0.0000002219              8.7464385527              0.0000018120
             -0.0000042923              0.0000018120              5.9356739582
 Transport equivalent effective mass tensor eigenvalues:
             14.2760585846              8.7464385527              5.9356739582
 Angular average effective mass 1/(<1/m>)=   2.8141303727
 Angular average effective mass for Frohlich model (<m**0.5>)**2=   3.1563027502
 Effective masses along directions: (cart. coord. / red. coord. -> eff. mass)
    1:   1.000000  0.000000  0.000000 /   1.000000  0.000000  0.000000 ->   2.3968962326
    2:   0.000000  1.000000  0.000000 /   0.000000  1.000000  0.000000 ->   1.3501987446
    3:   0.000000  0.000000  1.000000 /   0.000000  0.000000  1.000000 ->   1.0796213284
    4:   0.577350  0.577350  0.577350 /   0.436533  0.570065  0.696035 ->   4.9479078982
    5:   0.000000  0.707107  0.707107 /   0.000000  0.633625  0.773641 ->   5.8683457626
    6:   0.707107  0.000000  0.707107 /   0.531320  0.000000  0.847171 ->   2.8932168012
    7:   0.707107  0.707107  0.000000 /   0.607978  0.793954  0.000000 ->   1.7273576339

 K-point ( 0.500, 0.000, 0.500) | band =    30
 Transport equivalent effective mass tensor:
              2.6756949643             -0.0000003551             -0.0000000851
             -0.0000003551              1.2633090992             -0.0000000512
             -0.0000000851             -0.0000000512              0.6983794696
 Transport equivalent effective mass tensor eigenvalues:
              2.6756949643              1.2633090992              0.6983794696
 Angular average effective mass 1/(<1/m>)=   0.9670776816
 Angular average effective mass for Frohlich model (<m**0.5>)**2=   1.0290318149
 Effective masses along directions: (cart. coord. / red. coord. -> eff. mass)
    1:   1.000000  0.000000  0.000000 /   1.000000  0.000000  0.000000 ->   2.3968943833
    2:   0.000000  1.000000  0.000000 /   0.000000  1.000000  0.000000 ->   1.3501987020
    3:   0.000000  0.000000  1.000000 /   0.000000  0.000000  1.000000 ->   1.0796208434
    4:   0.577350  0.577350  0.577350 /   0.436533  0.570065  0.696035 ->   0.8422561420
    5:   0.000000  0.707107  0.707107 /   0.000000  0.633625  0.773641 ->   0.6682362045
    6:   0.707107  0.000000  0.707107 /   0.531320  0.000000  0.847171 ->   1.0021832463
    7:   0.707107  0.707107  0.000000 /   0.607978  0.793954  0.000000 ->   1.7273565771

 Angular average effective mass for Frohlich model, averaged over degenerate bands.
 Value of     (<<m**0.5>>)**2 =     1.947435E+00
 Absolute Value of <<m**0.5>> =     1.395505E+00

 END OF EFFECTIVE MASSES SECTION

 ---- first-order wavefunction calculations are completed ----

 Total localisation tensor (bohr^2) in cartesian coordinates
  WARNING : still subject to testing - especially symmetries.
      direction              matrix element
   alpha     beta       real part   imaginary part
     1        1       1.0996981089    0.0000000000
     1        2       0.0000000000    0.0000000000
     1        3       0.0000000000    0.0000000000
     2        1       0.0000000000    0.0000000000
     2        2       1.4028538664    0.0000000000
     2        3       0.0000000000    0.0000000000
     3        1       0.0000000000    0.0000000000
     3        2       0.0000000000    0.0000000000
     3        3       1.2711256050    0.0000000000

 respfn : d/dk was computed, but no 2DTE, so no DDB output.

== END DATASET(S) ==============================================================

 -outvars: echo values of variables after computation  --------
            acell      1.0000000000E+00  1.0000000000E+00  1.0000000000E+00 Bohr
              amu      5.58470000E+01  3.20660000E+01
             ecut      4.70000000E+01 Hartree
           etotal     -2.2142678270E+01
            fcart      0.0000000000E+00  0.0000000000E+00  0.0000000000E+00
                       0.0000000000E+00  0.0000000000E+00  0.0000000000E+00
                       0.0000000000E+00  0.0000000000E+00  0.0000000000E+00
                       0.0000000000E+00  0.0000000000E+00  0.0000000000E+00
                       0.0000000000E+00  0.0000000000E+00  0.0000000000E+00
                       0.0000000000E+00  0.0000000000E+00  0.0000000000E+00
-          fftalg         512
           irdden           1
           irdwfk           1
           istwfk        0    1
              ixc     -116133
              kpt      0.00000000E+00  4.09090909E-01  0.00000000E+00
                       5.00000000E-01  0.00000000E+00  5.00000000E-01
           kptopt           0
P           mkmem           2
P          mkqmem           2
P          mk1mem           2
            natom           6
            nband          37
           nbdbuf           4
            ngfft          40      54      64
             nkpt           2
            nstep        2000
             nsym           8
           ntypat           2
              occ      2.000000  2.000000  2.000000  2.000000  2.000000  2.000000
                       2.000000  2.000000  2.000000  2.000000  2.000000  2.000000
                       2.000000  2.000000  2.000000  2.000000  2.000000  2.000000
                       2.000000  2.000000  2.000000  2.000000  2.000000  2.000000
                       2.000000  2.000000  2.000000  2.000000  0.000000  0.000000
                       0.000000  0.000000  0.000000  0.000000  0.000000  0.000000
                       0.000000
        optdriver           1
            prtwf          -1
            rfdir           1       1       1
           rfelfd           2
            rprim      6.3182606528E+00  0.0000000000E+00  0.0000000000E+00
                       0.0000000000E+00  8.2509714516E+00  0.0000000000E+00
                       0.0000000000E+00  0.0000000000E+00  1.0074238044E+01
          spgroup          58
           strten      0.0000000000E+00  0.0000000000E+00  0.0000000000E+00
                       0.0000000000E+00  0.0000000000E+00  0.0000000000E+00
           symrel      1  0  0   0  1  0   0  0  1      -1  0  0   0 -1  0   0  0 -1
                      -1  0  0   0  1  0   0  0 -1       1  0  0   0 -1  0   0  0  1
                      -1  0  0   0 -1  0   0  0  1       1  0  0   0  1  0   0  0 -1
                       1  0  0   0 -1  0   0  0 -1      -1  0  0   0  1  0   0  0  1
            tnons      0.0000000  0.0000000  0.0000000     0.0000000  0.0000000  0.0000000
                       0.5000000  0.5000000  0.5000000     0.5000000  0.5000000  0.5000000
                       0.5000000  0.5000000  0.5000000     0.5000000  0.5000000  0.5000000
                       0.0000000  0.0000000  0.0000000     0.0000000  0.0000000  0.0000000
           tolwfr      1.00000000E-20
            typat      1  1  2  2  2  2
           useylm           1
              wtk        0.50000    0.50000
           xangst      1.6717397677E+00  2.1831130205E+00  0.0000000000E+00
                       0.0000000000E+00  0.0000000000E+00  2.6655285833E+00
                       1.6717397677E+00  1.2764268870E+00  1.9945297420E+00
                       1.6717397677E+00  3.0897991539E+00  3.3365274247E+00
                       0.0000000000E+00  9.0668613343E-01  4.6600583253E+00
                       0.0000000000E+00  3.4595399075E+00  6.7099884134E-01
            xcart      3.1591303264E+00  4.1254857258E+00  0.0000000000E+00
                       0.0000000000E+00  0.0000000000E+00  5.0371190219E+00
                       3.1591303264E+00  2.4120972451E+00  3.7691149763E+00
                       3.1591303264E+00  5.8388742065E+00  6.3051230675E+00
                       0.0000000000E+00  1.7133884807E+00  8.8062339982E+00
                       0.0000000000E+00  6.5375829709E+00  1.2680040456E+00
             xred      5.0000000000E-01  5.0000000000E-01  0.0000000000E+00
                       0.0000000000E+00  0.0000000000E+00  5.0000000000E-01
                       5.0000000000E-01  2.9234100000E-01  3.7413400000E-01
                       5.0000000000E-01  7.0765900000E-01  6.2586600000E-01
                       0.0000000000E+00  2.0765900000E-01  8.7413400000E-01
                       0.0000000000E+00  7.9234100000E-01  1.2586600000E-01
            znucl       26.00000   16.00000

- Timing analysis has been suppressed with timopt=0

 Suggested references for the acknowledgment of ABINIT usage.

 Calculation completed.
.Delivered   6 WARNINGs and   5 COMMENTs to log file.