.Version 9.5.1 of ABINIT

 ABINIT is a project of the Universite Catholique de Louvain,
 Corning Inc. and other collaborators, see ~abinit/doc/developers/contributors.txt .
 acknowledgments of the ABINIT effort.

.Starting date : Sun 25 Apr 2021.
- ( at 17h18 )

- input  file    -> /scratch/users/j/a/jabreu/flow_simple2/flow/w176/t1/run.abi
- output file    -> /scratch/users/j/a/jabreu/flow_simple2/flow/w176/t1/run.abo
- root for input  files -> /scratch/users/j/a/jabreu/flow_simple2/flow/w176/t1/indata/in
- root for output files -> /scratch/users/j/a/jabreu/flow_simple2/flow/w176/t1/outdata/out

 Symmetries : space group F-4 3 m (#216); Bravais cF (face-center cubic)
     intxc =       0      iscf =       7    lmnmax =      18     lnmax =       6
     mgfft =      45  mpssoang =       3    mqgrid =    3001     natom =       2
  nloc_mem =       1    nspden =       1   nspinor =       1    nsppol =       1
      nsym =      24    n1xccc =    2501    ntypat =       2    occopt =       1
   xclevel =       2
-    mband =          17        mffmem =           1         mkmem =           2
-   mkqmem =           2        mk1mem =           2           mpw =        3156
      nfft =       91125          nkpt =           2
  Rough estimation (10% accuracy) of disk space for files :

------------- Echo of variables that govern the present computation ------------
-
- outvars: echo of selected default values
-   iomode0 =  0 , fftalg0 =512 , wfoptalg0 =  0
-
- outvars: echo of global parameters not present in the input file
-  max_nthreads =    0
-
 -outvars: echo values of preprocessed input variables --------
            acell      1.0000000000E+00  1.0000000000E+00  1.0000000000E+00 Bohr
              amu      8.89058500E+01  1.40067400E+01
             ecut      4.20000000E+01 Hartree
-          fftalg         512
           irdden           1
           irdwfk           1
           istwfk        0    1
              ixc     -116133
              kpt      5.00000000E-01  2.50000000E-01  7.50000000E-01
                       0.00000000E+00  0.00000000E+00  0.00000000E+00
           kptopt           0
P           mkmem           2
P          mkqmem           2
P          mk1mem           2
            natom           2
            nband          17
           nbdbuf           4
            ngfft          45      45      45
             nkpt           2
            nstep         100
             nsym          24
           ntypat           2
              occ      2.000000  2.000000  2.000000  2.000000  2.000000  2.000000
                       2.000000  2.000000  0.000000  0.000000  0.000000  0.000000
                       0.000000  0.000000  0.000000  0.000000  0.000000
        optdriver           1
            prtwf          -1
            rfdir           1       1       1
           rfelfd           2
            rprim      6.0481531483E+00  0.0000000000E+00  3.4919028483E+00
                       2.0160510494E+00  5.7022534731E+00  3.4919028483E+00
                       0.0000000000E+00  0.0000000000E+00  6.9838056966E+00
          spgroup         216
           symrel      1  0  0   0  1  0   0  0  1       0 -1  1   0 -1  0   1 -1  0
                      -1  0  0  -1  0  1  -1  1  0       0  1 -1   1  0 -1   0  0 -1
                      -1  0  0  -1  1  0  -1  0  1       0 -1  1   1 -1  0   0 -1  0
                       1  0  0   0  0  1   0  1  0       0  1 -1   0  0 -1   1  0 -1
                      -1  0  1  -1  1  0  -1  0  0       0 -1  0   1 -1  0   0 -1  1
                       1  0 -1   0  0 -1   0  1 -1       0  1  0   0  0  1   1  0  0
                       1  0 -1   0  1 -1   0  0 -1       0 -1  0   0 -1  1   1 -1  0
                      -1  0  1  -1  0  0  -1  1  0       0  1  0   1  0  0   0  0  1
                       0  0 -1   0  1 -1   1  0 -1       1 -1  0   0 -1  1   0 -1  0
                       0  0  1   1  0  0   0  1  0      -1  1  0  -1  0  0  -1  0  1
                       0  0  1   0  1  0   1  0  0       1 -1  0   0 -1  0   0 -1  1
                       0  0 -1   1  0 -1   0  1 -1      -1  1  0  -1  0  1  -1  0  0
           tolwfr      1.00000000E-20
            typat      1  2
           useylm           1
              wtk        0.50000    0.50000
           xangst      0.0000000000E+00  0.0000000000E+00  0.0000000000E+00
                       3.2005448001E+00  2.2631269317E+00  5.5435062058E+00
            xcart      0.0000000000E+00  0.0000000000E+00  0.0000000000E+00
                       6.0481531483E+00  4.2766901048E+00  1.0475708545E+01
             xred      0.0000000000E+00  0.0000000000E+00  0.0000000000E+00
                       7.5000000000E-01  7.5000000000E-01  7.5000000000E-01
            znucl       39.00000    7.00000

 chkinp: Checking input parameters for consistency.

== DATASET  1 ==================================================================
-   mpi_nproc: 1, omp_nthreads: -1 (-1 if OMP is not activated)

--- !DatasetInfo
iteration_state: {dtset: 1, }
dimensions: {natom: 2, nkpt: 2, mband: 17, nsppol: 1, nspinor: 1, nspden: 1, mpw: 3156, }
cutoff_energies: {ecut:  42.0, pawecutdg:  -1.0, }
electrons: {nelect:   1.60000000E+01, charge:   0.00000000E+00, occopt:   1.00000000E+00, tsmear:   1.00000000E-02, }
meta: {optdriver: 1, rfelfd: 2, }
...

 Real(R)+Recip(G) space primitive vectors, cartesian coordinates (Bohr,Bohr^-1):
 R(1)=  6.0481531  0.0000000  3.4919028  G(1)=  0.1653397 -0.0584564  0.0000000
 R(2)=  2.0160510  5.7022535  3.4919028  G(2)=  0.0000000  0.1753693  0.0000000
 R(3)=  0.0000000  0.0000000  6.9838057  G(3)= -0.0826699 -0.0584564  0.1431884
 Unit cell volume ucvol=  2.4085821E+02 bohr^3
 Angles (23,13,12)=  6.00000000E+01  6.00000000E+01  6.00000000E+01 degrees

 getcut: wavevector=  0.0000  0.0000  0.0000  ngfft=  45  45  45
         ecut(hartree)=     42.000   => boxcut(ratio)=   2.15959

--- Pseudopotential description ------------------------------------------------
- pspini: atom type   1  psp file is /scratch/users/j/a/jabreu/pseudos/PBEsol/Y.psp8
- pspatm: opening atomic psp file    /scratch/users/j/a/jabreu/pseudos/PBEsol/Y.psp8
- Y     ONCVPSP-3.3.0  r_core=   1.60520   1.51226   1.56736
- 39.00000  11.00000    180112                znucl, zion, pspdat
    8 -116133    2    4       600   0.00000   pspcod,pspxc,lmax,lloc,mmax,r2well
    5.99000000000000    4.00000000000000    0.00000000000000   rchrg,fchrg,qchrg
     nproj     2     2     2
     extension_switch     1
  pspatm : epsatm=   18.54790046
         --- l  ekb(1:nproj) -->
             0   10.130768    0.866504
             1    5.598307    0.427135
             2    1.217602    0.315447
 pspatm: atomic psp has been read  and splines computed

- pspini: atom type   2  psp file is /scratch/users/j/a/jabreu/pseudos/PBEsol/N.psp8
- pspatm: opening atomic psp file    /scratch/users/j/a/jabreu/pseudos/PBEsol/N.psp8
- N     ONCVPSP-3.3.0  r_core=   1.20551   1.35824
-  7.00000   5.00000    180112                znucl, zion, pspdat
    8 -116133    1    4       600   0.00000   pspcod,pspxc,lmax,lloc,mmax,r2well
    5.99000000000000    4.00000000000000    0.00000000000000   rchrg,fchrg,qchrg
     nproj     2     2
     extension_switch     1
  pspatm : epsatm=    5.26508895
         --- l  ekb(1:nproj) -->
             0    7.464189    0.625868
             1   -4.309714   -1.012941
 pspatm: atomic psp has been read  and splines computed

   3.81007831E+02                                ecore*ucvol(ha*bohr**3)

-inwffil : will read wavefunctions from disk file /scratch/users/j/a/jabreu/flow_simple2/flow/w176/t1/indata/in_WFK

 ==>  initialize data related to q vector <==

 The list of irreducible perturbations for this q vector is:
    1)    idir= 1    ipert=   3
    2)    idir= 2    ipert=   3
    3)    idir= 3    ipert=   3

 Perturbation wavevector (in red.coord.)   0.000000  0.000000  0.000000
 Perturbation : derivative vs k along direction   1

 dfpt_looppert : COMMENT -
  In a d/dk calculation, iscf is set to -3 automatically.
 The set of symmetries contains only one element for this perturbation.
 symkpt : not enough symmetry to change the number of k points.

[...]

 Initialisation of the first-order wave-functions :
  ireadwf=   0

--- !BeginCycle
iteration_state: {dtset: 1, }
solver: {iscf: 7, nstep: 100, nline: 4, wfoptalg: 0, }
tolerances: {tolwfr: 1.00E-20, }
...

     iter   2DEtotal(Ha)        deltaE(Ha) residm    vres2
-ETOT  1  -21.084220490500     -2.108E+01 4.313E-02 0.000E+00
 ETOT  2  -21.086693710769     -2.473E-03 4.041E-04 0.000E+00
 ETOT  3  -21.086694184399     -4.736E-07 1.001E-06 0.000E+00
 ETOT  4  -21.086694184667     -2.680E-10 1.819E-08 0.000E+00
 ETOT  5  -21.086694184667     -1.918E-13 5.603E-11 0.000E+00
 ETOT  6  -21.086694184667     -2.487E-14 1.123E-12 0.000E+00
 ETOT  7  -21.086694184667      2.132E-14 3.522E-15 0.000E+00
 ETOT  8  -21.086694184667      0.000E+00 7.307E-17 0.000E+00
 ETOT  9  -21.086694184667      0.000E+00 2.333E-19 0.000E+00
 ETOT 10  -21.086694184667      3.553E-15 8.120E-21 0.000E+00

 At SCF step   10   max residual=  8.12E-21 < tolwfr=  1.00E-20 =>converged.

 ----iterations are completed or convergence reached----

 dfpt_looppert: DFPT cycle converged with prtwf=-1. Will skip output of the 1st-order WFK file.
 dfpt_looppert : ek2=    3.8852295056E+01
          f-sum rule ratio=    1.0922763072E+00
 prteigrs : about to open file /scratch/users/j/a/jabreu/flow_simple2/flow/w176/t1/tmpdata/tmp_1WF1_EIG
 Expectation of eigenvalue derivatives (hartree) for nkpt=   2  k points:
  (in case of degenerate eigenvalues, averaged derivative)
 kpt#   1, nband= 17, wtk=  0.50000, kpt=  0.5000  0.2500  0.7500 (reduced coord)
   0.00000   -0.00000    0.00000   -0.00000    0.00000   -0.00000    0.00000   -0.00000
  -0.00000    0.00000    0.00000    0.00000   -0.00000    0.00000   -0.00000   -0.00000
   0.00000
 prteigrs : prtvol=0 or 1, do not print more k-points.

 Eight components of 2nd-order total energy (hartree) are
 1,2,3: 0th-order hamiltonian combined with 1st-order wavefunctions
     kin0=   9.37852592E+00 eigvalue=  -1.06093024E-01  local=  -3.65792433E+00
 4,5,6: 1st-order hamiltonian combined with 1st and 0th-order wfs
     kin1=  -4.24374414E+01  Hartree=   0.00000000E+00     xc=   0.00000000E+00
 7,8,9: eventually, occupation + non-local contributions
    edocc=   1.50128431E+01     enl0=   4.59342477E-01   enl1=   2.64053002E-01
 1-9 gives the relaxation energy (to be shifted if some occ is /=2.0)
   erelax=  -2.10866942E+01
  No Ewald or frozen-wf contrib.: the relaxation energy is the total one
 2DEtotal=   -0.2108669418E+02 Ha. Also 2DEtotal=   -0.573798129797E+03 eV
    (  non-var. 2DEtotal :   -2.1086694185E+01 Ha)

 Perturbation wavevector (in red.coord.)   0.000000  0.000000  0.000000
 Perturbation : derivative vs k along direction   2
 The set of symmetries contains only one element for this perturbation.
 symkpt : not enough symmetry to change the number of k points.

[...]

 Perturbation wavevector (in red.coord.)   0.000000  0.000000  0.000000
 Perturbation : derivative vs k along direction   3
 The set of symmetries contains only one element for this perturbation.
 symkpt : not enough symmetry to change the number of k points.

-inwffil : will read wavefunctions from disk file /scratch/users/j/a/jabreu/flow_simple2/flow/w176/t1/indata/in_WFK

 Initialisation of the first-order wave-functions :
  ireadwf=   0

--- !BeginCycle
iteration_state: {dtset: 1, }
solver: {iscf: 7, nstep: 100, nline: 4, wfoptalg: 0, }
tolerances: {tolwfr: 1.00E-20, }
...

     iter   2DEtotal(Ha)        deltaE(Ha) residm    vres2
-ETOT  1  -21.084231033445     -2.108E+01 6.875E-02 0.000E+00
 ETOT  2  -21.086716253911     -2.485E-03 7.111E-04 0.000E+00
 ETOT  3  -21.086716741361     -4.874E-07 2.052E-06 0.000E+00
 ETOT  4  -21.086716741632     -2.712E-10 2.678E-08 0.000E+00
 ETOT  5  -21.086716741633     -1.883E-13 8.934E-11 0.000E+00
 ETOT  6  -21.086716741633      0.000E+00 1.322E-12 0.000E+00
 ETOT  7  -21.086716741632      2.132E-14 4.801E-15 0.000E+00
 ETOT  8  -21.086716741632      7.105E-15 6.919E-17 0.000E+00
 ETOT  9  -21.086716741632      0.000E+00 2.639E-19 0.000E+00
 ETOT 10  -21.086716741632     -3.553E-15 7.994E-21 0.000E+00

 At SCF step   10   max residual=  7.99E-21 < tolwfr=  1.00E-20 =>converged.

 ----iterations are completed or convergence reached----

 dfpt_looppert: DFPT cycle converged with prtwf=-1. Will skip output of the 1st-order WFK file.
 dfpt_looppert : ek2=    3.8852295056E+01
          f-sum rule ratio=    1.0922774232E+00
 prteigrs : about to open file /scratch/users/j/a/jabreu/flow_simple2/flow/w176/t1/tmpdata/tmp_1WF1_EIG
 Expectation of eigenvalue derivatives (hartree) for nkpt=   2  k points:
  (in case of degenerate eigenvalues, averaged derivative)
 kpt#   1, nband= 17, wtk=  0.50000, kpt=  0.5000  0.2500  0.7500 (reduced coord)
   0.00000    0.00000    0.00000   -0.00000    0.00000    0.00000   -0.00000   -0.00000
   0.00000    0.00000    0.00000    0.00000   -0.00000    0.00000    0.00000    0.00000
  -0.00000
 prteigrs : prtvol=0 or 1, do not print more k-points.

 Eight components of 2nd-order total energy (hartree) are
 1,2,3: 0th-order hamiltonian combined with 1st-order wavefunctions
     kin0=   9.37845312E+00 eigvalue=  -1.06078931E-01  local=  -3.65790642E+00
 4,5,6: 1st-order hamiltonian combined with 1st and 0th-order wfs
     kin1=  -4.24374847E+01  Hartree=   0.00000000E+00     xc=   0.00000000E+00
 7,8,9: eventually, occupation + non-local contributions
    edocc=   1.50128912E+01     enl0=   4.59357805E-01   enl1=   2.64051246E-01
 1-9 gives the relaxation energy (to be shifted if some occ is /=2.0)
   erelax=  -2.10867167E+01
  No Ewald or frozen-wf contrib.: the relaxation energy is the total one
 2DEtotal=   -0.2108671674E+02 Ha. Also 2DEtotal=   -0.573798743604E+03 eV
    (  non-var. 2DEtotal :   -2.1086716742E+01 Ha)

 CALCULATION OF EFFECTIVE MASSES
 NOTE : Additional infos (eff. mass eigenvalues, eigenvectors and, if degenerate, average mass) are available in stdout.

 K-point ( 0.500, 0.250, 0.750) | band =     8
 Effective mass tensor:
             -4.3300068649              4.6249452091              5.6643779253
              4.6249452091             -7.6003369848             -8.0106400843
              5.6643779253             -8.0106400843            -10.8706671045
 Effective mass tensor eigenvalues:
            -20.6816574645             -1.0596767449             -1.0596767449
 Angular average effective mass 1/(<1/m>)=  -1.5498108876
 Angular average effective mass for Frohlich model (<m**0.5>)**2=  -2.0128842567
 Effective masses along directions: (cart. coord. / red. coord. -> eff. mass)
    1:   1.000000  0.000000  0.000000 /   0.948683  0.316228  0.000000 ->  -1.2587134242
    2:   0.000000  1.000000  0.000000 /   0.000000  1.000000  0.000000 ->  -1.5498108876
    3:   0.000000  0.000000  1.000000 /   0.408248  0.408248  0.816497 ->  -2.0160557994
    4:   0.577350  0.577350  0.577350 /   0.585539  0.688047  0.428644 ->  -1.3994702786
    5:   0.000000  0.707107  0.707107 /   0.289489  0.762222  0.578977 ->  -4.8754026678
    6:   0.707107  0.000000  0.707107 /   0.731423  0.422287  0.535439 ->  -1.1065617942
    7:   0.707107  0.707107  0.000000 /   0.616798  0.787122  0.000000 ->  -1.0742491047

 K-point ( 0.000, 0.000, 0.000) | band =     9
 Effective mass tensor:
              0.3179725511              0.0000001461             -0.0000002465
              0.0000001461              0.3179730722             -0.0000002428
             -0.0000002465             -0.0000002428              0.3179729066
 Effective mass tensor eigenvalues:
              0.3179724242              0.3179727696              0.3179733361
 Angular average effective mass 1/(<1/m>)=   0.3179728433
 Angular average effective mass for Frohlich model (<m**0.5>)**2=   0.3179728433
 Effective masses along directions: (cart. coord. / red. coord. -> eff. mass)
    1:   1.000000  0.000000  0.000000 /   0.948683  0.316228  0.000000 ->   0.3179725511
    2:   0.000000  1.000000  0.000000 /   0.000000  1.000000  0.000000 ->   0.3179730722
    3:   0.000000  0.000000  1.000000 /   0.408248  0.408248  0.816497 ->   0.3179729066
    4:   0.577350  0.577350  0.577350 /   0.585539  0.688047  0.428644 ->   0.3179726145
    5:   0.000000  0.707107  0.707107 /   0.289489  0.762222  0.578977 ->   0.3179727466
    6:   0.707107  0.000000  0.707107 /   0.731423  0.422287  0.535439 ->   0.3179724823
    7:   0.707107  0.707107  0.000000 /   0.616798  0.787122  0.000000 ->   0.3179729577

 END OF EFFECTIVE MASSES SECTION

 ---- first-order wavefunction calculations are completed ----

 Total localisation tensor (bohr^2) in cartesian coordinates
  WARNING : still subject to testing - especially symmetries.
      direction              matrix element
   alpha     beta       real part   imaginary part
     1        1       1.7902361951    0.0000000000
     1        2       0.5063550588    0.0000000000
     1        3       1.2403119363    0.0000000000
     2        1       0.5063550588    0.0000000000
     2        2       1.4321883830    0.0000000000
     2        3       0.8770326885    0.0000000000
     3        1       1.2403119363    0.0000000000
     3        2       0.8770326885    0.0000000000
     3        3       3.2224270794    0.0000000000

 respfn : d/dk was computed, but no 2DTE, so no DDB output.

== END DATASET(S) ==============================================================

 -outvars: echo values of variables after computation  --------
            acell      1.0000000000E+00  1.0000000000E+00  1.0000000000E+00 Bohr
              amu      8.89058500E+01  1.40067400E+01
             ecut      4.20000000E+01 Hartree
           etotal     -2.1086716742E+01
            fcart      0.0000000000E+00  0.0000000000E+00  0.0000000000E+00
                       0.0000000000E+00  0.0000000000E+00  0.0000000000E+00
-          fftalg         512
           irdden           1
           irdwfk           1
           istwfk        0    1
              ixc     -116133
              kpt      5.00000000E-01  2.50000000E-01  7.50000000E-01
                       0.00000000E+00  0.00000000E+00  0.00000000E+00
           kptopt           0
P           mkmem           2
P          mkqmem           2
P          mk1mem           2
            natom           2
            nband          17
           nbdbuf           4
            ngfft          45      45      45
             nkpt           2
            nstep         100
             nsym          24
           ntypat           2
              occ      2.000000  2.000000  2.000000  2.000000  2.000000  2.000000
                       2.000000  2.000000  0.000000  0.000000  0.000000  0.000000
                       0.000000  0.000000  0.000000  0.000000  0.000000
        optdriver           1
            prtwf          -1
            rfdir           1       1       1
           rfelfd           2
            rprim      6.0481531483E+00  0.0000000000E+00  3.4919028483E+00
                       2.0160510494E+00  5.7022534731E+00  3.4919028483E+00
                       0.0000000000E+00  0.0000000000E+00  6.9838056966E+00
          spgroup         216
           strten      0.0000000000E+00  0.0000000000E+00  0.0000000000E+00
                       0.0000000000E+00  0.0000000000E+00  0.0000000000E+00
           symrel      1  0  0   0  1  0   0  0  1       0 -1  1   0 -1  0   1 -1  0
                      -1  0  0  -1  0  1  -1  1  0       0  1 -1   1  0 -1   0  0 -1
                      -1  0  0  -1  1  0  -1  0  1       0 -1  1   1 -1  0   0 -1  0
                       1  0  0   0  0  1   0  1  0       0  1 -1   0  0 -1   1  0 -1
                      -1  0  1  -1  1  0  -1  0  0       0 -1  0   1 -1  0   0 -1  1
                       1  0 -1   0  0 -1   0  1 -1       0  1  0   0  0  1   1  0  0
                       1  0 -1   0  1 -1   0  0 -1       0 -1  0   0 -1  1   1 -1  0
                      -1  0  1  -1  0  0  -1  1  0       0  1  0   1  0  0   0  0  1
                       0  0 -1   0  1 -1   1  0 -1       1 -1  0   0 -1  1   0 -1  0
                       0  0  1   1  0  0   0  1  0      -1  1  0  -1  0  0  -1  0  1
                       0  0  1   0  1  0   1  0  0       1 -1  0   0 -1  0   0 -1  1
                       0  0 -1   1  0 -1   0  1 -1      -1  1  0  -1  0  1  -1  0  0
           tolwfr      1.00000000E-20
            typat      1  2
           useylm           1
              wtk        0.50000    0.50000
           xangst      0.0000000000E+00  0.0000000000E+00  0.0000000000E+00
                       3.2005448001E+00  2.2631269317E+00  5.5435062058E+00
            xcart      0.0000000000E+00  0.0000000000E+00  0.0000000000E+00
                       6.0481531483E+00  4.2766901048E+00  1.0475708545E+01
             xred      0.0000000000E+00  0.0000000000E+00  0.0000000000E+00
                       7.5000000000E-01  7.5000000000E-01  7.5000000000E-01
            znucl       39.00000    7.00000

- Timing analysis has been suppressed with timopt=0

 Suggested references for the acknowledgment of ABINIT usage.

 Calculation completed.
.Delivered  14 WARNINGs and   9 COMMENTs to log file.