.Version 9.5.2 of ABINIT

 ABINIT is a project of the Universite Catholique de Louvain,
 Corning Inc. and other collaborators, see ~abinit/doc/developers/contributors.txt .
 acknowledgments of the ABINIT effort.

.Starting date : Mon 24 May 2021.
- ( at 18h36 )

- input  file    -> /scratch/users/j/a/jabreu/flow_simple_10atoms/flow/w426/t1/run.abi
- output file    -> /scratch/users/j/a/jabreu/flow_simple_10atoms/flow/w426/t1/run.abo
- root for input  files -> /scratch/users/j/a/jabreu/flow_simple_10atoms/flow/w426/t1/indata/in
- root for output files -> /scratch/users/j/a/jabreu/flow_simple_10atoms/flow/w426/t1/outdata/out

 Symmetries : space group Fd d 2 (# 43); Bravais oF (face-center ortho.)
     intxc =       0      iscf =       7    lmnmax =      18     lnmax =       6
     mgfft =      75  mpssoang =       3    mqgrid =    3001     natom =      10
  nloc_mem =       1    nspden =       1   nspinor =       1    nsppol =       1
      nsym =       4    n1xccc =    2501    ntypat =       2    occopt =       1
   xclevel =       2
-    mband =          55        mffmem =           1         mkmem =           2
-   mkqmem =           2        mk1mem =           2           mpw =       11157
      nfft =      421875          nkpt =           2
  Rough estimation (10% accuracy) of disk space for files :

------------- Echo of variables that govern the present computation ------------
-
- outvars: echo of selected default values
-   iomode0 =  0 , fftalg0 =512 , wfoptalg0 =  0
-
- outvars: echo of global parameters not present in the input file
-  max_nthreads =    0
-
 -outvars: echo values of preprocessed input variables --------
            acell      1.0000000000E+00  1.0000000000E+00  1.0000000000E+00 Bohr
              amu      1.06420000E+02  1.89984032E+01
             ecut      4.20000000E+01 Hartree
-          fftalg         512
           irdden           1
           irdwfk           1
           istwfk        1    0
              ixc     -116133
              kpt      0.00000000E+00  0.00000000E+00  0.00000000E+00
                       0.00000000E+00  3.76597834E-01  3.76597834E-01
           kptopt           0
P           mkmem           2
P          mkqmem           2
P          mk1mem           2
            natom          10
            nband          55
           nbdbuf           4
            ngfft          75      75      75
             nkpt           2
            nstep        2000
             nsym           4
           ntypat           2
              occ      2.000000  2.000000  2.000000  2.000000  2.000000  2.000000
                       2.000000  2.000000  2.000000  2.000000  2.000000  2.000000
                       2.000000  2.000000  2.000000  2.000000  2.000000  2.000000
                       2.000000  2.000000  2.000000  2.000000  2.000000  2.000000
                       2.000000  2.000000  2.000000  2.000000  2.000000  2.000000
                       2.000000  2.000000  2.000000  2.000000  2.000000  2.000000
                       2.000000  2.000000  2.000000  2.000000  2.000000  2.000000
                       2.000000  2.000000  2.000000  2.000000  0.000000  0.000000
                       0.000000  0.000000  0.000000  0.000000  0.000000  0.000000
                       0.000000
        optdriver           1
            prtwf          -1
            rfdir           1       1       1
           rfelfd           2
            rprim      9.9893425827E+00  0.0000000000E+00  7.3076896396E+00
                       5.5469968943E+00  8.3076946734E+00  3.0362614718E+00
                       0.0000000000E+00  0.0000000000E+00  1.0343951114E+01
          spgroup          43
           symrel      1  0  0   0  1  0   0  0  1      -1  0  0  -1  0  1  -1  1  0
                       0  1 -1   0  1  0  -1  1  0       0 -1  1  -1  0  1   0  0  1
            tnons      0.0000000  0.0000000  0.0000000     0.0000000  0.0000000 -0.0000000
                       0.2500000  0.2500000  0.2500000     0.2500000  0.2500000  0.2500000
           tolwfr      1.00000000E-20
            typat      1  1  2  2  2  2  2  2  2  2
           useylm           1
              wtk        0.50000    0.50000
           xangst      4.7264121299E+00  1.0467409852E+00  4.6321798318E+00
                       1.4956488954E+00  2.1458016544E+00  3.5020086149E+00
                       1.4615081250E+00  3.0708194724E-01  3.6577987176E+00
                       2.5324783625E+00  2.1093787839E+00  1.9755799923E+00
                       5.1591496211E+00  2.1205199619E+00  6.2879947527E+00
                       3.0876298426E+00  2.2284037572E+00  4.6249837288E+00
                       6.7090464779E+00  4.1648717222E+00  7.3618753164E+00
                       5.6484713640E+00  2.3821733354E+00  9.0248863407E+00
                       9.8841968802E-01  5.4108954870E-02  9.2090712963E-01
                       4.1809608450E+00  1.6423043769E-01  3.1057512095E+00
            xcart      8.9316245166E+00  1.9780537940E+00  8.7535512805E+00
                       2.8263668032E+00  4.0549774624E+00  6.6178371971E+00
                       2.7618500972E+00  5.8030078063E-01  6.9122378255E+00
                       4.7856905427E+00  3.9861482120E+00  3.7333051391E+00
                       9.7493798625E+00  4.0072019872E+00  1.1882588008E+01
                       5.8347748023E+00  4.2110728145E+00  8.7399526166E+00
                       1.2678260456E+01  7.8704669335E+00  1.3911928172E+01
                       1.0674063947E+01  4.5016552050E+00  1.7054563564E+01
                       1.8678425147E+00  1.0225110604E-01  1.7402622688E+00
                       7.9008709694E+00  3.1035054991E-01  5.8690192229E+00
             xred      7.6190100000E-01  2.3809900000E-01  2.3809900000E-01
                       1.1901000000E-02  4.8809900000E-01  4.8809900000E-01
                       2.3769200000E-01  6.9851000000E-02  4.7981400000E-01
                       2.1264300000E-01  4.7981400000E-01  6.9851000000E-02
                       7.0813425000E-01  4.8234825000E-01  5.0688825000E-01
                       3.0262925000E-01  5.0688825000E-01  4.8234825000E-01
                       7.4311175000E-01  9.4737075000E-01  5.4186575000E-01
                       7.6765175000E-01  5.4186575000E-01  9.4737075000E-01
                       1.8014900000E-01  1.2308000000E-02  3.7357000000E-02
                       7.7018600000E-01  3.7357000000E-02  1.2308000000E-02
            znucl       46.00000    9.00000

 chkinp: Checking input parameters for consistency.

== DATASET  1 ==================================================================
-   mpi_nproc: 1, omp_nthreads: -1 (-1 if OMP is not activated)

--- !DatasetInfo
iteration_state: {dtset: 1, }
dimensions: {natom: 10, nkpt: 2, mband: 55, nsppol: 1, nspinor: 1, nspden: 1, mpw: 11157, }
cutoff_energies: {ecut:  42.0, pawecutdg:  -1.0, }
electrons: {nelect:   9.20000000E+01, charge:   0.00000000E+00, occopt:   1.00000000E+00, tsmear:   1.00000000E-02, }
meta: {optdriver: 1, rfelfd: 2, }
...

 Real(R)+Recip(G) space primitive vectors, cartesian coordinates (Bohr,Bohr^-1):
 R(1)=  9.9893426  0.0000000  7.3076896  G(1)=  0.1001067 -0.0668406  0.0000000
 R(2)=  5.5469969  8.3076947  3.0362615  G(2)=  0.0000000  0.1203703  0.0000000
 R(3)=  0.0000000  0.0000000 10.3439511  G(3)= -0.0707224  0.0118886  0.0966749
 Unit cell volume ucvol=  8.5842804E+02 bohr^3
 Angles (23,13,12)=  7.30933465E+01  5.38127157E+01  5.30939378E+01 degrees

 getcut: wavevector=  0.0000  0.0000  0.0000  ngfft=  75  75  75
         ecut(hartree)=     42.000   => boxcut(ratio)=   2.04960

--- Pseudopotential description ------------------------------------------------
- pspini: atom type   1  psp file is /scratch/users/j/a/jabreu/pseudos/PBEsol/Pd.psp8
- pspatm: opening atomic psp file    /scratch/users/j/a/jabreu/pseudos/PBEsol/Pd.psp8
- Pd    ONCVPSP-3.3.0  r_core=   1.41052   1.46191   1.55175
- 46.00000  18.00000    180112                znucl, zion, pspdat
    8 -116133    2    4       600   0.00000   pspcod,pspxc,lmax,lloc,mmax,r2well
    5.99000000000000    7.00000000000000    0.00000000000000   rchrg,fchrg,qchrg
     nproj     2     2     2
     extension_switch     1
  pspatm : epsatm=   26.17262427
         --- l  ekb(1:nproj) -->
             0    7.952303   -2.096627
             1    3.304793   -0.572651
             2   -1.185452   -0.410427
 pspatm: atomic psp has been read  and splines computed

- pspini: atom type   2  psp file is /scratch/users/j/a/jabreu/pseudos/PBEsol/F.psp8
- pspatm: opening atomic psp file    /scratch/users/j/a/jabreu/pseudos/PBEsol/F.psp8
- F     ONCVPSP-3.3.0  r_core=   1.30942   1.45782   1.60379
-  9.00000   7.00000    180112                znucl, zion, pspdat
    8 -116133    2    4       600   0.00000   pspcod,pspxc,lmax,lloc,mmax,r2well
    5.99000000000000    2.50000000000000    0.00000000000000   rchrg,fchrg,qchrg
     nproj     2     2     1
     extension_switch     1
  pspatm : epsatm=    4.89824824
         --- l  ekb(1:nproj) -->
             0    6.506434    1.065875
             1   -3.978753   -1.295852
             2   -2.394754
 pspatm: atomic psp has been read  and splines computed

   8.42087357E+03                                ecore*ucvol(ha*bohr**3)

 ==>  initialize data related to q vector <==

 The list of irreducible perturbations for this q vector is:
    1)    idir= 1    ipert=  11
    2)    idir= 2    ipert=  11
    3)    idir= 3    ipert=  11

 Perturbation wavevector (in red.coord.)   0.000000  0.000000  0.000000
 Perturbation : derivative vs k along direction   1

 dfpt_looppert : COMMENT -
  In a d/dk calculation, iscf is set to -3 automatically.
 The set of symmetries contains only one element for this perturbation.
 symkpt : not enough symmetry to change the number of k points.

 Initialisation of the first-order wave-functions :
  ireadwf=   0

--- !BeginCycle
iteration_state: {dtset: 1, }
solver: {iscf: 7, nstep: 2000, nline: 4, wfoptalg: 0, }
tolerances: {tolwfr: 1.00E-20, }
...

     iter   2DEtotal(Ha)        deltaE(Ha) residm    vres2
-ETOT  1  -54.932853576527     -5.493E+01 1.433E-02 0.000E+00
 ETOT  2  -54.968149551485     -3.530E-02 1.281E-04 0.000E+00
 ETOT  3  -54.968197735633     -4.818E-05 5.695E-07 0.000E+00
 ETOT  4  -54.968197867021     -1.314E-07 7.095E-09 0.000E+00
 ETOT  5  -54.968197867500     -4.794E-10 6.552E-11 0.000E+00
 ETOT  6  -54.968197867503     -2.025E-12 1.073E-12 0.000E+00
 ETOT  7  -54.968197867503     -5.684E-14 1.081E-14 0.000E+00
 ETOT  8  -54.968197867503      2.132E-14 1.868E-16 0.000E+00
 ETOT  9  -54.968197867503      0.000E+00 1.956E-18 0.000E+00
 ETOT 10  -54.968197867503      2.132E-14 3.455E-20 0.000E+00
 ETOT 11  -54.968197867503     -2.132E-14 9.926E-21 0.000E+00

 At SCF step   11   max residual=  9.93E-21 < tolwfr=  1.00E-20 =>converged.

 ----iterations are completed or convergence reached----

 dfpt_looppert: DFPT cycle converged with prtwf=-1. Will skip output of the 1st-order WFK file.
 dfpt_looppert : ek2=    1.0524864334E+02
          f-sum rule ratio=    1.0080327241E+00
 prteigrs : about to open file /scratch/users/j/a/jabreu/flow_simple_10atoms/flow/w426/t1/tmpdata/tmp_1WF1_EIG
 Expectation of eigenvalue derivatives (hartree) for nkpt=   2  k points:
  (in case of degenerate eigenvalues, averaged derivative)
 kpt#   1, nband= 55, wtk=  0.50000, kpt=  0.0000  0.0000  0.0000 (reduced coord)
   0.00000   -0.00000    0.00000   -0.00000    0.00000    0.00000   -0.00000   -0.00000
   0.00000   -0.00000    0.00000   -0.00000   -0.00000   -0.00000   -0.00000    0.00000
   0.00000   -0.00000    0.00000   -0.00000    0.00000    0.00000    0.00000    0.00000
   0.00000   -0.00000    0.00000    0.00000   -0.00000   -0.00000    0.00000    0.00000
   0.00000    0.00000    0.00000   -0.00000    0.00000   -0.00000    0.00000    0.00000
   0.00000    0.00000   -0.00000   -0.00000   -0.00000    0.00000   -0.00000    0.00000
   0.00000   -0.00000    0.00000    0.00002   -0.00002    0.00016   -0.01157
 prteigrs : prtvol=0 or 1, do not print more k-points.

 Eight components of 2nd-order total energy (hartree) are
 1,2,3: 0th-order hamiltonian combined with 1st-order wavefunctions
     kin0=   7.87235017E+01 eigvalue=   3.41174181E+00  local=  -3.50937140E+01
 4,5,6: 1st-order hamiltonian combined with 1st and 0th-order wfs
     kin1=  -1.06094077E+02  Hartree=   0.00000000E+00     xc=   0.00000000E+00
 7,8,9: eventually, occupation + non-local contributions
    edocc=   7.85594325E+00     enl0=   7.07251372E-02   enl1=  -3.84231909E+00
 1-9 gives the relaxation energy (to be shifted if some occ is /=2.0)
   erelax=  -5.49681979E+01
  No Ewald or frozen-wf contrib.: the relaxation energy is the total one
 2DEtotal=   -0.5496819787E+02 Ha. Also 2DEtotal=   -0.149576073227E+04 eV
    (  non-var. 2DEtotal :   -5.4968197867E+01 Ha)

 Perturbation wavevector (in red.coord.)   0.000000  0.000000  0.000000
 Perturbation : derivative vs k along direction   2
 The set of symmetries contains only one element for this perturbation.
 symkpt : not enough symmetry to change the number of k points.

[...]

 Perturbation wavevector (in red.coord.)   0.000000  0.000000  0.000000
 Perturbation : derivative vs k along direction   3
 The set of symmetries contains only one element for this perturbation.
 symkpt : not enough symmetry to change the number of k points.

 Initialisation of the first-order wave-functions :
  ireadwf=   0

--- !BeginCycle
iteration_state: {dtset: 1, }
solver: {iscf: 7, nstep: 2000, nline: 4, wfoptalg: 0, }
tolerances: {tolwfr: 1.00E-20, }
...

     iter   2DEtotal(Ha)        deltaE(Ha) residm    vres2
-ETOT  1  -54.933624461395     -5.493E+01 1.472E-02 0.000E+00
 ETOT  2  -54.968819123521     -3.519E-02 1.281E-04 0.000E+00
 ETOT  3  -54.968867364097     -4.824E-05 5.925E-07 0.000E+00
 ETOT  4  -54.968867495196     -1.311E-07 7.537E-09 0.000E+00
 ETOT  5  -54.968867495674     -4.782E-10 6.924E-11 0.000E+00
 ETOT  6  -54.968867495676     -1.968E-12 1.146E-12 0.000E+00
 ETOT  7  -54.968867495676      1.421E-14 1.145E-14 0.000E+00
 ETOT  8  -54.968867495676     -7.816E-14 1.995E-16 0.000E+00
 ETOT  9  -54.968867495676      7.105E-15 2.070E-18 0.000E+00
 ETOT 10  -54.968867495676      0.000E+00 3.685E-20 0.000E+00
 ETOT 11  -54.968867495676      0.000E+00 9.926E-21 0.000E+00

 At SCF step   11   max residual=  9.93E-21 < tolwfr=  1.00E-20 =>converged.

 ----iterations are completed or convergence reached----

 dfpt_looppert: DFPT cycle converged with prtwf=-1. Will skip output of the 1st-order WFK file.
 dfpt_looppert : ek2=    1.0524864326E+02
          f-sum rule ratio=    1.0080478363E+00
 prteigrs : about to open file /scratch/users/j/a/jabreu/flow_simple_10atoms/flow/w426/t1/tmpdata/tmp_1WF1_EIG
 Expectation of eigenvalue derivatives (hartree) for nkpt=   2  k points:
  (in case of degenerate eigenvalues, averaged derivative)
 kpt#   1, nband= 55, wtk=  0.50000, kpt=  0.0000  0.0000  0.0000 (reduced coord)
   0.00000   -0.00000    0.00000    0.00000   -0.00000   -0.00000    0.00000    0.00000
  -0.00000    0.00000   -0.00000   -0.00000   -0.00000   -0.00000   -0.00000   -0.00000
  -0.00000    0.00000    0.00000    0.00000    0.00000   -0.00000   -0.00000   -0.00000
   0.00000   -0.00000    0.00000    0.00000   -0.00000   -0.00000   -0.00000   -0.00000
   0.00000    0.00000   -0.00000    0.00000    0.00000    0.00000   -0.00000    0.00000
  -0.00000   -0.00000    0.00000   -0.00000   -0.00000   -0.00000    0.00000   -0.00000
  -0.00000   -0.00000    0.00000    0.00001    0.00002    0.00007    0.00754
 prteigrs : prtvol=0 or 1, do not print more k-points.

 Eight components of 2nd-order total energy (hartree) are
 1,2,3: 0th-order hamiltonian combined with 1st-order wavefunctions
     kin0=   7.87024552E+01 eigvalue=   3.41068493E+00  local=  -3.50864992E+01
 4,5,6: 1st-order hamiltonian combined with 1st and 0th-order wfs
     kin1=  -1.06095667E+02  Hartree=   0.00000000E+00     xc=   0.00000000E+00
 7,8,9: eventually, occupation + non-local contributions
    edocc=   7.87587843E+00     enl0=   6.63480611E-02   enl1=  -3.84206788E+00
 1-9 gives the relaxation energy (to be shifted if some occ is /=2.0)
   erelax=  -5.49688675E+01
  No Ewald or frozen-wf contrib.: the relaxation energy is the total one
 2DEtotal=   -0.5496886750E+02 Ha. Also 2DEtotal=   -0.149577895377E+04 eV
    (  non-var. 2DEtotal :   -5.4968867496E+01 Ha)

 CALCULATION OF EFFECTIVE MASSES
 NOTE : Additional infos (eff. mass eigenvalues, eigenvectors and, if degenerate, average mass) are available in stdout.

 K-point ( 0.000, 0.000, 0.000) | band =    46
 Effective mass tensor:
             -6.6860749768             -0.1661034565             -0.5672132772
             -0.1661034565             -6.4660549469              1.0615513425
             -0.5672132772              1.0615513425             -7.4708108047
 Effective mass tensor eigenvalues:
             -8.2458742713             -6.7752932894             -5.6017731679
 Angular average effective mass 1/(<1/m>)=  -6.7056674384
 Angular average effective mass for Frohlich model (<m**0.5>)**2=  -6.7556691756
 Effective masses along directions: (cart. coord. / red. coord. -> eff. mass)
    1:   1.000000  0.000000  0.000000 /   0.874255  0.485467  0.000000 ->  -6.6333726887
    2:   0.000000  1.000000  0.000000 /   0.000000  1.000000  0.000000 ->  -6.3060540415
    3:   0.000000  0.000000  1.000000 /   0.561104  0.233132  0.794236 ->  -7.2436414112
    4:   0.577350  0.577350  0.577350 /   0.657777  0.642335  0.393363 ->  -6.5645602498
    5:   0.000000  0.707107  0.707107 /   0.429801  0.667193  0.608378 ->  -5.8378858978
    6:   0.707107  0.000000  0.707107 /   0.789616  0.391829  0.472205 ->  -7.5688799203
    7:   0.707107  0.707107  0.000000 /   0.584843  0.811146  0.000000 ->  -6.7215033350

 K-point ( 0.000, 0.377, 0.377) | band =    47
 Effective mass tensor:
              2.1226357727             -0.4032285504             -0.1981025531
             -0.4032285504              2.6611022443              0.3704744465
             -0.1981025531              0.3704744465              2.4957580207
 Effective mass tensor eigenvalues:
              1.9070187232              2.2249591216              3.1475181929
 Angular average effective mass 1/(<1/m>)=   2.3228159947
 Angular average effective mass for Frohlich model (<m**0.5>)**2=   2.3519288765
 Effective masses along directions: (cart. coord. / red. coord. -> eff. mass)
    1:   1.000000  0.000000  0.000000 /   0.874255  0.485467  0.000000 ->   2.0532899899
    2:   0.000000  1.000000  0.000000 /   0.000000  1.000000  0.000000 ->   2.5397824986
    3:   0.000000  0.000000  1.000000 /   0.561104  0.233132  0.794236 ->   2.4344048197
    4:   0.577350  0.577350  0.577350 /   0.657777  0.642335  0.393363 ->   2.1707256264
    5:   0.000000  0.707107  0.707107 /   0.429801  0.667193  0.608378 ->   2.8624198116
    6:   0.707107  0.000000  0.707107 /   0.789616  0.391829  0.472205 ->   2.0956079849
    7:   0.707107  0.707107  0.000000 /   0.584843  0.811146  0.000000 ->   1.9598704044

 END OF EFFECTIVE MASSES SECTION

 ---- first-order wavefunction calculations are completed ----

 Total localisation tensor (bohr^2) in cartesian coordinates
  WARNING : still subject to testing - especially symmetries.
      direction              matrix element
   alpha     beta       real part   imaginary part
     1        1       1.0077375419    0.0000000000
     1        2       0.3557169289    0.0000000000
     1        3       0.6934648064    0.0000000000
     2        1       0.3557169289    0.0000000000
     2        2       0.5327545141    0.0000000000
     2        3       0.1947088896    0.0000000000
     3        1       0.6934648064    0.0000000000
     3        2       0.1947088896    0.0000000000
     3        3       1.3092814385    0.0000000000

 respfn : d/dk was computed, but no 2DTE, so no DDB output.

== END DATASET(S) ==============================================================

 -outvars: echo values of variables after computation  --------
            acell      1.0000000000E+00  1.0000000000E+00  1.0000000000E+00 Bohr
              amu      1.06420000E+02  1.89984032E+01
             ecut      4.20000000E+01 Hartree
           etotal     -5.4968867496E+01
            fcart      0.0000000000E+00  0.0000000000E+00  0.0000000000E+00
                       0.0000000000E+00  0.0000000000E+00  0.0000000000E+00
                       0.0000000000E+00  0.0000000000E+00  0.0000000000E+00
                       0.0000000000E+00  0.0000000000E+00  0.0000000000E+00
                       0.0000000000E+00  0.0000000000E+00  0.0000000000E+00
                       0.0000000000E+00  0.0000000000E+00  0.0000000000E+00
                       0.0000000000E+00  0.0000000000E+00  0.0000000000E+00
                       0.0000000000E+00  0.0000000000E+00  0.0000000000E+00
                       0.0000000000E+00  0.0000000000E+00  0.0000000000E+00
                       0.0000000000E+00  0.0000000000E+00  0.0000000000E+00
-          fftalg         512
           irdden           1
           irdwfk           1
           istwfk        1    0
              ixc     -116133
              kpt      0.00000000E+00  0.00000000E+00  0.00000000E+00
                       0.00000000E+00  3.76597834E-01  3.76597834E-01
           kptopt           0
P           mkmem           2
P          mkqmem           2
P          mk1mem           2
            natom          10
            nband          55
           nbdbuf           4
            ngfft          75      75      75
             nkpt           2
            nstep        2000
             nsym           4
           ntypat           2
              occ      2.000000  2.000000  2.000000  2.000000  2.000000  2.000000
                       2.000000  2.000000  2.000000  2.000000  2.000000  2.000000
                       2.000000  2.000000  2.000000  2.000000  2.000000  2.000000
                       2.000000  2.000000  2.000000  2.000000  2.000000  2.000000
                       2.000000  2.000000  2.000000  2.000000  2.000000  2.000000
                       2.000000  2.000000  2.000000  2.000000  2.000000  2.000000
                       2.000000  2.000000  2.000000  2.000000  2.000000  2.000000
                       2.000000  2.000000  2.000000  2.000000  0.000000  0.000000
                       0.000000  0.000000  0.000000  0.000000  0.000000  0.000000
                       0.000000
        optdriver           1
            prtwf          -1
            rfdir           1       1       1
           rfelfd           2
            rprim      9.9893425827E+00  0.0000000000E+00  7.3076896396E+00
                       5.5469968943E+00  8.3076946734E+00  3.0362614718E+00
                       0.0000000000E+00  0.0000000000E+00  1.0343951114E+01
          spgroup          43
           strten      0.0000000000E+00  0.0000000000E+00  0.0000000000E+00
                       0.0000000000E+00  0.0000000000E+00  0.0000000000E+00
           symrel      1  0  0   0  1  0   0  0  1      -1  0  0  -1  0  1  -1  1  0
                       0  1 -1   0  1  0  -1  1  0       0 -1  1  -1  0  1   0  0  1
            tnons      0.0000000  0.0000000  0.0000000     0.0000000  0.0000000 -0.0000000
                       0.2500000  0.2500000  0.2500000     0.2500000  0.2500000  0.2500000
           tolwfr      1.00000000E-20
            typat      1  1  2  2  2  2  2  2  2  2
           useylm           1
              wtk        0.50000    0.50000
           xangst      4.7264121299E+00  1.0467409852E+00  4.6321798318E+00
                       1.4956488954E+00  2.1458016544E+00  3.5020086149E+00
                       1.4615081250E+00  3.0708194724E-01  3.6577987176E+00
                       2.5324783625E+00  2.1093787839E+00  1.9755799923E+00
                       5.1591496211E+00  2.1205199619E+00  6.2879947527E+00
                       3.0876298426E+00  2.2284037572E+00  4.6249837288E+00
                       6.7090464779E+00  4.1648717222E+00  7.3618753164E+00
                       5.6484713640E+00  2.3821733354E+00  9.0248863407E+00
                       9.8841968802E-01  5.4108954870E-02  9.2090712963E-01
                       4.1809608450E+00  1.6423043769E-01  3.1057512095E+00
            xcart      8.9316245166E+00  1.9780537940E+00  8.7535512805E+00
                       2.8263668032E+00  4.0549774624E+00  6.6178371971E+00
                       2.7618500972E+00  5.8030078063E-01  6.9122378255E+00
                       4.7856905427E+00  3.9861482120E+00  3.7333051391E+00
                       9.7493798625E+00  4.0072019872E+00  1.1882588008E+01
                       5.8347748023E+00  4.2110728145E+00  8.7399526166E+00
                       1.2678260456E+01  7.8704669335E+00  1.3911928172E+01
                       1.0674063947E+01  4.5016552050E+00  1.7054563564E+01
                       1.8678425147E+00  1.0225110604E-01  1.7402622688E+00
                       7.9008709694E+00  3.1035054991E-01  5.8690192229E+00
             xred      7.6190100000E-01  2.3809900000E-01  2.3809900000E-01
                       1.1901000000E-02  4.8809900000E-01  4.8809900000E-01
                       2.3769200000E-01  6.9851000000E-02  4.7981400000E-01
                       2.1264300000E-01  4.7981400000E-01  6.9851000000E-02
                       7.0813425000E-01  4.8234825000E-01  5.0688825000E-01
                       3.0262925000E-01  5.0688825000E-01  4.8234825000E-01
                       7.4311175000E-01  9.4737075000E-01  5.4186575000E-01
                       7.6765175000E-01  5.4186575000E-01  9.4737075000E-01
                       1.8014900000E-01  1.2308000000E-02  3.7357000000E-02
                       7.7018600000E-01  3.7357000000E-02  1.2308000000E-02
            znucl       46.00000    9.00000

- Timing analysis has been suppressed with timopt=0

 Suggested references for the acknowledgment of ABINIT usage.

 Calculation completed.
.Delivered   2 WARNINGs and   5 COMMENTs to log file.