.Version 9.5.2 of ABINIT

 ABINIT is a project of the Universite Catholique de Louvain,
 Corning Inc. and other collaborators, see ~abinit/doc/developers/contributors.txt .
 acknowledgments of the ABINIT effort.

.Starting date : Mon 24 May 2021.
- ( at 11h35 )

- input  file    -> /scratch/users/j/a/jabreu/flow_simple_10atoms/flow/w346/t1/run.abi
- output file    -> /scratch/users/j/a/jabreu/flow_simple_10atoms/flow/w346/t1/run.abo
- root for input  files -> /scratch/users/j/a/jabreu/flow_simple_10atoms/flow/w346/t1/indata/in
- root for output files -> /scratch/users/j/a/jabreu/flow_simple_10atoms/flow/w346/t1/outdata/out

 Symmetries : space group Fm -3 m (#225); Bravais cF (face-center cubic)
     intxc =       0      iscf =       7    lmnmax =      18     lnmax =       6
     mgfft =      72  mpssoang =       3    mqgrid =    3001     natom =      10
  nloc_mem =       1    nspden =       1   nspinor =       1    nsppol =       1
      nsym =      48    n1xccc =    2501    ntypat =       4    occopt =       1
   xclevel =       2
-    mband =          50        mffmem =           1         mkmem =           1
-   mkqmem =           1        mk1mem =           1           mpw =       14841
      nfft =      373248          nkpt =           1
  Rough estimation (10% accuracy) of disk space for files :

------------- Echo of variables that govern the present computation ------------
-
- outvars: echo of selected default values
-   iomode0 =  0 , fftalg0 =512 , wfoptalg0 =  0
-
- outvars: echo of global parameters not present in the input file
-  max_nthreads =    0
-
 -outvars: echo values of preprocessed input variables --------
            acell      1.0000000000E+00  1.0000000000E+00  1.0000000000E+00 Bohr
              amu      3.90983000E+01  8.54678000E+01  6.97230000E+01
                       1.89984032E+01
             ecut      4.20000000E+01 Hartree
-          fftalg         512
           irdden           1
           irdwfk           1
           istwfk        1
              ixc     -116133
           kptopt           0
P           mkmem           1
P          mkqmem           1
P          mk1mem           1
            natom          10
            nband          50
           nbdbuf           4
            ngfft          72      72      72
             nkpt           1
            nstep        2000
             nsym          48
           ntypat           4
              occ      2.000000  2.000000  2.000000  2.000000  2.000000  2.000000
                       2.000000  2.000000  2.000000  2.000000  2.000000  2.000000
                       2.000000  2.000000  2.000000  2.000000  2.000000  2.000000
                       2.000000  2.000000  2.000000  2.000000  2.000000  2.000000
                       2.000000  2.000000  2.000000  2.000000  2.000000  2.000000
                       2.000000  2.000000  2.000000  2.000000  2.000000  2.000000
                       2.000000  2.000000  2.000000  2.000000  2.000000  0.000000
                       0.000000  0.000000  0.000000  0.000000  0.000000  0.000000
                       0.000000  0.000000
        optdriver           1
            prtwf          -1
            rfdir           1       1       1
           rfelfd           2
            rprim      1.0169063354E+01  0.0000000000E+00  5.8711114651E+00
                       3.3896877848E+00  9.5874848750E+00  5.8711114651E+00
                       0.0000000000E+00  0.0000000000E+00  1.1742222930E+01
          spgroup         225
           symrel      1  0  0   0  1  0   0  0  1      -1  0  0   0 -1  0   0  0 -1
                       0 -1  1   0 -1  0   1 -1  0       0  1 -1   0  1  0  -1  1  0
                      -1  0  0  -1  0  1  -1  1  0       1  0  0   1  0 -1   1 -1  0
                       0  1 -1   1  0 -1   0  0 -1       0 -1  1  -1  0  1   0  0  1
                      -1  0  0  -1  1  0  -1  0  1       1  0  0   1 -1  0   1  0 -1
                       0 -1  1   1 -1  0   0 -1  0       0  1 -1  -1  1  0   0  1  0
                       1  0  0   0  0  1   0  1  0      -1  0  0   0  0 -1   0 -1  0
                       0  1 -1   0  0 -1   1  0 -1       0 -1  1   0  0  1  -1  0  1
                      -1  0  1  -1  1  0  -1  0  0       1  0 -1   1 -1  0   1  0  0
                       0 -1  0   1 -1  0   0 -1  1       0  1  0  -1  1  0   0  1 -1
                       1  0 -1   0  0 -1   0  1 -1      -1  0  1   0  0  1   0 -1  1
                       0  1  0   0  0  1   1  0  0       0 -1  0   0  0 -1  -1  0  0
                       1  0 -1   0  1 -1   0  0 -1      -1  0  1   0 -1  1   0  0  1
                       0 -1  0   0 -1  1   1 -1  0       0  1  0   0  1 -1  -1  1  0
                      -1  0  1  -1  0  0  -1  1  0       1  0 -1   1  0  0   1 -1  0
                       0  1  0   1  0  0   0  0  1       0 -1  0  -1  0  0   0  0 -1
                       0  0 -1   0  1 -1   1  0 -1       0  0  1   0 -1  1  -1  0  1
                       1 -1  0   0 -1  1   0 -1  0      -1  1  0   0  1 -1   0  1  0
                       0  0  1   1  0  0   0  1  0       0  0 -1  -1  0  0   0 -1  0
                      -1  1  0  -1  0  0  -1  0  1       1 -1  0   1  0  0   1  0 -1
                       0  0  1   0  1  0   1  0  0       0  0 -1   0 -1  0  -1  0  0
                       1 -1  0   0 -1  0   0 -1  1      -1  1  0   0  1  0   0  1 -1
                       0  0 -1   1  0 -1   0  1 -1       0  0  1  -1  0  1   0 -1  1
                      -1  1  0  -1  0  1  -1  0  0       1 -1  0   1  0 -1   1  0  0
           tolwfr      1.00000000E-20
            typat      1  2  2  3  4  4  4  4  4  4
           useylm           1
           xangst      0.0000000000E+00  0.0000000000E+00  0.0000000000E+00
                       5.3812365599E+00  3.8051088627E+00  9.3205751293E+00
                       1.7937455200E+00  1.2683696209E+00  3.1068583764E+00
                       3.5874910399E+00  2.5367392418E+00  6.2137167528E+00
                       2.0334544963E+00  1.4378694635E+00  6.2137167528E+00
                       4.3645093117E+00  1.4378694635E+00  7.5595518781E+00
                       2.8104727681E+00  3.6356090200E+00  4.8678816276E+00
                       4.3645093117E+00  1.4378694635E+00  4.8678816276E+00
                       5.1415275836E+00  3.6356090200E+00  6.2137167528E+00
                       2.8104727681E+00  3.6356090200E+00  7.5595518781E+00
            xcart      0.0000000000E+00  0.0000000000E+00  0.0000000000E+00
                       1.0169063354E+01  7.1906136562E+00  1.7613334395E+01
                       3.3896877848E+00  2.3968712187E+00  5.8711114651E+00
                       6.7793755696E+00  4.7937424375E+00  1.1742222930E+01
                       3.8426721016E+00  2.7171795009E+00  1.1742222930E+01
                       8.2477273036E+00  2.7171795009E+00  1.4285482737E+01
                       5.3110238356E+00  6.8703053741E+00  9.1989631235E+00
                       8.2477273036E+00  2.7171795009E+00  9.1989631235E+00
                       9.7160790376E+00  6.8703053741E+00  1.1742222930E+01
                       5.3110238356E+00  6.8703053741E+00  1.4285482737E+01
             xred      0.0000000000E+00  0.0000000000E+00  0.0000000000E+00
                       7.5000000000E-01  7.5000000000E-01  7.5000000000E-01
                       2.5000000000E-01  2.5000000000E-01  2.5000000000E-01
                       5.0000000000E-01  5.0000000000E-01  5.0000000000E-01
                       2.8340900000E-01  2.8340900000E-01  7.1659100000E-01
                       7.1659100000E-01  2.8340900000E-01  7.1659100000E-01
                       2.8340900000E-01  7.1659100000E-01  2.8340900000E-01
                       7.1659100000E-01  2.8340900000E-01  2.8340900000E-01
                       7.1659100000E-01  7.1659100000E-01  2.8340900000E-01
                       2.8340900000E-01  7.1659100000E-01  7.1659100000E-01
            znucl       19.00000   37.00000   31.00000    9.00000

 chkinp: Checking input parameters for consistency.

== DATASET  1 ==================================================================
-   mpi_nproc: 1, omp_nthreads: -1 (-1 if OMP is not activated)

--- !DatasetInfo
iteration_state: {dtset: 1, }
dimensions: {natom: 10, nkpt: 1, mband: 50, nsppol: 1, nspinor: 1, nspden: 1, mpw: 14841, }
cutoff_energies: {ecut:  42.0, pawecutdg:  -1.0, }
electrons: {nelect:   8.20000000E+01, charge:   0.00000000E+00, occopt:   1.00000000E+00, tsmear:   1.00000000E-02, }
meta: {optdriver: 1, rfelfd: 2, }
...

 Real(R)+Recip(G) space primitive vectors, cartesian coordinates (Bohr,Bohr^-1):
 R(1)= 10.1690634  0.0000000  5.8711115  G(1)=  0.0983375 -0.0347675  0.0000000
 R(2)=  3.3896878  9.5874849  5.8711115  G(2)=  0.0000000  0.1043026  0.0000000
 R(3)=  0.0000000  0.0000000 11.7422229  G(3)= -0.0491687 -0.0347675  0.0851628
 Unit cell volume ucvol=  1.1448167E+03 bohr^3
 Angles (23,13,12)=  6.00000000E+01  6.00000000E+01  6.00000000E+01 degrees

 getcut: wavevector=  0.0000  0.0000  0.0000  ngfft=  72  72  72
         ecut(hartree)=     42.000   => boxcut(ratio)=   2.10180

--- Pseudopotential description ------------------------------------------------
- pspini: atom type   1  psp file is /scratch/users/j/a/jabreu/pseudos/PBEsol/K.psp8
- pspatm: opening atomic psp file    /scratch/users/j/a/jabreu/pseudos/PBEsol/K.psp8
- K     ONCVPSP-3.3.0  r_core=   1.36296   1.46408   1.61068
- 19.00000   9.00000    180112                znucl, zion, pspdat
    8 -116133    2    4       400   0.00000   pspcod,pspxc,lmax,lloc,mmax,r2well
    3.99000000000000    5.00000000000000    0.00000000000000   rchrg,fchrg,qchrg
     nproj     2     2     2
     extension_switch     1
  pspatm : epsatm=    8.32487830
         --- l  ekb(1:nproj) -->
             0   10.921326    0.816676
             1    4.431000    0.560368
             2   -3.384038   -1.043186
 pspatm: atomic psp has been read  and splines computed

- pspini: atom type   2  psp file is /scratch/users/j/a/jabreu/pseudos/PBEsol/Rb.psp8
- pspatm: opening atomic psp file    /scratch/users/j/a/jabreu/pseudos/PBEsol/Rb.psp8
- Rb    ONCVPSP-3.3.0  r_core=   1.71227   1.75361   1.90633
- 37.00000   9.00000    180112                znucl, zion, pspdat
    8 -116133    2    4       600   0.00000   pspcod,pspxc,lmax,lloc,mmax,r2well
    5.99000000000000    7.00000000000000    0.00000000000000   rchrg,fchrg,qchrg
     nproj     2     2     2
     extension_switch     1
  pspatm : epsatm=   34.48400912
         --- l  ekb(1:nproj) -->
             0    8.196957   -0.477221
             1    3.231347   -0.378736
             2   -1.047201    0.996637
 pspatm: atomic psp has been read  and splines computed

[...]

- pspini: atom type   4  psp file is /scratch/users/j/a/jabreu/pseudos/PBEsol/F.psp8
- pspatm: opening atomic psp file    /scratch/users/j/a/jabreu/pseudos/PBEsol/F.psp8
- F     ONCVPSP-3.3.0  r_core=   1.30942   1.45782   1.60379
-  9.00000   7.00000    180112                znucl, zion, pspdat
    8 -116133    2    4       600   0.00000   pspcod,pspxc,lmax,lloc,mmax,r2well
    5.99000000000000    2.50000000000000    0.00000000000000   rchrg,fchrg,qchrg
[...]
 ETOT 24  -46.012294906647      0.000E+00 1.672E-11 0.000E+00
 ETOT 25  -46.012294906647      0.000E+00 1.047E-11 0.000E+00
 ETOT 26  -46.012294906647     -7.105E-15 3.209E-12 0.000E+00
 ETOT 27  -46.012294906647      7.105E-15 2.009E-12 0.000E+00
 ETOT 28  -46.012294906647      0.000E+00 6.170E-13 0.000E+00
 ETOT 29  -46.012294906647     -2.132E-14 3.860E-13 0.000E+00
 ETOT 30  -46.012294906647      7.105E-15 1.188E-13 0.000E+00
 ETOT 31  -46.012294906647      1.421E-14 7.426E-14 0.000E+00
 ETOT 32  -46.012294906647      0.000E+00 2.289E-14 0.000E+00
 ETOT 33  -46.012294906647      1.421E-14 1.430E-14 0.000E+00
 ETOT 34  -46.012294906647     -2.132E-14 4.416E-15 0.000E+00
 ETOT 35  -46.012294906647      7.105E-15 2.756E-15 0.000E+00
 ETOT 36  -46.012294906647     -2.842E-14 8.523E-16 0.000E+00
 ETOT 37  -46.012294906647      7.105E-15 5.313E-16 0.000E+00
 ETOT 38  -46.012294906647     -2.132E-14 1.646E-16 0.000E+00
 ETOT 39  -46.012294906647      2.842E-14 1.025E-16 0.000E+00
 ETOT 40  -46.012294906647     -2.132E-14 3.180E-17 0.000E+00
 ETOT 41  -46.012294906647      3.553E-14 1.978E-17 0.000E+00
 ETOT 42  -46.012294906647     -2.842E-14 6.148E-18 0.000E+00
 ETOT 43  -46.012294906647      2.132E-14 3.820E-18 0.000E+00
 ETOT 44  -46.012294906647      7.105E-15 1.189E-18 0.000E+00
 ETOT 45  -46.012294906647      0.000E+00 7.379E-19 0.000E+00
 ETOT 46  -46.012294906647     -1.421E-14 2.299E-19 0.000E+00
 ETOT 47  -46.012294906647      0.000E+00 1.426E-19 0.000E+00
 ETOT 48  -46.012294906647     -1.421E-14 4.449E-20 0.000E+00
 ETOT 49  -46.012294906647      0.000E+00 2.755E-20 0.000E+00
 ETOT 50  -46.012294906647      0.000E+00 9.761E-21 0.000E+00

 At SCF step   50   max residual=  9.76E-21 < tolwfr=  1.00E-20 =>converged.

 ----iterations are completed or convergence reached----

 dfpt_looppert: DFPT cycle converged with prtwf=-1. Will skip output of the 1st-order WFK file.
 dfpt_looppert : ek2=    7.0435921556E+01
          f-sum rule ratio=    1.0455225079E+00
 prteigrs : about to open file /scratch/users/j/a/jabreu/flow_simple_10atoms/flow/w346/t1/tmpdata/tmp_1WF1_EIG
 Expectation of eigenvalue derivatives (hartree) for nkpt=   1  k points:
  (in case of degenerate eigenvalues, averaged derivative)
 kpt#   1, nband= 50, wtk=  1.00000, kpt=  0.0000  0.0000  0.0000 (reduced coord)
   0.00000    0.00000    0.00000    0.00000    0.00000    0.00000    0.00000   -0.00000
  -0.00000   -0.00000   -0.00000   -0.00000    0.00000    0.00000   -0.00000   -0.00000
  -0.00000   -0.00000   -0.00000   -0.00000   -0.00000   -0.00000   -0.00000   -0.00000
   0.00000    0.00000    0.00000   -0.00000   -0.00000   -0.00000   -0.00000   -0.00000
   0.00000    0.00000    0.00000    0.00000    0.00000    0.00000    0.00000    0.00000
   0.00000   -0.00000    0.00000    0.00000    0.00000    0.00000    0.00000    0.00000
  -0.00000   -0.00000

 Eight components of 2nd-order total energy (hartree) are
 1,2,3: 0th-order hamiltonian combined with 1st-order wavefunctions
     kin0=   5.85202930E+01 eigvalue=   4.65634480E+00  local=  -2.54564257E+01
 4,5,6: 1st-order hamiltonian combined with 1st and 0th-order wfs
     kin1=  -7.36423414E+01  Hartree=   0.00000000E+00     xc=   0.00000000E+00
 7,8,9: eventually, occupation + non-local contributions
    edocc=   6.51922666E+00     enl0=   1.77285612E+00   enl1=  -1.83822485E+01
 1-9 gives the relaxation energy (to be shifted if some occ is /=2.0)
   erelax=  -4.60122949E+01
  No Ewald or frozen-wf contrib.: the relaxation energy is the total one
 2DEtotal=   -0.4601229491E+02 Ha. Also 2DEtotal=   -0.125205821898E+04 eV
    (  non-var. 2DEtotal :   -4.6012294906E+01 Ha)

 CALCULATION OF EFFECTIVE MASSES
 NOTE : Additional infos (eff. mass eigenvalues, eigenvectors and, if degenerate, average mass) are available in stdout.

 COMMENTS:
 - At k-point ( 0.000, 0.000, 0.000), bands    39 through    41
   are DEGENERATE (effective mass tensor is therefore not defined).
   See Section IIIB Eqs. (67)-(70) and Appendix E of PRB 93 205147 (2016).
 - Angular average effective mass for Frohlich model is to be averaged over degenerate bands. See later.
 - Associated theta integrals calculated with ntheta=   1000 points.

 K-point ( 0.000, 0.000, 0.000) | band =    39
 Transport equivalent effective mass tensor:
             -4.4654800193             -0.0000014931              0.0000000036
             -0.0000014931             -4.4654784953              0.0000000012
              0.0000000036              0.0000000012             -4.4654713595
 Transport equivalent effective mass tensor eigenvalues:
             -4.4654809336             -4.4654775810             -4.4654713595
 Angular average effective mass 1/(<1/m>)=  -4.1977721264
 Angular average effective mass for Frohlich model (<m**0.5>)**2=  -4.2078675956
 Effective masses along directions: (cart. coord. / red. coord. -> eff. mass)
    1:   1.000000  0.000000  0.000000 /   0.948683  0.316228  0.000000 ->  -4.4947850885
    2:   0.000000  1.000000  0.000000 /   0.000000  1.000000  0.000000 ->  -5.1411746693
    3:   0.000000  0.000000  1.000000 /   0.408248  0.408248  0.816497 ->  -3.9927807701
    4:   0.577350  0.577350  0.577350 /   0.585539  0.688047  0.428644 ->  -4.3233667707
    5:   0.000000  0.707107  0.707107 /   0.289489  0.762222  0.578977 ->  -4.0204633785
    6:   0.707107  0.000000  0.707107 /   0.731423  0.422287  0.535439 ->  -4.1428914906
    7:   0.707107  0.707107  0.000000 /   0.616798  0.787122  0.000000 ->  -4.0314062361

[...]

 K-point ( 0.000, 0.000, 0.000) | band =    41
 Transport equivalent effective mass tensor:
           -120.9963246306             -0.0000000180              0.0000000311
             -0.0000000180           -120.9963246317              0.0000000032
              0.0000000311              0.0000000032           -120.9963246346
 Transport equivalent effective mass tensor eigenvalues:
           -120.9963246697           -120.9963246296           -120.9963245976
 Angular average effective mass 1/(<1/m>)= -13.6299421179
 Angular average effective mass for Frohlich model (<m**0.5>)**2= -16.4902718337
 Effective masses along directions: (cart. coord. / red. coord. -> eff. mass)
    1:   1.000000  0.000000  0.000000 /   0.948683  0.316228  0.000000 -> -11.8998484517
    2:   0.000000  1.000000  0.000000 /   0.000000  1.000000  0.000000 ->  -7.9257067198
    3:   0.000000  0.000000  1.000000 /   0.408248  0.408248  0.816497 -> -10.1833259789
    4:   0.577350  0.577350  0.577350 /   0.585539  0.688047  0.428644 -> -11.4781332563
    5:   0.000000  0.707107  0.707107 /   0.289489  0.762222  0.578977 -> -19.4464364211
    6:   0.707107  0.000000  0.707107 /   0.731423  0.422287  0.535439 -> -11.0810764811
    7:   0.707107  0.707107  0.000000 /   0.616798  0.787122  0.000000 -> -48.8704221911

 Angular average effective mass for Frohlich model, averaged over degenerate bands.
 Value of     (<<m**0.5>>)**2 =     7.726855E+00
 Absolute Value of <<m**0.5>> =     2.779722E+00

 K-point ( 0.000, 0.000, 0.000) | band =    42
 Effective mass tensor:
              0.5060029337              0.0000000000             -0.0000000000
              0.0000000000              0.5060029337              0.0000000000
             -0.0000000000              0.0000000000              0.5060029338
 Effective mass tensor eigenvalues:
              0.5060029337              0.5060029337              0.5060029338
 Angular average effective mass 1/(<1/m>)=   0.5060029337
 Angular average effective mass for Frohlich model (<m**0.5>)**2=   0.5060029337
 Effective masses along directions: (cart. coord. / red. coord. -> eff. mass)
    1:   1.000000  0.000000  0.000000 /   0.948683  0.316228  0.000000 ->   0.5060029337
    2:   0.000000  1.000000  0.000000 /   0.000000  1.000000  0.000000 ->   0.5060029337
    3:   0.000000  0.000000  1.000000 /   0.408248  0.408248  0.816497 ->   0.5060029338
    4:   0.577350  0.577350  0.577350 /   0.585539  0.688047  0.428644 ->   0.5060029338
    5:   0.000000  0.707107  0.707107 /   0.289489  0.762222  0.578977 ->   0.5060029338
    6:   0.707107  0.000000  0.707107 /   0.731423  0.422287  0.535439 ->   0.5060029337
    7:   0.707107  0.707107  0.000000 /   0.616798  0.787122  0.000000 ->   0.5060029337

 END OF EFFECTIVE MASSES SECTION

 ---- first-order wavefunction calculations are completed ----

 Total localisation tensor (bohr^2) in cartesian coordinates
  WARNING : still subject to testing - especially symmetries.
      direction              matrix element
   alpha     beta       real part   imaginary part
     1        1       0.7024465148    0.0000000000
     1        2       0.1986818740    0.0000000000
     1        3       0.4866692198    0.0000000000
     2        1       0.1986818740    0.0000000000
     2        2       0.5619572017    0.0000000000
     2        3       0.3441271003    0.0000000000
     3        1       0.4866692198    0.0000000000
     3        2       0.3441271003    0.0000000000
     3        3       1.2644037258    0.0000000000

 respfn : d/dk was computed, but no 2DTE, so no DDB output.

== END DATASET(S) ==============================================================

 -outvars: echo values of variables after computation  --------
            acell      1.0000000000E+00  1.0000000000E+00  1.0000000000E+00 Bohr
              amu      3.90983000E+01  8.54678000E+01  6.97230000E+01
                       1.89984032E+01
             ecut      4.20000000E+01 Hartree
           etotal     -4.6012294907E+01
            fcart      0.0000000000E+00  0.0000000000E+00  0.0000000000E+00
                       0.0000000000E+00  0.0000000000E+00  0.0000000000E+00
                       0.0000000000E+00  0.0000000000E+00  0.0000000000E+00
                       0.0000000000E+00  0.0000000000E+00  0.0000000000E+00
                       0.0000000000E+00  0.0000000000E+00  0.0000000000E+00
                       0.0000000000E+00  0.0000000000E+00  0.0000000000E+00
                       0.0000000000E+00  0.0000000000E+00  0.0000000000E+00
                       0.0000000000E+00  0.0000000000E+00  0.0000000000E+00
                       0.0000000000E+00  0.0000000000E+00  0.0000000000E+00
                       0.0000000000E+00  0.0000000000E+00  0.0000000000E+00
-          fftalg         512
           irdden           1
           irdwfk           1
           istwfk        1
              ixc     -116133
           kptopt           0
P           mkmem           1
P          mkqmem           1
P          mk1mem           1
            natom          10
            nband          50
           nbdbuf           4
            ngfft          72      72      72
             nkpt           1
            nstep        2000
             nsym          48
           ntypat           4
              occ      2.000000  2.000000  2.000000  2.000000  2.000000  2.000000
                       2.000000  2.000000  2.000000  2.000000  2.000000  2.000000
                       2.000000  2.000000  2.000000  2.000000  2.000000  2.000000
                       2.000000  2.000000  2.000000  2.000000  2.000000  2.000000
                       2.000000  2.000000  2.000000  2.000000  2.000000  2.000000
                       2.000000  2.000000  2.000000  2.000000  2.000000  2.000000
                       2.000000  2.000000  2.000000  2.000000  2.000000  0.000000
                       0.000000  0.000000  0.000000  0.000000  0.000000  0.000000
                       0.000000  0.000000
        optdriver           1
            prtwf          -1
            rfdir           1       1       1
           rfelfd           2
            rprim      1.0169063354E+01  0.0000000000E+00  5.8711114651E+00
                       3.3896877848E+00  9.5874848750E+00  5.8711114651E+00
                       0.0000000000E+00  0.0000000000E+00  1.1742222930E+01
          spgroup         225
           strten      0.0000000000E+00  0.0000000000E+00  0.0000000000E+00
                       0.0000000000E+00  0.0000000000E+00  0.0000000000E+00
           symrel      1  0  0   0  1  0   0  0  1      -1  0  0   0 -1  0   0  0 -1
                       0 -1  1   0 -1  0   1 -1  0       0  1 -1   0  1  0  -1  1  0
                      -1  0  0  -1  0  1  -1  1  0       1  0  0   1  0 -1   1 -1  0
                       0  1 -1   1  0 -1   0  0 -1       0 -1  1  -1  0  1   0  0  1
                      -1  0  0  -1  1  0  -1  0  1       1  0  0   1 -1  0   1  0 -1
                       0 -1  1   1 -1  0   0 -1  0       0  1 -1  -1  1  0   0  1  0
                       1  0  0   0  0  1   0  1  0      -1  0  0   0  0 -1   0 -1  0
                       0  1 -1   0  0 -1   1  0 -1       0 -1  1   0  0  1  -1  0  1
                      -1  0  1  -1  1  0  -1  0  0       1  0 -1   1 -1  0   1  0  0
                       0 -1  0   1 -1  0   0 -1  1       0  1  0  -1  1  0   0  1 -1
                       1  0 -1   0  0 -1   0  1 -1      -1  0  1   0  0  1   0 -1  1
                       0  1  0   0  0  1   1  0  0       0 -1  0   0  0 -1  -1  0  0
                       1  0 -1   0  1 -1   0  0 -1      -1  0  1   0 -1  1   0  0  1
                       0 -1  0   0 -1  1   1 -1  0       0  1  0   0  1 -1  -1  1  0
                      -1  0  1  -1  0  0  -1  1  0       1  0 -1   1  0  0   1 -1  0
                       0  1  0   1  0  0   0  0  1       0 -1  0  -1  0  0   0  0 -1
                       0  0 -1   0  1 -1   1  0 -1       0  0  1   0 -1  1  -1  0  1
                       1 -1  0   0 -1  1   0 -1  0      -1  1  0   0  1 -1   0  1  0
                       0  0  1   1  0  0   0  1  0       0  0 -1  -1  0  0   0 -1  0
                      -1  1  0  -1  0  0  -1  0  1       1 -1  0   1  0  0   1  0 -1
                       0  0  1   0  1  0   1  0  0       0  0 -1   0 -1  0  -1  0  0
                       1 -1  0   0 -1  0   0 -1  1      -1  1  0   0  1  0   0  1 -1
                       0  0 -1   1  0 -1   0  1 -1       0  0  1  -1  0  1   0 -1  1
                      -1  1  0  -1  0  1  -1  0  0       1 -1  0   1  0 -1   1  0  0
           tolwfr      1.00000000E-20
            typat      1  2  2  3  4  4  4  4  4  4
           useylm           1
           xangst      0.0000000000E+00  0.0000000000E+00  0.0000000000E+00
                       5.3812365599E+00  3.8051088627E+00  9.3205751293E+00
                       1.7937455200E+00  1.2683696209E+00  3.1068583764E+00
                       3.5874910399E+00  2.5367392418E+00  6.2137167528E+00
                       2.0334544963E+00  1.4378694635E+00  6.2137167528E+00
                       4.3645093117E+00  1.4378694635E+00  7.5595518781E+00
                       2.8104727681E+00  3.6356090200E+00  4.8678816276E+00
                       4.3645093117E+00  1.4378694635E+00  4.8678816276E+00
                       5.1415275836E+00  3.6356090200E+00  6.2137167528E+00
                       2.8104727681E+00  3.6356090200E+00  7.5595518781E+00
            xcart      0.0000000000E+00  0.0000000000E+00  0.0000000000E+00
                       1.0169063354E+01  7.1906136562E+00  1.7613334395E+01
                       3.3896877848E+00  2.3968712187E+00  5.8711114651E+00
                       6.7793755696E+00  4.7937424375E+00  1.1742222930E+01
                       3.8426721016E+00  2.7171795009E+00  1.1742222930E+01
                       8.2477273036E+00  2.7171795009E+00  1.4285482737E+01
                       5.3110238356E+00  6.8703053741E+00  9.1989631235E+00
                       8.2477273036E+00  2.7171795009E+00  9.1989631235E+00
                       9.7160790376E+00  6.8703053741E+00  1.1742222930E+01
                       5.3110238356E+00  6.8703053741E+00  1.4285482737E+01
             xred      0.0000000000E+00  0.0000000000E+00  0.0000000000E+00
                       7.5000000000E-01  7.5000000000E-01  7.5000000000E-01
                       2.5000000000E-01  2.5000000000E-01  2.5000000000E-01
                       5.0000000000E-01  5.0000000000E-01  5.0000000000E-01
                       2.8340900000E-01  2.8340900000E-01  7.1659100000E-01
                       7.1659100000E-01  2.8340900000E-01  7.1659100000E-01
                       2.8340900000E-01  7.1659100000E-01  2.8340900000E-01
                       7.1659100000E-01  2.8340900000E-01  2.8340900000E-01
                       7.1659100000E-01  7.1659100000E-01  2.8340900000E-01
                       2.8340900000E-01  7.1659100000E-01  7.1659100000E-01
            znucl       19.00000   37.00000   31.00000    9.00000

- Timing analysis has been suppressed with timopt=0

 Suggested references for the acknowledgment of ABINIT usage.

 Calculation completed.
.Delivered   2 WARNINGs and   5 COMMENTs to log file.