.Version 9.5.2 of ABINIT

 ABINIT is a project of the Universite Catholique de Louvain,
 Corning Inc. and other collaborators, see ~abinit/doc/developers/contributors.txt .
 acknowledgments of the ABINIT effort.

.Starting date : Mon 24 May 2021.
- ( at 11h24 )

- input  file    -> /scratch/users/j/a/jabreu/flow_simple_10atoms/flow/w322/t1/run.abi
- output file    -> /scratch/users/j/a/jabreu/flow_simple_10atoms/flow/w322/t1/run.abo
- root for input  files -> /scratch/users/j/a/jabreu/flow_simple_10atoms/flow/w322/t1/indata/in
- root for output files -> /scratch/users/j/a/jabreu/flow_simple_10atoms/flow/w322/t1/outdata/out

 Symmetries : space group Cc (#  9); Bravais mC (1-face-center monocl.)
     intxc =       0      iscf =       7    lmnmax =      18     lnmax =       6
     mgfft =      80  mpssoang =       3    mqgrid =    3506     natom =      10
  nloc_mem =       1    nspden =       1   nspinor =       1    nsppol =       1
      nsym =       2    n1xccc =    2501    ntypat =       2    occopt =       1
   xclevel =       2
-    mband =          83        mffmem =           1         mkmem =           1
-   mkqmem =           1        mk1mem =           1           mpw =       22163
      nfft =      512000          nkpt =           1
  Rough estimation (10% accuracy) of disk space for files :

------------- Echo of variables that govern the present computation ------------
-
- outvars: echo of selected default values
-   iomode0 =  0 , fftalg0 =512 , wfoptalg0 =  0
-
- outvars: echo of global parameters not present in the input file
-  max_nthreads =    0
-
 -outvars: echo values of preprocessed input variables --------
            acell      1.0000000000E+00  1.0000000000E+00  1.0000000000E+00 Bohr
              amu      6.97230000E+01  7.89600000E+01
             ecut      4.30000000E+01 Hartree
-          fftalg         512
           irdden           1
           irdwfk           1
           istwfk        1
              ixc     -116133
           kptopt           0
P           mkmem           1
P          mkqmem           1
P          mk1mem           1
            natom          10
            nband          83
           nbdbuf           4
            ngfft          80      80      80
             nkpt           1
            nstep        2000
             nsym           2
           ntypat           2
              occ      2.000000  2.000000  2.000000  2.000000  2.000000  2.000000
                       2.000000  2.000000  2.000000  2.000000  2.000000  2.000000
                       2.000000  2.000000  2.000000  2.000000  2.000000  2.000000
                       2.000000  2.000000  2.000000  2.000000  2.000000  2.000000
                       2.000000  2.000000  2.000000  2.000000  2.000000  2.000000
                       2.000000  2.000000  2.000000  2.000000  2.000000  2.000000
                       2.000000  2.000000  2.000000  2.000000  2.000000  2.000000
                       2.000000  2.000000  2.000000  2.000000  2.000000  2.000000
                       2.000000  2.000000  2.000000  2.000000  2.000000  2.000000
                       2.000000  2.000000  2.000000  2.000000  2.000000  2.000000
                       2.000000  2.000000  2.000000  2.000000  2.000000  2.000000
                       2.000000  2.000000  2.000000  2.000000  2.000000  2.000000
                       2.000000  2.000000  0.000000  0.000000  0.000000  0.000000
                       0.000000  0.000000  0.000000  0.000000  0.000000
        optdriver           1
            prtwf          -1
            rfdir           1       1       1
           rfelfd           2
            rprim      1.2513414376E+01  0.0000000000E+00  2.0323356982E+00
                      -6.8590133272E+00  1.0466110812E+01  2.0323356982E+00
                       0.0000000000E+00  0.0000000000E+00  1.2550469187E+01
          spgroup           9
           symrel      1  0  0   0  1  0   0  0  1       0  1  0   1  0  0   0  0  1
            tnons      0.0000000  0.0000000  0.0000000     0.0000000  0.0000000  0.5000000
           tolwfr      1.00000000E-20
            typat      1  1  1  1  2  2  2  2  2  2
           useylm           1
           xangst     -9.9104454107E-01  4.3291781633E+00  4.4278918959E+00
                       4.1641109716E+00  1.5440636865E+00  7.7486030214E+00
                       2.3756402904E+00  2.2952959660E+00  4.3884550369E+00
                       6.1759910452E-01  3.2450919413E+00  7.7091661624E+00
                       2.8068292762E+00  3.2852676929E+00  2.1792724652E+00
                       1.2092539936E+00  4.1483706656E+00  5.4999835906E+00
                       1.2284892552E+00  2.5618549337E-01  4.5388088540E+00
                      -4.5910398545E-01  1.1679213962E+00  1.2180977285E+00
                       4.6102520651E+00  2.0894215463E+00  5.4020854276E+00
                      -7.7945655985E-01  5.0012552398E+00  2.0813743021E+00
            xcart     -1.8728027681E+00  8.1809611091E+00  8.3675030293E+00
                       7.8690293233E+00  2.9178574992E+00  1.4642737623E+01
                       4.4893095391E+00  4.3374807697E+00  8.2929781662E+00
                       1.1670931675E+00  6.1323350450E+00  1.4568212760E+01
                       5.3041386337E+00  6.2082562128E+00  4.1182281281E+00
                       2.2851588729E+00  7.8392844556E+00  1.0393462722E+01
                       2.3215082494E+00  4.8412042170E-01  8.5771057035E+00
                      -8.6758079902E-01  2.2070515835E+00  2.3018711099E+00
                       8.7121138067E+00  3.9484344986E+00  1.0208462005E+01
                      -1.4729594306E+00  9.4510027239E+00  3.9332274110E+00
             xred      2.7879100000E-01  7.8166200000E-01  4.9498600000E-01
                       7.8166200000E-01  2.7879100000E-01  9.9498600000E-01
                       5.8592300000E-01  4.1443100000E-01  4.9878000000E-01
                       4.1443100000E-01  5.8592300000E-01  9.9878000000E-01
                       7.4901600000E-01  5.9317700000E-01  1.1078800000E-01
                       5.9317700000E-01  7.4901600000E-01  6.1078800000E-01
                       2.1087600000E-01  4.6256000000E-02  6.4177100000E-01
                       4.6256000000E-02  2.1087600000E-01  1.4177100000E-01
                       9.0301000000E-01  3.7725900000E-01  6.0607500000E-01
                       3.7725900000E-01  9.0301000000E-01  1.0607500000E-01
            znucl       31.00000   34.00000

 chkinp: Checking input parameters for consistency.

== DATASET  1 ==================================================================
-   mpi_nproc: 1, omp_nthreads: -1 (-1 if OMP is not activated)

--- !DatasetInfo
iteration_state: {dtset: 1, }
dimensions: {natom: 10, nkpt: 1, mband: 83, nsppol: 1, nspinor: 1, nspden: 1, mpw: 22163, }
cutoff_energies: {ecut:  43.0, pawecutdg:  -1.0, }
electrons: {nelect:   1.48000000E+02, charge:   0.00000000E+00, occopt:   1.00000000E+00, tsmear:   1.00000000E-02, }
meta: {optdriver: 1, rfelfd: 2, }
...

 Real(R)+Recip(G) space primitive vectors, cartesian coordinates (Bohr,Bohr^-1):
 R(1)= 12.5134144  0.0000000  2.0323357  G(1)=  0.0799142  0.0523722  0.0000000
 R(2)= -6.8590133 10.4661108  2.0323357  G(2)=  0.0000000  0.0955465  0.0000000
 R(3)=  0.0000000  0.0000000 12.5504692  G(3)= -0.0129408 -0.0239529  0.0796783
 Unit cell volume ucvol=  1.6436946E+03 bohr^3
 Angles (23,13,12)=  8.07749947E+01  8.07749947E+01  1.20553716E+02 degrees

 getcut: wavevector=  0.0000  0.0000  0.0000  ngfft=  80  80  80
         ecut(hartree)=     43.000   => boxcut(ratio)=   2.13803

--- Pseudopotential description ------------------------------------------------
- pspini: atom type   1  psp file is /scratch/users/j/a/jabreu/pseudos/PBEsol/Ga.psp8
- pspatm: opening atomic psp file    /scratch/users/j/a/jabreu/pseudos/PBEsol/Ga.psp8
- Ga    ONCVPSP-3.3.0  r_core=   1.66857   1.75011   1.90252
- 31.00000  13.00000    180112                znucl, zion, pspdat
    8 -116133    2    4       600   0.00000   pspcod,pspxc,lmax,lloc,mmax,r2well
    5.99000000000000    5.00000000000000    0.00000000000000   rchrg,fchrg,qchrg
     nproj     2     2     2
     extension_switch     1
  pspatm : epsatm=   24.50969055
         --- l  ekb(1:nproj) -->
             0    7.053021    1.156713
             1    6.846070    1.293139
             2   -8.368667   -2.819170
 pspatm: atomic psp has been read  and splines computed

- pspini: atom type   2  psp file is /scratch/users/j/a/jabreu/pseudos/PBEsol/Se.psp8
- pspatm: opening atomic psp file    /scratch/users/j/a/jabreu/pseudos/PBEsol/Se.psp8
- Se    ONCVPSP-3.3.0  r_core=   1.81943   1.50330   1.90835
- 34.00000  16.00000    180112                znucl, zion, pspdat
    8 -116133    2    4       600   0.00000   pspcod,pspxc,lmax,lloc,mmax,r2well
    5.99000000000000    5.00000000000000    0.00000000000000   rchrg,fchrg,qchrg
     nproj     2     2     2
     extension_switch     1
  pspatm : epsatm=   29.17862020
         --- l  ekb(1:nproj) -->
             0    8.973804    1.019550
             1    6.849857    1.297308
             2   -9.203962   -3.731027
 pspatm: atomic psp has been read  and splines computed

   4.04203515E+04                                ecore*ucvol(ha*bohr**3)

 ==>  initialize data related to q vector <==

 The list of irreducible perturbations for this q vector is:
    1)    idir= 1    ipert=  11
    2)    idir= 2    ipert=  11
    3)    idir= 3    ipert=  11

 Perturbation wavevector (in red.coord.)   0.000000  0.000000  0.000000
 Perturbation : derivative vs k along direction   1

 dfpt_looppert : COMMENT -
  In a d/dk calculation, iscf is set to -3 automatically.
 The set of symmetries contains only one element for this perturbation.
 symkpt : not enough symmetry to change the number of k points.

 Initialisation of the first-order wave-functions :
  ireadwf=   0

--- !BeginCycle
iteration_state: {dtset: 1, }
solver: {iscf: 7, nstep: 2000, nline: 4, wfoptalg: 0, }
tolerances: {tolwfr: 1.00E-20, }
...

     iter   2DEtotal(Ha)        deltaE(Ha) residm    vres2
-ETOT  1  -144.45222750608     -1.445E+02 6.413E-02 0.000E+00
 ETOT  2  -144.58746504522     -1.352E-01 7.836E-03 0.000E+00
 ETOT  3  -144.58799275750     -5.277E-04 8.421E-04 0.000E+00
 ETOT  4  -144.58799886807     -6.111E-06 2.256E-04 0.000E+00
 ETOT  5  -144.58799896136     -9.329E-08 3.409E-05 0.000E+00
 ETOT  6  -144.58799896292     -1.563E-09 1.034E-05 0.000E+00
 ETOT  7  -144.58799896295     -2.785E-11 1.574E-06 0.000E+00
 ETOT  8  -144.58799896295     -1.990E-13 5.067E-07 0.000E+00
 ETOT  9  -144.58799896295     -1.990E-13 7.593E-08 0.000E+00
 ETOT 10  -144.58799896295      0.000E+00 2.545E-08 0.000E+00
 ETOT 11  -144.58799896295      5.684E-14 3.742E-09 0.000E+00
 ETOT 12  -144.58799896295     -1.421E-13 1.296E-09 0.000E+00
 ETOT 13  -144.58799896295      8.527E-14 1.870E-10 0.000E+00
 ETOT 14  -144.58799896295      2.842E-14 6.662E-11 0.000E+00
 ETOT 15  -144.58799896295      0.000E+00 9.446E-12 0.000E+00
 ETOT 16  -144.58799896295      0.000E+00 3.448E-12 0.000E+00
 ETOT 17  -144.58799896295      0.000E+00 4.816E-13 0.000E+00
[...]

 dfpt_looppert: DFPT cycle converged with prtwf=-1. Will skip output of the 1st-order WFK file.
 dfpt_looppert : ek2=    1.0667945556E+02
          f-sum rule ratio=    1.1464470901E+00
 prteigrs : about to open file /scratch/users/j/a/jabreu/flow_simple_10atoms/flow/w322/t1/tmpdata/tmp_1WF1_EIG
 Expectation of eigenvalue derivatives (hartree) for nkpt=   1  k points:
  (in case of degenerate eigenvalues, averaged derivative)
 kpt#   1, nband= 83, wtk=  1.00000, kpt=  0.0000  0.0000  0.0000 (reduced coord)
   0.00000   -0.00000   -0.00000    0.00000   -0.00000    0.00000    0.00000   -0.00000
   0.00000    0.00000    0.00000   -0.00000    0.00000   -0.00000    0.00000    0.00000
   0.00000    0.00000    0.00000   -0.00000   -0.00000    0.00000    0.00000   -0.00000
  -0.00000    0.00000   -0.00000    0.00000    0.00000    0.00000   -0.00000   -0.00000
  -0.00000   -0.00000    0.00000    0.00000   -0.00000   -0.00000   -0.00000   -0.00000
   0.00000   -0.00000   -0.00000   -0.00000    0.00000   -0.00000    0.00000   -0.00000
   0.00000   -0.00000    0.00000   -0.00000   -0.00000    0.00000   -0.00000   -0.00000
  -0.00000    0.00000    0.00000   -0.00000    0.00000   -0.00000    0.00000   -0.00000
   0.00000    0.00000   -0.00000   -0.00000   -0.00000   -0.00000   -0.00000   -0.00000
   0.00000    0.00000    0.00000    0.00000    0.00000   -0.00000   -0.00000   -0.00000
  -0.00000    0.00000    0.00001

 Eight components of 2nd-order total energy (hartree) are
 1,2,3: 0th-order hamiltonian combined with 1st-order wavefunctions
     kin0=   1.58716924E+02 eigvalue=   1.93651780E+01  local=  -6.54531922E+01
 4,5,6: 1st-order hamiltonian combined with 1st and 0th-order wfs
     kin1=  -1.22302351E+02  Hartree=   0.00000000E+00     xc=   0.00000000E+00
 7,8,9: eventually, occupation + non-local contributions
    edocc=   1.64418411E+01     enl0=   1.55172485E+01   enl1=  -1.66873647E+02
 1-9 gives the relaxation energy (to be shifted if some occ is /=2.0)
   erelax=  -1.44587999E+02
  No Ewald or frozen-wf contrib.: the relaxation energy is the total one
 2DEtotal=   -0.1445879990E+03 Ha. Also 2DEtotal=   -0.393443954133E+04 eV
    (  non-var. 2DEtotal :   -1.4458799896E+02 Ha)

 Perturbation wavevector (in red.coord.)   0.000000  0.000000  0.000000
 Perturbation : derivative vs k along direction   2
 The set of symmetries contains only one element for this perturbation.
 symkpt : not enough symmetry to change the number of k points.

[...]

 Perturbation wavevector (in red.coord.)   0.000000  0.000000  0.000000
 Perturbation : derivative vs k along direction   3
 The set of symmetries contains only one element for this perturbation.
 symkpt : not enough symmetry to change the number of k points.

 Initialisation of the first-order wave-functions :
  ireadwf=   0

--- !BeginCycle
iteration_state: {dtset: 1, }
solver: {iscf: 7, nstep: 2000, nline: 4, wfoptalg: 0, }
tolerances: {tolwfr: 1.00E-20, }
...

     iter   2DEtotal(Ha)        deltaE(Ha) residm    vres2
-ETOT  1  -111.41348896538     -1.114E+02 1.150E-01 0.000E+00
 ETOT  2  -111.51531733319     -1.018E-01 4.607E-03 0.000E+00
 ETOT  3  -111.51569769516     -3.804E-04 9.860E-04 0.000E+00
 ETOT  4  -111.51570197315     -4.278E-06 1.401E-04 0.000E+00
 ETOT  5  -111.51570203555     -6.240E-08 3.380E-05 0.000E+00
 ETOT  6  -111.51570203655     -9.924E-10 4.969E-06 0.000E+00
 ETOT  7  -111.51570203656     -1.646E-11 1.310E-06 0.000E+00
 ETOT  8  -111.51570203656     -3.268E-13 1.836E-07 0.000E+00
 ETOT  9  -111.51570203656     -5.684E-14 5.863E-08 0.000E+00
 ETOT 10  -111.51570203656      5.684E-14 8.047E-09 0.000E+00
 ETOT 11  -111.51570203656      2.842E-14 2.763E-09 0.000E+00
 ETOT 12  -111.51570203656     -5.684E-14 3.717E-10 0.000E+00
 ETOT 13  -111.51570203656      8.527E-14 1.317E-10 0.000E+00
 ETOT 14  -111.51570203656     -5.684E-14 1.747E-11 0.000E+00
 ETOT 15  -111.51570203656      0.000E+00 6.305E-12 0.000E+00
 ETOT 16  -111.51570203656      0.000E+00 8.272E-13 0.000E+00
 ETOT 17  -111.51570203656      0.000E+00 3.026E-13 0.000E+00
 ETOT 18  -111.51570203656      0.000E+00 3.933E-14 0.000E+00
 ETOT 19  -111.51570203656     -2.842E-14 1.455E-14 0.000E+00
 ETOT 20  -111.51570203656      2.842E-14 1.876E-15 0.000E+00
 ETOT 21  -111.51570203656      2.842E-14 7.010E-16 0.000E+00
 ETOT 22  -111.51570203656     -2.842E-14 8.962E-17 0.000E+00
 ETOT 23  -111.51570203656      0.000E+00 3.380E-17 0.000E+00
 ETOT 24  -111.51570203656      0.000E+00 4.289E-18 0.000E+00
 ETOT 25  -111.51570203656     -4.263E-14 1.631E-18 0.000E+00
 ETOT 26  -111.51570203656      2.842E-14 2.055E-19 0.000E+00
 ETOT 27  -111.51570203656      1.421E-14 7.874E-20 0.000E+00
 ETOT 28  -111.51570203656      1.421E-14 9.855E-21 0.000E+00

 At SCF step   28   max residual=  9.85E-21 < tolwfr=  1.00E-20 =>converged.

 ----iterations are completed or convergence reached----

 dfpt_looppert: DFPT cycle converged with prtwf=-1. Will skip output of the 1st-order WFK file.
 dfpt_looppert : ek2=    8.2849072099E+01
          f-sum rule ratio=    1.1293639635E+00
 prteigrs : about to open file /scratch/users/j/a/jabreu/flow_simple_10atoms/flow/w322/t1/tmpdata/tmp_1WF1_EIG
 Expectation of eigenvalue derivatives (hartree) for nkpt=   1  k points:
  (in case of degenerate eigenvalues, averaged derivative)
 kpt#   1, nband= 83, wtk=  1.00000, kpt=  0.0000  0.0000  0.0000 (reduced coord)
   0.00000   -0.00000   -0.00000    0.00000    0.00000   -0.00000    0.00000   -0.00000
   0.00000   -0.00000   -0.00000   -0.00000    0.00000    0.00000   -0.00000   -0.00000
   0.00000   -0.00000   -0.00000    0.00000    0.00000   -0.00000   -0.00000   -0.00000
   0.00000   -0.00000    0.00000    0.00000   -0.00000   -0.00000   -0.00000    0.00000
  -0.00000    0.00000    0.00000   -0.00000   -0.00000    0.00000    0.00000    0.00000
   0.00000    0.00000    0.00000    0.00000    0.00000   -0.00000    0.00000    0.00000
  -0.00000    0.00000   -0.00000   -0.00000    0.00000    0.00000   -0.00000   -0.00000
  -0.00000    0.00000    0.00000    0.00000   -0.00000    0.00000   -0.00000    0.00000
   0.00000   -0.00000    0.00000   -0.00000   -0.00000    0.00000   -0.00000    0.00000
   0.00000   -0.00000    0.00000    0.00000   -0.00000    0.00000    0.00000    0.00000
  -0.00000   -0.00000   -0.00000

 Eight components of 2nd-order total energy (hartree) are
 1,2,3: 0th-order hamiltonian combined with 1st-order wavefunctions
     kin0=   1.17748433E+02 eigvalue=   1.54290393E+01  local=  -4.78847658E+01
 4,5,6: 1st-order hamiltonian combined with 1st and 0th-order wfs
     kin1=  -9.35667564E+01  Hartree=   0.00000000E+00     xc=   0.00000000E+00
 7,8,9: eventually, occupation + non-local contributions
    edocc=   1.33615847E+01     enl0=   1.28614104E+01   enl1=  -1.29464648E+02
 1-9 gives the relaxation energy (to be shifted if some occ is /=2.0)
   erelax=  -1.11515702E+02
  No Ewald or frozen-wf contrib.: the relaxation energy is the total one
 2DEtotal=   -0.1115157020E+03 Ha. Also 2DEtotal=   -0.303449657453E+04 eV
    (  non-var. 2DEtotal :   -1.1151570204E+02 Ha)

 CALCULATION OF EFFECTIVE MASSES
 NOTE : Additional infos (eff. mass eigenvalues, eigenvectors and, if degenerate, average mass) are available in stdout.

 K-point ( 0.000, 0.000, 0.000) | band =    74
 Effective mass tensor:
             -1.2379763277             -0.5238428863             -0.0680202105
             -0.5238428863             -1.9245813694             -0.1259031701
             -0.0680202105             -0.1259031701             -0.1164455309
 Effective mass tensor eigenvalues:
             -2.2173393117             -0.9549658355             -0.1066980809
 Angular average effective mass 1/(<1/m>)=  -0.2759790930
 Angular average effective mass for Frohlich model (<m**0.5>)**2=  -0.4434441787
 Effective masses along directions: (cart. coord. / red. coord. -> eff. mass)
    1:   1.000000  0.000000  0.000000 /   0.876906 -0.480661  0.000000 ->  -1.0848667138
    2:   0.000000  1.000000  0.000000 /   0.000000  1.000000  0.000000 ->  -1.6192310123
    3:   0.000000  0.000000  1.000000 /   0.157847  0.157847  0.974766 ->  -0.1071691979
    4:   0.577350  0.577350  0.577350 /   0.726474  0.281656  0.626822 ->  -0.3421973634
    5:   0.000000  0.707107  0.707107 /   0.113994  0.701037  0.703955 ->  -0.2251166624
    6:   0.707107  0.000000  0.707107 /   0.734306 -0.243663  0.633579 ->  -0.2066586076
    7:   0.707107  0.707107  0.000000 /   0.960876  0.276980  0.000000 ->  -1.8601534869

 K-point ( 0.000, 0.000, 0.000) | band =    75
 Effective mass tensor:
              0.1349017986             -0.0001232933              0.0034377799
             -0.0001232933              0.1347401987              0.0063632236
              0.0034377799              0.0063632236              0.1105394253
 Effective mass tensor eigenvalues:
              0.1085379816              0.1349684092              0.1366750318
 Angular average effective mass 1/(<1/m>)=   0.1253178313
 Angular average effective mass for Frohlich model (<m**0.5>)**2=   0.1257550125
 Effective masses along directions: (cart. coord. / red. coord. -> eff. mass)
    1:   1.000000  0.000000  0.000000 /   0.876906 -0.480661  0.000000 ->   0.1347941158
    2:   0.000000  1.000000  0.000000 /   0.000000  1.000000  0.000000 ->   0.1343731331
    3:   0.000000  0.000000  1.000000 /   0.157847  0.157847  0.974766 ->   0.1101510125
    4:   0.577350  0.577350  0.577350 /   0.726474  0.281656  0.626822 ->   0.1324315575
    5:   0.000000  0.707107  0.707107 /   0.113994  0.701037  0.703955 ->   0.1276934499
    6:   0.707107  0.000000  0.707107 /   0.734306 -0.243663  0.633579 ->   0.1247374220
    7:   0.707107  0.707107  0.000000 /   0.960876  0.276980  0.000000 ->   0.1342628728

 END OF EFFECTIVE MASSES SECTION

 ---- first-order wavefunction calculations are completed ----

 Total localisation tensor (bohr^2) in cartesian coordinates
  WARNING : still subject to testing - especially symmetries.
      direction              matrix element
   alpha     beta       real part   imaginary part
     1        1       3.6075102978    0.0000000000
     1        2      -1.2717723535    0.0000000000
     1        3       0.2035843749    0.0000000000
     2        1      -1.2717723535    0.0000000000
     2        2       1.9405867497    0.0000000000
     2        3       0.3768280117    0.0000000000
     3        1       0.2035843749    0.0000000000
     3        2       0.3768280117    0.0000000000
     3        3       2.6618786178    0.0000000000

 respfn : d/dk was computed, but no 2DTE, so no DDB output.

== END DATASET(S) ==============================================================

 -outvars: echo values of variables after computation  --------
            acell      1.0000000000E+00  1.0000000000E+00  1.0000000000E+00 Bohr
              amu      6.97230000E+01  7.89600000E+01
             ecut      4.30000000E+01 Hartree
           etotal     -1.1151570204E+02
            fcart      0.0000000000E+00  0.0000000000E+00  0.0000000000E+00
                       0.0000000000E+00  0.0000000000E+00  0.0000000000E+00
                       0.0000000000E+00  0.0000000000E+00  0.0000000000E+00
                       0.0000000000E+00  0.0000000000E+00  0.0000000000E+00
                       0.0000000000E+00  0.0000000000E+00  0.0000000000E+00
                       0.0000000000E+00  0.0000000000E+00  0.0000000000E+00
                       0.0000000000E+00  0.0000000000E+00  0.0000000000E+00
                       0.0000000000E+00  0.0000000000E+00  0.0000000000E+00
                       0.0000000000E+00  0.0000000000E+00  0.0000000000E+00
                       0.0000000000E+00  0.0000000000E+00  0.0000000000E+00
-          fftalg         512
           irdden           1
           irdwfk           1
           istwfk        1
              ixc     -116133
           kptopt           0
P           mkmem           1
P          mkqmem           1
P          mk1mem           1
            natom          10
            nband          83
           nbdbuf           4
            ngfft          80      80      80
             nkpt           1
            nstep        2000
             nsym           2
           ntypat           2
              occ      2.000000  2.000000  2.000000  2.000000  2.000000  2.000000
                       2.000000  2.000000  2.000000  2.000000  2.000000  2.000000
                       2.000000  2.000000  2.000000  2.000000  2.000000  2.000000
                       2.000000  2.000000  2.000000  2.000000  2.000000  2.000000
                       2.000000  2.000000  2.000000  2.000000  2.000000  2.000000
                       2.000000  2.000000  2.000000  2.000000  2.000000  2.000000
                       2.000000  2.000000  2.000000  2.000000  2.000000  2.000000
                       2.000000  2.000000  2.000000  2.000000  2.000000  2.000000
                       2.000000  2.000000  2.000000  2.000000  2.000000  2.000000
                       2.000000  2.000000  2.000000  2.000000  2.000000  2.000000
                       2.000000  2.000000  2.000000  2.000000  2.000000  2.000000
                       2.000000  2.000000  2.000000  2.000000  2.000000  2.000000
                       2.000000  2.000000  0.000000  0.000000  0.000000  0.000000
                       0.000000  0.000000  0.000000  0.000000  0.000000
        optdriver           1
            prtwf          -1
            rfdir           1       1       1
           rfelfd           2
            rprim      1.2513414376E+01  0.0000000000E+00  2.0323356982E+00
                      -6.8590133272E+00  1.0466110812E+01  2.0323356982E+00
                       0.0000000000E+00  0.0000000000E+00  1.2550469187E+01
          spgroup           9
           strten      0.0000000000E+00  0.0000000000E+00  0.0000000000E+00
                       0.0000000000E+00  0.0000000000E+00  0.0000000000E+00
           symrel      1  0  0   0  1  0   0  0  1       0  1  0   1  0  0   0  0  1
            tnons      0.0000000  0.0000000  0.0000000     0.0000000  0.0000000  0.5000000
           tolwfr      1.00000000E-20
            typat      1  1  1  1  2  2  2  2  2  2
           useylm           1
           xangst     -9.9104454107E-01  4.3291781633E+00  4.4278918959E+00
                       4.1641109716E+00  1.5440636865E+00  7.7486030214E+00
                       2.3756402904E+00  2.2952959660E+00  4.3884550369E+00
                       6.1759910452E-01  3.2450919413E+00  7.7091661624E+00
                       2.8068292762E+00  3.2852676929E+00  2.1792724652E+00
                       1.2092539936E+00  4.1483706656E+00  5.4999835906E+00
                       1.2284892552E+00  2.5618549337E-01  4.5388088540E+00
                      -4.5910398545E-01  1.1679213962E+00  1.2180977285E+00
                       4.6102520651E+00  2.0894215463E+00  5.4020854276E+00
                      -7.7945655985E-01  5.0012552398E+00  2.0813743021E+00
            xcart     -1.8728027681E+00  8.1809611091E+00  8.3675030293E+00
                       7.8690293233E+00  2.9178574992E+00  1.4642737623E+01
                       4.4893095391E+00  4.3374807697E+00  8.2929781662E+00
                       1.1670931675E+00  6.1323350450E+00  1.4568212760E+01
                       5.3041386337E+00  6.2082562128E+00  4.1182281281E+00
                       2.2851588729E+00  7.8392844556E+00  1.0393462722E+01
                       2.3215082494E+00  4.8412042170E-01  8.5771057035E+00
                      -8.6758079902E-01  2.2070515835E+00  2.3018711099E+00
                       8.7121138067E+00  3.9484344986E+00  1.0208462005E+01
                      -1.4729594306E+00  9.4510027239E+00  3.9332274110E+00
             xred      2.7879100000E-01  7.8166200000E-01  4.9498600000E-01
                       7.8166200000E-01  2.7879100000E-01  9.9498600000E-01
                       5.8592300000E-01  4.1443100000E-01  4.9878000000E-01
                       4.1443100000E-01  5.8592300000E-01  9.9878000000E-01
                       7.4901600000E-01  5.9317700000E-01  1.1078800000E-01
                       5.9317700000E-01  7.4901600000E-01  6.1078800000E-01
                       2.1087600000E-01  4.6256000000E-02  6.4177100000E-01
                       4.6256000000E-02  2.1087600000E-01  1.4177100000E-01
                       9.0301000000E-01  3.7725900000E-01  6.0607500000E-01
                       3.7725900000E-01  9.0301000000E-01  1.0607500000E-01
            znucl       31.00000   34.00000

- Timing analysis has been suppressed with timopt=0

 Suggested references for the acknowledgment of ABINIT usage.

 Calculation completed.
.Delivered   2 WARNINGs and   5 COMMENTs to log file.