.Version 9.5.2 of ABINIT

 ABINIT is a project of the Universite Catholique de Louvain,
 Corning Inc. and other collaborators, see ~abinit/doc/developers/contributors.txt .
 acknowledgments of the ABINIT effort.

.Starting date : Wed 26 May 2021.
- ( at 02h49 )

- input  file    -> /scratch/users/j/a/jabreu/flow_simple_11atoms/flow/w263/t1/run.abi
- output file    -> /scratch/users/j/a/jabreu/flow_simple_11atoms/flow/w263/t1/run.abo
- root for input  files -> /scratch/users/j/a/jabreu/flow_simple_11atoms/flow/w263/t1/indata/in
- root for output files -> /scratch/users/j/a/jabreu/flow_simple_11atoms/flow/w263/t1/outdata/out

 Symmetries : space group Cm c m (# 63); Bravais oC (1-face-center ortho.)
     intxc =       0      iscf =       7    lmnmax =      18     lnmax =       6
     mgfft =      72  mpssoang =       3    mqgrid =    3204     natom =      12
  nloc_mem =       1    nspden =       1   nspinor =       1    nsppol =       1
      nsym =       8    n1xccc =    2501    ntypat =       3    occopt =       1
   xclevel =       2
-    mband =          57        mffmem =           1         mkmem =           1
-   mkqmem =           1        mk1mem =           1           mpw =       17664
      nfft =      331776          nkpt =           1
  Rough estimation (10% accuracy) of disk space for files :

------------- Echo of variables that govern the present computation ------------
-
- outvars: echo of selected default values
-   iomode0 =  0 , fftalg0 =512 , wfoptalg0 =  0
-
- outvars: echo of global parameters not present in the input file
-  max_nthreads =    0
-
 -outvars: echo values of preprocessed input variables --------
            acell      1.0000000000E+00  1.0000000000E+00  1.0000000000E+00 Bohr
              amu      3.90983000E+01  4.78800000E+01  1.59994000E+01
             ecut      4.40000000E+01 Hartree
-          fftalg         512
           irdden           1
           irdwfk           1
              ixc     -116133
              kpt     -5.00000000E-01  5.00000000E-01  0.00000000E+00
           kptopt           0
P           mkmem           1
P          mkqmem           1
P          mk1mem           1
            natom          12
            nband          57
           nbdbuf           4
            ngfft          72      72      64
             nkpt           1
            nstep        2000
             nsym           8
           ntypat           3
              occ      2.000000  2.000000  2.000000  2.000000  2.000000  2.000000
                       2.000000  2.000000  2.000000  2.000000  2.000000  2.000000
                       2.000000  2.000000  2.000000  2.000000  2.000000  2.000000
                       2.000000  2.000000  2.000000  2.000000  2.000000  2.000000
                       2.000000  2.000000  2.000000  2.000000  2.000000  2.000000
                       2.000000  2.000000  2.000000  2.000000  2.000000  2.000000
                       2.000000  2.000000  2.000000  2.000000  2.000000  2.000000
                       2.000000  2.000000  2.000000  2.000000  2.000000  2.000000
                       0.000000  0.000000  0.000000  0.000000  0.000000  0.000000
                       0.000000  0.000000  0.000000
        optdriver           1
            prtwf          -1
            rfdir           1       1       1
           rfelfd           2
            rprim      1.1472599755E+01  0.0000000000E+00  0.0000000000E+00
                      -4.0607719434E+00  1.0729896381E+01  0.0000000000E+00
                       0.0000000000E+00  0.0000000000E+00  1.0250487300E+01
          spgroup          63
           symrel      1  0  0   0  1  0   0  0  1      -1  0  0   0 -1  0   0  0 -1
                       0 -1  0  -1  0  0   0  0 -1       0  1  0   1  0  0   0  0  1
                      -1  0  0   0 -1  0   0  0  1       1  0  0   0  1  0   0  0 -1
                       0  1  0   1  0  0   0  0 -1       0 -1  0  -1  0  0   0  0  1
            tnons      0.0000000  0.0000000  0.0000000     0.0000000  0.0000000  0.0000000
                       0.0000000  0.0000000  0.0000000    -0.0000000  0.0000000  0.0000000
                       0.0000000  0.0000000  0.5000000     0.0000000  0.0000000  0.5000000
                      -0.0000000  0.0000000  0.5000000     0.0000000  0.0000000  0.5000000
           tolwfr      1.00000000E-20
            typat      1  1  1  1  2  2  3  3  3  3  3  3
           useylm           1
           xangst      5.3157603368E+00  1.7674359780E+00  1.3560810641E+00
                      -2.2851712640E-01  5.5972241171E+00  1.3560810641E+00
                      -1.3935899850E+00  3.9105806375E+00  4.0682431922E+00
                       4.1506874781E+00  8.0792498423E-02  4.0682431922E+00
                       1.6255003584E+00  2.3531915281E+00  4.0682431922E+00
                       2.2966699933E+00  3.3248250874E+00  1.3560810641E+00
                       6.2811204881E-01  9.0930029288E-01  4.0682431922E+00
                       3.2940583029E+00  4.7687163227E+00  1.3560810641E+00
                       3.0017664098E+00  2.1201430142E+00  2.7121621282E+00
                       9.2040394190E-01  3.5578736014E+00  0.0000000000E+00
                       3.0017664098E+00  2.1201430142E+00  0.0000000000E+00
                       9.2040394190E-01  3.5578736014E+00  2.7121621282E+00
            xcart      1.0045331225E+01  3.3399699559E+00  2.5626218251E+00
                      -4.3183478557E-01  1.0577220686E+01  2.5626218251E+00
                      -2.6335034133E+00  7.3899264255E+00  7.6878654753E+00
                       7.8436625969E+00  1.5267569561E-01  7.6878654753E+00
                       3.0717505063E+00  4.4468875264E+00  7.6878654753E+00
                       4.3400773050E+00  6.2830088550E+00  2.5626218251E+00
                       1.1869597530E+00  1.7183285261E+00  7.6878654753E+00
                       6.2248680583E+00  9.0115678553E+00  2.5626218251E+00
                       5.6725164295E+00  4.0064896593E+00  5.1252436502E+00
                       1.7393113818E+00  6.7234067221E+00  0.0000000000E+00
                       5.6725164295E+00  4.0064896593E+00  0.0000000000E+00
                       1.7393113818E+00  6.7234067221E+00  5.1252436502E+00
             xred      9.8577100000E-01  3.1127700000E-01  2.5000000000E-01
                       3.1127700000E-01  9.8577100000E-01  2.5000000000E-01
                       1.4229000000E-02  6.8872300000E-01  7.5000000000E-01
                       6.8872300000E-01  1.4229000000E-02  7.5000000000E-01
                       4.1443900000E-01  4.1443900000E-01  7.5000000000E-01
                       5.8556100000E-01  5.8556100000E-01  2.5000000000E-01
                       1.6014400000E-01  1.6014400000E-01  7.5000000000E-01
                       8.3985600000E-01  8.3985600000E-01  2.5000000000E-01
                       6.2660500000E-01  3.7339500000E-01  5.0000000000E-01
                       3.7339500000E-01  6.2660500000E-01  0.0000000000E+00
                       6.2660500000E-01  3.7339500000E-01  0.0000000000E+00
                       3.7339500000E-01  6.2660500000E-01  5.0000000000E-01
            znucl       19.00000   22.00000    8.00000

 chkinp: Checking input parameters for consistency.

== DATASET  1 ==================================================================
-   mpi_nproc: 1, omp_nthreads: -1 (-1 if OMP is not activated)

--- !DatasetInfo
iteration_state: {dtset: 1, }
dimensions: {natom: 12, nkpt: 1, mband: 57, nsppol: 1, nspinor: 1, nspden: 1, mpw: 17664, }
cutoff_energies: {ecut:  44.0, pawecutdg:  -1.0, }
electrons: {nelect:   9.60000000E+01, charge:   0.00000000E+00, occopt:   1.00000000E+00, tsmear:   1.00000000E-02, }
meta: {optdriver: 1, rfelfd: 2, }
...

 Real(R)+Recip(G) space primitive vectors, cartesian coordinates (Bohr,Bohr^-1):
 R(1)= 11.4725998  0.0000000  0.0000000  G(1)=  0.0871642  0.0329876  0.0000000
 R(2)= -4.0607719 10.7298964  0.0000000  G(2)=  0.0000000  0.0931975  0.0000000
 R(3)=  0.0000000  0.0000000 10.2504873  G(3)=  0.0000000  0.0000000  0.0975563
 Unit cell volume ucvol=  1.2618330E+03 bohr^3
 Angles (23,13,12)=  9.00000000E+01  9.00000000E+01  1.10729348E+02 degrees

 getcut: wavevector=  0.0000  0.0000  0.0000  ngfft=  72  72  64
         ecut(hartree)=     44.000   => boxcut(ratio)=   2.09095

--- Pseudopotential description ------------------------------------------------
- pspini: atom type   1  psp file is /scratch/users/j/a/jabreu/pseudos/PBEsol/K.psp8
- pspatm: opening atomic psp file    /scratch/users/j/a/jabreu/pseudos/PBEsol/K.psp8
- K     ONCVPSP-3.3.0  r_core=   1.36296   1.46408   1.61068
- 19.00000   9.00000    180112                znucl, zion, pspdat
    8 -116133    2    4       400   0.00000   pspcod,pspxc,lmax,lloc,mmax,r2well
    3.99000000000000    5.00000000000000    0.00000000000000   rchrg,fchrg,qchrg
     nproj     2     2     2
     extension_switch     1
  pspatm : epsatm=    8.32487830
         --- l  ekb(1:nproj) -->
             0   10.921326    0.816676
             1    4.431000    0.560368
             2   -3.384038   -1.043186
 pspatm: atomic psp has been read  and splines computed

- pspini: atom type   2  psp file is /scratch/users/j/a/jabreu/pseudos/PBEsol/Ti.psp8
- pspatm: opening atomic psp file    /scratch/users/j/a/jabreu/pseudos/PBEsol/Ti.psp8
- Ti    ONCVPSP-3.3.0  r_core=   1.35825   1.31050   1.66360
- 22.00000  12.00000    180112                znucl, zion, pspdat
    8 -116133    2    4       600   0.00000   pspcod,pspxc,lmax,lloc,mmax,r2well
    5.99000000000000    2.50000000000000    0.00000000000000   rchrg,fchrg,qchrg
     nproj     2     2     2
     extension_switch     1
  pspatm : epsatm=   14.76919902
         --- l  ekb(1:nproj) -->
             0   11.321950    1.254474
             1    1.946894   -0.084268
             2   -5.237105   -1.488377
 pspatm: atomic psp has been read  and splines computed

- pspini: atom type   3  psp file is /scratch/users/j/a/jabreu/pseudos/PBEsol/O.psp8
- pspatm: opening atomic psp file    /scratch/users/j/a/jabreu/pseudos/PBEsol/O.psp8
- O     ONCVPSP-3.3.0  r_core=   1.35509   1.45563   1.26150
-  8.00000   6.00000    180112                znucl, zion, pspdat
    8 -116133    2    4       600   0.00000   pspcod,pspxc,lmax,lloc,mmax,r2well
    5.99000000000000    4.00000000000000    0.00000000000000   rchrg,fchrg,qchrg
     nproj     2     2     1
     extension_switch     1
  pspatm : epsatm=    6.22910522
         --- l  ekb(1:nproj) -->
             0    6.050032    0.820363
             1   -4.739617   -1.153841
             2   -1.335834
 pspatm: atomic psp has been read  and splines computed

   9.62040408E+03                                ecore*ucvol(ha*bohr**3)

 ==>  initialize data related to q vector <==

 The list of irreducible perturbations for this q vector is:
    1)    idir= 1    ipert=  13
    2)    idir= 2    ipert=  13
    3)    idir= 3    ipert=  13

 Perturbation wavevector (in red.coord.)   0.000000  0.000000  0.000000
 Perturbation : derivative vs k along direction   1

 dfpt_looppert : COMMENT -
  In a d/dk calculation, iscf is set to -3 automatically.
[...]
    (  non-var. 2DEtotal :   -3.1020393419E+01 Ha)

 Perturbation wavevector (in red.coord.)   0.000000  0.000000  0.000000
 Perturbation : derivative vs k along direction   2
 The set of symmetries contains only one element for this perturbation.
 symkpt : not enough symmetry to change the number of k points.

[...]

 Perturbation wavevector (in red.coord.)   0.000000  0.000000  0.000000
 Perturbation : derivative vs k along direction   3
 The set of symmetries contains only one element for this perturbation.
 symkpt : not enough symmetry to change the number of k points.

 Initialisation of the first-order wave-functions :
  ireadwf=   0

--- !BeginCycle
iteration_state: {dtset: 1, }
solver: {iscf: 7, nstep: 2000, nline: 4, wfoptalg: 0, }
tolerances: {tolwfr: 1.00E-20, }
...

     iter   2DEtotal(Ha)        deltaE(Ha) residm    vres2
-ETOT  1  -34.782874343509     -3.478E+01 5.981E-02 0.000E+00
 ETOT  2  -34.967663229402     -1.848E-01 2.444E-02 0.000E+00
 ETOT  3  -34.973373207725     -5.710E-03 4.051E-03 0.000E+00
 ETOT  4  -34.973676702689     -3.035E-04 2.866E-03 0.000E+00
 ETOT  5  -34.973695800106     -1.910E-05 5.480E-04 0.000E+00
 ETOT  6  -34.973697203688     -1.404E-06 4.883E-04 0.000E+00
 ETOT  7  -34.973697317479     -1.138E-07 9.953E-05 0.000E+00
 ETOT  8  -34.973697327336     -9.857E-09 9.054E-05 0.000E+00
 ETOT  9  -34.973697328239     -9.027E-10 1.955E-05 0.000E+00
 ETOT 10  -34.973697328322     -8.316E-11 1.733E-05 0.000E+00
 ETOT 11  -34.973697328330     -7.851E-12 3.855E-06 0.000E+00
 ETOT 12  -34.973697328330     -7.105E-13 3.370E-06 0.000E+00
 ETOT 13  -34.973697328331     -1.208E-13 7.578E-07 0.000E+00
 ETOT 14  -34.973697328331      1.421E-14 6.573E-07 0.000E+00
 ETOT 15  -34.973697328331      2.132E-14 1.487E-07 0.000E+00
 ETOT 16  -34.973697328331      0.000E+00 1.283E-07 0.000E+00
 ETOT 17  -34.973697328331     -1.421E-14 2.918E-08 0.000E+00
 ETOT 18  -34.973697328331     -7.105E-15 2.505E-08 0.000E+00
 ETOT 19  -34.973697328331      3.553E-14 5.724E-09 0.000E+00
 ETOT 20  -34.973697328331     -1.421E-14 4.896E-09 0.000E+00
 ETOT 21  -34.973697328331      0.000E+00 1.124E-09 0.000E+00
 ETOT 22  -34.973697328331      7.105E-15 9.576E-10 0.000E+00
 ETOT 23  -34.973697328331      0.000E+00 2.206E-10 0.000E+00
 ETOT 24  -34.973697328331      7.105E-15 1.875E-10 0.000E+00
 ETOT 25  -34.973697328331     -7.105E-15 4.335E-11 0.000E+00
 ETOT 26  -34.973697328331      1.421E-14 3.674E-11 0.000E+00
 ETOT 27  -34.973697328331     -2.842E-14 8.520E-12 0.000E+00
 ETOT 28  -34.973697328331      0.000E+00 7.206E-12 0.000E+00
 ETOT 29  -34.973697328331     -7.105E-15 1.675E-12 0.000E+00
 ETOT 30  -34.973697328331      2.842E-14 1.415E-12 0.000E+00
 ETOT 31  -34.973697328331     -2.842E-14 3.295E-13 0.000E+00
 ETOT 32  -34.973697328331      1.421E-14 2.780E-13 0.000E+00
 ETOT 33  -34.973697328331     -1.421E-14 6.484E-14 0.000E+00
 ETOT 34  -34.973697328331      1.421E-14 5.469E-14 0.000E+00
 ETOT 35  -34.973697328331      0.000E+00 1.276E-14 0.000E+00
 ETOT 36  -34.973697328331      0.000E+00 1.077E-14 0.000E+00
 ETOT 37  -34.973697328331      0.000E+00 2.514E-15 0.000E+00
 ETOT 38  -34.973697328331      0.000E+00 2.121E-15 0.000E+00
 ETOT 39  -34.973697328331      7.105E-15 4.952E-16 0.000E+00
 ETOT 40  -34.973697328331     -1.421E-14 4.181E-16 0.000E+00
 ETOT 41  -34.973697328331      7.105E-15 9.761E-17 0.000E+00
 ETOT 42  -34.973697328331      0.000E+00 8.247E-17 0.000E+00
 ETOT 43  -34.973697328331      2.132E-14 1.925E-17 0.000E+00
 ETOT 44  -34.973697328331      7.105E-15 1.628E-17 0.000E+00
 ETOT 45  -34.973697328331     -7.105E-15 3.797E-18 0.000E+00
 ETOT 46  -34.973697328331      7.105E-15 3.215E-18 0.000E+00
 ETOT 47  -34.973697328331     -2.132E-14 7.495E-19 0.000E+00
 ETOT 48  -34.973697328331      1.421E-14 6.351E-19 0.000E+00
 ETOT 49  -34.973697328331      7.105E-15 1.480E-19 0.000E+00
 ETOT 50  -34.973697328331     -1.421E-14 1.255E-19 0.000E+00
 ETOT 51  -34.973697328331      7.105E-15 2.923E-20 0.000E+00
 ETOT 52  -34.973697328331     -2.132E-14 2.482E-20 0.000E+00
 ETOT 53  -34.973697328331      1.421E-14 9.992E-21 0.000E+00

 At SCF step   53   max residual=  9.99E-21 < tolwfr=  1.00E-20 =>converged.

 ----iterations are completed or convergence reached----

 dfpt_looppert: DFPT cycle converged with prtwf=-1. Will skip output of the 1st-order WFK file.
 dfpt_looppert : ek2=    7.2139302948E+01
          f-sum rule ratio=    1.0283477428E+00
 prteigrs : about to open file /scratch/users/j/a/jabreu/flow_simple_11atoms/flow/w263/t1/tmpdata/tmp_1WF1_EIG
 Expectation of eigenvalue derivatives (hartree) for nkpt=   1  k points:
  (in case of degenerate eigenvalues, averaged derivative)
 kpt#   1, nband= 57, wtk=  1.00000, kpt= -0.5000  0.5000  0.0000 (reduced coord)
  -0.00000    0.00000    0.00000   -0.00000    0.00000    0.00000    0.00000   -0.00000
  -0.00000   -0.00000   -0.00000    0.00000    0.00000   -0.00000    0.00000   -0.00000
  -0.00000    0.00000    0.00000   -0.00000    0.00000    0.00000   -0.00000   -0.00000
  -0.00000   -0.00000   -0.00000    0.00000    0.00000    0.00000   -0.00000    0.00000
   0.00000   -0.00000   -0.00000   -0.00000    0.00000   -0.00000   -0.00000   -0.00000
  -0.00000   -0.00000   -0.00000   -0.00000    0.00000    0.00000   -0.00000   -0.00000
   0.00000    0.00000   -0.00000   -0.00000    0.00000    0.00000   -0.00000    0.00000
   0.00000

 Eight components of 2nd-order total energy (hartree) are
 1,2,3: 0th-order hamiltonian combined with 1st-order wavefunctions
     kin0=   6.51480097E+01 eigvalue=   2.36911945E+00  local=  -3.50693849E+01
 4,5,6: 1st-order hamiltonian combined with 1st and 0th-order wfs
     kin1=  -7.41842894E+01  Hartree=   0.00000000E+00     xc=   0.00000000E+00
 7,8,9: eventually, occupation + non-local contributions
    edocc=   5.46643303E+00     enl0=  -2.94047993E+00   enl1=   4.23689470E+00
 1-9 gives the relaxation energy (to be shifted if some occ is /=2.0)
   erelax=  -3.49736973E+01
  No Ewald or frozen-wf contrib.: the relaxation energy is the total one
 2DEtotal=   -0.3497369733E+02 Ha. Also 2DEtotal=   -0.951682703005E+03 eV
    (  non-var. 2DEtotal :   -3.4973697328E+01 Ha)

 CALCULATION OF EFFECTIVE MASSES
 NOTE : Additional infos (eff. mass eigenvalues, eigenvectors and, if degenerate, average mass) are available in stdout.

 K-point (-0.500, 0.500, 0.000) | band =    48
 Effective mass tensor:
            -23.8496424761             15.2370203300             -0.0000000308
             15.2370203300            -12.3166206309             -0.0000000391
             -0.0000000308             -0.0000000391             -0.8431419389
 Effective mass tensor eigenvalues:
            -34.3748299535             -1.7914331535             -0.8431419389
 Angular average effective mass 1/(<1/m>)=  -1.6917198496
 Angular average effective mass for Frohlich model (<m**0.5>)**2=  -2.3834548788
 Effective masses along directions: (cart. coord. / red. coord. -> eff. mass)
    1:   1.000000  0.000000  0.000000 /   0.942690 -0.333669  0.000000 ->  -4.9997651036
    2:   0.000000  1.000000  0.000000 /   0.000000  1.000000  0.000000 ->  -2.5820181617
    3:   0.000000  0.000000  1.000000 /   0.000000  0.000000  1.000000 ->  -0.8431419389
    4:   0.577350  0.577350  0.577350 /   0.684191  0.397726  0.611308 ->  -1.3226285021
    5:   0.000000  0.707107  0.707107 /   0.000000  0.723076  0.690769 ->  -1.2711860525
    6:   0.707107  0.000000  0.707107 /   0.721016 -0.255206  0.644210 ->  -1.4429501366
    7:   0.707107  0.707107  0.000000 /   0.864540  0.502565  0.000000 ->  -1.8481371345

 K-point (-0.500, 0.500, 0.000) | band =    49
 Effective mass tensor:
              2.7710428842              1.0585798907              0.0000000005
              1.0585798907              3.5722904421              0.0000000007
              0.0000000005              0.0000000007              0.9074846631
 Effective mass tensor eigenvalues:
              0.9074846631              2.0398138471              4.3035194792
 Angular average effective mass 1/(<1/m>)=   1.6442358536
 Angular average effective mass for Frohlich model (<m**0.5>)**2=   1.8442210007
 Effective masses along directions: (cart. coord. / red. coord. -> eff. mass)
    1:   1.000000  0.000000  0.000000 /   0.942690 -0.333669  0.000000 ->   2.4573529973
    2:   0.000000  1.000000  0.000000 /   0.000000  1.000000  0.000000 ->   3.1678970668
    3:   0.000000  0.000000  1.000000 /   0.000000  0.000000  1.000000 ->   0.9074846631
    4:   0.577350  0.577350  0.577350 /   0.684191  0.397726  0.611308 ->   1.8946847662
    5:   0.000000  0.707107  0.707107 /   0.000000  0.723076  0.690769 ->   1.4108214610
    6:   0.707107  0.000000  0.707107 /   0.721016 -0.255206  0.644210 ->   1.3254786010
    7:   0.707107  0.707107  0.000000 /   0.864540  0.502565  0.000000 ->   4.1542915981

 END OF EFFECTIVE MASSES SECTION

 ---- first-order wavefunction calculations are completed ----

 Total localisation tensor (bohr^2) in cartesian coordinates
  WARNING : still subject to testing - especially symmetries.
      direction              matrix element
   alpha     beta       real part   imaginary part
     1        1       0.8066975283    0.0000000000
     1        2      -0.2373172231    0.0000000000
     1        3       0.0000000000    0.0000000000
     2        1      -0.2373172231    0.0000000000
     2        2       0.6270702341    0.0000000000
     2        3       0.0000000000    0.0000000000
     3        1       0.0000000000    0.0000000000
     3        2       0.0000000000    0.0000000000
     3        3       0.6975073271    0.0000000000

 respfn : d/dk was computed, but no 2DTE, so no DDB output.

== END DATASET(S) ==============================================================

 -outvars: echo values of variables after computation  --------
            acell      1.0000000000E+00  1.0000000000E+00  1.0000000000E+00 Bohr
              amu      3.90983000E+01  4.78800000E+01  1.59994000E+01
             ecut      4.40000000E+01 Hartree
           etotal     -3.4973697328E+01
            fcart      0.0000000000E+00  0.0000000000E+00  0.0000000000E+00
                       0.0000000000E+00  0.0000000000E+00  0.0000000000E+00
                       0.0000000000E+00  0.0000000000E+00  0.0000000000E+00
                       0.0000000000E+00  0.0000000000E+00  0.0000000000E+00
                       0.0000000000E+00  0.0000000000E+00  0.0000000000E+00
                       0.0000000000E+00  0.0000000000E+00  0.0000000000E+00
                       0.0000000000E+00  0.0000000000E+00  0.0000000000E+00
                       0.0000000000E+00  0.0000000000E+00  0.0000000000E+00
                       0.0000000000E+00  0.0000000000E+00  0.0000000000E+00
                       0.0000000000E+00  0.0000000000E+00  0.0000000000E+00
                       0.0000000000E+00  0.0000000000E+00  0.0000000000E+00
                       0.0000000000E+00  0.0000000000E+00  0.0000000000E+00
-          fftalg         512
           irdden           1
           irdwfk           1
              ixc     -116133
              kpt     -5.00000000E-01  5.00000000E-01  0.00000000E+00
           kptopt           0
P           mkmem           1
P          mkqmem           1
P          mk1mem           1
            natom          12
            nband          57
           nbdbuf           4
            ngfft          72      72      64
             nkpt           1
            nstep        2000
             nsym           8
           ntypat           3
              occ      2.000000  2.000000  2.000000  2.000000  2.000000  2.000000
                       2.000000  2.000000  2.000000  2.000000  2.000000  2.000000
                       2.000000  2.000000  2.000000  2.000000  2.000000  2.000000
                       2.000000  2.000000  2.000000  2.000000  2.000000  2.000000
                       2.000000  2.000000  2.000000  2.000000  2.000000  2.000000
                       2.000000  2.000000  2.000000  2.000000  2.000000  2.000000
                       2.000000  2.000000  2.000000  2.000000  2.000000  2.000000
                       2.000000  2.000000  2.000000  2.000000  2.000000  2.000000
                       0.000000  0.000000  0.000000  0.000000  0.000000  0.000000
                       0.000000  0.000000  0.000000
        optdriver           1
            prtwf          -1
            rfdir           1       1       1
           rfelfd           2
            rprim      1.1472599755E+01  0.0000000000E+00  0.0000000000E+00
                      -4.0607719434E+00  1.0729896381E+01  0.0000000000E+00
                       0.0000000000E+00  0.0000000000E+00  1.0250487300E+01
          spgroup          63
           strten      0.0000000000E+00  0.0000000000E+00  0.0000000000E+00
                       0.0000000000E+00  0.0000000000E+00  0.0000000000E+00
           symrel      1  0  0   0  1  0   0  0  1      -1  0  0   0 -1  0   0  0 -1
                       0 -1  0  -1  0  0   0  0 -1       0  1  0   1  0  0   0  0  1
                      -1  0  0   0 -1  0   0  0  1       1  0  0   0  1  0   0  0 -1
                       0  1  0   1  0  0   0  0 -1       0 -1  0  -1  0  0   0  0  1
            tnons      0.0000000  0.0000000  0.0000000     0.0000000  0.0000000  0.0000000
                       0.0000000  0.0000000  0.0000000    -0.0000000  0.0000000  0.0000000
                       0.0000000  0.0000000  0.5000000     0.0000000  0.0000000  0.5000000
                      -0.0000000  0.0000000  0.5000000     0.0000000  0.0000000  0.5000000
           tolwfr      1.00000000E-20
            typat      1  1  1  1  2  2  3  3  3  3  3  3
           useylm           1
           xangst      5.3157603368E+00  1.7674359780E+00  1.3560810641E+00
                      -2.2851712640E-01  5.5972241171E+00  1.3560810641E+00
                      -1.3935899850E+00  3.9105806375E+00  4.0682431922E+00
                       4.1506874781E+00  8.0792498423E-02  4.0682431922E+00
                       1.6255003584E+00  2.3531915281E+00  4.0682431922E+00
                       2.2966699933E+00  3.3248250874E+00  1.3560810641E+00
                       6.2811204881E-01  9.0930029288E-01  4.0682431922E+00
                       3.2940583029E+00  4.7687163227E+00  1.3560810641E+00
                       3.0017664098E+00  2.1201430142E+00  2.7121621282E+00
                       9.2040394190E-01  3.5578736014E+00  0.0000000000E+00
                       3.0017664098E+00  2.1201430142E+00  0.0000000000E+00
                       9.2040394190E-01  3.5578736014E+00  2.7121621282E+00
            xcart      1.0045331225E+01  3.3399699559E+00  2.5626218251E+00
                      -4.3183478557E-01  1.0577220686E+01  2.5626218251E+00
                      -2.6335034133E+00  7.3899264255E+00  7.6878654753E+00
                       7.8436625969E+00  1.5267569561E-01  7.6878654753E+00
                       3.0717505063E+00  4.4468875264E+00  7.6878654753E+00
                       4.3400773050E+00  6.2830088550E+00  2.5626218251E+00
                       1.1869597530E+00  1.7183285261E+00  7.6878654753E+00
                       6.2248680583E+00  9.0115678553E+00  2.5626218251E+00
                       5.6725164295E+00  4.0064896593E+00  5.1252436502E+00
                       1.7393113818E+00  6.7234067221E+00  0.0000000000E+00
                       5.6725164295E+00  4.0064896593E+00  0.0000000000E+00
                       1.7393113818E+00  6.7234067221E+00  5.1252436502E+00
             xred      9.8577100000E-01  3.1127700000E-01  2.5000000000E-01
                       3.1127700000E-01  9.8577100000E-01  2.5000000000E-01
                       1.4229000000E-02  6.8872300000E-01  7.5000000000E-01
                       6.8872300000E-01  1.4229000000E-02  7.5000000000E-01
                       4.1443900000E-01  4.1443900000E-01  7.5000000000E-01
                       5.8556100000E-01  5.8556100000E-01  2.5000000000E-01
                       1.6014400000E-01  1.6014400000E-01  7.5000000000E-01
                       8.3985600000E-01  8.3985600000E-01  2.5000000000E-01
                       6.2660500000E-01  3.7339500000E-01  5.0000000000E-01
                       3.7339500000E-01  6.2660500000E-01  0.0000000000E+00
                       6.2660500000E-01  3.7339500000E-01  0.0000000000E+00
                       3.7339500000E-01  6.2660500000E-01  5.0000000000E-01
            znucl       19.00000   22.00000    8.00000

- Timing analysis has been suppressed with timopt=0

 Suggested references for the acknowledgment of ABINIT usage.

 Calculation completed.
.Delivered   2 WARNINGs and   5 COMMENTs to log file.