.Version 9.5.1 of ABINIT

 ABINIT is a project of the Universite Catholique de Louvain,
 Corning Inc. and other collaborators, see ~abinit/doc/developers/contributors.txt .
 acknowledgments of the ABINIT effort.

.Starting date : Tue 27 Apr 2021.
- ( at 15h40 )

- input  file    -> /scratch/users/j/a/jabreu/flow_simple/flow/w167/t1/run.abi
- output file    -> /scratch/users/j/a/jabreu/flow_simple/flow/w167/t1/run.abo
- root for input  files -> /scratch/users/j/a/jabreu/flow_simple/flow/w167/t1/indata/in
- root for output files -> /scratch/users/j/a/jabreu/flow_simple/flow/w167/t1/outdata/out

 Symmetries : space group F-4 3 m (#216); Bravais cF (face-center cubic)
     intxc =       0      iscf =       7    lmnmax =      32     lnmax =       8
     mgfft =      50  mpssoang =       4    mqgrid =    3001     natom =       3
  nloc_mem =       1    nspden =       1   nspinor =       1    nsppol =       1
      nsym =      24    n1xccc =    2501    ntypat =       3    occopt =       1
   xclevel =       2
-    mband =          31        mffmem =           1         mkmem =           2
-   mkqmem =           2        mk1mem =           2           mpw =        5290
      nfft =      125000          nkpt =           2
  Rough estimation (10% accuracy) of disk space for files :

------------- Echo of variables that govern the present computation ------------
-
- outvars: echo of selected default values
-   iomode0 =  0 , fftalg0 =512 , wfoptalg0 =  0
-
- outvars: echo of global parameters not present in the input file
-  max_nthreads =    0
-
 -outvars: echo values of preprocessed input variables --------
            acell      1.0000000000E+00  1.0000000000E+00  1.0000000000E+00 Bohr
              amu      1.78490000E+02  1.18710000E+02  1.06420000E+02
             ecut      4.10000000E+01 Hartree
-          fftalg         512
           irdden           1
           irdwfk           1
           istwfk        1    1
              ixc     -116133
              kpt      0.00000000E+00  0.00000000E+00  0.00000000E+00
                       5.00000000E-01  4.93038066E-32  5.00000000E-01
           kptopt           0
P           mkmem           2
P          mkqmem           2
P          mk1mem           2
            natom           3
            nband          31
           nbdbuf           4
            ngfft          50      50      50
             nkpt           2
            nstep         100
             nsym          24
           ntypat           3
              occ      2.000000  2.000000  2.000000  2.000000  2.000000  2.000000
                       2.000000  2.000000  2.000000  2.000000  2.000000  2.000000
                       2.000000  2.000000  2.000000  2.000000  2.000000  2.000000
                       2.000000  2.000000  2.000000  2.000000  0.000000  0.000000
                       0.000000  0.000000  0.000000  0.000000  0.000000  0.000000
                       0.000000
        optdriver           1
            prtwf          -1
            rfdir           1       1       1
           rfelfd           2
            rprim      7.2787866102E+00  0.0000000000E+00  4.2024094088E+00
                       2.4262622034E+00  6.8625058278E+00  4.2024094088E+00
                       0.0000000000E+00  0.0000000000E+00  8.4048188175E+00
          spgroup         216
           symrel      1  0  0   0  1  0   0  0  1       0 -1  1   0 -1  0   1 -1  0
                      -1  0  0  -1  0  1  -1  1  0       0  1 -1   1  0 -1   0  0 -1
                      -1  0  0  -1  1  0  -1  0  1       0 -1  1   1 -1  0   0 -1  0
                       1  0  0   0  0  1   0  1  0       0  1 -1   0  0 -1   1  0 -1
                      -1  0  1  -1  1  0  -1  0  0       0 -1  0   1 -1  0   0 -1  1
                       1  0 -1   0  0 -1   0  1 -1       0  1  0   0  0  1   1  0  0
                       1  0 -1   0  1 -1   0  0 -1       0 -1  0   0 -1  1   1 -1  0
                      -1  0  1  -1  0  0  -1  1  0       0  1  0   1  0  0   0  0  1
                       0  0 -1   0  1 -1   1  0 -1       1 -1  0   0 -1  1   0 -1  0
                       0  0  1   1  0  0   0  1  0      -1  1  0  -1  0  0  -1  0  1
                       0  0  1   0  1  0   1  0  0       1 -1  0   0 -1  0   0 -1  1
                       0  0 -1   1  0 -1   0  1 -1      -1  1  0  -1  0  1  -1  0  0
           tolwfr      1.00000000E-20
            typat      1  2  3
           useylm           1
              wtk        0.50000    0.50000
           xangst      0.0000000000E+00  0.0000000000E+00  0.0000000000E+00
                       2.5678453202E+00  1.8157408389E+00  4.4476385606E+00
                       1.2839226601E+00  9.0787041947E-01  2.2238192803E+00
            xcart      0.0000000000E+00  0.0000000000E+00  0.0000000000E+00
                       4.8525244068E+00  3.4312529139E+00  8.4048188176E+00
                       2.4262622034E+00  1.7156264569E+00  4.2024094088E+00
             xred      0.0000000000E+00  0.0000000000E+00  0.0000000000E+00
                       5.0000000000E-01  5.0000000000E-01  5.0000000000E-01
                       2.5000000000E-01  2.5000000000E-01  2.5000000000E-01
            znucl       72.00000   50.00000   46.00000

 chkinp: Checking input parameters for consistency.

== DATASET  1 ==================================================================
-   mpi_nproc: 1, omp_nthreads: -1 (-1 if OMP is not activated)

--- !DatasetInfo
iteration_state: {dtset: 1, }
dimensions: {natom: 3, nkpt: 2, mband: 31, nsppol: 1, nspinor: 1, nspden: 1, mpw: 5290, }
cutoff_energies: {ecut:  41.0, pawecutdg:  -1.0, }
electrons: {nelect:   4.40000000E+01, charge:   0.00000000E+00, occopt:   1.00000000E+00, tsmear:   1.00000000E-02, }
meta: {optdriver: 1, rfelfd: 2, }
...

 Real(R)+Recip(G) space primitive vectors, cartesian coordinates (Bohr,Bohr^-1):
 R(1)=  7.2787866  0.0000000  4.2024094  G(1)=  0.1373855 -0.0485731  0.0000000
 R(2)=  2.4262622  6.8625058  4.2024094  G(2)=  0.0000000  0.1457194  0.0000000
 R(3)=  0.0000000  0.0000000  8.4048188  G(3)= -0.0686928 -0.0485731  0.1189794
 Unit cell volume ucvol=  4.1982671E+02 bohr^3
 Angles (23,13,12)=  6.00000000E+01  6.00000000E+01  6.00000000E+01 degrees

 getcut: wavevector=  0.0000  0.0000  0.0000  ngfft=  50  50  50
         ecut(hartree)=     41.000   => boxcut(ratio)=   2.06471

--- Pseudopotential description ------------------------------------------------
- pspini: atom type   1  psp file is /scratch/users/j/a/jabreu/pseudos/PBEsol/Hf.psp8
- pspatm: opening atomic psp file    /scratch/users/j/a/jabreu/pseudos/PBEsol/Hf.psp8
- Hf    ONCVPSP-3.3.0  r_core=   1.71613   1.71613   1.71613   2.42541
- 72.00000  12.00000    180112                znucl, zion, pspdat
    8 -116133    3    4       600   0.00000   pspcod,pspxc,lmax,lloc,mmax,r2well
    5.99000000000000    5.40000000000000    0.00000000000000   rchrg,fchrg,qchrg
     nproj     2     2     2     2
     extension_switch     1
  pspatm : epsatm=   21.99082902
         --- l  ekb(1:nproj) -->
             0    5.882750   -0.519107
             1    2.555685   -1.768609
             2    1.383259    0.138001
             3    9.464546    0.347497
 pspatm: atomic psp has been read  and splines computed

- pspini: atom type   2  psp file is /scratch/users/j/a/jabreu/pseudos/PBEsol/Sn.psp8
- pspatm: opening atomic psp file    /scratch/users/j/a/jabreu/pseudos/PBEsol/Sn.psp8
- Sn    ONCVPSP-3.3.0  r_core=   2.27326   2.62311   1.85601
- 50.00000  14.00000    180112                znucl, zion, pspdat
    8 -116133    2    4       600   0.00000   pspcod,pspxc,lmax,lloc,mmax,r2well
    5.99000000000000    6.50000000000000    0.00000000000000   rchrg,fchrg,qchrg
     nproj     2     2     2
     extension_switch     1
  pspatm : epsatm=   32.44586081
         --- l  ekb(1:nproj) -->
             0    5.587869    0.749373
             1    4.197111    0.728791
             2   -5.271877   -1.523486
 pspatm: atomic psp has been read  and splines computed

- pspini: atom type   3  psp file is /scratch/users/j/a/jabreu/pseudos/PBEsol/Pd.psp8
- pspatm: opening atomic psp file    /scratch/users/j/a/jabreu/pseudos/PBEsol/Pd.psp8
- Pd    ONCVPSP-3.3.0  r_core=   1.41052   1.46191   1.55175
- 46.00000  18.00000    180112                znucl, zion, pspdat
    8 -116133    2    4       600   0.00000   pspcod,pspxc,lmax,lloc,mmax,r2well
    5.99000000000000    7.00000000000000    0.00000000000000   rchrg,fchrg,qchrg
     nproj     2     2     2
     extension_switch     1
  pspatm : epsatm=   26.17262427
         --- l  ekb(1:nproj) -->
             0    7.952303   -2.096627
             1    3.304793   -0.572651
             2   -1.185452   -0.410427
 pspatm: atomic psp has been read  and splines computed

   3.54680982E+03                                ecore*ucvol(ha*bohr**3)

-inwffil : will read wavefunctions from disk file /scratch/users/j/a/jabreu/flow_simple/flow/w167/t1/indata/in_WFK

 ==>  initialize data related to q vector <==

 The list of irreducible perturbations for this q vector is:
    1)    idir= 1    ipert=   4
    2)    idir= 2    ipert=   4
    3)    idir= 3    ipert=   4

 Perturbation wavevector (in red.coord.)   0.000000  0.000000  0.000000
 Perturbation : derivative vs k along direction   1

 dfpt_looppert : COMMENT -
  In a d/dk calculation, iscf is set to -3 automatically.
 The set of symmetries contains only one element for this perturbation.
 symkpt : not enough symmetry to change the number of k points.

[...]

 Initialisation of the first-order wave-functions :
  ireadwf=   0

--- !BeginCycle
iteration_state: {dtset: 1, }
solver: {iscf: 7, nstep: 100, nline: 4, wfoptalg: 0, }
tolerances: {tolwfr: 1.00E-20, }
...

     iter   2DEtotal(Ha)        deltaE(Ha) residm    vres2
-ETOT  1  -62.013808191058     -6.201E+01 3.320E-02 0.000E+00
 ETOT  2  -62.046723150950     -3.291E-02 6.691E-04 0.000E+00
 ETOT  3  -62.046768503220     -4.535E-05 6.829E-06 0.000E+00
 ETOT  4  -62.046768627407     -1.242E-07 2.101E-07 0.000E+00
 ETOT  5  -62.046768627862     -4.548E-10 2.650E-09 0.000E+00
 ETOT  6  -62.046768627864     -1.975E-12 9.286E-11 0.000E+00
 ETOT  7  -62.046768627864     -7.105E-15 1.292E-12 0.000E+00
 ETOT  8  -62.046768627864      4.974E-14 4.548E-14 0.000E+00
 ETOT  9  -62.046768627864      0.000E+00 6.520E-16 0.000E+00
 ETOT 10  -62.046768627864     -4.263E-14 2.301E-17 0.000E+00
 ETOT 11  -62.046768627864      0.000E+00 3.351E-19 0.000E+00
 ETOT 12  -62.046768627864     -1.421E-14 1.186E-20 0.000E+00
 ETOT 13  -62.046768627864      1.421E-14 9.903E-21 0.000E+00

 At SCF step   13   max residual=  9.90E-21 < tolwfr=  1.00E-20 =>converged.

 ----iterations are completed or convergence reached----

 dfpt_looppert: DFPT cycle converged with prtwf=-1. Will skip output of the 1st-order WFK file.
 dfpt_looppert : ek2=    7.3769519779E+01
          f-sum rule ratio=    1.2140687381E+00
 prteigrs : about to open file /scratch/users/j/a/jabreu/flow_simple/flow/w167/t1/tmpdata/tmp_1WF1_EIG
 Expectation of eigenvalue derivatives (hartree) for nkpt=   2  k points:
  (in case of degenerate eigenvalues, averaged derivative)
 kpt#   1, nband= 31, wtk=  0.50000, kpt=  0.0000  0.0000  0.0000 (reduced coord)
  -0.00000   -0.00000   -0.00000   -0.00000   -0.00000   -0.00000   -0.00000   -0.00000
  -0.00000   -0.00000    0.00000    0.00000    0.00000   -0.00000   -0.00000   -0.00000
  -0.00000    0.00000    0.00000    0.00000    0.00000    0.00000   -0.00000   -0.00000
  -0.00000   -0.00000   -0.00000   -0.00000   -0.00000   -0.00001   -0.00001
 prteigrs : prtvol=0 or 1, do not print more k-points.

 Eight components of 2nd-order total energy (hartree) are
 1,2,3: 0th-order hamiltonian combined with 1st-order wavefunctions
     kin0=   5.51177007E+01 eigvalue=   1.87008975E+00  local=  -2.53371726E+01
 4,5,6: 1st-order hamiltonian combined with 1st and 0th-order wfs
     kin1=  -8.95612678E+01  Hartree=   0.00000000E+00     xc=   0.00000000E+00
 7,8,9: eventually, occupation + non-local contributions
    edocc=   2.43183132E+01     enl0=   6.07783754E+00   enl1=  -3.45322695E+01
 1-9 gives the relaxation energy (to be shifted if some occ is /=2.0)
   erelax=  -6.20467686E+01
  No Ewald or frozen-wf contrib.: the relaxation energy is the total one
 2DEtotal=   -0.6204676863E+02 Ha. Also 2DEtotal=   -0.168837843841E+04 eV
    (  non-var. 2DEtotal :   -6.2046768628E+01 Ha)

 Perturbation wavevector (in red.coord.)   0.000000  0.000000  0.000000
 Perturbation : derivative vs k along direction   2
 The set of symmetries contains only one element for this perturbation.
 symkpt : not enough symmetry to change the number of k points.

[...]

 Perturbation wavevector (in red.coord.)   0.000000  0.000000  0.000000
 Perturbation : derivative vs k along direction   3
 The set of symmetries contains only one element for this perturbation.
 symkpt : not enough symmetry to change the number of k points.

-inwffil : will read wavefunctions from disk file /scratch/users/j/a/jabreu/flow_simple/flow/w167/t1/indata/in_WFK

 Initialisation of the first-order wave-functions :
  ireadwf=   0

--- !BeginCycle
iteration_state: {dtset: 1, }
solver: {iscf: 7, nstep: 100, nline: 4, wfoptalg: 0, }
tolerances: {tolwfr: 1.00E-20, }
...

     iter   2DEtotal(Ha)        deltaE(Ha) residm    vres2
-ETOT  1  -62.017908570253     -6.202E+01 6.852E-02 0.000E+00
 ETOT  2  -62.046614426108     -2.871E-02 6.396E-04 0.000E+00
 ETOT  3  -62.046655267438     -4.084E-05 1.206E-05 0.000E+00
 ETOT  4  -62.046655381640     -1.142E-07 1.580E-07 0.000E+00
 ETOT  5  -62.046655382057     -4.171E-10 3.636E-09 0.000E+00
 ETOT  6  -62.046655382059     -1.705E-12 6.455E-11 0.000E+00
 ETOT  7  -62.046655382059     -3.553E-14 1.410E-12 0.000E+00
 ETOT  8  -62.046655382059      7.105E-15 2.958E-14 0.000E+00
 ETOT  9  -62.046655382059      0.000E+00 5.787E-16 0.000E+00
 ETOT 10  -62.046655382059     -2.132E-14 1.404E-17 0.000E+00
 ETOT 11  -62.046655382059      2.842E-14 2.429E-19 0.000E+00
 ETOT 12  -62.046655382059     -7.105E-15 9.924E-21 0.000E+00

 At SCF step   12   max residual=  9.92E-21 < tolwfr=  1.00E-20 =>converged.

 ----iterations are completed or convergence reached----

 dfpt_looppert: DFPT cycle converged with prtwf=-1. Will skip output of the 1st-order WFK file.
 dfpt_looppert : ek2=    7.3769519780E+01
          f-sum rule ratio=    1.2140699245E+00
 prteigrs : about to open file /scratch/users/j/a/jabreu/flow_simple/flow/w167/t1/tmpdata/tmp_1WF1_EIG
 Expectation of eigenvalue derivatives (hartree) for nkpt=   2  k points:
  (in case of degenerate eigenvalues, averaged derivative)
 kpt#   1, nband= 31, wtk=  0.50000, kpt=  0.0000  0.0000  0.0000 (reduced coord)
  -0.00000   -0.00000    0.00000    0.00000    0.00000   -0.00000   -0.00000   -0.00000
  -0.00000   -0.00000   -0.00000   -0.00000   -0.00000   -0.00000    0.00000    0.00000
   0.00000   -0.00000   -0.00000   -0.00000   -0.00000   -0.00000    0.00000    0.00000
  -0.00000   -0.00000   -0.00000   -0.00000   -0.00000    0.00001    0.00001
 prteigrs : prtvol=0 or 1, do not print more k-points.

 Eight components of 2nd-order total energy (hartree) are
 1,2,3: 0th-order hamiltonian combined with 1st-order wavefunctions
     kin0=   5.51389100E+01 eigvalue=   1.89365505E+00  local=  -2.53609451E+01
 4,5,6: 1st-order hamiltonian combined with 1st and 0th-order wfs
     kin1=  -8.95613553E+01  Hartree=   0.00000000E+00     xc=   0.00000000E+00
 7,8,9: eventually, occupation + non-local contributions
    edocc=   2.42802773E+01     enl0=   6.09475815E+00   enl1=  -3.45319555E+01
 1-9 gives the relaxation energy (to be shifted if some occ is /=2.0)
   erelax=  -6.20466554E+01
  No Ewald or frozen-wf contrib.: the relaxation energy is the total one
 2DEtotal=   -0.6204665538E+02 Ha. Also 2DEtotal=   -0.168837535683E+04 eV
    (  non-var. 2DEtotal :   -6.2046655382E+01 Ha)

 CALCULATION OF EFFECTIVE MASSES
 NOTE : Additional infos (eff. mass eigenvalues, eigenvectors and, if degenerate, average mass) are available in stdout.

 COMMENTS:
 - At k-point ( 0.000, 0.000, 0.000), bands    20 through    22
   are DEGENERATE (effective mass tensor is therefore not defined).
   See Section IIIB Eqs. (67)-(70) and Appendix E of PRB 93 205147 (2016).
 - Angular average effective mass for Frohlich model is to be averaged over degenerate bands. See later.
 - Associated theta integrals calculated with ntheta=   1000 points.

 K-point ( 0.000, 0.000, 0.000) | band =    20
 Transport equivalent effective mass tensor:
             -0.2922397982             -0.0000000037              0.0000000066
             -0.0000000037             -0.2922397932             -0.0000000025
              0.0000000066             -0.0000000025             -0.2922397834
 Transport equivalent effective mass tensor eigenvalues:
             -0.2922398016             -0.2922397934             -0.2922397798
 Angular average effective mass 1/(<1/m>)=  -0.2426746882
 Angular average effective mass for Frohlich model (<m**0.5>)**2=  -0.2455254735
 Effective masses along directions: (cart. coord. / red. coord. -> eff. mass)
    1:   1.000000  0.000000  0.000000 /   0.948683  0.316228  0.000000 ->  -0.2248156896
    2:   0.000000  1.000000  0.000000 /   0.000000  1.000000  0.000000 ->  -0.2071453345
    3:   0.000000  0.000000  1.000000 /   0.408248  0.408248  0.816497 ->  -0.2319981213
    4:   0.577350  0.577350  0.577350 /   0.585539  0.688047  0.428644 ->  -0.2251791730
    5:   0.000000  0.707107  0.707107 /   0.289489  0.762222  0.578977 ->  -0.2588320291
    6:   0.707107  0.000000  0.707107 /   0.731423  0.422287  0.535439 ->  -0.2282091347
    7:   0.707107  0.707107  0.000000 /   0.616798  0.787122  0.000000 ->  -0.3242278959

[...]

 K-point ( 0.000, 0.000, 0.000) | band =    22
 Transport equivalent effective mass tensor:
           -175.1434554617              0.0000797539              0.0000140595
              0.0000797539           -175.1434639913             -0.0000284422
              0.0000140595             -0.0000284422           -175.1431899928
 Transport equivalent effective mass tensor eigenvalues:
           -175.1435422074           -175.1433803059           -175.1431869326
 Angular average effective mass 1/(<1/m>)=  -2.0431091063
 Angular average effective mass for Frohlich model (<m**0.5>)**2=  -3.1084075433
 Effective masses along directions: (cart. coord. / red. coord. -> eff. mass)
    1:   1.000000  0.000000  0.000000 /   0.948683  0.316228  0.000000 ->  -2.3463615408
    2:   0.000000  1.000000  0.000000 /   0.000000  1.000000  0.000000 ->  -1.7733649895
    3:   0.000000  0.000000  1.000000 /   0.408248  0.408248  0.816497 -> -21.3896902758
    4:   0.577350  0.577350  0.577350 /   0.585539  0.688047  0.428644 ->  -3.0311448622
    5:   0.000000  0.707107  0.707107 /   0.289489  0.762222  0.578977 ->  -1.8566721625
    6:   0.707107  0.000000  0.707107 /   0.731423  0.422287  0.535439 ->  -5.0882703932
    7:   0.707107  0.707107  0.000000 /   0.616798  0.787122  0.000000 ->  -0.7591602060

 Angular average effective mass for Frohlich model, averaged over degenerate bands.
 Value of     (<<m**0.5>>)**2 =     1.092108E+00
 Absolute Value of <<m**0.5>> =     1.045040E+00

 K-point ( 0.500, 0.000, 0.500) | band =    23
 Effective mass tensor:
              0.6732461198             -0.4510975109              0.5524806708
             -0.4510975109              0.9922335571             -0.7813384275
              0.5524806708             -0.7813384275              1.3112300881
 Effective mass tensor eigenvalues:
              0.3542763415              0.3542817491              2.2681516743
 Angular average effective mass 1/(<1/m>)=   0.4929220357
 Angular average effective mass for Frohlich model (<m**0.5>)**2=   0.5693468818
 Effective masses along directions: (cart. coord. / red. coord. -> eff. mass)
    1:   1.000000  0.000000  0.000000 /   0.948683  0.316228  0.000000 ->   0.4122528301
    2:   0.000000  1.000000  0.000000 /   0.000000  1.000000  0.000000 ->   0.4929202802
    3:   0.000000  0.000000  1.000000 /   0.408248  0.408248  0.816497 ->   0.6128451135
    4:   0.577350  0.577350  0.577350 /   0.585539  0.688047  0.428644 ->   0.3856760724
    5:   0.000000  0.707107  0.707107 /   0.289489  0.762222  0.578977 ->   0.3568150439
    6:   0.707107  0.000000  0.707107 /   0.731423  0.422287  0.535439 ->   0.7456118889
    7:   0.707107  0.707107  0.000000 /   0.616798  0.787122  0.000000 ->   0.3586030057

 END OF EFFECTIVE MASSES SECTION

 ---- first-order wavefunction calculations are completed ----

 Total localisation tensor (bohr^2) in cartesian coordinates
  WARNING : still subject to testing - especially symmetries.
      direction              matrix element
   alpha     beta       real part   imaginary part
     1        1       2.9391174470    0.0000000000
     1        2       0.8313086869    0.0000000000
     1        3       2.0362805995    0.0000000000
     2        1       0.8313086869    0.0000000000
     2        2       2.3512960390    0.0000000000
     2        3       1.4398688824    0.0000000000
     3        1       2.0362805995    0.0000000000
     3        2       1.4398688824    0.0000000000
     3        3       5.2904145729    0.0000000000

 respfn : d/dk was computed, but no 2DTE, so no DDB output.

== END DATASET(S) ==============================================================

 -outvars: echo values of variables after computation  --------
            acell      1.0000000000E+00  1.0000000000E+00  1.0000000000E+00 Bohr
              amu      1.78490000E+02  1.18710000E+02  1.06420000E+02
             ecut      4.10000000E+01 Hartree
           etotal     -6.2046655382E+01
            fcart      0.0000000000E+00  0.0000000000E+00  0.0000000000E+00
                       0.0000000000E+00  0.0000000000E+00  0.0000000000E+00
                       0.0000000000E+00  0.0000000000E+00  0.0000000000E+00
-          fftalg         512
           irdden           1
           irdwfk           1
           istwfk        1    1
              ixc     -116133
              kpt      0.00000000E+00  0.00000000E+00  0.00000000E+00
                       5.00000000E-01  4.93038066E-32  5.00000000E-01
           kptopt           0
P           mkmem           2
P          mkqmem           2
P          mk1mem           2
            natom           3
            nband          31
           nbdbuf           4
            ngfft          50      50      50
             nkpt           2
            nstep         100
             nsym          24
           ntypat           3
              occ      2.000000  2.000000  2.000000  2.000000  2.000000  2.000000
                       2.000000  2.000000  2.000000  2.000000  2.000000  2.000000
                       2.000000  2.000000  2.000000  2.000000  2.000000  2.000000
                       2.000000  2.000000  2.000000  2.000000  0.000000  0.000000
                       0.000000  0.000000  0.000000  0.000000  0.000000  0.000000
                       0.000000
        optdriver           1
            prtwf          -1
            rfdir           1       1       1
           rfelfd           2
            rprim      7.2787866102E+00  0.0000000000E+00  4.2024094088E+00
                       2.4262622034E+00  6.8625058278E+00  4.2024094088E+00
                       0.0000000000E+00  0.0000000000E+00  8.4048188175E+00
          spgroup         216
           strten      0.0000000000E+00  0.0000000000E+00  0.0000000000E+00
                       0.0000000000E+00  0.0000000000E+00  0.0000000000E+00
           symrel      1  0  0   0  1  0   0  0  1       0 -1  1   0 -1  0   1 -1  0
                      -1  0  0  -1  0  1  -1  1  0       0  1 -1   1  0 -1   0  0 -1
                      -1  0  0  -1  1  0  -1  0  1       0 -1  1   1 -1  0   0 -1  0
                       1  0  0   0  0  1   0  1  0       0  1 -1   0  0 -1   1  0 -1
                      -1  0  1  -1  1  0  -1  0  0       0 -1  0   1 -1  0   0 -1  1
                       1  0 -1   0  0 -1   0  1 -1       0  1  0   0  0  1   1  0  0
                       1  0 -1   0  1 -1   0  0 -1       0 -1  0   0 -1  1   1 -1  0
                      -1  0  1  -1  0  0  -1  1  0       0  1  0   1  0  0   0  0  1
                       0  0 -1   0  1 -1   1  0 -1       1 -1  0   0 -1  1   0 -1  0
                       0  0  1   1  0  0   0  1  0      -1  1  0  -1  0  0  -1  0  1
                       0  0  1   0  1  0   1  0  0       1 -1  0   0 -1  0   0 -1  1
                       0  0 -1   1  0 -1   0  1 -1      -1  1  0  -1  0  1  -1  0  0
           tolwfr      1.00000000E-20
            typat      1  2  3
           useylm           1
              wtk        0.50000    0.50000
           xangst      0.0000000000E+00  0.0000000000E+00  0.0000000000E+00
                       2.5678453202E+00  1.8157408389E+00  4.4476385606E+00
                       1.2839226601E+00  9.0787041947E-01  2.2238192803E+00
            xcart      0.0000000000E+00  0.0000000000E+00  0.0000000000E+00
                       4.8525244068E+00  3.4312529139E+00  8.4048188176E+00
                       2.4262622034E+00  1.7156264569E+00  4.2024094088E+00
             xred      0.0000000000E+00  0.0000000000E+00  0.0000000000E+00
                       5.0000000000E-01  5.0000000000E-01  5.0000000000E-01
                       2.5000000000E-01  2.5000000000E-01  2.5000000000E-01
            znucl       72.00000   50.00000   46.00000

- Timing analysis has been suppressed with timopt=0

 Suggested references for the acknowledgment of ABINIT usage.

 Calculation completed.
.Delivered  14 WARNINGs and   9 COMMENTs to log file.