.Version 9.5.1 of ABINIT

 ABINIT is a project of the Universite Catholique de Louvain,
 Corning Inc. and other collaborators, see ~abinit/doc/developers/contributors.txt .
 acknowledgments of the ABINIT effort.

.Starting date : Tue 11 May 2021.
- ( at 21h54 )

- input  file    -> /scratch/users/j/a/jabreu/flow_simple_8atoms/flow/w370/t1/run.abi
- output file    -> /scratch/users/j/a/jabreu/flow_simple_8atoms/flow/w370/t1/run.abo
- root for input  files -> /scratch/users/j/a/jabreu/flow_simple_8atoms/flow/w370/t1/indata/in
- root for output files -> /scratch/users/j/a/jabreu/flow_simple_8atoms/flow/w370/t1/outdata/out

 Symmetries : space group I-4 2 d (#122); Bravais tI (body-center tetrag.)
     intxc =       0      iscf =       7    lmnmax =      18     lnmax =       6
     mgfft =      75  mpssoang =       3    mqgrid =    3001     natom =       8
  nloc_mem =       1    nspden =       1   nspinor =       1    nsppol =       1
      nsym =       8    n1xccc =    2501    ntypat =       3    occopt =       1
   xclevel =       2
-    mband =          47        mffmem =           1         mkmem =           1
-   mkqmem =           1        mk1mem =           1           mpw =       14025
      nfft =      421875          nkpt =           1
  Rough estimation (10% accuracy) of disk space for files :

------------- Echo of variables that govern the present computation ------------
-
- outvars: echo of selected default values
-   iomode0 =  0 , fftalg0 =512 , wfoptalg0 =  0
-
- outvars: echo of global parameters not present in the input file
-  max_nthreads =    0
-
 -outvars: echo values of preprocessed input variables --------
            acell      1.0000000000E+00  1.0000000000E+00  1.0000000000E+00 Bohr
              amu      9.01218200E+00  2.80855000E+01  7.49215900E+01
             ecut      4.40000000E+01 Hartree
-          fftalg         512
           irdden           1
           irdwfk           1
           istwfk        1
              ixc     -116133
           kptopt           0
P           mkmem           1
P          mkqmem           1
P          mk1mem           1
            natom           8
            nband          47
           nbdbuf           4
            ngfft          75      75      75
             nkpt           1
            nstep        2000
             nsym           8
           ntypat           3
              occ      2.000000  2.000000  2.000000  2.000000  2.000000  2.000000
                       2.000000  2.000000  2.000000  2.000000  2.000000  2.000000
                       2.000000  2.000000  2.000000  2.000000  2.000000  2.000000
                       2.000000  2.000000  2.000000  2.000000  2.000000  2.000000
                       2.000000  2.000000  2.000000  2.000000  2.000000  2.000000
                       2.000000  2.000000  2.000000  2.000000  2.000000  2.000000
                       2.000000  2.000000  0.000000  0.000000  0.000000  0.000000
                       0.000000  0.000000  0.000000  0.000000  0.000000
        optdriver           1
            prtwf          -1
            rfdir           1       1       1
           rfelfd           2
            rprim      9.1664427859E+00  0.0000000000E+00 -8.1906147184E+00
                      -1.8357059159E+00  8.9807492525E+00 -8.1906147184E+00
                       0.0000000000E+00  0.0000000000E+00  1.2292674356E+01
          spgroup         122
           symrel      1  0  0   0  1  0   0  0  1       0  0  1  -1 -1 -1   1  0  0
                       0  1  0   1  0  0  -1 -1 -1      -1 -1 -1   0  0  1   0  1  0
                       0  1  0   1  0  0   0  0  1       0  0  1  -1 -1 -1   0  1  0
                       1  0  0   0  1  0  -1 -1 -1      -1 -1 -1   0  0  1   1  0  0
            tnons      0.0000000  0.0000000  0.0000000    -0.2500000  0.2500000  0.5000000
                      -0.0000000  0.0000000 -0.0000000    -0.2500000  0.2500000  0.5000000
                      -0.2500000  0.2500000  0.5000000     0.0000000  0.0000000  0.0000000
                      -0.2500000  0.2500000  0.5000000     0.0000000  0.0000000 -0.0000000
           tolwfr      1.00000000E-20
            typat      1  1  2  2  3  3  3  3
           useylm           1
           xangst      4.8410785226E-01  3.5643058654E+00 -1.0817850825E+00
                       1.9396294369E+00  2.3762039102E+00 -4.3342866333E+00
                       3.3951510215E+00  1.1881019551E+00 -1.0817850825E+00
                       0.0000000000E+00  0.0000000000E+00  0.0000000000E+00
                       3.8609147303E+00  1.8758086336E+00 -5.3750799822E+00
                       5.8049956427E-01  5.9405097756E-01  2.2117082019E+00
                       2.3289445911E+00  2.9702548878E+00 -2.2081350503E+00
                       9.8815886191E-01  4.0647011420E+00  1.0443665005E+00
            xcart      9.1483125955E-01  6.7355619394E+00 -2.0442775407E+00
                       3.6653684350E+00  4.4903746262E+00 -8.1906147184E+00
                       6.4159056104E+00  2.2451873131E+00 -2.0442775406E+00
                       0.0000000000E+00  0.0000000000E+00  0.0000000000E+00
                       7.2960714627E+00  3.5447645952E+00 -1.0157429109E+01
                       1.0969851967E+00  1.1225936566E+00  4.1795227874E+00
                       4.4010674558E+00  5.6129682828E+00 -4.1727705095E+00
                       1.8673496248E+00  7.6811719704E+00  1.9735666682E+00
             xred      2.5000000000E-01  7.5000000000E-01  5.0000000000E-01
                       5.0000000000E-01  5.0000000000E-01 -5.5511151231E-17
                       7.5000000000E-01  2.5000000000E-01  5.0000000000E-01
                       0.0000000000E+00  0.0000000000E+00  0.0000000000E+00
                       8.7500000000E-01  3.9470700000E-01  1.9707000000E-02
                       1.4470700000E-01  1.2500000000E-01  5.1970700000E-01
                       6.0529300000E-01  6.2500000000E-01  4.8029300000E-01
                       3.7500000000E-01  8.5529300000E-01  9.8029300000E-01
            znucl        4.00000   14.00000   33.00000

 chkinp: Checking input parameters for consistency.

== DATASET  1 ==================================================================
-   mpi_nproc: 1, omp_nthreads: -1 (-1 if OMP is not activated)

--- !DatasetInfo
iteration_state: {dtset: 1, }
dimensions: {natom: 8, nkpt: 1, mband: 47, nsppol: 1, nspinor: 1, nspden: 1, mpw: 14025, }
cutoff_energies: {ecut:  44.0, pawecutdg:  -1.0, }
electrons: {nelect:   7.60000000E+01, charge:   0.00000000E+00, occopt:   1.00000000E+00, tsmear:   1.00000000E-02, }
meta: {optdriver: 1, rfelfd: 2, }
...

 Real(R)+Recip(G) space primitive vectors, cartesian coordinates (Bohr,Bohr^-1):
 R(1)=  9.1664428  0.0000000 -8.1906147  G(1)=  0.1090936  0.0222992  0.0000000
 R(2)= -1.8357059  8.9807493 -8.1906147  G(2)=  0.0000000  0.1113493  0.0000000
 R(3)=  0.0000000  0.0000000 12.2926744  G(3)=  0.0726891  0.0890501  0.0813493
 Unit cell volume ucvol=  1.0119517E+03 bohr^3
 Angles (23,13,12)=  1.31782172E+02  1.31782172E+02  7.05732816E+01 degrees

 getcut: wavevector=  0.0000  0.0000  0.0000  ngfft=  75  75  75
         ecut(hartree)=     44.000   => boxcut(ratio)=   2.01641

--- Pseudopotential description ------------------------------------------------
- pspini: atom type   1  psp file is /scratch/users/j/a/jabreu/pseudos/PBEsol/Be.psp8
- pspatm: opening atomic psp file    /scratch/users/j/a/jabreu/pseudos/PBEsol/Be.psp8
- Be    ONCVPSP-3.3.0  r_core=   1.35684   1.10780
-  4.00000   4.00000    180112                znucl, zion, pspdat
    8 -116133    1    4       400   0.00000   pspcod,pspxc,lmax,lloc,mmax,r2well
    3.99000000000000    0.00000000000000    0.00000000000000   rchrg,fchrg,qchrg
     nproj     2     2
     extension_switch     1
  pspatm : epsatm=    3.86293307
         --- l  ekb(1:nproj) -->
             0   -7.966826   -2.672546
             1   -3.431835   -0.651830
 pspatm: atomic psp has been read  and splines computed

- pspini: atom type   2  psp file is /scratch/users/j/a/jabreu/pseudos/PBEsol/Si.psp8
- pspatm: opening atomic psp file    /scratch/users/j/a/jabreu/pseudos/PBEsol/Si.psp8
- Si    ONCVPSP-3.3.0  r_core=   1.60303   1.72197   1.91712
- 14.00000   4.00000    180112                znucl, zion, pspdat
    8 -116133    2    4       600   0.00000   pspcod,pspxc,lmax,lloc,mmax,r2well
    5.99000000000000    4.00000000000000    0.00000000000000   rchrg,fchrg,qchrg
     nproj     2     2     2
     extension_switch     1
  pspatm : epsatm=    7.86468782
         --- l  ekb(1:nproj) -->
             0    5.384426    0.843824
             1    2.663259    0.615854
             2   -2.267219   -0.458043
 pspatm: atomic psp has been read  and splines computed

- pspini: atom type   3  psp file is /scratch/users/j/a/jabreu/pseudos/PBEsol/As.psp8
- pspatm: opening atomic psp file    /scratch/users/j/a/jabreu/pseudos/PBEsol/As.psp8
- As    ONCVPSP-3.3.0  r_core=   1.76603   1.70395   1.80867
- 33.00000  15.00000    180112                znucl, zion, pspdat
    8 -116133    2    4       600   0.00000   pspcod,pspxc,lmax,lloc,mmax,r2well
    5.99000000000000    5.00000000000000    0.00000000000000   rchrg,fchrg,qchrg
     nproj     2     2     2
     extension_switch     1
  pspatm : epsatm=   28.79155382
         --- l  ekb(1:nproj) -->
             0    8.270760    0.868950
             1    4.919053    0.756587
             2  -10.048665   -4.076802
 pspatm: atomic psp has been read  and splines computed

   1.05352307E+04                                ecore*ucvol(ha*bohr**3)

-inwffil : will read wavefunctions from disk file /scratch/users/j/a/jabreu/flow_simple_8atoms/flow/w370/t1/indata/in_WFK

 ==>  initialize data related to q vector <==

 The list of irreducible perturbations for this q vector is:
    1)    idir= 1    ipert=   9
    2)    idir= 2    ipert=   9
    3)    idir= 3    ipert=   9

 Perturbation wavevector (in red.coord.)   0.000000  0.000000  0.000000
 Perturbation : derivative vs k along direction   1

 dfpt_looppert : COMMENT -
  In a d/dk calculation, iscf is set to -3 automatically.
 The set of symmetries contains only one element for this perturbation.
 symkpt : not enough symmetry to change the number of k points.

[...]

 Initialisation of the first-order wave-functions :
  ireadwf=   0

--- !BeginCycle
iteration_state: {dtset: 1, }
solver: {iscf: 7, nstep: 2000, nline: 4, wfoptalg: 0, }
tolerances: {tolwfr: 1.00E-20, }
...

     iter   2DEtotal(Ha)        deltaE(Ha) residm    vres2
-ETOT  1  -93.962196130196     -9.396E+01 7.044E-02 0.000E+00
 ETOT  2  -94.036251783271     -7.406E-02 4.902E-03 0.000E+00
 ETOT  3  -94.036388007612     -1.362E-04 1.457E-04 0.000E+00
 ETOT  4  -94.036389136046     -1.128E-06 1.659E-05 0.000E+00
 ETOT  5  -94.036389149035     -1.299E-08 6.129E-07 0.000E+00
 ETOT  6  -94.036389149197     -1.617E-10 8.562E-08 0.000E+00
 ETOT  7  -94.036389149199     -1.975E-12 3.076E-09 0.000E+00
 ETOT  8  -94.036389149198      1.421E-14 4.773E-10 0.000E+00
 ETOT  9  -94.036389149198      0.000E+00 1.669E-11 0.000E+00
 ETOT 10  -94.036389149199     -1.421E-14 2.775E-12 0.000E+00
 ETOT 11  -94.036389149199      0.000E+00 9.563E-14 0.000E+00
 ETOT 12  -94.036389149199     -2.842E-14 1.657E-14 0.000E+00
 ETOT 13  -94.036389149199      2.842E-14 5.666E-16 0.000E+00
 ETOT 14  -94.036389149199     -1.421E-14 1.009E-16 0.000E+00
 ETOT 15  -94.036389149199     -2.842E-14 3.430E-18 0.000E+00
 ETOT 16  -94.036389149199      0.000E+00 6.250E-19 0.000E+00
 ETOT 17  -94.036389149198      5.684E-14 2.113E-20 0.000E+00
 ETOT 18  -94.036389149199     -1.421E-14 9.831E-21 0.000E+00

 At SCF step   18   max residual=  9.83E-21 < tolwfr=  1.00E-20 =>converged.

 ----iterations are completed or convergence reached----

 dfpt_looppert: DFPT cycle converged with prtwf=-1. Will skip output of the 1st-order WFK file.
 dfpt_looppert : ek2=    7.4400898963E+01
          f-sum rule ratio=    1.2815029580E+00
 prteigrs : about to open file /scratch/users/j/a/jabreu/flow_simple_8atoms/flow/w370/t1/tmpdata/tmp_1WF1_EIG
 Expectation of eigenvalue derivatives (hartree) for nkpt=   1  k points:
  (in case of degenerate eigenvalues, averaged derivative)
 kpt#   1, nband= 47, wtk=  1.00000, kpt=  0.0000  0.0000  0.0000 (reduced coord)
  -0.00000    0.00000   -0.00000    0.00000   -0.00000   -0.00000    0.00000    0.00000
  -0.00000   -0.00000   -0.00000   -0.00000   -0.00000   -0.00000    0.00000    0.00000
   0.00000    0.00000   -0.00000    0.00000    0.00000    0.00000    0.00000   -0.00000
  -0.00000   -0.00000   -0.00000    0.00000   -0.00000   -0.00000    0.00000   -0.00000
  -0.00000    0.00000    0.00000   -0.00000   -0.00000   -0.00000    0.00000   -0.00000
   0.00000    0.00000    0.00000    0.00000    0.00000    0.00000   -0.02744

 Eight components of 2nd-order total energy (hartree) are
 1,2,3: 0th-order hamiltonian combined with 1st-order wavefunctions
     kin0=   8.81876417E+01 eigvalue=   1.11062648E+01  local=  -3.35451963E+01
 4,5,6: 1st-order hamiltonian combined with 1st and 0th-order wfs
     kin1=  -9.53449721E+01  Hartree=   0.00000000E+00     xc=   0.00000000E+00
 7,8,9: eventually, occupation + non-local contributions
    edocc=   2.12787735E+01     enl0=   7.00890550E+00   enl1=  -9.27278062E+01
 1-9 gives the relaxation energy (to be shifted if some occ is /=2.0)
   erelax=  -9.40363891E+01
  No Ewald or frozen-wf contrib.: the relaxation energy is the total one
 2DEtotal=   -0.9403638915E+02 Ha. Also 2DEtotal=   -0.255886028195E+04 eV
    (  non-var. 2DEtotal :   -9.4036389149E+01 Ha)

 Perturbation wavevector (in red.coord.)   0.000000  0.000000  0.000000
 Perturbation : derivative vs k along direction   2
 The set of symmetries contains only one element for this perturbation.
 symkpt : not enough symmetry to change the number of k points.

[...]

 Perturbation wavevector (in red.coord.)   0.000000  0.000000  0.000000
 Perturbation : derivative vs k along direction   3
 The set of symmetries contains only one element for this perturbation.
 symkpt : not enough symmetry to change the number of k points.

-inwffil : will read wavefunctions from disk file /scratch/users/j/a/jabreu/flow_simple_8atoms/flow/w370/t1/indata/in_WFK

 Initialisation of the first-order wave-functions :
  ireadwf=   0

--- !BeginCycle
iteration_state: {dtset: 1, }
solver: {iscf: 7, nstep: 2000, nline: 4, wfoptalg: 0, }
tolerances: {tolwfr: 1.00E-20, }
...

     iter   2DEtotal(Ha)        deltaE(Ha) residm    vres2
-ETOT  1  -152.18114707202     -1.522E+02 1.864E-01 0.000E+00
 ETOT  2  -152.30332372977     -1.222E-01 1.113E-02 0.000E+00
 ETOT  3  -152.30349858867     -1.749E-04 3.444E-04 0.000E+00
 ETOT  4  -152.30349949967     -9.110E-07 3.205E-05 0.000E+00
 ETOT  5  -152.30349950723     -7.561E-09 1.229E-06 0.000E+00
 ETOT  6  -152.30349950730     -7.364E-11 1.453E-07 0.000E+00
 ETOT  7  -152.30349950730     -6.821E-13 5.128E-09 0.000E+00
 ETOT  8  -152.30349950730     -8.527E-14 7.016E-10 0.000E+00
 ETOT  9  -152.30349950730      1.421E-13 2.320E-11 0.000E+00
 ETOT 10  -152.30349950730     -8.527E-14 3.531E-12 0.000E+00
 ETOT 11  -152.30349950730     -5.684E-14 1.124E-13 0.000E+00
 ETOT 12  -152.30349950730      2.842E-14 1.822E-14 0.000E+00
 ETOT 13  -152.30349950730      0.000E+00 5.646E-16 0.000E+00
 ETOT 14  -152.30349950730      0.000E+00 9.539E-17 0.000E+00
 ETOT 15  -152.30349950730      0.000E+00 2.885E-18 0.000E+00
 ETOT 16  -152.30349950730      5.684E-14 5.051E-19 0.000E+00
 ETOT 17  -152.30349950730      0.000E+00 1.489E-20 0.000E+00
 ETOT 18  -152.30349950730      0.000E+00 9.119E-21 0.000E+00

 At SCF step   18   max residual=  9.12E-21 < tolwfr=  1.00E-20 =>converged.

 ----iterations are completed or convergence reached----

 dfpt_looppert: DFPT cycle converged with prtwf=-1. Will skip output of the 1st-order WFK file.
 dfpt_looppert : ek2=    1.1900219655E+02
          f-sum rule ratio=    1.3126858401E+00
 prteigrs : about to open file /scratch/users/j/a/jabreu/flow_simple_8atoms/flow/w370/t1/tmpdata/tmp_1WF1_EIG
 Expectation of eigenvalue derivatives (hartree) for nkpt=   1  k points:
  (in case of degenerate eigenvalues, averaged derivative)
 kpt#   1, nband= 47, wtk=  1.00000, kpt=  0.0000  0.0000  0.0000 (reduced coord)
   0.00000    0.00000   -0.00000    0.00000   -0.00000   -0.00000    0.00000   -0.00000
   0.00000    0.00000   -0.00000    0.00000   -0.00000   -0.00000    0.00000    0.00000
   0.00000    0.00000   -0.00000   -0.00000   -0.00000    0.00000    0.00000   -0.00000
  -0.00000   -0.00000   -0.00000    0.00000   -0.00000   -0.00000    0.00000    0.00000
   0.00000    0.00000    0.00000   -0.00000   -0.00000   -0.00000    0.00000   -0.00000
   0.00000    0.00000    0.00000   -0.00000   -0.00000   -0.00000   -0.04534

 Eight components of 2nd-order total energy (hartree) are
 1,2,3: 0th-order hamiltonian combined with 1st-order wavefunctions
     kin0=   1.39900580E+02 eigvalue=   1.78327516E+01  local=  -5.29690961E+01
 4,5,6: 1st-order hamiltonian combined with 1st and 0th-order wfs
     kin1=  -1.56212498E+02  Hartree=   0.00000000E+00     xc=   0.00000000E+00
 7,8,9: eventually, occupation + non-local contributions
    edocc=   3.63630454E+01     enl0=   1.11762187E+01   enl1=  -1.48394501E+02
 1-9 gives the relaxation energy (to be shifted if some occ is /=2.0)
   erelax=  -1.52303500E+02
  No Ewald or frozen-wf contrib.: the relaxation energy is the total one
 2DEtotal=   -0.1523034995E+03 Ha. Also 2DEtotal=   -0.414438898831E+04 eV
    (  non-var. 2DEtotal :   -1.5230349951E+02 Ha)

 CALCULATION OF EFFECTIVE MASSES
 NOTE : Additional infos (eff. mass eigenvalues, eigenvectors and, if degenerate, average mass) are available in stdout.

 K-point ( 0.000, 0.000, 0.000) | band =    38
 Effective mass tensor:
             -0.2779179272              0.0249680525             -0.0455611162
              0.0249680525             -0.2677037242             -0.0558125608
             -0.0455611162             -0.0558125608             -0.1965065302
 Effective mass tensor eigenvalues:
             -0.2983141229             -0.2982949248             -0.1455191338
 Angular average effective mass 1/(<1/m>)=  -0.2209699509
 Angular average effective mass for Frohlich model (<m**0.5>)**2=  -0.2294737303
 Effective masses along directions: (cart. coord. / red. coord. -> eff. mass)
    1:   1.000000  0.000000  0.000000 /   0.980531 -0.196365  0.000000 ->  -0.2616483760
    2:   0.000000  1.000000  0.000000 /   0.000000  1.000000  0.000000 ->  -0.2464765271
    3:   0.000000  0.000000  1.000000 /  -0.484930 -0.484930  0.727795 ->  -0.1755185981
    4:   0.577350  0.577350  0.577350 /   0.078851 -0.084487  0.993300 ->  -0.2983124979
    5:   0.000000  0.707107  0.707107 /  -0.553698  0.053414  0.831003 ->  -0.2784293913
    6:   0.707107  0.000000  0.707107 /   0.061400 -0.630862  0.773462 ->  -0.2695317911
    7:   0.707107  0.707107  0.000000 /   0.788702  0.614776  0.000000 ->  -0.2214925221

 K-point ( 0.000, 0.000, 0.000) | band =    39
 Effective mass tensor:
              0.3800766900              0.1918454853             -0.3499326706
              0.1918454853              0.4585031446             -0.4286943856
             -0.3499326706             -0.4286943856              1.0054329570
 Effective mass tensor eigenvalues:
              0.2234778307              0.2234785000              1.3970564609
 Angular average effective mass 1/(<1/m>)=   0.3103915730
 Angular average effective mass for Frohlich model (<m**0.5>)**2=   0.3575612878
 Effective masses along directions: (cart. coord. / red. coord. -> eff. mass)
    1:   1.000000  0.000000  0.000000 /   0.980531 -0.196365  0.000000 ->   0.2516905806
    2:   0.000000  1.000000  0.000000 /   0.000000  1.000000  0.000000 ->   0.2686773192
    3:   0.000000  0.000000  1.000000 /  -0.484930 -0.484930  0.727795 ->   0.5075777140
    4:   0.577350  0.577350  0.577350 /   0.078851 -0.084487  0.993300 ->   0.2234792519
    5:   0.000000  0.707107  0.707107 /  -0.553698  0.053414  0.831003 ->   0.2370158546
    6:   0.707107  0.000000  0.707107 /   0.061400 -0.630862  0.773462 ->   0.2443521927
    7:   0.707107  0.707107  0.000000 /   0.788702  0.614776  0.000000 ->   0.3093047537

 END OF EFFECTIVE MASSES SECTION

 ---- first-order wavefunction calculations are completed ----

 Total localisation tensor (bohr^2) in cartesian coordinates
  WARNING : still subject to testing - especially symmetries.
      direction              matrix element
   alpha     beta       real part   imaginary part
     1        1       2.9101218752    0.0000000000
     1        2      -0.5489730514    0.0000000000
     1        3      -1.9993795621    0.0000000000
     2        1      -0.5489730514    0.0000000000
     2        2       2.6857184902    0.0000000000
     2        3      -2.4494265208    0.0000000000
     3        1      -1.9993795621    0.0000000000
     3        2      -2.4494265208    0.0000000000
     3        3      12.8703300928    0.0000000000

 respfn : d/dk was computed, but no 2DTE, so no DDB output.

== END DATASET(S) ==============================================================

 -outvars: echo values of variables after computation  --------
            acell      1.0000000000E+00  1.0000000000E+00  1.0000000000E+00 Bohr
              amu      9.01218200E+00  2.80855000E+01  7.49215900E+01
             ecut      4.40000000E+01 Hartree
           etotal     -1.5230349951E+02
            fcart      0.0000000000E+00  0.0000000000E+00  0.0000000000E+00
                       0.0000000000E+00  0.0000000000E+00  0.0000000000E+00
                       0.0000000000E+00  0.0000000000E+00  0.0000000000E+00
                       0.0000000000E+00  0.0000000000E+00  0.0000000000E+00
                       0.0000000000E+00  0.0000000000E+00  0.0000000000E+00
                       0.0000000000E+00  0.0000000000E+00  0.0000000000E+00
                       0.0000000000E+00  0.0000000000E+00  0.0000000000E+00
                       0.0000000000E+00  0.0000000000E+00  0.0000000000E+00
-          fftalg         512
           irdden           1
           irdwfk           1
           istwfk        1
              ixc     -116133
           kptopt           0
P           mkmem           1
P          mkqmem           1
P          mk1mem           1
            natom           8
            nband          47
           nbdbuf           4
            ngfft          75      75      75
             nkpt           1
            nstep        2000
             nsym           8
           ntypat           3
              occ      2.000000  2.000000  2.000000  2.000000  2.000000  2.000000
                       2.000000  2.000000  2.000000  2.000000  2.000000  2.000000
                       2.000000  2.000000  2.000000  2.000000  2.000000  2.000000
                       2.000000  2.000000  2.000000  2.000000  2.000000  2.000000
                       2.000000  2.000000  2.000000  2.000000  2.000000  2.000000
                       2.000000  2.000000  2.000000  2.000000  2.000000  2.000000
                       2.000000  2.000000  0.000000  0.000000  0.000000  0.000000
                       0.000000  0.000000  0.000000  0.000000  0.000000
        optdriver           1
            prtwf          -1
            rfdir           1       1       1
           rfelfd           2
            rprim      9.1664427859E+00  0.0000000000E+00 -8.1906147184E+00
                      -1.8357059159E+00  8.9807492525E+00 -8.1906147184E+00
                       0.0000000000E+00  0.0000000000E+00  1.2292674356E+01
          spgroup         122
           strten      0.0000000000E+00  0.0000000000E+00  0.0000000000E+00
                       0.0000000000E+00  0.0000000000E+00  0.0000000000E+00
           symrel      1  0  0   0  1  0   0  0  1       0  0  1  -1 -1 -1   1  0  0
                       0  1  0   1  0  0  -1 -1 -1      -1 -1 -1   0  0  1   0  1  0
                       0  1  0   1  0  0   0  0  1       0  0  1  -1 -1 -1   0  1  0
                       1  0  0   0  1  0  -1 -1 -1      -1 -1 -1   0  0  1   1  0  0
            tnons      0.0000000  0.0000000  0.0000000    -0.2500000  0.2500000  0.5000000
                      -0.0000000  0.0000000 -0.0000000    -0.2500000  0.2500000  0.5000000
                      -0.2500000  0.2500000  0.5000000     0.0000000  0.0000000  0.0000000
                      -0.2500000  0.2500000  0.5000000     0.0000000  0.0000000 -0.0000000
           tolwfr      1.00000000E-20
            typat      1  1  2  2  3  3  3  3
           useylm           1
           xangst      4.8410785226E-01  3.5643058654E+00 -1.0817850825E+00
                       1.9396294369E+00  2.3762039102E+00 -4.3342866333E+00
                       3.3951510215E+00  1.1881019551E+00 -1.0817850825E+00
                       0.0000000000E+00  0.0000000000E+00  0.0000000000E+00
                       3.8609147303E+00  1.8758086336E+00 -5.3750799822E+00
                       5.8049956427E-01  5.9405097756E-01  2.2117082019E+00
                       2.3289445911E+00  2.9702548878E+00 -2.2081350503E+00
                       9.8815886191E-01  4.0647011420E+00  1.0443665005E+00
            xcart      9.1483125955E-01  6.7355619394E+00 -2.0442775407E+00
                       3.6653684350E+00  4.4903746262E+00 -8.1906147184E+00
                       6.4159056104E+00  2.2451873131E+00 -2.0442775406E+00
                       0.0000000000E+00  0.0000000000E+00  0.0000000000E+00
                       7.2960714627E+00  3.5447645952E+00 -1.0157429109E+01
                       1.0969851967E+00  1.1225936566E+00  4.1795227874E+00
                       4.4010674558E+00  5.6129682828E+00 -4.1727705095E+00
                       1.8673496248E+00  7.6811719704E+00  1.9735666682E+00
             xred      2.5000000000E-01  7.5000000000E-01  5.0000000000E-01
                       5.0000000000E-01  5.0000000000E-01 -5.5511151231E-17
                       7.5000000000E-01  2.5000000000E-01  5.0000000000E-01
                       0.0000000000E+00  0.0000000000E+00  0.0000000000E+00
                       8.7500000000E-01  3.9470700000E-01  1.9707000000E-02
                       1.4470700000E-01  1.2500000000E-01  5.1970700000E-01
                       6.0529300000E-01  6.2500000000E-01  4.8029300000E-01
                       3.7500000000E-01  8.5529300000E-01  9.8029300000E-01
            znucl        4.00000   14.00000   33.00000

- Timing analysis has been suppressed with timopt=0

 Suggested references for the acknowledgment of ABINIT usage.

 Calculation completed.
.Delivered   6 WARNINGs and   5 COMMENTs to log file.