.Version 9.5.1 of ABINIT

 ABINIT is a project of the Universite Catholique de Louvain,
 Corning Inc. and other collaborators, see ~abinit/doc/developers/contributors.txt .
 acknowledgments of the ABINIT effort.

.Starting date : Tue 11 May 2021.
- ( at 21h21 )

- input  file    -> /scratch/users/j/a/jabreu/flow_simple_8atoms/flow/w292/t1/run.abi
- output file    -> /scratch/users/j/a/jabreu/flow_simple_8atoms/flow/w292/t1/run.abo
- root for input  files -> /scratch/users/j/a/jabreu/flow_simple_8atoms/flow/w292/t1/indata/in
- root for output files -> /scratch/users/j/a/jabreu/flow_simple_8atoms/flow/w292/t1/outdata/out

 Symmetries : space group R-3 (#148); Bravais hR (rhombohedral)
     intxc =       0      iscf =       7    lmnmax =      18     lnmax =       6
     mgfft =      72  mpssoang =       3    mqgrid =    3001     natom =       8
  nloc_mem =       1    nspden =       1   nspinor =       1    nsppol =       1
      nsym =       6    n1xccc =    2501    ntypat =       3    occopt =       1
   xclevel =       2
-    mband =          49        mffmem =           1         mkmem =           1
-   mkqmem =           1        mk1mem =           1           mpw =       12832
      nfft =      373248          nkpt =           1
  Rough estimation (10% accuracy) of disk space for files :

------------- Echo of variables that govern the present computation ------------
-
- outvars: echo of selected default values
-   iomode0 =  0 , fftalg0 =512 , wfoptalg0 =  0
-
- outvars: echo of global parameters not present in the input file
-  max_nthreads =    0
-
 -outvars: echo values of preprocessed input variables --------
            acell      1.0000000000E+00  1.0000000000E+00  1.0000000000E+00 Bohr
              amu      1.12411000E+02  1.06420000E+02  1.89984032E+01
             ecut      5.10000000E+01 Hartree
-          fftalg         512
           irdden           1
           irdwfk           1
           istwfk        1
              ixc     -116133
              kpt      5.00000000E-01  5.00000000E-01  0.00000000E+00
           kptopt           0
P           mkmem           1
P          mkqmem           1
P          mk1mem           1
            natom           8
            nband          49
           nbdbuf           4
            ngfft          72      72      72
             nkpt           1
            nstep        2000
             nsym           6
           ntypat           3
              occ      2.000000  2.000000  2.000000  2.000000  2.000000  2.000000
                       2.000000  2.000000  2.000000  2.000000  2.000000  2.000000
                       2.000000  2.000000  2.000000  2.000000  2.000000  2.000000
                       2.000000  2.000000  2.000000  2.000000  2.000000  2.000000
                       2.000000  2.000000  2.000000  2.000000  2.000000  2.000000
                       2.000000  2.000000  2.000000  2.000000  2.000000  2.000000
                       2.000000  2.000000  2.000000  2.000000  0.000000  0.000000
                       0.000000  0.000000  0.000000  0.000000  0.000000  0.000000
                       0.000000
        optdriver           1
            prtwf          -1
            rfdir           1       1       1
           rfelfd           2
            rprim      8.6354888525E+00  0.0000000000E+00  6.2057538005E+00
                       3.1823241012E+00  8.0277319983E+00  6.2057538005E+00
                       0.0000000000E+00  0.0000000000E+00  1.0634051324E+01
          spgroup         148
           symrel      1  0  0   0  1  0   0  0  1      -1  0  0   0 -1  0   0  0 -1
                       0  0  1   1  0  0   0  1  0       0  0 -1  -1  0  0   0 -1  0
                       0  1  0   0  0  1   1  0  0       0 -1  0   0  0 -1  -1  0  0
           tolwfr      1.00000000E-20
            typat      1  2  3  3  3  3  3  3
           useylm           1
           xangst      3.1268586352E+00  2.1240464051E+00  6.0975922711E+00
                       0.0000000000E+00  0.0000000000E+00  0.0000000000E+00
                       1.6303746171E+00  3.3079771270E+00  4.9541656624E+00
                       4.2071151867E+00  1.6364120795E+00  4.2150834891E+00
                       4.3758459885E+00  3.9515079625E+00  6.3189418396E+00
                       2.0466020838E+00  2.6116807307E+00  7.9801010530E+00
                       4.6233426534E+00  9.4011568317E-01  7.2410188797E+00
                       1.8778712820E+00  2.9658484763E-01  5.8762427025E+00
            xcart      5.9089064768E+00  4.0138659992E+00  1.1522779462E+01
                       0.0000000000E+00  0.0000000000E+00  0.0000000000E+00
                       3.0809615204E+00  6.2511708239E+00  9.3620163189E+00
                       7.9502955123E+00  3.0923706708E+00  7.9653534216E+00
                       8.2691505179E+00  7.4672678611E+00  1.1941069526E+01
                       3.8675174414E+00  4.9353613275E+00  1.5080205503E+01
                       8.7368514333E+00  1.7765611744E+00  1.3683542606E+01
                       3.5486624358E+00  5.6046413719E-01  1.1104489398E+01
             xred      5.0000000000E-01  5.0000000000E-01  5.0000000000E-01
                       0.0000000000E+00  0.0000000000E+00  0.0000000000E+00
                       6.9816000000E-02  7.7869700000E-01  3.8521100000E-01
                       7.7869700000E-01  3.8521100000E-01  6.9816000000E-02
                       6.1478900000E-01  9.3018400000E-01  2.2130300000E-01
                       2.2130300000E-01  6.1478900000E-01  9.3018400000E-01
                       9.3018400000E-01  2.2130300000E-01  6.1478900000E-01
                       3.8521100000E-01  6.9816000000E-02  7.7869700000E-01
            znucl       48.00000   46.00000    9.00000

 chkinp: Checking input parameters for consistency.

== DATASET  1 ==================================================================
-   mpi_nproc: 1, omp_nthreads: -1 (-1 if OMP is not activated)

--- !DatasetInfo
iteration_state: {dtset: 1, }
dimensions: {natom: 8, nkpt: 1, mband: 49, nsppol: 1, nspinor: 1, nspden: 1, mpw: 12832, }
cutoff_energies: {ecut:  51.0, pawecutdg:  -1.0, }
electrons: {nelect:   8.00000000E+01, charge:   0.00000000E+00, occopt:   1.00000000E+00, tsmear:   1.00000000E-02, }
meta: {optdriver: 1, rfelfd: 2, }
...

 Real(R)+Recip(G) space primitive vectors, cartesian coordinates (Bohr,Bohr^-1):
 R(1)=  8.6354889  0.0000000  6.2057538  G(1)=  0.1158012 -0.0459055  0.0000000
 R(2)=  3.1823241  8.0277320  6.2057538  G(2)=  0.0000000  0.1245682  0.0000000
 R(3)=  0.0000000  0.0000000 10.6340513  G(3)= -0.0675785 -0.0459055  0.0940375
 Unit cell volume ucvol=  7.3718849E+02 bohr^3
 Angles (23,13,12)=  5.42977004E+01  5.42977004E+01  5.42977004E+01 degrees

 getcut: wavevector=  0.0000  0.0000  0.0000  ngfft=  72  72  72
         ecut(hartree)=     51.000   => boxcut(ratio)=   2.10612

--- Pseudopotential description ------------------------------------------------
- pspini: atom type   1  psp file is /scratch/users/j/a/jabreu/pseudos/PBEsol/Cd.psp8
- pspatm: opening atomic psp file    /scratch/users/j/a/jabreu/pseudos/PBEsol/Cd.psp8
- Cd    ONCVPSP-3.3.0  r_core=   1.25838   1.30423   1.35174
- 48.00000  20.00000    180112                znucl, zion, pspdat
    8 -116133    2    4       600   0.00000   pspcod,pspxc,lmax,lloc,mmax,r2well
    5.99000000000000    6.00000000000000    0.00000000000000   rchrg,fchrg,qchrg
     nproj     2     2     2
     extension_switch     1
  pspatm : epsatm=   23.26728021
         --- l  ekb(1:nproj) -->
             0   63.701523    3.700425
             1    8.703569    1.290373
             2    0.983656   -0.721725
 pspatm: atomic psp has been read  and splines computed

- pspini: atom type   2  psp file is /scratch/users/j/a/jabreu/pseudos/PBEsol/Pd.psp8
- pspatm: opening atomic psp file    /scratch/users/j/a/jabreu/pseudos/PBEsol/Pd.psp8
- Pd    ONCVPSP-3.3.0  r_core=   1.41052   1.46191   1.55175
- 46.00000  18.00000    180112                znucl, zion, pspdat
    8 -116133    2    4       600   0.00000   pspcod,pspxc,lmax,lloc,mmax,r2well
    5.99000000000000    7.00000000000000    0.00000000000000   rchrg,fchrg,qchrg
     nproj     2     2     2
     extension_switch     1
  pspatm : epsatm=   26.17262427
         --- l  ekb(1:nproj) -->
             0    7.952303   -2.096627
             1    3.304793   -0.572651
             2   -1.185452   -0.410427
 pspatm: atomic psp has been read  and splines computed

- pspini: atom type   3  psp file is /scratch/users/j/a/jabreu/pseudos/PBEsol/F.psp8
- pspatm: opening atomic psp file    /scratch/users/j/a/jabreu/pseudos/PBEsol/F.psp8
- F     ONCVPSP-3.3.0  r_core=   1.30942   1.45782   1.60379
-  9.00000   7.00000    180112                znucl, zion, pspdat
    8 -116133    2    4       600   0.00000   pspcod,pspxc,lmax,lloc,mmax,r2well
    5.99000000000000    2.50000000000000    0.00000000000000   rchrg,fchrg,qchrg
     nproj     2     2     1
     extension_switch     1
  pspatm : epsatm=    4.89824824
         --- l  ekb(1:nproj) -->
             0    6.506434    1.065875
             1   -3.978753   -1.295852
             2   -2.394754
 pspatm: atomic psp has been read  and splines computed

   6.30635151E+03                                ecore*ucvol(ha*bohr**3)

-inwffil : will read wavefunctions from disk file /scratch/users/j/a/jabreu/flow_simple_8atoms/flow/w292/t1/indata/in_WFK

 ==>  initialize data related to q vector <==

 The list of irreducible perturbations for this q vector is:
    1)    idir= 1    ipert=   9
    2)    idir= 2    ipert=   9
    3)    idir= 3    ipert=   9

 Perturbation wavevector (in red.coord.)   0.000000  0.000000  0.000000
 Perturbation : derivative vs k along direction   1

 dfpt_looppert : COMMENT -
  In a d/dk calculation, iscf is set to -3 automatically.
 The set of symmetries contains only one element for this perturbation.
 symkpt : not enough symmetry to change the number of k points.

[...]

 Initialisation of the first-order wave-functions :
  ireadwf=   0

--- !BeginCycle
iteration_state: {dtset: 1, }
solver: {iscf: 7, nstep: 2000, nline: 4, wfoptalg: 0, }
tolerances: {tolwfr: 1.00E-20, }
...

     iter   2DEtotal(Ha)        deltaE(Ha) residm    vres2
-ETOT  1  -50.243917017025     -5.024E+01 1.451E-01 0.000E+00
 ETOT  2  -50.456794006883     -2.129E-01 1.893E-03 0.000E+00
 ETOT  3  -50.457616474524     -8.225E-04 2.715E-05 0.000E+00
 ETOT  4  -50.457622702657     -6.228E-06 9.256E-07 0.000E+00
 ETOT  5  -50.457622767918     -6.526E-08 1.791E-08 0.000E+00
 ETOT  6  -50.457622768688     -7.699E-10 1.286E-09 0.000E+00
 ETOT  7  -50.457622768698     -9.862E-12 1.398E-11 0.000E+00
 ETOT  8  -50.457622768698     -1.279E-13 2.010E-12 0.000E+00
 ETOT  9  -50.457622768698     -4.263E-14 1.146E-14 0.000E+00
 ETOT 10  -50.457622768698      5.684E-14 3.322E-15 0.000E+00
 ETOT 11  -50.457622768698      2.842E-14 1.749E-17 0.000E+00
 ETOT 12  -50.457622768698     -2.842E-14 5.677E-18 0.000E+00
 ETOT 13  -50.457622768698     -1.421E-14 3.013E-20 0.000E+00
 ETOT 14  -50.457622768698      2.132E-14 9.247E-21 0.000E+00

 At SCF step   14   max residual=  9.25E-21 < tolwfr=  1.00E-20 =>converged.

 ----iterations are completed or convergence reached----

 dfpt_looppert: DFPT cycle converged with prtwf=-1. Will skip output of the 1st-order WFK file.
 dfpt_looppert : ek2=    9.8015325984E+01
          f-sum rule ratio=    9.8889106779E-01
 prteigrs : about to open file /scratch/users/j/a/jabreu/flow_simple_8atoms/flow/w292/t1/tmpdata/tmp_1WF1_EIG
 Expectation of eigenvalue derivatives (hartree) for nkpt=   1  k points:
  (in case of degenerate eigenvalues, averaged derivative)
 kpt#   1, nband= 49, wtk=  1.00000, kpt=  0.5000  0.5000  0.0000 (reduced coord)
   0.00000   -0.00000   -0.00000    0.00000    0.00000   -0.00000   -0.00000    0.00000
  -0.00000    0.00000    0.00000   -0.00000   -0.00000    0.00000    0.00000    0.00000
  -0.00000    0.00000    0.00000   -0.00000   -0.00000   -0.00000   -0.00000   -0.00000
   0.00000   -0.00000   -0.00000   -0.00000   -0.00000   -0.00000    0.00000   -0.00000
   0.00000   -0.00000   -0.00000    0.00000   -0.00000    0.00000   -0.00000    0.00000
  -0.00000   -0.00000   -0.00000   -0.00000   -0.00000    0.00000   -0.00000   -0.00000
  -0.00074

 Eight components of 2nd-order total energy (hartree) are
 1,2,3: 0th-order hamiltonian combined with 1st-order wavefunctions
     kin0=   7.62781327E+01 eigvalue=   2.90272313E+00  local=  -3.53329563E+01
 4,5,6: 1st-order hamiltonian combined with 1st and 0th-order wfs
     kin1=  -9.69264804E+01  Hartree=   0.00000000E+00     xc=   0.00000000E+00
 7,8,9: eventually, occupation + non-local contributions
    edocc=   5.86961007E+00     enl0=   7.40113190E-01   enl1=  -3.98876517E+00
 1-9 gives the relaxation energy (to be shifted if some occ is /=2.0)
   erelax=  -5.04576228E+01
  No Ewald or frozen-wf contrib.: the relaxation energy is the total one
 2DEtotal=   -0.5045762277E+02 Ha. Also 2DEtotal=   -0.137302174182E+04 eV
    (  non-var. 2DEtotal :   -5.0457622769E+01 Ha)

 Perturbation wavevector (in red.coord.)   0.000000  0.000000  0.000000
 Perturbation : derivative vs k along direction   2
 The set of symmetries contains only one element for this perturbation.
 symkpt : not enough symmetry to change the number of k points.

[...]

 Perturbation wavevector (in red.coord.)   0.000000  0.000000  0.000000
 Perturbation : derivative vs k along direction   3
 The set of symmetries contains only one element for this perturbation.
 symkpt : not enough symmetry to change the number of k points.

-inwffil : will read wavefunctions from disk file /scratch/users/j/a/jabreu/flow_simple_8atoms/flow/w292/t1/indata/in_WFK

 Initialisation of the first-order wave-functions :
  ireadwf=   0

--- !BeginCycle
iteration_state: {dtset: 1, }
solver: {iscf: 7, nstep: 2000, nline: 4, wfoptalg: 0, }
tolerances: {tolwfr: 1.00E-20, }
...

     iter   2DEtotal(Ha)        deltaE(Ha) residm    vres2
-ETOT  1  -50.122715813284     -5.012E+01 2.154E-01 0.000E+00
 ETOT  2  -50.305527143267     -1.828E-01 2.070E-03 0.000E+00
 ETOT  3  -50.306247334138     -7.202E-04 8.604E-05 0.000E+00
 ETOT  4  -50.306252489239     -5.155E-06 9.827E-07 0.000E+00
 ETOT  5  -50.306252540970     -5.173E-08 6.756E-08 0.000E+00
 ETOT  6  -50.306252541547     -5.779E-10 8.638E-10 0.000E+00
 ETOT  7  -50.306252541554     -7.006E-12 6.416E-11 0.000E+00
 ETOT  8  -50.306252541555     -7.816E-14 1.057E-12 0.000E+00
 ETOT  9  -50.306252541554      1.066E-13 6.577E-14 0.000E+00
 ETOT 10  -50.306252541555     -7.816E-14 1.652E-15 0.000E+00
 ETOT 11  -50.306252541555      7.105E-15 7.021E-17 0.000E+00
 ETOT 12  -50.306252541555     -1.421E-14 2.653E-18 0.000E+00
 ETOT 13  -50.306252541555      0.000E+00 7.691E-20 0.000E+00
 ETOT 14  -50.306252541555      0.000E+00 9.154E-21 0.000E+00

 At SCF step   14   max residual=  9.15E-21 < tolwfr=  1.00E-20 =>converged.

 ----iterations are completed or convergence reached----

 dfpt_looppert: DFPT cycle converged with prtwf=-1. Will skip output of the 1st-order WFK file.
 dfpt_looppert : ek2=    9.8015326332E+01
          f-sum rule ratio=    9.8542265787E-01
 prteigrs : about to open file /scratch/users/j/a/jabreu/flow_simple_8atoms/flow/w292/t1/tmpdata/tmp_1WF1_EIG
 Expectation of eigenvalue derivatives (hartree) for nkpt=   1  k points:
  (in case of degenerate eigenvalues, averaged derivative)
 kpt#   1, nband= 49, wtk=  1.00000, kpt=  0.5000  0.5000  0.0000 (reduced coord)
  -0.00000    0.00000    0.00000    0.00000   -0.00000   -0.00000    0.00000   -0.00000
   0.00000   -0.00000   -0.00000    0.00000   -0.00000   -0.00000   -0.00000   -0.00000
   0.00000   -0.00000    0.00000    0.00000    0.00000    0.00000    0.00000   -0.00000
  -0.00000    0.00000    0.00000    0.00000    0.00000   -0.00000   -0.00000   -0.00000
   0.00000   -0.00000   -0.00000    0.00000   -0.00000   -0.00000    0.00000   -0.00000
   0.00000   -0.00000   -0.00000    0.00000   -0.00000    0.00000    0.00000    0.00000
   0.00084

 Eight components of 2nd-order total energy (hartree) are
 1,2,3: 0th-order hamiltonian combined with 1st-order wavefunctions
     kin0=   7.65715364E+01 eigvalue=   2.91136955E+00  local=  -3.54281483E+01
 4,5,6: 1st-order hamiltonian combined with 1st and 0th-order wfs
     kin1=  -9.65865234E+01  Hartree=   0.00000000E+00     xc=   0.00000000E+00
 7,8,9: eventually, occupation + non-local contributions
    edocc=   5.52180873E+00     enl0=   7.29686085E-01   enl1=  -4.02598170E+00
 1-9 gives the relaxation energy (to be shifted if some occ is /=2.0)
   erelax=  -5.03062525E+01
  No Ewald or frozen-wf contrib.: the relaxation energy is the total one
 2DEtotal=   -0.5030625254E+02 Ha. Also 2DEtotal=   -0.136890274847E+04 eV
    (  non-var. 2DEtotal :   -5.0306252541E+01 Ha)

 CALCULATION OF EFFECTIVE MASSES
 NOTE : Additional infos (eff. mass eigenvalues, eigenvectors and, if degenerate, average mass) are available in stdout.

 K-point ( 0.500, 0.500, 0.000) | band =    40
 Effective mass tensor:
             -2.4762154960             -0.8558617993              0.7378666619
             -0.8558617993             -6.5840450144              1.1753707938
              0.7378666619              1.1753707938             -3.4971603768
 Effective mass tensor eigenvalues:
             -7.2141019875             -3.2672738317             -2.0760450680
 Angular average effective mass 1/(<1/m>)=  -3.2384536069
 Angular average effective mass for Frohlich model (<m**0.5>)**2=  -3.4721670445
 Effective masses along directions: (cart. coord. / red. coord. -> eff. mass)
    1:   1.000000  0.000000  0.000000 /   0.938314  0.345785  0.000000 ->  -2.2608292827
    2:   0.000000  1.000000  0.000000 /   0.000000  1.000000  0.000000 ->  -6.0297779743
    3:   0.000000  0.000000  1.000000 /   0.450087  0.450087  0.771260 ->  -3.1425896068
    4:   0.577350  0.577350  0.577350 /   0.588190  0.690226  0.421450 ->  -2.7521071311
    5:   0.000000  0.707107  0.707107 /   0.329745  0.756302  0.565045 ->  -3.4650153526
    6:   0.707107  0.000000  0.707107 /   0.722905  0.457285  0.517976 ->  -2.1787178040
    7:   0.707107  0.707107  0.000000 /   0.610260  0.792201  0.000000 ->  -3.8367627835

 K-point ( 0.500, 0.500, 0.000) | band =    41
 Effective mass tensor:
              6.2949885812             10.8183069224             -5.0594331175
             10.8183069224             38.6532333041            -15.4317052056
             -5.0594331175            -15.4317052056              9.2273486244
 Effective mass tensor eigenvalues:
              2.3657869415              3.1819759108             48.6278076574
 Angular average effective mass 1/(<1/m>)=   3.9602557557
 Angular average effective mass for Frohlich model (<m**0.5>)**2=   5.1357115307
 Effective masses along directions: (cart. coord. / red. coord. -> eff. mass)
    1:   1.000000  0.000000  0.000000 /   0.938314  0.345785  0.000000 ->   3.0883845079
    2:   0.000000  1.000000  0.000000 /   0.000000  1.000000  0.000000 ->  11.2676067562
    3:   0.000000  0.000000  1.000000 /   0.450087  0.450087  0.771260 ->   2.8986938730
    4:   0.577350  0.577350  0.577350 /   0.588190  0.690226  0.421450 ->   2.9218198000
    5:   0.000000  0.707107  0.707107 /   0.329745  0.756302  0.565045 ->   3.0055774223
    6:   0.707107  0.000000  0.707107 /   0.722905  0.457285  0.517976 ->   2.4238463297
    7:   0.707107  0.707107  0.000000 /   0.610260  0.792201  0.000000 ->   6.8092097365

 END OF EFFECTIVE MASSES SECTION

 ---- first-order wavefunction calculations are completed ----

 Total localisation tensor (bohr^2) in cartesian coordinates
  WARNING : still subject to testing - especially symmetries.
      direction              matrix element
   alpha     beta       real part   imaginary part
     1        1       0.5686440445    0.0000000000
     1        2       0.1684748027    0.0000000000
     1        3       0.4908896889    0.0000000000
     2        1       0.1684748027    0.0000000000
     2        2       0.4249946020    0.0000000000
     2        3       0.3285376078    0.0000000000
     3        1       0.4908896889    0.0000000000
     3        2       0.3285376078    0.0000000000
     3        3       1.2652566410    0.0000000000

 respfn : d/dk was computed, but no 2DTE, so no DDB output.

== END DATASET(S) ==============================================================

 -outvars: echo values of variables after computation  --------
            acell      1.0000000000E+00  1.0000000000E+00  1.0000000000E+00 Bohr
              amu      1.12411000E+02  1.06420000E+02  1.89984032E+01
             ecut      5.10000000E+01 Hartree
           etotal     -5.0306252542E+01
            fcart      0.0000000000E+00  0.0000000000E+00  0.0000000000E+00
                       0.0000000000E+00  0.0000000000E+00  0.0000000000E+00
                       0.0000000000E+00  0.0000000000E+00  0.0000000000E+00
                       0.0000000000E+00  0.0000000000E+00  0.0000000000E+00
                       0.0000000000E+00  0.0000000000E+00  0.0000000000E+00
                       0.0000000000E+00  0.0000000000E+00  0.0000000000E+00
                       0.0000000000E+00  0.0000000000E+00  0.0000000000E+00
                       0.0000000000E+00  0.0000000000E+00  0.0000000000E+00
-          fftalg         512
           irdden           1
           irdwfk           1
           istwfk        1
              ixc     -116133
              kpt      5.00000000E-01  5.00000000E-01  0.00000000E+00
           kptopt           0
P           mkmem           1
P          mkqmem           1
P          mk1mem           1
            natom           8
            nband          49
           nbdbuf           4
            ngfft          72      72      72
             nkpt           1
            nstep        2000
             nsym           6
           ntypat           3
              occ      2.000000  2.000000  2.000000  2.000000  2.000000  2.000000
                       2.000000  2.000000  2.000000  2.000000  2.000000  2.000000
                       2.000000  2.000000  2.000000  2.000000  2.000000  2.000000
                       2.000000  2.000000  2.000000  2.000000  2.000000  2.000000
                       2.000000  2.000000  2.000000  2.000000  2.000000  2.000000
                       2.000000  2.000000  2.000000  2.000000  2.000000  2.000000
                       2.000000  2.000000  2.000000  2.000000  0.000000  0.000000
                       0.000000  0.000000  0.000000  0.000000  0.000000  0.000000
                       0.000000
        optdriver           1
            prtwf          -1
            rfdir           1       1       1
           rfelfd           2
            rprim      8.6354888525E+00  0.0000000000E+00  6.2057538005E+00
                       3.1823241012E+00  8.0277319983E+00  6.2057538005E+00
                       0.0000000000E+00  0.0000000000E+00  1.0634051324E+01
          spgroup         148
           strten      0.0000000000E+00  0.0000000000E+00  0.0000000000E+00
                       0.0000000000E+00  0.0000000000E+00  0.0000000000E+00
           symrel      1  0  0   0  1  0   0  0  1      -1  0  0   0 -1  0   0  0 -1
                       0  0  1   1  0  0   0  1  0       0  0 -1  -1  0  0   0 -1  0
                       0  1  0   0  0  1   1  0  0       0 -1  0   0  0 -1  -1  0  0
           tolwfr      1.00000000E-20
            typat      1  2  3  3  3  3  3  3
           useylm           1
           xangst      3.1268586352E+00  2.1240464051E+00  6.0975922711E+00
                       0.0000000000E+00  0.0000000000E+00  0.0000000000E+00
                       1.6303746171E+00  3.3079771270E+00  4.9541656624E+00
                       4.2071151867E+00  1.6364120795E+00  4.2150834891E+00
                       4.3758459885E+00  3.9515079625E+00  6.3189418396E+00
                       2.0466020838E+00  2.6116807307E+00  7.9801010530E+00
                       4.6233426534E+00  9.4011568317E-01  7.2410188797E+00
                       1.8778712820E+00  2.9658484763E-01  5.8762427025E+00
            xcart      5.9089064768E+00  4.0138659992E+00  1.1522779462E+01
                       0.0000000000E+00  0.0000000000E+00  0.0000000000E+00
                       3.0809615204E+00  6.2511708239E+00  9.3620163189E+00
                       7.9502955123E+00  3.0923706708E+00  7.9653534216E+00
                       8.2691505179E+00  7.4672678611E+00  1.1941069526E+01
                       3.8675174414E+00  4.9353613275E+00  1.5080205503E+01
                       8.7368514333E+00  1.7765611744E+00  1.3683542606E+01
                       3.5486624358E+00  5.6046413719E-01  1.1104489398E+01
             xred      5.0000000000E-01  5.0000000000E-01  5.0000000000E-01
                       0.0000000000E+00  0.0000000000E+00  0.0000000000E+00
                       6.9816000000E-02  7.7869700000E-01  3.8521100000E-01
                       7.7869700000E-01  3.8521100000E-01  6.9816000000E-02
                       6.1478900000E-01  9.3018400000E-01  2.2130300000E-01
                       2.2130300000E-01  6.1478900000E-01  9.3018400000E-01
                       9.3018400000E-01  2.2130300000E-01  6.1478900000E-01
                       3.8521100000E-01  6.9816000000E-02  7.7869700000E-01
            znucl       48.00000   46.00000    9.00000

- Timing analysis has been suppressed with timopt=0

 Suggested references for the acknowledgment of ABINIT usage.

 Calculation completed.
.Delivered   6 WARNINGs and   5 COMMENTs to log file.