.Version 9.5.1 of ABINIT

 ABINIT is a project of the Universite Catholique de Louvain,
 Corning Inc. and other collaborators, see ~abinit/doc/developers/contributors.txt .
 acknowledgments of the ABINIT effort.

.Starting date : Fri  7 May 2021.
- ( at 11h47 )

- input  file    -> /scratch/users/j/a/jabreu/flow_simple_7atoms/flow/w187/t1/run.abi
- output file    -> /scratch/users/j/a/jabreu/flow_simple_7atoms/flow/w187/t1/run.abo
- root for input  files -> /scratch/users/j/a/jabreu/flow_simple_7atoms/flow/w187/t1/indata/in
- root for output files -> /scratch/users/j/a/jabreu/flow_simple_7atoms/flow/w187/t1/outdata/out

 Symmetries : space group I-4 (# 82); Bravais tI (body-center tetrag.)
     intxc =       0      iscf =       7    lmnmax =      25     lnmax =       7
     mgfft =      90  mpssoang =       4    mqgrid =    3001     natom =       7
  nloc_mem =       1    nspden =       1   nspinor =       1    nsppol =       1
      nsym =       4    n1xccc =    2501    ntypat =       3    occopt =       1
   xclevel =       2
-    mband =          64        mffmem =           1         mkmem =           1
-   mkqmem =           1        mk1mem =           1           mpw =       19693
      nfft =      729000          nkpt =           1
  Rough estimation (10% accuracy) of disk space for files :

------------- Echo of variables that govern the present computation ------------
-
- outvars: echo of selected default values
-   iomode0 =  0 , fftalg0 =512 , wfoptalg0 =  0
-
- outvars: echo of global parameters not present in the input file
-  max_nthreads =    0
-
 -outvars: echo values of preprocessed input variables --------
            acell      1.0000000000E+00  1.0000000000E+00  1.0000000000E+00 Bohr
              amu      1.14820000E+02  2.00590000E+02  1.27600000E+02
        autoparal           1
             ecut      4.00000000E+01 Hartree
-          fftalg         512
           irdden           1
           irdwfk           1
           istwfk        1
              ixc     -116133
           kptopt           0
P           mkmem           1
P          mkqmem           1
P          mk1mem           1
            natom           7
            nband          64
           nbdbuf           4
            ngfft          90      90      90
             nkpt           1
            nstep        2000
             nsym           4
           ntypat           3
              occ      2.000000  2.000000  2.000000  2.000000  2.000000  2.000000
                       2.000000  2.000000  2.000000  2.000000  2.000000  2.000000
                       2.000000  2.000000  2.000000  2.000000  2.000000  2.000000
                       2.000000  2.000000  2.000000  2.000000  2.000000  2.000000
                       2.000000  2.000000  2.000000  2.000000  2.000000  2.000000
                       2.000000  2.000000  2.000000  2.000000  2.000000  2.000000
                       2.000000  2.000000  2.000000  2.000000  2.000000  2.000000
                       2.000000  2.000000  2.000000  2.000000  2.000000  2.000000
                       2.000000  2.000000  2.000000  2.000000  2.000000  2.000000
                       2.000000  0.000000  0.000000  0.000000  0.000000  0.000000
                       0.000000  0.000000  0.000000  0.000000
        optdriver           1
            prtwf          -1
            rfdir           1       1       1
           rfelfd           2
            rprim      1.0749012322E+01  0.0000000000E+00 -9.5577013173E+00
                      -2.1667381487E+00  1.0528367000E+01 -9.5577013173E+00
                       0.0000000000E+00  0.0000000000E+00  1.4383703291E+01
          spgroup          82
           symrel      1  0  0   0  1  0   0  0  1       0  1  0   1  0  0  -1 -1 -1
                       0  0  1  -1 -1 -1   0  1  0      -1 -1 -1   0  0  1   1  0  0
           tolwfr      1.00000000E-20
            typat      1  1  2  3  3  3  3
           useylm           1
           xangst      5.6209174993E-01  4.1785288951E+00 -1.2519537253E+00
                       2.2707719451E+00  2.7856859301E+00 -5.0577177036E+00
                       0.0000000000E+00  0.0000000000E+00  0.0000000000E+00
                       3.4711497013E+00  7.8877393531E-01 -3.4901482963E+00
                      -1.9960541523E-01  3.2246167122E+00  3.8149262608E+00
                       3.8297746903E+00  5.1168760579E+00 -5.2022899920E+00
                       1.9817688042E+00  2.0124770149E+00 -1.3030287356E-01
            xcart      1.0621994689E+00  7.8962752501E+00 -2.3658496718E+00
                       4.2911370865E+00  5.2641835000E+00 -9.5577013173E+00
                       0.0000000000E+00  0.0000000000E+00  0.0000000000E+00
                       6.5595223016E+00  1.4905667185E+00 -6.5954244432E+00
                      -3.7719956943E-01  6.0936424695E+00  7.2091658500E+00
                       7.2372253153E+00  9.6694944053E+00 -9.8309033487E+00
                       3.7450002987E+00  3.8030304069E+00 -2.4623674536E-01
             xred      2.5000000000E-01  7.5000000000E-01  5.0000000000E-01
                       5.0000000000E-01  5.0000000000E-01  0.0000000000E+00
                       0.0000000000E+00  0.0000000000E+00  0.0000000000E+00
                       6.3878250000E-01  1.4157625000E-01  5.9999250000E-02
                       8.1577000000E-02  5.7878325000E-01  9.4000075000E-01
                       8.5842375000E-01  9.1842300000E-01  4.9720625000E-01
                       4.2121675000E-01  3.6121750000E-01  5.0279375000E-01
            znucl       49.00000   80.00000   52.00000

 chkinp: Checking input parameters for consistency.

== DATASET  1 ==================================================================
-   mpi_nproc: 1, omp_nthreads: -1 (-1 if OMP is not activated)

--- !DatasetInfo
iteration_state: {dtset: 1, }
dimensions: {natom: 7, nkpt: 1, mband: 64, nsppol: 1, nspinor: 1, nspden: 1, mpw: 19693, }
cutoff_energies: {ecut:  40.0, pawecutdg:  -1.0, }
electrons: {nelect:   1.10000000E+02, charge:   0.00000000E+00, occopt:   1.00000000E+00, tsmear:   1.00000000E-02, }
meta: {optdriver: 1, rfelfd: 2, }
...

 Real(R)+Recip(G) space primitive vectors, cartesian coordinates (Bohr,Bohr^-1):
 R(1)= 10.7490123  0.0000000 -9.5577013  G(1)=  0.0930318  0.0191459  0.0000000
 R(2)= -2.1667381 10.5283670 -9.5577013  G(2)=  0.0000000  0.0949815  0.0000000
 R(3)=  0.0000000  0.0000000 14.3837033  G(3)=  0.0618179  0.0758355  0.0695231
 Unit cell volume ucvol=  1.6277972E+03 bohr^3
 Angles (23,13,12)=  1.31642542E+02  1.31642542E+02  7.07941830E+01 degrees

 getcut: wavevector=  0.0000  0.0000  0.0000  ngfft=  90  90  90
         ecut(hartree)=     40.000   => boxcut(ratio)=   2.19777

--- Pseudopotential description ------------------------------------------------
- pspini: atom type   1  psp file is /scratch/users/j/a/jabreu/pseudos/PBEsol/In.psp8
- pspatm: opening atomic psp file    /scratch/users/j/a/jabreu/pseudos/PBEsol/In.psp8
- In    ONCVPSP-3.3.0  r_core=   2.10853   2.37566   1.87143
- 49.00000  13.00000    180112                znucl, zion, pspdat
    8 -116133    2    4       600   0.00000   pspcod,pspxc,lmax,lloc,mmax,r2well
    5.99000000000000    5.00000000000000    0.00000000000000   rchrg,fchrg,qchrg
     nproj     2     2     2
     extension_switch     1
  pspatm : epsatm=   25.17984752
         --- l  ekb(1:nproj) -->
             0   12.999887    1.931740
             1    5.981707    1.012544
             2   -4.048011   -1.239028
 pspatm: atomic psp has been read  and splines computed

- pspini: atom type   2  psp file is /scratch/users/j/a/jabreu/pseudos/PBEsol/Hg.psp8
- pspatm: opening atomic psp file    /scratch/users/j/a/jabreu/pseudos/PBEsol/Hg.psp8
- Hg    ONCVPSP-3.3.0  r_core=   1.60079   1.60079   1.45509   1.60079
- 80.00000  20.00000    180112                znucl, zion, pspdat
    8 -116133    3    4       600   0.00000   pspcod,pspxc,lmax,lloc,mmax,r2well
    5.99000000000000    5.00000000000000    0.00000000000000   rchrg,fchrg,qchrg
     nproj     2     2     2     1
     extension_switch     1
  pspatm : epsatm=   30.52477316
         --- l  ekb(1:nproj) -->
             0   15.280580    2.063595
             1   11.999965    1.374025
             2    2.245749    0.205661
             3    0.961656
 pspatm: atomic psp has been read  and splines computed

- pspini: atom type   3  psp file is /scratch/users/j/a/jabreu/pseudos/PBEsol/Te.psp8
- pspatm: opening atomic psp file    /scratch/users/j/a/jabreu/pseudos/PBEsol/Te.psp8
- Te    ONCVPSP-3.3.0  r_core=   2.26547   1.91704   1.80604
- 52.00000  16.00000    180112                znucl, zion, pspdat
    8 -116133    2    4       600   0.00000   pspcod,pspxc,lmax,lloc,mmax,r2well
    5.99000000000000    5.00000000000000    0.00000000000000   rchrg,fchrg,qchrg
     nproj     2     2     2
     extension_switch     1
  pspatm : epsatm=   36.82679836
         --- l  ekb(1:nproj) -->
             0    6.345999    0.785432
             1    5.709019    1.070069
             2   -6.035173   -1.870937
 pspatm: atomic psp has been read  and splines computed

   2.51010828E+04                                ecore*ucvol(ha*bohr**3)

-inwffil : will read wavefunctions from disk file /scratch/users/j/a/jabreu/flow_simple_7atoms/flow/w187/t1/indata/in_WFK

 ==>  initialize data related to q vector <==

 The list of irreducible perturbations for this q vector is:
    1)    idir= 1    ipert=   8
    2)    idir= 2    ipert=   8
    3)    idir= 3    ipert=   8

 Perturbation wavevector (in red.coord.)   0.000000  0.000000  0.000000
 Perturbation : derivative vs k along direction   1

 dfpt_looppert : COMMENT -
  In a d/dk calculation, iscf is set to -3 automatically.
 The set of symmetries contains only one element for this perturbation.
 symkpt : not enough symmetry to change the number of k points.

[...]

 Initialisation of the first-order wave-functions :
  ireadwf=   0

--- !BeginCycle
iteration_state: {dtset: 1, }
solver: {iscf: 7, nstep: 2000, nline: 4, wfoptalg: 0, }
tolerances: {tolwfr: 1.00E-20, }
...

     iter   2DEtotal(Ha)        deltaE(Ha) residm    vres2
-ETOT  1  -96.366206696694     -9.637E+01 1.604E-01 0.000E+00
 ETOT  2  -96.441351552999     -7.514E-02 5.019E-03 0.000E+00
 ETOT  3  -96.441749957473     -3.984E-04 2.995E-04 0.000E+00
 ETOT  4  -96.441756898239     -6.941E-06 3.976E-05 0.000E+00
 ETOT  5  -96.441757279847     -3.816E-07 3.449E-06 0.000E+00
 ETOT  6  -96.441757308980     -2.913E-08 4.219E-07 0.000E+00
 ETOT  7  -96.441757311401     -2.422E-09 4.024E-08 0.000E+00
 ETOT  8  -96.441757311609     -2.073E-10 5.075E-09 0.000E+00
 ETOT  9  -96.441757311627     -1.798E-11 5.044E-10 0.000E+00
 ETOT 10  -96.441757311628     -1.663E-12 6.455E-11 0.000E+00
 ETOT 11  -96.441757311629     -1.990E-13 6.559E-12 0.000E+00
 ETOT 12  -96.441757311629     -1.563E-13 8.450E-13 0.000E+00
 ETOT 13  -96.441757311629      7.105E-14 8.747E-14 0.000E+00
 ETOT 14  -96.441757311629      0.000E+00 1.131E-14 0.000E+00
 ETOT 15  -96.441757311629      7.105E-14 1.190E-15 0.000E+00
 ETOT 16  -96.441757311629     -2.842E-14 1.542E-16 0.000E+00
[...]

 ----iterations are completed or convergence reached----

 dfpt_looppert: DFPT cycle converged with prtwf=-1. Will skip output of the 1st-order WFK file.
 dfpt_looppert : ek2=    7.8353858327E+01
          f-sum rule ratio=    1.3297275914E+00
 prteigrs : about to open file /scratch/users/j/a/jabreu/flow_simple_7atoms/flow/w187/t1/tmpdata/tmp_1WF1_EIG
 Expectation of eigenvalue derivatives (hartree) for nkpt=   1  k points:
  (in case of degenerate eigenvalues, averaged derivative)
 kpt#   1, nband= 64, wtk=  1.00000, kpt=  0.0000  0.0000  0.0000 (reduced coord)
   0.00000   -0.00000   -0.00000   -0.00000    0.00000   -0.00000   -0.00000   -0.00000
  -0.00000    0.00000    0.00000   -0.00000    0.00000   -0.00000   -0.00000   -0.00000
   0.00000   -0.00000   -0.00000   -0.00000   -0.00000   -0.00000   -0.00000    0.00000
  -0.00000   -0.00000   -0.00000    0.00000    0.00000    0.00000    0.00000    0.00000
   0.00000    0.00000   -0.00000    0.00000    0.00000   -0.00000   -0.00000   -0.00000
   0.00000    0.00000   -0.00000    0.00000    0.00000    0.00000   -0.00000    0.00000
   0.00000   -0.00000   -0.00000   -0.00000   -0.00000    0.00000    0.00000    0.00000
   0.00000    0.00000    0.00000   -0.00000   -0.00000   -0.00000   -0.00000   -0.00000

 Eight components of 2nd-order total energy (hartree) are
 1,2,3: 0th-order hamiltonian combined with 1st-order wavefunctions
     kin0=   9.75026103E+01 eigvalue=   1.37022862E+01  local=  -5.27912741E+01
 4,5,6: 1st-order hamiltonian combined with 1st and 0th-order wfs
     kin1=  -1.04189287E+02  Hartree=   0.00000000E+00     xc=   0.00000000E+00
 7,8,9: eventually, occupation + non-local contributions
    edocc=   2.37142173E+01     enl0=   1.43139176E+01   enl1=  -8.86942273E+01
 1-9 gives the relaxation energy (to be shifted if some occ is /=2.0)
   erelax=  -9.64417573E+01
  No Ewald or frozen-wf contrib.: the relaxation energy is the total one
 2DEtotal=   -0.9644175731E+02 Ha. Also 2DEtotal=   -0.262431367834E+04 eV
    (  non-var. 2DEtotal :   -9.6441757312E+01 Ha)

 Perturbation wavevector (in red.coord.)   0.000000  0.000000  0.000000
 Perturbation : derivative vs k along direction   2
 The set of symmetries contains only one element for this perturbation.
 symkpt : not enough symmetry to change the number of k points.

[...]

 Perturbation wavevector (in red.coord.)   0.000000  0.000000  0.000000
 Perturbation : derivative vs k along direction   3
 The set of symmetries contains only one element for this perturbation.
 symkpt : not enough symmetry to change the number of k points.

-inwffil : will read wavefunctions from disk file /scratch/users/j/a/jabreu/flow_simple_7atoms/flow/w187/t1/indata/in_WFK

 Initialisation of the first-order wave-functions :
  ireadwf=   0

--- !BeginCycle
iteration_state: {dtset: 1, }
solver: {iscf: 7, nstep: 2000, nline: 4, wfoptalg: 0, }
tolerances: {tolwfr: 1.00E-20, }
...

     iter   2DEtotal(Ha)        deltaE(Ha) residm    vres2
-ETOT  1  -157.18590944451     -1.572E+02 1.622E-01 0.000E+00
 ETOT  2  -157.28744197970     -1.015E-01 3.146E-03 0.000E+00
 ETOT  3  -157.28780076538     -3.588E-04 2.147E-04 0.000E+00
 ETOT  4  -157.28780695362     -6.188E-06 1.782E-05 0.000E+00
 ETOT  5  -157.28780726608     -3.125E-07 1.442E-06 0.000E+00
 ETOT  6  -157.28780728679     -2.071E-08 1.423E-07 0.000E+00
 ETOT  7  -157.28780728830     -1.508E-09 1.133E-08 0.000E+00
 ETOT  8  -157.28780728841     -1.133E-10 1.202E-09 0.000E+00
 ETOT  9  -157.28780728842     -8.043E-12 9.297E-11 0.000E+00
 ETOT 10  -157.28780728842     -1.137E-12 1.050E-11 0.000E+00
 ETOT 11  -157.28780728842     -2.558E-13 7.970E-13 0.000E+00
 ETOT 12  -157.28780728842     -2.842E-14 9.490E-14 0.000E+00
 ETOT 13  -157.28780728842      2.842E-14 7.188E-15 0.000E+00
 ETOT 14  -157.28780728842     -1.137E-13 8.884E-16 0.000E+00
 ETOT 15  -157.28780728842      3.411E-13 6.779E-17 0.000E+00
 ETOT 16  -157.28780728842     -1.421E-13 8.586E-18 0.000E+00
 ETOT 17  -157.28780728842     -5.684E-14 6.618E-19 0.000E+00
 ETOT 18  -157.28780728842      8.527E-14 8.517E-20 0.000E+00
 ETOT 19  -157.28780728842      0.000E+00 9.782E-21 0.000E+00

 At SCF step   19   max residual=  9.78E-21 < tolwfr=  1.00E-20 =>converged.

 ----iterations are completed or convergence reached----

 dfpt_looppert: DFPT cycle converged with prtwf=-1. Will skip output of the 1st-order WFK file.
 dfpt_looppert : ek2=    1.2511927136E+02
          f-sum rule ratio=    1.3768315571E+00
 prteigrs : about to open file /scratch/users/j/a/jabreu/flow_simple_7atoms/flow/w187/t1/tmpdata/tmp_1WF1_EIG
 Expectation of eigenvalue derivatives (hartree) for nkpt=   1  k points:
  (in case of degenerate eigenvalues, averaged derivative)
 kpt#   1, nband= 64, wtk=  1.00000, kpt=  0.0000  0.0000  0.0000 (reduced coord)
   0.00000    0.00000    0.00000    0.00000    0.00000   -0.00000    0.00000    0.00000
   0.00000    0.00000    0.00000    0.00000    0.00000   -0.00000   -0.00000   -0.00000
   0.00000   -0.00000   -0.00000    0.00000   -0.00000    0.00000    0.00000    0.00000
  -0.00000   -0.00000   -0.00000    0.00000    0.00000    0.00000   -0.00000   -0.00000
   0.00000    0.00000    0.00000    0.00000    0.00000   -0.00000   -0.00000   -0.00000
   0.00000    0.00000    0.00000    0.00000    0.00000   -0.00000    0.00000    0.00000
   0.00000    0.00000   -0.00000   -0.00000   -0.00000   -0.00000   -0.00000    0.00000
   0.00000   -0.00000    0.00000    0.00000    0.00000    0.00000    0.00000    0.00000

 Eight components of 2nd-order total energy (hartree) are
 1,2,3: 0th-order hamiltonian combined with 1st-order wavefunctions
     kin0=   1.54927821E+02 eigvalue=   2.20052872E+01  local=  -8.38442929E+01
 4,5,6: 1st-order hamiltonian combined with 1st and 0th-order wfs
     kin1=  -1.72268161E+02  Hartree=   0.00000000E+00     xc=   0.00000000E+00
 7,8,9: eventually, occupation + non-local contributions
    edocc=   4.13839391E+01     enl0=   2.28150529E+01   enl1=  -1.42307453E+02
 1-9 gives the relaxation energy (to be shifted if some occ is /=2.0)
   erelax=  -1.57287807E+02
  No Ewald or frozen-wf contrib.: the relaxation energy is the total one
 2DEtotal=   -0.1572878073E+03 Ha. Also 2DEtotal=   -0.428001890062E+04 eV
    (  non-var. 2DEtotal :   -1.5728780729E+02 Ha)

 CALCULATION OF EFFECTIVE MASSES
 NOTE : Additional infos (eff. mass eigenvalues, eigenvectors and, if degenerate, average mass) are available in stdout.

 COMMENTS:
 - At k-point ( 0.000, 0.000, 0.000), bands    54 through    55
   are DEGENERATE (effective mass tensor is therefore not defined).
   See Section IIIB Eqs. (67)-(70) and Appendix E of PRB 93 205147 (2016).
 - Angular average effective mass for Frohlich model is to be averaged over degenerate bands. See later.
 - Associated theta integrals calculated with ntheta=   1000 points.

 K-point ( 0.000, 0.000, 0.000) | band =    54
 Transport equivalent effective mass tensor:
             -0.0964797104             -0.0662329073              0.1202530897
             -0.0662329073             -0.1237411781              0.1475213492
              0.1202530897              0.1475213492             -0.3103306289
 Transport equivalent effective mass tensor eigenvalues:
             -0.4455725590             -0.0424894793             -0.0424894791
 Angular average effective mass 1/(<1/m>)=  -0.0606133271
 Angular average effective mass for Frohlich model (<m**0.5>)**2=  -0.0739402831
 Effective masses along directions: (cart. coord. / red. coord. -> eff. mass)
    1:   1.000000  0.000000  0.000000 /   0.980283 -0.197601  0.000000 ->  -0.0494333058
    2:   0.000000  1.000000  0.000000 /   0.000000  1.000000  0.000000 ->  -0.0537913754
    3:   0.000000  0.000000  1.000000 /  -0.484227 -0.484227  0.728730 ->  -0.1029239935
    4:   0.577350  0.577350  0.577350 /   0.082259 -0.082588  0.993183 ->  -0.0409177289
    5:   0.000000  0.707107  0.707107 /  -0.552567  0.056118  0.831577 ->  -0.0456095582
    6:   0.707107  0.000000  0.707107 /   0.064066 -0.630517  0.773527 ->  -0.0480044383
    7:   0.707107  0.707107  0.000000 /   0.789306  0.613999  0.000000 ->  -0.0587024539

 K-point ( 0.000, 0.000, 0.000) | band =    55
 Transport equivalent effective mass tensor:
             -3.3731357052             -0.0110503125              0.0200630524
             -0.0110503125             -3.3776840092              0.0246124968
              0.0200630524              0.0246124968             -3.4088146515
 Transport equivalent effective mass tensor eigenvalues:
             -3.4313784418             -3.3641279650             -3.3641279592
 Angular average effective mass 1/(<1/m>)=  -0.6428272680
 Angular average effective mass for Frohlich model (<m**0.5>)**2=  -0.7460358780
 Effective masses along directions: (cart. coord. / red. coord. -> eff. mass)
    1:   1.000000  0.000000  0.000000 /   0.980283 -0.197601  0.000000 ->  -0.5336558586
    2:   0.000000  1.000000  0.000000 /   0.000000  1.000000  0.000000 ->  -0.4674579909
    3:   0.000000  0.000000  1.000000 /  -0.484227 -0.484227  0.728730 ->  -0.6202210600
    4:   0.577350  0.577350  0.577350 /   0.082259 -0.082588  0.993183 ->  -2.6030577135
    5:   0.000000  0.707107  0.707107 /  -0.552567  0.056118  0.831577 ->  -0.6508056575
    6:   0.707107  0.000000  0.707107 /   0.064066 -0.630517  0.773527 ->  -0.5146017912
    7:   0.707107  0.707107  0.000000 /   0.789306  0.613999  0.000000 ->  -0.9577259682

 Angular average effective mass for Frohlich model, averaged over degenerate bands.
 Value of     (<<m**0.5>>)**2 =     3.224271E-01
 Absolute Value of <<m**0.5>> =     5.678267E-01

 K-point ( 0.000, 0.000, 0.000) | band =    56
 Effective mass tensor:
              0.0504574710              0.0079509087             -0.0144357448
              0.0079509087              0.0537300653             -0.0177091545
             -0.0144357448             -0.0177091545              0.0761291389
 Effective mass tensor eigenvalues:
              0.0439762306              0.0439762306              0.0923642141
 Angular average effective mass 1/(<1/m>)=   0.0532804622
 Angular average effective mass for Frohlich model (<m**0.5>)**2=   0.0549784083
 Effective masses along directions: (cart. coord. / red. coord. -> eff. mass)
    1:   1.000000  0.000000  0.000000 /   0.980283 -0.197601  0.000000 ->   0.0472949387
    2:   0.000000  1.000000  0.000000 /   0.000000  1.000000  0.000000 ->   0.0491685186
    3:   0.000000  0.000000  1.000000 /  -0.484227 -0.484227  0.728730 ->   0.0674595896
    4:   0.577350  0.577350  0.577350 /   0.082259 -0.082588  0.993183 ->   0.0439762309
    5:   0.000000  0.707107  0.707107 /  -0.552567  0.056118  0.831577 ->   0.0455770883
    6:   0.707107  0.000000  0.707107 /   0.064066 -0.630517  0.773527 ->   0.0464299960
    7:   0.707107  0.707107  0.000000 /   0.789306  0.613999  0.000000 ->   0.0532379461

 END OF EFFECTIVE MASSES SECTION

 ---- first-order wavefunction calculations are completed ----

 Total localisation tensor (bohr^2) in cartesian coordinates
  WARNING : still subject to testing - especially symmetries.
      direction              matrix element
   alpha     beta       real part   imaginary part
     1        1      12.1303949426    0.0000000000
     1        2      -2.3014831189    0.0000000000
     1        3      -8.2755370539    0.0000000000
     2        1      -2.3014831189    0.0000000000
     2        2      11.1831043982    0.0000000000
     2        3     -10.1520750214    0.0000000000
     3        1      -8.2755370539    0.0000000000
     3        2     -10.1520750214    0.0000000000
     3        3      56.6882168640    0.0000000000

 respfn : d/dk was computed, but no 2DTE, so no DDB output.

== END DATASET(S) ==============================================================

 -outvars: echo values of variables after computation  --------
            acell      1.0000000000E+00  1.0000000000E+00  1.0000000000E+00 Bohr
              amu      1.14820000E+02  2.00590000E+02  1.27600000E+02
        autoparal           1
             ecut      4.00000000E+01 Hartree
           etotal     -1.5728780729E+02
            fcart      0.0000000000E+00  0.0000000000E+00  0.0000000000E+00
                       0.0000000000E+00  0.0000000000E+00  0.0000000000E+00
                       0.0000000000E+00  0.0000000000E+00  0.0000000000E+00
                       0.0000000000E+00  0.0000000000E+00  0.0000000000E+00
                       0.0000000000E+00  0.0000000000E+00  0.0000000000E+00
                       0.0000000000E+00  0.0000000000E+00  0.0000000000E+00
                       0.0000000000E+00  0.0000000000E+00  0.0000000000E+00
-          fftalg         512
           irdden           1
           irdwfk           1
           istwfk        1
              ixc     -116133
           kptopt           0
P           mkmem           1
P          mkqmem           1
P          mk1mem           1
            natom           7
            nband          64
           nbdbuf           4
            ngfft          90      90      90
             nkpt           1
            nstep        2000
             nsym           4
           ntypat           3
              occ      2.000000  2.000000  2.000000  2.000000  2.000000  2.000000
                       2.000000  2.000000  2.000000  2.000000  2.000000  2.000000
                       2.000000  2.000000  2.000000  2.000000  2.000000  2.000000
                       2.000000  2.000000  2.000000  2.000000  2.000000  2.000000
                       2.000000  2.000000  2.000000  2.000000  2.000000  2.000000
                       2.000000  2.000000  2.000000  2.000000  2.000000  2.000000
                       2.000000  2.000000  2.000000  2.000000  2.000000  2.000000
                       2.000000  2.000000  2.000000  2.000000  2.000000  2.000000
                       2.000000  2.000000  2.000000  2.000000  2.000000  2.000000
                       2.000000  0.000000  0.000000  0.000000  0.000000  0.000000
                       0.000000  0.000000  0.000000  0.000000
        optdriver           1
            prtwf          -1
            rfdir           1       1       1
           rfelfd           2
            rprim      1.0749012322E+01  0.0000000000E+00 -9.5577013173E+00
                      -2.1667381487E+00  1.0528367000E+01 -9.5577013173E+00
                       0.0000000000E+00  0.0000000000E+00  1.4383703291E+01
          spgroup          82
           strten      0.0000000000E+00  0.0000000000E+00  0.0000000000E+00
                       0.0000000000E+00  0.0000000000E+00  0.0000000000E+00
           symrel      1  0  0   0  1  0   0  0  1       0  1  0   1  0  0  -1 -1 -1
                       0  0  1  -1 -1 -1   0  1  0      -1 -1 -1   0  0  1   1  0  0
           tolwfr      1.00000000E-20
            typat      1  1  2  3  3  3  3
           useylm           1
           xangst      5.6209174993E-01  4.1785288951E+00 -1.2519537253E+00
                       2.2707719451E+00  2.7856859301E+00 -5.0577177036E+00
                       0.0000000000E+00  0.0000000000E+00  0.0000000000E+00
                       3.4711497013E+00  7.8877393531E-01 -3.4901482963E+00
                      -1.9960541523E-01  3.2246167122E+00  3.8149262608E+00
                       3.8297746903E+00  5.1168760579E+00 -5.2022899920E+00
                       1.9817688042E+00  2.0124770149E+00 -1.3030287356E-01
            xcart      1.0621994689E+00  7.8962752501E+00 -2.3658496718E+00
                       4.2911370865E+00  5.2641835000E+00 -9.5577013173E+00
                       0.0000000000E+00  0.0000000000E+00  0.0000000000E+00
                       6.5595223016E+00  1.4905667185E+00 -6.5954244432E+00
                      -3.7719956943E-01  6.0936424695E+00  7.2091658500E+00
                       7.2372253153E+00  9.6694944053E+00 -9.8309033487E+00
                       3.7450002987E+00  3.8030304069E+00 -2.4623674536E-01
             xred      2.5000000000E-01  7.5000000000E-01  5.0000000000E-01
                       5.0000000000E-01  5.0000000000E-01  0.0000000000E+00
                       0.0000000000E+00  0.0000000000E+00  0.0000000000E+00
                       6.3878250000E-01  1.4157625000E-01  5.9999250000E-02
                       8.1577000000E-02  5.7878325000E-01  9.4000075000E-01
                       8.5842375000E-01  9.1842300000E-01  4.9720625000E-01
                       4.2121675000E-01  3.6121750000E-01  5.0279375000E-01
            znucl       49.00000   80.00000   52.00000

- Timing analysis has been suppressed with timopt=0

 Suggested references for the acknowledgment of ABINIT usage.

 Calculation completed.
.Delivered   6 WARNINGs and   5 COMMENTs to log file.