.Version 9.5.1 of ABINIT

 ABINIT is a project of the Universite Catholique de Louvain,
 Corning Inc. and other collaborators, see ~abinit/doc/developers/contributors.txt .
 acknowledgments of the ABINIT effort.

.Starting date : Tue 27 Apr 2021.
- ( at 18h42 )

- input  file    -> /scratch/users/j/a/jabreu/flow_simple_4atoms/flow/w233/t1/run.abi
- output file    -> /scratch/users/j/a/jabreu/flow_simple_4atoms/flow/w233/t1/run.abo
- root for input  files -> /scratch/users/j/a/jabreu/flow_simple_4atoms/flow/w233/t1/indata/in
- root for output files -> /scratch/users/j/a/jabreu/flow_simple_4atoms/flow/w233/t1/outdata/out

 Symmetries : space group R-3 m (#166); Bravais hR (rhombohedral)
     intxc =       0      iscf =       7    lmnmax =      18     lnmax =       6
     mgfft =      96  mpssoang =       3    mqgrid =    3001     natom =       4
  nloc_mem =       1    nspden =       1   nspinor =       1    nsppol =       1
      nsym =      12    n1xccc =    2501    ntypat =       3    occopt =       1
   xclevel =       2
-    mband =          35        mffmem =           1         mkmem =           2
-   mkqmem =           2        mk1mem =           2           mpw =       11184
      nfft =      884736          nkpt =           2
  Rough estimation (10% accuracy) of disk space for files :

------------- Echo of variables that govern the present computation ------------
-
- outvars: echo of selected default values
-   iomode0 =  0 , fftalg0 =512 , wfoptalg0 =  0
-
- outvars: echo of global parameters not present in the input file
-  max_nthreads =    0
-
 -outvars: echo values of preprocessed input variables --------
            acell      1.0000000000E+00  1.0000000000E+00  1.0000000000E+00 Bohr
              amu      3.90983000E+01  8.89058500E+01  1.27600000E+02
             ecut      4.00000000E+01 Hartree
-          fftalg         512
           irdden           1
           irdwfk           1
           istwfk        1    1
              ixc     -116133
              kpt      0.00000000E+00  0.00000000E+00  0.00000000E+00
                       5.00000000E-01  5.00000000E-01 -5.55111512E-17
           kptopt           0
P           mkmem           2
P          mkqmem           2
P          mk1mem           2
            natom           4
            nband          35
           nbdbuf           4
            ngfft          96      96      96
             nkpt           2
            nstep         100
             nsym          12
           ntypat           3
              occ      2.000000  2.000000  2.000000  2.000000  2.000000  2.000000
                       2.000000  2.000000  2.000000  2.000000  2.000000  2.000000
                       2.000000  2.000000  2.000000  2.000000  2.000000  2.000000
                       2.000000  2.000000  2.000000  2.000000  2.000000  2.000000
                       2.000000  2.000000  0.000000  0.000000  0.000000  0.000000
                       0.000000  0.000000  0.000000  0.000000  0.000000
        optdriver           1
            prtwf          -1
            rfdir           1       1       1
           rfelfd           2
            rprim      8.0652166299E+00  0.0000000000E+00  1.3877447311E+01
                       3.7397532360E+00  7.1457655308E+00  1.3877447311E+01
                       0.0000000000E+00  0.0000000000E+00  1.6050896023E+01
          spgroup         166
           symrel      1  0  0   0  1  0   0  0  1      -1  0  0   0 -1  0   0  0 -1
                       0  1  0   1  0  0   0  0  1       0 -1  0  -1  0  0   0  0 -1
                       0  0  1   1  0  0   0  1  0       0  0 -1  -1  0  0   0 -1  0
                       1  0  0   0  0  1   0  1  0      -1  0  0   0  0 -1   0 -1  0
                       0  1  0   0  0  1   1  0  0       0 -1  0   0  0 -1  -1  0  0
                       0  0  1   0  1  0   1  0  0       0  0 -1   0 -1  0  -1  0  0
           tolwfr      1.00000000E-20
            typat      1  2  3  3
           useylm           1
              wtk        0.50000    0.50000
           xangst      3.1234605006E+00  1.8906881284E+00  1.1590513007E+01
                       0.0000000000E+00  0.0000000000E+00  0.0000000000E+00
                       4.6029437889E+00  2.7862465928E+00  1.7080568121E+01
                       1.6439772122E+00  9.9512966400E-01  6.1004578918E+00
            xcart      5.9024849330E+00  3.5728827654E+00  2.1902895322E+01
                       0.0000000000E+00  0.0000000000E+00  0.0000000000E+00
                       8.6983031662E+00  5.2652429991E+00  3.2277595944E+01
                       3.1066666997E+00  1.8805225317E+00  1.1528194701E+01
             xred      5.0000000000E-01  5.0000000000E-01  5.0000000000E-01
                       0.0000000000E+00  0.0000000000E+00  0.0000000000E+00
                       7.3683400000E-01  7.3683400000E-01  7.3683400000E-01
                       2.6316600000E-01  2.6316600000E-01  2.6316600000E-01
            znucl       19.00000   39.00000   52.00000

 chkinp: Checking input parameters for consistency.

== DATASET  1 ==================================================================
-   mpi_nproc: 1, omp_nthreads: -1 (-1 if OMP is not activated)

--- !DatasetInfo
iteration_state: {dtset: 1, }
dimensions: {natom: 4, nkpt: 2, mband: 35, nsppol: 1, nspinor: 1, nspden: 1, mpw: 11184, }
cutoff_energies: {ecut:  40.0, pawecutdg:  -1.0, }
electrons: {nelect:   5.20000000E+01, charge:   0.00000000E+00, occopt:   1.00000000E+00, tsmear:   1.00000000E-02, }
meta: {optdriver: 1, rfelfd: 2, }
...

 Real(R)+Recip(G) space primitive vectors, cartesian coordinates (Bohr,Bohr^-1):
 R(1)=  8.0652166  0.0000000 13.8774473  G(1)=  0.1239892 -0.0648901  0.0000000
 R(2)=  3.7397532  7.1457655 13.8774473  G(2)=  0.0000000  0.1399430  0.0000000
 R(3)=  0.0000000  0.0000000 16.0508960  G(3)= -0.1071999 -0.0648901  0.0623018
 Unit cell volume ucvol=  9.2504760E+02 bohr^3
 Angles (23,13,12)=  3.01640563E+01  3.01640563E+01  3.01640563E+01 degrees

 getcut: wavevector=  0.0000  0.0000  0.0000  ngfft=  96  96  96
         ecut(hartree)=     40.000   => boxcut(ratio)=   2.10138

--- Pseudopotential description ------------------------------------------------
- pspini: atom type   1  psp file is /scratch/users/j/a/jabreu/pseudos/PBEsol/K.psp8
- pspatm: opening atomic psp file    /scratch/users/j/a/jabreu/pseudos/PBEsol/K.psp8
- K     ONCVPSP-3.3.0  r_core=   1.36296   1.46408   1.61068
- 19.00000   9.00000    180112                znucl, zion, pspdat
    8 -116133    2    4       400   0.00000   pspcod,pspxc,lmax,lloc,mmax,r2well
    3.99000000000000    5.00000000000000    0.00000000000000   rchrg,fchrg,qchrg
     nproj     2     2     2
     extension_switch     1
  pspatm : epsatm=    8.32487830
         --- l  ekb(1:nproj) -->
             0   10.921326    0.816676
             1    4.431000    0.560368
             2   -3.384038   -1.043186
 pspatm: atomic psp has been read  and splines computed

- pspini: atom type   2  psp file is /scratch/users/j/a/jabreu/pseudos/PBEsol/Y.psp8
- pspatm: opening atomic psp file    /scratch/users/j/a/jabreu/pseudos/PBEsol/Y.psp8
- Y     ONCVPSP-3.3.0  r_core=   1.60520   1.51226   1.56736
- 39.00000  11.00000    180112                znucl, zion, pspdat
    8 -116133    2    4       600   0.00000   pspcod,pspxc,lmax,lloc,mmax,r2well
    5.99000000000000    4.00000000000000    0.00000000000000   rchrg,fchrg,qchrg
     nproj     2     2     2
     extension_switch     1
  pspatm : epsatm=   18.54790046
         --- l  ekb(1:nproj) -->
             0   10.130768    0.866504
             1    5.598307    0.427135
             2    1.217602    0.315447
 pspatm: atomic psp has been read  and splines computed

- pspini: atom type   3  psp file is /scratch/users/j/a/jabreu/pseudos/PBEsol/Te.psp8
- pspatm: opening atomic psp file    /scratch/users/j/a/jabreu/pseudos/PBEsol/Te.psp8
- Te    ONCVPSP-3.3.0  r_core=   2.26547   1.91704   1.80604
- 52.00000  16.00000    180112                znucl, zion, pspdat
    8 -116133    2    4       600   0.00000   pspcod,pspxc,lmax,lloc,mmax,r2well
    5.99000000000000    5.00000000000000    0.00000000000000   rchrg,fchrg,qchrg
     nproj     2     2     2
     extension_switch     1
  pspatm : epsatm=   36.82679836
         --- l  ekb(1:nproj) -->
             0    6.345999    0.785432
             1    5.709019    1.070069
             2   -6.035173   -1.870937
 pspatm: atomic psp has been read  and splines computed

   5.22737152E+03                                ecore*ucvol(ha*bohr**3)

-inwffil : will read wavefunctions from disk file /scratch/users/j/a/jabreu/flow_simple_4atoms/flow/w233/t1/indata/in_WFK

 ==>  initialize data related to q vector <==

 The list of irreducible perturbations for this q vector is:
    1)    idir= 1    ipert=   5
    2)    idir= 2    ipert=   5
    3)    idir= 3    ipert=   5

 Perturbation wavevector (in red.coord.)   0.000000  0.000000  0.000000
 Perturbation : derivative vs k along direction   1

 dfpt_looppert : COMMENT -
  In a d/dk calculation, iscf is set to -3 automatically.
 The set of symmetries contains only one element for this perturbation.
 symkpt : not enough symmetry to change the number of k points.

[...]

 Initialisation of the first-order wave-functions :
  ireadwf=   0

--- !BeginCycle
iteration_state: {dtset: 1, }
solver: {iscf: 7, nstep: 100, nline: 4, wfoptalg: 0, }
tolerances: {tolwfr: 1.00E-20, }
...

     iter   2DEtotal(Ha)        deltaE(Ha) residm    vres2
-ETOT  1  -81.378173684017     -8.138E+01 8.860E-02 0.000E+00
 ETOT  2  -81.451863294280     -7.369E-02 3.720E-03 0.000E+00
 ETOT  3  -81.452587614866     -7.243E-04 6.120E-04 0.000E+00
 ETOT  4  -81.452610651467     -2.304E-05 2.998E-05 0.000E+00
 ETOT  5  -81.452611578984     -9.275E-07 5.840E-06 0.000E+00
 ETOT  6  -81.452611620158     -4.117E-08 3.722E-07 0.000E+00
 ETOT  7  -81.452611622057     -1.899E-09 6.320E-08 0.000E+00
 ETOT  8  -81.452611622148     -9.042E-11 4.719E-09 0.000E+00
 ETOT  9  -81.452611622152     -4.547E-12 7.515E-10 0.000E+00
 ETOT 10  -81.452611622153     -2.416E-13 6.187E-11 0.000E+00
 ETOT 11  -81.452611622152      4.263E-14 9.348E-12 0.000E+00
 ETOT 12  -81.452611622153     -4.263E-14 8.269E-13 0.000E+00
 ETOT 13  -81.452611622153     -1.421E-14 1.193E-13 0.000E+00
 ETOT 14  -81.452611622152      4.263E-14 1.121E-14 0.000E+00
 ETOT 15  -81.452611622152      0.000E+00 1.550E-15 0.000E+00
 ETOT 16  -81.452611622153     -2.842E-14 1.536E-16 0.000E+00
 ETOT 17  -81.452611622153      0.000E+00 2.044E-17 0.000E+00
 ETOT 18  -81.452611622153      0.000E+00 2.121E-18 0.000E+00
 ETOT 19  -81.452611622153     -1.421E-14 2.727E-19 0.000E+00
 ETOT 20  -81.452611622153      1.421E-14 2.945E-20 0.000E+00
 ETOT 21  -81.452611622153      0.000E+00 9.982E-21 0.000E+00

 At SCF step   21   max residual=  9.98E-21 < tolwfr=  1.00E-20 =>converged.

 ----iterations are completed or convergence reached----

 dfpt_looppert: DFPT cycle converged with prtwf=-1. Will skip output of the 1st-order WFK file.
 dfpt_looppert : ek2=    8.0407313529E+01
          f-sum rule ratio=    1.2070380060E+00
 prteigrs : about to open file /scratch/users/j/a/jabreu/flow_simple_4atoms/flow/w233/t1/tmpdata/tmp_1WF1_EIG
 Expectation of eigenvalue derivatives (hartree) for nkpt=   2  k points:
  (in case of degenerate eigenvalues, averaged derivative)
 kpt#   1, nband= 35, wtk=  0.50000, kpt=  0.0000  0.0000  0.0000 (reduced coord)
  -0.00000    0.00000    0.00000    0.00000    0.00000    0.00000    0.00000   -0.00000
  -0.00000   -0.00000   -0.00000    0.00000   -0.00000    0.00000    0.00000    0.00000
   0.00000    0.00000    0.00000    0.00000   -0.00000   -0.00000   -0.00000   -0.00000
   0.00000    0.00000   -0.00000   -0.00000    0.00000    0.00000   -0.00000   -0.00000
  -0.00000   -0.00000    0.00004
 prteigrs : prtvol=0 or 1, do not print more k-points.

 Eight components of 2nd-order total energy (hartree) are
 1,2,3: 0th-order hamiltonian combined with 1st-order wavefunctions
     kin0=   7.85201806E+01 eigvalue=   1.29599774E+01  local=  -4.24858757E+01
 4,5,6: 1st-order hamiltonian combined with 1st and 0th-order wfs
     kin1=  -9.70546834E+01  Hartree=   0.00000000E+00     xc=   0.00000000E+00
 7,8,9: eventually, occupation + non-local contributions
    edocc=   2.23861696E+01     enl0=   1.00721597E+01   enl1=  -6.58505399E+01
 1-9 gives the relaxation energy (to be shifted if some occ is /=2.0)
   erelax=  -8.14526116E+01
  No Ewald or frozen-wf contrib.: the relaxation energy is the total one
 2DEtotal=   -0.8145261162E+02 Ha. Also 2DEtotal=   -0.221643828125E+04 eV
    (  non-var. 2DEtotal :   -8.1452611622E+01 Ha)

 Perturbation wavevector (in red.coord.)   0.000000  0.000000  0.000000
 Perturbation : derivative vs k along direction   2
 The set of symmetries contains only one element for this perturbation.
 symkpt : not enough symmetry to change the number of k points.

[...]

 Perturbation wavevector (in red.coord.)   0.000000  0.000000  0.000000
 Perturbation : derivative vs k along direction   3
 The set of symmetries contains only one element for this perturbation.
 symkpt : not enough symmetry to change the number of k points.

-inwffil : will read wavefunctions from disk file /scratch/users/j/a/jabreu/flow_simple_4atoms/flow/w233/t1/indata/in_WFK

 Initialisation of the first-order wave-functions :
  ireadwf=   0

--- !BeginCycle
iteration_state: {dtset: 1, }
solver: {iscf: 7, nstep: 100, nline: 4, wfoptalg: 0, }
tolerances: {tolwfr: 1.00E-20, }
...

     iter   2DEtotal(Ha)        deltaE(Ha) residm    vres2
-ETOT  1  -77.658803875606     -7.766E+01 1.549E-01 0.000E+00
 ETOT  2  -77.730088482326     -7.128E-02 7.119E-03 0.000E+00
 ETOT  3  -77.730800304702     -7.118E-04 6.375E-04 0.000E+00
 ETOT  4  -77.730822385374     -2.208E-05 5.039E-05 0.000E+00
 ETOT  5  -77.730823269045     -8.837E-07 6.218E-06 0.000E+00
 ETOT  6  -77.730823308921     -3.988E-08 6.007E-07 0.000E+00
 ETOT  7  -77.730823310818     -1.898E-09 6.788E-08 0.000E+00
 ETOT  8  -77.730823310913     -9.463E-11 7.268E-09 0.000E+00
 ETOT  9  -77.730823310918     -4.889E-12 7.575E-10 0.000E+00
 ETOT 10  -77.730823310918     -2.700E-13 8.742E-11 0.000E+00
 ETOT 11  -77.730823310918     -4.263E-14 8.740E-12 0.000E+00
 ETOT 12  -77.730823310918      7.105E-14 1.062E-12 0.000E+00
 ETOT 13  -77.730823310918      0.000E+00 1.039E-13 0.000E+00
 ETOT 14  -77.730823310918     -7.105E-14 1.308E-14 0.000E+00
 ETOT 15  -77.730823310918      0.000E+00 1.256E-15 0.000E+00
 ETOT 16  -77.730823310918     -2.842E-14 1.626E-16 0.000E+00
 ETOT 17  -77.730823310918      1.421E-14 1.535E-17 0.000E+00
 ETOT 18  -77.730823310918      1.421E-14 2.033E-18 0.000E+00
 ETOT 19  -77.730823310918     -2.842E-14 1.887E-19 0.000E+00
 ETOT 20  -77.730823310918      1.421E-14 2.556E-20 0.000E+00
 ETOT 21  -77.730823310918      0.000E+00 9.931E-21 0.000E+00

 At SCF step   21   max residual=  9.93E-21 < tolwfr=  1.00E-20 =>converged.

 ----iterations are completed or convergence reached----

 dfpt_looppert: DFPT cycle converged with prtwf=-1. Will skip output of the 1st-order WFK file.
 dfpt_looppert : ek2=    8.0407313529E+01
          f-sum rule ratio=    1.1221231285E+00
 prteigrs : about to open file /scratch/users/j/a/jabreu/flow_simple_4atoms/flow/w233/t1/tmpdata/tmp_1WF1_EIG
 Expectation of eigenvalue derivatives (hartree) for nkpt=   2  k points:
  (in case of degenerate eigenvalues, averaged derivative)
 kpt#   1, nband= 35, wtk=  0.50000, kpt=  0.0000  0.0000  0.0000 (reduced coord)
   0.00000    0.00000    0.00000   -0.00000   -0.00000    0.00000    0.00000   -0.00000
  -0.00000    0.00000    0.00000    0.00000    0.00000   -0.00000   -0.00000   -0.00000
   0.00000    0.00000   -0.00000   -0.00000    0.00000    0.00000    0.00000   -0.00000
  -0.00000   -0.00000    0.00000    0.00000    0.00000   -0.00000    0.00000    0.00000
   0.00000    0.00000   -0.00006
 prteigrs : prtvol=0 or 1, do not print more k-points.

 Eight components of 2nd-order total energy (hartree) are
 1,2,3: 0th-order hamiltonian combined with 1st-order wavefunctions
     kin0=   7.80014854E+01 eigvalue=   1.30666214E+01  local=  -4.19994445E+01
 4,5,6: 1st-order hamiltonian combined with 1st and 0th-order wfs
     kin1=  -9.02269062E+01  Hartree=   0.00000000E+00     xc=   0.00000000E+00
 7,8,9: eventually, occupation + non-local contributions
    edocc=   1.86377523E+01     enl0=   1.00244087E+01   enl1=  -6.52347404E+01
 1-9 gives the relaxation energy (to be shifted if some occ is /=2.0)
   erelax=  -7.77308233E+01
  No Ewald or frozen-wf contrib.: the relaxation energy is the total one
 2DEtotal=   -0.7773082331E+02 Ha. Also 2DEtotal=   -0.211516327087E+04 eV
    (  non-var. 2DEtotal :   -7.7730823311E+01 Ha)

 CALCULATION OF EFFECTIVE MASSES
 NOTE : Additional infos (eff. mass eigenvalues, eigenvectors and, if degenerate, average mass) are available in stdout.

 COMMENTS:
 - At k-point ( 0.000, 0.000, 0.000), bands    25 through    26
   are DEGENERATE (effective mass tensor is therefore not defined).
   See Section IIIB Eqs. (67)-(70) and Appendix E of PRB 93 205147 (2016).
 - Angular average effective mass for Frohlich model is to be averaged over degenerate bands. See later.
 - Associated theta integrals calculated with ntheta=   1000 points.

 K-point ( 0.000, 0.000, 0.000) | band =    25
 Transport equivalent effective mass tensor:
             -0.2434505675             -0.0588866916             -0.3609910256
             -0.0588866916             -0.1818137780             -0.2185147707
             -0.3609910256             -0.2185147707             -1.4857169863
 Transport equivalent effective mass tensor eigenvalues:
             -1.6186447374             -0.1461685297             -0.1461680647
 Angular average effective mass 1/(<1/m>)=  -0.2067558023
 Angular average effective mass for Frohlich model (<m**0.5>)**2=  -0.2535650771
 Effective masses along directions: (cart. coord. / red. coord. -> eff. mass)
    1:   1.000000  0.000000  0.000000 /   0.907216  0.420666  0.000000 ->  -0.1530918894
    2:   0.000000  1.000000  0.000000 /   0.000000  1.000000  0.000000 ->  -0.1463881003
    3:   0.000000  0.000000  1.000000 /   0.547359  0.547359  0.633085 ->  -0.7830466259
    4:   0.577350  0.577350  0.577350 /   0.596692  0.673385  0.436476 ->  -0.3406267907
    5:   0.000000  0.707107  0.707107 /   0.464602  0.703834  0.537366 ->  -0.3178105467
    6:   0.707107  0.000000  0.707107 /   0.677334  0.543814  0.495465 ->  -0.4155010083
    7:   0.707107  0.707107  0.000000 /   0.595317  0.803491  0.000000 ->  -0.1576612902

 K-point ( 0.000, 0.000, 0.000) | band =    26
 Transport equivalent effective mass tensor:
             -0.6046263647             -0.0497608082             -0.3050492893
             -0.0497608082             -0.5525411178             -0.1846516316
             -0.3050492893             -0.1846516316             -1.6544088133
 Transport equivalent effective mass tensor eigenvalues:
             -1.7667345525             -0.5224216619             -0.5224200814
 Angular average effective mass 1/(<1/m>)=  -0.6469626037
 Angular average effective mass for Frohlich model (<m**0.5>)**2=  -0.6968587761
 Effective masses along directions: (cart. coord. / red. coord. -> eff. mass)
    1:   1.000000  0.000000  0.000000 /   0.907216  0.420666  0.000000 ->  -0.5237164790
    2:   0.000000  1.000000  0.000000 /   0.000000  1.000000  0.000000 ->  -0.5173843071
    3:   0.000000  0.000000  1.000000 /   0.547359  0.547359  0.633085 ->  -1.5050028572
    4:   0.577350  0.577350  0.577350 /   0.596692  0.673385  0.436476 ->  -0.8198607479
    5:   0.000000  0.707107  0.707107 /   0.464602  0.703834  0.537366 ->  -0.9408396742
    6:   0.707107  0.000000  0.707107 /   0.677334  0.543814  0.495465 ->  -1.1161328166
    7:   0.707107  0.707107  0.000000 /   0.595317  0.803491  0.000000 ->  -0.5123255717

 Angular average effective mass for Frohlich model, averaged over degenerate bands.
 Value of     (<<m**0.5>>)**2 =     4.477839E-01
 Absolute Value of <<m**0.5>> =     6.691666E-01

 K-point ( 0.500, 0.500,-0.000) | band =    27
 Effective mass tensor:
              0.8986229992              0.3962376604             -0.7724650458
              0.3962376604              0.4838791757             -0.4675873192
             -0.7724650458             -0.4675873192              1.7250059348
 Effective mass tensor eigenvalues:
              0.2440292261              0.4823473289              2.3811315547
 Angular average effective mass 1/(<1/m>)=   0.4551638521
 Angular average effective mass for Frohlich model (<m**0.5>)**2=   0.5506596151
 Effective masses along directions: (cart. coord. / red. coord. -> eff. mass)
    1:   1.000000  0.000000  0.000000 /   0.907216  0.420666  0.000000 ->   0.4549509040
    2:   0.000000  1.000000  0.000000 /   0.000000  1.000000  0.000000 ->   0.2939661457
    3:   0.000000  0.000000  1.000000 /   0.547359  0.547359  0.633085 ->   1.0088359556
    4:   0.577350  0.577350  0.577350 /   0.596692  0.673385  0.436476 ->   0.4650876600
    5:   0.000000  0.707107  0.707107 /   0.464602  0.703834  0.537366 ->   0.3840815011
    6:   0.707107  0.000000  0.707107 /   0.677334  0.543814  0.495465 ->   0.4410712463
    7:   0.707107  0.707107  0.000000 /   0.595317  0.803491  0.000000 ->   0.6060997276

 END OF EFFECTIVE MASSES SECTION

 ---- first-order wavefunction calculations are completed ----

 Total localisation tensor (bohr^2) in cartesian coordinates
  WARNING : still subject to testing - especially symmetries.
      direction              matrix element
   alpha     beta       real part   imaginary part
     1        1       3.4191705862    0.0000000000
     1        2       1.1561159976    0.0000000000
     1        3       7.0873547172    0.0000000000
     2        1       1.1561159976    0.0000000000
     2        2       2.2090585459    0.0000000000
     2        3       4.2901062797    0.0000000000
     3        1       7.0873547172    0.0000000000
     3        2       4.2901062797    0.0000000000
     3        3      25.7018538846    0.0000000000

 respfn : d/dk was computed, but no 2DTE, so no DDB output.

== END DATASET(S) ==============================================================

 -outvars: echo values of variables after computation  --------
            acell      1.0000000000E+00  1.0000000000E+00  1.0000000000E+00 Bohr
              amu      3.90983000E+01  8.89058500E+01  1.27600000E+02
             ecut      4.00000000E+01 Hartree
           etotal     -7.7730823311E+01
            fcart      0.0000000000E+00  0.0000000000E+00  0.0000000000E+00
                       0.0000000000E+00  0.0000000000E+00  0.0000000000E+00
                       0.0000000000E+00  0.0000000000E+00  0.0000000000E+00
                       0.0000000000E+00  0.0000000000E+00  0.0000000000E+00
-          fftalg         512
           irdden           1
           irdwfk           1
           istwfk        1    1
              ixc     -116133
              kpt      0.00000000E+00  0.00000000E+00  0.00000000E+00
                       5.00000000E-01  5.00000000E-01 -5.55111512E-17
           kptopt           0
P           mkmem           2
P          mkqmem           2
P          mk1mem           2
            natom           4
            nband          35
           nbdbuf           4
            ngfft          96      96      96
             nkpt           2
            nstep         100
             nsym          12
           ntypat           3
              occ      2.000000  2.000000  2.000000  2.000000  2.000000  2.000000
                       2.000000  2.000000  2.000000  2.000000  2.000000  2.000000
                       2.000000  2.000000  2.000000  2.000000  2.000000  2.000000
                       2.000000  2.000000  2.000000  2.000000  2.000000  2.000000
                       2.000000  2.000000  0.000000  0.000000  0.000000  0.000000
                       0.000000  0.000000  0.000000  0.000000  0.000000
        optdriver           1
            prtwf          -1
            rfdir           1       1       1
           rfelfd           2
            rprim      8.0652166299E+00  0.0000000000E+00  1.3877447311E+01
                       3.7397532360E+00  7.1457655308E+00  1.3877447311E+01
                       0.0000000000E+00  0.0000000000E+00  1.6050896023E+01
          spgroup         166
           strten      0.0000000000E+00  0.0000000000E+00  0.0000000000E+00
                       0.0000000000E+00  0.0000000000E+00  0.0000000000E+00
           symrel      1  0  0   0  1  0   0  0  1      -1  0  0   0 -1  0   0  0 -1
                       0  1  0   1  0  0   0  0  1       0 -1  0  -1  0  0   0  0 -1
                       0  0  1   1  0  0   0  1  0       0  0 -1  -1  0  0   0 -1  0
                       1  0  0   0  0  1   0  1  0      -1  0  0   0  0 -1   0 -1  0
                       0  1  0   0  0  1   1  0  0       0 -1  0   0  0 -1  -1  0  0
                       0  0  1   0  1  0   1  0  0       0  0 -1   0 -1  0  -1  0  0
           tolwfr      1.00000000E-20
            typat      1  2  3  3
           useylm           1
              wtk        0.50000    0.50000
           xangst      3.1234605006E+00  1.8906881284E+00  1.1590513007E+01
                       0.0000000000E+00  0.0000000000E+00  0.0000000000E+00
                       4.6029437889E+00  2.7862465928E+00  1.7080568121E+01
                       1.6439772122E+00  9.9512966400E-01  6.1004578918E+00
            xcart      5.9024849330E+00  3.5728827654E+00  2.1902895322E+01
                       0.0000000000E+00  0.0000000000E+00  0.0000000000E+00
                       8.6983031662E+00  5.2652429991E+00  3.2277595944E+01
                       3.1066666997E+00  1.8805225317E+00  1.1528194701E+01
             xred      5.0000000000E-01  5.0000000000E-01  5.0000000000E-01
                       0.0000000000E+00  0.0000000000E+00  0.0000000000E+00
                       7.3683400000E-01  7.3683400000E-01  7.3683400000E-01
                       2.6316600000E-01  2.6316600000E-01  2.6316600000E-01
            znucl       19.00000   39.00000   52.00000

- Timing analysis has been suppressed with timopt=0

 Suggested references for the acknowledgment of ABINIT usage.

 Calculation completed.
.Delivered  14 WARNINGs and   9 COMMENTs to log file.