.Version 9.5.1 of ABINIT

 ABINIT is a project of the Universite Catholique de Louvain,
 Corning Inc. and other collaborators, see ~abinit/doc/developers/contributors.txt .
 acknowledgments of the ABINIT effort.

.Starting date : Sun 25 Apr 2021.
- ( at 17h26 )

- input  file    -> /scratch/users/j/a/jabreu/flow_simple2/flow/w234/t1/run.abi
- output file    -> /scratch/users/j/a/jabreu/flow_simple2/flow/w234/t1/run.abo
- root for input  files -> /scratch/users/j/a/jabreu/flow_simple2/flow/w234/t1/indata/in
- root for output files -> /scratch/users/j/a/jabreu/flow_simple2/flow/w234/t1/outdata/out

 Symmetries : space group F-4 3 m (#216); Bravais cF (face-center cubic)
     intxc =       0      iscf =       7    lmnmax =      18     lnmax =       6
     mgfft =      36  mpssoang =       3    mqgrid =    3001     natom =       2
  nloc_mem =       1    nspden =       1   nspinor =       1    nsppol =       1
      nsym =      24    n1xccc =    2501    ntypat =       2    occopt =       1
   xclevel =       2
-    mband =          13        mffmem =           1         mkmem =           2
-   mkqmem =           2        mk1mem =           2           mpw =        1841
      nfft =       46656          nkpt =           2
  Rough estimation (10% accuracy) of disk space for files :

------------- Echo of variables that govern the present computation ------------
-
- outvars: echo of selected default values
-   iomode0 =  0 , fftalg0 =512 , wfoptalg0 =  0
-
- outvars: echo of global parameters not present in the input file
-  max_nthreads =    0
-
 -outvars: echo values of preprocessed input variables --------
            acell      1.0000000000E+00  1.0000000000E+00  1.0000000000E+00 Bohr
              amu      2.69815390E+01  1.40067400E+01
             ecut      4.20000000E+01 Hartree
-          fftalg         512
           irdden           1
           irdwfk           1
           istwfk        0    1
              ixc     -116133
              kpt      2.41935484E-02  2.41935484E-02  4.83870968E-02
                       5.00000000E-01 -1.23259516E-32  5.00000000E-01
           kptopt           0
P           mkmem           2
P          mkqmem           2
P          mk1mem           2
            natom           2
            nband          13
           nbdbuf           4
            ngfft          36      36      36
             nkpt           2
            nstep         100
             nsym          24
           ntypat           2
              occ      2.000000  2.000000  2.000000  2.000000  0.000000  0.000000
                       0.000000  0.000000  0.000000  0.000000  0.000000  0.000000
                       0.000000
        optdriver           1
            prtwf          -1
            rfdir           1       1       1
           rfelfd           2
            rprim      5.0650291465E+00  0.0000000000E+00  2.9242959412E+00
                       1.6883430488E+00  4.7753552752E+00  2.9242959412E+00
                       0.0000000000E+00  0.0000000000E+00  5.8485918823E+00
          spgroup         216
           symrel      1  0  0   0  1  0   0  0  1       0 -1  1   0 -1  0   1 -1  0
                      -1  0  0  -1  0  1  -1  1  0       0  1 -1   1  0 -1   0  0 -1
                      -1  0  0  -1  1  0  -1  0  1       0 -1  1   1 -1  0   0 -1  0
                       1  0  0   0  0  1   0  1  0       0  1 -1   0  0 -1   1  0 -1
                      -1  0  1  -1  1  0  -1  0  0       0 -1  0   1 -1  0   0 -1  1
                       1  0 -1   0  0 -1   0  1 -1       0  1  0   0  0  1   1  0  0
                       1  0 -1   0  1 -1   0  0 -1       0 -1  0   0 -1  1   1 -1  0
                      -1  0  1  -1  0  0  -1  1  0       0  1  0   1  0  0   0  0  1
                       0  0 -1   0  1 -1   1  0 -1       1 -1  0   0 -1  1   0 -1  0
                       0  0  1   1  0  0   0  1  0      -1  1  0  -1  0  0  -1  0  1
                       0  0  1   0  1  0   1  0  0       1 -1  0   0 -1  0   0 -1  1
                       0  0 -1   1  0 -1   0  1 -1      -1  1  0  -1  0  1  -1  0  0
           tolwfr      1.00000000E-20
            typat      1  2
           useylm           1
              wtk        0.50000    0.50000
           xangst      0.0000000000E+00  0.0000000000E+00  0.0000000000E+00
                       2.6802979852E+00  1.8952568809E+00  4.6424122897E+00
            xcart      0.0000000000E+00  0.0000000000E+00  0.0000000000E+00
                       5.0650291465E+00  3.5815164564E+00  8.7728878235E+00
             xred      0.0000000000E+00  0.0000000000E+00  0.0000000000E+00
                       7.5000000000E-01  7.5000000000E-01  7.5000000000E-01
            znucl       13.00000    7.00000

 chkinp: Checking input parameters for consistency.

== DATASET  1 ==================================================================
-   mpi_nproc: 1, omp_nthreads: -1 (-1 if OMP is not activated)

--- !DatasetInfo
iteration_state: {dtset: 1, }
dimensions: {natom: 2, nkpt: 2, mband: 13, nsppol: 1, nspinor: 1, nspden: 1, mpw: 1841, }
cutoff_energies: {ecut:  42.0, pawecutdg:  -1.0, }
electrons: {nelect:   8.00000000E+00, charge:   0.00000000E+00, occopt:   1.00000000E+00, tsmear:   1.00000000E-02, }
meta: {optdriver: 1, rfelfd: 2, }
...

 Real(R)+Recip(G) space primitive vectors, cartesian coordinates (Bohr,Bohr^-1):
 R(1)=  5.0650291  0.0000000  2.9242959  G(1)=  0.1974322 -0.0698028  0.0000000
 R(2)=  1.6883430  4.7753553  2.9242959  G(2)=  0.0000000  0.2094085  0.0000000
 R(3)=  0.0000000  0.0000000  5.8485919  G(3)= -0.0987161 -0.0698028  0.1709813
 Unit cell volume ucvol=  1.4146173E+02 bohr^3
 Angles (23,13,12)=  6.00000000E+01  6.00000000E+01  6.00000000E+01 degrees

 getcut: wavevector=  0.0000  0.0000  0.0000  ngfft=  36  36  36
         ecut(hartree)=     42.000   => boxcut(ratio)=   2.10990

--- Pseudopotential description ------------------------------------------------
- pspini: atom type   1  psp file is /scratch/users/j/a/jabreu/pseudos/PBEsol/Al.psp8
- pspatm: opening atomic psp file    /scratch/users/j/a/jabreu/pseudos/PBEsol/Al.psp8
- Al    ONCVPSP-3.3.0  r_core=   1.76802   1.76802   1.70587
- 13.00000   3.00000    180112                znucl, zion, pspdat
    8 -116133    2    4       600   0.00000   pspcod,pspxc,lmax,lloc,mmax,r2well
    5.99000000000000    5.00000000000000    0.00000000000000   rchrg,fchrg,qchrg
     nproj     2     2     2
     extension_switch     1
  pspatm : epsatm=    0.68509324
         --- l  ekb(1:nproj) -->
             0    5.834965    0.726662
             1    6.225605    0.924840
             2   -2.432733   -0.548689
 pspatm: atomic psp has been read  and splines computed

- pspini: atom type   2  psp file is /scratch/users/j/a/jabreu/pseudos/PBEsol/N.psp8
- pspatm: opening atomic psp file    /scratch/users/j/a/jabreu/pseudos/PBEsol/N.psp8
- N     ONCVPSP-3.3.0  r_core=   1.20551   1.35824
-  7.00000   5.00000    180112                znucl, zion, pspdat
    8 -116133    1    4       600   0.00000   pspcod,pspxc,lmax,lloc,mmax,r2well
    5.99000000000000    4.00000000000000    0.00000000000000   rchrg,fchrg,qchrg
     nproj     2     2
     extension_switch     1
  pspatm : epsatm=    5.26508895
         --- l  ekb(1:nproj) -->
             0    7.464189    0.625868
             1   -4.309714   -1.012941
 pspatm: atomic psp has been read  and splines computed

   4.76014575E+01                                ecore*ucvol(ha*bohr**3)

-inwffil : will read wavefunctions from disk file /scratch/users/j/a/jabreu/flow_simple2/flow/w234/t1/indata/in_WFK

 ==>  initialize data related to q vector <==

 The list of irreducible perturbations for this q vector is:
    1)    idir= 1    ipert=   3
    2)    idir= 2    ipert=   3
    3)    idir= 3    ipert=   3

 Perturbation wavevector (in red.coord.)   0.000000  0.000000  0.000000
 Perturbation : derivative vs k along direction   1

 dfpt_looppert : COMMENT -
  In a d/dk calculation, iscf is set to -3 automatically.
 The set of symmetries contains only one element for this perturbation.
 symkpt : not enough symmetry to change the number of k points.

[...]

 Initialisation of the first-order wave-functions :
  ireadwf=   0

--- !BeginCycle
iteration_state: {dtset: 1, }
solver: {iscf: 7, nstep: 100, nline: 4, wfoptalg: 0, }
tolerances: {tolwfr: 1.00E-20, }
...

     iter   2DEtotal(Ha)        deltaE(Ha) residm    vres2
-ETOT  1  -22.754047782349     -2.275E+01 5.714E-02 0.000E+00
 ETOT  2  -22.756461020875     -2.413E-03 5.216E-04 0.000E+00
 ETOT  3  -22.756461307967     -2.871E-07 2.067E-06 0.000E+00
 ETOT  4  -22.756461308209     -2.420E-10 4.583E-08 0.000E+00
 ETOT  5  -22.756461308209     -2.132E-14 2.253E-10 0.000E+00
 ETOT  6  -22.756461308209      0.000E+00 8.307E-12 0.000E+00
 ETOT  7  -22.756461308209      0.000E+00 4.374E-14 0.000E+00
 ETOT  8  -22.756461308209      0.000E+00 1.817E-15 0.000E+00
 ETOT  9  -22.756461308209     -3.553E-15 9.601E-18 0.000E+00
 ETOT 10  -22.756461308209      7.105E-15 4.054E-19 0.000E+00
 ETOT 11  -22.756461308209     -7.105E-15 9.965E-21 0.000E+00

 At SCF step   11   max residual=  9.97E-21 < tolwfr=  1.00E-20 =>converged.

 ----iterations are completed or convergence reached----

 dfpt_looppert: DFPT cycle converged with prtwf=-1. Will skip output of the 1st-order WFK file.
 dfpt_looppert : ek2=    2.7699271310E+01
          f-sum rule ratio=    1.7620737366E+00
 prteigrs : about to open file /scratch/users/j/a/jabreu/flow_simple2/flow/w234/t1/tmpdata/tmp_1WF1_EIG
 Expectation of eigenvalue derivatives (hartree) for nkpt=   2  k points:
  (in case of degenerate eigenvalues, averaged derivative)
 kpt#   1, nband= 13, wtk=  0.50000, kpt=  0.0242  0.0242  0.0484 (reduced coord)
  -0.00000    0.00000   -0.00000   -0.00000    0.00000   -0.00000   -0.00000    0.00000
   0.00000   -0.00000    0.00000    0.00000   -0.00001
 prteigrs : prtvol=0 or 1, do not print more k-points.

 Eight components of 2nd-order total energy (hartree) are
 1,2,3: 0th-order hamiltonian combined with 1st-order wavefunctions
     kin0=   6.65159478E+00 eigvalue=  -2.11758972E-01  local=  -1.96416631E+00
 4,5,6: 1st-order hamiltonian combined with 1st and 0th-order wfs
     kin1=  -4.88081585E+01  Hartree=   0.00000000E+00     xc=   0.00000000E+00
 7,8,9: eventually, occupation + non-local contributions
    edocc=   1.85009801E+01     enl0=  -2.20188296E-01   enl1=   3.29523588E+00
 1-9 gives the relaxation energy (to be shifted if some occ is /=2.0)
   erelax=  -2.27564613E+01
  No Ewald or frozen-wf contrib.: the relaxation energy is the total one
 2DEtotal=   -0.2275646131E+02 Ha. Also 2DEtotal=   -0.619234803953E+03 eV
    (  non-var. 2DEtotal :   -2.2756461308E+01 Ha)

 Perturbation wavevector (in red.coord.)   0.000000  0.000000  0.000000
 Perturbation : derivative vs k along direction   2
 The set of symmetries contains only one element for this perturbation.
 symkpt : not enough symmetry to change the number of k points.

[...]

 Perturbation wavevector (in red.coord.)   0.000000  0.000000  0.000000
 Perturbation : derivative vs k along direction   3
 The set of symmetries contains only one element for this perturbation.
 symkpt : not enough symmetry to change the number of k points.

-inwffil : will read wavefunctions from disk file /scratch/users/j/a/jabreu/flow_simple2/flow/w234/t1/indata/in_WFK

 Initialisation of the first-order wave-functions :
  ireadwf=   0

--- !BeginCycle
iteration_state: {dtset: 1, }
solver: {iscf: 7, nstep: 100, nline: 4, wfoptalg: 0, }
tolerances: {tolwfr: 1.00E-20, }
...

     iter   2DEtotal(Ha)        deltaE(Ha) residm    vres2
-ETOT  1  -22.112459132404     -2.211E+01 5.709E-02 0.000E+00
 ETOT  2  -22.114996626551     -2.537E-03 1.129E-05 0.000E+00
 ETOT  3  -22.114996911584     -2.850E-07 2.911E-08 0.000E+00
 ETOT  4  -22.114996911792     -2.079E-10 2.170E-11 0.000E+00
 ETOT  5  -22.114996911792     -3.553E-14 8.481E-14 0.000E+00
 ETOT  6  -22.114996911792     -2.132E-14 7.958E-17 0.000E+00
 ETOT  7  -22.114996911792      0.000E+00 3.351E-19 0.000E+00
 ETOT  8  -22.114996911792      3.553E-15 9.901E-21 0.000E+00

 At SCF step    8   max residual=  9.90E-21 < tolwfr=  1.00E-20 =>converged.

 ----iterations are completed or convergence reached----

 dfpt_looppert: DFPT cycle converged with prtwf=-1. Will skip output of the 1st-order WFK file.
 dfpt_looppert : ek2=    2.7699271311E+01
          f-sum rule ratio=    1.7017441223E+00
 prteigrs : about to open file /scratch/users/j/a/jabreu/flow_simple2/flow/w234/t1/tmpdata/tmp_1WF1_EIG
 Expectation of eigenvalue derivatives (hartree) for nkpt=   2  k points:
  (in case of degenerate eigenvalues, averaged derivative)
 kpt#   1, nband= 13, wtk=  0.50000, kpt=  0.0242  0.0242  0.0484 (reduced coord)
   0.03514   -0.20441   -0.03936   -0.00005    0.18168   -0.10389    0.03401    0.04492
  -0.62238   -0.31439    0.07295    0.12793    0.73497
 prteigrs : prtvol=0 or 1, do not print more k-points.

 Eight components of 2nd-order total energy (hartree) are
 1,2,3: 0th-order hamiltonian combined with 1st-order wavefunctions
     kin0=   6.68223561E+00 eigvalue=  -2.15110881E-01  local=  -1.97182493E+00
 4,5,6: 1st-order hamiltonian combined with 1st and 0th-order wfs
     kin1=  -4.71370721E+01  Hartree=   0.00000000E+00     xc=   0.00000000E+00
 7,8,9: eventually, occupation + non-local contributions
    edocc=   1.78418646E+01     enl0=  -2.22167486E-01   enl1=   2.90707832E+00
 1-9 gives the relaxation energy (to be shifted if some occ is /=2.0)
   erelax=  -2.21149969E+01
  No Ewald or frozen-wf contrib.: the relaxation energy is the total one
 2DEtotal=   -0.2211499691E+02 Ha. Also 2DEtotal=   -0.601779670029E+03 eV
    (  non-var. 2DEtotal :   -2.2114996912E+01 Ha)

 CALCULATION OF EFFECTIVE MASSES
 NOTE : Additional infos (eff. mass eigenvalues, eigenvectors and, if degenerate, average mass) are available in stdout.

 K-point ( 0.024, 0.024, 0.048) | band =     4
 Effective mass tensor:
             -1.1053040518             -0.4741944015              0.0000013141
             -0.4741944015             -0.7699979977             -0.0000025330
              0.0000013141             -0.0000025330           -113.7213898171
 Effective mass tensor eigenvalues:
           -113.7213898171             -1.4406101362             -0.4346919132
 Angular average effective mass 1/(<1/m>)=  -0.9988600913
 Angular average effective mass for Frohlich model (<m**0.5>)**2=  -1.6828076482
 Effective masses along directions: (cart. coord. / red. coord. -> eff. mass)
    1:   1.000000  0.000000  0.000000 /   0.948683  0.316228  0.000000 ->  -0.8132768893
    2:   0.000000  1.000000  0.000000 /   0.000000  1.000000  0.000000 ->  -0.5665604639
    3:   0.000000  0.000000  1.000000 /   0.408248  0.408248  0.816497 -> **************
    4:   0.577350  0.577350  0.577350 /   0.585539  0.688047  0.428644 ->  -2.0148270321
    5:   0.000000  0.707107  0.707107 /   0.289489  0.762222  0.578977 ->  -1.1275037604
    6:   0.707107  0.000000  0.707107 /   0.731423  0.422287  0.535439 ->  -1.6150040188
    7:   0.707107  0.707107  0.000000 /   0.616798  0.787122  0.000000 ->  -1.3511978141

 K-point ( 0.500,-0.000, 0.500) | band =     5
 Effective mass tensor:
              0.3516541119             -0.0480538689              0.0588539319
             -0.0480538689              0.3856335953             -0.0832317969
              0.0588539319             -0.0832317969              0.4196126857
 Effective mass tensor eigenvalues:
              0.3176747497              0.3176751279              0.5215505154
 Angular average effective mass 1/(<1/m>)=   0.3652699601
 Angular average effective mass for Frohlich model (<m**0.5>)**2=   0.3707294956
 Effective masses along directions: (cart. coord. / red. coord. -> eff. mass)
    1:   1.000000  0.000000  0.000000 /   0.948683  0.316228  0.000000 ->   0.3398138733
    2:   0.000000  1.000000  0.000000 /   0.000000  1.000000  0.000000 ->   0.3652701289
    3:   0.000000  0.000000  1.000000 /   0.408248  0.408248  0.816497 ->   0.3948486193
    4:   0.577350  0.577350  0.577350 /   0.585539  0.688047  0.428644 ->   0.3301259771
    5:   0.000000  0.707107  0.707107 /   0.289489  0.762222  0.578977 ->   0.3187238898
    6:   0.707107  0.000000  0.707107 /   0.731423  0.422287  0.535439 ->   0.4197302814
    7:   0.707107  0.707107  0.000000 /   0.616798  0.787122  0.000000 ->   0.3194604990

 END OF EFFECTIVE MASSES SECTION

 ---- first-order wavefunction calculations are completed ----

 Total localisation tensor (bohr^2) in cartesian coordinates
  WARNING : still subject to testing - especially symmetries.
      direction              matrix element
   alpha     beta       real part   imaginary part
     1        1       3.3075760355    0.0000000000
     1        2       0.9355194508    0.0000000000
     1        3       2.2915541310    0.0000000000
     2        1       0.9355194508    0.0000000000
     2        2       2.6460485905    0.0000000000
     2        3       1.6203672203    0.0000000000
     3        1       2.2915541310    0.0000000000
     3        2       1.6203672203    0.0000000000
     3        3       5.7077267458    0.0000000000

 respfn : d/dk was computed, but no 2DTE, so no DDB output.

== END DATASET(S) ==============================================================

 -outvars: echo values of variables after computation  --------
            acell      1.0000000000E+00  1.0000000000E+00  1.0000000000E+00 Bohr
              amu      2.69815390E+01  1.40067400E+01
             ecut      4.20000000E+01 Hartree
           etotal     -2.2114996912E+01
            fcart      0.0000000000E+00  0.0000000000E+00  0.0000000000E+00
                       0.0000000000E+00  0.0000000000E+00  0.0000000000E+00
-          fftalg         512
           irdden           1
           irdwfk           1
           istwfk        0    1
              ixc     -116133
              kpt      2.41935484E-02  2.41935484E-02  4.83870968E-02
                       5.00000000E-01 -1.23259516E-32  5.00000000E-01
           kptopt           0
P           mkmem           2
P          mkqmem           2
P          mk1mem           2
            natom           2
            nband          13
           nbdbuf           4
            ngfft          36      36      36
             nkpt           2
            nstep         100
             nsym          24
           ntypat           2
              occ      2.000000  2.000000  2.000000  2.000000  0.000000  0.000000
                       0.000000  0.000000  0.000000  0.000000  0.000000  0.000000
                       0.000000
        optdriver           1
            prtwf          -1
            rfdir           1       1       1
           rfelfd           2
            rprim      5.0650291465E+00  0.0000000000E+00  2.9242959412E+00
                       1.6883430488E+00  4.7753552752E+00  2.9242959412E+00
                       0.0000000000E+00  0.0000000000E+00  5.8485918823E+00
          spgroup         216
           strten      0.0000000000E+00  0.0000000000E+00  0.0000000000E+00
                       0.0000000000E+00  0.0000000000E+00  0.0000000000E+00
           symrel      1  0  0   0  1  0   0  0  1       0 -1  1   0 -1  0   1 -1  0
                      -1  0  0  -1  0  1  -1  1  0       0  1 -1   1  0 -1   0  0 -1
                      -1  0  0  -1  1  0  -1  0  1       0 -1  1   1 -1  0   0 -1  0
                       1  0  0   0  0  1   0  1  0       0  1 -1   0  0 -1   1  0 -1
                      -1  0  1  -1  1  0  -1  0  0       0 -1  0   1 -1  0   0 -1  1
                       1  0 -1   0  0 -1   0  1 -1       0  1  0   0  0  1   1  0  0
                       1  0 -1   0  1 -1   0  0 -1       0 -1  0   0 -1  1   1 -1  0
                      -1  0  1  -1  0  0  -1  1  0       0  1  0   1  0  0   0  0  1
                       0  0 -1   0  1 -1   1  0 -1       1 -1  0   0 -1  1   0 -1  0
                       0  0  1   1  0  0   0  1  0      -1  1  0  -1  0  0  -1  0  1
                       0  0  1   0  1  0   1  0  0       1 -1  0   0 -1  0   0 -1  1
                       0  0 -1   1  0 -1   0  1 -1      -1  1  0  -1  0  1  -1  0  0
           tolwfr      1.00000000E-20
            typat      1  2
           useylm           1
              wtk        0.50000    0.50000
           xangst      0.0000000000E+00  0.0000000000E+00  0.0000000000E+00
                       2.6802979852E+00  1.8952568809E+00  4.6424122897E+00
            xcart      0.0000000000E+00  0.0000000000E+00  0.0000000000E+00
                       5.0650291465E+00  3.5815164564E+00  8.7728878235E+00
             xred      0.0000000000E+00  0.0000000000E+00  0.0000000000E+00
                       7.5000000000E-01  7.5000000000E-01  7.5000000000E-01
            znucl       13.00000    7.00000

- Timing analysis has been suppressed with timopt=0

 Suggested references for the acknowledgment of ABINIT usage.

 Calculation completed.
.Delivered  14 WARNINGs and   9 COMMENTs to log file.