.Version 9.5.1 of ABINIT

 ABINIT is a project of the Universite Catholique de Louvain,
 Corning Inc. and other collaborators, see ~abinit/doc/developers/contributors.txt .
 acknowledgments of the ABINIT effort.

.Starting date : Tue 27 Apr 2021.
- ( at 18h44 )

- input  file    -> /scratch/users/j/a/jabreu/flow_simple_4atoms/flow/w246/t1/run.abi
- output file    -> /scratch/users/j/a/jabreu/flow_simple_4atoms/flow/w246/t1/run.abo
- root for input  files -> /scratch/users/j/a/jabreu/flow_simple_4atoms/flow/w246/t1/indata/in
- root for output files -> /scratch/users/j/a/jabreu/flow_simple_4atoms/flow/w246/t1/outdata/out

 Symmetries : space group P6_3 m c (#186); Bravais hP (primitive hexag.)
     intxc =       0      iscf =       7    lmnmax =      18     lnmax =       6
     mgfft =      80  mpssoang =       3    mqgrid =    3786     natom =       4
  nloc_mem =       1    nspden =       1   nspinor =       1    nsppol =       1
      nsym =      12    n1xccc =    2501    ntypat =       2    occopt =       1
   xclevel =       2
-    mband =          35        mffmem =           1         mkmem =           1
-   mkqmem =           1        mk1mem =           1           mpw =        9487
      nfft =      184320          nkpt =           1
  Rough estimation (10% accuracy) of disk space for files :

------------- Echo of variables that govern the present computation ------------
-
- outvars: echo of selected default values
-   iomode0 =  0 , fftalg0 =512 , wfoptalg0 =  0
-
- outvars: echo of global parameters not present in the input file
-  max_nthreads =    0
-
 -outvars: echo values of preprocessed input variables --------
            acell      1.0000000000E+00  1.0000000000E+00  1.0000000000E+00 Bohr
              amu      2.43050000E+01  7.89600000E+01
             ecut      4.30000000E+01 Hartree
-          fftalg         512
           irdden           1
           irdwfk           1
           istwfk        1
              ixc     -116133
           kptopt           0
P           mkmem           1
P          mkqmem           1
P          mk1mem           1
            natom           4
            nband          35
           nbdbuf           4
            ngfft          48      48      80
             nkpt           1
            nstep         100
             nsym          12
           ntypat           2
              occ      2.000000  2.000000  2.000000  2.000000  2.000000  2.000000
                       2.000000  2.000000  2.000000  2.000000  2.000000  2.000000
                       2.000000  2.000000  2.000000  2.000000  2.000000  2.000000
                       2.000000  2.000000  2.000000  2.000000  2.000000  2.000000
                       2.000000  2.000000  0.000000  0.000000  0.000000  0.000000
                       0.000000  0.000000  0.000000  0.000000  0.000000
        optdriver           1
            prtwf          -1
            rfdir           1       1       1
           rfelfd           2
            rprim      7.9746899206E+00  0.0000000000E+00  0.0000000000E+00
                      -3.9873449603E+00  6.9062840585E+00  0.0000000000E+00
                       0.0000000000E+00  0.0000000000E+00  1.2825214125E+01
          spgroup         186
           symrel      1  0  0   0  1  0   0  0  1       0  1  0   1  0  0   0  0  1
                       1  1  0  -1  0  0   0  0  1      -1  0  0   1  1  0   0  0  1
                       0  1  0  -1 -1  0   0  0  1      -1 -1  0   0  1  0   0  0  1
                      -1  0  0   0 -1  0   0  0  1       0 -1  0  -1  0  0   0  0  1
                      -1 -1  0   1  0  0   0  0  1       1  0  0  -1 -1  0   0  0  1
                       0 -1  0   1  1  0   0  0  1       1  1  0   0 -1  0   0  0  1
            tnons      0.0000000  0.0000000  0.0000000    -0.0000000  0.0000000  0.5000000
                       0.0000000  0.0000000  0.5000000    -0.0000000  0.0000000  0.0000000
                       0.0000000  0.0000000  0.0000000     0.0000000  0.0000000  0.5000000
                       0.0000000  0.0000000  0.5000000     0.0000000  0.0000000  0.0000000
                      -0.0000000  0.0000000  0.0000000     0.0000000  0.0000000  0.5000000
                      -0.0000000  0.0000000  0.5000000     0.0000000  0.0000000  0.0000000
           tolwfr      1.00000000E-20
            typat      1  1  2  2
           useylm           1
           xangst      2.1100120758E+00  1.2182160399E+00  3.4089608760E+00
                      -4.7000377687E-16  2.4364320799E+00  1.5555370836E-02
                       2.1100120758E+00  1.2182160399E+00  8.3279600546E-01
                      -4.7000377687E-16  2.4364320799E+00  4.2262015106E+00
            xcart      3.9873449603E+00  2.3020946862E+00  6.4420024534E+00
                      -8.8817841970E-16  4.6041893723E+00  2.9395390775E-02
                       3.9873449603E+00  2.3020946862E+00  1.5737563749E+00
                      -8.8817841970E-16  4.6041893723E+00  7.9863634375E+00
             xred      6.6666666667E-01  3.3333333333E-01  5.0229200000E-01
                       3.3333333333E-01  6.6666666667E-01  2.2920000000E-03
                       6.6666666667E-01  3.3333333333E-01  1.2270800000E-01
                       3.3333333333E-01  6.6666666667E-01  6.2270800000E-01
            znucl       12.00000   34.00000

 chkinp: Checking input parameters for consistency.

== DATASET  1 ==================================================================
-   mpi_nproc: 1, omp_nthreads: -1 (-1 if OMP is not activated)

--- !DatasetInfo
iteration_state: {dtset: 1, }
dimensions: {natom: 4, nkpt: 1, mband: 35, nsppol: 1, nspinor: 1, nspden: 1, mpw: 9487, }
cutoff_energies: {ecut:  43.0, pawecutdg:  -1.0, }
electrons: {nelect:   5.20000000E+01, charge:   0.00000000E+00, occopt:   1.00000000E+00, tsmear:   1.00000000E-02, }
meta: {optdriver: 1, rfelfd: 2, }
...

 Real(R)+Recip(G) space primitive vectors, cartesian coordinates (Bohr,Bohr^-1):
 R(1)=  7.9746899  0.0000000  0.0000000  G(1)=  0.1253967  0.0723978  0.0000000
 R(2)= -3.9873450  6.9062841  0.0000000  G(2)=  0.0000000  0.1447957  0.0000000
 R(3)=  0.0000000  0.0000000 12.8252141  G(3)=  0.0000000  0.0000000  0.0779714
 Unit cell volume ucvol=  7.0635475E+02 bohr^3
 Angles (23,13,12)=  9.00000000E+01  9.00000000E+01  1.20000000E+02 degrees

 getcut: wavevector=  0.0000  0.0000  0.0000  ngfft=  48  48  80
         ecut(hartree)=     43.000   => boxcut(ratio)=   2.03905

--- Pseudopotential description ------------------------------------------------
- pspini: atom type   1  psp file is /scratch/users/j/a/jabreu/pseudos/PBEsol/Mg.psp8
- pspatm: opening atomic psp file    /scratch/users/j/a/jabreu/pseudos/PBEsol/Mg.psp8
- Mg    ONCVPSP-3.3.0  r_core=   1.16056   1.56380
- 12.00000  10.00000    180112                znucl, zion, pspdat
    8 -116133    1    4       400   0.00000   pspcod,pspxc,lmax,lloc,mmax,r2well
    3.99000000000000    0.00000000000000    0.00000000000000   rchrg,fchrg,qchrg
     nproj     2     2
     extension_switch     1
  pspatm : epsatm=    9.18164846
         --- l  ekb(1:nproj) -->
             0    2.230603   -0.826587
             1   -6.503151   -2.501445
 pspatm: atomic psp has been read  and splines computed

- pspini: atom type   2  psp file is /scratch/users/j/a/jabreu/pseudos/PBEsol/Se.psp8
- pspatm: opening atomic psp file    /scratch/users/j/a/jabreu/pseudos/PBEsol/Se.psp8
- Se    ONCVPSP-3.3.0  r_core=   1.81943   1.50330   1.90835
- 34.00000  16.00000    180112                znucl, zion, pspdat
    8 -116133    2    4       600   0.00000   pspcod,pspxc,lmax,lloc,mmax,r2well
    5.99000000000000    5.00000000000000    0.00000000000000   rchrg,fchrg,qchrg
     nproj     2     2     2
     extension_switch     1
  pspatm : epsatm=   29.17862020
         --- l  ekb(1:nproj) -->
             0    8.973804    1.019550
             1    6.849857    1.297308
             2   -9.203962   -3.731027
 pspatm: atomic psp has been read  and splines computed

   3.98946794E+03                                ecore*ucvol(ha*bohr**3)

-inwffil : will read wavefunctions from disk file /scratch/users/j/a/jabreu/flow_simple_4atoms/flow/w246/t1/indata/in_WFK

 ==>  initialize data related to q vector <==

 The list of irreducible perturbations for this q vector is:
    1)    idir= 1    ipert=   5
    2)    idir= 2    ipert=   5
    3)    idir= 3    ipert=   5

 Perturbation wavevector (in red.coord.)   0.000000  0.000000  0.000000
 Perturbation : derivative vs k along direction   1

 dfpt_looppert : COMMENT -
  In a d/dk calculation, iscf is set to -3 automatically.
 The set of symmetries contains only one element for this perturbation.
 symkpt : not enough symmetry to change the number of k points.

[...]

 Initialisation of the first-order wave-functions :
  ireadwf=   0

--- !BeginCycle
iteration_state: {dtset: 1, }
solver: {iscf: 7, nstep: 100, nline: 4, wfoptalg: 0, }
tolerances: {tolwfr: 1.00E-20, }
...

     iter   2DEtotal(Ha)        deltaE(Ha) residm    vres2
-ETOT  1  -101.90666897904     -1.019E+02 2.357E-01 0.000E+00
 ETOT  2  -101.94909435598     -4.243E-02 2.299E-03 0.000E+00
 ETOT  3  -101.94911052999     -1.617E-05 6.479E-05 0.000E+00
 ETOT  4  -101.94911055233     -2.234E-08 4.055E-06 0.000E+00
 ETOT  5  -101.94911055239     -5.741E-11 6.053E-07 0.000E+00
 ETOT  6  -101.94911055239     -9.948E-14 8.650E-08 0.000E+00
 ETOT  7  -101.94911055239      1.421E-14 1.499E-08 0.000E+00
 ETOT  8  -101.94911055239     -5.684E-14 2.154E-09 0.000E+00
 ETOT  9  -101.94911055239      0.000E+00 4.056E-10 0.000E+00
 ETOT 10  -101.94911055239      1.421E-14 5.053E-11 0.000E+00
 ETOT 11  -101.94911055239     -1.421E-14 9.542E-12 0.000E+00
 ETOT 12  -101.94911055239      0.000E+00 1.129E-12 0.000E+00
 ETOT 13  -101.94911055239      0.000E+00 2.179E-13 0.000E+00
 ETOT 14  -101.94911055239      2.842E-14 2.562E-14 0.000E+00
 ETOT 15  -101.94911055239     -2.842E-14 4.922E-15 0.000E+00
 ETOT 16  -101.94911055239      0.000E+00 5.858E-16 0.000E+00
 ETOT 17  -101.94911055239      0.000E+00 1.105E-16 0.000E+00
 ETOT 18  -101.94911055239      0.000E+00 1.344E-17 0.000E+00
 ETOT 19  -101.94911055239     -4.263E-14 2.478E-18 0.000E+00
 ETOT 20  -101.94911055239      1.421E-14 3.088E-19 0.000E+00
 ETOT 21  -101.94911055239     -1.421E-14 5.550E-20 0.000E+00
 ETOT 22  -101.94911055239      1.421E-14 9.750E-21 0.000E+00

 At SCF step   22   max residual=  9.75E-21 < tolwfr=  1.00E-20 =>converged.

 ----iterations are completed or convergence reached----

 dfpt_looppert: DFPT cycle converged with prtwf=-1. Will skip output of the 1st-order WFK file.
 dfpt_looppert : ek2=    8.6080385211E+01
          f-sum rule ratio=    1.3187080407E+00
 prteigrs : about to open file /scratch/users/j/a/jabreu/flow_simple_4atoms/flow/w246/t1/tmpdata/tmp_1WF1_EIG
 Expectation of eigenvalue derivatives (hartree) for nkpt=   1  k points:
  (in case of degenerate eigenvalues, averaged derivative)
 kpt#   1, nband= 35, wtk=  1.00000, kpt=  0.0000  0.0000  0.0000 (reduced coord)
   0.00000    0.00000    0.00000    0.00000    0.00000    0.00000   -0.00000    0.00000
  -0.00000   -0.00000   -0.00000   -0.00000    0.00000   -0.00000   -0.00000   -0.00000
   0.00000    0.00000   -0.00000    0.00000    0.00000   -0.00000   -0.00000    0.00000
   0.00000    0.00000    0.00000   -0.00000    0.00000    0.00000    0.00000    0.00000
   0.00000    0.00005    0.00000

 Eight components of 2nd-order total energy (hartree) are
 1,2,3: 0th-order hamiltonian combined with 1st-order wavefunctions
     kin0=   8.82442662E+01 eigvalue=   1.79417845E+01  local=  -3.58123957E+01
 4,5,6: 1st-order hamiltonian combined with 1st and 0th-order wfs
     kin1=  -1.13514896E+02  Hartree=   0.00000000E+00     xc=   0.00000000E+00
 7,8,9: eventually, occupation + non-local contributions
    edocc=   2.40519088E+01     enl0=   7.52354668E+00   enl1=  -9.03833250E+01
 1-9 gives the relaxation energy (to be shifted if some occ is /=2.0)
   erelax=  -1.01949111E+02
  No Ewald or frozen-wf contrib.: the relaxation energy is the total one
 2DEtotal=   -0.1019491106E+03 Ha. Also 2DEtotal=   -0.277417638143E+04 eV
    (  non-var. 2DEtotal :   -1.0194911055E+02 Ha)

 Perturbation wavevector (in red.coord.)   0.000000  0.000000  0.000000
 Perturbation : derivative vs k along direction   2
 The set of symmetries contains only one element for this perturbation.
 symkpt : not enough symmetry to change the number of k points.

[...]

 Perturbation wavevector (in red.coord.)   0.000000  0.000000  0.000000
 Perturbation : derivative vs k along direction   3
 The set of symmetries contains only one element for this perturbation.
 symkpt : not enough symmetry to change the number of k points.

-inwffil : will read wavefunctions from disk file /scratch/users/j/a/jabreu/flow_simple_4atoms/flow/w246/t1/indata/in_WFK

 Initialisation of the first-order wave-functions :
  ireadwf=   0

--- !BeginCycle
iteration_state: {dtset: 1, }
solver: {iscf: 7, nstep: 100, nline: 4, wfoptalg: 0, }
tolerances: {tolwfr: 1.00E-20, }
...

     iter   2DEtotal(Ha)        deltaE(Ha) residm    vres2
-ETOT  1  -27.528215119079     -2.753E+01 1.023E-01 0.000E+00
 ETOT  2  -27.540385871377     -1.217E-02 2.271E-03 0.000E+00
 ETOT  3  -27.540391011585     -5.140E-06 2.134E-05 0.000E+00
 ETOT  4  -27.540391021202     -9.617E-09 5.797E-07 0.000E+00
 ETOT  5  -27.540391021232     -2.943E-11 3.153E-08 0.000E+00
 ETOT  6  -27.540391021232     -1.172E-13 4.920E-10 0.000E+00
 ETOT  7  -27.540391021232      1.776E-14 1.112E-10 0.000E+00
 ETOT  8  -27.540391021232      7.105E-15 1.265E-12 0.000E+00
 ETOT  9  -27.540391021232     -7.105E-15 3.794E-13 0.000E+00
 ETOT 10  -27.540391021232      7.105E-15 3.702E-15 0.000E+00
 ETOT 11  -27.540391021232     -7.105E-15 1.331E-15 0.000E+00
 ETOT 12  -27.540391021232     -3.553E-15 1.331E-17 0.000E+00
 ETOT 13  -27.540391021232      0.000E+00 5.027E-18 0.000E+00
 ETOT 14  -27.540391021232      3.553E-15 1.192E-19 0.000E+00
 ETOT 15  -27.540391021232     -3.553E-15 1.967E-20 0.000E+00
 ETOT 16  -27.540391021232      7.105E-15 9.890E-21 0.000E+00

 At SCF step   16   max residual=  9.89E-21 < tolwfr=  1.00E-20 =>converged.

 ----iterations are completed or convergence reached----

 dfpt_looppert: DFPT cycle converged with prtwf=-1. Will skip output of the 1st-order WFK file.
 dfpt_looppert : ek2=    2.4961106121E+01
          f-sum rule ratio=    1.1581378479E+00
 prteigrs : about to open file /scratch/users/j/a/jabreu/flow_simple_4atoms/flow/w246/t1/tmpdata/tmp_1WF1_EIG
 Expectation of eigenvalue derivatives (hartree) for nkpt=   1  k points:
  (in case of degenerate eigenvalues, averaged derivative)
 kpt#   1, nband= 35, wtk=  1.00000, kpt=  0.0000  0.0000  0.0000 (reduced coord)
  -0.00000    0.00000    0.00000    0.00000    0.00000    0.00000    0.00000    0.00000
  -0.00000   -0.00000    0.00000    0.00000    0.00000   -0.00000    0.00000    0.00000
  -0.00000   -0.00000    0.00000   -0.00000    0.00000   -0.00000   -0.00000   -0.00000
  -0.00000   -0.00000   -0.00000    0.00000   -0.00000   -0.00000   -0.00000    0.00000
   0.00000    0.00030    0.00000

 Eight components of 2nd-order total energy (hartree) are
 1,2,3: 0th-order hamiltonian combined with 1st-order wavefunctions
     kin0=   2.70858904E+01 eigvalue=   5.14938598E+00  local=  -1.09832548E+01
 4,5,6: 1st-order hamiltonian combined with 1st and 0th-order wfs
     kin1=  -2.89084017E+01  Hartree=   0.00000000E+00     xc=   0.00000000E+00
 7,8,9: eventually, occupation + non-local contributions
    edocc=   4.39782621E+00     enl0=   1.89054326E+00   enl1=  -2.61723803E+01
 1-9 gives the relaxation energy (to be shifted if some occ is /=2.0)
   erelax=  -2.75403910E+01
  No Ewald or frozen-wf contrib.: the relaxation energy is the total one
 2DEtotal=   -0.2754039102E+02 Ha. Also 2DEtotal=   -0.749412151733E+03 eV
    (  non-var. 2DEtotal :   -2.7540391021E+01 Ha)

 CALCULATION OF EFFECTIVE MASSES
 NOTE : Additional infos (eff. mass eigenvalues, eigenvectors and, if degenerate, average mass) are available in stdout.

 K-point ( 0.000, 0.000, 0.000) | band =    26
 Effective mass tensor:
             -3.0870637036              0.0051319580             -0.0000059073
              0.0051319580             -3.0784254574             -0.0000132851
             -0.0000059073             -0.0000132851             -0.1778369771
 Effective mass tensor eigenvalues:
             -3.0894521745             -3.0760369866             -0.1778369771
 Angular average effective mass 1/(<1/m>)=  -0.4783237147
 Angular average effective mass for Frohlich model (<m**0.5>)**2=  -0.8360467355
 Effective masses along directions: (cart. coord. / red. coord. -> eff. mass)
    1:   1.000000  0.000000  0.000000 /   0.894427 -0.447214  0.000000 ->  -3.0870551480
    2:   0.000000  1.000000  0.000000 /   0.000000  1.000000  0.000000 ->  -3.0784169250
    3:   0.000000  0.000000  1.000000 /   0.000000  0.000000  1.000000 ->  -0.1778369771
    4:   0.577350  0.577350  0.577350 /   0.518447  0.189765  0.833788 ->  -0.4782467099
    5:   0.000000  0.707107  0.707107 /   0.000000  0.474121  0.880460 ->  -0.3362519306
    6:   0.707107  0.000000  0.707107 /   0.510547 -0.255274  0.821083 ->  -0.3363018003
    7:   0.707107  0.707107  0.000000 /   0.939071  0.343724  0.000000 ->  -3.0776065802

 K-point ( 0.000, 0.000, 0.000) | band =    27
 Effective mass tensor:
              0.1899446622             -0.0000000113              0.0000000008
             -0.0000000113              0.1899446674              0.0000000029
              0.0000000008              0.0000000029              0.1775807058
 Effective mass tensor eigenvalues:
              0.1775807058              0.1899446532              0.1899446764
 Angular average effective mass 1/(<1/m>)=   0.1856363877
 Angular average effective mass for Frohlich model (<m**0.5>)**2=   0.1856931108
 Effective masses along directions: (cart. coord. / red. coord. -> eff. mass)
    1:   1.000000  0.000000  0.000000 /   0.894427 -0.447214  0.000000 ->   0.1899446622
    2:   0.000000  1.000000  0.000000 /   0.000000  1.000000  0.000000 ->   0.1899446674
    3:   0.000000  0.000000  1.000000 /   0.000000  0.000000  1.000000 ->   0.1775807058
    4:   0.577350  0.577350  0.577350 /   0.518447  0.189765  0.833788 ->   0.1856363830
    5:   0.000000  0.707107  0.707107 /   0.000000  0.474121  0.880460 ->   0.1835547208
    6:   0.707107  0.000000  0.707107 /   0.510547 -0.255274  0.821083 ->   0.1835547163
    7:   0.707107  0.707107  0.000000 /   0.939071  0.343724  0.000000 ->   0.1899446535

 END OF EFFECTIVE MASSES SECTION

 ---- first-order wavefunction calculations are completed ----

 Total localisation tensor (bohr^2) in cartesian coordinates
  WARNING : still subject to testing - especially symmetries.
      direction              matrix element
   alpha     beta       real part   imaginary part
     1        1       3.2125711832    0.0000000000
     1        2      -1.1128750551    0.0000000000
     1        3       0.0000000000    0.0000000000
     2        1      -1.1128750551    0.0000000000
     2        2       1.9275561378    0.0000000000
     2        3       0.0000000000    0.0000000000
     3        1       0.0000000000    0.0000000000
     3        2       0.0000000000    0.0000000000
     3        3       1.5221674751    0.0000000000

 respfn : d/dk was computed, but no 2DTE, so no DDB output.

== END DATASET(S) ==============================================================

 -outvars: echo values of variables after computation  --------
            acell      1.0000000000E+00  1.0000000000E+00  1.0000000000E+00 Bohr
              amu      2.43050000E+01  7.89600000E+01
             ecut      4.30000000E+01 Hartree
           etotal     -2.7540391021E+01
            fcart      0.0000000000E+00  0.0000000000E+00  0.0000000000E+00
                       0.0000000000E+00  0.0000000000E+00  0.0000000000E+00
                       0.0000000000E+00  0.0000000000E+00  0.0000000000E+00
                       0.0000000000E+00  0.0000000000E+00  0.0000000000E+00
-          fftalg         512
           irdden           1
           irdwfk           1
           istwfk        1
              ixc     -116133
           kptopt           0
P           mkmem           1
P          mkqmem           1
P          mk1mem           1
            natom           4
            nband          35
           nbdbuf           4
            ngfft          48      48      80
             nkpt           1
            nstep         100
             nsym          12
           ntypat           2
              occ      2.000000  2.000000  2.000000  2.000000  2.000000  2.000000
                       2.000000  2.000000  2.000000  2.000000  2.000000  2.000000
                       2.000000  2.000000  2.000000  2.000000  2.000000  2.000000
                       2.000000  2.000000  2.000000  2.000000  2.000000  2.000000
                       2.000000  2.000000  0.000000  0.000000  0.000000  0.000000
                       0.000000  0.000000  0.000000  0.000000  0.000000
        optdriver           1
            prtwf          -1
            rfdir           1       1       1
           rfelfd           2
            rprim      7.9746899206E+00  0.0000000000E+00  0.0000000000E+00
                      -3.9873449603E+00  6.9062840585E+00  0.0000000000E+00
                       0.0000000000E+00  0.0000000000E+00  1.2825214125E+01
          spgroup         186
           strten      0.0000000000E+00  0.0000000000E+00  0.0000000000E+00
                       0.0000000000E+00  0.0000000000E+00  0.0000000000E+00
           symrel      1  0  0   0  1  0   0  0  1       0  1  0   1  0  0   0  0  1
                       1  1  0  -1  0  0   0  0  1      -1  0  0   1  1  0   0  0  1
                       0  1  0  -1 -1  0   0  0  1      -1 -1  0   0  1  0   0  0  1
                      -1  0  0   0 -1  0   0  0  1       0 -1  0  -1  0  0   0  0  1
                      -1 -1  0   1  0  0   0  0  1       1  0  0  -1 -1  0   0  0  1
                       0 -1  0   1  1  0   0  0  1       1  1  0   0 -1  0   0  0  1
            tnons      0.0000000  0.0000000  0.0000000    -0.0000000  0.0000000  0.5000000
                       0.0000000  0.0000000  0.5000000    -0.0000000  0.0000000  0.0000000
                       0.0000000  0.0000000  0.0000000     0.0000000  0.0000000  0.5000000
                       0.0000000  0.0000000  0.5000000     0.0000000  0.0000000  0.0000000
                      -0.0000000  0.0000000  0.0000000     0.0000000  0.0000000  0.5000000
                      -0.0000000  0.0000000  0.5000000     0.0000000  0.0000000  0.0000000
           tolwfr      1.00000000E-20
            typat      1  1  2  2
           useylm           1
           xangst      2.1100120758E+00  1.2182160399E+00  3.4089608760E+00
                      -4.7000377687E-16  2.4364320799E+00  1.5555370836E-02
                       2.1100120758E+00  1.2182160399E+00  8.3279600546E-01
                      -4.7000377687E-16  2.4364320799E+00  4.2262015106E+00
            xcart      3.9873449603E+00  2.3020946862E+00  6.4420024534E+00
                      -8.8817841970E-16  4.6041893723E+00  2.9395390775E-02
                       3.9873449603E+00  2.3020946862E+00  1.5737563749E+00
                      -8.8817841970E-16  4.6041893723E+00  7.9863634375E+00
             xred      6.6666666667E-01  3.3333333333E-01  5.0229200000E-01
                       3.3333333333E-01  6.6666666667E-01  2.2920000000E-03
                       6.6666666667E-01  3.3333333333E-01  1.2270800000E-01
                       3.3333333333E-01  6.6666666667E-01  6.2270800000E-01
            znucl       12.00000   34.00000

- Timing analysis has been suppressed with timopt=0

 Suggested references for the acknowledgment of ABINIT usage.

 Calculation completed.
.Delivered   6 WARNINGs and   5 COMMENTs to log file.