.Version 9.5.1 of ABINIT

 ABINIT is a project of the Universite Catholique de Louvain,
 Corning Inc. and other collaborators, see ~abinit/doc/developers/contributors.txt .
 acknowledgments of the ABINIT effort.

.Starting date : Sun 25 Apr 2021.
- ( at 17h23 )

- input  file    -> /scratch/users/j/a/jabreu/flow_simple2/flow/w219/t1/run.abi
- output file    -> /scratch/users/j/a/jabreu/flow_simple2/flow/w219/t1/run.abo
- root for input  files -> /scratch/users/j/a/jabreu/flow_simple2/flow/w219/t1/indata/in
- root for output files -> /scratch/users/j/a/jabreu/flow_simple2/flow/w219/t1/outdata/out

 Symmetries : space group F-4 3 m (#216); Bravais cF (face-center cubic)
     intxc =       0      iscf =       7    lmnmax =      18     lnmax =       6
     mgfft =      48  mpssoang =       3    mqgrid =    3001     natom =       2
  nloc_mem =       1    nspden =       1   nspinor =       1    nsppol =       1
      nsym =      24    n1xccc =    2501    ntypat =       2    occopt =       1
   xclevel =       2
-    mband =          22        mffmem =           1         mkmem =           1
-   mkqmem =           1        mk1mem =           1           mpw =        4693
      nfft =      110592          nkpt =           1
  Rough estimation (10% accuracy) of disk space for files :

------------- Echo of variables that govern the present computation ------------
-
- outvars: echo of selected default values
-   iomode0 =  0 , fftalg0 =512 , wfoptalg0 =  0
-
- outvars: echo of global parameters not present in the input file
-  max_nthreads =    0
-
 -outvars: echo values of preprocessed input variables --------
            acell      1.0000000000E+00  1.0000000000E+00  1.0000000000E+00 Bohr
              amu      2.43050000E+01  7.89600000E+01
             ecut      4.30000000E+01 Hartree
-          fftalg         512
           irdden           1
           irdwfk           1
           istwfk        1
              ixc     -116133
           kptopt           0
P           mkmem           1
P          mkqmem           1
P          mk1mem           1
            natom           2
            nband          22
           nbdbuf           4
            ngfft          48      48      48
             nkpt           1
            nstep         100
             nsym          24
           ntypat           2
              occ      2.000000  2.000000  2.000000  2.000000  2.000000  2.000000
                       2.000000  2.000000  2.000000  2.000000  2.000000  2.000000
                       2.000000  0.000000  0.000000  0.000000  0.000000  0.000000
                       0.000000  0.000000  0.000000  0.000000
        optdriver           1
            prtwf          -1
            rfdir           1       1       1
           rfelfd           2
            rprim      6.8714131044E+00  0.0000000000E+00  3.9672122056E+00
                       2.2904710348E+00  6.4784304033E+00  3.9672122056E+00
                       0.0000000000E+00  0.0000000000E+00  7.9344244111E+00
          spgroup         216
           symrel      1  0  0   0  1  0   0  0  1       0 -1  1   0 -1  0   1 -1  0
                      -1  0  0  -1  0  1  -1  1  0       0  1 -1   1  0 -1   0  0 -1
                      -1  0  0  -1  1  0  -1  0  1       0 -1  1   1 -1  0   0 -1  0
                       1  0  0   0  0  1   0  1  0       0  1 -1   0  0 -1   1  0 -1
                      -1  0  1  -1  1  0  -1  0  0       0 -1  0   1 -1  0   0 -1  1
                       1  0 -1   0  0 -1   0  1 -1       0  1  0   0  0  1   1  0  0
                       1  0 -1   0  1 -1   0  0 -1       0 -1  0   0 -1  1   1 -1  0
                      -1  0  1  -1  0  0  -1  1  0       0  1  0   1  0  0   0  0  1
                       0  0 -1   0  1 -1   1  0 -1       1 -1  0   0 -1  1   0 -1  0
                       0  0  1   1  0  0   0  1  0      -1  1  0  -1  0  0  -1  0  1
                       0  0  1   0  1  0   1  0  0       1 -1  0   0 -1  0   0 -1  1
                       0  0 -1   1  0 -1   0  1 -1      -1  1  0  -1  0  1  -1  0  0
           tolwfr      1.00000000E-20
            typat      1  2
           useylm           1
           xangst      0.0000000000E+00  0.0000000000E+00  0.0000000000E+00
                       3.6361952057E+00  2.5711782876E+00  6.2980748425E+00
            xcart      0.0000000000E+00  0.0000000000E+00  0.0000000000E+00
                       6.8714131044E+00  4.8588228025E+00  1.1901636617E+01
             xred      0.0000000000E+00  0.0000000000E+00  0.0000000000E+00
                       7.5000000000E-01  7.5000000000E-01  7.5000000000E-01
            znucl       12.00000   34.00000

 chkinp: Checking input parameters for consistency.

== DATASET  1 ==================================================================
-   mpi_nproc: 1, omp_nthreads: -1 (-1 if OMP is not activated)

--- !DatasetInfo
iteration_state: {dtset: 1, }
dimensions: {natom: 2, nkpt: 1, mband: 22, nsppol: 1, nspinor: 1, nspden: 1, mpw: 4693, }
cutoff_energies: {ecut:  43.0, pawecutdg:  -1.0, }
electrons: {nelect:   2.60000000E+01, charge:   0.00000000E+00, occopt:   1.00000000E+00, tsmear:   1.00000000E-02, }
meta: {optdriver: 1, rfelfd: 2, }
...

 Real(R)+Recip(G) space primitive vectors, cartesian coordinates (Bohr,Bohr^-1):
 R(1)=  6.8714131  0.0000000  3.9672122  G(1)=  0.1455305 -0.0514528  0.0000000
 R(2)=  2.2904710  6.4784304  3.9672122  G(2)=  0.0000000  0.1543584  0.0000000
 R(3)=  0.0000000  0.0000000  7.9344244  G(3)= -0.0727652 -0.0514528  0.1260331
 Unit cell volume ucvol=  3.5320861E+02 bohr^3
 Angles (23,13,12)=  6.00000000E+01  6.00000000E+01  6.00000000E+01 degrees

 getcut: wavevector=  0.0000  0.0000  0.0000  ngfft=  48  48  48
         ecut(hartree)=     43.000   => boxcut(ratio)=   2.04940

--- Pseudopotential description ------------------------------------------------
- pspini: atom type   1  psp file is /scratch/users/j/a/jabreu/pseudos/PBEsol/Mg.psp8
- pspatm: opening atomic psp file    /scratch/users/j/a/jabreu/pseudos/PBEsol/Mg.psp8
- Mg    ONCVPSP-3.3.0  r_core=   1.16056   1.56380
- 12.00000  10.00000    180112                znucl, zion, pspdat
    8 -116133    1    4       400   0.00000   pspcod,pspxc,lmax,lloc,mmax,r2well
    3.99000000000000    0.00000000000000    0.00000000000000   rchrg,fchrg,qchrg
     nproj     2     2
     extension_switch     1
  pspatm : epsatm=    9.18164846
         --- l  ekb(1:nproj) -->
             0    2.230603   -0.826587
             1   -6.503151   -2.501445
 pspatm: atomic psp has been read  and splines computed

- pspini: atom type   2  psp file is /scratch/users/j/a/jabreu/pseudos/PBEsol/Se.psp8
- pspatm: opening atomic psp file    /scratch/users/j/a/jabreu/pseudos/PBEsol/Se.psp8
- Se    ONCVPSP-3.3.0  r_core=   1.81943   1.50330   1.90835
- 34.00000  16.00000    180112                znucl, zion, pspdat
    8 -116133    2    4       600   0.00000   pspcod,pspxc,lmax,lloc,mmax,r2well
    5.99000000000000    5.00000000000000    0.00000000000000   rchrg,fchrg,qchrg
     nproj     2     2     2
     extension_switch     1
  pspatm : epsatm=   29.17862020
         --- l  ekb(1:nproj) -->
             0    8.973804    1.019550
             1    6.849857    1.297308
             2   -9.203962   -3.731027
 pspatm: atomic psp has been read  and splines computed

   9.97366985E+02                                ecore*ucvol(ha*bohr**3)

-inwffil : will read wavefunctions from disk file /scratch/users/j/a/jabreu/flow_simple2/flow/w219/t1/indata/in_WFK

 ==>  initialize data related to q vector <==

 The list of irreducible perturbations for this q vector is:
    1)    idir= 1    ipert=   3
    2)    idir= 2    ipert=   3
    3)    idir= 3    ipert=   3

 Perturbation wavevector (in red.coord.)   0.000000  0.000000  0.000000
 Perturbation : derivative vs k along direction   1

 dfpt_looppert : COMMENT -
  In a d/dk calculation, iscf is set to -3 automatically.
 The set of symmetries contains only one element for this perturbation.
 symkpt : not enough symmetry to change the number of k points.

[...]

 Initialisation of the first-order wave-functions :
  ireadwf=   0

--- !BeginCycle
iteration_state: {dtset: 1, }
solver: {iscf: 7, nstep: 100, nline: 4, wfoptalg: 0, }
tolerances: {tolwfr: 1.00E-20, }
...

     iter   2DEtotal(Ha)        deltaE(Ha) residm    vres2
-ETOT  1  -60.784682019997     -6.078E+01 7.053E-02 0.000E+00
 ETOT  2  -60.803498037048     -1.882E-02 6.668E-05 0.000E+00
 ETOT  3  -60.803500997510     -2.960E-06 1.381E-06 0.000E+00
 ETOT  4  -60.803500998974     -1.464E-09 2.516E-09 0.000E+00
 ETOT  5  -60.803500998976     -1.414E-12 2.303E-10 0.000E+00
 ETOT  6  -60.803500998976      7.105E-15 6.532E-13 0.000E+00
 ETOT  7  -60.803500998976      3.553E-14 7.952E-14 0.000E+00
 ETOT  8  -60.803500998976      7.105E-15 2.363E-16 0.000E+00
 ETOT  9  -60.803500998976     -7.105E-15 3.863E-17 0.000E+00
 ETOT 10  -60.803500998976      7.105E-15 1.214E-19 0.000E+00
 ETOT 11  -60.803500998976      0.000E+00 1.940E-20 0.000E+00
 ETOT 12  -60.803500998976      7.105E-15 8.287E-21 0.000E+00

 At SCF step   12   max residual=  8.29E-21 < tolwfr=  1.00E-20 =>converged.

 ----iterations are completed or convergence reached----

 dfpt_looppert: DFPT cycle converged with prtwf=-1. Will skip output of the 1st-order WFK file.
 dfpt_looppert : ek2=    4.8912908189E+01
          f-sum rule ratio=    1.4376976169E+00
 prteigrs : about to open file /scratch/users/j/a/jabreu/flow_simple2/flow/w219/t1/tmpdata/tmp_1WF1_EIG
 Expectation of eigenvalue derivatives (hartree) for nkpt=   1  k points:
  (in case of degenerate eigenvalues, averaged derivative)
 kpt#   1, nband= 22, wtk=  1.00000, kpt=  0.0000  0.0000  0.0000 (reduced coord)
  -0.00000    0.00000    0.00000    0.00000   -0.00000   -0.00000    0.00000    0.00000
   0.00000    0.00000   -0.00000   -0.00000   -0.00000    0.00000    0.00000    0.00000
   0.00000    0.00000    0.00000    0.00000   -0.00000   -0.00000

 Eight components of 2nd-order total energy (hartree) are
 1,2,3: 0th-order hamiltonian combined with 1st-order wavefunctions
     kin0=   4.72338436E+01 eigvalue=   1.00089490E+01  local=  -1.89203282E+01
 4,5,6: 1st-order hamiltonian combined with 1st and 0th-order wfs
     kin1=  -7.03219715E+01  Hartree=   0.00000000E+00     xc=   0.00000000E+00
 7,8,9: eventually, occupation + non-local contributions
    edocc=   1.79110095E+01     enl0=   4.57002709E+00   enl1=  -5.12850305E+01
 1-9 gives the relaxation energy (to be shifted if some occ is /=2.0)
   erelax=  -6.08035010E+01
  No Ewald or frozen-wf contrib.: the relaxation energy is the total one
 2DEtotal=   -0.6080350100E+02 Ha. Also 2DEtotal=   -0.165454740572E+04 eV
    (  non-var. 2DEtotal :   -6.0803500999E+01 Ha)

 Perturbation wavevector (in red.coord.)   0.000000  0.000000  0.000000
 Perturbation : derivative vs k along direction   2
 The set of symmetries contains only one element for this perturbation.
 symkpt : not enough symmetry to change the number of k points.

[...]

 Perturbation wavevector (in red.coord.)   0.000000  0.000000  0.000000
 Perturbation : derivative vs k along direction   3
 The set of symmetries contains only one element for this perturbation.
 symkpt : not enough symmetry to change the number of k points.

-inwffil : will read wavefunctions from disk file /scratch/users/j/a/jabreu/flow_simple2/flow/w219/t1/indata/in_WFK

 Initialisation of the first-order wave-functions :
  ireadwf=   0

--- !BeginCycle
iteration_state: {dtset: 1, }
solver: {iscf: 7, nstep: 100, nline: 4, wfoptalg: 0, }
tolerances: {tolwfr: 1.00E-20, }
...

     iter   2DEtotal(Ha)        deltaE(Ha) residm    vres2
-ETOT  1  -60.784498763561     -6.078E+01 7.036E-02 0.000E+00
 ETOT  2  -60.803497882354     -1.900E-02 8.584E-05 0.000E+00
 ETOT  3  -60.803500994067     -3.112E-06 1.524E-06 0.000E+00
 ETOT  4  -60.803500995608     -1.540E-09 2.080E-09 0.000E+00
 ETOT  5  -60.803500995609     -1.570E-12 1.603E-10 0.000E+00
 ETOT  6  -60.803500995609     -7.105E-15 5.365E-13 0.000E+00
 ETOT  7  -60.803500995609      7.105E-15 7.383E-14 0.000E+00
 ETOT  8  -60.803500995609     -4.974E-14 3.003E-16 0.000E+00
 ETOT  9  -60.803500995609      0.000E+00 4.293E-17 0.000E+00
 ETOT 10  -60.803500995609      1.421E-14 1.870E-19 0.000E+00
 ETOT 11  -60.803500995609      1.421E-14 2.620E-20 0.000E+00
 ETOT 12  -60.803500995609     -1.421E-14 9.583E-21 0.000E+00

 At SCF step   12   max residual=  9.58E-21 < tolwfr=  1.00E-20 =>converged.

 ----iterations are completed or convergence reached----

 dfpt_looppert: DFPT cycle converged with prtwf=-1. Will skip output of the 1st-order WFK file.
 dfpt_looppert : ek2=    4.8912908189E+01
          f-sum rule ratio=    1.4376976172E+00
 prteigrs : about to open file /scratch/users/j/a/jabreu/flow_simple2/flow/w219/t1/tmpdata/tmp_1WF1_EIG
 Expectation of eigenvalue derivatives (hartree) for nkpt=   1  k points:
  (in case of degenerate eigenvalues, averaged derivative)
 kpt#   1, nband= 22, wtk=  1.00000, kpt=  0.0000  0.0000  0.0000 (reduced coord)
  -0.00000   -0.00000   -0.00000   -0.00000    0.00000    0.00000    0.00000    0.00000
   0.00000    0.00000    0.00000    0.00000    0.00000   -0.00000   -0.00000   -0.00000
  -0.00000   -0.00000   -0.00000   -0.00000    0.00000    0.00000

 Eight components of 2nd-order total energy (hartree) are
 1,2,3: 0th-order hamiltonian combined with 1st-order wavefunctions
     kin0=   4.72764946E+01 eigvalue=   1.00162241E+01  local=  -1.89445146E+01
 4,5,6: 1st-order hamiltonian combined with 1st and 0th-order wfs
     kin1=  -7.03219716E+01  Hartree=   0.00000000E+00     xc=   0.00000000E+00
 7,8,9: eventually, occupation + non-local contributions
    edocc=   1.78857761E+01     enl0=   4.56952073E+00   enl1=  -5.12850304E+01
 1-9 gives the relaxation energy (to be shifted if some occ is /=2.0)
   erelax=  -6.08035010E+01
  No Ewald or frozen-wf contrib.: the relaxation energy is the total one
 2DEtotal=   -0.6080350100E+02 Ha. Also 2DEtotal=   -0.165454740562E+04 eV
    (  non-var. 2DEtotal :   -6.0803500996E+01 Ha)

 CALCULATION OF EFFECTIVE MASSES
 NOTE : Additional infos (eff. mass eigenvalues, eigenvectors and, if degenerate, average mass) are available in stdout.

 COMMENTS:
 - At k-point ( 0.000, 0.000, 0.000), bands    11 through    13
   are DEGENERATE (effective mass tensor is therefore not defined).
   See Section IIIB Eqs. (67)-(70) and Appendix E of PRB 93 205147 (2016).
 - Angular average effective mass for Frohlich model is to be averaged over degenerate bands. See later.
 - Associated theta integrals calculated with ntheta=   1000 points.

 K-point ( 0.000, 0.000, 0.000) | band =    11
 Transport equivalent effective mass tensor:
             -0.2012361737              0.0000000000              0.0000000000
              0.0000000000             -0.2012361737             -0.0000000000
              0.0000000000             -0.0000000000             -0.2012361737
 Transport equivalent effective mass tensor eigenvalues:
             -0.2012361737             -0.2012361737             -0.2012361737
 Angular average effective mass 1/(<1/m>)=  -0.1953873440
 Angular average effective mass for Frohlich model (<m**0.5>)**2=  -0.1957822165
 Effective masses along directions: (cart. coord. / red. coord. -> eff. mass)
    1:   1.000000  0.000000  0.000000 /   0.948683  0.316228  0.000000 ->  -0.1894527239
    2:   0.000000  1.000000  0.000000 /   0.000000  1.000000  0.000000 ->  -0.1815630733
    3:   0.000000  0.000000  1.000000 /   0.408248  0.408248  0.816497 ->  -0.1904068467
    4:   0.577350  0.577350  0.577350 /   0.585539  0.688047  0.428644 ->  -0.1893127540
    5:   0.000000  0.707107  0.707107 /   0.289489  0.762222  0.578977 ->  -0.2013903669
    6:   0.707107  0.000000  0.707107 /   0.731423  0.422287  0.535439 ->  -0.1899259565
    7:   0.707107  0.707107  0.000000 /   0.616798  0.787122  0.000000 ->  -0.2180499761

[...]

 K-point ( 0.000, 0.000, 0.000) | band =    13
 Transport equivalent effective mass tensor:
            -66.6469616984              0.0000607827              0.0000000090
              0.0000607827            -66.6469401582              0.0000000050
              0.0000000090              0.0000000050            -66.6468546470
 Transport equivalent effective mass tensor eigenvalues:
            -66.6470126578            -66.6468891988            -66.6468546470
 Angular average effective mass 1/(<1/m>)=  -3.0316296637
 Angular average effective mass for Frohlich model (<m**0.5>)**2=  -3.9470805582
 Effective masses along directions: (cart. coord. / red. coord. -> eff. mass)
    1:   1.000000  0.000000  0.000000 /   0.948683  0.316228  0.000000 ->  -3.2946815882
    2:   0.000000  1.000000  0.000000 /   0.000000  1.000000  0.000000 ->  -3.0305861036
    3:   0.000000  0.000000  1.000000 /   0.408248  0.408248  0.816497 -> -13.4855796348
    4:   0.577350  0.577350  0.577350 /   0.585539  0.688047  0.428644 ->  -4.1359853216
    5:   0.000000  0.707107  0.707107 /   0.289489  0.762222  0.578977 ->  -2.6269818052
    6:   0.707107  0.000000  0.707107 /   0.731423  0.422287  0.535439 ->  -6.1536724619
    7:   0.707107  0.707107  0.000000 /   0.616798  0.787122  0.000000 ->  -1.3124975343

 Angular average effective mass for Frohlich model, averaged over degenerate bands.
 Value of     (<<m**0.5>>)**2 =     1.459353E+00
 Absolute Value of <<m**0.5>> =     1.208037E+00

 K-point ( 0.000, 0.000, 0.000) | band =    14
 Effective mass tensor:
              0.1834415566             -0.0000000000             -0.0000000000
             -0.0000000000              0.1834415566             -0.0000000000
             -0.0000000000             -0.0000000000              0.1834415566
 Effective mass tensor eigenvalues:
              0.1834415566              0.1834415566              0.1834415566
 Angular average effective mass 1/(<1/m>)=   0.1834415566
 Angular average effective mass for Frohlich model (<m**0.5>)**2=   0.1834415566
 Effective masses along directions: (cart. coord. / red. coord. -> eff. mass)
    1:   1.000000  0.000000  0.000000 /   0.948683  0.316228  0.000000 ->   0.1834415566
    2:   0.000000  1.000000  0.000000 /   0.000000  1.000000  0.000000 ->   0.1834415566
    3:   0.000000  0.000000  1.000000 /   0.408248  0.408248  0.816497 ->   0.1834415566
    4:   0.577350  0.577350  0.577350 /   0.585539  0.688047  0.428644 ->   0.1834415566
    5:   0.000000  0.707107  0.707107 /   0.289489  0.762222  0.578977 ->   0.1834415566
    6:   0.707107  0.000000  0.707107 /   0.731423  0.422287  0.535439 ->   0.1834415566
    7:   0.707107  0.707107  0.000000 /   0.616798  0.787122  0.000000 ->   0.1834415566

 END OF EFFECTIVE MASSES SECTION

 ---- first-order wavefunction calculations are completed ----

 Total localisation tensor (bohr^2) in cartesian coordinates
  WARNING : still subject to testing - especially symmetries.
      direction              matrix element
   alpha     beta       real part   imaginary part
     1        1       3.3370736141    0.0000000000
     1        2       0.9438669528    0.0000000000
     1        3       2.3119924194    0.0000000000
     2        1       0.9438669528    0.0000000000
     2        2       2.6696588913    0.0000000000
     2        3       1.6348255178    0.0000000000
     3        1       2.3119924194    0.0000000000
     3        2       1.6348255178    0.0000000000
     3        3       6.0067325054    0.0000000000

 respfn : d/dk was computed, but no 2DTE, so no DDB output.

== END DATASET(S) ==============================================================

 -outvars: echo values of variables after computation  --------
            acell      1.0000000000E+00  1.0000000000E+00  1.0000000000E+00 Bohr
              amu      2.43050000E+01  7.89600000E+01
             ecut      4.30000000E+01 Hartree
           etotal     -6.0803500996E+01
            fcart      0.0000000000E+00  0.0000000000E+00  0.0000000000E+00
                       0.0000000000E+00  0.0000000000E+00  0.0000000000E+00
-          fftalg         512
           irdden           1
           irdwfk           1
           istwfk        1
              ixc     -116133
           kptopt           0
P           mkmem           1
P          mkqmem           1
P          mk1mem           1
            natom           2
            nband          22
           nbdbuf           4
            ngfft          48      48      48
             nkpt           1
            nstep         100
             nsym          24
           ntypat           2
              occ      2.000000  2.000000  2.000000  2.000000  2.000000  2.000000
                       2.000000  2.000000  2.000000  2.000000  2.000000  2.000000
                       2.000000  0.000000  0.000000  0.000000  0.000000  0.000000
                       0.000000  0.000000  0.000000  0.000000
        optdriver           1
            prtwf          -1
            rfdir           1       1       1
           rfelfd           2
            rprim      6.8714131044E+00  0.0000000000E+00  3.9672122056E+00
                       2.2904710348E+00  6.4784304033E+00  3.9672122056E+00
                       0.0000000000E+00  0.0000000000E+00  7.9344244111E+00
          spgroup         216
           strten      0.0000000000E+00  0.0000000000E+00  0.0000000000E+00
                       0.0000000000E+00  0.0000000000E+00  0.0000000000E+00
           symrel      1  0  0   0  1  0   0  0  1       0 -1  1   0 -1  0   1 -1  0
                      -1  0  0  -1  0  1  -1  1  0       0  1 -1   1  0 -1   0  0 -1
                      -1  0  0  -1  1  0  -1  0  1       0 -1  1   1 -1  0   0 -1  0
                       1  0  0   0  0  1   0  1  0       0  1 -1   0  0 -1   1  0 -1
                      -1  0  1  -1  1  0  -1  0  0       0 -1  0   1 -1  0   0 -1  1
                       1  0 -1   0  0 -1   0  1 -1       0  1  0   0  0  1   1  0  0
                       1  0 -1   0  1 -1   0  0 -1       0 -1  0   0 -1  1   1 -1  0
                      -1  0  1  -1  0  0  -1  1  0       0  1  0   1  0  0   0  0  1
                       0  0 -1   0  1 -1   1  0 -1       1 -1  0   0 -1  1   0 -1  0
                       0  0  1   1  0  0   0  1  0      -1  1  0  -1  0  0  -1  0  1
                       0  0  1   0  1  0   1  0  0       1 -1  0   0 -1  0   0 -1  1
                       0  0 -1   1  0 -1   0  1 -1      -1  1  0  -1  0  1  -1  0  0
           tolwfr      1.00000000E-20
            typat      1  2
           useylm           1
           xangst      0.0000000000E+00  0.0000000000E+00  0.0000000000E+00
                       3.6361952057E+00  2.5711782876E+00  6.2980748425E+00
            xcart      0.0000000000E+00  0.0000000000E+00  0.0000000000E+00
                       6.8714131044E+00  4.8588228025E+00  1.1901636617E+01
             xred      0.0000000000E+00  0.0000000000E+00  0.0000000000E+00
                       7.5000000000E-01  7.5000000000E-01  7.5000000000E-01
            znucl       12.00000   34.00000

- Timing analysis has been suppressed with timopt=0

 Suggested references for the acknowledgment of ABINIT usage.

 Calculation completed.
.Delivered   6 WARNINGs and   5 COMMENTs to log file.