.Version 9.5.2 of ABINIT

 ABINIT is a project of the Universite Catholique de Louvain,
 Corning Inc. and other collaborators, see ~abinit/doc/developers/contributors.txt .
 acknowledgments of the ABINIT effort.

.Starting date : Mon 31 May 2021.
- ( at 22h13 )

- input  file    -> /scratch/users/j/a/jabreu/flow_simple_11atoms/flow/w351/t1/run.abi
- output file    -> /scratch/users/j/a/jabreu/flow_simple_11atoms/flow/w351/t1/run.abo
- root for input  files -> /scratch/users/j/a/jabreu/flow_simple_11atoms/flow/w351/t1/indata/in
- root for output files -> /scratch/users/j/a/jabreu/flow_simple_11atoms/flow/w351/t1/outdata/out

 Symmetries : space group Cm c m (# 63); Bravais oC (1-face-center ortho.)
     intxc =       0      iscf =       7    lmnmax =      18     lnmax =       6
     mgfft =      90  mpssoang =       3    mqgrid =    4033     natom =      12
  nloc_mem =       1    nspden =       1   nspinor =       1    nsppol =       1
      nsym =       8    n1xccc =    2501    ntypat =       3    occopt =       1
   xclevel =       2
-    mband =          51        mffmem =           1         mkmem =           2
-   mkqmem =           2        mk1mem =           2           mpw =       14902
      nfft =      324000          nkpt =           2
  Rough estimation (10% accuracy) of disk space for files :

------------- Echo of variables that govern the present computation ------------
-
- outvars: echo of selected default values
-   iomode0 =  0 , fftalg0 =512 , wfoptalg0 =  0
-
- outvars: echo of global parameters not present in the input file
-  max_nthreads =    0
-
 -outvars: echo values of preprocessed input variables --------
            acell      1.0000000000E+00  1.0000000000E+00  1.0000000000E+00 Bohr
              amu      2.04383300E+02  3.09737620E+01  1.59994000E+01
             ecut      4.40000000E+01 Hartree
-          fftalg         512
           irdden           1
           irdwfk           1
           istwfk        0    1
              ixc     -116133
              kpt     -5.00000000E-01  5.00000000E-01  0.00000000E+00
                       0.00000000E+00  0.00000000E+00  0.00000000E+00
           kptopt           0
P           mkmem           2
P          mkqmem           2
P          mk1mem           2
            natom          12
            nband          51
           nbdbuf           4
            ngfft          60      60      90
             nkpt           2
            nstep        2000
             nsym           8
           ntypat           3
              occ      2.000000  2.000000  2.000000  2.000000  2.000000  2.000000
                       2.000000  2.000000  2.000000  2.000000  2.000000  2.000000
                       2.000000  2.000000  2.000000  2.000000  2.000000  2.000000
                       2.000000  2.000000  2.000000  2.000000  2.000000  2.000000
                       2.000000  2.000000  2.000000  2.000000  2.000000  2.000000
                       2.000000  2.000000  2.000000  2.000000  2.000000  2.000000
                       2.000000  2.000000  2.000000  2.000000  2.000000  2.000000
                       0.000000  0.000000  0.000000  0.000000  0.000000  0.000000
                       0.000000  0.000000  0.000000
        optdriver           1
            prtwf          -1
            rfdir           1       1       1
           rfelfd           2
            rprim      9.2443352798E+00  0.0000000000E+00  0.0000000000E+00
                      -3.5419334183E+00  8.5388782885E+00  0.0000000000E+00
                       0.0000000000E+00  0.0000000000E+00  1.3505083501E+01
          spgroup          63
           symrel      1  0  0   0  1  0   0  0  1      -1  0  0   0 -1  0   0  0 -1
                       0 -1  0  -1  0  0   0  0 -1       0  1  0   1  0  0   0  0  1
                      -1  0  0   0 -1  0   0  0  1       1  0  0   0  1  0   0  0 -1
                       0  1  0   1  0  0   0  0 -1       0 -1  0  -1  0  0   0  0  1
            tnons      0.0000000  0.0000000  0.0000000     0.0000000  0.0000000  0.0000000
                       0.0000000  0.0000000  0.5000000     0.0000000  0.0000000  0.5000000
                       0.0000000  0.0000000  0.5000000     0.0000000  0.0000000  0.5000000
                       0.0000000  0.0000000  0.0000000     0.0000000  0.0000000  0.0000000
           tolwfr      1.00000000E-20
            typat      1  1  2  2  3  3  3  3  3  3  3  3
           useylm           1
              wtk        0.50000    0.50000
           xangst      0.0000000000E+00  0.0000000000E+00  3.5732911944E+00
                       0.0000000000E+00  0.0000000000E+00  0.0000000000E+00
                       2.5012908868E+00  1.5964820140E+00  1.7866455972E+00
                       5.1629021253E-01  2.9220977632E+00  5.3599367916E+00
                      -1.3100526589E-01  3.3543722162E+00  4.0456731437E+00
                       3.1485863652E+00  1.1642075610E+00  4.7238194932E-01
                       3.1485863652E+00  1.1642075610E+00  3.1009092451E+00
                      -1.3100526589E-01  3.3543722162E+00  6.6742004395E+00
                       1.9886288430E+00  3.4679964233E+00  5.3599367916E+00
                       1.0289522563E+00  1.0505833539E+00  1.7866455972E+00
                       2.4414095470E+00  3.1656221017E+00  1.7866455972E+00
                       5.7617155236E-01  1.3529576755E+00  5.3599367916E+00
            xcart      0.0000000000E+00  0.0000000000E+00  6.7525417505E+00
                       0.0000000000E+00  0.0000000000E+00  0.0000000000E+00
                       4.7267547547E+00  3.0169137825E+00  3.3762708752E+00
                       9.7564710677E-01  5.5219645060E+00  1.0128812626E+01
                      -2.4756407450E-01  6.3388448363E+00  7.6452142648E+00
                       5.9499659360E+00  2.2000334522E+00  8.9267251433E-01
                       5.9499659360E+00  2.2000334522E+00  5.8598692361E+00
                      -2.4756407450E-01  6.3388448363E+00  1.2612410987E+01
                       3.7579638932E+00  6.5535634698E+00  1.0128812626E+01
                       1.9444379683E+00  1.9853148187E+00  3.3762708752E+00
                       4.6135954220E+00  5.9821588125E+00  3.3762708752E+00
                       1.0888064395E+00  2.5567194760E+00  1.0128812626E+01
             xred      0.0000000000E+00  0.0000000000E+00  5.0000000000E-01
                       0.0000000000E+00  0.0000000000E+00  0.0000000000E+00
                       6.4668500000E-01  3.5331500000E-01  2.5000000000E-01
                       3.5331500000E-01  6.4668500000E-01  7.5000000000E-01
                       2.5764900000E-01  7.4235100000E-01  5.6609900000E-01
                       7.4235100000E-01  2.5764900000E-01  6.6099000000E-02
                       7.4235100000E-01  2.5764900000E-01  4.3390100000E-01
                       2.5764900000E-01  7.4235100000E-01  9.3390100000E-01
                       7.0057900000E-01  7.6749700000E-01  7.5000000000E-01
                       2.9942100000E-01  2.3250300000E-01  2.5000000000E-01
                       7.6749700000E-01  7.0057900000E-01  2.5000000000E-01
                       2.3250300000E-01  2.9942100000E-01  7.5000000000E-01
            znucl       81.00000   15.00000    8.00000

 chkinp: Checking input parameters for consistency.

== DATASET  1 ==================================================================
-   mpi_nproc: 1, omp_nthreads: -1 (-1 if OMP is not activated)

--- !DatasetInfo
iteration_state: {dtset: 1, }
dimensions: {natom: 12, nkpt: 2, mband: 51, nsppol: 1, nspinor: 1, nspden: 1, mpw: 14902, }
cutoff_energies: {ecut:  44.0, pawecutdg:  -1.0, }
electrons: {nelect:   8.40000000E+01, charge:   0.00000000E+00, occopt:   1.00000000E+00, tsmear:   1.00000000E-02, }
meta: {optdriver: 1, rfelfd: 2, }
...

 Real(R)+Recip(G) space primitive vectors, cartesian coordinates (Bohr,Bohr^-1):
 R(1)=  9.2443353  0.0000000  0.0000000  G(1)=  0.1081744  0.0448708  0.0000000
 R(2)= -3.5419334  8.5388783  0.0000000  G(2)=  0.0000000  0.1171114  0.0000000
 R(3)=  0.0000000  0.0000000 13.5050835  G(3)=  0.0000000  0.0000000  0.0740462
 Unit cell volume ucvol=  1.0660407E+03 bohr^3
 Angles (23,13,12)=  9.00000000E+01  9.00000000E+01  1.12528712E+02 degrees

 getcut: wavevector=  0.0000  0.0000  0.0000  ngfft=  60  60  90
         ecut(hartree)=     44.000   => boxcut(ratio)=   2.17397

--- Pseudopotential description ------------------------------------------------
- pspini: atom type   1  psp file is /scratch/users/j/a/jabreu/pseudos/PBEsol/Tl.psp8
- pspatm: opening atomic psp file    /scratch/users/j/a/jabreu/pseudos/PBEsol/Tl.psp8
- Tl    ONCVPSP-3.3.0  r_core=   2.10510   2.60929   2.00701
- 81.00000  13.00000    180112                znucl, zion, pspdat
    8 -116133    2    4       600   0.00000   pspcod,pspxc,lmax,lloc,mmax,r2well
    5.99000000000000    7.00000000000000    0.00000000000000   rchrg,fchrg,qchrg
     nproj     2     2     2
     extension_switch     1
  pspatm : epsatm=   37.24354552
         --- l  ekb(1:nproj) -->
             0    6.297242    0.908324
             1    4.393460    0.899003
             2   -2.697741   -0.589563
 pspatm: atomic psp has been read  and splines computed

- pspini: atom type   2  psp file is /scratch/users/j/a/jabreu/pseudos/PBEsol/P.psp8
- pspatm: opening atomic psp file    /scratch/users/j/a/jabreu/pseudos/PBEsol/P.psp8
- P     ONCVPSP-3.3.0  r_core=   1.46089   1.55067   1.70594
- 15.00000   5.00000    180112                znucl, zion, pspdat
    8 -116133    2    4       600   0.00000   pspcod,pspxc,lmax,lloc,mmax,r2well
    5.99000000000000    5.00000000000000    0.00000000000000   rchrg,fchrg,qchrg
     nproj     2     2     2
     extension_switch     1
  pspatm : epsatm=    7.31221086
         --- l  ekb(1:nproj) -->
             0    6.742364    1.063650
             1    3.449117    0.910422
             2   -3.077645   -0.799176
 pspatm: atomic psp has been read  and splines computed

- pspini: atom type   3  psp file is /scratch/users/j/a/jabreu/pseudos/PBEsol/O.psp8
- pspatm: opening atomic psp file    /scratch/users/j/a/jabreu/pseudos/PBEsol/O.psp8
- O     ONCVPSP-3.3.0  r_core=   1.35509   1.45563   1.26150
-  8.00000   6.00000    180112                znucl, zion, pspdat
    8 -116133    2    4       600   0.00000   pspcod,pspxc,lmax,lloc,mmax,r2well
    5.99000000000000    4.00000000000000    0.00000000000000   rchrg,fchrg,qchrg
     nproj     2     2     1
     extension_switch     1
  pspatm : epsatm=    6.22910522
         --- l  ekb(1:nproj) -->
             0    6.050032    0.820363
             1   -4.739617   -1.153841
             2   -1.335834
 pspatm: atomic psp has been read  and splines computed

   1.16713258E+04                                ecore*ucvol(ha*bohr**3)

 ==>  initialize data related to q vector <==

 The list of irreducible perturbations for this q vector is:
    1)    idir= 1    ipert=  13
    2)    idir= 2    ipert=  13
    3)    idir= 3    ipert=  13

 Perturbation wavevector (in red.coord.)   0.000000  0.000000  0.000000
 Perturbation : derivative vs k along direction   1

 dfpt_looppert : COMMENT -
[...]
 Expectation of eigenvalue derivatives (hartree) for nkpt=   2  k points:
  (in case of degenerate eigenvalues, averaged derivative)
 kpt#   1, nband= 51, wtk=  0.50000, kpt= -0.5000  0.5000  0.0000 (reduced coord)
  -0.00000   -0.00000    0.00000    0.00000   -0.00000    0.00000    0.00000    0.00000
   0.00000   -0.00000    0.00000   -0.00000   -0.00000    0.00000    0.00000    0.00000
  -0.00000    0.00000   -0.00000   -0.00000   -0.00000   -0.00000    0.00000   -0.00000
   0.00000    0.00000    0.00000    0.00000    0.00000   -0.00000    0.00000   -0.00000
   0.00000    0.00000   -0.00000   -0.00000    0.00000   -0.00000    0.00000    0.00000
   0.00000    0.00000    0.00000   -0.00000   -0.00000    0.00000    0.00000    0.00000
  -0.00000    0.01048   -0.00086
 prteigrs : prtvol=0 or 1, do not print more k-points.

 Eight components of 2nd-order total energy (hartree) are
 1,2,3: 0th-order hamiltonian combined with 1st-order wavefunctions
     kin0=   9.07418035E+01 eigvalue=   4.05738092E+00  local=  -4.27091115E+01
 4,5,6: 1st-order hamiltonian combined with 1st and 0th-order wfs
     kin1=  -9.83677755E+01  Hartree=   0.00000000E+00     xc=   0.00000000E+00
 7,8,9: eventually, occupation + non-local contributions
    edocc=   1.09730470E+01     enl0=   3.42757049E+00   enl1=  -3.46136054E+01
 1-9 gives the relaxation energy (to be shifted if some occ is /=2.0)
   erelax=  -6.64906904E+01
  No Ewald or frozen-wf contrib.: the relaxation energy is the total one
 2DEtotal=   -0.6649069043E+02 Ha. Also 2DEtotal=   -0.180930370037E+04 eV
    (  non-var. 2DEtotal :   -6.6490690428E+01 Ha)

 Perturbation wavevector (in red.coord.)   0.000000  0.000000  0.000000
 Perturbation : derivative vs k along direction   2
 The set of symmetries contains only one element for this perturbation.
 symkpt : not enough symmetry to change the number of k points.

[...]

 Perturbation wavevector (in red.coord.)   0.000000  0.000000  0.000000
 Perturbation : derivative vs k along direction   3
 The set of symmetries contains only one element for this perturbation.
 symkpt : not enough symmetry to change the number of k points.

 Initialisation of the first-order wave-functions :
  ireadwf=   0

--- !BeginCycle
iteration_state: {dtset: 1, }
solver: {iscf: 7, nstep: 2000, nline: 4, wfoptalg: 0, }
tolerances: {tolwfr: 1.00E-20, }
...

     iter   2DEtotal(Ha)        deltaE(Ha) residm    vres2
-ETOT  1  -25.783826349580     -2.578E+01 5.177E-02 0.000E+00
 ETOT  2  -25.811303623802     -2.748E-02 3.574E-03 0.000E+00
 ETOT  3  -25.811529535383     -2.259E-04 2.099E-04 0.000E+00
 ETOT  4  -25.811533464332     -3.929E-06 3.524E-05 0.000E+00
 ETOT  5  -25.811533552527     -8.820E-08 4.817E-06 0.000E+00
 ETOT  6  -25.811533554734     -2.207E-09 1.138E-06 0.000E+00
 ETOT  7  -25.811533554793     -5.913E-11 1.018E-07 0.000E+00
 ETOT  8  -25.811533554795     -1.663E-12 4.517E-08 0.000E+00
 ETOT  9  -25.811533554795     -4.263E-14 2.350E-09 0.000E+00
 ETOT 10  -25.811533554795      7.105E-15 1.905E-09 0.000E+00
 ETOT 11  -25.811533554795     -7.105E-15 9.060E-11 0.000E+00
 ETOT 12  -25.811533554795      7.105E-15 8.028E-11 0.000E+00
 ETOT 13  -25.811533554795     -2.132E-14 3.539E-12 0.000E+00
 ETOT 14  -25.811533554795      0.000E+00 3.394E-12 0.000E+00
 ETOT 15  -25.811533554795      0.000E+00 1.423E-13 0.000E+00
 ETOT 16  -25.811533554795      0.000E+00 1.446E-13 0.000E+00
 ETOT 17  -25.811533554795      7.105E-15 5.962E-15 0.000E+00
 ETOT 18  -25.811533554795     -7.105E-15 6.224E-15 0.000E+00
 ETOT 19  -25.811533554795      0.000E+00 2.587E-16 0.000E+00
 ETOT 20  -25.811533554795      0.000E+00 2.708E-16 0.000E+00
 ETOT 21  -25.811533554795      7.105E-15 1.152E-17 0.000E+00
 ETOT 22  -25.811533554795      0.000E+00 1.191E-17 0.000E+00
 ETOT 23  -25.811533554795     -7.105E-15 5.210E-19 0.000E+00
 ETOT 24  -25.811533554795      3.553E-15 5.295E-19 0.000E+00
 ETOT 25  -25.811533554795     -3.553E-15 2.382E-20 0.000E+00
 ETOT 26  -25.811533554795      7.105E-15 2.378E-20 0.000E+00
 ETOT 27  -25.811533554795      0.000E+00 9.924E-21 0.000E+00

 At SCF step   27   max residual=  9.92E-21 < tolwfr=  1.00E-20 =>converged.

 ----iterations are completed or convergence reached----

 dfpt_looppert: DFPT cycle converged with prtwf=-1. Will skip output of the 1st-order WFK file.
 dfpt_looppert : ek2=    3.6364236279E+01
          f-sum rule ratio=    1.0301161305E+00
 prteigrs : about to open file /scratch/users/j/a/jabreu/flow_simple_11atoms/flow/w351/t1/tmpdata/tmp_1WF1_EIG
 Expectation of eigenvalue derivatives (hartree) for nkpt=   2  k points:
  (in case of degenerate eigenvalues, averaged derivative)
 kpt#   1, nband= 51, wtk=  0.50000, kpt= -0.5000  0.5000  0.0000 (reduced coord)
   0.00000    0.00000    0.00000   -0.00000   -0.00000    0.00000    0.00000   -0.00000
  -0.00000   -0.00000    0.00000    0.00000   -0.00000    0.00000    0.00000   -0.00000
   0.00000    0.00000    0.00000    0.00000    0.00000    0.00000   -0.00000    0.00000
   0.00000   -0.00000   -0.00000    0.00000    0.00000   -0.00000   -0.00000   -0.00000
  -0.00000   -0.00000   -0.00000    0.00000   -0.00000   -0.00000   -0.00000    0.00000
  -0.00000    0.00000   -0.00000    0.00000   -0.00000    0.00000    0.00000   -0.00000
   0.00000    0.00009    0.00006
 prteigrs : prtvol=0 or 1, do not print more k-points.

 Eight components of 2nd-order total energy (hartree) are
 1,2,3: 0th-order hamiltonian combined with 1st-order wavefunctions
     kin0=   3.57362233E+01 eigvalue=   1.67735616E+00  local=  -1.70445117E+01
 4,5,6: 1st-order hamiltonian combined with 1st and 0th-order wfs
     kin1=  -3.74593864E+01  Hartree=   0.00000000E+00     xc=   0.00000000E+00
 7,8,9: eventually, occupation + non-local contributions
    edocc=   4.06328308E+00     enl0=   1.37918264E+00   enl1=  -1.41636807E+01
 1-9 gives the relaxation energy (to be shifted if some occ is /=2.0)
   erelax=  -2.58115336E+01
  No Ewald or frozen-wf contrib.: the relaxation energy is the total one
 2DEtotal=   -0.2581153355E+02 Ha. Also 2DEtotal=   -0.702367547575E+03 eV
    (  non-var. 2DEtotal :   -2.5811533554E+01 Ha)

 CALCULATION OF EFFECTIVE MASSES
 NOTE : Additional infos (eff. mass eigenvalues, eigenvectors and, if degenerate, average mass) are available in stdout.

 K-point (-0.500, 0.500, 0.000) | band =    42
 Effective mass tensor:
             -1.6189464407              0.4554672885             -0.0003386487
              0.4554672885             -1.2407349111              0.0000113104
             -0.0003386487              0.0000113104             -1.6792429651
 Effective mass tensor eigenvalues:
             -1.9230057362             -1.6792426679             -0.9366759128
 Angular average effective mass 1/(<1/m>)=  -1.3741732023
 Angular average effective mass for Frohlich model (<m**0.5>)**2=  -1.4181566352
 Effective masses along directions: (cart. coord. / red. coord. -> eff. mass)
    1:   1.000000  0.000000  0.000000 /   0.933804 -0.357784  0.000000 ->  -1.4517467176
    2:   0.000000  1.000000  0.000000 /   0.000000  1.000000  0.000000 ->  -1.1125957383
    3:   0.000000  0.000000  1.000000 /   0.000000  0.000000  1.000000 ->  -1.6792428879
    4:   0.577350  0.577350  0.577350 /   0.540231  0.292017  0.789225 ->  -1.1158659410
    5:   0.000000  0.707107  0.707107 /   0.000000  0.534411  0.845225 ->  -1.3384948885
    6:   0.707107  0.000000  0.707107 /   0.552070 -0.211524  0.806521 ->  -1.5575627245
    7:   0.707107  0.707107  0.000000 /   0.879706  0.475518  0.000000 ->  -0.9554051133

 K-point ( 0.000, 0.000, 0.000) | band =    43
 Effective mass tensor:
              0.3139989099              0.0069353751              0.0000011358
              0.0069353751              0.3197493198             -0.0000007515
              0.0000011358             -0.0000007515              0.3013313000
 Effective mass tensor eigenvalues:
              0.3013312998              0.3093663703              0.3243818596
 Angular average effective mass 1/(<1/m>)=   0.3114033959
 Angular average effective mass for Frohlich model (<m**0.5>)**2=   0.3114898344
 Effective masses along directions: (cart. coord. / red. coord. -> eff. mass)
    1:   1.000000  0.000000  0.000000 /   0.933804 -0.357784  0.000000 ->   0.3138484813
    2:   0.000000  1.000000  0.000000 /   0.000000  1.000000  0.000000 ->   0.3195961364
    3:   0.000000  0.000000  1.000000 /   0.000000  0.000000  1.000000 ->   0.3013313000
    4:   0.577350  0.577350  0.577350 /   0.540231  0.292017  0.789225 ->   0.3159365251
    5:   0.000000  0.707107  0.707107 /   0.000000  0.534411  0.845225 ->   0.3101943085
    6:   0.707107  0.000000  0.707107 /   0.552070 -0.211524  0.806521 ->   0.3074636975
    7:   0.707107  0.707107  0.000000 /   0.879706  0.475518  0.000000 ->   0.3237828175

 END OF EFFECTIVE MASSES SECTION

 ---- first-order wavefunction calculations are completed ----

 Total localisation tensor (bohr^2) in cartesian coordinates
  WARNING : still subject to testing - especially symmetries.
      direction              matrix element
   alpha     beta       real part   imaginary part
     1        1       1.2572375380    0.0000000000
     1        2      -0.3879892271    0.0000000000
     1        3       0.0000000000    0.0000000000
     2        1      -0.3879892271    0.0000000000
     2        2       0.9353628079    0.0000000000
     2        3       0.0000000000    0.0000000000
     3        1       0.0000000000    0.0000000000
     3        2       0.0000000000    0.0000000000
     3        3       0.8338587927    0.0000000000

 respfn : d/dk was computed, but no 2DTE, so no DDB output.

== END DATASET(S) ==============================================================

 -outvars: echo values of variables after computation  --------
            acell      1.0000000000E+00  1.0000000000E+00  1.0000000000E+00 Bohr
              amu      2.04383300E+02  3.09737620E+01  1.59994000E+01
             ecut      4.40000000E+01 Hartree
           etotal     -2.5811533555E+01
            fcart      0.0000000000E+00  0.0000000000E+00  0.0000000000E+00
                       0.0000000000E+00  0.0000000000E+00  0.0000000000E+00
                       0.0000000000E+00  0.0000000000E+00  0.0000000000E+00
                       0.0000000000E+00  0.0000000000E+00  0.0000000000E+00
                       0.0000000000E+00  0.0000000000E+00  0.0000000000E+00
                       0.0000000000E+00  0.0000000000E+00  0.0000000000E+00
                       0.0000000000E+00  0.0000000000E+00  0.0000000000E+00
                       0.0000000000E+00  0.0000000000E+00  0.0000000000E+00
                       0.0000000000E+00  0.0000000000E+00  0.0000000000E+00
                       0.0000000000E+00  0.0000000000E+00  0.0000000000E+00
                       0.0000000000E+00  0.0000000000E+00  0.0000000000E+00
                       0.0000000000E+00  0.0000000000E+00  0.0000000000E+00
-          fftalg         512
           irdden           1
           irdwfk           1
           istwfk        0    1
              ixc     -116133
              kpt     -5.00000000E-01  5.00000000E-01  0.00000000E+00
                       0.00000000E+00  0.00000000E+00  0.00000000E+00
           kptopt           0
P           mkmem           2
P          mkqmem           2
P          mk1mem           2
            natom          12
            nband          51
           nbdbuf           4
            ngfft          60      60      90
             nkpt           2
            nstep        2000
             nsym           8
           ntypat           3
              occ      2.000000  2.000000  2.000000  2.000000  2.000000  2.000000
                       2.000000  2.000000  2.000000  2.000000  2.000000  2.000000
                       2.000000  2.000000  2.000000  2.000000  2.000000  2.000000
                       2.000000  2.000000  2.000000  2.000000  2.000000  2.000000
                       2.000000  2.000000  2.000000  2.000000  2.000000  2.000000
                       2.000000  2.000000  2.000000  2.000000  2.000000  2.000000
                       2.000000  2.000000  2.000000  2.000000  2.000000  2.000000
                       0.000000  0.000000  0.000000  0.000000  0.000000  0.000000
                       0.000000  0.000000  0.000000
        optdriver           1
            prtwf          -1
            rfdir           1       1       1
           rfelfd           2
            rprim      9.2443352798E+00  0.0000000000E+00  0.0000000000E+00
                      -3.5419334183E+00  8.5388782885E+00  0.0000000000E+00
                       0.0000000000E+00  0.0000000000E+00  1.3505083501E+01
          spgroup          63
           strten      0.0000000000E+00  0.0000000000E+00  0.0000000000E+00
                       0.0000000000E+00  0.0000000000E+00  0.0000000000E+00
           symrel      1  0  0   0  1  0   0  0  1      -1  0  0   0 -1  0   0  0 -1
                       0 -1  0  -1  0  0   0  0 -1       0  1  0   1  0  0   0  0  1
                      -1  0  0   0 -1  0   0  0  1       1  0  0   0  1  0   0  0 -1
                       0  1  0   1  0  0   0  0 -1       0 -1  0  -1  0  0   0  0  1
            tnons      0.0000000  0.0000000  0.0000000     0.0000000  0.0000000  0.0000000
                       0.0000000  0.0000000  0.5000000     0.0000000  0.0000000  0.5000000
                       0.0000000  0.0000000  0.5000000     0.0000000  0.0000000  0.5000000
                       0.0000000  0.0000000  0.0000000     0.0000000  0.0000000  0.0000000
           tolwfr      1.00000000E-20
            typat      1  1  2  2  3  3  3  3  3  3  3  3
           useylm           1
              wtk        0.50000    0.50000
           xangst      0.0000000000E+00  0.0000000000E+00  3.5732911944E+00
                       0.0000000000E+00  0.0000000000E+00  0.0000000000E+00
                       2.5012908868E+00  1.5964820140E+00  1.7866455972E+00
                       5.1629021253E-01  2.9220977632E+00  5.3599367916E+00
                      -1.3100526589E-01  3.3543722162E+00  4.0456731437E+00
                       3.1485863652E+00  1.1642075610E+00  4.7238194932E-01
                       3.1485863652E+00  1.1642075610E+00  3.1009092451E+00
                      -1.3100526589E-01  3.3543722162E+00  6.6742004395E+00
                       1.9886288430E+00  3.4679964233E+00  5.3599367916E+00
                       1.0289522563E+00  1.0505833539E+00  1.7866455972E+00
                       2.4414095470E+00  3.1656221017E+00  1.7866455972E+00
                       5.7617155236E-01  1.3529576755E+00  5.3599367916E+00
            xcart      0.0000000000E+00  0.0000000000E+00  6.7525417505E+00
                       0.0000000000E+00  0.0000000000E+00  0.0000000000E+00
                       4.7267547547E+00  3.0169137825E+00  3.3762708752E+00
                       9.7564710677E-01  5.5219645060E+00  1.0128812626E+01
                      -2.4756407450E-01  6.3388448363E+00  7.6452142648E+00
                       5.9499659360E+00  2.2000334522E+00  8.9267251433E-01
                       5.9499659360E+00  2.2000334522E+00  5.8598692361E+00
                      -2.4756407450E-01  6.3388448363E+00  1.2612410987E+01
                       3.7579638932E+00  6.5535634698E+00  1.0128812626E+01
                       1.9444379683E+00  1.9853148187E+00  3.3762708752E+00
                       4.6135954220E+00  5.9821588125E+00  3.3762708752E+00
                       1.0888064395E+00  2.5567194760E+00  1.0128812626E+01
             xred      0.0000000000E+00  0.0000000000E+00  5.0000000000E-01
                       0.0000000000E+00  0.0000000000E+00  0.0000000000E+00
                       6.4668500000E-01  3.5331500000E-01  2.5000000000E-01
                       3.5331500000E-01  6.4668500000E-01  7.5000000000E-01
                       2.5764900000E-01  7.4235100000E-01  5.6609900000E-01
                       7.4235100000E-01  2.5764900000E-01  6.6099000000E-02
                       7.4235100000E-01  2.5764900000E-01  4.3390100000E-01
                       2.5764900000E-01  7.4235100000E-01  9.3390100000E-01
                       7.0057900000E-01  7.6749700000E-01  7.5000000000E-01
                       2.9942100000E-01  2.3250300000E-01  2.5000000000E-01
                       7.6749700000E-01  7.0057900000E-01  2.5000000000E-01
                       2.3250300000E-01  2.9942100000E-01  7.5000000000E-01
            znucl       81.00000   15.00000    8.00000

- Timing analysis has been suppressed with timopt=0

 Suggested references for the acknowledgment of ABINIT usage.

 Calculation completed.
.Delivered   2 WARNINGs and   5 COMMENTs to log file.