.Version 9.5.2 of ABINIT

 ABINIT is a project of the Universite Catholique de Louvain,
 Corning Inc. and other collaborators, see ~abinit/doc/developers/contributors.txt .
 acknowledgments of the ABINIT effort.

.Starting date : Mon 24 May 2021.
- ( at 20h54 )

- input  file    -> /scratch/users/j/a/jabreu/flow_simple_10atoms/flow/w385/t1/run.abi
- output file    -> /scratch/users/j/a/jabreu/flow_simple_10atoms/flow/w385/t1/run.abo
- root for input  files -> /scratch/users/j/a/jabreu/flow_simple_10atoms/flow/w385/t1/indata/in
- root for output files -> /scratch/users/j/a/jabreu/flow_simple_10atoms/flow/w385/t1/outdata/out

 Symmetries : space group Ib a m (# 72); Bravais oI (body-center ortho.)
     intxc =       0      iscf =       7    lmnmax =      18     lnmax =       6
     mgfft =      96  mpssoang =       3    mqgrid =    3531     natom =      10
  nloc_mem =       1    nspden =       1   nspinor =       1    nsppol =       1
      nsym =       8    n1xccc =    2501    ntypat =       3    occopt =       1
   xclevel =       2
-    mband =          79        mffmem =           1         mkmem =           2
-   mkqmem =           2        mk1mem =           2           mpw =       30403
      nfft =      884736          nkpt =           2
  Rough estimation (10% accuracy) of disk space for files :

------------- Echo of variables that govern the present computation ------------
-
- outvars: echo of selected default values
-   iomode0 =  0 , fftalg0 =512 , wfoptalg0 =  0
-
- outvars: echo of global parameters not present in the input file
-  max_nthreads =    0
-
 -outvars: echo values of preprocessed input variables --------
            acell      1.0000000000E+00  1.0000000000E+00  1.0000000000E+00 Bohr
              amu      3.90983000E+01  6.53900000E+01  1.27600000E+02
             ecut      4.20000000E+01 Hartree
-          fftalg         512
           irdden           1
           irdwfk           1
           istwfk        1    0
              ixc     -116133
              kpt      0.00000000E+00  0.00000000E+00  0.00000000E+00
                       4.48505767E-01  5.51494233E-01 -4.48505767E-01
           kptopt           0
P           mkmem           2
P          mkqmem           2
P          mk1mem           2
            natom          10
            nband          79
           nbdbuf           4
            ngfft          96      96      96
             nkpt           2
            nstep        2000
             nsym           8
           ntypat           3
              occ      2.000000  2.000000  2.000000  2.000000  2.000000  2.000000
                       2.000000  2.000000  2.000000  2.000000  2.000000  2.000000
                       2.000000  2.000000  2.000000  2.000000  2.000000  2.000000
                       2.000000  2.000000  2.000000  2.000000  2.000000  2.000000
                       2.000000  2.000000  2.000000  2.000000  2.000000  2.000000
                       2.000000  2.000000  2.000000  2.000000  2.000000  2.000000
                       2.000000  2.000000  2.000000  2.000000  2.000000  2.000000
                       2.000000  2.000000  2.000000  2.000000  2.000000  2.000000
                       2.000000  2.000000  2.000000  2.000000  2.000000  2.000000
                       2.000000  2.000000  2.000000  2.000000  2.000000  2.000000
                       2.000000  2.000000  2.000000  2.000000  2.000000  2.000000
                       2.000000  2.000000  2.000000  2.000000  0.000000  0.000000
                       0.000000  0.000000  0.000000  0.000000  0.000000  0.000000
                       0.000000
        optdriver           1
            prtwf          -1
            rfdir           1       1       1
           rfelfd           2
            rprim      1.2363084968E+01  0.0000000000E+00 -1.0451615704E+01
                      -2.4309117535E+00  1.1672824906E+01 -1.0950706256E+01
                       0.0000000000E+00  0.0000000000E+00  1.6188951193E+01
          spgroup          72
           symrel      1  0  0   0  1  0   0  0  1      -1  0  0   0 -1  0   0  0 -1
                       0  0  1  -1 -1 -1   1  0  0       0  0 -1   1  1  1  -1  0  0
                      -1 -1 -1   0  0  1   0  1  0       1  1  1   0  0 -1   0 -1  0
                       0  1  0   1  0  0  -1 -1 -1       0 -1  0  -1  0  0   1  1  1
            tnons      0.0000000  0.0000000  0.0000000    -0.0000000 -0.0000000 -0.0000000
                      -0.0000000  0.5000000  0.5000000    -0.0000000  0.5000000  0.5000000
                      -0.0000000  0.0000000  0.0000000     0.0000000 -0.0000000 -0.0000000
                      -0.0000000  0.5000000  0.5000000    -0.0000000  0.5000000  0.5000000
           tolwfr      1.00000000E-20
            typat      1  1  1  1  2  2  3  3  3  3
           useylm           1
              wtk        0.50000    0.50000
           xangst      2.8056991732E+00  8.6695176328E-01 -6.2986154163E-01
                       2.4501805235E+00  5.3100411369E+00 -2.1289354480E+00
                       6.8716379876E-01  2.2215446868E+00  3.9352598275E+00
                       4.5687158979E+00  3.9554482134E+00 -6.6940568172E+00
                      -9.6478732203E-01  4.6327446751E+00  2.0789698755E+00
                      -3.2159577401E-01  1.5442482250E+00  6.9298995850E-01
                       4.0643548265E+00  2.4248156249E+00 -3.5172773537E+00
                       1.1915248702E+00  3.7521772753E+00  7.5848036409E-01
                       5.8369718507E+00  6.6368082517E-01  1.2298266881E+00
                      -5.8109215406E-01  5.5133120750E+00 -3.9886236777E+00
            xcart      5.3020030486E+00  1.6383014030E+00 -1.1902658153E+00
                       4.6301701655E+00  1.0034523503E+01 -4.0231049513E+00
                       1.2985513881E+00  4.1981110500E+00  7.4365633358E+00
                       8.6336218260E+00  7.4747138561E+00 -1.2649934102E+01
                      -1.8231838151E+00  8.7546186796E+00  3.9286837032E+00
                      -6.0772793838E-01  2.9182062265E+00  1.3095612344E+00
                       7.6805175289E+00  4.5822374538E+00 -6.6466909319E+00
                       2.2516556852E+00  7.0905874523E+00  1.4333201653E+00
                       1.1030278243E+01  1.2541749992E+00  2.3240356314E+00
                      -1.0981050292E+00  1.0418649907E+01 -7.5374063980E+00
             xred      4.5645450000E-01  1.4035175000E-01  3.1610275000E-01
                       5.4354550000E-01  8.5964825000E-01  6.8389725000E-01
                       1.7575100000E-01  3.5964825000E-01  8.1610275000E-01
                       8.2424900000E-01  6.4035175000E-01  1.8389725000E-01
                      -1.3877787808E-17  7.5000000000E-01  7.5000000000E-01
                      -1.3877787808E-17  2.5000000000E-01  2.5000000000E-01
                       6.9843300000E-01  3.9255600000E-01  3.0587700000E-01
                       3.0156700000E-01  6.0744400000E-01  6.9412300000E-01
                       9.1332100000E-01  1.0744400000E-01  8.0587700000E-01
                       8.6679000000E-02  8.9255600000E-01  1.9412300000E-01
            znucl       19.00000   30.00000   52.00000

 chkinp: Checking input parameters for consistency.

== DATASET  1 ==================================================================
-   mpi_nproc: 1, omp_nthreads: -1 (-1 if OMP is not activated)

--- !DatasetInfo
iteration_state: {dtset: 1, }
dimensions: {natom: 10, nkpt: 2, mband: 79, nsppol: 1, nspinor: 1, nspden: 1, mpw: 30403, }
cutoff_energies: {ecut:  42.0, pawecutdg:  -1.0, }
electrons: {nelect:   1.40000000E+02, charge:   0.00000000E+00, occopt:   1.00000000E+00, tsmear:   1.00000000E-02, }
meta: {optdriver: 1, rfelfd: 2, }
...

 Real(R)+Recip(G) space primitive vectors, cartesian coordinates (Bohr,Bohr^-1):
 R(1)= 12.3630850  0.0000000-10.4516157  G(1)=  0.0808860  0.0168448  0.0000000
 R(2)= -2.4309118 11.6728249-10.9507063  G(2)=  0.0000000  0.0856691  0.0000000
 R(3)=  0.0000000  0.0000000 16.1889512  G(3)=  0.0522201  0.0688242  0.0617705
 Unit cell volume ucvol=  2.3362620E+03 bohr^3
 Angles (23,13,12)=  1.32565364E+02  1.30210810E+02  7.12141047E+01 degrees

 getcut: wavevector=  0.0000  0.0000  0.0000  ngfft=  96  96  96
         ecut(hartree)=     42.000   => boxcut(ratio)=   2.03284

--- Pseudopotential description ------------------------------------------------
- pspini: atom type   1  psp file is /scratch/users/j/a/jabreu/pseudos/PBEsol/K.psp8
- pspatm: opening atomic psp file    /scratch/users/j/a/jabreu/pseudos/PBEsol/K.psp8
- K     ONCVPSP-3.3.0  r_core=   1.36296   1.46408   1.61068
- 19.00000   9.00000    180112                znucl, zion, pspdat
    8 -116133    2    4       400   0.00000   pspcod,pspxc,lmax,lloc,mmax,r2well
    3.99000000000000    5.00000000000000    0.00000000000000   rchrg,fchrg,qchrg
     nproj     2     2     2
     extension_switch     1
  pspatm : epsatm=    8.32487830
         --- l  ekb(1:nproj) -->
             0   10.921326    0.816676
             1    4.431000    0.560368
             2   -3.384038   -1.043186
 pspatm: atomic psp has been read  and splines computed

- pspini: atom type   2  psp file is /scratch/users/j/a/jabreu/pseudos/PBEsol/Zn.psp8
- pspatm: opening atomic psp file    /scratch/users/j/a/jabreu/pseudos/PBEsol/Zn.psp8
- Zn    ONCVPSP-3.3.0  r_core=   1.35823   1.66358   1.85211
- 30.00000  20.00000    180112                znucl, zion, pspdat
    8 -116133    2    4       600   0.00000   pspcod,pspxc,lmax,lloc,mmax,r2well
    5.99000000000000    2.50000000000000    0.00000000000000   rchrg,fchrg,qchrg
     nproj     2     2     2
     extension_switch     1
  pspatm : epsatm=   26.57343589
         --- l  ekb(1:nproj) -->
             0    2.830835   -1.519107
             1   -4.626739   -1.324150
             2   -6.948510   -2.555500
 pspatm: atomic psp has been read  and splines computed

- pspini: atom type   3  psp file is /scratch/users/j/a/jabreu/pseudos/PBEsol/Te.psp8
- pspatm: opening atomic psp file    /scratch/users/j/a/jabreu/pseudos/PBEsol/Te.psp8
- Te    ONCVPSP-3.3.0  r_core=   2.26547   1.91704   1.80604
- 52.00000  16.00000    180112                znucl, zion, pspdat
    8 -116133    2    4       600   0.00000   pspcod,pspxc,lmax,lloc,mmax,r2well
    5.99000000000000    5.00000000000000    0.00000000000000   rchrg,fchrg,qchrg
     nproj     2     2     2
     extension_switch     1
  pspatm : epsatm=   36.82679836
         --- l  ekb(1:nproj) -->
             0    6.345999    0.785432
             1    5.709019    1.070069
             2   -6.035173   -1.870937
 pspatm: atomic psp has been read  and splines computed

   3.27255010E+04                                ecore*ucvol(ha*bohr**3)

 ==>  initialize data related to q vector <==

 The list of irreducible perturbations for this q vector is:
    1)    idir= 1    ipert=  11
    2)    idir= 2    ipert=  11
    3)    idir= 3    ipert=  11

 Perturbation wavevector (in red.coord.)   0.000000  0.000000  0.000000
 Perturbation : derivative vs k along direction   1

 dfpt_looppert : COMMENT -
  In a d/dk calculation, iscf is set to -3 automatically.
[...]
   0.00000    0.00000   -0.00000    0.00000   -0.00000   -0.00000   -0.00000    0.00000
   0.00000    0.00000   -0.00000    0.00000    0.00000   -0.00000   -0.00000   -0.00000
  -0.00000   -0.00000   -0.00000   -0.00000    0.00000    0.00000   -0.00000    0.00000
  -0.00000    0.00000    0.00000   -0.00000   -0.00000    0.00000    0.00000   -0.00000
  -0.00000    0.00000   -0.00000   -0.00000   -0.00000    0.00000   -0.00000   -0.00000
   0.00000    0.00000    0.00000    0.00000   -0.00000   -0.00000    0.00000    0.00000
   0.00000   -0.00000    0.00000    0.00000    0.00000    0.00000    0.00027
 prteigrs : prtvol=0 or 1, do not print more k-points.

 Eight components of 2nd-order total energy (hartree) are
 1,2,3: 0th-order hamiltonian combined with 1st-order wavefunctions
     kin0=   8.42055928E+01 eigvalue=   1.15970963E+01  local=  -4.39285397E+01
 4,5,6: 1st-order hamiltonian combined with 1st and 0th-order wfs
     kin1=  -7.88760485E+01  Hartree=   0.00000000E+00     xc=   0.00000000E+00
 7,8,9: eventually, occupation + non-local contributions
    edocc=   6.82838941E+00     enl0=   5.57815011E+00   enl1=  -4.96853293E+01
 1-9 gives the relaxation energy (to be shifted if some occ is /=2.0)
   erelax=  -6.42806889E+01
  No Ewald or frozen-wf contrib.: the relaxation energy is the total one
 2DEtotal=   -0.6428068888E+02 Ha. Also 2DEtotal=   -0.174916649982E+04 eV
    (  non-var. 2DEtotal :   -6.4280688877E+01 Ha)

 Perturbation wavevector (in red.coord.)   0.000000  0.000000  0.000000
 Perturbation : derivative vs k along direction   2
 The set of symmetries contains only one element for this perturbation.
 symkpt : not enough symmetry to change the number of k points.

[...]

 Perturbation wavevector (in red.coord.)   0.000000  0.000000  0.000000
 Perturbation : derivative vs k along direction   3
 The set of symmetries contains only one element for this perturbation.
 symkpt : not enough symmetry to change the number of k points.

 Initialisation of the first-order wave-functions :
  ireadwf=   0

--- !BeginCycle
iteration_state: {dtset: 1, }
solver: {iscf: 7, nstep: 2000, nline: 4, wfoptalg: 0, }
tolerances: {tolwfr: 1.00E-20, }
...

     iter   2DEtotal(Ha)        deltaE(Ha) residm    vres2
-ETOT  1  -105.56991276084     -1.056E+02 8.750E-02 0.000E+00
 ETOT  2  -105.81439027710     -2.445E-01 5.128E-03 0.000E+00
 ETOT  3  -105.81818257324     -3.792E-03 3.853E-04 0.000E+00
 ETOT  4  -105.81829630831     -1.137E-04 5.744E-05 0.000E+00
 ETOT  5  -105.81830049437     -4.186E-06 1.038E-05 0.000E+00
 ETOT  6  -105.81830066487     -1.705E-07 2.481E-06 0.000E+00
 ETOT  7  -105.81830067223     -7.360E-09 4.438E-07 0.000E+00
 ETOT  8  -105.81830067256     -3.301E-10 1.118E-07 0.000E+00
 ETOT  9  -105.81830067258     -1.533E-11 1.961E-08 0.000E+00
 ETOT 10  -105.81830067258     -7.958E-13 5.058E-09 0.000E+00
 ETOT 11  -105.81830067258      5.684E-14 8.780E-10 0.000E+00
 ETOT 12  -105.81830067258     -8.527E-14 2.295E-10 0.000E+00
 ETOT 13  -105.81830067258      8.527E-14 3.960E-11 0.000E+00
 ETOT 14  -105.81830067258     -4.263E-14 1.044E-11 0.000E+00
 ETOT 15  -105.81830067258      2.842E-14 1.794E-12 0.000E+00
 ETOT 16  -105.81830067258      4.263E-14 4.759E-13 0.000E+00
 ETOT 17  -105.81830067258     -4.263E-14 8.156E-14 0.000E+00
 ETOT 18  -105.81830067258     -5.684E-14 2.172E-14 0.000E+00
 ETOT 19  -105.81830067258      1.421E-14 3.717E-15 0.000E+00
 ETOT 20  -105.81830067258     -1.421E-14 9.927E-16 0.000E+00
 ETOT 21  -105.81830067258      0.000E+00 1.697E-16 0.000E+00
 ETOT 22  -105.81830067258      1.421E-14 4.542E-17 0.000E+00
 ETOT 23  -105.81830067258     -1.421E-14 7.759E-18 0.000E+00
 ETOT 24  -105.81830067258      1.421E-14 2.080E-18 0.000E+00
 ETOT 25  -105.81830067258      5.684E-14 3.553E-19 0.000E+00
 ETOT 26  -105.81830067258     -2.842E-14 9.531E-20 0.000E+00
 ETOT 27  -105.81830067258      2.842E-14 1.628E-20 0.000E+00
 ETOT 28  -105.81830067258     -4.263E-14 9.728E-21 0.000E+00

 At SCF step   28   max residual=  9.73E-21 < tolwfr=  1.00E-20 =>converged.

 ----iterations are completed or convergence reached----

 dfpt_looppert: DFPT cycle converged with prtwf=-1. Will skip output of the 1st-order WFK file.
 dfpt_looppert : ek2=    1.2468106615E+02
          f-sum rule ratio=    1.0384867243E+00
 prteigrs : about to open file /scratch/users/j/a/jabreu/flow_simple_10atoms/flow/w385/t1/tmpdata/tmp_1WF1_EIG
 Expectation of eigenvalue derivatives (hartree) for nkpt=   2  k points:
  (in case of degenerate eigenvalues, averaged derivative)
 kpt#   1, nband= 79, wtk=  0.50000, kpt=  0.0000  0.0000  0.0000 (reduced coord)
   0.00000    0.00000    0.00000    0.00000   -0.00000    0.00000    0.00000   -0.00000
   0.00000    0.00000    0.00000    0.00000    0.00000    0.00000   -0.00000   -0.00000
  -0.00000   -0.00000   -0.00000   -0.00000   -0.00000    0.00000    0.00000    0.00000
   0.00000    0.00000    0.00000    0.00000   -0.00000    0.00000   -0.00000   -0.00000
   0.00000    0.00000   -0.00000    0.00000    0.00000    0.00000   -0.00000    0.00000
   0.00000   -0.00000   -0.00000   -0.00000   -0.00000    0.00000   -0.00000    0.00000
   0.00000    0.00000   -0.00000    0.00000    0.00000   -0.00000    0.00000    0.00000
   0.00000   -0.00000    0.00000    0.00000   -0.00000   -0.00000    0.00000   -0.00000
   0.00000    0.00000    0.00000    0.00000   -0.00000   -0.00000    0.00000   -0.00000
   0.00000   -0.00000    0.00000    0.00000   -0.00000    0.00000    0.00001
 prteigrs : prtvol=0 or 1, do not print more k-points.

 Eight components of 2nd-order total energy (hartree) are
 1,2,3: 0th-order hamiltonian combined with 1st-order wavefunctions
     kin0=   1.36874097E+02 eigvalue=   1.94066514E+01  local=  -7.11791120E+01
 4,5,6: 1st-order hamiltonian combined with 1st and 0th-order wfs
     kin1=  -1.29479632E+02  Hartree=   0.00000000E+00     xc=   0.00000000E+00
 7,8,9: eventually, occupation + non-local contributions
    edocc=   1.16547715E+01     enl0=   9.06189297E+00   enl1=  -8.21569694E+01
 1-9 gives the relaxation energy (to be shifted if some occ is /=2.0)
   erelax=  -1.05818301E+02
  No Ewald or frozen-wf contrib.: the relaxation energy is the total one
 2DEtotal=   -0.1058183007E+03 Ha. Also 2DEtotal=   -0.287946239901E+04 eV
    (  non-var. 2DEtotal :   -1.0581830067E+02 Ha)

 CALCULATION OF EFFECTIVE MASSES
 NOTE : Additional infos (eff. mass eigenvalues, eigenvectors and, if degenerate, average mass) are available in stdout.

 K-point ( 0.000, 0.000, 0.000) | band =    70
 Effective mass tensor:
             -0.5799111879              0.4911566654              0.6540028947
              0.4911566654             -3.7704051567             -1.0583684415
              0.6540028947             -1.0583684415             -1.6856841782
 Effective mass tensor eigenvalues:
             -4.3476391765             -1.4119533309             -0.2764080154
 Angular average effective mass 1/(<1/m>)=  -0.6584595266
 Angular average effective mass for Frohlich model (<m**0.5>)**2=  -0.9315573713
 Effective masses along directions: (cart. coord. / red. coord. -> eff. mass)
    1:   1.000000  0.000000  0.000000 /   0.981212 -0.192932  0.000000 ->  -0.3240862588
    2:   0.000000  1.000000  0.000000 /   0.000000  1.000000  0.000000 ->  -3.0860158118
    3:   0.000000  0.000000  1.000000 /  -0.471561 -0.494080  0.730421 ->  -0.8722593569
    4:   0.577350  0.577350  0.577350 /   0.116619 -0.104254  0.987690 ->  -0.4501066791
    5:   0.000000  0.707107  0.707107 /  -0.542008  0.037448  0.839539 ->  -1.7767202871
    6:   0.707107  0.000000  0.707107 /   0.090632 -0.634490  0.767599 ->  -0.3064737177
    7:   0.707107  0.707107  0.000000 /   0.800944  0.598739  0.000000 ->  -0.5602773496

 K-point ( 0.449, 0.551,-0.449) | band =    71
 Effective mass tensor:
              0.8447807191             -0.4705134079             -0.1150287357
             -0.4705134079              2.7984118089              1.0135276273
             -0.1150287357              1.0135276273              1.0391505951
 Effective mass tensor eigenvalues:
              0.5397406501              0.7913783995              3.3512240735
 Angular average effective mass 1/(<1/m>)=   0.8785395309
 Angular average effective mass for Frohlich model (<m**0.5>)**2=   1.0014156143
 Effective masses along directions: (cart. coord. / red. coord. -> eff. mass)
    1:   1.000000  0.000000  0.000000 /   0.981212 -0.192932  0.000000 ->   0.7611068519
    2:   0.000000  1.000000  0.000000 /   0.000000  1.000000  0.000000 ->   1.6555645368
    3:   0.000000  0.000000  1.000000 /  -0.471561 -0.494080  0.730421 ->   0.6680657794
    4:   0.577350  0.577350  0.577350 /   0.116619 -0.104254  0.987690 ->   1.1548260038
    5:   0.000000  0.707107  0.707107 /  -0.542008  0.037448  0.839539 ->   2.0403768539
    6:   0.707107  0.000000  0.707107 /   0.090632 -0.634490  0.767599 ->   0.7709516547
    7:   0.707107  0.707107  0.000000 /   0.800944  0.598739  0.000000 ->   0.8202958930

 END OF EFFECTIVE MASSES SECTION

 ---- first-order wavefunction calculations are completed ----

 Total localisation tensor (bohr^2) in cartesian coordinates
  WARNING : still subject to testing - especially symmetries.
      direction              matrix element
   alpha     beta       real part   imaginary part
     1        1       1.1037317123    0.0000000000
     1        2      -0.2066143393    0.0000000000
     1        3      -0.7028745019    0.0000000000
     2        1      -0.2066143393    0.0000000000
     2        2       0.9921269260    0.0000000000
     2        3      -0.9307507499    0.0000000000
     3        1      -0.7028745019    0.0000000000
     3        2      -0.9307507499    0.0000000000
     3        3       4.6468128846    0.0000000000

 respfn : d/dk was computed, but no 2DTE, so no DDB output.

== END DATASET(S) ==============================================================

 -outvars: echo values of variables after computation  --------
            acell      1.0000000000E+00  1.0000000000E+00  1.0000000000E+00 Bohr
              amu      3.90983000E+01  6.53900000E+01  1.27600000E+02
             ecut      4.20000000E+01 Hartree
           etotal     -1.0581830067E+02
            fcart      0.0000000000E+00  0.0000000000E+00  0.0000000000E+00
                       0.0000000000E+00  0.0000000000E+00  0.0000000000E+00
                       0.0000000000E+00  0.0000000000E+00  0.0000000000E+00
                       0.0000000000E+00  0.0000000000E+00  0.0000000000E+00
                       0.0000000000E+00  0.0000000000E+00  0.0000000000E+00
                       0.0000000000E+00  0.0000000000E+00  0.0000000000E+00
                       0.0000000000E+00  0.0000000000E+00  0.0000000000E+00
                       0.0000000000E+00  0.0000000000E+00  0.0000000000E+00
                       0.0000000000E+00  0.0000000000E+00  0.0000000000E+00
                       0.0000000000E+00  0.0000000000E+00  0.0000000000E+00
-          fftalg         512
           irdden           1
           irdwfk           1
           istwfk        1    0
              ixc     -116133
              kpt      0.00000000E+00  0.00000000E+00  0.00000000E+00
                       4.48505767E-01  5.51494233E-01 -4.48505767E-01
           kptopt           0
P           mkmem           2
P          mkqmem           2
P          mk1mem           2
            natom          10
            nband          79
           nbdbuf           4
            ngfft          96      96      96
             nkpt           2
            nstep        2000
             nsym           8
           ntypat           3
              occ      2.000000  2.000000  2.000000  2.000000  2.000000  2.000000
                       2.000000  2.000000  2.000000  2.000000  2.000000  2.000000
                       2.000000  2.000000  2.000000  2.000000  2.000000  2.000000
                       2.000000  2.000000  2.000000  2.000000  2.000000  2.000000
                       2.000000  2.000000  2.000000  2.000000  2.000000  2.000000
                       2.000000  2.000000  2.000000  2.000000  2.000000  2.000000
                       2.000000  2.000000  2.000000  2.000000  2.000000  2.000000
                       2.000000  2.000000  2.000000  2.000000  2.000000  2.000000
                       2.000000  2.000000  2.000000  2.000000  2.000000  2.000000
                       2.000000  2.000000  2.000000  2.000000  2.000000  2.000000
                       2.000000  2.000000  2.000000  2.000000  2.000000  2.000000
                       2.000000  2.000000  2.000000  2.000000  0.000000  0.000000
                       0.000000  0.000000  0.000000  0.000000  0.000000  0.000000
                       0.000000
        optdriver           1
            prtwf          -1
            rfdir           1       1       1
           rfelfd           2
            rprim      1.2363084968E+01  0.0000000000E+00 -1.0451615704E+01
                      -2.4309117535E+00  1.1672824906E+01 -1.0950706256E+01
                       0.0000000000E+00  0.0000000000E+00  1.6188951193E+01
          spgroup          72
           strten      0.0000000000E+00  0.0000000000E+00  0.0000000000E+00
                       0.0000000000E+00  0.0000000000E+00  0.0000000000E+00
           symrel      1  0  0   0  1  0   0  0  1      -1  0  0   0 -1  0   0  0 -1
                       0  0  1  -1 -1 -1   1  0  0       0  0 -1   1  1  1  -1  0  0
                      -1 -1 -1   0  0  1   0  1  0       1  1  1   0  0 -1   0 -1  0
                       0  1  0   1  0  0  -1 -1 -1       0 -1  0  -1  0  0   1  1  1
            tnons      0.0000000  0.0000000  0.0000000    -0.0000000 -0.0000000 -0.0000000
                      -0.0000000  0.5000000  0.5000000    -0.0000000  0.5000000  0.5000000
                      -0.0000000  0.0000000  0.0000000     0.0000000 -0.0000000 -0.0000000
                      -0.0000000  0.5000000  0.5000000    -0.0000000  0.5000000  0.5000000
           tolwfr      1.00000000E-20
            typat      1  1  1  1  2  2  3  3  3  3
           useylm           1
              wtk        0.50000    0.50000
           xangst      2.8056991732E+00  8.6695176328E-01 -6.2986154163E-01
                       2.4501805235E+00  5.3100411369E+00 -2.1289354480E+00
                       6.8716379876E-01  2.2215446868E+00  3.9352598275E+00
                       4.5687158979E+00  3.9554482134E+00 -6.6940568172E+00
                      -9.6478732203E-01  4.6327446751E+00  2.0789698755E+00
                      -3.2159577401E-01  1.5442482250E+00  6.9298995850E-01
                       4.0643548265E+00  2.4248156249E+00 -3.5172773537E+00
                       1.1915248702E+00  3.7521772753E+00  7.5848036409E-01
                       5.8369718507E+00  6.6368082517E-01  1.2298266881E+00
                      -5.8109215406E-01  5.5133120750E+00 -3.9886236777E+00
            xcart      5.3020030486E+00  1.6383014030E+00 -1.1902658153E+00
                       4.6301701655E+00  1.0034523503E+01 -4.0231049513E+00
                       1.2985513881E+00  4.1981110500E+00  7.4365633358E+00
                       8.6336218260E+00  7.4747138561E+00 -1.2649934102E+01
                      -1.8231838151E+00  8.7546186796E+00  3.9286837032E+00
                      -6.0772793838E-01  2.9182062265E+00  1.3095612344E+00
                       7.6805175289E+00  4.5822374538E+00 -6.6466909319E+00
                       2.2516556852E+00  7.0905874523E+00  1.4333201653E+00
                       1.1030278243E+01  1.2541749992E+00  2.3240356314E+00
                      -1.0981050292E+00  1.0418649907E+01 -7.5374063980E+00
             xred      4.5645450000E-01  1.4035175000E-01  3.1610275000E-01
                       5.4354550000E-01  8.5964825000E-01  6.8389725000E-01
                       1.7575100000E-01  3.5964825000E-01  8.1610275000E-01
                       8.2424900000E-01  6.4035175000E-01  1.8389725000E-01
                      -1.3877787808E-17  7.5000000000E-01  7.5000000000E-01
                      -1.3877787808E-17  2.5000000000E-01  2.5000000000E-01
                       6.9843300000E-01  3.9255600000E-01  3.0587700000E-01
                       3.0156700000E-01  6.0744400000E-01  6.9412300000E-01
                       9.1332100000E-01  1.0744400000E-01  8.0587700000E-01
                       8.6679000000E-02  8.9255600000E-01  1.9412300000E-01
            znucl       19.00000   30.00000   52.00000

- Timing analysis has been suppressed with timopt=0

 Suggested references for the acknowledgment of ABINIT usage.

 Calculation completed.
.Delivered   2 WARNINGs and   7 COMMENTs to log file.