.Version 9.5.1 of ABINIT

 ABINIT is a project of the Universite Catholique de Louvain,
 Corning Inc. and other collaborators, see ~abinit/doc/developers/contributors.txt .
 acknowledgments of the ABINIT effort.

.Starting date : Wed 19 May 2021.
- ( at 12h05 )

- input  file    -> /scratch/users/j/a/jabreu/flow_simple_9atoms/flow/w135/t1/run.abi
- output file    -> /scratch/users/j/a/jabreu/flow_simple_9atoms/flow/w135/t1/run.abo
- root for input  files -> /scratch/users/j/a/jabreu/flow_simple_9atoms/flow/w135/t1/indata/in
- root for output files -> /scratch/users/j/a/jabreu/flow_simple_9atoms/flow/w135/t1/outdata/out

 Symmetries : space group P3_1 2 1 (#152); Bravais hP (primitive hexag.)
     intxc =       0      iscf =       7    lmnmax =      13     lnmax =       5
     mgfft =      60  mpssoang =       3    mqgrid =    3001     natom =       9
  nloc_mem =       1    nspden =       1   nspinor =       1    nsppol =       1
      nsym =       6    n1xccc =    2501    ntypat =       2    occopt =       1
   xclevel =       2
-    mband =          36        mffmem =           1         mkmem =           2
-   mkqmem =           2        mk1mem =           2           mpw =        9647
      nfft =      174960          nkpt =           2
  Rough estimation (10% accuracy) of disk space for files :

------------- Echo of variables that govern the present computation ------------
-
- outvars: echo of selected default values
-   iomode0 =  0 , fftalg0 =512 , wfoptalg0 =  0
-
- outvars: echo of global parameters not present in the input file
-  max_nthreads =    0
-
 -outvars: echo values of preprocessed input variables --------
            acell      1.0000000000E+00  1.0000000000E+00  1.0000000000E+00 Bohr
              amu      9.01218200E+00  1.89984032E+01
             ecut      4.40000000E+01 Hartree
-          fftalg         512
           irdden           1
           irdwfk           1
           istwfk        0    1
              ixc     -116133
              kpt      3.33333333E-01  3.33333333E-01  0.00000000E+00
                       0.00000000E+00  0.00000000E+00  0.00000000E+00
           kptopt           0
P           mkmem           2
P          mkqmem           2
P          mk1mem           2
            natom           9
            nband          36
           nbdbuf           4
            ngfft          54      54      60
             nkpt           2
            nstep        2000
             nsym           6
           ntypat           2
              occ      2.000000  2.000000  2.000000  2.000000  2.000000  2.000000
                       2.000000  2.000000  2.000000  2.000000  2.000000  2.000000
                       2.000000  2.000000  2.000000  2.000000  2.000000  2.000000
                       2.000000  2.000000  2.000000  2.000000  2.000000  2.000000
                       2.000000  2.000000  2.000000  0.000000  0.000000  0.000000
                       0.000000  0.000000  0.000000  0.000000  0.000000  0.000000
        optdriver           1
            prtwf          -1
            rfdir           1       1       1
           rfelfd           2
            rprim      8.9817114042E+00  0.0000000000E+00  0.0000000000E+00
                      -4.4908557021E+00  7.7783902455E+00  0.0000000000E+00
                       0.0000000000E+00  0.0000000000E+00  9.8280132871E+00
          spgroup         152
           symrel      1  0  0   0  1  0   0  0  1       1  0  0  -1 -1  0   0  0 -1
                       0  1  0  -1 -1  0   0  0  1       0  1  0   1  0  0   0  0 -1
                      -1 -1  0   1  0  0   0  0  1      -1 -1  0   0  1  0   0  0 -1
            tnons      0.0000000  0.0000000  0.0000000     0.0000000  0.0000000 -0.3333333
                       0.0000000  0.0000000  0.3333333     0.0000000  0.0000000  0.0000000
                       0.0000000  0.0000000 -0.3333333     0.0000000  0.0000000  0.3333333
           tolwfr      1.00000000E-20
            typat      1  1  1  2  2  2  2  2  2
           useylm           1
              wtk        0.50000    0.50000
           xangst     -1.1164007846E+00  1.9336628806E+00  8.6679343954E-01
                       2.2328015692E+00 -1.7517723801E-16  4.3339671977E+00
                       1.2600577000E+00  2.1824839569E+00  2.6003803186E+00
                       2.8692409160E-01  1.7091147221E+00  1.4859630629E+00
                      -1.0397837631E+00  3.0131059241E+00  4.9531368210E+00
                       7.5285967147E-01  3.5100730287E+00  3.2195499419E+00
                       3.1293181561E+00  6.0607380878E-01  2.4762381622E-01
                       2.6633825762E+00  2.4070321153E+00  1.9812106953E+00
                       1.3366747216E+00  1.1030409133E+00  3.7147975744E+00
            xcart     -2.1096917375E+00  3.6540932776E+00  1.6380022145E+00
                       4.2193834749E+00 -3.3103700456E-16  8.1900110726E+00
                       2.3811639646E+00  4.1242969679E+00  4.9140066435E+00
                       5.4220795405E-01  3.2297587545E+00  2.8080632324E+00
                      -1.9649065496E+00  5.6939450059E+00  9.3600720905E+00
                       1.4226985956E+00  6.6330767306E+00  6.0840676614E+00
                       5.9135542977E+00  1.1453135149E+00  4.6794119664E-01
                       5.0330636561E+00  4.5486314910E+00  3.7439456257E+00
                       2.5259491525E+00  2.0844452396E+00  7.0199500547E+00
             xred     -9.2518585385E-18  4.6977500000E-01  1.6666666667E-01
                       4.6977500000E-01 -4.2558549277E-17  8.3333333333E-01
                       5.3022500000E-01  5.3022500000E-01  5.0000000000E-01
                       2.6797900000E-01  4.1522200000E-01  2.8572033333E-01
                       1.4724300000E-01  7.3202100000E-01  9.5238700000E-01
                       5.8477800000E-01  8.5275700000E-01  6.1905366667E-01
                       7.3202100000E-01  1.4724300000E-01  4.7613000000E-02
                       8.5275700000E-01  5.8477800000E-01  3.8094633333E-01
                       4.1522200000E-01  2.6797900000E-01  7.1427966667E-01
            znucl        4.00000    9.00000

 chkinp: Checking input parameters for consistency.

== DATASET  1 ==================================================================
-   mpi_nproc: 1, omp_nthreads: -1 (-1 if OMP is not activated)

--- !DatasetInfo
iteration_state: {dtset: 1, }
dimensions: {natom: 9, nkpt: 2, mband: 36, nsppol: 1, nspinor: 1, nspden: 1, mpw: 9647, }
cutoff_energies: {ecut:  44.0, pawecutdg:  -1.0, }
electrons: {nelect:   5.40000000E+01, charge:   0.00000000E+00, occopt:   1.00000000E+00, tsmear:   1.00000000E-02, }
meta: {optdriver: 1, rfelfd: 2, }
...

 Real(R)+Recip(G) space primitive vectors, cartesian coordinates (Bohr,Bohr^-1):
 R(1)=  8.9817114  0.0000000  0.0000000  G(1)=  0.1113374  0.0642807  0.0000000
 R(2)= -4.4908557  7.7783902  0.0000000  G(2)=  0.0000000  0.1285613  0.0000000
 R(3)=  0.0000000  0.0000000  9.8280133  G(3)=  0.0000000  0.0000000  0.1017500
 Unit cell volume ucvol=  6.8661701E+02 bohr^3
 Angles (23,13,12)=  9.00000000E+01  9.00000000E+01  1.20000000E+02 degrees

 getcut: wavevector=  0.0000  0.0000  0.0000  ngfft=  54  54  60
         ecut(hartree)=     44.000   => boxcut(ratio)=   2.01392

--- Pseudopotential description ------------------------------------------------
- pspini: atom type   1  psp file is /scratch/users/j/a/jabreu/pseudos/PBEsol/Be.psp8
- pspatm: opening atomic psp file    /scratch/users/j/a/jabreu/pseudos/PBEsol/Be.psp8
- Be    ONCVPSP-3.3.0  r_core=   1.35684   1.10780
-  4.00000   4.00000    180112                znucl, zion, pspdat
    8 -116133    1    4       400   0.00000   pspcod,pspxc,lmax,lloc,mmax,r2well
    3.99000000000000    0.00000000000000    0.00000000000000   rchrg,fchrg,qchrg
     nproj     2     2
     extension_switch     1
  pspatm : epsatm=    3.86293307
         --- l  ekb(1:nproj) -->
             0   -7.966826   -2.672546
             1   -3.431835   -0.651830
 pspatm: atomic psp has been read  and splines computed

- pspini: atom type   2  psp file is /scratch/users/j/a/jabreu/pseudos/PBEsol/F.psp8
- pspatm: opening atomic psp file    /scratch/users/j/a/jabreu/pseudos/PBEsol/F.psp8
- F     ONCVPSP-3.3.0  r_core=   1.30942   1.45782   1.60379
-  9.00000   7.00000    180112                znucl, zion, pspdat
    8 -116133    2    4       600   0.00000   pspcod,pspxc,lmax,lloc,mmax,r2well
    5.99000000000000    2.50000000000000    0.00000000000000   rchrg,fchrg,qchrg
     nproj     2     2     1
     extension_switch     1
  pspatm : epsatm=    4.89824824
         --- l  ekb(1:nproj) -->
             0    6.506434    1.065875
             1   -3.978753   -1.295852
             2   -2.394754
 pspatm: atomic psp has been read  and splines computed

   2.21282759E+03                                ecore*ucvol(ha*bohr**3)

-inwffil : will read wavefunctions from disk file /scratch/users/j/a/jabreu/flow_simple_9atoms/flow/w135/t1/indata/in_WFK

 ==>  initialize data related to q vector <==

 The list of irreducible perturbations for this q vector is:
    1)    idir= 1    ipert=  10
    2)    idir= 2    ipert=  10
    3)    idir= 3    ipert=  10

 Perturbation wavevector (in red.coord.)   0.000000  0.000000  0.000000
 Perturbation : derivative vs k along direction   1

 dfpt_looppert : COMMENT -
  In a d/dk calculation, iscf is set to -3 automatically.
 The set of symmetries contains only one element for this perturbation.
 symkpt : not enough symmetry to change the number of k points.

[...]

 Initialisation of the first-order wave-functions :
  ireadwf=   0

--- !BeginCycle
iteration_state: {dtset: 1, }
solver: {iscf: 7, nstep: 2000, nline: 4, wfoptalg: 0, }
tolerances: {tolwfr: 1.00E-20, }
...

     iter   2DEtotal(Ha)        deltaE(Ha) residm    vres2
-ETOT  1  -37.935392039192     -3.794E+01 1.487E-01 0.000E+00
 ETOT  2  -37.957069136679     -2.168E-02 3.750E-03 0.000E+00
 ETOT  3  -37.957084505516     -1.537E-05 4.780E-04 0.000E+00
 ETOT  4  -37.957084529365     -2.385E-08 1.364E-05 0.000E+00
 ETOT  5  -37.957084529414     -4.967E-11 1.655E-06 0.000E+00
 ETOT  6  -37.957084529414     -1.350E-13 7.291E-08 0.000E+00
 ETOT  7  -37.957084529415     -7.105E-15 7.552E-09 0.000E+00
 ETOT  8  -37.957084529415     -2.842E-14 9.774E-10 0.000E+00
 ETOT  9  -37.957084529415      1.421E-14 1.012E-10 0.000E+00
 ETOT 10  -37.957084529415      0.000E+00 1.447E-11 0.000E+00
 ETOT 11  -37.957084529415      1.421E-14 1.553E-12 0.000E+00
 ETOT 12  -37.957084529415     -1.421E-14 2.260E-13 0.000E+00
 ETOT 13  -37.957084529415      1.421E-14 2.476E-14 0.000E+00
 ETOT 14  -37.957084529415      0.000E+00 3.627E-15 0.000E+00
 ETOT 15  -37.957084529415     -2.842E-14 4.025E-16 0.000E+00
 ETOT 16  -37.957084529415      2.842E-14 5.909E-17 0.000E+00
 ETOT 17  -37.957084529415     -1.421E-14 6.620E-18 0.000E+00
 ETOT 18  -37.957084529415     -1.421E-14 9.724E-19 0.000E+00
 ETOT 19  -37.957084529415      0.000E+00 1.098E-19 0.000E+00
 ETOT 20  -37.957084529415      0.000E+00 1.611E-20 0.000E+00
 ETOT 21  -37.957084529415     -1.421E-14 9.194E-21 0.000E+00

 At SCF step   21   max residual=  9.19E-21 < tolwfr=  1.00E-20 =>converged.

 ----iterations are completed or convergence reached----

 dfpt_looppert: DFPT cycle converged with prtwf=-1. Will skip output of the 1st-order WFK file.
 dfpt_looppert : ek2=    7.0469961783E+01
          f-sum rule ratio=    1.0059136143E+00
 prteigrs : about to open file /scratch/users/j/a/jabreu/flow_simple_9atoms/flow/w135/t1/tmpdata/tmp_1WF1_EIG
 Expectation of eigenvalue derivatives (hartree) for nkpt=   2  k points:
  (in case of degenerate eigenvalues, averaged derivative)
 kpt#   1, nband= 36, wtk=  0.50000, kpt=  0.3333  0.3333  0.0000 (reduced coord)
   0.00000    0.00000   -0.00000   -0.00000   -0.00000   -0.00000    0.00000    0.00000
   0.00000    0.00000    0.00000    0.00000   -0.00000   -0.00000   -0.00000   -0.00000
  -0.00000   -0.00000    0.00000    0.00000   -0.00000   -0.00000   -0.00000   -0.00000
  -0.00000   -0.00000    0.00000    0.00000    0.00000   -0.00000   -0.00000    0.00000
   0.00000   -0.00000   -0.00000   -0.00000
 prteigrs : prtvol=0 or 1, do not print more k-points.

 Eight components of 2nd-order total energy (hartree) are
 1,2,3: 0th-order hamiltonian combined with 1st-order wavefunctions
     kin0=   4.87881504E+01 eigvalue=   5.97636682E+00  local=  -1.96948167E+01
 4,5,6: 1st-order hamiltonian combined with 1st and 0th-order wfs
     kin1=  -7.08866940E+01  Hartree=   0.00000000E+00     xc=   0.00000000E+00
 7,8,9: eventually, occupation + non-local contributions
    edocc=   5.11819665E+00     enl0=  -2.23081263E+00   enl1=  -5.02747510E+00
 1-9 gives the relaxation energy (to be shifted if some occ is /=2.0)
   erelax=  -3.79570845E+01
  No Ewald or frozen-wf contrib.: the relaxation energy is the total one
 2DEtotal=   -0.3795708453E+02 Ha. Also 2DEtotal=   -0.103286479734E+04 eV
    (  non-var. 2DEtotal :   -3.7957084529E+01 Ha)

 Perturbation wavevector (in red.coord.)   0.000000  0.000000  0.000000
 Perturbation : derivative vs k along direction   2
 The set of symmetries contains only one element for this perturbation.
 symkpt : not enough symmetry to change the number of k points.

[...]

 Perturbation wavevector (in red.coord.)   0.000000  0.000000  0.000000
 Perturbation : derivative vs k along direction   3
 The set of symmetries contains only one element for this perturbation.
 symkpt : not enough symmetry to change the number of k points.

-inwffil : will read wavefunctions from disk file /scratch/users/j/a/jabreu/flow_simple_9atoms/flow/w135/t1/indata/in_WFK

 Initialisation of the first-order wave-functions :
  ireadwf=   0

--- !BeginCycle
iteration_state: {dtset: 1, }
solver: {iscf: 7, nstep: 2000, nline: 4, wfoptalg: 0, }
tolerances: {tolwfr: 1.00E-20, }
...

     iter   2DEtotal(Ha)        deltaE(Ha) residm    vres2
-ETOT  1  -23.715560863656     -2.372E+01 8.508E-02 0.000E+00
 ETOT  2  -23.731474409043     -1.591E-02 4.660E-03 0.000E+00
 ETOT  3  -23.731484473478     -1.006E-05 9.920E-04 0.000E+00
 ETOT  4  -23.731484486978     -1.350E-08 4.929E-05 0.000E+00
 ETOT  5  -23.731484487004     -2.606E-11 9.806E-06 0.000E+00
 ETOT  6  -23.731484487004     -4.263E-14 5.735E-07 0.000E+00
 ETOT  7  -23.731484487004     -1.066E-14 1.162E-07 0.000E+00
 ETOT  8  -23.731484487004      7.105E-15 6.798E-09 0.000E+00
 ETOT  9  -23.731484487004      3.553E-15 1.427E-09 0.000E+00
 ETOT 10  -23.731484487004      3.553E-15 8.323E-11 0.000E+00
 ETOT 11  -23.731484487004      0.000E+00 1.820E-11 0.000E+00
 ETOT 12  -23.731484487004     -3.553E-15 1.057E-12 0.000E+00
 ETOT 13  -23.731484487004      3.553E-15 2.389E-13 0.000E+00
 ETOT 14  -23.731484487004      0.000E+00 1.379E-14 0.000E+00
 ETOT 15  -23.731484487004      0.000E+00 3.193E-15 0.000E+00
 ETOT 16  -23.731484487004      0.000E+00 1.831E-16 0.000E+00
 ETOT 17  -23.731484487004     -7.105E-15 4.316E-17 0.000E+00
 ETOT 18  -23.731484487004      7.105E-15 2.460E-18 0.000E+00
 ETOT 19  -23.731484487004     -3.553E-15 5.879E-19 0.000E+00
 ETOT 20  -23.731484487004      3.553E-15 3.333E-20 0.000E+00
 ETOT 21  -23.731484487004     -1.066E-14 9.706E-21 0.000E+00

 At SCF step   21   max residual=  9.71E-21 < tolwfr=  1.00E-20 =>converged.

 ----iterations are completed or convergence reached----

 dfpt_looppert: DFPT cycle converged with prtwf=-1. Will skip output of the 1st-order WFK file.
 dfpt_looppert : ek2=    4.4142001612E+01
          f-sum rule ratio=    1.0044382622E+00
 prteigrs : about to open file /scratch/users/j/a/jabreu/flow_simple_9atoms/flow/w135/t1/tmpdata/tmp_1WF1_EIG
 Expectation of eigenvalue derivatives (hartree) for nkpt=   2  k points:
  (in case of degenerate eigenvalues, averaged derivative)
 kpt#   1, nband= 36, wtk=  0.50000, kpt=  0.3333  0.3333  0.0000 (reduced coord)
   0.00000    0.00000    0.00000    0.00000    0.00000    0.00000    0.00000   -0.00000
  -0.00000   -0.00000   -0.00000   -0.00000   -0.00000   -0.00000   -0.00000   -0.00000
  -0.00000   -0.00000    0.00000    0.00000   -0.00000   -0.00000    0.00000    0.00000
  -0.00000   -0.00000    0.00000   -0.00000   -0.00000   -0.00000    0.00000   -0.00000
  -0.00000    0.00000    0.00000    0.00000
 prteigrs : prtvol=0 or 1, do not print more k-points.

 Eight components of 2nd-order total energy (hartree) are
 1,2,3: 0th-order hamiltonian combined with 1st-order wavefunctions
     kin0=   3.06042913E+01 eigvalue=   3.77506280E+00  local=  -1.23144014E+01
 4,5,6: 1st-order hamiltonian combined with 1st and 0th-order wfs
     kin1=  -4.43379154E+01  Hartree=   0.00000000E+00     xc=   0.00000000E+00
 7,8,9: eventually, occupation + non-local contributions
    edocc=   3.00649491E+00     enl0=  -1.33996306E+00   enl1=  -3.12505358E+00
 1-9 gives the relaxation energy (to be shifted if some occ is /=2.0)
   erelax=  -2.37314845E+01
  No Ewald or frozen-wf contrib.: the relaxation energy is the total one
 2DEtotal=   -0.2373148449E+02 Ha. Also 2DEtotal=   -0.645766533944E+03 eV
    (  non-var. 2DEtotal :   -2.3731484487E+01 Ha)

 CALCULATION OF EFFECTIVE MASSES
 NOTE : Additional infos (eff. mass eigenvalues, eigenvectors and, if degenerate, average mass) are available in stdout.

 K-point ( 0.333, 0.333, 0.000) | band =    27
 Effective mass tensor:
            -13.6060405604              0.0000006711             -0.0000002322
              0.0000006711            -13.6060431516              0.0000002992
             -0.0000002322              0.0000002992             -2.9687556707
 Effective mass tensor eigenvalues:
            -13.6060433151            -13.6060403969             -2.9687556707
 Angular average effective mass 1/(<1/m>)=  -6.2004611201
 Angular average effective mass for Frohlich model (<m**0.5>)**2=  -7.3863419343
 Effective masses along directions: (cart. coord. / red. coord. -> eff. mass)
    1:   1.000000  0.000000  0.000000 /   0.894427 -0.447214  0.000000 -> -13.6060405604
    2:   0.000000  1.000000  0.000000 /   0.000000  1.000000  0.000000 -> -13.6060431516
    3:   0.000000  0.000000  1.000000 /   0.000000  0.000000  1.000000 ->  -2.9687556707
    4:   0.577350  0.577350  0.577350 /   0.654939  0.239724  0.716650 ->  -6.2004609847
    5:   0.000000  0.707107  0.707107 /   0.000000  0.620599  0.784128 ->  -4.8740279430
    6:   0.707107  0.000000  0.707107 /   0.639225 -0.319613  0.699456 ->  -4.8740280892
    7:   0.707107  0.707107  0.000000 /   0.939071  0.343724  0.000000 -> -13.6060411850

 K-point ( 0.000, 0.000, 0.000) | band =    28
 Effective mass tensor:
              0.6639869952              0.0000011039             -0.0000001686
              0.0000011039              0.6639874708              0.0000001442
             -0.0000001686              0.0000001442              0.6513717833
 Effective mass tensor eigenvalues:
              0.6513717833              0.6639861038              0.6639883622
 Angular average effective mass 1/(<1/m>)=   0.6597281358
 Angular average effective mass for Frohlich model (<m**0.5>)**2=   0.6597443737
 Effective masses along directions: (cart. coord. / red. coord. -> eff. mass)
    1:   1.000000  0.000000  0.000000 /   0.894427 -0.447214  0.000000 ->   0.6639869952
    2:   0.000000  1.000000  0.000000 /   0.000000  1.000000  0.000000 ->   0.6639874708
    3:   0.000000  0.000000  1.000000 /   0.000000  0.000000  1.000000 ->   0.6513717833
    4:   0.577350  0.577350  0.577350 /   0.654939  0.239724  0.716650 ->   0.6597288459
    5:   0.000000  0.707107  0.707107 /   0.000000  0.620599  0.784128 ->   0.6576192723
    6:   0.707107  0.000000  0.707107 /   0.639225 -0.319613  0.699456 ->   0.6576187262
    7:   0.707107  0.707107  0.000000 /   0.939071  0.343724  0.000000 ->   0.6639883369

 END OF EFFECTIVE MASSES SECTION

 ---- first-order wavefunction calculations are completed ----

 Total localisation tensor (bohr^2) in cartesian coordinates
  WARNING : still subject to testing - especially symmetries.
      direction              matrix element
   alpha     beta       real part   imaginary part
     1        1       0.6385225413    0.0000000000
     1        2      -0.2211906955    0.0000000000
     1        3       0.0000000000    0.0000000000
     2        1      -0.2211906955    0.0000000000
     2        2       0.3831135227    0.0000000000
     2        3       0.0000000000    0.0000000000
     3        1       0.0000000000    0.0000000000
     3        2       0.0000000000    0.0000000000
     3        3       0.3821641953    0.0000000000

 respfn : d/dk was computed, but no 2DTE, so no DDB output.

== END DATASET(S) ==============================================================

 -outvars: echo values of variables after computation  --------
            acell      1.0000000000E+00  1.0000000000E+00  1.0000000000E+00 Bohr
              amu      9.01218200E+00  1.89984032E+01
             ecut      4.40000000E+01 Hartree
           etotal     -2.3731484487E+01
            fcart      0.0000000000E+00  0.0000000000E+00  0.0000000000E+00
                       0.0000000000E+00  0.0000000000E+00  0.0000000000E+00
                       0.0000000000E+00  0.0000000000E+00  0.0000000000E+00
                       0.0000000000E+00  0.0000000000E+00  0.0000000000E+00
                       0.0000000000E+00  0.0000000000E+00  0.0000000000E+00
                       0.0000000000E+00  0.0000000000E+00  0.0000000000E+00
                       0.0000000000E+00  0.0000000000E+00  0.0000000000E+00
                       0.0000000000E+00  0.0000000000E+00  0.0000000000E+00
                       0.0000000000E+00  0.0000000000E+00  0.0000000000E+00
-          fftalg         512
           irdden           1
           irdwfk           1
           istwfk        0    1
              ixc     -116133
              kpt      3.33333333E-01  3.33333333E-01  0.00000000E+00
                       0.00000000E+00  0.00000000E+00  0.00000000E+00
           kptopt           0
P           mkmem           2
P          mkqmem           2
P          mk1mem           2
            natom           9
            nband          36
           nbdbuf           4
            ngfft          54      54      60
             nkpt           2
            nstep        2000
             nsym           6
           ntypat           2
              occ      2.000000  2.000000  2.000000  2.000000  2.000000  2.000000
                       2.000000  2.000000  2.000000  2.000000  2.000000  2.000000
                       2.000000  2.000000  2.000000  2.000000  2.000000  2.000000
                       2.000000  2.000000  2.000000  2.000000  2.000000  2.000000
                       2.000000  2.000000  2.000000  0.000000  0.000000  0.000000
                       0.000000  0.000000  0.000000  0.000000  0.000000  0.000000
        optdriver           1
            prtwf          -1
            rfdir           1       1       1
           rfelfd           2
            rprim      8.9817114042E+00  0.0000000000E+00  0.0000000000E+00
                      -4.4908557021E+00  7.7783902455E+00  0.0000000000E+00
                       0.0000000000E+00  0.0000000000E+00  9.8280132871E+00
          spgroup         152
           strten      0.0000000000E+00  0.0000000000E+00  0.0000000000E+00
                       0.0000000000E+00  0.0000000000E+00  0.0000000000E+00
           symrel      1  0  0   0  1  0   0  0  1       1  0  0  -1 -1  0   0  0 -1
                       0  1  0  -1 -1  0   0  0  1       0  1  0   1  0  0   0  0 -1
                      -1 -1  0   1  0  0   0  0  1      -1 -1  0   0  1  0   0  0 -1
            tnons      0.0000000  0.0000000  0.0000000     0.0000000  0.0000000 -0.3333333
                       0.0000000  0.0000000  0.3333333     0.0000000  0.0000000  0.0000000
                       0.0000000  0.0000000 -0.3333333     0.0000000  0.0000000  0.3333333
           tolwfr      1.00000000E-20
            typat      1  1  1  2  2  2  2  2  2
           useylm           1
              wtk        0.50000    0.50000
           xangst     -1.1164007846E+00  1.9336628806E+00  8.6679343954E-01
                       2.2328015692E+00 -1.7517723801E-16  4.3339671977E+00
                       1.2600577000E+00  2.1824839569E+00  2.6003803186E+00
                       2.8692409160E-01  1.7091147221E+00  1.4859630629E+00
                      -1.0397837631E+00  3.0131059241E+00  4.9531368210E+00
                       7.5285967147E-01  3.5100730287E+00  3.2195499419E+00
                       3.1293181561E+00  6.0607380878E-01  2.4762381622E-01
                       2.6633825762E+00  2.4070321153E+00  1.9812106953E+00
                       1.3366747216E+00  1.1030409133E+00  3.7147975744E+00
            xcart     -2.1096917375E+00  3.6540932776E+00  1.6380022145E+00
                       4.2193834749E+00 -3.3103700456E-16  8.1900110726E+00
                       2.3811639646E+00  4.1242969679E+00  4.9140066435E+00
                       5.4220795405E-01  3.2297587545E+00  2.8080632324E+00
                      -1.9649065496E+00  5.6939450059E+00  9.3600720905E+00
                       1.4226985956E+00  6.6330767306E+00  6.0840676614E+00
                       5.9135542977E+00  1.1453135149E+00  4.6794119664E-01
                       5.0330636561E+00  4.5486314910E+00  3.7439456257E+00
                       2.5259491525E+00  2.0844452396E+00  7.0199500547E+00
             xred     -9.2518585385E-18  4.6977500000E-01  1.6666666667E-01
                       4.6977500000E-01 -4.2558549277E-17  8.3333333333E-01
                       5.3022500000E-01  5.3022500000E-01  5.0000000000E-01
                       2.6797900000E-01  4.1522200000E-01  2.8572033333E-01
                       1.4724300000E-01  7.3202100000E-01  9.5238700000E-01
                       5.8477800000E-01  8.5275700000E-01  6.1905366667E-01
                       7.3202100000E-01  1.4724300000E-01  4.7613000000E-02
                       8.5275700000E-01  5.8477800000E-01  3.8094633333E-01
                       4.1522200000E-01  2.6797900000E-01  7.1427966667E-01
            znucl        4.00000    9.00000

- Timing analysis has been suppressed with timopt=0

 Suggested references for the acknowledgment of ABINIT usage.

 Calculation completed.
.Delivered  14 WARNINGs and   9 COMMENTs to log file.