.Version 9.5.1 of ABINIT

 ABINIT is a project of the Universite Catholique de Louvain,
 Corning Inc. and other collaborators, see ~abinit/doc/developers/contributors.txt .
 acknowledgments of the ABINIT effort.

.Starting date : Tue 27 Apr 2021.
- ( at 15h30 )

- input  file    -> /scratch/users/j/a/jabreu/flow_simple/flow/w134/t1/run.abi
- output file    -> /scratch/users/j/a/jabreu/flow_simple/flow/w134/t1/run.abo
- root for input  files -> /scratch/users/j/a/jabreu/flow_simple/flow/w134/t1/indata/in
- root for output files -> /scratch/users/j/a/jabreu/flow_simple/flow/w134/t1/outdata/out

 Symmetries : space group F-4 3 m (#216); Bravais cF (face-center cubic)
     intxc =       0      iscf =       7    lmnmax =      18     lnmax =       6
     mgfft =      54  mpssoang =       3    mqgrid =    3001     natom =       3
  nloc_mem =       1    nspden =       1   nspinor =       1    nsppol =       1
      nsym =      24    n1xccc =    2501    ntypat =       3    occopt =       1
   xclevel =       2
-    mband =          31        mffmem =           1         mkmem =           2
-   mkqmem =           2        mk1mem =           2           mpw =        6855
      nfft =      157464          nkpt =           2
  Rough estimation (10% accuracy) of disk space for files :

------------- Echo of variables that govern the present computation ------------
-
- outvars: echo of selected default values
-   iomode0 =  0 , fftalg0 =512 , wfoptalg0 =  0
-
- outvars: echo of global parameters not present in the input file
-  max_nthreads =    0
-
 -outvars: echo values of preprocessed input variables --------
            acell      1.0000000000E+00  1.0000000000E+00  1.0000000000E+00 Bohr
              amu      8.89058500E+01  5.86900000E+01  1.21753000E+02
             ecut      4.90000000E+01 Hartree
-          fftalg         512
           irdden           1
           irdwfk           1
           istwfk        1    1
              ixc     -116133
              kpt      0.00000000E+00  0.00000000E+00  0.00000000E+00
                       5.00000000E-01  0.00000000E+00  5.00000000E-01
           kptopt           0
P           mkmem           2
P          mkqmem           2
P          mk1mem           2
            natom           3
            nband          31
           nbdbuf           4
            ngfft          54      54      54
             nkpt           2
            nstep         100
             nsym          24
           ntypat           3
              occ      2.000000  2.000000  2.000000  2.000000  2.000000  2.000000
                       2.000000  2.000000  2.000000  2.000000  2.000000  2.000000
                       2.000000  2.000000  2.000000  2.000000  2.000000  2.000000
                       2.000000  2.000000  2.000000  2.000000  0.000000  0.000000
                       0.000000  0.000000  0.000000  0.000000  0.000000  0.000000
                       0.000000
        optdriver           1
            prtwf          -1
            rfdir           1       1       1
           rfelfd           2
            rprim      7.2587514149E+00  0.0000000000E+00  4.1908420833E+00
                       2.4195838050E+00  6.8436164645E+00  4.1908420833E+00
                       0.0000000000E+00  0.0000000000E+00  8.3816841667E+00
          spgroup         216
           symrel      1  0  0   0  1  0   0  0  1       0 -1  1   0 -1  0   1 -1  0
                      -1  0  0  -1  0  1  -1  1  0       0  1 -1   1  0 -1   0  0 -1
                      -1  0  0  -1  1  0  -1  0  1       0 -1  1   1 -1  0   0 -1  0
                       1  0  0   0  0  1   0  1  0       0  1 -1   0  0 -1   1  0 -1
                      -1  0  1  -1  1  0  -1  0  0       0 -1  0   1 -1  0   0 -1  1
                       1  0 -1   0  0 -1   0  1 -1       0  1  0   0  0  1   1  0  0
                       1  0 -1   0  1 -1   0  0 -1       0 -1  0   0 -1  1   1 -1  0
                      -1  0  1  -1  0  0  -1  1  0       0  1  0   1  0  0   0  0  1
                       0  0 -1   0  1 -1   1  0 -1       1 -1  0   0 -1  1   0 -1  0
                       0  0  1   1  0  0   0  1  0      -1  1  0  -1  0  0  -1  0  1
                       0  0  1   0  1  0   1  0  0       1 -1  0   0 -1  0   0 -1  1
                       0  0 -1   1  0 -1   0  1 -1      -1  1  0  -1  0  1  -1  0  0
           tolwfr      1.00000000E-20
            typat      1  2  3
           useylm           1
              wtk        0.50000    0.50000
           xangst      2.5607772077E+00  1.8107429287E+00  4.4353962306E+00
                       1.2803886039E+00  9.0537146434E-01  2.2176981153E+00
                       0.0000000000E+00  0.0000000000E+00  0.0000000000E+00
            xcart      4.8391676099E+00  3.4218082323E+00  8.3816841667E+00
                       2.4195838050E+00  1.7109041161E+00  4.1908420833E+00
                       0.0000000000E+00  0.0000000000E+00  0.0000000000E+00
             xred      5.0000000000E-01  5.0000000000E-01  5.0000000000E-01
                       2.5000000000E-01  2.5000000000E-01  2.5000000000E-01
                       0.0000000000E+00  0.0000000000E+00  0.0000000000E+00
            znucl       39.00000   28.00000   51.00000

 chkinp: Checking input parameters for consistency.

== DATASET  1 ==================================================================
-   mpi_nproc: 1, omp_nthreads: -1 (-1 if OMP is not activated)

--- !DatasetInfo
iteration_state: {dtset: 1, }
dimensions: {natom: 3, nkpt: 2, mband: 31, nsppol: 1, nspinor: 1, nspden: 1, mpw: 6855, }
cutoff_energies: {ecut:  49.0, pawecutdg:  -1.0, }
electrons: {nelect:   4.40000000E+01, charge:   0.00000000E+00, occopt:   1.00000000E+00, tsmear:   1.00000000E-02, }
meta: {optdriver: 1, rfelfd: 2, }
...

 Real(R)+Recip(G) space primitive vectors, cartesian coordinates (Bohr,Bohr^-1):
 R(1)=  7.2587514  0.0000000  4.1908421  G(1)=  0.1377647 -0.0487072  0.0000000
 R(2)=  2.4195838  6.8436165  4.1908421  G(2)=  0.0000000  0.1461216  0.0000000
 R(3)=  0.0000000  0.0000000  8.3816842  G(3)= -0.0688824 -0.0487072  0.1193078
 Unit cell volume ucvol=  4.1636947E+02 bohr^3
 Angles (23,13,12)=  6.00000000E+01  6.00000000E+01  6.00000000E+01 degrees

 getcut: wavevector=  0.0000  0.0000  0.0000  ngfft=  54  54  54
         ecut(hartree)=     49.000   => boxcut(ratio)=   2.04526

--- Pseudopotential description ------------------------------------------------
- pspini: atom type   1  psp file is /scratch/users/j/a/jabreu/pseudos/PBEsol/Y.psp8
- pspatm: opening atomic psp file    /scratch/users/j/a/jabreu/pseudos/PBEsol/Y.psp8
- Y     ONCVPSP-3.3.0  r_core=   1.60520   1.51226   1.56736
- 39.00000  11.00000    180112                znucl, zion, pspdat
    8 -116133    2    4       600   0.00000   pspcod,pspxc,lmax,lloc,mmax,r2well
    5.99000000000000    4.00000000000000    0.00000000000000   rchrg,fchrg,qchrg
     nproj     2     2     2
     extension_switch     1
  pspatm : epsatm=   18.54790046
         --- l  ekb(1:nproj) -->
             0   10.130768    0.866504
             1    5.598307    0.427135
             2    1.217602    0.315447
 pspatm: atomic psp has been read  and splines computed

- pspini: atom type   2  psp file is /scratch/users/j/a/jabreu/pseudos/PBEsol/Ni.psp8
- pspatm: opening atomic psp file    /scratch/users/j/a/jabreu/pseudos/PBEsol/Ni.psp8
- Ni    ONCVPSP-3.3.0  r_core=   1.26116   1.35474   1.65929
- 28.00000  18.00000    180112                znucl, zion, pspdat
    8 -116133    2    4       600   0.00000   pspcod,pspxc,lmax,lloc,mmax,r2well
    5.99000000000000    3.00000000000000    0.00000000000000   rchrg,fchrg,qchrg
     nproj     2     2     2
     extension_switch     1
  pspatm : epsatm=   19.57179442
         --- l  ekb(1:nproj) -->
             0    6.241516   -0.251675
             1   -2.865987   -0.396303
             2   -7.254374   -2.547636
 pspatm: atomic psp has been read  and splines computed

- pspini: atom type   3  psp file is /scratch/users/j/a/jabreu/pseudos/PBEsol/Sb.psp8
- pspatm: opening atomic psp file    /scratch/users/j/a/jabreu/pseudos/PBEsol/Sb.psp8
- Sb    ONCVPSP-3.3.0  r_core=   1.81962   2.12485   1.81962
- 51.00000  15.00000    180112                znucl, zion, pspdat
    8 -116133    2    4       600   0.00000   pspcod,pspxc,lmax,lloc,mmax,r2well
    5.99000000000000    5.00000000000000    0.00000000000000   rchrg,fchrg,qchrg
     nproj     2     2     2
     extension_switch     1
  pspatm : epsatm=   26.35641246
         --- l  ekb(1:nproj) -->
             0    9.727814    1.485032
             1    5.505335    0.704623
             2   -4.710637   -1.436443
 pspatm: atomic psp has been read  and splines computed

   2.83694872E+03                                ecore*ucvol(ha*bohr**3)

-inwffil : will read wavefunctions from disk file /scratch/users/j/a/jabreu/flow_simple/flow/w134/t1/indata/in_WFK

 ==>  initialize data related to q vector <==

 The list of irreducible perturbations for this q vector is:
    1)    idir= 1    ipert=   4
    2)    idir= 2    ipert=   4
    3)    idir= 3    ipert=   4

 Perturbation wavevector (in red.coord.)   0.000000  0.000000  0.000000
 Perturbation : derivative vs k along direction   1

 dfpt_looppert : COMMENT -
  In a d/dk calculation, iscf is set to -3 automatically.
 The set of symmetries contains only one element for this perturbation.
 symkpt : not enough symmetry to change the number of k points.

[...]

 Initialisation of the first-order wave-functions :
  ireadwf=   0

--- !BeginCycle
iteration_state: {dtset: 1, }
solver: {iscf: 7, nstep: 100, nline: 4, wfoptalg: 0, }
tolerances: {tolwfr: 1.00E-20, }
...

     iter   2DEtotal(Ha)        deltaE(Ha) residm    vres2
-ETOT  1  -65.929097452851     -6.593E+01 1.009E-01 0.000E+00
 ETOT  2  -65.996818878954     -6.772E-02 1.898E-03 0.000E+00
 ETOT  3  -65.997456097391     -6.372E-04 6.759E-05 0.000E+00
 ETOT  4  -65.997468131721     -1.203E-05 1.847E-06 0.000E+00
 ETOT  5  -65.997468438818     -3.071E-07 9.337E-08 0.000E+00
 ETOT  6  -65.997468447384     -8.566E-09 2.718E-09 0.000E+00
 ETOT  7  -65.997468447641     -2.567E-10 1.814E-10 0.000E+00
 ETOT  8  -65.997468447649     -8.299E-12 5.314E-12 0.000E+00
 ETOT  9  -65.997468447649     -2.274E-13 3.722E-13 0.000E+00
 ETOT 10  -65.997468447649      9.948E-14 1.107E-14 0.000E+00
 ETOT 11  -65.997468447649     -7.105E-14 7.810E-16 0.000E+00
 ETOT 12  -65.997468447649     -5.684E-14 2.593E-17 0.000E+00
 ETOT 13  -65.997468447649      4.263E-14 1.657E-18 0.000E+00
 ETOT 14  -65.997468447649      0.000E+00 6.505E-20 0.000E+00
 ETOT 15  -65.997468447649      0.000E+00 9.841E-21 0.000E+00

 At SCF step   15   max residual=  9.84E-21 < tolwfr=  1.00E-20 =>converged.

 ----iterations are completed or convergence reached----

 dfpt_looppert: DFPT cycle converged with prtwf=-1. Will skip output of the 1st-order WFK file.
 dfpt_looppert : ek2=    7.4177310700E+01
          f-sum rule ratio=    1.3528156720E+00
 prteigrs : about to open file /scratch/users/j/a/jabreu/flow_simple/flow/w134/t1/tmpdata/tmp_1WF1_EIG
 Expectation of eigenvalue derivatives (hartree) for nkpt=   2  k points:
  (in case of degenerate eigenvalues, averaged derivative)
 kpt#   1, nband= 31, wtk=  0.50000, kpt=  0.0000  0.0000  0.0000 (reduced coord)
   0.00000   -0.00000   -0.00000   -0.00000   -0.00000   -0.00000   -0.00000   -0.00000
  -0.00000   -0.00000    0.00000    0.00000    0.00000    0.00000    0.00000    0.00000
   0.00000    0.00000    0.00000    0.00000    0.00000    0.00000   -0.00000   -0.00000
  -0.00000   -0.00000    0.00000    0.00000   -0.00000   -0.00000   -0.00000
 prteigrs : prtvol=0 or 1, do not print more k-points.

 Eight components of 2nd-order total energy (hartree) are
 1,2,3: 0th-order hamiltonian combined with 1st-order wavefunctions
     kin0=   5.60202084E+01 eigvalue=   3.26379036E+00  local=  -2.68343255E+01
 4,5,6: 1st-order hamiltonian combined with 1st and 0th-order wfs
     kin1=  -1.00348228E+02  Hartree=   0.00000000E+00     xc=   0.00000000E+00
 7,8,9: eventually, occupation + non-local contributions
    edocc=   2.74530990E+01     enl0=   6.09469623E+00   enl1=  -3.16467085E+01
 1-9 gives the relaxation energy (to be shifted if some occ is /=2.0)
   erelax=  -6.59974684E+01
  No Ewald or frozen-wf contrib.: the relaxation energy is the total one
 2DEtotal=   -0.6599746845E+02 Ha. Also 2DEtotal=   -0.179588244772E+04 eV
    (  non-var. 2DEtotal :   -6.5997468447E+01 Ha)

 Perturbation wavevector (in red.coord.)   0.000000  0.000000  0.000000
 Perturbation : derivative vs k along direction   2
 The set of symmetries contains only one element for this perturbation.
 symkpt : not enough symmetry to change the number of k points.

[...]

 Perturbation wavevector (in red.coord.)   0.000000  0.000000  0.000000
 Perturbation : derivative vs k along direction   3
 The set of symmetries contains only one element for this perturbation.
 symkpt : not enough symmetry to change the number of k points.

-inwffil : will read wavefunctions from disk file /scratch/users/j/a/jabreu/flow_simple/flow/w134/t1/indata/in_WFK

 Initialisation of the first-order wave-functions :
  ireadwf=   0

--- !BeginCycle
iteration_state: {dtset: 1, }
solver: {iscf: 7, nstep: 100, nline: 4, wfoptalg: 0, }
tolerances: {tolwfr: 1.00E-20, }
...

     iter   2DEtotal(Ha)        deltaE(Ha) residm    vres2
-ETOT  1  -65.928892019261     -6.593E+01 1.011E-01 0.000E+00
 ETOT  2  -65.996884036520     -6.799E-02 1.855E-03 0.000E+00
 ETOT  3  -65.997521926962     -6.379E-04 3.548E-05 0.000E+00
 ETOT  4  -65.997533760899     -1.183E-05 1.793E-06 0.000E+00
 ETOT  5  -65.997534060409     -2.995E-07 3.557E-08 0.000E+00
 ETOT  6  -65.997534068680     -8.272E-09 2.626E-09 0.000E+00
 ETOT  7  -65.997534068926     -2.453E-10 6.534E-11 0.000E+00
 ETOT  8  -65.997534068933     -7.702E-12 4.616E-12 0.000E+00
 ETOT  9  -65.997534068934     -2.558E-13 1.530E-13 0.000E+00
 ETOT 10  -65.997534068934      0.000E+00 1.047E-14 0.000E+00
 ETOT 11  -65.997534068934      7.105E-14 3.715E-16 0.000E+00
 ETOT 12  -65.997534068934     -1.421E-14 2.593E-17 0.000E+00
 ETOT 13  -65.997534068934     -1.421E-14 9.204E-19 0.000E+00
 ETOT 14  -65.997534068934     -1.421E-14 6.505E-20 0.000E+00
 ETOT 15  -65.997534068934     -1.421E-14 9.846E-21 0.000E+00

 At SCF step   15   max residual=  9.85E-21 < tolwfr=  1.00E-20 =>converged.

 ----iterations are completed or convergence reached----

 dfpt_looppert: DFPT cycle converged with prtwf=-1. Will skip output of the 1st-order WFK file.
 dfpt_looppert : ek2=    7.4177310700E+01
          f-sum rule ratio=    1.3528174247E+00
 prteigrs : about to open file /scratch/users/j/a/jabreu/flow_simple/flow/w134/t1/tmpdata/tmp_1WF1_EIG
 Expectation of eigenvalue derivatives (hartree) for nkpt=   2  k points:
  (in case of degenerate eigenvalues, averaged derivative)
 kpt#   1, nband= 31, wtk=  0.50000, kpt=  0.0000  0.0000  0.0000 (reduced coord)
  -0.00000    0.00000    0.00000    0.00000   -0.00000    0.00000    0.00000    0.00000
   0.00000    0.00000   -0.00000   -0.00000   -0.00000    0.00000   -0.00000   -0.00000
  -0.00000    0.00000    0.00000    0.00000    0.00000    0.00000    0.00000    0.00000
   0.00000    0.00000   -0.00000   -0.00000   -0.00000   -0.00001   -0.00001
 prteigrs : prtvol=0 or 1, do not print more k-points.

 Eight components of 2nd-order total energy (hartree) are
 1,2,3: 0th-order hamiltonian combined with 1st-order wavefunctions
     kin0=   5.58881110E+01 eigvalue=   3.23895542E+00  local=  -2.67241411E+01
 4,5,6: 1st-order hamiltonian combined with 1st and 0th-order wfs
     kin1=  -1.00348358E+02  Hartree=   0.00000000E+00     xc=   0.00000000E+00
 7,8,9: eventually, occupation + non-local contributions
    edocc=   2.75024523E+01     enl0=   6.09215651E+00   enl1=  -3.16467097E+01
 1-9 gives the relaxation energy (to be shifted if some occ is /=2.0)
   erelax=  -6.59975341E+01
  No Ewald or frozen-wf contrib.: the relaxation energy is the total one
 2DEtotal=   -0.6599753407E+02 Ha. Also 2DEtotal=   -0.179588423336E+04 eV
    (  non-var. 2DEtotal :   -6.5997534069E+01 Ha)

 CALCULATION OF EFFECTIVE MASSES
 NOTE : Additional infos (eff. mass eigenvalues, eigenvectors and, if degenerate, average mass) are available in stdout.

 COMMENTS:
 - At k-point ( 0.000, 0.000, 0.000), bands    20 through    22
   are DEGENERATE (effective mass tensor is therefore not defined).
   See Section IIIB Eqs. (67)-(70) and Appendix E of PRB 93 205147 (2016).
 - Angular average effective mass for Frohlich model is to be averaged over degenerate bands. See later.
 - Associated theta integrals calculated with ntheta=   1000 points.

 K-point ( 0.000, 0.000, 0.000) | band =    20
 Transport equivalent effective mass tensor:
             -0.1690536849             -0.0000000024             -0.0000000017
             -0.0000000024             -0.1690536852             -0.0000000001
             -0.0000000017             -0.0000000001             -0.1690536813
 Transport equivalent effective mass tensor eigenvalues:
             -0.1690536877             -0.1690536833             -0.1690536805
 Angular average effective mass 1/(<1/m>)=  -0.1346639428
 Angular average effective mass for Frohlich model (<m**0.5>)**2=  -0.1365095032
 Effective masses along directions: (cart. coord. / red. coord. -> eff. mass)
    1:   1.000000  0.000000  0.000000 /   0.948683  0.316228  0.000000 ->  -0.1238365523
    2:   0.000000  1.000000  0.000000 /   0.000000  1.000000  0.000000 ->  -0.1137652801
    3:   0.000000  0.000000  1.000000 /   0.408248  0.408248  0.816497 ->  -0.1291449867
    4:   0.577350  0.577350  0.577350 /   0.585539  0.688047  0.428644 ->  -0.1241902016
    5:   0.000000  0.707107  0.707107 /   0.289489  0.762222  0.578977 ->  -0.1441682423
    6:   0.707107  0.000000  0.707107 /   0.731423  0.422287  0.535439 ->  -0.1262825533
    7:   0.707107  0.707107  0.000000 /   0.616798  0.787122  0.000000 ->  -0.1842560165

[...]

 K-point ( 0.000, 0.000, 0.000) | band =    22
 Transport equivalent effective mass tensor:
             -7.4038759396              0.0000083843             -0.0000000437
              0.0000083843             -7.4038733190              0.0000000219
             -0.0000000437              0.0000000219             -7.4038628210
 Transport equivalent effective mass tensor eigenvalues:
             -7.4038831154             -7.4038661433             -7.4038628208
 Angular average effective mass 1/(<1/m>)=  -0.7933464811
 Angular average effective mass for Frohlich model (<m**0.5>)**2=  -0.9503565832
 Effective masses along directions: (cart. coord. / red. coord. -> eff. mass)
    1:   1.000000  0.000000  0.000000 /   0.948683  0.316228  0.000000 ->  -0.8766632651
    2:   0.000000  1.000000  0.000000 /   0.000000  1.000000  0.000000 ->  -0.6790645640
    3:   0.000000  0.000000  1.000000 /   0.408248  0.408248  0.816497 ->  -2.3484049774
    4:   0.577350  0.577350  0.577350 /   0.585539  0.688047  0.428644 ->  -1.0378043878
    5:   0.000000  0.707107  0.707107 /   0.289489  0.762222  0.578977 ->  -0.7532646888
    6:   0.707107  0.000000  0.707107 /   0.731423  0.422287  0.535439 ->  -1.4066767936
    7:   0.707107  0.707107  0.000000 /   0.616798  0.787122  0.000000 ->  -0.3531540697

 Angular average effective mass for Frohlich model, averaged over degenerate bands.
 Value of     (<<m**0.5>>)**2 =     4.114609E-01
 Absolute Value of <<m**0.5>> =     6.414522E-01

 K-point ( 0.500, 0.000, 0.500) | band =    23
 Effective mass tensor:
              2.9815929830             -3.4883373665              4.2722214063
             -3.4883373665              5.4481680038             -6.0417994450
              4.2722214063             -6.0417994450              7.9144812079
 Effective mass tensor eigenvalues:
              0.5149481056              0.5149705451             15.3143235440
 Angular average effective mass 1/(<1/m>)=   0.7596667141
 Angular average effective mass for Frohlich model (<m**0.5>)**2=   1.0242159594
 Effective masses along directions: (cart. coord. / red. coord. -> eff. mass)
    1:   1.000000  0.000000  0.000000 /   0.948683  0.316228  0.000000 ->   0.6138224153
    2:   0.000000  1.000000  0.000000 /   0.000000  1.000000  0.000000 ->   0.7596682715
    3:   0.000000  0.000000  1.000000 /   0.408248  0.408248  0.816497 ->   0.9964124111
    4:   0.577350  0.577350  0.577350 /   0.585539  0.688047  0.428644 ->   0.5679005921
    5:   0.000000  0.707107  0.707107 /   0.289489  0.762222  0.578977 ->   0.5191867200
    6:   0.707107  0.000000  0.707107 /   0.731423  0.422287  0.535439 ->   1.2908948643
    7:   0.707107  0.707107  0.000000 /   0.616798  0.787122  0.000000 ->   0.5221627535

 END OF EFFECTIVE MASSES SECTION

 ---- first-order wavefunction calculations are completed ----

 Total localisation tensor (bohr^2) in cartesian coordinates
  WARNING : still subject to testing - especially symmetries.
      direction              matrix element
   alpha     beta       real part   imaginary part
     1        1       4.6334253716    0.0000000000
     1        2       1.3105264083    0.0000000000
     1        3       3.2101295513    0.0000000000
     2        1       1.3105264083    0.0000000000
     2        2       3.7067284410    0.0000000000
     2        3       2.2698983238    0.0000000000
     3        1       3.2101295513    0.0000000000
     3        2       2.2698983238    0.0000000000
     3        3       8.3401671348    0.0000000000

 respfn : d/dk was computed, but no 2DTE, so no DDB output.

== END DATASET(S) ==============================================================

 -outvars: echo values of variables after computation  --------
            acell      1.0000000000E+00  1.0000000000E+00  1.0000000000E+00 Bohr
              amu      8.89058500E+01  5.86900000E+01  1.21753000E+02
             ecut      4.90000000E+01 Hartree
           etotal     -6.5997534069E+01
            fcart      0.0000000000E+00  0.0000000000E+00  0.0000000000E+00
                       0.0000000000E+00  0.0000000000E+00  0.0000000000E+00
                       0.0000000000E+00  0.0000000000E+00  0.0000000000E+00
-          fftalg         512
           irdden           1
           irdwfk           1
           istwfk        1    1
              ixc     -116133
              kpt      0.00000000E+00  0.00000000E+00  0.00000000E+00
                       5.00000000E-01  0.00000000E+00  5.00000000E-01
           kptopt           0
P           mkmem           2
P          mkqmem           2
P          mk1mem           2
            natom           3
            nband          31
           nbdbuf           4
            ngfft          54      54      54
             nkpt           2
            nstep         100
             nsym          24
           ntypat           3
              occ      2.000000  2.000000  2.000000  2.000000  2.000000  2.000000
                       2.000000  2.000000  2.000000  2.000000  2.000000  2.000000
                       2.000000  2.000000  2.000000  2.000000  2.000000  2.000000
                       2.000000  2.000000  2.000000  2.000000  0.000000  0.000000
                       0.000000  0.000000  0.000000  0.000000  0.000000  0.000000
                       0.000000
        optdriver           1
            prtwf          -1
            rfdir           1       1       1
           rfelfd           2
            rprim      7.2587514149E+00  0.0000000000E+00  4.1908420833E+00
                       2.4195838050E+00  6.8436164645E+00  4.1908420833E+00
                       0.0000000000E+00  0.0000000000E+00  8.3816841667E+00
          spgroup         216
           strten      0.0000000000E+00  0.0000000000E+00  0.0000000000E+00
                       0.0000000000E+00  0.0000000000E+00  0.0000000000E+00
           symrel      1  0  0   0  1  0   0  0  1       0 -1  1   0 -1  0   1 -1  0
                      -1  0  0  -1  0  1  -1  1  0       0  1 -1   1  0 -1   0  0 -1
                      -1  0  0  -1  1  0  -1  0  1       0 -1  1   1 -1  0   0 -1  0
                       1  0  0   0  0  1   0  1  0       0  1 -1   0  0 -1   1  0 -1
                      -1  0  1  -1  1  0  -1  0  0       0 -1  0   1 -1  0   0 -1  1
                       1  0 -1   0  0 -1   0  1 -1       0  1  0   0  0  1   1  0  0
                       1  0 -1   0  1 -1   0  0 -1       0 -1  0   0 -1  1   1 -1  0
                      -1  0  1  -1  0  0  -1  1  0       0  1  0   1  0  0   0  0  1
                       0  0 -1   0  1 -1   1  0 -1       1 -1  0   0 -1  1   0 -1  0
                       0  0  1   1  0  0   0  1  0      -1  1  0  -1  0  0  -1  0  1
                       0  0  1   0  1  0   1  0  0       1 -1  0   0 -1  0   0 -1  1
                       0  0 -1   1  0 -1   0  1 -1      -1  1  0  -1  0  1  -1  0  0
           tolwfr      1.00000000E-20
            typat      1  2  3
           useylm           1
              wtk        0.50000    0.50000
           xangst      2.5607772077E+00  1.8107429287E+00  4.4353962306E+00
                       1.2803886039E+00  9.0537146434E-01  2.2176981153E+00
                       0.0000000000E+00  0.0000000000E+00  0.0000000000E+00
            xcart      4.8391676099E+00  3.4218082323E+00  8.3816841667E+00
                       2.4195838050E+00  1.7109041161E+00  4.1908420833E+00
                       0.0000000000E+00  0.0000000000E+00  0.0000000000E+00
             xred      5.0000000000E-01  5.0000000000E-01  5.0000000000E-01
                       2.5000000000E-01  2.5000000000E-01  2.5000000000E-01
                       0.0000000000E+00  0.0000000000E+00  0.0000000000E+00
            znucl       39.00000   28.00000   51.00000

- Timing analysis has been suppressed with timopt=0

 Suggested references for the acknowledgment of ABINIT usage.

 Calculation completed.
.Delivered  14 WARNINGs and   9 COMMENTs to log file.