.Version 9.5.1 of ABINIT

 ABINIT is a project of the Universite Catholique de Louvain,
 Corning Inc. and other collaborators, see ~abinit/doc/developers/contributors.txt .
 acknowledgments of the ABINIT effort.

.Starting date : Sun 25 Apr 2021.
- ( at 17h16 )

- input  file    -> /scratch/users/j/a/jabreu/flow_simple2/flow/w161/t1/run.abi
- output file    -> /scratch/users/j/a/jabreu/flow_simple2/flow/w161/t1/run.abo
- root for input  files -> /scratch/users/j/a/jabreu/flow_simple2/flow/w161/t1/indata/in
- root for output files -> /scratch/users/j/a/jabreu/flow_simple2/flow/w161/t1/outdata/out

 Symmetries : space group F-4 3 m (#216); Bravais cF (face-center cubic)
     intxc =       0      iscf =       7    lmnmax =      32     lnmax =       8
     mgfft =      40  mpssoang =       4    mqgrid =    3001     natom =       2
  nloc_mem =       1    nspden =       1   nspinor =       1    nsppol =       1
      nsym =      24    n1xccc =    2501    ntypat =       2    occopt =       1
   xclevel =       2
-    mband =          17        mffmem =           1         mkmem =           1
-   mkqmem =           1        mk1mem =           1           mpw =        2656
      nfft =       64000          nkpt =           1
  Rough estimation (10% accuracy) of disk space for files :

------------- Echo of variables that govern the present computation ------------
-
- outvars: echo of selected default values
-   iomode0 =  0 , fftalg0 =512 , wfoptalg0 =  0
-
- outvars: echo of global parameters not present in the input file
-  max_nthreads =    0
-
 -outvars: echo values of preprocessed input variables --------
            acell      1.0000000000E+00  1.0000000000E+00  1.0000000000E+00 Bohr
              amu      1.78490000E+02  1.20110000E+01
             ecut      4.10000000E+01 Hartree
-          fftalg         512
           irdden           1
           irdwfk           1
              ixc     -116133
              kpt      5.00000000E-01  2.50000000E-01  7.50000000E-01
           kptopt           0
P           mkmem           1
P          mkqmem           1
P          mk1mem           1
            natom           2
            nband          17
           nbdbuf           4
            ngfft          40      40      40
             nkpt           1
            nstep         100
             nsym          24
           ntypat           2
              occ      2.000000  2.000000  2.000000  2.000000  2.000000  2.000000
                       2.000000  2.000000  0.000000  0.000000  0.000000  0.000000
                       0.000000  0.000000  0.000000  0.000000  0.000000
        optdriver           1
            prtwf          -1
            rfdir           1       1       1
           rfelfd           2
            rprim      5.7850466716E+00  0.0000000000E+00  3.3399982531E+00
                       1.9283488905E+00  5.4541943079E+00  3.3399982531E+00
                       0.0000000000E+00  0.0000000000E+00  6.6799965062E+00
          spgroup         216
           symrel      1  0  0   0  1  0   0  0  1       0 -1  1   0 -1  0   1 -1  0
                      -1  0  0  -1  0  1  -1  1  0       0  1 -1   1  0 -1   0  0 -1
                      -1  0  0  -1  1  0  -1  0  1       0 -1  1   1 -1  0   0 -1  0
                       1  0  0   0  0  1   0  1  0       0  1 -1   0  0 -1   1  0 -1
                      -1  0  1  -1  1  0  -1  0  0       0 -1  0   1 -1  0   0 -1  1
                       1  0 -1   0  0 -1   0  1 -1       0  1  0   0  0  1   1  0  0
                       1  0 -1   0  1 -1   0  0 -1       0 -1  0   0 -1  1   1 -1  0
                      -1  0  1  -1  0  0  -1  1  0       0  1  0   1  0  0   0  0  1
                       0  0 -1   0  1 -1   1  0 -1       1 -1  0   0 -1  1   0 -1  0
                       0  0  1   1  0  0   0  1  0      -1  1  0  -1  0  0  -1  0  1
                       0  0  1   0  1  0   1  0  0       1 -1  0   0 -1  0   0 -1  1
                       0  0 -1   1  0 -1   0  1 -1      -1  1  0  -1  0  1  -1  0  0
           tolwfr      1.00000000E-20
            typat      1  2
           useylm           1
           xangst      0.0000000000E+00  0.0000000000E+00  0.0000000000E+00
                       3.0613148492E+00  2.1646764892E+00  5.3023528568E+00
            xcart      0.0000000000E+00  0.0000000000E+00  0.0000000000E+00
                       5.7850466716E+00  4.0906457309E+00  1.0019994759E+01
             xred      0.0000000000E+00  0.0000000000E+00  0.0000000000E+00
                       7.5000000000E-01  7.5000000000E-01  7.5000000000E-01
            znucl       72.00000    6.00000

 chkinp: Checking input parameters for consistency.

== DATASET  1 ==================================================================
-   mpi_nproc: 1, omp_nthreads: -1 (-1 if OMP is not activated)

--- !DatasetInfo
iteration_state: {dtset: 1, }
dimensions: {natom: 2, nkpt: 1, mband: 17, nsppol: 1, nspinor: 1, nspden: 1, mpw: 2656, }
cutoff_energies: {ecut:  41.0, pawecutdg:  -1.0, }
electrons: {nelect:   1.60000000E+01, charge:   0.00000000E+00, occopt:   1.00000000E+00, tsmear:   1.00000000E-02, }
meta: {optdriver: 1, rfelfd: 2, }
...

 Real(R)+Recip(G) space primitive vectors, cartesian coordinates (Bohr,Bohr^-1):
 R(1)=  5.7850467  0.0000000  3.3399983  G(1)=  0.1728595 -0.0611150  0.0000000
 R(2)=  1.9283489  5.4541943  3.3399983  G(2)=  0.0000000  0.1833451  0.0000000
 R(3)=  0.0000000  0.0000000  6.6799965  G(3)= -0.0864297 -0.0611150  0.1497007
 Unit cell volume ucvol=  2.1077238E+02 bohr^3
 Angles (23,13,12)=  6.00000000E+01  6.00000000E+01  6.00000000E+01 degrees

 getcut: wavevector=  0.0000  0.0000  0.0000  ngfft=  40  40  40
         ecut(hartree)=     41.000   => boxcut(ratio)=   2.07743

--- Pseudopotential description ------------------------------------------------
- pspini: atom type   1  psp file is /scratch/users/j/a/jabreu/pseudos/PBEsol/Hf.psp8
- pspatm: opening atomic psp file    /scratch/users/j/a/jabreu/pseudos/PBEsol/Hf.psp8
- Hf    ONCVPSP-3.3.0  r_core=   1.71613   1.71613   1.71613   2.42541
- 72.00000  12.00000    180112                znucl, zion, pspdat
    8 -116133    3    4       600   0.00000   pspcod,pspxc,lmax,lloc,mmax,r2well
    5.99000000000000    5.40000000000000    0.00000000000000   rchrg,fchrg,qchrg
     nproj     2     2     2     2
     extension_switch     1
  pspatm : epsatm=   21.99082902
         --- l  ekb(1:nproj) -->
             0    5.882750   -0.519107
             1    2.555685   -1.768609
             2    1.383259    0.138001
             3    9.464546    0.347497
 pspatm: atomic psp has been read  and splines computed

- pspini: atom type   2  psp file is /scratch/users/j/a/jabreu/pseudos/PBEsol/C.psp8
- pspatm: opening atomic psp file    /scratch/users/j/a/jabreu/pseudos/PBEsol/C.psp8
- C     ONCVPSP-3.3.0  r_core=   1.20440   1.26326
-  6.00000   4.00000    180112                znucl, zion, pspdat
    8 -116133    1    4       600   0.00000   pspcod,pspxc,lmax,lloc,mmax,r2well
    5.99000000000000    4.00000000000000    0.00000000000000   rchrg,fchrg,qchrg
     nproj     2     2
     extension_switch     1
  pspatm : epsatm=    4.34909529
         --- l  ekb(1:nproj) -->
             0    6.468939    0.390031
             1   -4.179695   -0.878453
 pspatm: atomic psp has been read  and splines computed

   4.21438789E+02                                ecore*ucvol(ha*bohr**3)

-inwffil : will read wavefunctions from disk file /scratch/users/j/a/jabreu/flow_simple2/flow/w161/t1/indata/in_WFK

 ==>  initialize data related to q vector <==

 The list of irreducible perturbations for this q vector is:
    1)    idir= 1    ipert=   3
    2)    idir= 2    ipert=   3
    3)    idir= 3    ipert=   3

 Perturbation wavevector (in red.coord.)   0.000000  0.000000  0.000000
 Perturbation : derivative vs k along direction   1

 dfpt_looppert : COMMENT -
  In a d/dk calculation, iscf is set to -3 automatically.
 The set of symmetries contains only one element for this perturbation.
 symkpt : not enough symmetry to change the number of k points.

[...]

 Initialisation of the first-order wave-functions :
  ireadwf=   0

--- !BeginCycle
iteration_state: {dtset: 1, }
solver: {iscf: 7, nstep: 100, nline: 4, wfoptalg: 0, }
tolerances: {tolwfr: 1.00E-20, }
...

     iter   2DEtotal(Ha)        deltaE(Ha) residm    vres2
-ETOT  1  -26.947323701154     -2.695E+01 2.882E-02 0.000E+00
 ETOT  2  -26.951112208247     -3.789E-03 4.240E-05 0.000E+00
 ETOT  3  -26.951112657748     -4.495E-07 2.946E-08 0.000E+00
 ETOT  4  -26.951112658311     -5.632E-10 7.928E-11 0.000E+00
 ETOT  5  -26.951112658312     -1.215E-12 1.118E-13 0.000E+00
 ETOT  6  -26.951112658312     -2.842E-14 2.647E-16 0.000E+00
 ETOT  7  -26.951112658312      1.776E-14 5.410E-19 0.000E+00
 ETOT  8  -26.951112658312     -7.105E-15 6.815E-21 0.000E+00

 At SCF step    8   max residual=  6.81E-21 < tolwfr=  1.00E-20 =>converged.

 ----iterations are completed or convergence reached----

 dfpt_looppert: DFPT cycle converged with prtwf=-1. Will skip output of the 1st-order WFK file.
 dfpt_looppert : ek2=    4.2466698950E+01
          f-sum rule ratio=    1.1939317740E+00
 prteigrs : about to open file /scratch/users/j/a/jabreu/flow_simple2/flow/w161/t1/tmpdata/tmp_1WF1_EIG
 Expectation of eigenvalue derivatives (hartree) for nkpt=   1  k points:
  (in case of degenerate eigenvalues, averaged derivative)
 kpt#   1, nband= 17, wtk=  1.00000, kpt=  0.5000  0.2500  0.7500 (reduced coord)
   0.00000   -0.00000    0.00000   -0.00000    0.00000   -0.00000    0.00000   -0.00000
  -0.00000    0.00000   -0.00000   -0.00000   -0.00000    0.00000   -0.00000    0.00000
   0.00000

 Eight components of 2nd-order total energy (hartree) are
 1,2,3: 0th-order hamiltonian combined with 1st-order wavefunctions
     kin0=   8.76247528E+00 eigvalue=  -1.83317661E-01  local=  -3.45507200E+00
 4,5,6: 1st-order hamiltonian combined with 1st and 0th-order wfs
     kin1=  -5.07023412E+01  Hartree=   0.00000000E+00     xc=   0.00000000E+00
 7,8,9: eventually, occupation + non-local contributions
    edocc=   2.12716726E+01     enl0=   5.55354391E-01   enl1=  -3.19988411E+00
 1-9 gives the relaxation energy (to be shifted if some occ is /=2.0)
   erelax=  -2.69511127E+01
  No Ewald or frozen-wf contrib.: the relaxation energy is the total one
 2DEtotal=   -0.2695111266E+02 Ha. Also 2DEtotal=   -0.733377071999E+03 eV
    (  non-var. 2DEtotal :   -2.6951112658E+01 Ha)

 Perturbation wavevector (in red.coord.)   0.000000  0.000000  0.000000
 Perturbation : derivative vs k along direction   2
 The set of symmetries contains only one element for this perturbation.
 symkpt : not enough symmetry to change the number of k points.

[...]

 Perturbation wavevector (in red.coord.)   0.000000  0.000000  0.000000
 Perturbation : derivative vs k along direction   3
 The set of symmetries contains only one element for this perturbation.
 symkpt : not enough symmetry to change the number of k points.

-inwffil : will read wavefunctions from disk file /scratch/users/j/a/jabreu/flow_simple2/flow/w161/t1/indata/in_WFK

 Initialisation of the first-order wave-functions :
  ireadwf=   0

--- !BeginCycle
iteration_state: {dtset: 1, }
solver: {iscf: 7, nstep: 100, nline: 4, wfoptalg: 0, }
tolerances: {tolwfr: 1.00E-20, }
...

     iter   2DEtotal(Ha)        deltaE(Ha) residm    vres2
-ETOT  1  -26.947323705440     -2.695E+01 2.882E-02 0.000E+00
 ETOT  2  -26.951112212529     -3.789E-03 4.240E-05 0.000E+00
 ETOT  3  -26.951112662029     -4.495E-07 2.946E-08 0.000E+00
 ETOT  4  -26.951112662592     -5.632E-10 7.928E-11 0.000E+00
 ETOT  5  -26.951112662593     -1.190E-12 1.118E-13 0.000E+00
 ETOT  6  -26.951112662593      0.000E+00 2.647E-16 0.000E+00
 ETOT  7  -26.951112662593      1.776E-14 5.410E-19 0.000E+00
 ETOT  8  -26.951112662593     -1.066E-14 6.815E-21 0.000E+00

 At SCF step    8   max residual=  6.81E-21 < tolwfr=  1.00E-20 =>converged.

 ----iterations are completed or convergence reached----

 dfpt_looppert: DFPT cycle converged with prtwf=-1. Will skip output of the 1st-order WFK file.
 dfpt_looppert : ek2=    4.2466698950E+01
          f-sum rule ratio=    1.1939317741E+00
 prteigrs : about to open file /scratch/users/j/a/jabreu/flow_simple2/flow/w161/t1/tmpdata/tmp_1WF1_EIG
 Expectation of eigenvalue derivatives (hartree) for nkpt=   1  k points:
  (in case of degenerate eigenvalues, averaged derivative)
 kpt#   1, nband= 17, wtk=  1.00000, kpt=  0.5000  0.2500  0.7500 (reduced coord)
  -0.00000    0.00000    0.00000   -0.00000   -0.00000    0.00000   -0.00000   -0.00000
   0.00000    0.00000   -0.00000    0.00000   -0.00000   -0.00000    0.00000   -0.00000
   0.00000

 Eight components of 2nd-order total energy (hartree) are
 1,2,3: 0th-order hamiltonian combined with 1st-order wavefunctions
     kin0=   8.76247526E+00 eigvalue=  -1.83317665E-01  local=  -3.45507199E+00
 4,5,6: 1st-order hamiltonian combined with 1st and 0th-order wfs
     kin1=  -5.07023412E+01  Hartree=   0.00000000E+00     xc=   0.00000000E+00
 7,8,9: eventually, occupation + non-local contributions
    edocc=   2.12716727E+01     enl0=   5.55354385E-01   enl1=  -3.19988411E+00
 1-9 gives the relaxation energy (to be shifted if some occ is /=2.0)
   erelax=  -2.69511127E+01
  No Ewald or frozen-wf contrib.: the relaxation energy is the total one
 2DEtotal=   -0.2695111266E+02 Ha. Also 2DEtotal=   -0.733377072116E+03 eV
    (  non-var. 2DEtotal :   -2.6951112663E+01 Ha)

 CALCULATION OF EFFECTIVE MASSES
 NOTE : Additional infos (eff. mass eigenvalues, eigenvectors and, if degenerate, average mass) are available in stdout.

 K-point ( 0.500, 0.250, 0.750) | band =     8
 Effective mass tensor:
             -2.0728163549              2.0454394930              2.5051415277
              2.0454394930             -3.5191604922             -3.5428051254
              2.5051415277             -3.5428051254             -4.9655046255
 Effective mass tensor eigenvalues:
             -9.3045370338             -0.6264722195             -0.6264722193
 Angular average effective mass 1/(<1/m>)=  -0.9091034711
 Angular average effective mass for Frohlich model (<m**0.5>)**2=  -1.1497327385
 Effective masses along directions: (cart. coord. / red. coord. -> eff. mass)
    1:   1.000000  0.000000  0.000000 /   0.948683  0.316228  0.000000 ->  -0.7417779179
    2:   0.000000  1.000000  0.000000 /   0.000000  1.000000  0.000000 ->  -0.9091034713
    3:   0.000000  0.000000  1.000000 /   0.408248  0.408248  0.816497 ->  -1.1739056559
    4:   0.577350  0.577350  0.577350 /   0.585539  0.688047  0.428644 ->  -0.8228799206
    5:   0.000000  0.707107  0.707107 /   0.289489  0.762222  0.578977 ->  -2.7163946112
    6:   0.707107  0.000000  0.707107 /   0.731423  0.422287  0.535439 ->  -0.6536997100
    7:   0.707107  0.707107  0.000000 /   0.616798  0.787122  0.000000 ->  -0.6349391818

 K-point ( 0.500, 0.250, 0.750) | band =     9
 Effective mass tensor:
              0.8345374524             -0.6428989678             -0.7873872136
             -0.6428989678              1.2891356722              1.1135336765
             -0.7873872136              1.1135336765              1.7437338920
 Effective mass tensor eigenvalues:
              0.3799392326              0.3799392327              3.1075285513
 Angular average effective mass 1/(<1/m>)=   0.5370762711
 Angular average effective mass for Frohlich model (<m**0.5>)**2=   0.6375155178
 Effective masses along directions: (cart. coord. / red. coord. -> eff. mass)
    1:   1.000000  0.000000  0.000000 /   0.948683  0.316228  0.000000 ->   0.4450444850
    2:   0.000000  1.000000  0.000000 /   0.000000  1.000000  0.000000 ->   0.5370762711
    3:   0.000000  0.000000  1.000000 /   0.408248  0.408248  0.816497 ->   0.6770941476
    4:   0.577350  0.577350  0.577350 /   0.585539  0.688047  0.428644 ->   0.4900069697
    5:   0.000000  0.707107  0.707107 /   0.289489  0.762222  0.578977 ->   1.3768780665
    6:   0.707107  0.000000  0.707107 /   0.731423  0.422287  0.535439 ->   0.3954397197
    7:   0.707107  0.707107  0.000000 /   0.616798  0.787122  0.000000 ->   0.3847679313

 END OF EFFECTIVE MASSES SECTION

 ---- first-order wavefunction calculations are completed ----

 Total localisation tensor (bohr^2) in cartesian coordinates
  WARNING : still subject to testing - especially symmetries.
      direction              matrix element
   alpha     beta       real part   imaginary part
     1        1       3.1244656524    0.0000000000
     1        2       0.8837323403    0.0000000000
     1        3       2.1646933026    0.0000000000
     2        1       0.8837323403    0.0000000000
     2        2       2.4995725222    0.0000000000
     2        3       1.5306693136    0.0000000000
     3        1       2.1646933026    0.0000000000
     3        2       1.5306693136    0.0000000000
     3        3       5.6240381748    0.0000000000

 respfn : d/dk was computed, but no 2DTE, so no DDB output.

== END DATASET(S) ==============================================================

 -outvars: echo values of variables after computation  --------
            acell      1.0000000000E+00  1.0000000000E+00  1.0000000000E+00 Bohr
              amu      1.78490000E+02  1.20110000E+01
             ecut      4.10000000E+01 Hartree
           etotal     -2.6951112663E+01
            fcart      0.0000000000E+00  0.0000000000E+00  0.0000000000E+00
                       0.0000000000E+00  0.0000000000E+00  0.0000000000E+00
-          fftalg         512
           irdden           1
           irdwfk           1
              ixc     -116133
              kpt      5.00000000E-01  2.50000000E-01  7.50000000E-01
           kptopt           0
P           mkmem           1
P          mkqmem           1
P          mk1mem           1
            natom           2
            nband          17
           nbdbuf           4
            ngfft          40      40      40
             nkpt           1
            nstep         100
             nsym          24
           ntypat           2
              occ      2.000000  2.000000  2.000000  2.000000  2.000000  2.000000
                       2.000000  2.000000  0.000000  0.000000  0.000000  0.000000
                       0.000000  0.000000  0.000000  0.000000  0.000000
        optdriver           1
            prtwf          -1
            rfdir           1       1       1
           rfelfd           2
            rprim      5.7850466716E+00  0.0000000000E+00  3.3399982531E+00
                       1.9283488905E+00  5.4541943079E+00  3.3399982531E+00
                       0.0000000000E+00  0.0000000000E+00  6.6799965062E+00
          spgroup         216
           strten      0.0000000000E+00  0.0000000000E+00  0.0000000000E+00
                       0.0000000000E+00  0.0000000000E+00  0.0000000000E+00
           symrel      1  0  0   0  1  0   0  0  1       0 -1  1   0 -1  0   1 -1  0
                      -1  0  0  -1  0  1  -1  1  0       0  1 -1   1  0 -1   0  0 -1
                      -1  0  0  -1  1  0  -1  0  1       0 -1  1   1 -1  0   0 -1  0
                       1  0  0   0  0  1   0  1  0       0  1 -1   0  0 -1   1  0 -1
                      -1  0  1  -1  1  0  -1  0  0       0 -1  0   1 -1  0   0 -1  1
                       1  0 -1   0  0 -1   0  1 -1       0  1  0   0  0  1   1  0  0
                       1  0 -1   0  1 -1   0  0 -1       0 -1  0   0 -1  1   1 -1  0
                      -1  0  1  -1  0  0  -1  1  0       0  1  0   1  0  0   0  0  1
                       0  0 -1   0  1 -1   1  0 -1       1 -1  0   0 -1  1   0 -1  0
                       0  0  1   1  0  0   0  1  0      -1  1  0  -1  0  0  -1  0  1
                       0  0  1   0  1  0   1  0  0       1 -1  0   0 -1  0   0 -1  1
                       0  0 -1   1  0 -1   0  1 -1      -1  1  0  -1  0  1  -1  0  0
           tolwfr      1.00000000E-20
            typat      1  2
           useylm           1
           xangst      0.0000000000E+00  0.0000000000E+00  0.0000000000E+00
                       3.0613148492E+00  2.1646764892E+00  5.3023528568E+00
            xcart      0.0000000000E+00  0.0000000000E+00  0.0000000000E+00
                       5.7850466716E+00  4.0906457309E+00  1.0019994759E+01
             xred      0.0000000000E+00  0.0000000000E+00  0.0000000000E+00
                       7.5000000000E-01  7.5000000000E-01  7.5000000000E-01
            znucl       72.00000    6.00000

- Timing analysis has been suppressed with timopt=0

 Suggested references for the acknowledgment of ABINIT usage.

 Calculation completed.
.Delivered   6 WARNINGs and   5 COMMENTs to log file.