.Version 9.5.2 of ABINIT

 ABINIT is a project of the Universite Catholique de Louvain,
 Corning Inc. and other collaborators, see ~abinit/doc/developers/contributors.txt .
 acknowledgments of the ABINIT effort.

.Starting date : Mon 24 May 2021.
- ( at 11h56 )

- input  file    -> /scratch/users/j/a/jabreu/flow_simple_10atoms/flow/w370/t1/run.abi
- output file    -> /scratch/users/j/a/jabreu/flow_simple_10atoms/flow/w370/t1/run.abo
- root for input  files -> /scratch/users/j/a/jabreu/flow_simple_10atoms/flow/w370/t1/indata/in
- root for output files -> /scratch/users/j/a/jabreu/flow_simple_10atoms/flow/w370/t1/outdata/out

 Symmetries : space group Fm -3 m (#225); Bravais cF (face-center cubic)
     intxc =       0      iscf =       7    lmnmax =      18     lnmax =       6
     mgfft =      72  mpssoang =       3    mqgrid =    3001     natom =      10
  nloc_mem =       1    nspden =       1   nspinor =       1    nsppol =       1
      nsym =      48    n1xccc =    2501    ntypat =       4    occopt =       1
   xclevel =       2
-    mband =          52        mffmem =           1         mkmem =           2
-   mkqmem =           2        mk1mem =           2           mpw =       13720
      nfft =      373248          nkpt =           2
  Rough estimation (10% accuracy) of disk space for files :

------------- Echo of variables that govern the present computation ------------
-
- outvars: echo of selected default values
-   iomode0 =  0 , fftalg0 =512 , wfoptalg0 =  0
-
- outvars: echo of global parameters not present in the input file
-  max_nthreads =    0
-
 -outvars: echo values of preprocessed input variables --------
            acell      1.0000000000E+00  1.0000000000E+00  1.0000000000E+00 Bohr
              amu      3.90983000E+01  2.29897680E+01  1.02905500E+02
                       1.89984032E+01
             ecut      4.40000000E+01 Hartree
-          fftalg         512
           irdden           1
           irdwfk           1
           istwfk        0    1
              ixc     -116133
              kpt      5.00000000E-01  2.08333333E-02  5.20833333E-01
                       5.00000000E-01  0.00000000E+00  5.00000000E-01
           kptopt           0
P           mkmem           2
P          mkqmem           2
P          mk1mem           2
            natom          10
            nband          52
           nbdbuf           4
            ngfft          72      72      72
             nkpt           2
            nstep        2000
             nsym          48
           ntypat           4
              occ      2.000000  2.000000  2.000000  2.000000  2.000000  2.000000
                       2.000000  2.000000  2.000000  2.000000  2.000000  2.000000
                       2.000000  2.000000  2.000000  2.000000  2.000000  2.000000
                       2.000000  2.000000  2.000000  2.000000  2.000000  2.000000
                       2.000000  2.000000  2.000000  2.000000  2.000000  2.000000
                       2.000000  2.000000  2.000000  2.000000  2.000000  2.000000
                       2.000000  2.000000  2.000000  2.000000  2.000000  2.000000
                       2.000000  0.000000  0.000000  0.000000  0.000000  0.000000
                       0.000000  0.000000  0.000000  0.000000
        optdriver           1
            prtwf          -1
            rfdir           1       1       1
           rfelfd           2
            rprim      9.6589625548E+00  0.0000000000E+00  5.5766046311E+00
                       3.2196541849E+00  9.1065572290E+00  5.5766046311E+00
                       0.0000000000E+00  0.0000000000E+00  1.1153209262E+01
          spgroup         225
           symrel      1  0  0   0  1  0   0  0  1      -1  0  0   0 -1  0   0  0 -1
                       0 -1  1   0 -1  0   1 -1  0       0  1 -1   0  1  0  -1  1  0
                      -1  0  0  -1  0  1  -1  1  0       1  0  0   1  0 -1   1 -1  0
                       0  1 -1   1  0 -1   0  0 -1       0 -1  1  -1  0  1   0  0  1
                      -1  0  0  -1  1  0  -1  0  1       1  0  0   1 -1  0   1  0 -1
                       0 -1  1   1 -1  0   0 -1  0       0  1 -1  -1  1  0   0  1  0
                       1  0  0   0  0  1   0  1  0      -1  0  0   0  0 -1   0 -1  0
                       0  1 -1   0  0 -1   1  0 -1       0 -1  1   0  0  1  -1  0  1
                      -1  0  1  -1  1  0  -1  0  0       1  0 -1   1 -1  0   1  0  0
                       0 -1  0   1 -1  0   0 -1  1       0  1  0  -1  1  0   0  1 -1
                       1  0 -1   0  0 -1   0  1 -1      -1  0  1   0  0  1   0 -1  1
                       0  1  0   0  0  1   1  0  0       0 -1  0   0  0 -1  -1  0  0
                       1  0 -1   0  1 -1   0  0 -1      -1  0  1   0 -1  1   0  0  1
                       0 -1  0   0 -1  1   1 -1  0       0  1  0   0  1 -1  -1  1  0
                      -1  0  1  -1  0  0  -1  1  0       1  0 -1   1  0  0   1 -1  0
                       0  1  0   1  0  0   0  0  1       0 -1  0  -1  0  0   0  0 -1
                       0  0 -1   0  1 -1   1  0 -1       0  0  1   0 -1  1  -1  0  1
                       1 -1  0   0 -1  1   0 -1  0      -1  1  0   0  1 -1   0  1  0
                       0  0  1   1  0  0   0  1  0       0  0 -1  -1  0  0   0 -1  0
                      -1  1  0  -1  0  0  -1  0  1       1 -1  0   1  0  0   1  0 -1
                       0  0  1   0  1  0   1  0  0       0  0 -1   0 -1  0  -1  0  0
                       1 -1  0   0 -1  0   0 -1  1      -1  1  0   0  1  0   0  1 -1
                       0  0 -1   1  0 -1   0  1 -1       0  0  1  -1  0  1   0 -1  1
                      -1  1  0  -1  0  1  -1  0  0       1 -1  0   1  0 -1   1  0  0
           tolwfr      1.00000000E-20
            typat      1  1  2  3  4  4  4  4  4  4
           useylm           1
              wtk        0.50000    0.50000
           xangst      1.7037676142E+00  1.2047456336E+00  2.9510120721E+00
                       5.1113028426E+00  3.6142369007E+00  8.8530362163E+00
                       0.0000000000E+00  0.0000000000E+00  0.0000000000E+00
                       3.4075352284E+00  2.4094912672E+00  5.9020241442E+00
                       4.2123371213E+00  1.2713295153E+00  4.5080663757E+00
                       5.0171390141E+00  3.5476530191E+00  5.9020241442E+00
                       1.7979314427E+00  1.2713295153E+00  5.9020241442E+00
                       2.6027333356E+00  3.5476530191E+00  4.5080663757E+00
                       2.6027333356E+00  3.5476530191E+00  7.2959819126E+00
                       4.2123371213E+00  1.2713295153E+00  7.2959819126E+00
            xcart      3.2196541849E+00  2.2766393072E+00  5.5766046311E+00
                       9.6589625548E+00  6.8299179217E+00  1.6729813893E+01
                       0.0000000000E+00  0.0000000000E+00  0.0000000000E+00
                       6.4393083698E+00  4.5532786145E+00  1.1153209262E+01
                       7.9601635386E+00  2.4024646085E+00  8.5190108390E+00
                       9.4810187073E+00  6.7040926205E+00  1.1153209262E+01
                       3.3975980324E+00  2.4024646085E+00  1.1153209262E+01
                       4.9184532011E+00  6.7040926205E+00  8.5190108390E+00
                       4.9184532011E+00  6.7040926205E+00  1.3787407685E+01
                       7.9601635386E+00  2.4024646085E+00  1.3787407685E+01
             xred      2.5000000000E-01  2.5000000000E-01  2.5000000000E-01
                       7.5000000000E-01  7.5000000000E-01  7.5000000000E-01
                       0.0000000000E+00  0.0000000000E+00  0.0000000000E+00
                       5.0000000000E-01  5.0000000000E-01  5.0000000000E-01
                       7.3618300000E-01  2.6381700000E-01  2.6381700000E-01
                       7.3618300000E-01  7.3618300000E-01  2.6381700000E-01
                       2.6381700000E-01  2.6381700000E-01  7.3618300000E-01
                       2.6381700000E-01  7.3618300000E-01  2.6381700000E-01
                       2.6381700000E-01  7.3618300000E-01  7.3618300000E-01
                       7.3618300000E-01  2.6381700000E-01  7.3618300000E-01
            znucl       19.00000   11.00000   45.00000    9.00000

 chkinp: Checking input parameters for consistency.

== DATASET  1 ==================================================================
-   mpi_nproc: 1, omp_nthreads: -1 (-1 if OMP is not activated)

--- !DatasetInfo
iteration_state: {dtset: 1, }
dimensions: {natom: 10, nkpt: 2, mband: 52, nsppol: 1, nspinor: 1, nspden: 1, mpw: 13720, }
cutoff_energies: {ecut:  44.0, pawecutdg:  -1.0, }
electrons: {nelect:   8.60000000E+01, charge:   0.00000000E+00, occopt:   1.00000000E+00, tsmear:   1.00000000E-02, }
meta: {optdriver: 1, rfelfd: 2, }
...

 Real(R)+Recip(G) space primitive vectors, cartesian coordinates (Bohr,Bohr^-1):
 R(1)=  9.6589626  0.0000000  5.5766046  G(1)=  0.1035308 -0.0366037  0.0000000
 R(2)=  3.2196542  9.1065572  5.5766046  G(2)=  0.0000000  0.1098110  0.0000000
 R(3)=  0.0000000  0.0000000 11.1532093  G(3)= -0.0517654 -0.0366037  0.0896603
 Unit cell volume ucvol=  9.8103512E+02 bohr^3
 Angles (23,13,12)=  6.00000000E+01  6.00000000E+01  6.00000000E+01 degrees

 getcut: wavevector=  0.0000  0.0000  0.0000  ngfft=  72  72  72
         ecut(hartree)=     44.000   => boxcut(ratio)=   2.16193

--- Pseudopotential description ------------------------------------------------
- pspini: atom type   1  psp file is /scratch/users/j/a/jabreu/pseudos/PBEsol/K.psp8
- pspatm: opening atomic psp file    /scratch/users/j/a/jabreu/pseudos/PBEsol/K.psp8
- K     ONCVPSP-3.3.0  r_core=   1.36296   1.46408   1.61068
- 19.00000   9.00000    180112                znucl, zion, pspdat
    8 -116133    2    4       400   0.00000   pspcod,pspxc,lmax,lloc,mmax,r2well
    3.99000000000000    5.00000000000000    0.00000000000000   rchrg,fchrg,qchrg
     nproj     2     2     2
     extension_switch     1
  pspatm : epsatm=    8.32487830
         --- l  ekb(1:nproj) -->
             0   10.921326    0.816676
             1    4.431000    0.560368
             2   -3.384038   -1.043186
 pspatm: atomic psp has been read  and splines computed

- pspini: atom type   2  psp file is /scratch/users/j/a/jabreu/pseudos/PBEsol/Na.psp8
- pspatm: opening atomic psp file    /scratch/users/j/a/jabreu/pseudos/PBEsol/Na.psp8
- Na    ONCVPSP-3.3.0  r_core=   1.20708   1.55069
- 11.00000   9.00000    180112                znucl, zion, pspdat
    8 -116133    1    4       400   0.00000   pspcod,pspxc,lmax,lloc,mmax,r2well
    3.99000000000000    0.00000000000000    0.00000000000000   rchrg,fchrg,qchrg
     nproj     2     2
     extension_switch     1
  pspatm : epsatm=    9.32878306
         --- l  ekb(1:nproj) -->
             0    2.657905   -0.678300
             1   -6.761319   -2.404728
 pspatm: atomic psp has been read  and splines computed

[...]

- pspini: atom type   4  psp file is /scratch/users/j/a/jabreu/pseudos/PBEsol/F.psp8
- pspatm: opening atomic psp file    /scratch/users/j/a/jabreu/pseudos/PBEsol/F.psp8
- F     ONCVPSP-3.3.0  r_core=   1.30942   1.45782   1.60379
-  9.00000   7.00000    180112                znucl, zion, pspdat
[...]
 4,5,6: 1st-order hamiltonian combined with 1st and 0th-order wfs
     kin1=  -8.14740327E+01  Hartree=   0.00000000E+00     xc=   0.00000000E+00
 7,8,9: eventually, occupation + non-local contributions
    edocc=   4.80279778E+00     enl0=   3.77360884E-01   enl1=  -1.98117331E+00
 1-9 gives the relaxation energy (to be shifted if some occ is /=2.0)
   erelax=  -4.17276030E+01
  No Ewald or frozen-wf contrib.: the relaxation energy is the total one
 2DEtotal=   -0.4172760300E+02 Ha. Also 2DEtotal=   -0.113546582278E+04 eV
    (  non-var. 2DEtotal :   -4.1727602999E+01 Ha)

 Perturbation wavevector (in red.coord.)   0.000000  0.000000  0.000000
 Perturbation : derivative vs k along direction   2
 The set of symmetries contains only one element for this perturbation.
 symkpt : not enough symmetry to change the number of k points.

[...]

 Perturbation wavevector (in red.coord.)   0.000000  0.000000  0.000000
 Perturbation : derivative vs k along direction   3
 The set of symmetries contains only one element for this perturbation.
 symkpt : not enough symmetry to change the number of k points.

 Initialisation of the first-order wave-functions :
  ireadwf=   0

--- !BeginCycle
iteration_state: {dtset: 1, }
solver: {iscf: 7, nstep: 2000, nline: 4, wfoptalg: 0, }
tolerances: {tolwfr: 1.00E-20, }
...

     iter   2DEtotal(Ha)        deltaE(Ha) residm    vres2
-ETOT  1  -41.674366253641     -4.167E+01 2.399E-01 0.000E+00
 ETOT  2  -41.727196732219     -5.283E-02 4.492E-03 0.000E+00
 ETOT  3  -41.727595736427     -3.990E-04 1.558E-03 0.000E+00
 ETOT  4  -41.727603037390     -7.301E-06 8.797E-05 0.000E+00
 ETOT  5  -41.727603243421     -2.060E-07 3.178E-05 0.000E+00
 ETOT  6  -41.727603250112     -6.690E-09 2.158E-06 0.000E+00
 ETOT  7  -41.727603250344     -2.322E-10 7.826E-07 0.000E+00
 ETOT  8  -41.727603250353     -8.804E-12 6.585E-08 0.000E+00
 ETOT  9  -41.727603250353     -3.340E-13 2.129E-08 0.000E+00
 ETOT 10  -41.727603250353     -6.395E-14 3.875E-09 0.000E+00
 ETOT 11  -41.727603250353      6.395E-14 6.153E-10 0.000E+00
 ETOT 12  -41.727603250353     -2.842E-14 2.415E-10 0.000E+00
 ETOT 13  -41.727603250353     -1.421E-14 2.676E-11 0.000E+00
 ETOT 14  -41.727603250353      7.105E-15 1.748E-11 0.000E+00
 ETOT 15  -41.727603250353     -7.105E-15 1.952E-12 0.000E+00
 ETOT 16  -41.727603250353      1.421E-14 1.280E-12 0.000E+00
 ETOT 17  -41.727603250353     -1.421E-14 1.434E-13 0.000E+00
 ETOT 18  -41.727603250353      0.000E+00 9.447E-14 0.000E+00
 ETOT 19  -41.727603250353      0.000E+00 1.060E-14 0.000E+00
 ETOT 20  -41.727603250353     -1.421E-14 7.011E-15 0.000E+00
 ETOT 21  -41.727603250353      7.105E-15 7.864E-16 0.000E+00
 ETOT 22  -41.727603250353     -7.105E-15 5.224E-16 0.000E+00
 ETOT 23  -41.727603250353      0.000E+00 5.852E-17 0.000E+00
 ETOT 24  -41.727603250353      7.105E-15 3.903E-17 0.000E+00
 ETOT 25  -41.727603250353      0.000E+00 4.365E-18 0.000E+00
 ETOT 26  -41.727603250353      0.000E+00 2.923E-18 0.000E+00
 ETOT 27  -41.727603250353      7.105E-15 3.262E-19 0.000E+00
 ETOT 28  -41.727603250353     -7.105E-15 2.192E-19 0.000E+00
 ETOT 29  -41.727603250353     -7.105E-15 2.442E-20 0.000E+00
 ETOT 30  -41.727603250353      0.000E+00 1.645E-20 0.000E+00
 ETOT 31  -41.727603250353      0.000E+00 9.980E-21 0.000E+00

 At SCF step   31   max residual=  9.98E-21 < tolwfr=  1.00E-20 =>converged.

 ----iterations are completed or convergence reached----

 dfpt_looppert: DFPT cycle converged with prtwf=-1. Will skip output of the 1st-order WFK file.
 dfpt_looppert : ek2=    8.1880359581E+01
          f-sum rule ratio=    9.9503755390E-01
 prteigrs : about to open file /scratch/users/j/a/jabreu/flow_simple_10atoms/flow/w370/t1/tmpdata/tmp_1WF1_EIG
 Expectation of eigenvalue derivatives (hartree) for nkpt=   2  k points:
  (in case of degenerate eigenvalues, averaged derivative)
 kpt#   1, nband= 52, wtk=  0.50000, kpt=  0.5000  0.0208  0.5208 (reduced coord)
  -0.00000   -0.00000    0.00000   -0.00000   -0.00000    0.00007   -0.00007   -0.00253
   0.00005    0.00038   -0.00005   -0.00004    0.00319   -0.00105    0.00001   -0.00001
   0.00032    0.00065   -0.00032   -0.00068    0.00021   -0.00021    0.00252   -0.00159
  -0.00018    0.00295   -0.00583    0.00005    0.00006    0.00130   -0.00184    0.00518
  -0.00113    0.00096   -0.00245   -0.00307   -0.00276   -0.00006    0.00710   -0.00231
   0.00186   -0.00176   -0.00000    0.00311   -0.00150    0.00844    0.00258   -0.00331
   0.00594   -0.01806   -0.01575    0.00169
 prteigrs : prtvol=0 or 1, do not print more k-points.

 Eight components of 2nd-order total energy (hartree) are
 1,2,3: 0th-order hamiltonian combined with 1st-order wavefunctions
     kin0=   6.07251864E+01 eigvalue=   3.30690927E+00  local=  -2.74846275E+01
 4,5,6: 1st-order hamiltonian combined with 1st and 0th-order wfs
     kin1=  -8.14740327E+01  Hartree=   0.00000000E+00     xc=   0.00000000E+00
 7,8,9: eventually, occupation + non-local contributions
    edocc=   4.80278178E+00     enl0=   3.77353299E-01   enl1=  -1.98117379E+00
 1-9 gives the relaxation energy (to be shifted if some occ is /=2.0)
   erelax=  -4.17276033E+01
  No Ewald or frozen-wf contrib.: the relaxation energy is the total one
 2DEtotal=   -0.4172760325E+02 Ha. Also 2DEtotal=   -0.113546582960E+04 eV
    (  non-var. 2DEtotal :   -4.1727603250E+01 Ha)

 CALCULATION OF EFFECTIVE MASSES
 NOTE : Additional infos (eff. mass eigenvalues, eigenvectors and, if degenerate, average mass) are available in stdout.

 K-point ( 0.500, 0.021, 0.521) | band =    43
 Effective mass tensor:
          -1060.1285087210           1493.4874589350           1828.9625129253
           1493.4874589350          -2116.1835868343          -2586.5435614109
           1828.9625129253          -2586.5435614109          -3172.2293086739
 Effective mass tensor eigenvalues:
          -6340.0899814464             -4.3780344639             -4.0733883187
 Angular average effective mass 1/(<1/m>)=  -6.3282248029
 Angular average effective mass for Frohlich model (<m**0.5>)**2= -10.0851821937
 Effective masses along directions: (cart. coord. / red. coord. -> eff. mass)
    1:   1.000000  0.000000  0.000000 /   0.948683  0.316228  0.000000 ->  -4.9564076388
    2:   0.000000  1.000000  0.000000 /   0.000000  1.000000  0.000000 ->  -6.3282314651
    3:   0.000000  0.000000  1.000000 /   0.408248  0.408248  0.816497 ->  -8.7500137930
    4:   0.577350  0.577350  0.577350 /   0.585539  0.688047  0.428644 ->  -5.5229606601
    5:   0.000000  0.707107  0.707107 /   0.289489  0.762222  0.578977 -> -23.2725970603
    6:   0.707107  0.000000  0.707107 /   0.731423  0.422287  0.535439 ->  -4.4660012890
    7:   0.707107  0.707107  0.000000 /   0.616798  0.787122  0.000000 ->  -4.1366104552

 K-point ( 0.500, 0.000, 0.500) | band =    44
 Effective mass tensor:
              1.9966373583              0.1572764282             -0.1926249516
              0.1572764282              1.8854225735              0.2724091665
             -0.1926249516              0.2724091665              1.7742125248
 Effective mass tensor eigenvalues:
              1.4405793066              2.1078437737              2.1078493763
 Angular average effective mass 1/(<1/m>)=   1.8259272397
 Angular average effective mass for Frohlich model (<m**0.5>)**2=   1.8447126171
 Effective masses along directions: (cart. coord. / red. coord. -> eff. mass)
    1:   1.000000  0.000000  0.000000 /   0.948683  0.316228  0.000000 ->   1.9567864760
    2:   0.000000  1.000000  0.000000 /   0.000000  1.000000  0.000000 ->   1.8259261265
    3:   0.000000  0.000000  1.000000 /   0.408248  0.408248  0.816497 ->   1.7114741977
    4:   0.577350  0.577350  0.577350 /   0.585539  0.688047  0.428644 ->   2.0176740366
    5:   0.000000  0.707107  0.707107 /   0.289489  0.762222  0.578977 ->   2.0996567485
    6:   0.707107  0.000000  0.707107 /   0.731423  0.422287  0.535439 ->   1.6363860764
    7:   0.707107  0.707107  0.000000 /   0.616798  0.787122  0.000000 ->   2.0939792046

 END OF EFFECTIVE MASSES SECTION

 ---- first-order wavefunction calculations are completed ----

 Total localisation tensor (bohr^2) in cartesian coordinates
  WARNING : still subject to testing - especially symmetries.
      direction              matrix element
   alpha     beta       real part   imaginary part
     1        1       0.5589390210    0.0000000000
     1        2       0.1580917368    0.0000000000
     1        3       0.3872442756    0.0000000000
     2        1       0.1580917368    0.0000000000
     2        2       0.4471509567    0.0000000000
     2        3       0.2738229205    0.0000000000
     3        1       0.3872442756    0.0000000000
     3        2       0.2738229205    0.0000000000
     3        3       1.0060901972    0.0000000000

 respfn : d/dk was computed, but no 2DTE, so no DDB output.

== END DATASET(S) ==============================================================

 -outvars: echo values of variables after computation  --------
            acell      1.0000000000E+00  1.0000000000E+00  1.0000000000E+00 Bohr
              amu      3.90983000E+01  2.29897680E+01  1.02905500E+02
                       1.89984032E+01
             ecut      4.40000000E+01 Hartree
           etotal     -4.1727603250E+01
            fcart      0.0000000000E+00  0.0000000000E+00  0.0000000000E+00
                       0.0000000000E+00  0.0000000000E+00  0.0000000000E+00
                       0.0000000000E+00  0.0000000000E+00  0.0000000000E+00
                       0.0000000000E+00  0.0000000000E+00  0.0000000000E+00
                       0.0000000000E+00  0.0000000000E+00  0.0000000000E+00
                       0.0000000000E+00  0.0000000000E+00  0.0000000000E+00
                       0.0000000000E+00  0.0000000000E+00  0.0000000000E+00
                       0.0000000000E+00  0.0000000000E+00  0.0000000000E+00
                       0.0000000000E+00  0.0000000000E+00  0.0000000000E+00
                       0.0000000000E+00  0.0000000000E+00  0.0000000000E+00
-          fftalg         512
           irdden           1
           irdwfk           1
           istwfk        0    1
              ixc     -116133
              kpt      5.00000000E-01  2.08333333E-02  5.20833333E-01
                       5.00000000E-01  0.00000000E+00  5.00000000E-01
           kptopt           0
P           mkmem           2
P          mkqmem           2
P          mk1mem           2
            natom          10
            nband          52
           nbdbuf           4
            ngfft          72      72      72
             nkpt           2
            nstep        2000
             nsym          48
           ntypat           4
              occ      2.000000  2.000000  2.000000  2.000000  2.000000  2.000000
                       2.000000  2.000000  2.000000  2.000000  2.000000  2.000000
                       2.000000  2.000000  2.000000  2.000000  2.000000  2.000000
                       2.000000  2.000000  2.000000  2.000000  2.000000  2.000000
                       2.000000  2.000000  2.000000  2.000000  2.000000  2.000000
                       2.000000  2.000000  2.000000  2.000000  2.000000  2.000000
                       2.000000  2.000000  2.000000  2.000000  2.000000  2.000000
                       2.000000  0.000000  0.000000  0.000000  0.000000  0.000000
                       0.000000  0.000000  0.000000  0.000000
        optdriver           1
            prtwf          -1
            rfdir           1       1       1
           rfelfd           2
            rprim      9.6589625548E+00  0.0000000000E+00  5.5766046311E+00
                       3.2196541849E+00  9.1065572290E+00  5.5766046311E+00
                       0.0000000000E+00  0.0000000000E+00  1.1153209262E+01
          spgroup         225
           strten      0.0000000000E+00  0.0000000000E+00  0.0000000000E+00
                       0.0000000000E+00  0.0000000000E+00  0.0000000000E+00
           symrel      1  0  0   0  1  0   0  0  1      -1  0  0   0 -1  0   0  0 -1
                       0 -1  1   0 -1  0   1 -1  0       0  1 -1   0  1  0  -1  1  0
                      -1  0  0  -1  0  1  -1  1  0       1  0  0   1  0 -1   1 -1  0
                       0  1 -1   1  0 -1   0  0 -1       0 -1  1  -1  0  1   0  0  1
                      -1  0  0  -1  1  0  -1  0  1       1  0  0   1 -1  0   1  0 -1
                       0 -1  1   1 -1  0   0 -1  0       0  1 -1  -1  1  0   0  1  0
                       1  0  0   0  0  1   0  1  0      -1  0  0   0  0 -1   0 -1  0
                       0  1 -1   0  0 -1   1  0 -1       0 -1  1   0  0  1  -1  0  1
                      -1  0  1  -1  1  0  -1  0  0       1  0 -1   1 -1  0   1  0  0
                       0 -1  0   1 -1  0   0 -1  1       0  1  0  -1  1  0   0  1 -1
                       1  0 -1   0  0 -1   0  1 -1      -1  0  1   0  0  1   0 -1  1
                       0  1  0   0  0  1   1  0  0       0 -1  0   0  0 -1  -1  0  0
                       1  0 -1   0  1 -1   0  0 -1      -1  0  1   0 -1  1   0  0  1
                       0 -1  0   0 -1  1   1 -1  0       0  1  0   0  1 -1  -1  1  0
                      -1  0  1  -1  0  0  -1  1  0       1  0 -1   1  0  0   1 -1  0
                       0  1  0   1  0  0   0  0  1       0 -1  0  -1  0  0   0  0 -1
                       0  0 -1   0  1 -1   1  0 -1       0  0  1   0 -1  1  -1  0  1
                       1 -1  0   0 -1  1   0 -1  0      -1  1  0   0  1 -1   0  1  0
                       0  0  1   1  0  0   0  1  0       0  0 -1  -1  0  0   0 -1  0
                      -1  1  0  -1  0  0  -1  0  1       1 -1  0   1  0  0   1  0 -1
                       0  0  1   0  1  0   1  0  0       0  0 -1   0 -1  0  -1  0  0
                       1 -1  0   0 -1  0   0 -1  1      -1  1  0   0  1  0   0  1 -1
                       0  0 -1   1  0 -1   0  1 -1       0  0  1  -1  0  1   0 -1  1
                      -1  1  0  -1  0  1  -1  0  0       1 -1  0   1  0 -1   1  0  0
           tolwfr      1.00000000E-20
            typat      1  1  2  3  4  4  4  4  4  4
           useylm           1
              wtk        0.50000    0.50000
           xangst      1.7037676142E+00  1.2047456336E+00  2.9510120721E+00
                       5.1113028426E+00  3.6142369007E+00  8.8530362163E+00
                       0.0000000000E+00  0.0000000000E+00  0.0000000000E+00
                       3.4075352284E+00  2.4094912672E+00  5.9020241442E+00
                       4.2123371213E+00  1.2713295153E+00  4.5080663757E+00
                       5.0171390141E+00  3.5476530191E+00  5.9020241442E+00
                       1.7979314427E+00  1.2713295153E+00  5.9020241442E+00
                       2.6027333356E+00  3.5476530191E+00  4.5080663757E+00
                       2.6027333356E+00  3.5476530191E+00  7.2959819126E+00
                       4.2123371213E+00  1.2713295153E+00  7.2959819126E+00
            xcart      3.2196541849E+00  2.2766393072E+00  5.5766046311E+00
                       9.6589625548E+00  6.8299179217E+00  1.6729813893E+01
                       0.0000000000E+00  0.0000000000E+00  0.0000000000E+00
                       6.4393083698E+00  4.5532786145E+00  1.1153209262E+01
                       7.9601635386E+00  2.4024646085E+00  8.5190108390E+00
                       9.4810187073E+00  6.7040926205E+00  1.1153209262E+01
                       3.3975980324E+00  2.4024646085E+00  1.1153209262E+01
                       4.9184532011E+00  6.7040926205E+00  8.5190108390E+00
                       4.9184532011E+00  6.7040926205E+00  1.3787407685E+01
                       7.9601635386E+00  2.4024646085E+00  1.3787407685E+01
             xred      2.5000000000E-01  2.5000000000E-01  2.5000000000E-01
                       7.5000000000E-01  7.5000000000E-01  7.5000000000E-01
                       0.0000000000E+00  0.0000000000E+00  0.0000000000E+00
                       5.0000000000E-01  5.0000000000E-01  5.0000000000E-01
                       7.3618300000E-01  2.6381700000E-01  2.6381700000E-01
                       7.3618300000E-01  7.3618300000E-01  2.6381700000E-01
                       2.6381700000E-01  2.6381700000E-01  7.3618300000E-01
                       2.6381700000E-01  7.3618300000E-01  2.6381700000E-01
                       2.6381700000E-01  7.3618300000E-01  7.3618300000E-01
                       7.3618300000E-01  2.6381700000E-01  7.3618300000E-01
            znucl       19.00000   11.00000   45.00000    9.00000

- Timing analysis has been suppressed with timopt=0

 Suggested references for the acknowledgment of ABINIT usage.

 Calculation completed.
.Delivered   2 WARNINGs and   5 COMMENTs to log file.