.Version 9.5.2 of ABINIT

 ABINIT is a project of the Universite Catholique de Louvain,
 Corning Inc. and other collaborators, see ~abinit/doc/developers/contributors.txt .
 acknowledgments of the ABINIT effort.

.Starting date : Wed 26 May 2021.
- ( at 02h39 )

- input  file    -> /scratch/users/j/a/jabreu/flow_simple_11atoms/flow/w251/t1/run.abi
- output file    -> /scratch/users/j/a/jabreu/flow_simple_11atoms/flow/w251/t1/run.abo
- root for input  files -> /scratch/users/j/a/jabreu/flow_simple_11atoms/flow/w251/t1/indata/in
- root for output files -> /scratch/users/j/a/jabreu/flow_simple_11atoms/flow/w251/t1/outdata/out

 Symmetries : space group P2_1/c (# 14); Bravais mP (primitive monocl.)
     intxc =       0      iscf =       7    lmnmax =      18     lnmax =       6
     mgfft =      72  mpssoang =       3    mqgrid =    3232     natom =      12
  nloc_mem =       1    nspden =       1   nspinor =       1    nsppol =       1
      nsym =       4    n1xccc =    2501    ntypat =       2    occopt =       1
   xclevel =       2
-    mband =          63        mffmem =           1         mkmem =           2
-   mkqmem =           2        mk1mem =           2           mpw =       16260
      nfft =      373248          nkpt =           2
  Rough estimation (10% accuracy) of disk space for files :

------------- Echo of variables that govern the present computation ------------
-
- outvars: echo of selected default values
-   iomode0 =  0 , fftalg0 =512 , wfoptalg0 =  0
-
- outvars: echo of global parameters not present in the input file
-  max_nthreads =    0
-
 -outvars: echo values of preprocessed input variables --------
            acell      1.0000000000E+00  1.0000000000E+00  1.0000000000E+00 Bohr
              amu      5.89332000E+01  3.09737620E+01
             ecut      4.80000000E+01 Hartree
-          fftalg         512
           irdden           1
           irdwfk           1
           istwfk        1    0
              ixc     -116133
              kpt      0.00000000E+00  5.00000000E-01  0.00000000E+00
                       0.00000000E+00  0.00000000E+00  2.63157895E-01
           kptopt           0
P           mkmem           2
P          mkqmem           2
P          mk1mem           2
            natom          12
            nband          63
           nbdbuf           4
            ngfft          72      72      72
             nkpt           2
            nstep        2000
             nsym           4
           ntypat           2
              occ      2.000000  2.000000  2.000000  2.000000  2.000000  2.000000
                       2.000000  2.000000  2.000000  2.000000  2.000000  2.000000
                       2.000000  2.000000  2.000000  2.000000  2.000000  2.000000
                       2.000000  2.000000  2.000000  2.000000  2.000000  2.000000
                       2.000000  2.000000  2.000000  2.000000  2.000000  2.000000
                       2.000000  2.000000  2.000000  2.000000  2.000000  2.000000
                       2.000000  2.000000  2.000000  2.000000  2.000000  2.000000
                       2.000000  2.000000  2.000000  2.000000  2.000000  2.000000
                       2.000000  2.000000  2.000000  2.000000  2.000000  2.000000
                       0.000000  0.000000  0.000000  0.000000  0.000000  0.000000
                       0.000000  0.000000  0.000000
        optdriver           1
            prtwf          -1
            rfdir           1       1       1
           rfelfd           2
            rprim      1.0360029640E+01  0.0000000000E+00  0.0000000000E+00
                       0.0000000000E+00  9.4097825200E+00  4.2941683258E+00
                       0.0000000000E+00  0.0000000000E+00  1.0495240527E+01
          spgroup          14
           symrel      1  0  0   0  1  0   0  0  1      -1  0  0   0 -1  0   0  0 -1
                       1  0  0   0 -1  0   0  0 -1      -1  0  0   0  1  0   0  0  1
            tnons      0.0000000  0.0000000  0.0000000     0.0000000  0.0000000  0.0000000
                       0.5000000  0.0000000  0.5000000     0.5000000  0.0000000  0.5000000
           tolwfr      1.00000000E-20
            typat      1  1  1  1  2  2  2  2  2  2  2  2
           useylm           1
              wtk        0.50000    0.50000
           xangst      2.7355648102E+00  3.6236000223E+00  6.0417259214E+00
                       5.4767105932E+00  1.3558424251E+00  4.5614132151E+00
                       2.7467267558E+00  1.3558424251E+00  1.7844921722E+00
                       5.5809728142E-03  3.6236000223E+00  3.2648048785E+00
                       4.7780857321E+00  4.1975454971E+00  6.7521195456E+00
                       2.0369399491E+00  7.8189695030E-01  3.8510195909E+00
                       7.0420583395E-01  7.8189695030E-01  1.0740985480E+00
                       3.4453516170E+00  4.1975454971E+00  3.9751985027E+00
                       2.0297417002E+00  3.2884437100E+00  2.5192608436E+00
                       4.7708874832E+00  1.6909987374E+00  2.5300362071E+00
                       3.4525498658E+00  1.6909987374E+00  5.3069572500E+00
                       7.1140408277E-01  3.2884437100E+00  5.2961818865E+00
            xcart      5.1694683100E+00  6.8476116572E+00  1.1417207361E+01
                       1.0349483130E+01  2.5621708628E+00  8.6198217554E+00
                       5.1905613304E+00  2.5621708628E+00  3.3722014918E+00
                       1.0546510174E-02  6.8476116572E+00  6.1695870977E+00
                       9.0292734731E+00  7.9322114198E+00  1.2759656758E+01
                       3.8492586529E+00  1.4775711002E+00  7.2773723591E+00
                       1.3307561673E+00  1.4775711002E+00  2.0297520955E+00
                       6.5107709875E+00  7.9322114198E+00  7.5120364940E+00
                       3.8356559339E+00  6.2142580153E+00  4.7607130517E+00
                       9.0156707541E+00  3.1955245047E+00  4.7810755377E+00
                       6.5243737065E+00  3.1955245047E+00  1.0028695801E+01
                       1.3443588863E+00  6.2142580153E+00  1.0008333315E+01
             xred      4.9898200000E-01  7.2771200000E-01  7.9010000000E-01
                       9.9898200000E-01  2.7228800000E-01  7.0990000000E-01
                       5.0101800000E-01  2.7228800000E-01  2.0990000000E-01
                       1.0180000000E-03  7.2771200000E-01  2.9010000000E-01
                       8.7154900000E-01  8.4297500000E-01  8.7085000000E-01
                       3.7154900000E-01  1.5702500000E-01  6.2915000000E-01
                       1.2845100000E-01  1.5702500000E-01  1.2915000000E-01
                       6.2845100000E-01  8.4297500000E-01  3.7085000000E-01
                       3.7023600000E-01  6.6040400000E-01  1.8340000000E-01
                       8.7023600000E-01  3.3959600000E-01  3.1660000000E-01
                       6.2976400000E-01  3.3959600000E-01  8.1660000000E-01
                       1.2976400000E-01  6.6040400000E-01  6.8340000000E-01
            znucl       27.00000   15.00000

 chkinp: Checking input parameters for consistency.

== DATASET  1 ==================================================================
-   mpi_nproc: 1, omp_nthreads: -1 (-1 if OMP is not activated)

--- !DatasetInfo
iteration_state: {dtset: 1, }
dimensions: {natom: 12, nkpt: 2, mband: 63, nsppol: 1, nspinor: 1, nspden: 1, mpw: 16260, }
cutoff_energies: {ecut:  48.0, pawecutdg:  -1.0, }
electrons: {nelect:   1.08000000E+02, charge:   0.00000000E+00, occopt:   1.00000000E+00, tsmear:   1.00000000E-02, }
meta: {optdriver: 1, rfelfd: 2, }
...

 Real(R)+Recip(G) space primitive vectors, cartesian coordinates (Bohr,Bohr^-1):
 R(1)= 10.3600296  0.0000000  0.0000000  G(1)=  0.0965248  0.0000000  0.0000000
 R(2)=  0.0000000  9.4097825  4.2941683  G(2)=  0.0000000  0.1062724  0.0000000
 R(3)=  0.0000000  0.0000000 10.4952405  G(3)=  0.0000000 -0.0434818  0.0952813
 Unit cell volume ucvol=  1.0231351E+03 bohr^3
 Angles (23,13,12)=  6.54703440E+01  9.00000000E+01  9.00000000E+01 degrees

 getcut: wavevector=  0.0000  0.0000  0.0000  ngfft=  72  72  72
         ecut(hartree)=     48.000   => boxcut(ratio)=   2.19973

--- Pseudopotential description ------------------------------------------------
- pspini: atom type   1  psp file is /scratch/users/j/a/jabreu/pseudos/PBEsol/Co.psp8
- pspatm: opening atomic psp file    /scratch/users/j/a/jabreu/pseudos/PBEsol/Co.psp8
- Co    ONCVPSP-3.3.0  r_core=   1.26190   1.32357   1.66026
- 27.00000  17.00000    180112                znucl, zion, pspdat
    8 -116133    2    4       600   0.00000   pspcod,pspxc,lmax,lloc,mmax,r2well
    5.99000000000000    6.00000000000000    0.00000000000000   rchrg,fchrg,qchrg
     nproj     2     2     2
     extension_switch     1
  pspatm : epsatm=   18.79313233
         --- l  ekb(1:nproj) -->
             0    6.295970   -0.649806
             1   -2.108725   -0.098055
             2   -6.914380   -2.516418
 pspatm: atomic psp has been read  and splines computed

- pspini: atom type   2  psp file is /scratch/users/j/a/jabreu/pseudos/PBEsol/P.psp8
- pspatm: opening atomic psp file    /scratch/users/j/a/jabreu/pseudos/PBEsol/P.psp8
- P     ONCVPSP-3.3.0  r_core=   1.46089   1.55067   1.70594
- 15.00000   5.00000    180112                znucl, zion, pspdat
    8 -116133    2    4       600   0.00000   pspcod,pspxc,lmax,lloc,mmax,r2well
    5.99000000000000    5.00000000000000    0.00000000000000   rchrg,fchrg,qchrg
     nproj     2     2     2
     extension_switch     1
  pspatm : epsatm=    7.31221086
         --- l  ekb(1:nproj) -->
             0    6.742364    1.063650
             1    3.449117    0.910422
             2   -3.077645   -0.799176
 pspatm: atomic psp has been read  and splines computed

   1.44363834E+04                                ecore*ucvol(ha*bohr**3)

 ==>  initialize data related to q vector <==

 The list of irreducible perturbations for this q vector is:
    1)    idir= 1    ipert=  13
    2)    idir= 2    ipert=  13
    3)    idir= 3    ipert=  13

 Perturbation wavevector (in red.coord.)   0.000000  0.000000  0.000000
 Perturbation : derivative vs k along direction   1

 dfpt_looppert : COMMENT -
  In a d/dk calculation, iscf is set to -3 automatically.
 The set of symmetries contains only one element for this perturbation.
 symkpt : not enough symmetry to change the number of k points.

 Initialisation of the first-order wave-functions :
  ireadwf=   0

--- !BeginCycle
iteration_state: {dtset: 1, }
solver: {iscf: 7, nstep: 2000, nline: 4, wfoptalg: 0, }
tolerances: {tolwfr: 1.00E-20, }
...

     iter   2DEtotal(Ha)        deltaE(Ha) residm    vres2
-ETOT  1  -36.444868864634     -3.644E+01 2.596E-01 0.000E+00
 ETOT  2  -36.777342690955     -3.325E-01 1.724E-02 0.000E+00
 ETOT  3  -36.794911487180     -1.757E-02 5.279E-03 0.000E+00
 ETOT  4  -36.796307694534     -1.396E-03 1.541E-03 0.000E+00
 ETOT  5  -36.796441891876     -1.342E-04 5.745E-04 0.000E+00
 ETOT  6  -36.796456726933     -1.484E-05 1.919E-04 0.000E+00
 ETOT  7  -36.796458550822     -1.824E-06 7.748E-05 0.000E+00
 ETOT  8  -36.796458794583     -2.438E-07 2.616E-05 0.000E+00
[...]
   0.00000    0.00000   -0.00000    0.00000   -0.00000    0.00000    0.00000    0.00000
  -0.00000    0.00000   -0.00000    0.00000   -0.00000   -0.00000    0.00001
 prteigrs : prtvol=0 or 1, do not print more k-points.

 Eight components of 2nd-order total energy (hartree) are
 1,2,3: 0th-order hamiltonian combined with 1st-order wavefunctions
     kin0=   6.70849268E+01 eigvalue=  -6.86236451E+00  local=  -2.97893793E+01
 4,5,6: 1st-order hamiltonian combined with 1st and 0th-order wfs
     kin1=  -7.06137767E+01  Hartree=   0.00000000E+00     xc=   0.00000000E+00
 7,8,9: eventually, occupation + non-local contributions
    edocc=   6.86702256E+00     enl0=  -5.03746785E-01   enl1=  -2.97914099E+00
 1-9 gives the relaxation energy (to be shifted if some occ is /=2.0)
   erelax=  -3.67964588E+01
  No Ewald or frozen-wf contrib.: the relaxation energy is the total one
 2DEtotal=   -0.3679645884E+02 Ha. Also 2DEtotal=   -0.100128256606E+04 eV
    (  non-var. 2DEtotal :   -3.6796458835E+01 Ha)

 Perturbation wavevector (in red.coord.)   0.000000  0.000000  0.000000
 Perturbation : derivative vs k along direction   2
 The set of symmetries contains only one element for this perturbation.
 symkpt : not enough symmetry to change the number of k points.

[...]

 Perturbation wavevector (in red.coord.)   0.000000  0.000000  0.000000
 Perturbation : derivative vs k along direction   3
 The set of symmetries contains only one element for this perturbation.
 symkpt : not enough symmetry to change the number of k points.

 Initialisation of the first-order wave-functions :
  ireadwf=   0

--- !BeginCycle
iteration_state: {dtset: 1, }
solver: {iscf: 7, nstep: 2000, nline: 4, wfoptalg: 0, }
tolerances: {tolwfr: 1.00E-20, }
...

     iter   2DEtotal(Ha)        deltaE(Ha) residm    vres2
-ETOT  1  -45.750288430325     -4.575E+01 1.901E-01 0.000E+00
 ETOT  2  -46.104354612317     -3.541E-01 6.979E-03 0.000E+00
 ETOT  3  -46.123331633091     -1.898E-02 8.413E-04 0.000E+00
 ETOT  4  -46.124992688041     -1.661E-03 1.577E-04 0.000E+00
 ETOT  5  -46.125170950436     -1.783E-04 3.228E-05 0.000E+00
 ETOT  6  -46.125192129232     -2.118E-05 1.003E-05 0.000E+00
 ETOT  7  -46.125194817177     -2.688E-06 2.803E-06 0.000E+00
 ETOT  8  -46.125195171458     -3.543E-07 1.022E-06 0.000E+00
 ETOT  9  -46.125195219592     -4.813E-08 3.095E-07 0.000E+00
 ETOT 10  -46.125195226254     -6.662E-09 1.158E-07 0.000E+00
 ETOT 11  -46.125195227191     -9.370E-10 3.533E-08 0.000E+00
 ETOT 12  -46.125195227324     -1.332E-10 1.330E-08 0.000E+00
 ETOT 13  -46.125195227343     -1.913E-11 4.066E-09 0.000E+00
 ETOT 14  -46.125195227346     -2.721E-12 1.539E-09 0.000E+00
 ETOT 15  -46.125195227347     -4.050E-13 4.709E-10 0.000E+00
 ETOT 16  -46.125195227347     -4.263E-14 1.789E-10 0.000E+00
 ETOT 17  -46.125195227347     -4.974E-14 5.479E-11 0.000E+00
 ETOT 18  -46.125195227347      3.553E-14 2.089E-11 0.000E+00
 ETOT 19  -46.125195227347     -3.553E-14 6.401E-12 0.000E+00
 ETOT 20  -46.125195227347      2.842E-14 2.448E-12 0.000E+00
 ETOT 21  -46.125195227347     -7.105E-15 7.505E-13 0.000E+00
 ETOT 22  -46.125195227347      2.842E-14 2.881E-13 0.000E+00
 ETOT 23  -46.125195227347     -7.105E-15 8.829E-14 0.000E+00
 ETOT 24  -46.125195227347      7.105E-15 3.404E-14 0.000E+00
 ETOT 25  -46.125195227347     -1.421E-14 1.042E-14 0.000E+00
 ETOT 26  -46.125195227347      2.132E-14 4.036E-15 0.000E+00
 ETOT 27  -46.125195227347     -1.421E-14 1.235E-15 0.000E+00
 ETOT 28  -46.125195227347      0.000E+00 4.804E-16 0.000E+00
 ETOT 29  -46.125195227347      1.421E-14 1.469E-16 0.000E+00
 ETOT 30  -46.125195227347      7.105E-15 5.740E-17 0.000E+00
 ETOT 31  -46.125195227347     -7.105E-15 1.755E-17 0.000E+00
 ETOT 32  -46.125195227347      7.105E-15 6.882E-18 0.000E+00
 ETOT 33  -46.125195227347     -2.842E-14 2.104E-18 0.000E+00
 ETOT 34  -46.125195227347      2.132E-14 8.277E-19 0.000E+00
 ETOT 35  -46.125195227347      7.105E-15 2.530E-19 0.000E+00
 ETOT 36  -46.125195227347      7.105E-15 9.984E-20 0.000E+00
 ETOT 37  -46.125195227347     -1.421E-14 3.052E-20 0.000E+00
 ETOT 38  -46.125195227347      2.132E-14 1.207E-20 0.000E+00
 ETOT 39  -46.125195227347     -1.421E-14 9.910E-21 0.000E+00

 At SCF step   39   max residual=  9.91E-21 < tolwfr=  1.00E-20 =>converged.

 ----iterations are completed or convergence reached----

 dfpt_looppert: DFPT cycle converged with prtwf=-1. Will skip output of the 1st-order WFK file.
 dfpt_looppert : ek2=    9.3537961993E+01
          f-sum rule ratio=    9.6625901341E-01
 prteigrs : about to open file /scratch/users/j/a/jabreu/flow_simple_11atoms/flow/w251/t1/tmpdata/tmp_1WF1_EIG
 Expectation of eigenvalue derivatives (hartree) for nkpt=   2  k points:
  (in case of degenerate eigenvalues, averaged derivative)
 kpt#   1, nband= 63, wtk=  0.50000, kpt=  0.0000  0.5000  0.0000 (reduced coord)
  -0.00000    0.00000   -0.00000   -0.00000   -0.00000   -0.00000    0.00000   -0.00000
   0.00000   -0.00000    0.00000    0.00000   -0.00000   -0.00000   -0.00000   -0.00000
   0.00000   -0.00000   -0.00000    0.00000    0.00000   -0.00000   -0.00000    0.00000
   0.00000   -0.00000    0.00000    0.00000    0.00000    0.00000   -0.00000    0.00000
   0.00000    0.00000    0.00000   -0.00000   -0.00000   -0.00000    0.00000    0.00000
  -0.00000    0.00000   -0.00000   -0.00000    0.00000   -0.00000    0.00000   -0.00000
   0.00000   -0.00000   -0.00000    0.00000    0.00000   -0.00000   -0.00000   -0.00000
  -0.00000   -0.00000   -0.00000    0.00000    0.00000   -0.00000    0.00000
 prteigrs : prtvol=0 or 1, do not print more k-points.

 Eight components of 2nd-order total energy (hartree) are
 1,2,3: 0th-order hamiltonian combined with 1st-order wavefunctions
     kin0=   7.36926770E+01 eigvalue=  -7.17696863E+00  local=  -3.16912163E+01
 4,5,6: 1st-order hamiltonian combined with 1st and 0th-order wfs
     kin1=  -9.03818989E+01  Hartree=   0.00000000E+00     xc=   0.00000000E+00
 7,8,9: eventually, occupation + non-local contributions
    edocc=   1.21609903E+01     enl0=  -8.60287124E-01   enl1=  -1.86849158E+00
 1-9 gives the relaxation energy (to be shifted if some occ is /=2.0)
   erelax=  -4.61251952E+01
  No Ewald or frozen-wf contrib.: the relaxation energy is the total one
 2DEtotal=   -0.4612519523E+02 Ha. Also 2DEtotal=   -0.125513039295E+04 eV
    (  non-var. 2DEtotal :   -4.6125195227E+01 Ha)

 CALCULATION OF EFFECTIVE MASSES
 NOTE : Additional infos (eff. mass eigenvalues, eigenvectors and, if degenerate, average mass) are available in stdout.

 K-point ( 0.000, 0.500, 0.000) | band =    54
 Effective mass tensor:
             -1.0532009714             -0.0000000003             -0.0000000041
             -0.0000000003             -0.2653835655             -0.1589493416
             -0.0000000041             -0.1589493416             -1.6337212808
 Effective mass tensor eigenvalues:
             -1.6519425705             -1.0532009714             -0.2471622759
 Angular average effective mass 1/(<1/m>)=  -0.5356416684
 Angular average effective mass for Frohlich model (<m**0.5>)**2=  -0.6622202422
 Effective masses along directions: (cart. coord. / red. coord. -> eff. mass)
    1:   1.000000  0.000000  0.000000 /   1.000000  0.000000  0.000000 ->  -1.0532009714
    2:   0.000000  1.000000  0.000000 /   0.000000  1.000000  0.000000 ->  -0.2499189367
    3:   0.000000  0.000000  1.000000 /   0.000000  0.378683  0.925527 ->  -1.5385198574
    4:   0.577350  0.577350  0.577350 /   0.514617  0.680721  0.521333 ->  -0.6221272995
    5:   0.000000  0.707107  0.707107 /   0.000000  0.793917  0.608026 ->  -0.5164385200
    6:   0.707107  0.000000  0.707107 /   0.674495  0.279574  0.683298 ->  -1.2504206435
    7:   0.707107  0.707107  0.000000 /   0.740240  0.672343  0.000000 ->  -0.4039764341

 K-point ( 0.000, 0.000, 0.263) | band =    55
 Effective mass tensor:
              3.7187847230              0.0002066922              0.0006280822
              0.0002066922              0.8755670511              1.2730255256
              0.0006280822              1.2730255256              4.1171483177
 Effective mass tensor eigenvalues:
              0.4353976493              3.7187842018              4.5573182407
 Angular average effective mass 1/(<1/m>)=   1.0771670199
 Angular average effective mass for Frohlich model (<m**0.5>)**2=   1.5563231376
 Effective masses along directions: (cart. coord. / red. coord. -> eff. mass)
    1:   1.000000  0.000000  0.000000 /   1.000000  0.000000  0.000000 ->   3.7187846269
    2:   0.000000  1.000000  0.000000 /   0.000000  1.000000  0.000000 ->   0.4819465487
    3:   0.000000  0.000000  1.000000 /   0.000000  0.378683  0.925527 ->   2.2662403693
    4:   0.577350  0.577350  0.577350 /   0.514617  0.680721  0.521333 ->   1.9975249237
    5:   0.000000  0.707107  0.707107 /   0.000000  0.793917  0.608026 ->   1.6220005300
    6:   0.707107  0.000000  0.707107 /   0.674495  0.279574  0.683298 ->   2.8165571412
    7:   0.707107  0.707107  0.000000 /   0.740240  0.672343  0.000000 ->   0.8533114823

 END OF EFFECTIVE MASSES SECTION

 ---- first-order wavefunction calculations are completed ----

 Total localisation tensor (bohr^2) in cartesian coordinates
  WARNING : still subject to testing - especially symmetries.
      direction              matrix element
   alpha     beta       real part   imaginary part
     1        1       0.9279786260    0.0000000000
     1        2       0.0000000000    0.0000000000
     1        3       0.0000000000    0.0000000000
     2        1       0.0000000000    0.0000000000
     2        2       1.4965967515    0.0000000000
     2        3       0.6829741658    0.0000000000
     3        1       0.0000000000    0.0000000000
     3        2       0.6829741658    0.0000000000
     3        3       1.7941820489    0.0000000000

 respfn : d/dk was computed, but no 2DTE, so no DDB output.

== END DATASET(S) ==============================================================

 -outvars: echo values of variables after computation  --------
            acell      1.0000000000E+00  1.0000000000E+00  1.0000000000E+00 Bohr
              amu      5.89332000E+01  3.09737620E+01
             ecut      4.80000000E+01 Hartree
           etotal     -4.6125195227E+01
            fcart      0.0000000000E+00  0.0000000000E+00  0.0000000000E+00
                       0.0000000000E+00  0.0000000000E+00  0.0000000000E+00
                       0.0000000000E+00  0.0000000000E+00  0.0000000000E+00
                       0.0000000000E+00  0.0000000000E+00  0.0000000000E+00
                       0.0000000000E+00  0.0000000000E+00  0.0000000000E+00
                       0.0000000000E+00  0.0000000000E+00  0.0000000000E+00
                       0.0000000000E+00  0.0000000000E+00  0.0000000000E+00
                       0.0000000000E+00  0.0000000000E+00  0.0000000000E+00
                       0.0000000000E+00  0.0000000000E+00  0.0000000000E+00
                       0.0000000000E+00  0.0000000000E+00  0.0000000000E+00
                       0.0000000000E+00  0.0000000000E+00  0.0000000000E+00
                       0.0000000000E+00  0.0000000000E+00  0.0000000000E+00
-          fftalg         512
           irdden           1
           irdwfk           1
           istwfk        1    0
              ixc     -116133
              kpt      0.00000000E+00  5.00000000E-01  0.00000000E+00
                       0.00000000E+00  0.00000000E+00  2.63157895E-01
           kptopt           0
P           mkmem           2
P          mkqmem           2
P          mk1mem           2
            natom          12
            nband          63
           nbdbuf           4
            ngfft          72      72      72
             nkpt           2
            nstep        2000
             nsym           4
           ntypat           2
              occ      2.000000  2.000000  2.000000  2.000000  2.000000  2.000000
                       2.000000  2.000000  2.000000  2.000000  2.000000  2.000000
                       2.000000  2.000000  2.000000  2.000000  2.000000  2.000000
                       2.000000  2.000000  2.000000  2.000000  2.000000  2.000000
                       2.000000  2.000000  2.000000  2.000000  2.000000  2.000000
                       2.000000  2.000000  2.000000  2.000000  2.000000  2.000000
                       2.000000  2.000000  2.000000  2.000000  2.000000  2.000000
                       2.000000  2.000000  2.000000  2.000000  2.000000  2.000000
                       2.000000  2.000000  2.000000  2.000000  2.000000  2.000000
                       0.000000  0.000000  0.000000  0.000000  0.000000  0.000000
                       0.000000  0.000000  0.000000
        optdriver           1
            prtwf          -1
            rfdir           1       1       1
           rfelfd           2
            rprim      1.0360029640E+01  0.0000000000E+00  0.0000000000E+00
                       0.0000000000E+00  9.4097825200E+00  4.2941683258E+00
                       0.0000000000E+00  0.0000000000E+00  1.0495240527E+01
          spgroup          14
           strten      0.0000000000E+00  0.0000000000E+00  0.0000000000E+00
                       0.0000000000E+00  0.0000000000E+00  0.0000000000E+00
           symrel      1  0  0   0  1  0   0  0  1      -1  0  0   0 -1  0   0  0 -1
                       1  0  0   0 -1  0   0  0 -1      -1  0  0   0  1  0   0  0  1
            tnons      0.0000000  0.0000000  0.0000000     0.0000000  0.0000000  0.0000000
                       0.5000000  0.0000000  0.5000000     0.5000000  0.0000000  0.5000000
           tolwfr      1.00000000E-20
            typat      1  1  1  1  2  2  2  2  2  2  2  2
           useylm           1
              wtk        0.50000    0.50000
           xangst      2.7355648102E+00  3.6236000223E+00  6.0417259214E+00
                       5.4767105932E+00  1.3558424251E+00  4.5614132151E+00
                       2.7467267558E+00  1.3558424251E+00  1.7844921722E+00
                       5.5809728142E-03  3.6236000223E+00  3.2648048785E+00
                       4.7780857321E+00  4.1975454971E+00  6.7521195456E+00
                       2.0369399491E+00  7.8189695030E-01  3.8510195909E+00
                       7.0420583395E-01  7.8189695030E-01  1.0740985480E+00
                       3.4453516170E+00  4.1975454971E+00  3.9751985027E+00
                       2.0297417002E+00  3.2884437100E+00  2.5192608436E+00
                       4.7708874832E+00  1.6909987374E+00  2.5300362071E+00
                       3.4525498658E+00  1.6909987374E+00  5.3069572500E+00
                       7.1140408277E-01  3.2884437100E+00  5.2961818865E+00
            xcart      5.1694683100E+00  6.8476116572E+00  1.1417207361E+01
                       1.0349483130E+01  2.5621708628E+00  8.6198217554E+00
                       5.1905613304E+00  2.5621708628E+00  3.3722014918E+00
                       1.0546510174E-02  6.8476116572E+00  6.1695870977E+00
                       9.0292734731E+00  7.9322114198E+00  1.2759656758E+01
                       3.8492586529E+00  1.4775711002E+00  7.2773723591E+00
                       1.3307561673E+00  1.4775711002E+00  2.0297520955E+00
                       6.5107709875E+00  7.9322114198E+00  7.5120364940E+00
                       3.8356559339E+00  6.2142580153E+00  4.7607130517E+00
                       9.0156707541E+00  3.1955245047E+00  4.7810755377E+00
                       6.5243737065E+00  3.1955245047E+00  1.0028695801E+01
                       1.3443588863E+00  6.2142580153E+00  1.0008333315E+01
             xred      4.9898200000E-01  7.2771200000E-01  7.9010000000E-01
                       9.9898200000E-01  2.7228800000E-01  7.0990000000E-01
                       5.0101800000E-01  2.7228800000E-01  2.0990000000E-01
                       1.0180000000E-03  7.2771200000E-01  2.9010000000E-01
                       8.7154900000E-01  8.4297500000E-01  8.7085000000E-01
                       3.7154900000E-01  1.5702500000E-01  6.2915000000E-01
                       1.2845100000E-01  1.5702500000E-01  1.2915000000E-01
                       6.2845100000E-01  8.4297500000E-01  3.7085000000E-01
                       3.7023600000E-01  6.6040400000E-01  1.8340000000E-01
                       8.7023600000E-01  3.3959600000E-01  3.1660000000E-01
                       6.2976400000E-01  3.3959600000E-01  8.1660000000E-01
                       1.2976400000E-01  6.6040400000E-01  6.8340000000E-01
            znucl       27.00000   15.00000

- Timing analysis has been suppressed with timopt=0

 Suggested references for the acknowledgment of ABINIT usage.

 Calculation completed.
.Delivered   2 WARNINGs and   5 COMMENTs to log file.