.Version 9.5.1 of ABINIT

 ABINIT is a project of the Universite Catholique de Louvain,
 Corning Inc. and other collaborators, see ~abinit/doc/developers/contributors.txt .
 acknowledgments of the ABINIT effort.

.Starting date : Sun 25 Apr 2021.
- ( at 17h24 )

- input  file    -> /scratch/users/j/a/jabreu/flow_simple2/flow/w223/t1/run.abi
- output file    -> /scratch/users/j/a/jabreu/flow_simple2/flow/w223/t1/run.abo
- root for input  files -> /scratch/users/j/a/jabreu/flow_simple2/flow/w223/t1/indata/in
- root for output files -> /scratch/users/j/a/jabreu/flow_simple2/flow/w223/t1/outdata/out

 Symmetries : space group F-4 3 m (#216); Bravais cF (face-center cubic)
     intxc =       0      iscf =       7    lmnmax =      18     lnmax =       6
     mgfft =      48  mpssoang =       3    mqgrid =    3001     natom =       2
  nloc_mem =       1    nspden =       1   nspinor =       1    nsppol =       1
      nsym =      24    n1xccc =    2501    ntypat =       2    occopt =       1
   xclevel =       2
-    mband =          17        mffmem =           1         mkmem =           1
-   mkqmem =           1        mk1mem =           1           mpw =        3839
      nfft =      110592          nkpt =           1
  Rough estimation (10% accuracy) of disk space for files :

------------- Echo of variables that govern the present computation ------------
-
- outvars: echo of selected default values
-   iomode0 =  0 , fftalg0 =512 , wfoptalg0 =  0
-
- outvars: echo of global parameters not present in the input file
-  max_nthreads =    0
-
 -outvars: echo values of preprocessed input variables --------
            acell      1.0000000000E+00  1.0000000000E+00  1.0000000000E+00 Bohr
              amu      2.43050000E+01  3.20660000E+01
             ecut      4.20000000E+01 Hartree
-          fftalg         512
           irdden           1
           irdwfk           1
           istwfk        1
              ixc     -116133
           kptopt           0
P           mkmem           1
P          mkqmem           1
P          mk1mem           1
            natom           2
            nband          17
           nbdbuf           4
            ngfft          48      48      48
             nkpt           1
            nstep         100
             nsym          24
           ntypat           2
              occ      2.000000  2.000000  2.000000  2.000000  2.000000  2.000000
                       2.000000  2.000000  0.000000  0.000000  0.000000  0.000000
                       0.000000  0.000000  0.000000  0.000000  0.000000
        optdriver           1
            prtwf          -1
            rfdir           1       1       1
           rfelfd           2
            rprim      6.5413898317E+00  0.0000000000E+00  3.7766731802E+00
                       2.1804632772E+00  6.1672814779E+00  3.7766731802E+00
                       0.0000000000E+00  0.0000000000E+00  7.5533463604E+00
          spgroup         216
           symrel      1  0  0   0  1  0   0  0  1       0 -1  1   0 -1  0   1 -1  0
                      -1  0  0  -1  0  1  -1  1  0       0  1 -1   1  0 -1   0  0 -1
                      -1  0  0  -1  1  0  -1  0  1       0 -1  1   1 -1  0   0 -1  0
                       1  0  0   0  0  1   0  1  0       0  1 -1   0  0 -1   1  0 -1
                      -1  0  1  -1  1  0  -1  0  0       0 -1  0   1 -1  0   0 -1  1
                       1  0 -1   0  0 -1   0  1 -1       0  1  0   0  0  1   1  0  0
                       1  0 -1   0  1 -1   0  0 -1       0 -1  0   0 -1  1   1 -1  0
                      -1  0  1  -1  0  0  -1  1  0       0  1  0   1  0  0   0  0  1
                       0  0 -1   0  1 -1   1  0 -1       1 -1  0   0 -1  1   0 -1  0
                       0  0  1   1  0  0   0  1  0      -1  1  0  -1  0  0  -1  0  1
                       0  0  1   0  1  0   1  0  0       1 -1  0   0 -1  0   0 -1  1
                       0  0 -1   1  0 -1   0  1 -1      -1  1  0  -1  0  1  -1  0  0
           tolwfr      1.00000000E-20
            typat      1  2
           useylm           1
           xangst      0.0000000000E+00  0.0000000000E+00  0.0000000000E+00
                       3.4615544114E+00  2.4476885978E+00  5.9955881138E+00
            xcart      0.0000000000E+00  0.0000000000E+00  0.0000000000E+00
                       6.5413898317E+00  4.6254611084E+00  1.1330019541E+01
             xred      0.0000000000E+00  0.0000000000E+00  0.0000000000E+00
                       7.5000000000E-01  7.5000000000E-01  7.5000000000E-01
            znucl       12.00000   16.00000

 chkinp: Checking input parameters for consistency.

== DATASET  1 ==================================================================
-   mpi_nproc: 1, omp_nthreads: -1 (-1 if OMP is not activated)

--- !DatasetInfo
iteration_state: {dtset: 1, }
dimensions: {natom: 2, nkpt: 1, mband: 17, nsppol: 1, nspinor: 1, nspden: 1, mpw: 3839, }
cutoff_energies: {ecut:  42.0, pawecutdg:  -1.0, }
electrons: {nelect:   1.60000000E+01, charge:   0.00000000E+00, occopt:   1.00000000E+00, tsmear:   1.00000000E-02, }
meta: {optdriver: 1, rfelfd: 2, }
...

 Real(R)+Recip(G) space primitive vectors, cartesian coordinates (Bohr,Bohr^-1):
 R(1)=  6.5413898  0.0000000  3.7766732  G(1)=  0.1528727 -0.0540487  0.0000000
 R(2)=  2.1804633  6.1672815  3.7766732  G(2)=  0.0000000  0.1621460  0.0000000
 R(3)=  0.0000000  0.0000000  7.5533464  G(3)= -0.0764364 -0.0540487  0.1323917
 Unit cell volume ucvol=  3.0472157E+02 bohr^3
 Angles (23,13,12)=  6.00000000E+01  6.00000000E+01  6.00000000E+01 degrees

 getcut: wavevector=  0.0000  0.0000  0.0000  ngfft=  48  48  48
         ecut(hartree)=     42.000   => boxcut(ratio)=   2.17827

--- Pseudopotential description ------------------------------------------------
- pspini: atom type   1  psp file is /scratch/users/j/a/jabreu/pseudos/PBEsol/Mg.psp8
- pspatm: opening atomic psp file    /scratch/users/j/a/jabreu/pseudos/PBEsol/Mg.psp8
- Mg    ONCVPSP-3.3.0  r_core=   1.16056   1.56380
- 12.00000  10.00000    180112                znucl, zion, pspdat
    8 -116133    1    4       400   0.00000   pspcod,pspxc,lmax,lloc,mmax,r2well
    3.99000000000000    0.00000000000000    0.00000000000000   rchrg,fchrg,qchrg
     nproj     2     2
     extension_switch     1
  pspatm : epsatm=    9.18164846
         --- l  ekb(1:nproj) -->
             0    2.230603   -0.826587
             1   -6.503151   -2.501445
 pspatm: atomic psp has been read  and splines computed

- pspini: atom type   2  psp file is /scratch/users/j/a/jabreu/pseudos/PBEsol/S.psp8
- pspatm: opening atomic psp file    /scratch/users/j/a/jabreu/pseudos/PBEsol/S.psp8
- S     ONCVPSP-3.3.0  r_core=   1.45376   1.45376   1.61851
- 16.00000   6.00000    180112                znucl, zion, pspdat
    8 -116133    2    4       600   0.00000   pspcod,pspxc,lmax,lloc,mmax,r2well
    5.99000000000000    6.00000000000000    0.00000000000000   rchrg,fchrg,qchrg
     nproj     2     2     2
     extension_switch     1
  pspatm : epsatm=    8.71840985
         --- l  ekb(1:nproj) -->
             0    6.834532    0.579453
             1    3.282851    0.896984
             2   -3.496974   -0.974265
 pspatm: atomic psp has been read  and splines computed

   2.86400933E+02                                ecore*ucvol(ha*bohr**3)

-inwffil : will read wavefunctions from disk file /scratch/users/j/a/jabreu/flow_simple2/flow/w223/t1/indata/in_WFK

 ==>  initialize data related to q vector <==

 The list of irreducible perturbations for this q vector is:
    1)    idir= 1    ipert=   3
    2)    idir= 2    ipert=   3
    3)    idir= 3    ipert=   3

 Perturbation wavevector (in red.coord.)   0.000000  0.000000  0.000000
 Perturbation : derivative vs k along direction   1

 dfpt_looppert : COMMENT -
  In a d/dk calculation, iscf is set to -3 automatically.
 The set of symmetries contains only one element for this perturbation.
 symkpt : not enough symmetry to change the number of k points.

[...]

 Initialisation of the first-order wave-functions :
  ireadwf=   0

--- !BeginCycle
iteration_state: {dtset: 1, }
solver: {iscf: 7, nstep: 100, nline: 4, wfoptalg: 0, }
tolerances: {tolwfr: 1.00E-20, }
...

     iter   2DEtotal(Ha)        deltaE(Ha) residm    vres2
-ETOT  1  -27.023018658740     -2.702E+01 1.347E-02 0.000E+00
 ETOT  2  -27.024563277745     -1.545E-03 4.049E-05 0.000E+00
 ETOT  3  -27.024564480735     -1.203E-06 2.620E-07 0.000E+00
 ETOT  4  -27.024564481568     -8.329E-10 5.885E-10 0.000E+00
 ETOT  5  -27.024564481569     -9.805E-13 7.041E-12 0.000E+00
 ETOT  6  -27.024564481569      1.066E-14 1.669E-14 0.000E+00
 ETOT  7  -27.024564481569     -5.684E-14 4.350E-16 0.000E+00
 ETOT  8  -27.024564481569      4.619E-14 1.009E-18 0.000E+00
 ETOT  9  -27.024564481569     -1.066E-14 3.039E-20 0.000E+00
 ETOT 10  -27.024564481569      1.421E-14 9.768E-21 0.000E+00

 At SCF step   10   max residual=  9.77E-21 < tolwfr=  1.00E-20 =>converged.

 ----iterations are completed or convergence reached----

 dfpt_looppert: DFPT cycle converged with prtwf=-1. Will skip output of the 1st-order WFK file.
 dfpt_looppert : ek2=    3.3214075951E+01
          f-sum rule ratio=    1.5546257981E+00
 prteigrs : about to open file /scratch/users/j/a/jabreu/flow_simple2/flow/w223/t1/tmpdata/tmp_1WF1_EIG
 Expectation of eigenvalue derivatives (hartree) for nkpt=   1  k points:
  (in case of degenerate eigenvalues, averaged derivative)
 kpt#   1, nband= 17, wtk=  1.00000, kpt=  0.0000  0.0000  0.0000 (reduced coord)
  -0.00000   -0.00000   -0.00000   -0.00000    0.00000    0.00000    0.00000    0.00000
  -0.00000    0.00000    0.00000    0.00000   -0.00000   -0.00000    0.00092    0.00000
   0.00000

 Eight components of 2nd-order total energy (hartree) are
 1,2,3: 0th-order hamiltonian combined with 1st-order wavefunctions
     kin0=   1.39269491E+01 eigvalue=   2.97638916E+00  local=  -5.74804483E+00
 4,5,6: 1st-order hamiltonian combined with 1st and 0th-order wfs
     kin1=  -5.16354593E+01  Hartree=   0.00000000E+00     xc=   0.00000000E+00
 7,8,9: eventually, occupation + non-local contributions
    edocc=   1.57305977E+01     enl0=   1.38673400E-01   enl1=  -2.41366963E+00
 1-9 gives the relaxation energy (to be shifted if some occ is /=2.0)
   erelax=  -2.70245645E+01
  No Ewald or frozen-wf contrib.: the relaxation energy is the total one
 2DEtotal=   -0.2702456448E+02 Ha. Also 2DEtotal=   -0.735375797757E+03 eV
    (  non-var. 2DEtotal :   -2.7024564482E+01 Ha)

 Perturbation wavevector (in red.coord.)   0.000000  0.000000  0.000000
 Perturbation : derivative vs k along direction   2
 The set of symmetries contains only one element for this perturbation.
 symkpt : not enough symmetry to change the number of k points.

[...]

 Perturbation wavevector (in red.coord.)   0.000000  0.000000  0.000000
 Perturbation : derivative vs k along direction   3
 The set of symmetries contains only one element for this perturbation.
 symkpt : not enough symmetry to change the number of k points.

-inwffil : will read wavefunctions from disk file /scratch/users/j/a/jabreu/flow_simple2/flow/w223/t1/indata/in_WFK

 Initialisation of the first-order wave-functions :
  ireadwf=   0

--- !BeginCycle
iteration_state: {dtset: 1, }
solver: {iscf: 7, nstep: 100, nline: 4, wfoptalg: 0, }
tolerances: {tolwfr: 1.00E-20, }
...

     iter   2DEtotal(Ha)        deltaE(Ha) residm    vres2
-ETOT  1  -27.023135002354     -2.702E+01 1.404E-02 0.000E+00
 ETOT  2  -27.024620996316     -1.486E-03 4.626E-05 0.000E+00
 ETOT  3  -27.024622143575     -1.147E-06 2.817E-07 0.000E+00
 ETOT  4  -27.024622144438     -8.630E-10 6.210E-10 0.000E+00
 ETOT  5  -27.024622144439     -1.013E-12 7.760E-12 0.000E+00
 ETOT  6  -27.024622144439     -6.750E-14 1.883E-14 0.000E+00
 ETOT  7  -27.024622144439      6.750E-14 4.280E-16 0.000E+00
 ETOT  8  -27.024622144439     -3.553E-14 9.942E-19 0.000E+00
 ETOT  9  -27.024622144439      1.066E-14 2.586E-20 0.000E+00
 ETOT 10  -27.024622144439     -3.553E-15 8.351E-21 0.000E+00

 At SCF step   10   max residual=  8.35E-21 < tolwfr=  1.00E-20 =>converged.

 ----iterations are completed or convergence reached----

 dfpt_looppert: DFPT cycle converged with prtwf=-1. Will skip output of the 1st-order WFK file.
 dfpt_looppert : ek2=    3.3214075951E+01
          f-sum rule ratio=    1.5546299341E+00
 prteigrs : about to open file /scratch/users/j/a/jabreu/flow_simple2/flow/w223/t1/tmpdata/tmp_1WF1_EIG
 Expectation of eigenvalue derivatives (hartree) for nkpt=   1  k points:
  (in case of degenerate eigenvalues, averaged derivative)
 kpt#   1, nband= 17, wtk=  1.00000, kpt=  0.0000  0.0000  0.0000 (reduced coord)
   0.00000   -0.00000   -0.00000   -0.00000    0.00000    0.00000    0.00000    0.00000
   0.00000    0.00000    0.00000    0.00000   -0.00000   -0.00000    0.00067    0.00000
   0.00000

 Eight components of 2nd-order total energy (hartree) are
 1,2,3: 0th-order hamiltonian combined with 1st-order wavefunctions
     kin0=   1.38409703E+01 eigvalue=   2.95897890E+00  local=  -5.70322950E+00
 4,5,6: 1st-order hamiltonian combined with 1st and 0th-order wfs
     kin1=  -5.16355967E+01  Hartree=   0.00000000E+00     xc=   0.00000000E+00
 7,8,9: eventually, occupation + non-local contributions
    edocc=   1.57834751E+01     enl0=   1.44427344E-01   enl1=  -2.41364758E+00
 1-9 gives the relaxation energy (to be shifted if some occ is /=2.0)
   erelax=  -2.70246221E+01
  No Ewald or frozen-wf contrib.: the relaxation energy is the total one
 2DEtotal=   -0.2702462214E+02 Ha. Also 2DEtotal=   -0.735377366844E+03 eV
    (  non-var. 2DEtotal :   -2.7024622144E+01 Ha)

 CALCULATION OF EFFECTIVE MASSES
 NOTE : Additional infos (eff. mass eigenvalues, eigenvectors and, if degenerate, average mass) are available in stdout.

 COMMENTS:
 - At k-point ( 0.000, 0.000, 0.000), bands     6 through     8
   are DEGENERATE (effective mass tensor is therefore not defined).
   See Section IIIB Eqs. (67)-(70) and Appendix E of PRB 93 205147 (2016).
 - Angular average effective mass for Frohlich model is to be averaged over degenerate bands. See later.
 - Associated theta integrals calculated with ntheta=   1000 points.

 K-point ( 0.000, 0.000, 0.000) | band =     6
 Transport equivalent effective mass tensor:
             -0.2788852136              0.0000000412             -0.0000000495
              0.0000000412             -0.2788849907              0.0000000752
             -0.0000000495              0.0000000752             -0.2788849402
 Transport equivalent effective mass tensor eigenvalues:
             -0.2788852348             -0.2788850244             -0.2788848853
 Angular average effective mass 1/(<1/m>)=  -0.2683587212
 Angular average effective mass for Frohlich model (<m**0.5>)**2=  -0.2690633716
 Effective masses along directions: (cart. coord. / red. coord. -> eff. mass)
    1:   1.000000  0.000000  0.000000 /   0.948683  0.316228  0.000000 ->  -0.2590527532
    2:   0.000000  1.000000  0.000000 /   0.000000  1.000000  0.000000 ->  -0.2470517426
    3:   0.000000  0.000000  1.000000 /   0.408248  0.408248  0.816497 ->  -0.2607521088
    4:   0.577350  0.577350  0.577350 /   0.585539  0.688047  0.428644 ->  -0.2588748799
    5:   0.000000  0.707107  0.707107 /   0.289489  0.762222  0.578977 ->  -0.2776745708
    6:   0.707107  0.000000  0.707107 /   0.731423  0.422287  0.535439 ->  -0.2598935195
    7:   0.707107  0.707107  0.000000 /   0.616798  0.787122  0.000000 ->  -0.3044975577

[...]

 K-point ( 0.000, 0.000, 0.000) | band =     8
 Transport equivalent effective mass tensor:
           -104.4529421049              0.0000970299             -0.0000074218
              0.0000970299           -104.4528735850              0.0000084379
             -0.0000074218              0.0000084379           -104.4527379460
 Transport equivalent effective mass tensor eigenvalues:
           -104.4530111830           -104.4528050444           -104.4527374085
 Angular average effective mass 1/(<1/m>)=  -3.8096950229
 Angular average effective mass for Frohlich model (<m**0.5>)**2=  -5.0838187188
 Effective masses along directions: (cart. coord. / red. coord. -> eff. mass)
    1:   1.000000  0.000000  0.000000 /   0.948683  0.316228  0.000000 ->  -4.1704063601
    2:   0.000000  1.000000  0.000000 /   0.000000  1.000000  0.000000 ->  -3.7743532111
    3:   0.000000  0.000000  1.000000 /   0.408248  0.408248  0.816497 -> -19.1312780006
    4:   0.577350  0.577350  0.577350 /   0.585539  0.688047  0.428644 ->  -5.2761373965
    5:   0.000000  0.707107  0.707107 /   0.289489  0.762222  0.578977 ->  -3.3022678757
    6:   0.707107  0.000000  0.707107 /   0.731423  0.422287  0.535439 ->  -8.0242256883
    7:   0.707107  0.707107  0.000000 /   0.616798  0.787122  0.000000 ->  -1.6090751218

 Angular average effective mass for Frohlich model, averaged over degenerate bands.
 Value of     (<<m**0.5>>)**2 =     1.863504E+00
 Absolute Value of <<m**0.5>> =     1.365102E+00

 K-point ( 0.000, 0.000, 0.000) | band =     9
 Effective mass tensor:
              0.2490109344             -0.0000000054             -0.0000000014
             -0.0000000054              0.2490109317              0.0000000000
             -0.0000000014              0.0000000000              0.2490109280
 Effective mass tensor eigenvalues:
              0.2490109268              0.2490109286              0.2490109388
 Angular average effective mass 1/(<1/m>)=   0.2490109314
 Angular average effective mass for Frohlich model (<m**0.5>)**2=   0.2490109314
 Effective masses along directions: (cart. coord. / red. coord. -> eff. mass)
    1:   1.000000  0.000000  0.000000 /   0.948683  0.316228  0.000000 ->   0.2490109344
    2:   0.000000  1.000000  0.000000 /   0.000000  1.000000  0.000000 ->   0.2490109317
    3:   0.000000  0.000000  1.000000 /   0.408248  0.408248  0.816497 ->   0.2490109280
    4:   0.577350  0.577350  0.577350 /   0.585539  0.688047  0.428644 ->   0.2490109268
    5:   0.000000  0.707107  0.707107 /   0.289489  0.762222  0.578977 ->   0.2490109299
    6:   0.707107  0.000000  0.707107 /   0.731423  0.422287  0.535439 ->   0.2490109298
    7:   0.707107  0.707107  0.000000 /   0.616798  0.787122  0.000000 ->   0.2490109276

 END OF EFFECTIVE MASSES SECTION

 ---- first-order wavefunction calculations are completed ----

 Total localisation tensor (bohr^2) in cartesian coordinates
  WARNING : still subject to testing - especially symmetries.
      direction              matrix element
   alpha     beta       real part   imaginary part
     1        1       3.1966223593    0.0000000000
     1        2       0.9041420002    0.0000000000
     1        3       2.2146852056    0.0000000000
     2        1       0.9041420002    0.0000000000
     2        2       2.5572997581    0.0000000000
     2        3       1.5660198816    0.0000000000
     3        1       2.2146852056    0.0000000000
     3        2       1.5660198816    0.0000000000
     3        3       5.7539231563    0.0000000000

 respfn : d/dk was computed, but no 2DTE, so no DDB output.

== END DATASET(S) ==============================================================

 -outvars: echo values of variables after computation  --------
            acell      1.0000000000E+00  1.0000000000E+00  1.0000000000E+00 Bohr
              amu      2.43050000E+01  3.20660000E+01
             ecut      4.20000000E+01 Hartree
           etotal     -2.7024622144E+01
            fcart      0.0000000000E+00  0.0000000000E+00  0.0000000000E+00
                       0.0000000000E+00  0.0000000000E+00  0.0000000000E+00
-          fftalg         512
           irdden           1
           irdwfk           1
           istwfk        1
              ixc     -116133
           kptopt           0
P           mkmem           1
P          mkqmem           1
P          mk1mem           1
            natom           2
            nband          17
           nbdbuf           4
            ngfft          48      48      48
             nkpt           1
            nstep         100
             nsym          24
           ntypat           2
              occ      2.000000  2.000000  2.000000  2.000000  2.000000  2.000000
                       2.000000  2.000000  0.000000  0.000000  0.000000  0.000000
                       0.000000  0.000000  0.000000  0.000000  0.000000
        optdriver           1
            prtwf          -1
            rfdir           1       1       1
           rfelfd           2
            rprim      6.5413898317E+00  0.0000000000E+00  3.7766731802E+00
                       2.1804632772E+00  6.1672814779E+00  3.7766731802E+00
                       0.0000000000E+00  0.0000000000E+00  7.5533463604E+00
          spgroup         216
           strten      0.0000000000E+00  0.0000000000E+00  0.0000000000E+00
                       0.0000000000E+00  0.0000000000E+00  0.0000000000E+00
           symrel      1  0  0   0  1  0   0  0  1       0 -1  1   0 -1  0   1 -1  0
                      -1  0  0  -1  0  1  -1  1  0       0  1 -1   1  0 -1   0  0 -1
                      -1  0  0  -1  1  0  -1  0  1       0 -1  1   1 -1  0   0 -1  0
                       1  0  0   0  0  1   0  1  0       0  1 -1   0  0 -1   1  0 -1
                      -1  0  1  -1  1  0  -1  0  0       0 -1  0   1 -1  0   0 -1  1
                       1  0 -1   0  0 -1   0  1 -1       0  1  0   0  0  1   1  0  0
                       1  0 -1   0  1 -1   0  0 -1       0 -1  0   0 -1  1   1 -1  0
                      -1  0  1  -1  0  0  -1  1  0       0  1  0   1  0  0   0  0  1
                       0  0 -1   0  1 -1   1  0 -1       1 -1  0   0 -1  1   0 -1  0
                       0  0  1   1  0  0   0  1  0      -1  1  0  -1  0  0  -1  0  1
                       0  0  1   0  1  0   1  0  0       1 -1  0   0 -1  0   0 -1  1
                       0  0 -1   1  0 -1   0  1 -1      -1  1  0  -1  0  1  -1  0  0
           tolwfr      1.00000000E-20
            typat      1  2
           useylm           1
           xangst      0.0000000000E+00  0.0000000000E+00  0.0000000000E+00
                       3.4615544114E+00  2.4476885978E+00  5.9955881138E+00
            xcart      0.0000000000E+00  0.0000000000E+00  0.0000000000E+00
                       6.5413898317E+00  4.6254611084E+00  1.1330019541E+01
             xred      0.0000000000E+00  0.0000000000E+00  0.0000000000E+00
                       7.5000000000E-01  7.5000000000E-01  7.5000000000E-01
            znucl       12.00000   16.00000

- Timing analysis has been suppressed with timopt=0

 Suggested references for the acknowledgment of ABINIT usage.

 Calculation completed.
.Delivered   6 WARNINGs and   5 COMMENTs to log file.