.Version 9.5.1 of ABINIT

 ABINIT is a project of the Universite Catholique de Louvain,
 Corning Inc. and other collaborators, see ~abinit/doc/developers/contributors.txt .
 acknowledgments of the ABINIT effort.

.Starting date : Tue  4 May 2021.
- ( at 19h14 )

- input  file    -> /scratch/users/j/a/jabreu/flow_simple_6atoms/flow/w163/t1/run.abi
- output file    -> /scratch/users/j/a/jabreu/flow_simple_6atoms/flow/w163/t1/run.abo
- root for input  files -> /scratch/users/j/a/jabreu/flow_simple_6atoms/flow/w163/t1/indata/in
- root for output files -> /scratch/users/j/a/jabreu/flow_simple_6atoms/flow/w163/t1/outdata/out

 Symmetries : space group Pn n m (# 58); Bravais oP (primitive ortho.)
     intxc =       0      iscf =       7    lmnmax =      18     lnmax =       6
     mgfft =      72  mpssoang =       3    mqgrid =    3313     natom =       6
  nloc_mem =       1    nspden =       1   nspinor =       1    nsppol =       1
      nsym =       8    n1xccc =    2501    ntypat =       2    occopt =       1
   xclevel =       2
-    mband =          35        mffmem =           1         mkmem =           2
-   mkqmem =           2        mk1mem =           2           mpw =        8112
      nfft =      155520          nkpt =           2
  Rough estimation (10% accuracy) of disk space for files :

------------- Echo of variables that govern the present computation ------------
-
- outvars: echo of selected default values
-   iomode0 =  0 , fftalg0 =512 , wfoptalg0 =  0
-
- outvars: echo of global parameters not present in the input file
-  max_nthreads =    0
-
 -outvars: echo values of preprocessed input variables --------
            acell      1.0000000000E+00  1.0000000000E+00  1.0000000000E+00 Bohr
              amu      3.09737620E+01  1.01070000E+02
             ecut      4.40000000E+01 Hartree
-          fftalg         512
           irdden           1
           irdwfk           1
           istwfk        1    0
              ixc     -116133
              kpt      5.00000000E-01  1.23259516E-32  5.00000000E-01
                       2.27272727E-01  0.00000000E+00  0.00000000E+00
           kptopt           0
P           mkmem           2
P          mkqmem           2
P          mk1mem           2
            natom           6
            nband          35
           nbdbuf           4
            ngfft          36      60      72
             nkpt           2
            nstep        1000
             nsym           8
           ntypat           2
              occ      2.000000  2.000000  2.000000  2.000000  2.000000  2.000000
                       2.000000  2.000000  2.000000  2.000000  2.000000  2.000000
                       2.000000  2.000000  2.000000  2.000000  2.000000  2.000000
                       2.000000  2.000000  2.000000  2.000000  2.000000  2.000000
                       2.000000  2.000000  0.000000  0.000000  0.000000  0.000000
                       0.000000  0.000000  0.000000  0.000000  0.000000
        optdriver           1
            prtwf          -1
            rfdir           1       1       1
           rfelfd           2
            rprim      5.4100118467E+00  0.0000000000E+00  0.0000000000E+00
                       0.0000000000E+00  9.6434562276E+00  0.0000000000E+00
                       0.0000000000E+00  0.0000000000E+00  1.1092150000E+01
          spgroup          58
           symrel      1  0  0   0  1  0   0  0  1      -1  0  0   0 -1  0   0  0 -1
                      -1  0  0   0  1  0   0  0 -1       1  0  0   0 -1  0   0  0  1
                      -1  0  0   0 -1  0   0  0  1       1  0  0   0  1  0   0  0 -1
                       1  0  0   0 -1  0   0  0 -1      -1  0  0   0  1  0   0  0  1
            tnons      0.0000000  0.0000000  0.0000000    -0.0000000  0.0000000  0.0000000
                       0.5000000  0.5000000  0.5000000     0.5000000  0.5000000  0.5000000
                       0.5000000  0.5000000  0.5000000     0.5000000  0.5000000  0.5000000
                       0.0000000  0.0000000  0.0000000    -0.0000000  0.0000000  0.0000000
           tolwfr      1.00000000E-20
            typat      1  1  1  1  2  2
           useylm           1
              wtk        0.50000    0.50000
           xangst      1.4314274837E+00  4.2741858524E+00  2.1826116815E+00
                       1.4314274837E+00  8.2891139523E-01  3.6871012928E+00
                       0.0000000000E+00  3.3804600191E+00  5.1174681687E+00
                       0.0000000000E+00  1.7226372286E+00  7.5224480566E-01
                       1.4314274837E+00  0.0000000000E+00  0.0000000000E+00
                       0.0000000000E+00  2.5515486238E+00  2.9348564872E+00
            xcart      2.7050059233E+00  8.0770407022E+00  4.1245383325E+00
                       2.7050059233E+00  1.5664155254E+00  6.9676116677E+00
                       0.0000000000E+00  6.3881436392E+00  9.6706133326E+00
                       0.0000000000E+00  3.2553125884E+00  1.4215366676E+00
                       2.7050059233E+00  0.0000000000E+00  0.0000000000E+00
                       0.0000000000E+00  4.8217281138E+00  5.5460750001E+00
             xred      5.0000000000E-01  8.3756700000E-01  3.7184300000E-01
                       5.0000000000E-01  1.6243300000E-01  6.2815700000E-01
                       0.0000000000E+00  6.6243300000E-01  8.7184300000E-01
                       0.0000000000E+00  3.3756700000E-01  1.2815700000E-01
                       5.0000000000E-01  0.0000000000E+00  0.0000000000E+00
                       0.0000000000E+00  5.0000000000E-01  5.0000000000E-01
            znucl       15.00000   44.00000

 chkinp: Checking input parameters for consistency.

== DATASET  1 ==================================================================
-   mpi_nproc: 1, omp_nthreads: -1 (-1 if OMP is not activated)

--- !DatasetInfo
iteration_state: {dtset: 1, }
dimensions: {natom: 6, nkpt: 2, mband: 35, nsppol: 1, nspinor: 1, nspden: 1, mpw: 8112, }
cutoff_energies: {ecut:  44.0, pawecutdg:  -1.0, }
electrons: {nelect:   5.20000000E+01, charge:   0.00000000E+00, occopt:   1.00000000E+00, tsmear:   1.00000000E-02, }
meta: {optdriver: 1, rfelfd: 2, }
...

 Real(R)+Recip(G) space primitive vectors, cartesian coordinates (Bohr,Bohr^-1):
 R(1)=  5.4100118  0.0000000  0.0000000  G(1)=  0.1848425  0.0000000  0.0000000
 R(2)=  0.0000000  9.6434562  0.0000000  G(2)=  0.0000000  0.1036973  0.0000000
 R(3)=  0.0000000  0.0000000 11.0921500  G(3)=  0.0000000  0.0000000  0.0901538
 Unit cell volume ucvol=  5.7869091E+02 bohr^3
 Angles (23,13,12)=  9.00000000E+01  9.00000000E+01  9.00000000E+01 degrees

 getcut: wavevector=  0.0000  0.0000  0.0000  ngfft=  36  60  72
         ecut(hartree)=     44.000   => boxcut(ratio)=   2.08366

--- Pseudopotential description ------------------------------------------------
- pspini: atom type   1  psp file is /scratch/users/j/a/jabreu/pseudos/PBEsol/P.psp8
- pspatm: opening atomic psp file    /scratch/users/j/a/jabreu/pseudos/PBEsol/P.psp8
- P     ONCVPSP-3.3.0  r_core=   1.46089   1.55067   1.70594
- 15.00000   5.00000    180112                znucl, zion, pspdat
    8 -116133    2    4       600   0.00000   pspcod,pspxc,lmax,lloc,mmax,r2well
    5.99000000000000    5.00000000000000    0.00000000000000   rchrg,fchrg,qchrg
     nproj     2     2     2
     extension_switch     1
  pspatm : epsatm=    7.31221086
         --- l  ekb(1:nproj) -->
             0    6.742364    1.063650
             1    3.449117    0.910422
             2   -3.077645   -0.799176
 pspatm: atomic psp has been read  and splines computed

- pspini: atom type   2  psp file is /scratch/users/j/a/jabreu/pseudos/PBEsol/Ru.psp8
- pspatm: opening atomic psp file    /scratch/users/j/a/jabreu/pseudos/PBEsol/Ru.psp8
- Ru    ONCVPSP-3.3.0  r_core=   1.35650   1.40592   1.30881
- 44.00000  16.00000    180112                znucl, zion, pspdat
    8 -116133    2    4       600   0.00000   pspcod,pspxc,lmax,lloc,mmax,r2well
    5.99000000000000    7.00000000000000    0.00000000000000   rchrg,fchrg,qchrg
     nproj     2     2     2
     extension_switch     1
  pspatm : epsatm=   20.24388641
         --- l  ekb(1:nproj) -->
             0   14.596908    1.144598
             1    7.305594    1.039251
             2    1.509539    0.405296
 pspatm: atomic psp has been read  and splines computed

   3.62630404E+03                                ecore*ucvol(ha*bohr**3)

-inwffil : will read wavefunctions from disk file /scratch/users/j/a/jabreu/flow_simple_6atoms/flow/w163/t1/indata/in_WFK

 ==>  initialize data related to q vector <==

 The list of irreducible perturbations for this q vector is:
    1)    idir= 1    ipert=   7
    2)    idir= 2    ipert=   7
    3)    idir= 3    ipert=   7

 Perturbation wavevector (in red.coord.)   0.000000  0.000000  0.000000
 Perturbation : derivative vs k along direction   1

 dfpt_looppert : COMMENT -
  In a d/dk calculation, iscf is set to -3 automatically.
 The set of symmetries contains only one element for this perturbation.
 symkpt : not enough symmetry to change the number of k points.

[...]

 Initialisation of the first-order wave-functions :
  ireadwf=   0

--- !BeginCycle
iteration_state: {dtset: 1, }
solver: {iscf: 7, nstep: 1000, nline: 4, wfoptalg: 0, }
tolerances: {tolwfr: 1.00E-20, }
...

     iter   2DEtotal(Ha)        deltaE(Ha) residm    vres2
-ETOT  1  -69.533982014083     -6.953E+01 1.325E-01 0.000E+00
 ETOT  2  -69.592561537030     -5.858E-02 1.407E-02 0.000E+00
 ETOT  3  -69.592879904229     -3.184E-04 1.330E-04 0.000E+00
 ETOT  4  -69.592882502812     -2.599E-06 1.981E-05 0.000E+00
 ETOT  5  -69.592882528729     -2.592E-08 4.989E-07 0.000E+00
 ETOT  6  -69.592882529002     -2.734E-10 1.024E-07 0.000E+00
 ETOT  7  -69.592882529005     -3.013E-12 8.898E-09 0.000E+00
 ETOT  8  -69.592882529005     -9.948E-14 2.204E-09 0.000E+00
 ETOT  9  -69.592882529005      9.948E-14 2.078E-10 0.000E+00
 ETOT 10  -69.592882529005     -1.421E-14 9.509E-11 0.000E+00
 ETOT 11  -69.592882529005     -1.279E-13 7.819E-12 0.000E+00
 ETOT 12  -69.592882529005      0.000E+00 3.267E-12 0.000E+00
 ETOT 13  -69.592882529005      0.000E+00 2.668E-13 0.000E+00
 ETOT 14  -69.592882529005      0.000E+00 1.130E-13 0.000E+00
 ETOT 15  -69.592882529005      2.842E-14 9.190E-15 0.000E+00
 ETOT 16  -69.592882529005     -1.421E-14 4.084E-15 0.000E+00
 ETOT 17  -69.592882529005     -1.421E-14 3.275E-16 0.000E+00
 ETOT 18  -69.592882529005      0.000E+00 1.520E-16 0.000E+00
 ETOT 19  -69.592882529005      1.421E-14 1.207E-17 0.000E+00
 ETOT 20  -69.592882529005      0.000E+00 5.749E-18 0.000E+00
 ETOT 21  -69.592882529005      1.421E-14 4.556E-19 0.000E+00
 ETOT 22  -69.592882529005     -1.421E-14 2.195E-19 0.000E+00
 ETOT 23  -69.592882529005      0.000E+00 1.749E-20 0.000E+00
 ETOT 24  -69.592882529005      1.421E-14 9.777E-21 0.000E+00

 At SCF step   24   max residual=  9.78E-21 < tolwfr=  1.00E-20 =>converged.

 ----iterations are completed or convergence reached----

 dfpt_looppert: DFPT cycle converged with prtwf=-1. Will skip output of the 1st-order WFK file.
 dfpt_looppert : ek2=    1.4028028637E+02
          f-sum rule ratio=    1.0274260282E+00
 prteigrs : about to open file /scratch/users/j/a/jabreu/flow_simple_6atoms/flow/w163/t1/tmpdata/tmp_1WF1_EIG
 Expectation of eigenvalue derivatives (hartree) for nkpt=   2  k points:
  (in case of degenerate eigenvalues, averaged derivative)
 kpt#   1, nband= 35, wtk=  0.50000, kpt=  0.5000  0.0000  0.5000 (reduced coord)
  -0.00000   -0.00000    0.00000    0.00000   -0.00000   -0.00000   -0.00000   -0.00000
  -0.00000   -0.00000    0.00000    0.00000   -0.00000   -0.00000   -0.00000   -0.00000
  -0.00000   -0.00000    0.00000    0.00000    0.00000    0.00000    0.00000    0.00000
   0.00000    0.00000   -0.00000   -0.00000    0.00000    0.00000   -0.00000   -0.00000
  -0.00000    0.00036   -0.00000
 prteigrs : prtvol=0 or 1, do not print more k-points.

 Eight components of 2nd-order total energy (hartree) are
 1,2,3: 0th-order hamiltonian combined with 1st-order wavefunctions
     kin0=   9.51272683E+01 eigvalue=  -1.39739152E+01  local=  -5.28629089E+01
 4,5,6: 1st-order hamiltonian combined with 1st and 0th-order wfs
     kin1=  -1.44127617E+02  Hartree=   0.00000000E+00     xc=   0.00000000E+00
 7,8,9: eventually, occupation + non-local contributions
    edocc=   3.26439508E+01     enl0=   8.65848743E+00   enl1=   4.94185241E+00
 1-9 gives the relaxation energy (to be shifted if some occ is /=2.0)
   erelax=  -6.95928825E+01
  No Ewald or frozen-wf contrib.: the relaxation energy is the total one
 2DEtotal=   -0.6959288253E+02 Ha. Also 2DEtotal=   -0.189371864042E+04 eV
    (  non-var. 2DEtotal :   -6.9592882529E+01 Ha)

 Perturbation wavevector (in red.coord.)   0.000000  0.000000  0.000000
 Perturbation : derivative vs k along direction   2
 The set of symmetries contains only one element for this perturbation.
 symkpt : not enough symmetry to change the number of k points.

[...]

 Perturbation wavevector (in red.coord.)   0.000000  0.000000  0.000000
 Perturbation : derivative vs k along direction   3
 The set of symmetries contains only one element for this perturbation.
 symkpt : not enough symmetry to change the number of k points.

-inwffil : will read wavefunctions from disk file /scratch/users/j/a/jabreu/flow_simple_6atoms/flow/w163/t1/indata/in_WFK

 Initialisation of the first-order wave-functions :
  ireadwf=   0

--- !BeginCycle
iteration_state: {dtset: 1, }
solver: {iscf: 7, nstep: 1000, nline: 4, wfoptalg: 0, }
tolerances: {tolwfr: 1.00E-20, }
...

     iter   2DEtotal(Ha)        deltaE(Ha) residm    vres2
-ETOT  1  -17.195965394021     -1.720E+01 6.310E-02 0.000E+00
 ETOT  2  -17.216851853810     -2.089E-02 4.170E-03 0.000E+00
 ETOT  3  -17.216974128470     -1.223E-04 8.305E-05 0.000E+00
 ETOT  4  -17.216975149014     -1.021E-06 1.216E-05 0.000E+00
 ETOT  5  -17.216975159149     -1.013E-08 4.287E-07 0.000E+00
 ETOT  6  -17.216975159257     -1.085E-10 5.790E-08 0.000E+00
 ETOT  7  -17.216975159258     -1.364E-12 3.376E-09 0.000E+00
 ETOT  8  -17.216975159258     -3.553E-15 5.194E-10 0.000E+00
 ETOT  9  -17.216975159259     -3.197E-14 2.530E-11 0.000E+00
 ETOT 10  -17.216975159259     -1.066E-14 4.022E-12 0.000E+00
 ETOT 11  -17.216975159259      1.421E-14 2.120E-13 0.000E+00
 ETOT 12  -17.216975159259     -3.553E-15 3.354E-14 0.000E+00
 ETOT 13  -17.216975159259      7.105E-15 1.798E-15 0.000E+00
 ETOT 14  -17.216975159259     -1.066E-14 3.111E-16 0.000E+00
 ETOT 15  -17.216975159259      3.553E-15 1.967E-17 0.000E+00
 ETOT 16  -17.216975159259     -7.105E-15 4.827E-18 0.000E+00
 ETOT 17  -17.216975159259      7.105E-15 5.052E-19 0.000E+00
 ETOT 18  -17.216975159259      0.000E+00 1.683E-19 0.000E+00
 ETOT 19  -17.216975159259      0.000E+00 2.142E-20 0.000E+00
 ETOT 20  -17.216975159259     -3.553E-15 9.345E-21 0.000E+00

 At SCF step   20   max residual=  9.34E-21 < tolwfr=  1.00E-20 =>converged.

 ----iterations are completed or convergence reached----

 dfpt_looppert: DFPT cycle converged with prtwf=-1. Will skip output of the 1st-order WFK file.
 dfpt_looppert : ek2=    3.3370415036E+01
          f-sum rule ratio=    1.0705931920E+00
 prteigrs : about to open file /scratch/users/j/a/jabreu/flow_simple_6atoms/flow/w163/t1/tmpdata/tmp_1WF1_EIG
 Expectation of eigenvalue derivatives (hartree) for nkpt=   2  k points:
  (in case of degenerate eigenvalues, averaged derivative)
 kpt#   1, nband= 35, wtk=  0.50000, kpt=  0.5000  0.0000  0.5000 (reduced coord)
   0.00000    0.00000    0.00000    0.00000    0.00000    0.00000    0.00000    0.00000
  -0.00000   -0.00000   -0.00000   -0.00000    0.00000    0.00000   -0.00000   -0.00000
   0.00000    0.00000   -0.00000   -0.00000   -0.00000   -0.00000    0.00000    0.00000
   0.00000    0.00000   -0.00000   -0.00000    0.00000    0.00000   -0.00000   -0.00000
   0.00000   -0.00580   -0.00000
 prteigrs : prtvol=0 or 1, do not print more k-points.

 Eight components of 2nd-order total energy (hartree) are
 1,2,3: 0th-order hamiltonian combined with 1st-order wavefunctions
     kin0=   2.52776000E+01 eigvalue=  -3.89009748E+00  local=  -1.45148747E+01
 4,5,6: 1st-order hamiltonian combined with 1st and 0th-order wfs
     kin1=  -3.57261392E+01  Hartree=   0.00000000E+00     xc=   0.00000000E+00
 7,8,9: eventually, occupation + non-local contributions
    edocc=   7.77571767E+00     enl0=   2.56862969E+00   enl1=   1.29218883E+00
 1-9 gives the relaxation energy (to be shifted if some occ is /=2.0)
   erelax=  -1.72169752E+01
  No Ewald or frozen-wf contrib.: the relaxation energy is the total one
 2DEtotal=   -0.1721697516E+02 Ha. Also 2DEtotal=   -0.468497719967E+03 eV
    (  non-var. 2DEtotal :   -1.7216975159E+01 Ha)

 CALCULATION OF EFFECTIVE MASSES
 NOTE : Additional infos (eff. mass eigenvalues, eigenvectors and, if degenerate, average mass) are available in stdout.

 COMMENTS:
 - At k-point ( 0.500, 0.000, 0.500), bands    25 through    26
   are DEGENERATE (effective mass tensor is therefore not defined).
   See Section IIIB Eqs. (67)-(70) and Appendix E of PRB 93 205147 (2016).
 - Angular average effective mass for Frohlich model is to be averaged over degenerate bands. See later.
 - Associated theta integrals calculated with ntheta=   1000 points.

 K-point ( 0.500, 0.000, 0.500) | band =    25
 Transport equivalent effective mass tensor:
             -0.5375728634             -0.0000000149             -0.0000000038
             -0.0000000149             -0.2487712221              0.0000000167
             -0.0000000038              0.0000000167             -0.1226768663
 Transport equivalent effective mass tensor eigenvalues:
             -0.5375728634             -0.2487712221             -0.1226768663
 Angular average effective mass 1/(<1/m>)=  -0.1921806505
 Angular average effective mass for Frohlich model (<m**0.5>)**2=  -0.2091231628
 Effective masses along directions: (cart. coord. / red. coord. -> eff. mass)
    1:   1.000000  0.000000  0.000000 /   1.000000  0.000000  0.000000 ->  -0.4607738824
    2:   0.000000  1.000000  0.000000 /   0.000000  1.000000  0.000000 ->  -0.2946467320
    3:   0.000000  0.000000  1.000000 /   0.000000  0.000000  1.000000 ->  -0.1605078950
    4:   0.577350  0.577350  0.577350 /   0.345421  0.615721  0.708218 ->  -0.1703029111
    5:   0.000000  0.707107  0.707107 /   0.000000  0.656105  0.754669 ->  -0.1304235121
    6:   0.707107  0.000000  0.707107 /   0.438372  0.000000  0.898794 ->  -0.2098502493
    7:   0.707107  0.707107  0.000000 /   0.489269  0.872133  0.000000 ->  -0.3594435450

 K-point ( 0.500, 0.000, 0.500) | band =    26
 Transport equivalent effective mass tensor:
             -0.9274195399             -0.0000000560             -0.0000000225
             -0.0000000560             -0.7620318611              0.0000000807
             -0.0000000225              0.0000000807             -0.3991016287
 Transport equivalent effective mass tensor eigenvalues:
             -0.9274195399             -0.7620318611             -0.3991016287
 Angular average effective mass 1/(<1/m>)=  -0.3760133838
 Angular average effective mass for Frohlich model (<m**0.5>)**2=  -0.4069471701
 Effective masses along directions: (cart. coord. / red. coord. -> eff. mass)
    1:   1.000000  0.000000  0.000000 /   1.000000  0.000000  0.000000 ->  -0.4607740970
    2:   0.000000  1.000000  0.000000 /   0.000000  1.000000  0.000000 ->  -0.2946471832
    3:   0.000000  0.000000  1.000000 /   0.000000  0.000000  1.000000 ->  -0.1605079341
    4:   0.577350  0.577350  0.577350 /   0.345421  0.615721  0.708218 ->  -0.5022531204
    5:   0.000000  0.707107  0.707107 /   0.000000  0.656105  0.754669 ->  -0.5110417781
    6:   0.707107  0.000000  0.707107 /   0.438372  0.000000  0.898794 ->  -0.2750894898
    7:   0.707107  0.707107  0.000000 /   0.489269  0.872133  0.000000 ->  -0.3594439146

 Angular average effective mass for Frohlich model, averaged over degenerate bands.
 Value of     (<<m**0.5>>)**2 =     2.998789E-01
 Absolute Value of <<m**0.5>> =     5.476120E-01

 K-point ( 0.227, 0.000, 0.000) | band =    27
 Effective mass tensor:
              0.7727888446             -0.0000000012             -0.0000000011
             -0.0000000012              0.3805442091              0.0000000117
             -0.0000000011              0.0000000117              1.7896030267
 Effective mass tensor eigenvalues:
              0.3805442091              0.7727888446              1.7896030267
 Angular average effective mass 1/(<1/m>)=   0.6695512041
 Angular average effective mass for Frohlich model (<m**0.5>)**2=   0.7463290751
 Effective masses along directions: (cart. coord. / red. coord. -> eff. mass)
    1:   1.000000  0.000000  0.000000 /   1.000000  0.000000  0.000000 ->   0.7727888446
    2:   0.000000  1.000000  0.000000 /   0.000000  1.000000  0.000000 ->   0.3805442091
    3:   0.000000  0.000000  1.000000 /   0.000000  0.000000  1.000000 ->   1.7896030267
    4:   0.577350  0.577350  0.577350 /   0.345421  0.615721  0.708218 ->   0.6695512077
    5:   0.000000  0.707107  0.707107 /   0.000000  0.656105  0.754669 ->   0.6276284525
    6:   0.707107  0.000000  0.707107 /   0.438372  0.000000  0.898794 ->   1.0794486742
    7:   0.707107  0.707107  0.000000 /   0.489269  0.872133  0.000000 ->   0.5099659948

 END OF EFFECTIVE MASSES SECTION

 ---- first-order wavefunction calculations are completed ----

 Total localisation tensor (bohr^2) in cartesian coordinates
  WARNING : still subject to testing - especially symmetries.
      direction              matrix element
   alpha     beta       real part   imaginary part
     1        1       1.5426271297    0.0000000000
     1        2       0.0000000000    0.0000000000
     1        3       0.0000000000    0.0000000000
     2        1       0.0000000000    0.0000000000
     2        2       2.8484790817    0.0000000000
     2        3       0.0000000000    0.0000000000
     3        1       0.0000000000    0.0000000000
     3        2       0.0000000000    0.0000000000
     3        3       2.4002056053    0.0000000000

 respfn : d/dk was computed, but no 2DTE, so no DDB output.

== END DATASET(S) ==============================================================

 -outvars: echo values of variables after computation  --------
            acell      1.0000000000E+00  1.0000000000E+00  1.0000000000E+00 Bohr
              amu      3.09737620E+01  1.01070000E+02
             ecut      4.40000000E+01 Hartree
           etotal     -1.7216975159E+01
            fcart      0.0000000000E+00  0.0000000000E+00  0.0000000000E+00
                       0.0000000000E+00  0.0000000000E+00  0.0000000000E+00
                       0.0000000000E+00  0.0000000000E+00  0.0000000000E+00
                       0.0000000000E+00  0.0000000000E+00  0.0000000000E+00
                       0.0000000000E+00  0.0000000000E+00  0.0000000000E+00
                       0.0000000000E+00  0.0000000000E+00  0.0000000000E+00
-          fftalg         512
           irdden           1
           irdwfk           1
           istwfk        1    0
              ixc     -116133
              kpt      5.00000000E-01  1.23259516E-32  5.00000000E-01
                       2.27272727E-01  0.00000000E+00  0.00000000E+00
           kptopt           0
P           mkmem           2
P          mkqmem           2
P          mk1mem           2
            natom           6
            nband          35
           nbdbuf           4
            ngfft          36      60      72
             nkpt           2
            nstep        1000
             nsym           8
           ntypat           2
              occ      2.000000  2.000000  2.000000  2.000000  2.000000  2.000000
                       2.000000  2.000000  2.000000  2.000000  2.000000  2.000000
                       2.000000  2.000000  2.000000  2.000000  2.000000  2.000000
                       2.000000  2.000000  2.000000  2.000000  2.000000  2.000000
                       2.000000  2.000000  0.000000  0.000000  0.000000  0.000000
                       0.000000  0.000000  0.000000  0.000000  0.000000
        optdriver           1
            prtwf          -1
            rfdir           1       1       1
           rfelfd           2
            rprim      5.4100118467E+00  0.0000000000E+00  0.0000000000E+00
                       0.0000000000E+00  9.6434562276E+00  0.0000000000E+00
                       0.0000000000E+00  0.0000000000E+00  1.1092150000E+01
          spgroup          58
           strten      0.0000000000E+00  0.0000000000E+00  0.0000000000E+00
                       0.0000000000E+00  0.0000000000E+00  0.0000000000E+00
           symrel      1  0  0   0  1  0   0  0  1      -1  0  0   0 -1  0   0  0 -1
                      -1  0  0   0  1  0   0  0 -1       1  0  0   0 -1  0   0  0  1
                      -1  0  0   0 -1  0   0  0  1       1  0  0   0  1  0   0  0 -1
                       1  0  0   0 -1  0   0  0 -1      -1  0  0   0  1  0   0  0  1
            tnons      0.0000000  0.0000000  0.0000000    -0.0000000  0.0000000  0.0000000
                       0.5000000  0.5000000  0.5000000     0.5000000  0.5000000  0.5000000
                       0.5000000  0.5000000  0.5000000     0.5000000  0.5000000  0.5000000
                       0.0000000  0.0000000  0.0000000    -0.0000000  0.0000000  0.0000000
           tolwfr      1.00000000E-20
            typat      1  1  1  1  2  2
           useylm           1
              wtk        0.50000    0.50000
           xangst      1.4314274837E+00  4.2741858524E+00  2.1826116815E+00
                       1.4314274837E+00  8.2891139523E-01  3.6871012928E+00
                       0.0000000000E+00  3.3804600191E+00  5.1174681687E+00
                       0.0000000000E+00  1.7226372286E+00  7.5224480566E-01
                       1.4314274837E+00  0.0000000000E+00  0.0000000000E+00
                       0.0000000000E+00  2.5515486238E+00  2.9348564872E+00
            xcart      2.7050059233E+00  8.0770407022E+00  4.1245383325E+00
                       2.7050059233E+00  1.5664155254E+00  6.9676116677E+00
                       0.0000000000E+00  6.3881436392E+00  9.6706133326E+00
                       0.0000000000E+00  3.2553125884E+00  1.4215366676E+00
                       2.7050059233E+00  0.0000000000E+00  0.0000000000E+00
                       0.0000000000E+00  4.8217281138E+00  5.5460750001E+00
             xred      5.0000000000E-01  8.3756700000E-01  3.7184300000E-01
                       5.0000000000E-01  1.6243300000E-01  6.2815700000E-01
                       0.0000000000E+00  6.6243300000E-01  8.7184300000E-01
                       0.0000000000E+00  3.3756700000E-01  1.2815700000E-01
                       5.0000000000E-01  0.0000000000E+00  0.0000000000E+00
                       0.0000000000E+00  5.0000000000E-01  5.0000000000E-01
            znucl       15.00000   44.00000

- Timing analysis has been suppressed with timopt=0

 Suggested references for the acknowledgment of ABINIT usage.

 Calculation completed.
.Delivered  14 WARNINGs and   9 COMMENTs to log file.