.Version 9.5.1 of ABINIT

 ABINIT is a project of the Universite Catholique de Louvain,
 Corning Inc. and other collaborators, see ~abinit/doc/developers/contributors.txt .
 acknowledgments of the ABINIT effort.

.Starting date : Wed  5 May 2021.
- ( at 20h03 )

- input  file    -> /scratch/users/j/a/jabreu/flow_simple_7atoms/flow/w180/t1/run.abi
- output file    -> /scratch/users/j/a/jabreu/flow_simple_7atoms/flow/w180/t1/run.abo
- root for input  files -> /scratch/users/j/a/jabreu/flow_simple_7atoms/flow/w180/t1/indata/in
- root for output files -> /scratch/users/j/a/jabreu/flow_simple_7atoms/flow/w180/t1/outdata/out

 Symmetries : space group I4/m m m (#139); Bravais tI (body-center tetrag.)
     intxc =       0      iscf =       7    lmnmax =      32     lnmax =       8
     mgfft =      90  mpssoang =       4    mqgrid =    3001     natom =       7
  nloc_mem =       1    nspden =       1   nspinor =       1    nsppol =       1
      nsym =      16    n1xccc =    2501    ntypat =       3    occopt =       1
   xclevel =       2
-    mband =          37        mffmem =           1         mkmem =           2
-   mkqmem =           2        mk1mem =           2           mpw =       12854
      nfft =      729000          nkpt =           2
  Rough estimation (10% accuracy) of disk space for files :

------------- Echo of variables that govern the present computation ------------
-
- outvars: echo of selected default values
-   iomode0 =  0 , fftalg0 =512 , wfoptalg0 =  0
-
- outvars: echo of global parameters not present in the input file
-  max_nthreads =    0
-
 -outvars: echo values of preprocessed input variables --------
            acell      1.0000000000E+00  1.0000000000E+00  1.0000000000E+00 Bohr
              amu      1.32905430E+02  4.00780000E+01  1.89984032E+01
             ecut      4.20000000E+01 Hartree
-          fftalg         512
           irdden           1
           irdwfk           1
           istwfk        1    1
              ixc     -116133
              kpt      0.00000000E+00  0.00000000E+00  5.00000000E-01
                       0.00000000E+00  0.00000000E+00  0.00000000E+00
           kptopt           0
P           mkmem           2
P          mkqmem           2
P          mk1mem           2
            natom           7
            nband          37
           nbdbuf           4
            ngfft          90      90      90
             nkpt           2
            nstep        2000
             nsym          16
           ntypat           3
              occ      2.000000  2.000000  2.000000  2.000000  2.000000  2.000000
                       2.000000  2.000000  2.000000  2.000000  2.000000  2.000000
                       2.000000  2.000000  2.000000  2.000000  2.000000  2.000000
                       2.000000  2.000000  2.000000  2.000000  2.000000  2.000000
                       2.000000  2.000000  2.000000  2.000000  0.000000  0.000000
                       0.000000  0.000000  0.000000  0.000000  0.000000  0.000000
                       0.000000
        optdriver           1
            prtwf          -1
            rfdir           1       1       1
           rfelfd           2
            rprim      8.1015475960E+00  0.0000000000E+00 -1.2750193802E+01
                      -6.8524957070E-01  8.0725154986E+00 -1.2750193802E+01
                       0.0000000000E+00  0.0000000000E+00  1.5106373338E+01
          spgroup         139
           symrel      1  0  0   0  1  0   0  0  1      -1  0  0   0 -1  0   0  0 -1
                       0  0  1  -1 -1 -1   1  0  0       0  0 -1   1  1  1  -1  0  0
                       0  1  0   1  0  0  -1 -1 -1       0 -1  0  -1  0  0   1  1  1
                      -1 -1 -1   0  0  1   0  1  0       1  1  1   0  0 -1   0 -1  0
                       0  1  0   1  0  0   0  0  1       0 -1  0  -1  0  0   0  0 -1
                       0  0  1  -1 -1 -1   0  1  0       0  0 -1   1  1  1   0 -1  0
                       1  0  0   0  1  0  -1 -1 -1      -1  0  0   0 -1  0   1  1  1
                      -1 -1 -1   0  0  1   1  0  0       1  1  1   0  0 -1  -1  0  0
           tolwfr      1.00000000E-20
            typat      1  1  2  3  3  3  3
           useylm           1
              wtk        0.50000    0.50000
           xangst      2.5464390349E+00  2.7717560035E+00 -8.7557406913E+00
                       1.3780968522E+00  1.5000352144E+00 -4.7384832388E+00
                       0.0000000000E+00  0.0000000000E+00  0.0000000000E+00
                      -1.8130922751E-01  2.1358956089E+00  6.2341825500E-01
                       2.1435771711E+00  0.0000000000E+00  6.2341825500E-01
                       3.3259068056E+00  3.6201935444E+00 -1.1435882483E+01
                       5.9862908154E-01  6.5159767341E-01 -2.0583414472E+00
            xcart      4.8120723900E+00  5.2378597538E+00 -1.6545951997E+01
                       2.6042256353E+00  2.8346557448E+00 -8.9544356067E+00
                       0.0000000000E+00  0.0000000000E+00  0.0000000000E+00
                      -3.4262478535E-01  4.0362577493E+00  1.1780897682E+00
                       4.0507737980E+00  0.0000000000E+00  1.1780897682E+00
                       6.2850530060E+00  6.8411743470E+00 -2.1610685981E+01
                       1.1312450193E+00  1.2313411516E+00 -3.8897016231E+00
             xred      6.4885100000E-01  6.4885100000E-01  2.2204460493E-16
                       3.5114900000E-01  3.5114900000E-01  5.5511151231E-17
                       0.0000000000E+00  0.0000000000E+00  0.0000000000E+00
                       0.0000000000E+00  5.0000000000E-01  5.0000000000E-01
                       5.0000000000E-01  0.0000000000E+00  5.0000000000E-01
                       8.4746500000E-01  8.4746500000E-01  2.2204460493E-16
                       1.5253500000E-01  1.5253500000E-01  5.5511151231E-17
            znucl       55.00000   20.00000    9.00000

 chkinp: Checking input parameters for consistency.

== DATASET  1 ==================================================================
-   mpi_nproc: 1, omp_nthreads: -1 (-1 if OMP is not activated)

--- !DatasetInfo
iteration_state: {dtset: 1, }
dimensions: {natom: 7, nkpt: 2, mband: 37, nsppol: 1, nspinor: 1, nspden: 1, mpw: 12854, }
cutoff_energies: {ecut:  42.0, pawecutdg:  -1.0, }
electrons: {nelect:   5.60000000E+01, charge:   0.00000000E+00, occopt:   1.00000000E+00, tsmear:   1.00000000E-02, }
meta: {optdriver: 1, rfelfd: 2, }
...

 Real(R)+Recip(G) space primitive vectors, cartesian coordinates (Bohr,Bohr^-1):
 R(1)=  8.1015476  0.0000000-12.7501938  G(1)=  0.1234332  0.0104778  0.0000000
 R(2)= -0.6852496  8.0725155-12.7501938  G(2)=  0.0000000  0.1238771  0.0000000
 R(3)=  0.0000000  0.0000000 15.1063733  G(3)=  0.1041810  0.1133993  0.0661972
 Unit cell volume ucvol=  9.8795483E+02 bohr^3
 Angles (23,13,12)=  1.47567885E+02  1.47567885E+02  4.65236658E+01 degrees

 getcut: wavevector=  0.0000  0.0000  0.0000  ngfft=  90  90  90
         ecut(hartree)=     42.000   => boxcut(ratio)=   2.04217

--- Pseudopotential description ------------------------------------------------
- pspini: atom type   1  psp file is /scratch/users/j/a/jabreu/pseudos/PBEsol/Cs.psp8
- pspatm: opening atomic psp file    /scratch/users/j/a/jabreu/pseudos/PBEsol/Cs.psp8
- Cs    ONCVPSP-3.3.0  r_core=   2.27353   1.85623   2.01788   1.90105
- 55.00000   9.00000    180112                znucl, zion, pspdat
    8 -116133    3    4       600   0.00000   pspcod,pspxc,lmax,lloc,mmax,r2well
    5.99000000000000    5.00000000000000    0.00000000000000   rchrg,fchrg,qchrg
     nproj     2     2     2     2
     extension_switch     1
  pspatm : epsatm=   22.12462445
         --- l  ekb(1:nproj) -->
             0    6.214110    0.767882
             1    6.311966    0.793598
             2    3.769790    0.913105
             3   -9.247129   -2.432478
 pspatm: atomic psp has been read  and splines computed

- pspini: atom type   2  psp file is /scratch/users/j/a/jabreu/pseudos/PBEsol/Ca.psp8
- pspatm: opening atomic psp file    /scratch/users/j/a/jabreu/pseudos/PBEsol/Ca.psp8
- Ca    ONCVPSP-3.3.0  r_core=   1.45885   1.45885   1.85192
- 20.00000  10.00000    180112                znucl, zion, pspdat
    8 -116133    2    4       400   0.00000   pspcod,pspxc,lmax,lloc,mmax,r2well
    3.99000000000000    6.00000000000000    0.00000000000000   rchrg,fchrg,qchrg
     nproj     2     2     2
     extension_switch     1
  pspatm : epsatm=   12.46045226
         --- l  ekb(1:nproj) -->
             0   10.054847    0.973777
             1    2.998958    0.458102
             2   -3.447298   -1.091650
 pspatm: atomic psp has been read  and splines computed

- pspini: atom type   3  psp file is /scratch/users/j/a/jabreu/pseudos/PBEsol/F.psp8
- pspatm: opening atomic psp file    /scratch/users/j/a/jabreu/pseudos/PBEsol/F.psp8
- F     ONCVPSP-3.3.0  r_core=   1.30942   1.45782   1.60379
-  9.00000   7.00000    180112                znucl, zion, pspdat
    8 -116133    2    4       600   0.00000   pspcod,pspxc,lmax,lloc,mmax,r2well
    5.99000000000000    2.50000000000000    0.00000000000000   rchrg,fchrg,qchrg
     nproj     2     2     1
     extension_switch     1
  pspatm : epsatm=    4.89824824
         --- l  ekb(1:nproj) -->
             0    6.506434    1.065875
             1   -3.978753   -1.295852
             2   -2.394754
 pspatm: atomic psp has been read  and splines computed

   4.27295087E+03                                ecore*ucvol(ha*bohr**3)

-inwffil : will read wavefunctions from disk file /scratch/users/j/a/jabreu/flow_simple_7atoms/flow/w180/t1/indata/in_WFK

 ==>  initialize data related to q vector <==

 The list of irreducible perturbations for this q vector is:
    1)    idir= 1    ipert=   8
    2)    idir= 2    ipert=   8
    3)    idir= 3    ipert=   8

 Perturbation wavevector (in red.coord.)   0.000000  0.000000  0.000000
 Perturbation : derivative vs k along direction   1

 dfpt_looppert : COMMENT -
  In a d/dk calculation, iscf is set to -3 automatically.
 The set of symmetries contains only one element for this perturbation.
 symkpt : not enough symmetry to change the number of k points.

[...]

 Initialisation of the first-order wave-functions :
  ireadwf=   0

--- !BeginCycle
iteration_state: {dtset: 1, }
solver: {iscf: 7, nstep: 2000, nline: 4, wfoptalg: 0, }
tolerances: {tolwfr: 1.00E-20, }
...

     iter   2DEtotal(Ha)        deltaE(Ha) residm    vres2
-ETOT  1  -37.459549501188     -3.746E+01 3.546E-02 0.000E+00
 ETOT  2  -37.534097030286     -7.455E-02 2.227E-03 0.000E+00
 ETOT  3  -37.535212876789     -1.116E-03 1.295E-04 0.000E+00
 ETOT  4  -37.535242539945     -2.966E-05 2.214E-05 0.000E+00
 ETOT  5  -37.535243613280     -1.073E-06 3.035E-06 0.000E+00
 ETOT  6  -37.535243663270     -4.999E-08 6.247E-07 0.000E+00
 ETOT  7  -37.535243665802     -2.532E-09 9.725E-08 0.000E+00
 ETOT  8  -37.535243665936     -1.341E-10 2.100E-08 0.000E+00
 ETOT  9  -37.535243665943     -7.319E-12 3.380E-09 0.000E+00
 ETOT 10  -37.535243665944     -3.837E-13 7.526E-10 0.000E+00
 ETOT 11  -37.535243665944     -7.105E-14 1.227E-10 0.000E+00
 ETOT 12  -37.535243665944      4.974E-14 2.792E-11 0.000E+00
 ETOT 13  -37.535243665944     -1.421E-14 4.569E-12 0.000E+00
 ETOT 14  -37.535243665944      7.105E-15 1.057E-12 0.000E+00
 ETOT 15  -37.535243665944     -2.842E-14 1.727E-13 0.000E+00
 ETOT 16  -37.535243665944      0.000E+00 4.054E-14 0.000E+00
 ETOT 17  -37.535243665944     -7.105E-15 6.594E-15 0.000E+00
 ETOT 18  -37.535243665944      7.105E-15 1.567E-15 0.000E+00
 ETOT 19  -37.535243665944      0.000E+00 2.533E-16 0.000E+00
 ETOT 20  -37.535243665944     -7.105E-15 6.095E-17 0.000E+00
 ETOT 21  -37.535243665944      0.000E+00 9.772E-18 0.000E+00
 ETOT 22  -37.535243665944      7.105E-15 2.380E-18 0.000E+00
 ETOT 23  -37.535243665944     -7.105E-15 3.783E-19 0.000E+00
 ETOT 24  -37.535243665944     -7.105E-15 9.317E-20 0.000E+00
 ETOT 25  -37.535243665944      7.105E-15 1.468E-20 0.000E+00
 ETOT 26  -37.535243665944      0.000E+00 9.974E-21 0.000E+00

 At SCF step   26   max residual=  9.97E-21 < tolwfr=  1.00E-20 =>converged.

 ----iterations are completed or convergence reached----

 dfpt_looppert: DFPT cycle converged with prtwf=-1. Will skip output of the 1st-order WFK file.
 dfpt_looppert : ek2=    6.7851583004E+01
          f-sum rule ratio=    1.0559307837E+00
 prteigrs : about to open file /scratch/users/j/a/jabreu/flow_simple_7atoms/flow/w180/t1/tmpdata/tmp_1WF1_EIG
 Expectation of eigenvalue derivatives (hartree) for nkpt=   2  k points:
  (in case of degenerate eigenvalues, averaged derivative)
 kpt#   1, nband= 37, wtk=  0.50000, kpt=  0.0000  0.0000  0.5000 (reduced coord)
  -0.00000    0.00000   -0.00000   -0.00000    0.00000   -0.00000    0.00000    0.00000
   0.00000    0.00000    0.00000   -0.00000   -0.00000   -0.00000   -0.00000   -0.00000
  -0.00000   -0.00000    0.00000    0.00000   -0.00000    0.00000   -0.00000    0.00000
   0.00000   -0.00000   -0.00000    0.00000    0.00000    0.00000    0.00000    0.00000
   0.00000   -0.00000    0.00000    0.00000   -0.00000
 prteigrs : prtvol=0 or 1, do not print more k-points.

 Eight components of 2nd-order total energy (hartree) are
 1,2,3: 0th-order hamiltonian combined with 1st-order wavefunctions
     kin0=   4.59665631E+01 eigvalue=   2.17165462E+00  local=  -2.29375913E+01
 4,5,6: 1st-order hamiltonian combined with 1st and 0th-order wfs
     kin1=  -7.16465752E+01  Hartree=   0.00000000E+00     xc=   0.00000000E+00
 7,8,9: eventually, occupation + non-local contributions
    edocc=   9.60203762E+00     enl0=   2.73257955E+00   enl1=  -3.42391211E+00
 1-9 gives the relaxation energy (to be shifted if some occ is /=2.0)
   erelax=  -3.75352437E+01
  No Ewald or frozen-wf contrib.: the relaxation energy is the total one
 2DEtotal=   -0.3753524367E+02 Ha. Also 2DEtotal=   -0.102138592367E+04 eV
    (  non-var. 2DEtotal :   -3.7535243666E+01 Ha)

 Perturbation wavevector (in red.coord.)   0.000000  0.000000  0.000000
 Perturbation : derivative vs k along direction   2
 The set of symmetries contains only one element for this perturbation.
 symkpt : not enough symmetry to change the number of k points.

[...]

 Perturbation wavevector (in red.coord.)   0.000000  0.000000  0.000000
 Perturbation : derivative vs k along direction   3
 The set of symmetries contains only one element for this perturbation.
 symkpt : not enough symmetry to change the number of k points.

-inwffil : will read wavefunctions from disk file /scratch/users/j/a/jabreu/flow_simple_7atoms/flow/w180/t1/indata/in_WFK

 Initialisation of the first-order wave-functions :
  ireadwf=   0

--- !BeginCycle
iteration_state: {dtset: 1, }
solver: {iscf: 7, nstep: 2000, nline: 4, wfoptalg: 0, }
tolerances: {tolwfr: 1.00E-20, }
...

     iter   2DEtotal(Ha)        deltaE(Ha) residm    vres2
-ETOT  1  -68.906843939639     -6.891E+01 6.891E-02 0.000E+00
 ETOT  2  -68.998789148741     -9.195E-02 4.935E-03 0.000E+00
 ETOT  3  -69.000114939307     -1.326E-03 2.020E-04 0.000E+00
 ETOT  4  -69.000148746201     -3.381E-05 3.712E-05 0.000E+00
 ETOT  5  -69.000149918000     -1.172E-06 3.180E-06 0.000E+00
 ETOT  6  -69.000149969263     -5.126E-08 6.241E-07 0.000E+00
 ETOT  7  -69.000149971793     -2.529E-09 7.271E-08 0.000E+00
 ETOT  8  -69.000149971923     -1.306E-10 1.319E-08 0.000E+00
 ETOT  9  -69.000149971930     -7.006E-12 2.008E-09 0.000E+00
 ETOT 10  -69.000149971931     -2.984E-13 3.479E-10 0.000E+00
 ETOT 11  -69.000149971931     -1.421E-13 5.753E-11 0.000E+00
 ETOT 12  -69.000149971931      0.000E+00 9.890E-12 0.000E+00
 ETOT 13  -69.000149971931      7.105E-14 1.623E-12 0.000E+00
 ETOT 14  -69.000149971931     -4.263E-14 2.821E-13 0.000E+00
 ETOT 15  -69.000149971931      2.842E-14 4.511E-14 0.000E+00
 ETOT 16  -69.000149971931     -4.263E-14 7.979E-15 0.000E+00
 ETOT 17  -69.000149971931      2.842E-14 1.245E-15 0.000E+00
 ETOT 18  -69.000149971931     -1.421E-14 2.245E-16 0.000E+00
 ETOT 19  -69.000149971931     -1.421E-14 3.428E-17 0.000E+00
 ETOT 20  -69.000149971931      0.000E+00 6.297E-18 0.000E+00
 ETOT 21  -69.000149971931      0.000E+00 9.437E-19 0.000E+00
 ETOT 22  -69.000149971931      0.000E+00 1.765E-19 0.000E+00
 ETOT 23  -69.000149971931      1.421E-14 2.601E-20 0.000E+00
 ETOT 24  -69.000149971931     -1.421E-14 9.922E-21 0.000E+00

 At SCF step   24   max residual=  9.92E-21 < tolwfr=  1.00E-20 =>converged.

 ----iterations are completed or convergence reached----

 dfpt_looppert: DFPT cycle converged with prtwf=-1. Will skip output of the 1st-order WFK file.
 dfpt_looppert : ek2=    1.2422504593E+02
          f-sum rule ratio=    1.0606996010E+00
 prteigrs : about to open file /scratch/users/j/a/jabreu/flow_simple_7atoms/flow/w180/t1/tmpdata/tmp_1WF1_EIG
 Expectation of eigenvalue derivatives (hartree) for nkpt=   2  k points:
  (in case of degenerate eigenvalues, averaged derivative)
 kpt#   1, nband= 37, wtk=  0.50000, kpt=  0.0000  0.0000  0.5000 (reduced coord)
   0.00000    0.00000   -0.00000   -0.00000   -0.00000   -0.00000   -0.00000    0.00000
   0.00000    0.00000   -0.00000   -0.00000    0.00000   -0.00000    0.00000    0.00000
   0.00000    0.00000   -0.00000    0.00000    0.00000   -0.00000    0.00000    0.00000
   0.00000   -0.00000   -0.00000   -0.00000    0.00000    0.00000   -0.00000    0.00000
   0.00000    0.00000   -0.00000   -0.00000   -0.00000
 prteigrs : prtvol=0 or 1, do not print more k-points.

 Eight components of 2nd-order total energy (hartree) are
 1,2,3: 0th-order hamiltonian combined with 1st-order wavefunctions
     kin0=   8.64438046E+01 eigvalue=   4.22612775E+00  local=  -4.35155477E+01
 4,5,6: 1st-order hamiltonian combined with 1st and 0th-order wfs
     kin1=  -1.31765457E+02  Hartree=   0.00000000E+00     xc=   0.00000000E+00
 7,8,9: eventually, occupation + non-local contributions
    edocc=   1.68231981E+01     enl0=   5.02256727E+00   enl1=  -6.23484329E+00
 1-9 gives the relaxation energy (to be shifted if some occ is /=2.0)
   erelax=  -6.90001500E+01
  No Ewald or frozen-wf contrib.: the relaxation energy is the total one
 2DEtotal=   -0.6900014997E+02 Ha. Also 2DEtotal=   -0.187758956728E+04 eV
    (  non-var. 2DEtotal :   -6.9000149972E+01 Ha)

 CALCULATION OF EFFECTIVE MASSES
 NOTE : Additional infos (eff. mass eigenvalues, eigenvectors and, if degenerate, average mass) are available in stdout.

 K-point ( 0.000, 0.000, 0.500) | band =    28
 Effective mass tensor:
            -13.1274371342              8.8877496288              3.6827437444
              8.8877496288            -11.6185328720              4.0086045498
              3.6827437444              4.0086045498            -13.7760741858
 Effective mass tensor eigenvalues:
            -21.2926986466            -16.1161110662             -1.1132344792
 Angular average effective mass 1/(<1/m>)=  -2.9782660533
 Angular average effective mass for Frohlich model (<m**0.5>)**2=  -5.1322372891
 Effective masses along directions: (cart. coord. / red. coord. -> eff. mass)
    1:   1.000000  0.000000  0.000000 /   0.996442 -0.084282  0.000000 ->  -2.6530700313
    2:   0.000000  1.000000  0.000000 /   0.000000  1.000000  0.000000 ->  -2.2836447002
    3:   0.000000  0.000000  1.000000 /  -0.542028 -0.542028  0.642192 ->  -5.1953665501
    4:   0.577350  0.577350  0.577350 /  -0.278520 -0.321316  0.905087 ->  -1.1614367094
    5:   0.000000  0.707107  0.707107 /  -0.627662 -0.230271  0.743651 ->  -1.8565953511
    6:   0.707107  0.000000  0.707107 /  -0.224093 -0.647671  0.728220 ->  -2.0409408809
    7:   0.707107  0.707107  0.000000 /   0.738930  0.673782  0.000000 ->  -1.3045255849

 K-point ( 0.000, 0.000, 0.000) | band =    29
 Effective mass tensor:
              0.4365016541              0.0052007671             -0.0164288185
              0.0052007671              0.4373846212             -0.0178824951
             -0.0164288185             -0.0178824951              0.4882129103
 Effective mass tensor eigenvalues:
              0.4317236394              0.4317236672              0.4986518789
 Angular average effective mass 1/(<1/m>)=   0.4519433481
 Angular average effective mass for Frohlich model (<m**0.5>)**2=   0.4525533437
 Effective masses along directions: (cart. coord. / red. coord. -> eff. mass)
    1:   1.000000  0.000000  0.000000 /   0.996442 -0.084282  0.000000 ->   0.4359003790
    2:   0.000000  1.000000  0.000000 /   0.000000  1.000000  0.000000 ->   0.4366810958
    3:   0.000000  0.000000  1.000000 /  -0.542028 -0.542028  0.642192 ->   0.4868792613
    4:   0.577350  0.577350  0.577350 /  -0.278520 -0.321316  0.905087 ->   0.4342511882
    5:   0.000000  0.707107  0.707107 /  -0.627662 -0.230271  0.743651 ->   0.4434559764
    6:   0.707107  0.000000  0.707107 /  -0.224093 -0.647671  0.728220 ->   0.4443825225
    7:   0.707107  0.707107  0.000000 /   0.738930  0.673782  0.000000 ->   0.4409378623

 END OF EFFECTIVE MASSES SECTION

 ---- first-order wavefunction calculations are completed ----

 Total localisation tensor (bohr^2) in cartesian coordinates
  WARNING : still subject to testing - especially symmetries.
      direction              matrix element
   alpha     beta       real part   imaginary part
     1        1       0.7151757858    0.0000000000
     1        2      -0.0598472425    0.0000000000
     1        3      -1.0230202965    0.0000000000
     2        1      -0.0598472425    0.0000000000
     2        2       0.7050245824    0.0000000000
     2        3      -1.1135562468    0.0000000000
     3        1      -1.0230202965    0.0000000000
     3        2      -1.1135562468    0.0000000000
     3        3       8.0829797676    0.0000000000

 respfn : d/dk was computed, but no 2DTE, so no DDB output.

== END DATASET(S) ==============================================================

 -outvars: echo values of variables after computation  --------
            acell      1.0000000000E+00  1.0000000000E+00  1.0000000000E+00 Bohr
              amu      1.32905430E+02  4.00780000E+01  1.89984032E+01
             ecut      4.20000000E+01 Hartree
           etotal     -6.9000149972E+01
            fcart      0.0000000000E+00  0.0000000000E+00  0.0000000000E+00
                       0.0000000000E+00  0.0000000000E+00  0.0000000000E+00
                       0.0000000000E+00  0.0000000000E+00  0.0000000000E+00
                       0.0000000000E+00  0.0000000000E+00  0.0000000000E+00
                       0.0000000000E+00  0.0000000000E+00  0.0000000000E+00
                       0.0000000000E+00  0.0000000000E+00  0.0000000000E+00
                       0.0000000000E+00  0.0000000000E+00  0.0000000000E+00
-          fftalg         512
           irdden           1
           irdwfk           1
           istwfk        1    1
              ixc     -116133
              kpt      0.00000000E+00  0.00000000E+00  5.00000000E-01
                       0.00000000E+00  0.00000000E+00  0.00000000E+00
           kptopt           0
P           mkmem           2
P          mkqmem           2
P          mk1mem           2
            natom           7
            nband          37
           nbdbuf           4
            ngfft          90      90      90
             nkpt           2
            nstep        2000
             nsym          16
           ntypat           3
              occ      2.000000  2.000000  2.000000  2.000000  2.000000  2.000000
                       2.000000  2.000000  2.000000  2.000000  2.000000  2.000000
                       2.000000  2.000000  2.000000  2.000000  2.000000  2.000000
                       2.000000  2.000000  2.000000  2.000000  2.000000  2.000000
                       2.000000  2.000000  2.000000  2.000000  0.000000  0.000000
                       0.000000  0.000000  0.000000  0.000000  0.000000  0.000000
                       0.000000
        optdriver           1
            prtwf          -1
            rfdir           1       1       1
           rfelfd           2
            rprim      8.1015475960E+00  0.0000000000E+00 -1.2750193802E+01
                      -6.8524957070E-01  8.0725154986E+00 -1.2750193802E+01
                       0.0000000000E+00  0.0000000000E+00  1.5106373338E+01
          spgroup         139
           strten      0.0000000000E+00  0.0000000000E+00  0.0000000000E+00
                       0.0000000000E+00  0.0000000000E+00  0.0000000000E+00
           symrel      1  0  0   0  1  0   0  0  1      -1  0  0   0 -1  0   0  0 -1
                       0  0  1  -1 -1 -1   1  0  0       0  0 -1   1  1  1  -1  0  0
                       0  1  0   1  0  0  -1 -1 -1       0 -1  0  -1  0  0   1  1  1
                      -1 -1 -1   0  0  1   0  1  0       1  1  1   0  0 -1   0 -1  0
                       0  1  0   1  0  0   0  0  1       0 -1  0  -1  0  0   0  0 -1
                       0  0  1  -1 -1 -1   0  1  0       0  0 -1   1  1  1   0 -1  0
                       1  0  0   0  1  0  -1 -1 -1      -1  0  0   0 -1  0   1  1  1
                      -1 -1 -1   0  0  1   1  0  0       1  1  1   0  0 -1  -1  0  0
           tolwfr      1.00000000E-20
            typat      1  1  2  3  3  3  3
           useylm           1
              wtk        0.50000    0.50000
           xangst      2.5464390349E+00  2.7717560035E+00 -8.7557406913E+00
                       1.3780968522E+00  1.5000352144E+00 -4.7384832388E+00
                       0.0000000000E+00  0.0000000000E+00  0.0000000000E+00
                      -1.8130922751E-01  2.1358956089E+00  6.2341825500E-01
                       2.1435771711E+00  0.0000000000E+00  6.2341825500E-01
                       3.3259068056E+00  3.6201935444E+00 -1.1435882483E+01
                       5.9862908154E-01  6.5159767341E-01 -2.0583414472E+00
            xcart      4.8120723900E+00  5.2378597538E+00 -1.6545951997E+01
                       2.6042256353E+00  2.8346557448E+00 -8.9544356067E+00
                       0.0000000000E+00  0.0000000000E+00  0.0000000000E+00
                      -3.4262478535E-01  4.0362577493E+00  1.1780897682E+00
                       4.0507737980E+00  0.0000000000E+00  1.1780897682E+00
                       6.2850530060E+00  6.8411743470E+00 -2.1610685981E+01
                       1.1312450193E+00  1.2313411516E+00 -3.8897016231E+00
             xred      6.4885100000E-01  6.4885100000E-01  2.2204460493E-16
                       3.5114900000E-01  3.5114900000E-01  5.5511151231E-17
                       0.0000000000E+00  0.0000000000E+00  0.0000000000E+00
                       0.0000000000E+00  5.0000000000E-01  5.0000000000E-01
                       5.0000000000E-01  0.0000000000E+00  5.0000000000E-01
                       8.4746500000E-01  8.4746500000E-01  2.2204460493E-16
                       1.5253500000E-01  1.5253500000E-01  5.5511151231E-17
            znucl       55.00000   20.00000    9.00000

- Timing analysis has been suppressed with timopt=0

 Suggested references for the acknowledgment of ABINIT usage.

 Calculation completed.
.Delivered  14 WARNINGs and   9 COMMENTs to log file.