.Version 9.5.1 of ABINIT

 ABINIT is a project of the Universite Catholique de Louvain,
 Corning Inc. and other collaborators, see ~abinit/doc/developers/contributors.txt .
 acknowledgments of the ABINIT effort.

.Starting date : Tue 11 May 2021.
- ( at 21h49 )

- input  file    -> /scratch/users/j/a/jabreu/flow_simple_8atoms/flow/w354/t1/run.abi
- output file    -> /scratch/users/j/a/jabreu/flow_simple_8atoms/flow/w354/t1/run.abo
- root for input  files -> /scratch/users/j/a/jabreu/flow_simple_8atoms/flow/w354/t1/indata/in
- root for output files -> /scratch/users/j/a/jabreu/flow_simple_8atoms/flow/w354/t1/outdata/out

 Symmetries : space group I-4 2 d (#122); Bravais tI (body-center tetrag.)
     intxc =       0      iscf =       7    lmnmax =      18     lnmax =       6
     mgfft =      90  mpssoang =       3    mqgrid =    3114     natom =       8
  nloc_mem =       1    nspden =       1   nspinor =       1    nsppol =       1
      nsym =       8    n1xccc =    2501    ntypat =       3    occopt =       1
   xclevel =       2
-    mband =          63        mffmem =           1         mkmem =           1
-   mkqmem =           1        mk1mem =           1           mpw =       21761
      nfft =      729000          nkpt =           1
  Rough estimation (10% accuracy) of disk space for files :

------------- Echo of variables that govern the present computation ------------
-
- outvars: echo of selected default values
-   iomode0 =  0 , fftalg0 =512 , wfoptalg0 =  0
-
- outvars: echo of global parameters not present in the input file
-  max_nthreads =    0
-
 -outvars: echo values of preprocessed input variables --------
            acell      1.0000000000E+00  1.0000000000E+00  1.0000000000E+00 Bohr
              amu      2.69815390E+01  1.07868200E+02  1.27600000E+02
             ecut      4.30000000E+01 Hartree
-          fftalg         512
           irdden           1
           irdwfk           1
           istwfk        1
              ixc     -116133
           kptopt           0
P           mkmem           1
P          mkqmem           1
P          mk1mem           1
            natom           8
            nband          63
           nbdbuf           4
            ngfft          90      90      90
             nkpt           1
            nstep        2000
             nsym           8
           ntypat           3
              occ      2.000000  2.000000  2.000000  2.000000  2.000000  2.000000
                       2.000000  2.000000  2.000000  2.000000  2.000000  2.000000
                       2.000000  2.000000  2.000000  2.000000  2.000000  2.000000
                       2.000000  2.000000  2.000000  2.000000  2.000000  2.000000
                       2.000000  2.000000  2.000000  2.000000  2.000000  2.000000
                       2.000000  2.000000  2.000000  2.000000  2.000000  2.000000
                       2.000000  2.000000  2.000000  2.000000  2.000000  2.000000
                       2.000000  2.000000  2.000000  2.000000  2.000000  2.000000
                       2.000000  2.000000  2.000000  2.000000  2.000000  2.000000
                       0.000000  0.000000  0.000000  0.000000  0.000000  0.000000
                       0.000000  0.000000  0.000000
        optdriver           1
            prtwf          -1
            rfdir           1       1       1
           rfelfd           2
            rprim      1.0792570397E+01  0.0000000000E+00 -9.2247555072E+00
                      -2.2914401205E+00  1.0546510226E+01 -9.2247555072E+00
                       0.0000000000E+00  0.0000000000E+00  1.4197735381E+01
          spgroup         122
           symrel      1  0  0   0  1  0   0  0  1       0  0  1  -1 -1 -1   1  0  0
                       0  1  0   1  0  0  -1 -1 -1      -1 -1 -1   0  0  1   0  1  0
                       0  1  0   1  0  0   0  0  1       0  0  1  -1 -1 -1   0  1  0
                       1  0  0   0  1  0  -1 -1 -1      -1 -1 -1   0  0  1   1  0  0
            tnons      0.0000000  0.0000000  0.0000000    -0.2500000  0.2500000  0.5000000
                      -0.0000000 -0.0000000 -0.0000000    -0.2500000  0.2500000  0.5000000
                      -0.2500000  0.2500000  0.5000000    -0.0000000  0.0000000 -0.0000000
                      -0.2500000  0.2500000  0.5000000     0.0000000 -0.0000000 -0.0000000
           tolwfr      1.00000000E-20
            typat      1  1  2  2  3  3  3  3
           useylm           1
           xangst      2.2493021948E+00  2.7904864209E+00 -4.8815303692E+00
                       5.1836215411E-01  4.1857296314E+00 -1.1249713806E+00
                       0.0000000000E+00  0.0000000000E+00  0.0000000000E+00
                       3.9802422356E+00  1.3952432105E+00 -1.1249713806E+00
                       2.7203916067E+00  3.4881080262E+00 -2.3873935850E+00
                       1.1000586346E+00  4.7941951955E+00  1.3691654036E+00
                       4.5231968525E+00  2.1820208568E+00 -6.0598733495E+00
                       6.5356168557E-01  6.9762160523E-01  2.5782160083E+00
            xcart      4.2505651383E+00  5.2732551131E+00 -9.2247555072E+00
                       9.7956250893E-01  7.9098826696E+00 -2.1258878167E+00
                       0.0000000000E+00  0.0000000000E+00  0.0000000000E+00
                       7.5215677678E+00  2.6366275565E+00 -2.1258878167E+00
                       5.1407951108E+00  6.5915688914E+00 -4.5115200470E+00
                       2.0788095494E+00  9.0597159471E+00  2.5873476434E+00
                       8.5476032964E+00  4.1234218357E+00 -1.1451501031E+01
                       1.2350525967E+00  1.3183137783E+00  4.8721221671E+00
             xred      5.0000000000E-01  5.0000000000E-01 -5.5511151231E-17
                       2.5000000000E-01  7.5000000000E-01  5.0000000000E-01
                       0.0000000000E+00  0.0000000000E+00  0.0000000000E+00
                       7.5000000000E-01  2.5000000000E-01  5.0000000000E-01
                       6.0902500000E-01  6.2500000000E-01  4.8402500000E-01
                       3.7500000000E-01  8.5902500000E-01  9.8402500000E-01
                       8.7500000000E-01  3.9097500000E-01  1.5975000000E-02
                       1.4097500000E-01  1.2500000000E-01  5.1597500000E-01
            znucl       13.00000   47.00000   52.00000

 chkinp: Checking input parameters for consistency.

== DATASET  1 ==================================================================
-   mpi_nproc: 1, omp_nthreads: -1 (-1 if OMP is not activated)

--- !DatasetInfo
iteration_state: {dtset: 1, }
dimensions: {natom: 8, nkpt: 1, mband: 63, nsppol: 1, nspinor: 1, nspden: 1, mpw: 21761, }
cutoff_energies: {ecut:  43.0, pawecutdg:  -1.0, }
electrons: {nelect:   1.08000000E+02, charge:   0.00000000E+00, occopt:   1.00000000E+00, tsmear:   1.00000000E-02, }
meta: {optdriver: 1, rfelfd: 2, }
...

 Real(R)+Recip(G) space primitive vectors, cartesian coordinates (Bohr,Bohr^-1):
 R(1)= 10.7925704  0.0000000 -9.2247555  G(1)=  0.0926563  0.0201314  0.0000000
 R(2)= -2.2914401 10.5465102 -9.2247555  G(2)=  0.0000000  0.0948181  0.0000000
 R(3)=  0.0000000  0.0000000 14.1977354  G(3)=  0.0602020  0.0746867  0.0704338
 Unit cell volume ucvol=  1.6160424E+03 bohr^3
 Angles (23,13,12)=  1.30521571E+02  1.30521571E+02  7.25743125E+01 degrees

 getcut: wavevector=  0.0000  0.0000  0.0000  ngfft=  90  90  90
         ecut(hartree)=     43.000   => boxcut(ratio)=   2.14759

--- Pseudopotential description ------------------------------------------------
- pspini: atom type   1  psp file is /scratch/users/j/a/jabreu/pseudos/PBEsol/Al.psp8
- pspatm: opening atomic psp file    /scratch/users/j/a/jabreu/pseudos/PBEsol/Al.psp8
- Al    ONCVPSP-3.3.0  r_core=   1.76802   1.76802   1.70587
- 13.00000   3.00000    180112                znucl, zion, pspdat
    8 -116133    2    4       600   0.00000   pspcod,pspxc,lmax,lloc,mmax,r2well
    5.99000000000000    5.00000000000000    0.00000000000000   rchrg,fchrg,qchrg
     nproj     2     2     2
     extension_switch     1
  pspatm : epsatm=    0.68509324
         --- l  ekb(1:nproj) -->
             0    5.834965    0.726662
             1    6.225605    0.924840
             2   -2.432733   -0.548689
 pspatm: atomic psp has been read  and splines computed

- pspini: atom type   2  psp file is /scratch/users/j/a/jabreu/pseudos/PBEsol/Ag.psp8
- pspatm: opening atomic psp file    /scratch/users/j/a/jabreu/pseudos/PBEsol/Ag.psp8
- Ag    ONCVPSP-3.3.0  r_core=   1.41384   1.46535   1.61207
- 47.00000  19.00000    180112                znucl, zion, pspdat
    8 -116133    2    4       600   0.00000   pspcod,pspxc,lmax,lloc,mmax,r2well
    5.99000000000000    7.00000000000000    0.00000000000000   rchrg,fchrg,qchrg
     nproj     2     2     2
     extension_switch     1
  pspatm : epsatm=   27.64581383
         --- l  ekb(1:nproj) -->
             0    9.559407   -0.398585
             1    3.418858   -0.136622
             2   -1.644397   -0.401551
 pspatm: atomic psp has been read  and splines computed

- pspini: atom type   3  psp file is /scratch/users/j/a/jabreu/pseudos/PBEsol/Te.psp8
- pspatm: opening atomic psp file    /scratch/users/j/a/jabreu/pseudos/PBEsol/Te.psp8
- Te    ONCVPSP-3.3.0  r_core=   2.26547   1.91704   1.80604
- 52.00000  16.00000    180112                znucl, zion, pspdat
    8 -116133    2    4       600   0.00000   pspcod,pspxc,lmax,lloc,mmax,r2well
    5.99000000000000    5.00000000000000    0.00000000000000   rchrg,fchrg,qchrg
     nproj     2     2     2
     extension_switch     1
  pspatm : epsatm=   36.82679836
         --- l  ekb(1:nproj) -->
             0    6.345999    0.785432
             1    5.709019    1.070069
             2   -6.035173   -1.870937
 pspatm: atomic psp has been read  and splines computed

   2.20286528E+04                                ecore*ucvol(ha*bohr**3)

-inwffil : will read wavefunctions from disk file /scratch/users/j/a/jabreu/flow_simple_8atoms/flow/w354/t1/indata/in_WFK

 ==>  initialize data related to q vector <==

 The list of irreducible perturbations for this q vector is:
    1)    idir= 1    ipert=   9
    2)    idir= 2    ipert=   9
    3)    idir= 3    ipert=   9

 Perturbation wavevector (in red.coord.)   0.000000  0.000000  0.000000
 Perturbation : derivative vs k along direction   1

 dfpt_looppert : COMMENT -
  In a d/dk calculation, iscf is set to -3 automatically.
 The set of symmetries contains only one element for this perturbation.
 symkpt : not enough symmetry to change the number of k points.

[...]

 Initialisation of the first-order wave-functions :
  ireadwf=   0

--- !BeginCycle
iteration_state: {dtset: 1, }
solver: {iscf: 7, nstep: 2000, nline: 4, wfoptalg: 0, }
tolerances: {tolwfr: 1.00E-20, }
...

     iter   2DEtotal(Ha)        deltaE(Ha) residm    vres2
-ETOT  1  -76.300223761930     -7.630E+01 4.500E-02 0.000E+00
 ETOT  2  -76.375053872048     -7.483E-02 7.940E-03 0.000E+00
 ETOT  3  -76.375552766255     -4.989E-04 3.633E-04 0.000E+00
 ETOT  4  -76.375561855281     -9.089E-06 9.373E-05 0.000E+00
 ETOT  5  -76.375562065672     -2.104E-07 5.760E-06 0.000E+00
[...]
 ETOT 12  -76.375562071689      0.000E+00 1.855E-11 0.000E+00
 ETOT 13  -76.375562071689      0.000E+00 1.071E-12 0.000E+00
 ETOT 14  -76.375562071689     -1.421E-14 4.088E-13 0.000E+00
 ETOT 15  -76.375562071689      0.000E+00 2.300E-14 0.000E+00
 ETOT 16  -76.375562071689      1.421E-14 9.083E-15 0.000E+00
 ETOT 17  -76.375562071689     -4.263E-14 5.012E-16 0.000E+00
 ETOT 18  -76.375562071689      4.263E-14 2.032E-16 0.000E+00
 ETOT 19  -76.375562071689     -1.421E-14 1.106E-17 0.000E+00
 ETOT 20  -76.375562071689      0.000E+00 4.573E-18 0.000E+00
 ETOT 21  -76.375562071689     -1.421E-14 2.464E-19 0.000E+00
 ETOT 22  -76.375562071689      0.000E+00 1.033E-19 0.000E+00
 ETOT 23  -76.375562071689      0.000E+00 9.952E-21 0.000E+00

 At SCF step   23   max residual=  9.95E-21 < tolwfr=  1.00E-20 =>converged.

 ----iterations are completed or convergence reached----

 dfpt_looppert: DFPT cycle converged with prtwf=-1. Will skip output of the 1st-order WFK file.
 dfpt_looppert : ek2=    7.6664786695E+01
          f-sum rule ratio=    1.1707307414E+00
 prteigrs : about to open file /scratch/users/j/a/jabreu/flow_simple_8atoms/flow/w354/t1/tmpdata/tmp_1WF1_EIG
 Expectation of eigenvalue derivatives (hartree) for nkpt=   1  k points:
  (in case of degenerate eigenvalues, averaged derivative)
 kpt#   1, nband= 63, wtk=  1.00000, kpt=  0.0000  0.0000  0.0000 (reduced coord)
   0.00000    0.00000    0.00000   -0.00000   -0.00000   -0.00000   -0.00000   -0.00000
   0.00000    0.00000    0.00000   -0.00000   -0.00000    0.00000    0.00000    0.00000
   0.00000    0.00000    0.00000    0.00000   -0.00000   -0.00000   -0.00000   -0.00000
  -0.00000    0.00000   -0.00000   -0.00000    0.00000    0.00000    0.00000   -0.00000
   0.00000   -0.00000   -0.00000   -0.00000    0.00000    0.00000    0.00000   -0.00000
   0.00000    0.00000   -0.00000   -0.00000   -0.00000   -0.00000    0.00000   -0.00000
   0.00000    0.00000    0.00000    0.00000    0.00000    0.00000    0.00000    0.00000
   0.00000   -0.00000   -0.00000   -0.00000   -0.00000    0.00000   -0.00022

 Eight components of 2nd-order total energy (hartree) are
 1,2,3: 0th-order hamiltonian combined with 1st-order wavefunctions
     kin0=   8.53827877E+01 eigvalue=   1.08000905E+01  local=  -4.47587120E+01
 4,5,6: 1st-order hamiltonian combined with 1st and 0th-order wfs
     kin1=  -8.97538226E+01  Hartree=   0.00000000E+00     xc=   0.00000000E+00
 7,8,9: eventually, occupation + non-local contributions
    edocc=   1.54822997E+01     enl0=   9.46909620E+00   enl1=  -6.29973016E+01
 1-9 gives the relaxation energy (to be shifted if some occ is /=2.0)
   erelax=  -7.63755621E+01
  No Ewald or frozen-wf contrib.: the relaxation energy is the total one
 2DEtotal=   -0.7637556207E+02 Ha. Also 2DEtotal=   -0.207828473706E+04 eV
    (  non-var. 2DEtotal :   -7.6375562072E+01 Ha)

 Perturbation wavevector (in red.coord.)   0.000000  0.000000  0.000000
 Perturbation : derivative vs k along direction   2
 The set of symmetries contains only one element for this perturbation.
 symkpt : not enough symmetry to change the number of k points.

[...]

 Perturbation wavevector (in red.coord.)   0.000000  0.000000  0.000000
 Perturbation : derivative vs k along direction   3
 The set of symmetries contains only one element for this perturbation.
 symkpt : not enough symmetry to change the number of k points.

-inwffil : will read wavefunctions from disk file /scratch/users/j/a/jabreu/flow_simple_8atoms/flow/w354/t1/indata/in_WFK

 Initialisation of the first-order wave-functions :
  ireadwf=   0

--- !BeginCycle
iteration_state: {dtset: 1, }
solver: {iscf: 7, nstep: 2000, nline: 4, wfoptalg: 0, }
tolerances: {tolwfr: 1.00E-20, }
...

     iter   2DEtotal(Ha)        deltaE(Ha) residm    vres2
-ETOT  1  -120.77390560514     -1.208E+02 1.572E-01 0.000E+00
 ETOT  2  -120.87901299148     -1.051E-01 7.481E-03 0.000E+00
 ETOT  3  -120.87956949319     -5.565E-04 1.081E-03 0.000E+00
 ETOT  4  -120.87957821574     -8.723E-06 7.003E-05 0.000E+00
 ETOT  5  -120.87957838404     -1.683E-07 1.907E-05 0.000E+00
 ETOT  6  -120.87957838779     -3.749E-09 1.397E-06 0.000E+00
 ETOT  7  -120.87957838788     -9.229E-11 3.955E-07 0.000E+00
 ETOT  8  -120.87957838788     -2.473E-12 2.807E-08 0.000E+00
 ETOT  9  -120.87957838788     -1.421E-13 8.240E-09 0.000E+00
 ETOT 10  -120.87957838788      1.421E-13 5.761E-10 0.000E+00
 ETOT 11  -120.87957838788      1.421E-14 1.725E-10 0.000E+00
 ETOT 12  -120.87957838788     -1.421E-14 1.200E-11 0.000E+00
 ETOT 13  -120.87957838788     -2.842E-14 3.633E-12 0.000E+00
 ETOT 14  -120.87957838788     -1.421E-14 2.502E-13 0.000E+00
 ETOT 15  -120.87957838788     -1.421E-14 7.770E-14 0.000E+00
 ETOT 16  -120.87957838788      0.000E+00 5.295E-15 0.000E+00
 ETOT 17  -120.87957838788      0.000E+00 1.699E-15 0.000E+00
 ETOT 18  -120.87957838788      2.842E-14 1.153E-16 0.000E+00
 ETOT 19  -120.87957838788      0.000E+00 3.775E-17 0.000E+00
 ETOT 20  -120.87957838788     -2.842E-14 2.560E-18 0.000E+00
 ETOT 21  -120.87957838788      2.842E-14 8.462E-19 0.000E+00
 ETOT 22  -120.87957838788      1.421E-14 5.737E-20 0.000E+00
 ETOT 23  -120.87957838788     -2.842E-14 1.907E-20 0.000E+00
 ETOT 24  -120.87957838788     -1.421E-14 9.996E-21 0.000E+00

 At SCF step   24   max residual=  1.00E-20 < tolwfr=  1.00E-20 =>converged.

 ----iterations are completed or convergence reached----

 dfpt_looppert: DFPT cycle converged with prtwf=-1. Will skip output of the 1st-order WFK file.
 dfpt_looppert : ek2=    1.2077518427E+02
          f-sum rule ratio=    1.1801270060E+00
 prteigrs : about to open file /scratch/users/j/a/jabreu/flow_simple_8atoms/flow/w354/t1/tmpdata/tmp_1WF1_EIG
 Expectation of eigenvalue derivatives (hartree) for nkpt=   1  k points:
  (in case of degenerate eigenvalues, averaged derivative)
 kpt#   1, nband= 63, wtk=  1.00000, kpt=  0.0000  0.0000  0.0000 (reduced coord)
   0.00000    0.00000   -0.00000   -0.00000   -0.00000   -0.00000    0.00000    0.00000
   0.00000    0.00000    0.00000   -0.00000   -0.00000   -0.00000    0.00000    0.00000
  -0.00000   -0.00000   -0.00000   -0.00000   -0.00000   -0.00000   -0.00000   -0.00000
  -0.00000   -0.00000    0.00000    0.00000    0.00000    0.00000    0.00000    0.00000
   0.00000    0.00000   -0.00000    0.00000    0.00000    0.00000    0.00000   -0.00000
  -0.00000   -0.00000   -0.00000   -0.00000    0.00000    0.00000    0.00000   -0.00000
   0.00000   -0.00000   -0.00000    0.00000    0.00000    0.00000   -0.00000   -0.00000
  -0.00000   -0.00000   -0.00000   -0.00000   -0.00000    0.00000    0.00011

 Eight components of 2nd-order total energy (hartree) are
 1,2,3: 0th-order hamiltonian combined with 1st-order wavefunctions
     kin0=   1.34033486E+02 eigvalue=   1.69727940E+01  local=  -7.01211970E+01
 4,5,6: 1st-order hamiltonian combined with 1st and 0th-order wfs
     kin1=  -1.42530057E+02  Hartree=   0.00000000E+00     xc=   0.00000000E+00
 7,8,9: eventually, occupation + non-local contributions
    edocc=   2.51854226E+01     enl0=   1.48090723E+01   enl1=  -9.92291002E+01
 1-9 gives the relaxation energy (to be shifted if some occ is /=2.0)
   erelax=  -1.20879578E+02
  No Ewald or frozen-wf contrib.: the relaxation energy is the total one
 2DEtotal=   -0.1208795784E+03 Ha. Also 2DEtotal=   -0.328930060835E+04 eV
    (  non-var. 2DEtotal :   -1.2087957839E+02 Ha)

 CALCULATION OF EFFECTIVE MASSES
 NOTE : Additional infos (eff. mass eigenvalues, eigenvectors and, if degenerate, average mass) are available in stdout.

 K-point ( 0.000, 0.000, 0.000) | band =    54
 Effective mass tensor:
             -0.4900050753              0.0767795291             -0.1343171831
              0.0767795291             -0.4566418934             -0.1666341573
             -0.1343171831             -0.1666341573             -0.2603963489
 Effective mass tensor eigenvalues:
             -0.5518978605             -0.5518942680             -0.1032511893
 Angular average effective mass 1/(<1/m>)=  -0.2254115585
 Angular average effective mass for Frohlich model (<m**0.5>)**2=  -0.2785121007
 Effective masses along directions: (cart. coord. / red. coord. -> eff. mass)
    1:   1.000000  0.000000  0.000000 /   0.978195 -0.207687  0.000000 ->  -0.3450612218
    2:   0.000000  1.000000  0.000000 /   0.000000  1.000000  0.000000 ->  -0.2870646564
    3:   0.000000  0.000000  1.000000 /  -0.478431 -0.478431  0.736348 ->  -0.1443539493
    4:   0.577350  0.577350  0.577350 /   0.109508 -0.067730  0.991676 ->  -0.5513524758
    5:   0.000000  0.707107  0.707107 /  -0.543179  0.077829  0.836002 ->  -0.4383549497
    6:   0.707107  0.000000  0.707107 /   0.085448 -0.627647  0.773794 ->  -0.3912935801
    7:   0.707107  0.707107  0.000000 /   0.794289  0.607540  0.000000 ->  -0.2203519197

 K-point ( 0.000, 0.000, 0.000) | band =    55
 Effective mass tensor:
              0.1031350208             -0.0019668037              0.0034406070
             -0.0019668037              0.1022803612              0.0042684150
              0.0034406070              0.0042684150              0.0972534276
 Effective mass tensor eigenvalues:
              0.0932280629              0.1047203633              0.1047203834
 Angular average effective mass 1/(<1/m>)=   0.1005872134
 Angular average effective mass for Frohlich model (<m**0.5>)**2=   0.1006796582
 Effective masses along directions: (cart. coord. / red. coord. -> eff. mass)
    1:   1.000000  0.000000  0.000000 /   0.978195 -0.207687  0.000000 ->   0.1029693682
    2:   0.000000  1.000000  0.000000 /   0.000000  1.000000  0.000000 ->   0.1020494829
    3:   0.000000  0.000000  1.000000 /  -0.478431 -0.478431  0.736348 ->   0.0969549307
    4:   0.577350  0.577350  0.577350 /   0.109508 -0.067730  0.991676 ->   0.1047174263
    5:   0.000000  0.707107  0.707107 /  -0.543179  0.077829  0.836002 ->   0.1039564752
    6:   0.707107  0.000000  0.707107 /   0.085448 -0.627647  0.773794 ->   0.1035150500
    7:   0.707107  0.707107  0.000000 /   0.794289  0.607540  0.000000 ->   0.1004333276

 END OF EFFECTIVE MASSES SECTION

 ---- first-order wavefunction calculations are completed ----

 Total localisation tensor (bohr^2) in cartesian coordinates
  WARNING : still subject to testing - especially symmetries.
      direction              matrix element
   alpha     beta       real part   imaginary part
     1        1       3.1712727147    0.0000000000
     1        2      -0.6295801203    0.0000000000
     1        3      -2.0429933186    0.0000000000
     2        1      -0.6295801203    0.0000000000
     2        2       2.8976856595    0.0000000000
     2        3      -2.5345295432    0.0000000000
     3        1      -2.0429933186    0.0000000000
     3        2      -2.5345295432    0.0000000000
     3        3      12.5678948562    0.0000000000

 respfn : d/dk was computed, but no 2DTE, so no DDB output.

== END DATASET(S) ==============================================================

 -outvars: echo values of variables after computation  --------
            acell      1.0000000000E+00  1.0000000000E+00  1.0000000000E+00 Bohr
              amu      2.69815390E+01  1.07868200E+02  1.27600000E+02
             ecut      4.30000000E+01 Hartree
           etotal     -1.2087957839E+02
            fcart      0.0000000000E+00  0.0000000000E+00  0.0000000000E+00
                       0.0000000000E+00  0.0000000000E+00  0.0000000000E+00
                       0.0000000000E+00  0.0000000000E+00  0.0000000000E+00
                       0.0000000000E+00  0.0000000000E+00  0.0000000000E+00
                       0.0000000000E+00  0.0000000000E+00  0.0000000000E+00
                       0.0000000000E+00  0.0000000000E+00  0.0000000000E+00
                       0.0000000000E+00  0.0000000000E+00  0.0000000000E+00
                       0.0000000000E+00  0.0000000000E+00  0.0000000000E+00
-          fftalg         512
           irdden           1
           irdwfk           1
           istwfk        1
              ixc     -116133
           kptopt           0
P           mkmem           1
P          mkqmem           1
P          mk1mem           1
            natom           8
            nband          63
           nbdbuf           4
            ngfft          90      90      90
             nkpt           1
            nstep        2000
             nsym           8
           ntypat           3
              occ      2.000000  2.000000  2.000000  2.000000  2.000000  2.000000
                       2.000000  2.000000  2.000000  2.000000  2.000000  2.000000
                       2.000000  2.000000  2.000000  2.000000  2.000000  2.000000
                       2.000000  2.000000  2.000000  2.000000  2.000000  2.000000
                       2.000000  2.000000  2.000000  2.000000  2.000000  2.000000
                       2.000000  2.000000  2.000000  2.000000  2.000000  2.000000
                       2.000000  2.000000  2.000000  2.000000  2.000000  2.000000
                       2.000000  2.000000  2.000000  2.000000  2.000000  2.000000
                       2.000000  2.000000  2.000000  2.000000  2.000000  2.000000
                       0.000000  0.000000  0.000000  0.000000  0.000000  0.000000
                       0.000000  0.000000  0.000000
        optdriver           1
            prtwf          -1
            rfdir           1       1       1
           rfelfd           2
            rprim      1.0792570397E+01  0.0000000000E+00 -9.2247555072E+00
                      -2.2914401205E+00  1.0546510226E+01 -9.2247555072E+00
                       0.0000000000E+00  0.0000000000E+00  1.4197735381E+01
          spgroup         122
           strten      0.0000000000E+00  0.0000000000E+00  0.0000000000E+00
                       0.0000000000E+00  0.0000000000E+00  0.0000000000E+00
           symrel      1  0  0   0  1  0   0  0  1       0  0  1  -1 -1 -1   1  0  0
                       0  1  0   1  0  0  -1 -1 -1      -1 -1 -1   0  0  1   0  1  0
                       0  1  0   1  0  0   0  0  1       0  0  1  -1 -1 -1   0  1  0
                       1  0  0   0  1  0  -1 -1 -1      -1 -1 -1   0  0  1   1  0  0
            tnons      0.0000000  0.0000000  0.0000000    -0.2500000  0.2500000  0.5000000
                      -0.0000000 -0.0000000 -0.0000000    -0.2500000  0.2500000  0.5000000
                      -0.2500000  0.2500000  0.5000000    -0.0000000  0.0000000 -0.0000000
                      -0.2500000  0.2500000  0.5000000     0.0000000 -0.0000000 -0.0000000
           tolwfr      1.00000000E-20
            typat      1  1  2  2  3  3  3  3
           useylm           1
           xangst      2.2493021948E+00  2.7904864209E+00 -4.8815303692E+00
                       5.1836215411E-01  4.1857296314E+00 -1.1249713806E+00
                       0.0000000000E+00  0.0000000000E+00  0.0000000000E+00
                       3.9802422356E+00  1.3952432105E+00 -1.1249713806E+00
                       2.7203916067E+00  3.4881080262E+00 -2.3873935850E+00
                       1.1000586346E+00  4.7941951955E+00  1.3691654036E+00
                       4.5231968525E+00  2.1820208568E+00 -6.0598733495E+00
                       6.5356168557E-01  6.9762160523E-01  2.5782160083E+00
            xcart      4.2505651383E+00  5.2732551131E+00 -9.2247555072E+00
                       9.7956250893E-01  7.9098826696E+00 -2.1258878167E+00
                       0.0000000000E+00  0.0000000000E+00  0.0000000000E+00
                       7.5215677678E+00  2.6366275565E+00 -2.1258878167E+00
                       5.1407951108E+00  6.5915688914E+00 -4.5115200470E+00
                       2.0788095494E+00  9.0597159471E+00  2.5873476434E+00
                       8.5476032964E+00  4.1234218357E+00 -1.1451501031E+01
                       1.2350525967E+00  1.3183137783E+00  4.8721221671E+00
             xred      5.0000000000E-01  5.0000000000E-01 -5.5511151231E-17
                       2.5000000000E-01  7.5000000000E-01  5.0000000000E-01
                       0.0000000000E+00  0.0000000000E+00  0.0000000000E+00
                       7.5000000000E-01  2.5000000000E-01  5.0000000000E-01
                       6.0902500000E-01  6.2500000000E-01  4.8402500000E-01
                       3.7500000000E-01  8.5902500000E-01  9.8402500000E-01
                       8.7500000000E-01  3.9097500000E-01  1.5975000000E-02
                       1.4097500000E-01  1.2500000000E-01  5.1597500000E-01
            znucl       13.00000   47.00000   52.00000

- Timing analysis has been suppressed with timopt=0

 Suggested references for the acknowledgment of ABINIT usage.

 Calculation completed.
.Delivered   6 WARNINGs and   5 COMMENTs to log file.