.Version 9.5.1 of ABINIT

 ABINIT is a project of the Universite Catholique de Louvain,
 Corning Inc. and other collaborators, see ~abinit/doc/developers/contributors.txt .
 acknowledgments of the ABINIT effort.

.Starting date : Sun 25 Apr 2021.
- ( at 17h12 )

- input  file    -> /scratch/users/j/a/jabreu/flow_simple2/flow/w131/t1/run.abi
- output file    -> /scratch/users/j/a/jabreu/flow_simple2/flow/w131/t1/run.abo
- root for input  files -> /scratch/users/j/a/jabreu/flow_simple2/flow/w131/t1/indata/in
- root for output files -> /scratch/users/j/a/jabreu/flow_simple2/flow/w131/t1/outdata/out

 Symmetries : space group Fm -3 m (#225); Bravais cF (face-center cubic)
     intxc =       0      iscf =       7    lmnmax =      18     lnmax =       6
     mgfft =      54  mpssoang =       3    mqgrid =    3001     natom =       2
  nloc_mem =       1    nspden =       1   nspinor =       1    nsppol =       1
      nsym =      48    n1xccc =    2501    ntypat =       2    occopt =       1
   xclevel =       2
-    mband =          22        mffmem =           1         mkmem =           2
-   mkqmem =           2        mk1mem =           2           mpw =        5961
      nfft =      157464          nkpt =           2
  Rough estimation (10% accuracy) of disk space for files :

------------- Echo of variables that govern the present computation ------------
-
- outvars: echo of selected default values
-   iomode0 =  0 , fftalg0 =512 , wfoptalg0 =  0
-
- outvars: echo of global parameters not present in the input file
-  max_nthreads =    0
-
 -outvars: echo values of preprocessed input variables --------
            acell      1.0000000000E+00  1.0000000000E+00  1.0000000000E+00 Bohr
              amu      8.76200000E+01  1.27600000E+02
             ecut      4.00000000E+01 Hartree
-          fftalg         512
           irdden           1
           irdwfk           1
           istwfk        1    1
              ixc     -116133
              kpt      0.00000000E+00  0.00000000E+00  0.00000000E+00
                       5.00000000E-01  0.00000000E+00  5.00000000E-01
           kptopt           0
P           mkmem           2
P          mkqmem           2
P          mk1mem           2
            natom           2
            nband          22
           nbdbuf           4
            ngfft          54      54      54
             nkpt           2
            nstep         100
             nsym          48
           ntypat           2
              occ      2.000000  2.000000  2.000000  2.000000  2.000000  2.000000
                       2.000000  2.000000  2.000000  2.000000  2.000000  2.000000
                       2.000000  0.000000  0.000000  0.000000  0.000000  0.000000
                       0.000000  0.000000  0.000000  0.000000
        optdriver           1
            prtwf          -1
            rfdir           1       1       1
           rfelfd           2
            rprim      7.6447513704E+00  0.0000000000E+00  4.4136992616E+00
                       2.5482504568E+00  7.2075407126E+00  4.4136992616E+00
                       0.0000000000E+00  0.0000000000E+00  8.8273985231E+00
          spgroup         225
           symrel      1  0  0   0  1  0   0  0  1      -1  0  0   0 -1  0   0  0 -1
                       0 -1  1   0 -1  0   1 -1  0       0  1 -1   0  1  0  -1  1  0
                      -1  0  0  -1  0  1  -1  1  0       1  0  0   1  0 -1   1 -1  0
                       0  1 -1   1  0 -1   0  0 -1       0 -1  1  -1  0  1   0  0  1
                      -1  0  0  -1  1  0  -1  0  1       1  0  0   1 -1  0   1  0 -1
                       0 -1  1   1 -1  0   0 -1  0       0  1 -1  -1  1  0   0  1  0
                       1  0  0   0  0  1   0  1  0      -1  0  0   0  0 -1   0 -1  0
                       0  1 -1   0  0 -1   1  0 -1       0 -1  1   0  0  1  -1  0  1
                      -1  0  1  -1  1  0  -1  0  0       1  0 -1   1 -1  0   1  0  0
                       0 -1  0   1 -1  0   0 -1  1       0  1  0  -1  1  0   0  1 -1
                       1  0 -1   0  0 -1   0  1 -1      -1  0  1   0  0  1   0 -1  1
                       0  1  0   0  0  1   1  0  0       0 -1  0   0  0 -1  -1  0  0
                       1  0 -1   0  1 -1   0  0 -1      -1  0  1   0 -1  1   0  0  1
                       0 -1  0   0 -1  1   1 -1  0       0  1  0   0  1 -1  -1  1  0
                      -1  0  1  -1  0  0  -1  1  0       1  0 -1   1  0  0   1 -1  0
                       0  1  0   1  0  0   0  0  1       0 -1  0  -1  0  0   0  0 -1
                       0  0 -1   0  1 -1   1  0 -1       0  0  1   0 -1  1  -1  0  1
                       1 -1  0   0 -1  1   0 -1  0      -1  1  0   0  1 -1   0  1  0
                       0  0  1   1  0  0   0  1  0       0  0 -1  -1  0  0   0 -1  0
                      -1  1  0  -1  0  0  -1  0  1       1 -1  0   1  0  0   1  0 -1
                       0  0  1   0  1  0   1  0  0       0  0 -1   0 -1  0  -1  0  0
                       1 -1  0   0 -1  0   0 -1  1      -1  1  0   0  1  0   0  1 -1
                       0  0 -1   1  0 -1   0  1 -1       0  0  1  -1  0  1   0 -1  1
                      -1  1  0  -1  0  1  -1  0  0       1 -1  0   1  0 -1   1  0  0
           tolwfr      1.00000000E-20
            typat      1  2
           useylm           1
              wtk        0.50000    0.50000
           xangst      0.0000000000E+00  0.0000000000E+00  0.0000000000E+00
                       2.6969521270E+00  1.9070331375E+00  4.6712581096E+00
            xcart      0.0000000000E+00  0.0000000000E+00  0.0000000000E+00
                       5.0965009136E+00  3.6037703563E+00  8.8273985231E+00
             xred      0.0000000000E+00  0.0000000000E+00  0.0000000000E+00
                       5.0000000000E-01  5.0000000000E-01  5.0000000000E-01
            znucl       38.00000   52.00000

 chkinp: Checking input parameters for consistency.

== DATASET  1 ==================================================================
-   mpi_nproc: 1, omp_nthreads: -1 (-1 if OMP is not activated)

--- !DatasetInfo
iteration_state: {dtset: 1, }
dimensions: {natom: 2, nkpt: 2, mband: 22, nsppol: 1, nspinor: 1, nspden: 1, mpw: 5961, }
cutoff_energies: {ecut:  40.0, pawecutdg:  -1.0, }
electrons: {nelect:   2.60000000E+01, charge:   0.00000000E+00, occopt:   1.00000000E+00, tsmear:   1.00000000E-02, }
meta: {optdriver: 1, rfelfd: 2, }
...

 Real(R)+Recip(G) space primitive vectors, cartesian coordinates (Bohr,Bohr^-1):
 R(1)=  7.6447514  0.0000000  4.4136993  G(1)=  0.1308087 -0.0462479  0.0000000
 R(2)=  2.5482505  7.2075407  4.4136993  G(2)=  0.0000000  0.1387436  0.0000000
 R(3)=  0.0000000  0.0000000  8.8273985  G(3)= -0.0654044 -0.0462479  0.1132837
 Unit cell volume ucvol=  4.8638839E+02 bohr^3
 Angles (23,13,12)=  6.00000000E+01  6.00000000E+01  6.00000000E+01 degrees

 getcut: wavevector=  0.0000  0.0000  0.0000  ngfft=  54  54  54
         ecut(hartree)=     40.000   => boxcut(ratio)=   2.14939

--- Pseudopotential description ------------------------------------------------
- pspini: atom type   1  psp file is /scratch/users/j/a/jabreu/pseudos/PBEsol/Sr.psp8
- pspatm: opening atomic psp file    /scratch/users/j/a/jabreu/pseudos/PBEsol/Sr.psp8
- Sr    ONCVPSP-3.3.0  r_core=   1.66721   1.31335   1.51547
- 38.00000  10.00000    180112                znucl, zion, pspdat
    8 -116133    2    4       600   0.00000   pspcod,pspxc,lmax,lloc,mmax,r2well
    5.99000000000000    6.00000000000000    0.00000000000000   rchrg,fchrg,qchrg
     nproj     2     2     2
     extension_switch     1
  pspatm : epsatm=   12.46450977
         --- l  ekb(1:nproj) -->
             0   10.029206    1.044171
             1    7.472414    1.670829
             2    4.142950    0.968140
 pspatm: atomic psp has been read  and splines computed

- pspini: atom type   2  psp file is /scratch/users/j/a/jabreu/pseudos/PBEsol/Te.psp8
- pspatm: opening atomic psp file    /scratch/users/j/a/jabreu/pseudos/PBEsol/Te.psp8
- Te    ONCVPSP-3.3.0  r_core=   2.26547   1.91704   1.80604
- 52.00000  16.00000    180112                znucl, zion, pspdat
    8 -116133    2    4       600   0.00000   pspcod,pspxc,lmax,lloc,mmax,r2well
    5.99000000000000    5.00000000000000    0.00000000000000   rchrg,fchrg,qchrg
     nproj     2     2     2
     extension_switch     1
  pspatm : epsatm=   36.82679836
         --- l  ekb(1:nproj) -->
             0    6.345999    0.785432
             1    5.709019    1.070069
             2   -6.035173   -1.870937
 pspatm: atomic psp has been read  and splines computed

   1.28157401E+03                                ecore*ucvol(ha*bohr**3)

-inwffil : will read wavefunctions from disk file /scratch/users/j/a/jabreu/flow_simple2/flow/w131/t1/indata/in_WFK

 ==>  initialize data related to q vector <==

 The list of irreducible perturbations for this q vector is:
    1)    idir= 1    ipert=   3
    2)    idir= 2    ipert=   3
    3)    idir= 3    ipert=   3

 Perturbation wavevector (in red.coord.)   0.000000  0.000000  0.000000
 Perturbation : derivative vs k along direction   1

 dfpt_looppert : COMMENT -
  In a d/dk calculation, iscf is set to -3 automatically.
 The set of symmetries contains only one element for this perturbation.
 symkpt : not enough symmetry to change the number of k points.

[...]

 Initialisation of the first-order wave-functions :
  ireadwf=   0

--- !BeginCycle
iteration_state: {dtset: 1, }
solver: {iscf: 7, nstep: 100, nline: 4, wfoptalg: 0, }
tolerances: {tolwfr: 1.00E-20, }
...

     iter   2DEtotal(Ha)        deltaE(Ha) residm    vres2
-ETOT  1  -44.949277696461     -4.495E+01 3.397E-02 0.000E+00
 ETOT  2  -44.961489418669     -1.221E-02 3.398E-05 0.000E+00
 ETOT  3  -44.961496857767     -7.439E-06 3.192E-08 0.000E+00
 ETOT  4  -44.961496864618     -6.851E-09 1.209E-10 0.000E+00
 ETOT  5  -44.961496864631     -1.381E-11 3.954E-12 0.000E+00
 ETOT  6  -44.961496864631     -1.421E-14 7.229E-14 0.000E+00
 ETOT  7  -44.961496864631      3.553E-14 2.433E-15 0.000E+00
 ETOT  8  -44.961496864631      1.421E-14 4.915E-17 0.000E+00
 ETOT  9  -44.961496864631     -7.105E-15 1.653E-18 0.000E+00
 ETOT 10  -44.961496864631      0.000E+00 3.501E-20 0.000E+00
 ETOT 11  -44.961496864631      7.105E-15 9.733E-21 0.000E+00

 At SCF step   11   max residual=  9.73E-21 < tolwfr=  1.00E-20 =>converged.

 ----iterations are completed or convergence reached----

 dfpt_looppert: DFPT cycle converged with prtwf=-1. Will skip output of the 1st-order WFK file.
 dfpt_looppert : ek2=    3.9517446308E+01
          f-sum rule ratio=    1.4279119808E+00
 prteigrs : about to open file /scratch/users/j/a/jabreu/flow_simple2/flow/w131/t1/tmpdata/tmp_1WF1_EIG
 Expectation of eigenvalue derivatives (hartree) for nkpt=   2  k points:
  (in case of degenerate eigenvalues, averaged derivative)
 kpt#   1, nband= 22, wtk=  0.50000, kpt=  0.0000  0.0000  0.0000 (reduced coord)
  -0.00000   -0.00000    0.00000    0.00000    0.00000   -0.00000    0.00000    0.00000
   0.00000   -0.00000   -0.00000   -0.00000   -0.00000    0.00000    0.00000    0.00000
   0.00000   -0.00000   -0.00000   -0.00000   -0.01008    0.00487
 prteigrs : prtvol=0 or 1, do not print more k-points.

 Eight components of 2nd-order total energy (hartree) are
 1,2,3: 0th-order hamiltonian combined with 1st-order wavefunctions
     kin0=   3.44932753E+01 eigvalue=   5.77615574E+00  local=  -1.82539382E+01
 4,5,6: 1st-order hamiltonian combined with 1st and 0th-order wfs
     kin1=  -5.64274350E+01  Hartree=   0.00000000E+00     xc=   0.00000000E+00
 7,8,9: eventually, occupation + non-local contributions
    edocc=   1.78540285E+01     enl0=   5.09197543E+00   enl1=  -3.34955587E+01
 1-9 gives the relaxation energy (to be shifted if some occ is /=2.0)
   erelax=  -4.49614969E+01
  No Ewald or frozen-wf contrib.: the relaxation energy is the total one
 2DEtotal=   -0.4496149686E+02 Ha. Also 2DEtotal=   -0.122346455010E+04 eV
    (  non-var. 2DEtotal :   -4.4961496865E+01 Ha)

 Perturbation wavevector (in red.coord.)   0.000000  0.000000  0.000000
 Perturbation : derivative vs k along direction   2
 The set of symmetries contains only one element for this perturbation.
 symkpt : not enough symmetry to change the number of k points.

[...]

 Perturbation wavevector (in red.coord.)   0.000000  0.000000  0.000000
 Perturbation : derivative vs k along direction   3
 The set of symmetries contains only one element for this perturbation.
 symkpt : not enough symmetry to change the number of k points.

-inwffil : will read wavefunctions from disk file /scratch/users/j/a/jabreu/flow_simple2/flow/w131/t1/indata/in_WFK

 Initialisation of the first-order wave-functions :
  ireadwf=   0

--- !BeginCycle
iteration_state: {dtset: 1, }
solver: {iscf: 7, nstep: 100, nline: 4, wfoptalg: 0, }
tolerances: {tolwfr: 1.00E-20, }
...

     iter   2DEtotal(Ha)        deltaE(Ha) residm    vres2
-ETOT  1  -44.948840355613     -4.495E+01 3.397E-02 0.000E+00
 ETOT  2  -44.961485977444     -1.265E-02 2.366E-05 0.000E+00
 ETOT  3  -44.961492573637     -6.596E-06 3.192E-08 0.000E+00
 ETOT  4  -44.961492580328     -6.690E-09 1.209E-10 0.000E+00
 ETOT  5  -44.961492580341     -1.345E-11 3.954E-12 0.000E+00
 ETOT  6  -44.961492580341     -4.974E-14 7.229E-14 0.000E+00
 ETOT  7  -44.961492580341      5.684E-14 2.433E-15 0.000E+00
 ETOT  8  -44.961492580341     -2.842E-14 4.915E-17 0.000E+00
 ETOT  9  -44.961492580341      2.132E-14 1.653E-18 0.000E+00
 ETOT 10  -44.961492580341     -7.105E-15 3.501E-20 0.000E+00
 ETOT 11  -44.961492580341      7.105E-15 9.703E-21 0.000E+00

 At SCF step   11   max residual=  9.70E-21 < tolwfr=  1.00E-20 =>converged.

 ----iterations are completed or convergence reached----

 dfpt_looppert: DFPT cycle converged with prtwf=-1. Will skip output of the 1st-order WFK file.
 dfpt_looppert : ek2=    3.9517446308E+01
          f-sum rule ratio=    1.4279116500E+00
 prteigrs : about to open file /scratch/users/j/a/jabreu/flow_simple2/flow/w131/t1/tmpdata/tmp_1WF1_EIG
 Expectation of eigenvalue derivatives (hartree) for nkpt=   2  k points:
  (in case of degenerate eigenvalues, averaged derivative)
 kpt#   1, nband= 22, wtk=  0.50000, kpt=  0.0000  0.0000  0.0000 (reduced coord)
   0.00000    0.00000   -0.00000   -0.00000   -0.00000    0.00000    0.00000    0.00000
   0.00000    0.00000   -0.00000   -0.00000   -0.00000    0.00000   -0.00000   -0.00000
  -0.00000   -0.00000   -0.00000    0.00000    0.00147    0.00472
 prteigrs : prtvol=0 or 1, do not print more k-points.

 Eight components of 2nd-order total energy (hartree) are
 1,2,3: 0th-order hamiltonian combined with 1st-order wavefunctions
     kin0=   3.44951870E+01 eigvalue=   5.77721602E+00  local=  -1.82576129E+01
 4,5,6: 1st-order hamiltonian combined with 1st and 0th-order wfs
     kin1=  -5.64274220E+01  Hartree=   0.00000000E+00     xc=   0.00000000E+00
 7,8,9: eventually, occupation + non-local contributions
    edocc=   1.78524380E+01     enl0=   5.09426452E+00   enl1=  -3.34955632E+01
 1-9 gives the relaxation energy (to be shifted if some occ is /=2.0)
   erelax=  -4.49614926E+01
  No Ewald or frozen-wf contrib.: the relaxation energy is the total one
 2DEtotal=   -0.4496149258E+02 Ha. Also 2DEtotal=   -0.122346443352E+04 eV
    (  non-var. 2DEtotal :   -4.4961492580E+01 Ha)

 CALCULATION OF EFFECTIVE MASSES
 NOTE : Additional infos (eff. mass eigenvalues, eigenvectors and, if degenerate, average mass) are available in stdout.

 COMMENTS:
 - At k-point ( 0.000, 0.000, 0.000), bands    11 through    13
   are DEGENERATE (effective mass tensor is therefore not defined).
   See Section IIIB Eqs. (67)-(70) and Appendix E of PRB 93 205147 (2016).
 - Angular average effective mass for Frohlich model is to be averaged over degenerate bands. See later.
 - Associated theta integrals calculated with ntheta=   1000 points.

 K-point ( 0.000, 0.000, 0.000) | band =    11
 Transport equivalent effective mass tensor:
             -0.1622021103              0.0000001372              0.0000000460
              0.0000001372             -0.1622021676              0.0000000315
              0.0000000460              0.0000000315             -0.1622023716
 Transport equivalent effective mass tensor eigenvalues:
             -0.1622023799             -0.1622022789             -0.1622019907
 Angular average effective mass 1/(<1/m>)=  -0.1586745104
 Angular average effective mass for Frohlich model (<m**0.5>)**2=  -0.1589189307
 Effective masses along directions: (cart. coord. / red. coord. -> eff. mass)
    1:   1.000000  0.000000  0.000000 /   0.948683  0.316228  0.000000 ->  -0.1625459475
    2:   0.000000  1.000000  0.000000 /   0.000000  1.000000  0.000000 ->  -0.1709604053
    3:   0.000000  0.000000  1.000000 /   0.408248  0.408248  0.816497 ->  -0.1634185832
    4:   0.577350  0.577350  0.577350 /   0.585539  0.688047  0.428644 ->  -0.1629563523
    5:   0.000000  0.707107  0.707107 /   0.289489  0.762222  0.578977 ->  -0.1540526622
    6:   0.707107  0.000000  0.707107 /   0.731423  0.422287  0.535439 ->  -0.1629776143
    7:   0.707107  0.707107  0.000000 /   0.616798  0.787122  0.000000 ->  -0.1459760993

[...]

 K-point ( 0.000, 0.000, 0.000) | band =    13
 Transport equivalent effective mass tensor:
             -0.8966125730             -0.0000029368             -0.0000012025
             -0.0000029368             -0.8966095162             -0.0000008348
             -0.0000012025             -0.0000008348             -0.8966096481
 Transport equivalent effective mass tensor eigenvalues:
             -0.8966147720             -0.8966092364             -0.8966077288
 Angular average effective mass 1/(<1/m>)=  -0.7718133898
 Angular average effective mass for Frohlich model (<m**0.5>)**2=  -0.7771659918
 Effective masses along directions: (cart. coord. / red. coord. -> eff. mass)
    1:   1.000000  0.000000  0.000000 /   0.948683  0.316228  0.000000 ->  -0.6939375099
    2:   0.000000  1.000000  0.000000 /   0.000000  1.000000  0.000000 ->  -0.5844482899
    3:   0.000000  0.000000  1.000000 /   0.408248  0.408248  0.816497 ->  -0.8539109273
    4:   0.577350  0.577350  0.577350 /   0.585539  0.688047  0.428644 ->  -0.7292597569
    5:   0.000000  0.707107  0.707107 /   0.289489  0.762222  0.578977 ->  -0.8402018278
    6:   0.707107  0.000000  0.707107 /   0.731423  0.422287  0.535439 ->  -0.7874291658
    7:   0.707107  0.707107  0.000000 /   0.616798  0.787122  0.000000 ->  -0.8373511674

 Angular average effective mass for Frohlich model, averaged over degenerate bands.
 Value of     (<<m**0.5>>)**2 =     4.709141E-01
 Absolute Value of <<m**0.5>> =     6.862318E-01

 K-point ( 0.500, 0.000, 0.500) | band =    14
 Effective mass tensor:
              0.4146547734             -0.2437592238              0.2985428751
             -0.2437592238              0.5870185535             -0.4222033404
              0.2985428751             -0.4222033404              0.7593823278
 Effective mass tensor eigenvalues:
              0.2422909454              0.2422909719              1.2764737372
 Angular average effective mass 1/(<1/m>)=   0.3319338077
 Angular average effective mass for Frohlich model (<m**0.5>)**2=   0.3751407414
 Effective masses along directions: (cart. coord. / red. coord. -> eff. mass)
    1:   1.000000  0.000000  0.000000 /   0.948683  0.316228  0.000000 ->   0.2801152634
    2:   0.000000  1.000000  0.000000 /   0.000000  1.000000  0.000000 ->   0.3319338192
    3:   0.000000  0.000000  1.000000 /   0.408248  0.408248  0.816497 ->   0.4072757700
    4:   0.577350  0.577350  0.577350 /   0.585539  0.688047  0.428644 ->   0.2628367492
    5:   0.000000  0.707107  0.707107 /   0.289489  0.762222  0.578977 ->   0.2439548458
    6:   0.707107  0.000000  0.707107 /   0.731423  0.422287  0.535439 ->   0.4884340783
    7:   0.707107  0.707107  0.000000 /   0.616798  0.787122  0.000000 ->   0.2451305223

 END OF EFFECTIVE MASSES SECTION

 ---- first-order wavefunction calculations are completed ----

 Total localisation tensor (bohr^2) in cartesian coordinates
  WARNING : still subject to testing - especially symmetries.
      direction              matrix element
   alpha     beta       real part   imaginary part
     1        1       3.8648516537    0.0000000000
     1        2       1.0931452298    0.0000000000
     1        3       2.6776478139    0.0000000000
     2        1       1.0931452298    0.0000000000
     2        2       3.0918816191    0.0000000000
     2        3       1.8933830780    0.0000000000
     3        1       2.6776478139    0.0000000000
     3        2       1.8933830780    0.0000000000
     3        3       6.9567327492    0.0000000000

 respfn : d/dk was computed, but no 2DTE, so no DDB output.

== END DATASET(S) ==============================================================

 -outvars: echo values of variables after computation  --------
            acell      1.0000000000E+00  1.0000000000E+00  1.0000000000E+00 Bohr
              amu      8.76200000E+01  1.27600000E+02
             ecut      4.00000000E+01 Hartree
           etotal     -4.4961492580E+01
            fcart      0.0000000000E+00  0.0000000000E+00  0.0000000000E+00
                       0.0000000000E+00  0.0000000000E+00  0.0000000000E+00
-          fftalg         512
           irdden           1
           irdwfk           1
           istwfk        1    1
              ixc     -116133
              kpt      0.00000000E+00  0.00000000E+00  0.00000000E+00
                       5.00000000E-01  0.00000000E+00  5.00000000E-01
           kptopt           0
P           mkmem           2
P          mkqmem           2
P          mk1mem           2
            natom           2
            nband          22
           nbdbuf           4
            ngfft          54      54      54
             nkpt           2
            nstep         100
             nsym          48
           ntypat           2
              occ      2.000000  2.000000  2.000000  2.000000  2.000000  2.000000
                       2.000000  2.000000  2.000000  2.000000  2.000000  2.000000
                       2.000000  0.000000  0.000000  0.000000  0.000000  0.000000
                       0.000000  0.000000  0.000000  0.000000
        optdriver           1
            prtwf          -1
            rfdir           1       1       1
           rfelfd           2
            rprim      7.6447513704E+00  0.0000000000E+00  4.4136992616E+00
                       2.5482504568E+00  7.2075407126E+00  4.4136992616E+00
                       0.0000000000E+00  0.0000000000E+00  8.8273985231E+00
          spgroup         225
           strten      0.0000000000E+00  0.0000000000E+00  0.0000000000E+00
                       0.0000000000E+00  0.0000000000E+00  0.0000000000E+00
           symrel      1  0  0   0  1  0   0  0  1      -1  0  0   0 -1  0   0  0 -1
                       0 -1  1   0 -1  0   1 -1  0       0  1 -1   0  1  0  -1  1  0
                      -1  0  0  -1  0  1  -1  1  0       1  0  0   1  0 -1   1 -1  0
                       0  1 -1   1  0 -1   0  0 -1       0 -1  1  -1  0  1   0  0  1
                      -1  0  0  -1  1  0  -1  0  1       1  0  0   1 -1  0   1  0 -1
                       0 -1  1   1 -1  0   0 -1  0       0  1 -1  -1  1  0   0  1  0
                       1  0  0   0  0  1   0  1  0      -1  0  0   0  0 -1   0 -1  0
                       0  1 -1   0  0 -1   1  0 -1       0 -1  1   0  0  1  -1  0  1
                      -1  0  1  -1  1  0  -1  0  0       1  0 -1   1 -1  0   1  0  0
                       0 -1  0   1 -1  0   0 -1  1       0  1  0  -1  1  0   0  1 -1
                       1  0 -1   0  0 -1   0  1 -1      -1  0  1   0  0  1   0 -1  1
                       0  1  0   0  0  1   1  0  0       0 -1  0   0  0 -1  -1  0  0
                       1  0 -1   0  1 -1   0  0 -1      -1  0  1   0 -1  1   0  0  1
                       0 -1  0   0 -1  1   1 -1  0       0  1  0   0  1 -1  -1  1  0
                      -1  0  1  -1  0  0  -1  1  0       1  0 -1   1  0  0   1 -1  0
                       0  1  0   1  0  0   0  0  1       0 -1  0  -1  0  0   0  0 -1
                       0  0 -1   0  1 -1   1  0 -1       0  0  1   0 -1  1  -1  0  1
                       1 -1  0   0 -1  1   0 -1  0      -1  1  0   0  1 -1   0  1  0
                       0  0  1   1  0  0   0  1  0       0  0 -1  -1  0  0   0 -1  0
                      -1  1  0  -1  0  0  -1  0  1       1 -1  0   1  0  0   1  0 -1
                       0  0  1   0  1  0   1  0  0       0  0 -1   0 -1  0  -1  0  0
                       1 -1  0   0 -1  0   0 -1  1      -1  1  0   0  1  0   0  1 -1
                       0  0 -1   1  0 -1   0  1 -1       0  0  1  -1  0  1   0 -1  1
                      -1  1  0  -1  0  1  -1  0  0       1 -1  0   1  0 -1   1  0  0
           tolwfr      1.00000000E-20
            typat      1  2
           useylm           1
              wtk        0.50000    0.50000
           xangst      0.0000000000E+00  0.0000000000E+00  0.0000000000E+00
                       2.6969521270E+00  1.9070331375E+00  4.6712581096E+00
            xcart      0.0000000000E+00  0.0000000000E+00  0.0000000000E+00
                       5.0965009136E+00  3.6037703563E+00  8.8273985231E+00
             xred      0.0000000000E+00  0.0000000000E+00  0.0000000000E+00
                       5.0000000000E-01  5.0000000000E-01  5.0000000000E-01
            znucl       38.00000   52.00000

- Timing analysis has been suppressed with timopt=0

 Suggested references for the acknowledgment of ABINIT usage.

 Calculation completed.
.Delivered  14 WARNINGs and   9 COMMENTs to log file.