.Version 9.5.1 of ABINIT

 ABINIT is a project of the Universite Catholique de Louvain,
 Corning Inc. and other collaborators, see ~abinit/doc/developers/contributors.txt .
 acknowledgments of the ABINIT effort.

.Starting date : Tue 11 May 2021.
- ( at 21h21 )

- input  file    -> /scratch/users/j/a/jabreu/flow_simple_8atoms/flow/w294/t1/run.abi
- output file    -> /scratch/users/j/a/jabreu/flow_simple_8atoms/flow/w294/t1/run.abo
- root for input  files -> /scratch/users/j/a/jabreu/flow_simple_8atoms/flow/w294/t1/indata/in
- root for output files -> /scratch/users/j/a/jabreu/flow_simple_8atoms/flow/w294/t1/outdata/out

 Symmetries : space group R-3 (#148); Bravais hR (rhombohedral)
     intxc =       0      iscf =       7    lmnmax =      18     lnmax =       6
     mgfft =      60  mpssoang =       3    mqgrid =    3001     natom =       8
  nloc_mem =       1    nspden =       1   nspinor =       1    nsppol =       1
      nsym =       6    n1xccc =    2501    ntypat =       3    occopt =       1
   xclevel =       2
-    mband =          49        mffmem =           1         mkmem =           1
-   mkqmem =           1        mk1mem =           1           mpw =        8584
      nfft =      216000          nkpt =           1
  Rough estimation (10% accuracy) of disk space for files :

------------- Echo of variables that govern the present computation ------------
-
- outvars: echo of selected default values
-   iomode0 =  0 , fftalg0 =512 , wfoptalg0 =  0
-
- outvars: echo of global parameters not present in the input file
-  max_nthreads =    0
-
 -outvars: echo values of preprocessed input variables --------
            acell      1.0000000000E+00  1.0000000000E+00  1.0000000000E+00 Bohr
              amu      6.53900000E+01  1.06420000E+02  1.89984032E+01
             ecut      4.20000000E+01 Hartree
-          fftalg         512
           irdden           1
           irdwfk           1
           istwfk        1
              ixc     -116133
              kpt      5.00000000E-01  5.00000000E-01  0.00000000E+00
           kptopt           0
P           mkmem           1
P          mkqmem           1
P          mk1mem           1
            natom           8
            nband          49
           nbdbuf           4
            ngfft          60      60      60
             nkpt           1
            nstep        2000
             nsym           6
           ntypat           3
              occ      2.000000  2.000000  2.000000  2.000000  2.000000  2.000000
                       2.000000  2.000000  2.000000  2.000000  2.000000  2.000000
                       2.000000  2.000000  2.000000  2.000000  2.000000  2.000000
                       2.000000  2.000000  2.000000  2.000000  2.000000  2.000000
                       2.000000  2.000000  2.000000  2.000000  2.000000  2.000000
                       2.000000  2.000000  2.000000  2.000000  2.000000  2.000000
                       2.000000  2.000000  2.000000  2.000000  0.000000  0.000000
                       0.000000  0.000000  0.000000  0.000000  0.000000  0.000000
                       0.000000
        optdriver           1
            prtwf          -1
            rfdir           1       1       1
           rfelfd           2
            rprim      8.3479571846E+00  0.0000000000E+00  5.7465845535E+00
                       3.0206825699E+00  7.7822789701E+00  5.7465845535E+00
                       0.0000000000E+00  0.0000000000E+00  1.0134674301E+01
          spgroup         148
           symrel      1  0  0   0  1  0   0  0  1      -1  0  0   0 -1  0   0  0 -1
                       0  0  1   1  0  0   0  1  0       0  0 -1  -1  0  0   0 -1  0
                       0  1  0   0  0  1   1  0  0       0 -1  0   0  0 -1  -1  0  0
           tolwfr      1.00000000E-20
            typat      1  2  3  3  3  3  3  3
           useylm           1
           xangst      3.0080125254E+00  2.0591023309E+00  5.7224809012E+00
                       0.0000000000E+00  0.0000000000E+00  0.0000000000E+00
                       2.5007457349E+00  3.7042139018E+00  6.7580888387E+00
                       3.0955191746E+00  9.9093064215E-01  7.4217593678E+00
                       1.0616318832E+00  1.5910107162E+00  5.5531052432E+00
                       2.9205058762E+00  3.1272740197E+00  4.0232024346E+00
                       3.5152793159E+00  4.1399076004E-01  4.6868729638E+00
                       4.9543931675E+00  2.5271939456E+00  5.8918565592E+00
            xcart      5.6843198773E+00  3.8911394851E+00  1.0813921704E+01
                       0.0000000000E+00  0.0000000000E+00  0.0000000000E+00
                       4.7257245669E+00  6.9999498121E+00  1.2770937087E+01
                       5.8496834791E+00  1.8725875303E+00  1.4025092629E+01
                       2.0061935132E+00  3.0065745282E+00  1.0493848097E+01
                       5.5189562754E+00  5.9096914398E+00  7.6027507786E+00
                       6.6429151876E+00  7.8232915803E-01  8.8569063212E+00
                       9.3624462413E+00  4.7757044419E+00  1.1133995311E+01
             xred      5.0000000000E-01  5.0000000000E-01  5.0000000000E-01
                       0.0000000000E+00  0.0000000000E+00  0.0000000000E+00
                       2.4062200000E-01  8.9947300000E-01  6.1366400000E-01
                       6.1366400000E-01  2.4062200000E-01  8.9947300000E-01
                       1.0052700000E-01  3.8633600000E-01  7.5937800000E-01
                       3.8633600000E-01  7.5937800000E-01  1.0052700000E-01
                       7.5937800000E-01  1.0052700000E-01  3.8633600000E-01
                       8.9947300000E-01  6.1366400000E-01  2.4062200000E-01
            znucl       30.00000   46.00000    9.00000

 chkinp: Checking input parameters for consistency.

== DATASET  1 ==================================================================
-   mpi_nproc: 1, omp_nthreads: -1 (-1 if OMP is not activated)

--- !DatasetInfo
iteration_state: {dtset: 1, }
dimensions: {natom: 8, nkpt: 1, mband: 49, nsppol: 1, nspinor: 1, nspden: 1, mpw: 8584, }
cutoff_energies: {ecut:  42.0, pawecutdg:  -1.0, }
electrons: {nelect:   8.00000000E+01, charge:   0.00000000E+00, occopt:   1.00000000E+00, tsmear:   1.00000000E-02, }
meta: {optdriver: 1, rfelfd: 2, }
...

 Real(R)+Recip(G) space primitive vectors, cartesian coordinates (Bohr,Bohr^-1):
 R(1)=  8.3479572  0.0000000  5.7465846  G(1)=  0.1197898 -0.0464963  0.0000000
 R(2)=  3.0206826  7.7822790  5.7465846  G(2)=  0.0000000  0.1284971  0.0000000
 R(3)=  0.0000000  0.0000000 10.1346743  G(3)= -0.0679235 -0.0464963  0.0986712
 Unit cell volume ucvol=  6.5841058E+02 bohr^3
 Angles (23,13,12)=  5.54571706E+01  5.54571706E+01  5.54571706E+01 degrees

 getcut: wavevector=  0.0000  0.0000  0.0000  ngfft=  60  60  60
         ecut(hartree)=     42.000   => boxcut(ratio)=   2.02933

--- Pseudopotential description ------------------------------------------------
- pspini: atom type   1  psp file is /scratch/users/j/a/jabreu/pseudos/PBEsol/Zn.psp8
- pspatm: opening atomic psp file    /scratch/users/j/a/jabreu/pseudos/PBEsol/Zn.psp8
- Zn    ONCVPSP-3.3.0  r_core=   1.35823   1.66358   1.85211
- 30.00000  20.00000    180112                znucl, zion, pspdat
    8 -116133    2    4       600   0.00000   pspcod,pspxc,lmax,lloc,mmax,r2well
    5.99000000000000    2.50000000000000    0.00000000000000   rchrg,fchrg,qchrg
     nproj     2     2     2
     extension_switch     1
  pspatm : epsatm=   26.57343589
         --- l  ekb(1:nproj) -->
             0    2.830835   -1.519107
             1   -4.626739   -1.324150
             2   -6.948510   -2.555500
 pspatm: atomic psp has been read  and splines computed

- pspini: atom type   2  psp file is /scratch/users/j/a/jabreu/pseudos/PBEsol/Pd.psp8
- pspatm: opening atomic psp file    /scratch/users/j/a/jabreu/pseudos/PBEsol/Pd.psp8
- Pd    ONCVPSP-3.3.0  r_core=   1.41052   1.46191   1.55175
- 46.00000  18.00000    180112                znucl, zion, pspdat
    8 -116133    2    4       600   0.00000   pspcod,pspxc,lmax,lloc,mmax,r2well
    5.99000000000000    7.00000000000000    0.00000000000000   rchrg,fchrg,qchrg
     nproj     2     2     2
     extension_switch     1
  pspatm : epsatm=   26.17262427
         --- l  ekb(1:nproj) -->
             0    7.952303   -2.096627
             1    3.304793   -0.572651
             2   -1.185452   -0.410427
 pspatm: atomic psp has been read  and splines computed

- pspini: atom type   3  psp file is /scratch/users/j/a/jabreu/pseudos/PBEsol/F.psp8
- pspatm: opening atomic psp file    /scratch/users/j/a/jabreu/pseudos/PBEsol/F.psp8
- F     ONCVPSP-3.3.0  r_core=   1.30942   1.45782   1.60379
-  9.00000   7.00000    180112                znucl, zion, pspdat
    8 -116133    2    4       600   0.00000   pspcod,pspxc,lmax,lloc,mmax,r2well
    5.99000000000000    2.50000000000000    0.00000000000000   rchrg,fchrg,qchrg
     nproj     2     2     1
     extension_switch     1
  pspatm : epsatm=    4.89824824
         --- l  ekb(1:nproj) -->
             0    6.506434    1.065875
             1   -3.978753   -1.295852
             2   -2.394754
 pspatm: atomic psp has been read  and splines computed

   6.57084397E+03                                ecore*ucvol(ha*bohr**3)

-inwffil : will read wavefunctions from disk file /scratch/users/j/a/jabreu/flow_simple_8atoms/flow/w294/t1/indata/in_WFK

 ==>  initialize data related to q vector <==

 The list of irreducible perturbations for this q vector is:
    1)    idir= 1    ipert=   9
    2)    idir= 2    ipert=   9
    3)    idir= 3    ipert=   9

 Perturbation wavevector (in red.coord.)   0.000000  0.000000  0.000000
 Perturbation : derivative vs k along direction   1

 dfpt_looppert : COMMENT -
  In a d/dk calculation, iscf is set to -3 automatically.
 The set of symmetries contains only one element for this perturbation.
 symkpt : not enough symmetry to change the number of k points.

[...]

 Initialisation of the first-order wave-functions :
  ireadwf=   0

--- !BeginCycle
iteration_state: {dtset: 1, }
solver: {iscf: 7, nstep: 2000, nline: 4, wfoptalg: 0, }
tolerances: {tolwfr: 1.00E-20, }
...

     iter   2DEtotal(Ha)        deltaE(Ha) residm    vres2
-ETOT  1  -56.496943497720     -5.650E+01 1.615E-02 0.000E+00
 ETOT  2  -56.536560438500     -3.962E-02 5.008E-04 0.000E+00
 ETOT  3  -56.536635363185     -7.492E-05 1.424E-06 0.000E+00
 ETOT  4  -56.536635631464     -2.683E-07 8.127E-08 0.000E+00
 ETOT  5  -56.536635632630     -1.166E-09 6.666E-10 0.000E+00
 ETOT  6  -56.536635632635     -5.450E-12 4.317E-11 0.000E+00
 ETOT  7  -56.536635632635      1.421E-14 5.313E-13 0.000E+00
 ETOT  8  -56.536635632635     -3.553E-14 3.697E-14 0.000E+00
 ETOT  9  -56.536635632635     -7.105E-15 4.928E-16 0.000E+00
 ETOT 10  -56.536635632635     -7.105E-15 3.572E-17 0.000E+00
 ETOT 11  -56.536635632635      7.105E-15 4.861E-19 0.000E+00
 ETOT 12  -56.536635632635      0.000E+00 3.608E-20 0.000E+00
 ETOT 13  -56.536635632635      0.000E+00 9.514E-21 0.000E+00

 At SCF step   13   max residual=  9.51E-21 < tolwfr=  1.00E-20 =>converged.

 ----iterations are completed or convergence reached----

 dfpt_looppert: DFPT cycle converged with prtwf=-1. Will skip output of the 1st-order WFK file.
 dfpt_looppert : ek2=    1.0429563430E+02
          f-sum rule ratio=    9.8366117174E-01
 prteigrs : about to open file /scratch/users/j/a/jabreu/flow_simple_8atoms/flow/w294/t1/tmpdata/tmp_1WF1_EIG
 Expectation of eigenvalue derivatives (hartree) for nkpt=   1  k points:
  (in case of degenerate eigenvalues, averaged derivative)
 kpt#   1, nband= 49, wtk=  1.00000, kpt=  0.5000  0.5000  0.0000 (reduced coord)
   0.00000    0.00000    0.00000   -0.00000   -0.00000   -0.00000   -0.00000    0.00000
   0.00000    0.00000   -0.00000   -0.00000    0.00000    0.00000    0.00000    0.00000
   0.00000    0.00000   -0.00000    0.00000   -0.00000   -0.00000   -0.00000    0.00000
  -0.00000   -0.00000    0.00000   -0.00000   -0.00000   -0.00000   -0.00000    0.00000
   0.00000   -0.00000   -0.00000    0.00000   -0.00000   -0.00000    0.00000    0.00000
  -0.00000   -0.00000    0.00000   -0.00000    0.00000    0.00000   -0.00000   -0.00000
   0.04480

 Eight components of 2nd-order total energy (hartree) are
 1,2,3: 0th-order hamiltonian combined with 1st-order wavefunctions
     kin0=   8.29836083E+01 eigvalue=   2.95741952E+00  local=  -3.38898724E+01
 4,5,6: 1st-order hamiltonian combined with 1st and 0th-order wfs
     kin1=  -1.02591566E+02  Hartree=   0.00000000E+00     xc=   0.00000000E+00
 7,8,9: eventually, occupation + non-local contributions
    edocc=   6.01390396E+00     enl0=  -1.52842378E+00   enl1=  -1.04817054E+01
 1-9 gives the relaxation energy (to be shifted if some occ is /=2.0)
   erelax=  -5.65366356E+01
  No Ewald or frozen-wf contrib.: the relaxation energy is the total one
 2DEtotal=   -0.5653663563E+02 Ha. Also 2DEtotal=   -0.153844009435E+04 eV
    (  non-var. 2DEtotal :   -5.6536635632E+01 Ha)

 Perturbation wavevector (in red.coord.)   0.000000  0.000000  0.000000
 Perturbation : derivative vs k along direction   2
 The set of symmetries contains only one element for this perturbation.
 symkpt : not enough symmetry to change the number of k points.

[...]

 Perturbation wavevector (in red.coord.)   0.000000  0.000000  0.000000
 Perturbation : derivative vs k along direction   3
 The set of symmetries contains only one element for this perturbation.
 symkpt : not enough symmetry to change the number of k points.

-inwffil : will read wavefunctions from disk file /scratch/users/j/a/jabreu/flow_simple_8atoms/flow/w294/t1/indata/in_WFK

 Initialisation of the first-order wave-functions :
  ireadwf=   0

--- !BeginCycle
iteration_state: {dtset: 1, }
solver: {iscf: 7, nstep: 2000, nline: 4, wfoptalg: 0, }
tolerances: {tolwfr: 1.00E-20, }
...

     iter   2DEtotal(Ha)        deltaE(Ha) residm    vres2
-ETOT  1  -56.530289020766     -5.653E+01 1.467E-02 0.000E+00
 ETOT  2  -56.566175188477     -3.589E-02 2.076E-04 0.000E+00
 ETOT  3  -56.566240859031     -6.567E-05 2.584E-06 0.000E+00
 ETOT  4  -56.566241093099     -2.341E-07 5.226E-08 0.000E+00
 ETOT  5  -56.566241094148     -1.049E-09 1.366E-09 0.000E+00
 ETOT  6  -56.566241094153     -5.215E-12 4.116E-11 0.000E+00
 ETOT  7  -56.566241094153      4.263E-14 1.325E-12 0.000E+00
 ETOT  8  -56.566241094153      2.842E-14 4.322E-14 0.000E+00
 ETOT  9  -56.566241094153      4.263E-14 1.464E-15 0.000E+00
 ETOT 10  -56.566241094153      0.000E+00 5.052E-17 0.000E+00
 ETOT 11  -56.566241094153     -7.105E-15 1.740E-18 0.000E+00
 ETOT 12  -56.566241094153      0.000E+00 6.300E-20 0.000E+00
 ETOT 13  -56.566241094153     -1.421E-14 9.801E-21 0.000E+00

 At SCF step   13   max residual=  9.80E-21 < tolwfr=  1.00E-20 =>converged.

 ----iterations are completed or convergence reached----

 dfpt_looppert: DFPT cycle converged with prtwf=-1. Will skip output of the 1st-order WFK file.
 dfpt_looppert : ek2=    1.0429563430E+02
          f-sum rule ratio=    9.8449425076E-01
 prteigrs : about to open file /scratch/users/j/a/jabreu/flow_simple_8atoms/flow/w294/t1/tmpdata/tmp_1WF1_EIG
 Expectation of eigenvalue derivatives (hartree) for nkpt=   1  k points:
  (in case of degenerate eigenvalues, averaged derivative)
 kpt#   1, nband= 49, wtk=  1.00000, kpt=  0.5000  0.5000  0.0000 (reduced coord)
  -0.00000   -0.00000   -0.00000    0.00000   -0.00000   -0.00000    0.00000   -0.00000
  -0.00000    0.00000    0.00000    0.00000   -0.00000    0.00000   -0.00000    0.00000
  -0.00000   -0.00000    0.00000   -0.00000    0.00000   -0.00000    0.00000    0.00000
  -0.00000   -0.00000   -0.00000    0.00000    0.00000    0.00000   -0.00000    0.00000
  -0.00000   -0.00000   -0.00000    0.00000    0.00000    0.00000   -0.00000    0.00000
  -0.00000   -0.00000   -0.00000   -0.00000    0.00000   -0.00000   -0.00000   -0.00000
   0.03230

 Eight components of 2nd-order total energy (hartree) are
 1,2,3: 0th-order hamiltonian combined with 1st-order wavefunctions
     kin0=   8.25966197E+01 eigvalue=   2.96179252E+00  local=  -3.35246690E+01
 4,5,6: 1st-order hamiltonian combined with 1st and 0th-order wfs
     kin1=  -1.02678452E+02  Hartree=   0.00000000E+00     xc=   0.00000000E+00
 7,8,9: eventually, occupation + non-local contributions
    edocc=   6.05555729E+00     enl0=  -1.52305948E+00   enl1=  -1.04540298E+01
 1-9 gives the relaxation energy (to be shifted if some occ is /=2.0)
   erelax=  -5.65662411E+01
  No Ewald or frozen-wf contrib.: the relaxation energy is the total one
 2DEtotal=   -0.5656624109E+02 Ha. Also 2DEtotal=   -0.153924569993E+04 eV
    (  non-var. 2DEtotal :   -5.6566241094E+01 Ha)

 CALCULATION OF EFFECTIVE MASSES
 NOTE : Additional infos (eff. mass eigenvalues, eigenvectors and, if degenerate, average mass) are available in stdout.

 K-point ( 0.500, 0.500, 0.000) | band =    40
 Effective mass tensor:
             -5.1422844475              0.6203608753              1.5438374935
              0.6203608753             -2.4765748514              0.0191089140
              1.5438374935              0.0191089140             -3.6393727794
 Effective mass tensor eigenvalues:
             -6.1803438078             -2.9061744990             -2.1717137715
 Angular average effective mass 1/(<1/m>)=  -3.1044199781
 Angular average effective mass for Frohlich model (<m**0.5>)**2=  -3.2644124086
 Effective masses along directions: (cart. coord. / red. coord. -> eff. mass)
    1:   1.000000  0.000000  0.000000 /   0.940333  0.340256  0.000000 ->  -4.3278928716
    2:   0.000000  1.000000  0.000000 /   0.000000  1.000000  0.000000 ->  -2.3884564443
    3:   0.000000  0.000000  1.000000 /   0.442362  0.442362  0.780149 ->  -3.1583170035
    4:   0.577350  0.577350  0.577350 /   0.587653  0.690011  0.422551 ->  -2.2481484090
    5:   0.000000  0.707107  0.707107 /   0.321866  0.757750  0.567642 ->  -2.5334106380
    6:   0.707107  0.000000  0.707107 /   0.724722  0.450801  0.521111 ->  -2.6869725906
    7:   0.707107  0.707107  0.000000 /   0.611457  0.791277  0.000000 ->  -2.6075148179

 K-point ( 0.500, 0.500, 0.000) | band =    41
 Effective mass tensor:
           1128.6274195566            183.1458839984           -477.5104976891
            183.1458839984             33.3191141050            -77.9003179340
           -477.5104976891            -77.9003179340            204.9546345760
 Effective mass tensor eigenvalues:
              2.4335389423              3.5295935429           1360.9380357524
 Angular average effective mass 1/(<1/m>)=   4.3166852011
 Angular average effective mass for Frohlich model (<m**0.5>)**2=   6.7947985348
 Effective masses along directions: (cart. coord. / red. coord. -> eff. mass)
    1:   1.000000  0.000000  0.000000 /   0.940333  0.340256  0.000000 ->  15.3720650652
    2:   0.000000  1.000000  0.000000 /   0.000000  1.000000  0.000000 ->   3.5410882899
    3:   0.000000  0.000000  1.000000 /   0.442362  0.442362  0.780149 ->   2.8774859939
    4:   0.577350  0.577350  0.577350 /   0.587653  0.690011  0.422551 ->   3.0060290200
    5:   0.000000  0.707107  0.707107 /   0.321866  0.757750  0.567642 ->   2.8180379641
    6:   0.707107  0.000000  0.707107 /   0.724722  0.450801  0.521111 ->   2.8830908943
    7:   0.707107  0.707107  0.000000 /   0.611457  0.791277  0.000000 ->   6.9070677394

 END OF EFFECTIVE MASSES SECTION

 ---- first-order wavefunction calculations are completed ----

 Total localisation tensor (bohr^2) in cartesian coordinates
  WARNING : still subject to testing - especially symmetries.
      direction              matrix element
   alpha     beta       real part   imaginary part
     1        1       0.5168505053    0.0000000000
     1        2       0.1569521543    0.0000000000
     1        3       0.4297503552    0.0000000000
     2        1       0.1569521543    0.0000000000
     2        2       0.4043607434    0.0000000000
     2        3       0.2985877545    0.0000000000
     3        1       0.4297503552    0.0000000000
     3        2       0.2985877545    0.0000000000
     3        3       1.1141025698    0.0000000000

 respfn : d/dk was computed, but no 2DTE, so no DDB output.

== END DATASET(S) ==============================================================

 -outvars: echo values of variables after computation  --------
            acell      1.0000000000E+00  1.0000000000E+00  1.0000000000E+00 Bohr
              amu      6.53900000E+01  1.06420000E+02  1.89984032E+01
             ecut      4.20000000E+01 Hartree
           etotal     -5.6566241094E+01
            fcart      0.0000000000E+00  0.0000000000E+00  0.0000000000E+00
                       0.0000000000E+00  0.0000000000E+00  0.0000000000E+00
                       0.0000000000E+00  0.0000000000E+00  0.0000000000E+00
                       0.0000000000E+00  0.0000000000E+00  0.0000000000E+00
                       0.0000000000E+00  0.0000000000E+00  0.0000000000E+00
                       0.0000000000E+00  0.0000000000E+00  0.0000000000E+00
                       0.0000000000E+00  0.0000000000E+00  0.0000000000E+00
                       0.0000000000E+00  0.0000000000E+00  0.0000000000E+00
-          fftalg         512
           irdden           1
           irdwfk           1
           istwfk        1
              ixc     -116133
              kpt      5.00000000E-01  5.00000000E-01  0.00000000E+00
           kptopt           0
P           mkmem           1
P          mkqmem           1
P          mk1mem           1
            natom           8
            nband          49
           nbdbuf           4
            ngfft          60      60      60
             nkpt           1
            nstep        2000
             nsym           6
           ntypat           3
              occ      2.000000  2.000000  2.000000  2.000000  2.000000  2.000000
                       2.000000  2.000000  2.000000  2.000000  2.000000  2.000000
                       2.000000  2.000000  2.000000  2.000000  2.000000  2.000000
                       2.000000  2.000000  2.000000  2.000000  2.000000  2.000000
                       2.000000  2.000000  2.000000  2.000000  2.000000  2.000000
                       2.000000  2.000000  2.000000  2.000000  2.000000  2.000000
                       2.000000  2.000000  2.000000  2.000000  0.000000  0.000000
                       0.000000  0.000000  0.000000  0.000000  0.000000  0.000000
                       0.000000
        optdriver           1
            prtwf          -1
            rfdir           1       1       1
           rfelfd           2
            rprim      8.3479571846E+00  0.0000000000E+00  5.7465845535E+00
                       3.0206825699E+00  7.7822789701E+00  5.7465845535E+00
                       0.0000000000E+00  0.0000000000E+00  1.0134674301E+01
          spgroup         148
           strten      0.0000000000E+00  0.0000000000E+00  0.0000000000E+00
                       0.0000000000E+00  0.0000000000E+00  0.0000000000E+00
           symrel      1  0  0   0  1  0   0  0  1      -1  0  0   0 -1  0   0  0 -1
                       0  0  1   1  0  0   0  1  0       0  0 -1  -1  0  0   0 -1  0
                       0  1  0   0  0  1   1  0  0       0 -1  0   0  0 -1  -1  0  0
           tolwfr      1.00000000E-20
            typat      1  2  3  3  3  3  3  3
           useylm           1
           xangst      3.0080125254E+00  2.0591023309E+00  5.7224809012E+00
                       0.0000000000E+00  0.0000000000E+00  0.0000000000E+00
                       2.5007457349E+00  3.7042139018E+00  6.7580888387E+00
                       3.0955191746E+00  9.9093064215E-01  7.4217593678E+00
                       1.0616318832E+00  1.5910107162E+00  5.5531052432E+00
                       2.9205058762E+00  3.1272740197E+00  4.0232024346E+00
                       3.5152793159E+00  4.1399076004E-01  4.6868729638E+00
                       4.9543931675E+00  2.5271939456E+00  5.8918565592E+00
            xcart      5.6843198773E+00  3.8911394851E+00  1.0813921704E+01
                       0.0000000000E+00  0.0000000000E+00  0.0000000000E+00
                       4.7257245669E+00  6.9999498121E+00  1.2770937087E+01
                       5.8496834791E+00  1.8725875303E+00  1.4025092629E+01
                       2.0061935132E+00  3.0065745282E+00  1.0493848097E+01
                       5.5189562754E+00  5.9096914398E+00  7.6027507786E+00
                       6.6429151876E+00  7.8232915803E-01  8.8569063212E+00
                       9.3624462413E+00  4.7757044419E+00  1.1133995311E+01
             xred      5.0000000000E-01  5.0000000000E-01  5.0000000000E-01
                       0.0000000000E+00  0.0000000000E+00  0.0000000000E+00
                       2.4062200000E-01  8.9947300000E-01  6.1366400000E-01
                       6.1366400000E-01  2.4062200000E-01  8.9947300000E-01
                       1.0052700000E-01  3.8633600000E-01  7.5937800000E-01
                       3.8633600000E-01  7.5937800000E-01  1.0052700000E-01
                       7.5937800000E-01  1.0052700000E-01  3.8633600000E-01
                       8.9947300000E-01  6.1366400000E-01  2.4062200000E-01
            znucl       30.00000   46.00000    9.00000

- Timing analysis has been suppressed with timopt=0

 Suggested references for the acknowledgment of ABINIT usage.

 Calculation completed.
.Delivered   6 WARNINGs and   5 COMMENTs to log file.