.Version 9.5.1 of ABINIT

 ABINIT is a project of the Universite Catholique de Louvain,
 Corning Inc. and other collaborators, see ~abinit/doc/developers/contributors.txt .
 acknowledgments of the ABINIT effort.

.Starting date : Wed 19 May 2021.
- ( at 01h20 )

- input  file    -> /scratch/users/j/a/jabreu/flow_simple_8atoms/flow/w428/t1/run.abi
- output file    -> /scratch/users/j/a/jabreu/flow_simple_8atoms/flow/w428/t1/run.abo
- root for input  files -> /scratch/users/j/a/jabreu/flow_simple_8atoms/flow/w428/t1/indata/in
- root for output files -> /scratch/users/j/a/jabreu/flow_simple_8atoms/flow/w428/t1/outdata/out

 Symmetries : space group C2/c (# 15); Bravais mC (1-face-center monocl.)
     intxc =       0      iscf =       7    lmnmax =      18     lnmax =       6
     mgfft =      80  mpssoang =       3    mqgrid =    3219     natom =       8
  nloc_mem =       1    nspden =       1   nspinor =       1    nsppol =       1
      nsym =       4    n1xccc =    2501    ntypat =       3    occopt =       1
   xclevel =       2
-    mband =          45        mffmem =           1         mkmem =           2
-   mkqmem =           2        mk1mem =           2           mpw =       20118
      nfft =      414720          nkpt =           2
  Rough estimation (10% accuracy) of disk space for files :

------------- Echo of variables that govern the present computation ------------
-
- outvars: echo of selected default values
-   iomode0 =  0 , fftalg0 =512 , wfoptalg0 =  0
-
- outvars: echo of global parameters not present in the input file
-  max_nthreads =    0
-
 -outvars: echo values of preprocessed input variables --------
            acell      1.0000000000E+00  1.0000000000E+00  1.0000000000E+00 Bohr
              amu      3.90983000E+01  1.21753000E+02  3.20660000E+01
             ecut      4.20000000E+01 Hartree
-          fftalg         512
           irdden           1
           irdwfk           1
              ixc     -116133
              kpt      5.00000000E-01 -5.00000000E-01  0.00000000E+00
                       5.20919619E-01  5.20919619E-01  3.00370468E-01
           kptopt           0
P           mkmem           2
P          mkqmem           2
P          mk1mem           2
            natom           8
            nband          45
           nbdbuf           4
            ngfft          72      72      80
             nkpt           2
            nstep        2000
             nsym           4
           ntypat           3
              occ      2.000000  2.000000  2.000000  2.000000  2.000000  2.000000
                       2.000000  2.000000  2.000000  2.000000  2.000000  2.000000
                       2.000000  2.000000  2.000000  2.000000  2.000000  2.000000
                       2.000000  2.000000  2.000000  2.000000  2.000000  2.000000
                       2.000000  2.000000  2.000000  2.000000  2.000000  2.000000
                       2.000000  2.000000  2.000000  2.000000  2.000000  2.000000
                       0.000000  0.000000  0.000000  0.000000  0.000000  0.000000
                       0.000000  0.000000  0.000000
        optdriver           1
            prtwf          -1
            rfdir           1       1       1
           rfelfd           2
            rprim      1.1018104035E+01  0.0000000000E+00  4.3403854840E+00
                      -2.0851762240E+00  1.0818995177E+01  4.3403854840E+00
                       0.0000000000E+00  0.0000000000E+00  1.2974107517E+01
          spgroup          15
           symrel      1  0  0   0  1  0   0  0  1      -1  0  0   0 -1  0   0  0 -1
                       0 -1  0  -1  0  0   0  0 -1       0  1  0   1  0  0   0  0  1
            tnons      0.0000000  0.0000000  0.0000000     0.0000000  0.0000000  0.0000000
                       0.0000000  0.0000000  0.5000000     0.0000000 -0.0000000  0.5000000
           tolwfr      1.00000000E-20
            typat      1  1  2  2  3  3  3  3
           useylm           1
              wtk        0.50000    0.50000
           xangst     -1.2059476215E-01  4.9136692355E+00  7.4460345746E+00
                       4.8476965658E+00  8.1149643205E-01  4.0132335746E+00
                       1.7189910358E+00  3.3947770587E+00  4.0132335746E+00
                       3.0081107678E+00  2.3303886088E+00  7.4460345746E+00
                       1.9267420822E+00  1.2399792809E+00  2.8644788595E+00
                       3.8741662123E+00  3.5985757810E+00  5.1619882898E+00
                       8.5293559135E-01  2.1265898866E+00  6.2972798595E+00
                       2.8003597214E+00  4.4851863866E+00  8.5947892898E+00
            xcart     -2.2789107351E-01  9.2854891627E+00  1.4070966122E+01
                       9.1608188846E+00  1.5335060144E+00  7.5839123633E+00
                       3.2484222825E+00  6.4151989232E+00  7.5839123633E+00
                       5.6845055286E+00  4.4037962539E+00  1.4070966122E+01
                       3.6410148641E+00  2.3432212514E+00  5.4130805579E+00
                       7.3211131345E+00  6.8003226945E+00  9.7547441688E+00
                       1.6118146766E+00  4.0186724826E+00  1.1900134317E+01
                       5.2919129470E+00  8.4757739257E+00  1.6241797928E+01
             xred      1.4174200000E-01  8.5825800000E-01  7.5000000000E-01
                       8.5825800000E-01  1.4174200000E-01  2.5000000000E-01
                       4.0704300000E-01  5.9295700000E-01  2.5000000000E-01
                       5.9295700000E-01  4.0704300000E-01  7.5000000000E-01
                       3.7144600000E-01  2.1658400000E-01  2.2050100000E-01
                       7.8341600000E-01  6.2855400000E-01  2.7949900000E-01
                       2.1658400000E-01  3.7144600000E-01  7.2050100000E-01
                       6.2855400000E-01  7.8341600000E-01  7.7949900000E-01
            znucl       19.00000   51.00000   16.00000

 chkinp: Checking input parameters for consistency.

== DATASET  1 ==================================================================
-   mpi_nproc: 1, omp_nthreads: -1 (-1 if OMP is not activated)

--- !DatasetInfo
iteration_state: {dtset: 1, }
dimensions: {natom: 8, nkpt: 2, mband: 45, nsppol: 1, nspinor: 1, nspden: 1, mpw: 20118, }
cutoff_energies: {ecut:  42.0, pawecutdg:  -1.0, }
electrons: {nelect:   7.20000000E+01, charge:   0.00000000E+00, occopt:   1.00000000E+00, tsmear:   1.00000000E-02, }
meta: {optdriver: 1, rfelfd: 2, }
...

 Real(R)+Recip(G) space primitive vectors, cartesian coordinates (Bohr,Bohr^-1):
 R(1)= 11.0181040  0.0000000  4.3403855  G(1)=  0.0907597  0.0174924  0.0000000
 R(2)= -2.0851762 10.8189952  4.3403855  G(2)=  0.0000000  0.0924300  0.0000000
 R(3)=  0.0000000  0.0000000 12.9741075  G(3)= -0.0303629 -0.0367737  0.0770766
 Unit cell volume ucvol=  1.5465761E+03 bohr^3
 Angles (23,13,12)=  6.84989246E+01  6.84989246E+01  9.16899534E+01 degrees

 getcut: wavevector=  0.0000  0.0000  0.0000  ngfft=  72  72  80
         ecut(hartree)=     42.000   => boxcut(ratio)=   2.08428

--- Pseudopotential description ------------------------------------------------
- pspini: atom type   1  psp file is /scratch/users/j/a/jabreu/pseudos/PBEsol/K.psp8
- pspatm: opening atomic psp file    /scratch/users/j/a/jabreu/pseudos/PBEsol/K.psp8
- K     ONCVPSP-3.3.0  r_core=   1.36296   1.46408   1.61068
- 19.00000   9.00000    180112                znucl, zion, pspdat
    8 -116133    2    4       400   0.00000   pspcod,pspxc,lmax,lloc,mmax,r2well
    3.99000000000000    5.00000000000000    0.00000000000000   rchrg,fchrg,qchrg
     nproj     2     2     2
     extension_switch     1
  pspatm : epsatm=    8.32487830
         --- l  ekb(1:nproj) -->
             0   10.921326    0.816676
             1    4.431000    0.560368
             2   -3.384038   -1.043186
 pspatm: atomic psp has been read  and splines computed

- pspini: atom type   2  psp file is /scratch/users/j/a/jabreu/pseudos/PBEsol/Sb.psp8
- pspatm: opening atomic psp file    /scratch/users/j/a/jabreu/pseudos/PBEsol/Sb.psp8
- Sb    ONCVPSP-3.3.0  r_core=   1.81962   2.12485   1.81962
- 51.00000  15.00000    180112                znucl, zion, pspdat
    8 -116133    2    4       600   0.00000   pspcod,pspxc,lmax,lloc,mmax,r2well
    5.99000000000000    5.00000000000000    0.00000000000000   rchrg,fchrg,qchrg
     nproj     2     2     2
     extension_switch     1
  pspatm : epsatm=   26.35641246
         --- l  ekb(1:nproj) -->
             0    9.727814    1.485032
             1    5.505335    0.704623
             2   -4.710637   -1.436443
 pspatm: atomic psp has been read  and splines computed

- pspini: atom type   3  psp file is /scratch/users/j/a/jabreu/pseudos/PBEsol/S.psp8
- pspatm: opening atomic psp file    /scratch/users/j/a/jabreu/pseudos/PBEsol/S.psp8
- S     ONCVPSP-3.3.0  r_core=   1.45376   1.45376   1.61851
- 16.00000   6.00000    180112                znucl, zion, pspdat
    8 -116133    2    4       600   0.00000   pspcod,pspxc,lmax,lloc,mmax,r2well
    5.99000000000000    6.00000000000000    0.00000000000000   rchrg,fchrg,qchrg
     nproj     2     2     2
     extension_switch     1
  pspatm : epsatm=    8.71840985
         --- l  ekb(1:nproj) -->
             0    6.834532    0.579453
             1    3.282851    0.896984
             2   -3.496974   -0.974265
 pspatm: atomic psp has been read  and splines computed

   7.50500791E+03                                ecore*ucvol(ha*bohr**3)

-inwffil : will read wavefunctions from disk file /scratch/users/j/a/jabreu/flow_simple_8atoms/flow/w428/t1/indata/in_WFK

 ==>  initialize data related to q vector <==

 The list of irreducible perturbations for this q vector is:
    1)    idir= 1    ipert=   9
    2)    idir= 2    ipert=   9
    3)    idir= 3    ipert=   9

 Perturbation wavevector (in red.coord.)   0.000000  0.000000  0.000000
 Perturbation : derivative vs k along direction   1

 dfpt_looppert : COMMENT -
  In a d/dk calculation, iscf is set to -3 automatically.
 The set of symmetries contains only one element for this perturbation.
 symkpt : not enough symmetry to change the number of k points.

[...]

 Initialisation of the first-order wave-functions :
  ireadwf=   0

--- !BeginCycle
iteration_state: {dtset: 1, }
solver: {iscf: 7, nstep: 2000, nline: 4, wfoptalg: 0, }
tolerances: {tolwfr: 1.00E-20, }
...

     iter   2DEtotal(Ha)        deltaE(Ha) residm    vres2
-ETOT  1  -37.866177066405     -3.787E+01 2.464E-02 0.000E+00
 ETOT  2  -37.971536352485     -1.054E-01 2.731E-03 0.000E+00
 ETOT  3  -37.973823981647     -2.288E-03 1.162E-04 0.000E+00
 ETOT  4  -37.973926999709     -1.030E-04 1.468E-05 0.000E+00
 ETOT  5  -37.973932911862     -5.912E-06 1.240E-06 0.000E+00
 ETOT  6  -37.973933287232     -3.754E-07 1.690E-07 0.000E+00
 ETOT  7  -37.973933312185     -2.495E-08 1.543E-08 0.000E+00
 ETOT  8  -37.973933313884     -1.699E-09 2.057E-09 0.000E+00
 ETOT  9  -37.973933314001     -1.175E-10 1.971E-10 0.000E+00
 ETOT 10  -37.973933314009     -8.285E-12 2.583E-11 0.000E+00
 ETOT 11  -37.973933314010     -5.684E-13 2.681E-12 0.000E+00
 ETOT 12  -37.973933314010      7.105E-15 3.346E-13 0.000E+00
 ETOT 13  -37.973933314010     -7.105E-15 3.989E-14 0.000E+00
 ETOT 14  -37.973933314010     -1.421E-14 4.933E-15 0.000E+00
 ETOT 15  -37.973933314010     -1.421E-14 6.053E-16 0.000E+00
 ETOT 16  -37.973933314010      2.842E-14 7.424E-17 0.000E+00
 ETOT 17  -37.973933314010     -2.132E-14 9.334E-18 0.000E+00
 ETOT 18  -37.973933314010      0.000E+00 1.136E-18 0.000E+00
 ETOT 19  -37.973933314010      0.000E+00 1.458E-19 0.000E+00
 ETOT 20  -37.973933314010      0.000E+00 1.763E-20 0.000E+00
 ETOT 21  -37.973933314010      0.000E+00 9.978E-21 0.000E+00

 At SCF step   21   max residual=  9.98E-21 < tolwfr=  1.00E-20 =>converged.

 ----iterations are completed or convergence reached----

 dfpt_looppert: DFPT cycle converged with prtwf=-1. Will skip output of the 1st-order WFK file.
 dfpt_looppert : ek2=    4.8567793621E+01
          f-sum rule ratio=    1.1082476931E+00
 prteigrs : about to open file /scratch/users/j/a/jabreu/flow_simple_8atoms/flow/w428/t1/tmpdata/tmp_1WF1_EIG
 Expectation of eigenvalue derivatives (hartree) for nkpt=   2  k points:
  (in case of degenerate eigenvalues, averaged derivative)
 kpt#   1, nband= 45, wtk=  0.50000, kpt=  0.5000 -0.5000  0.0000 (reduced coord)
   0.00000   -0.00000   -0.00000   -0.00000    0.00000    0.00000   -0.00000    0.00000
  -0.00000    0.00000   -0.00000    0.00000   -0.00000    0.00000   -0.00000   -0.00000
   0.00000   -0.00000    0.00000   -0.00000    0.00000   -0.00000    0.00000   -0.00000
  -0.00000    0.00000    0.00000   -0.00000    0.00000   -0.00000    0.00000   -0.00000
  -0.00000   -0.00000   -0.00000    0.00000    0.00000   -0.00000   -0.00000    0.00000
  -0.00000    0.00000   -0.00000   -0.00000   -0.00026
 prteigrs : prtvol=0 or 1, do not print more k-points.

 Eight components of 2nd-order total energy (hartree) are
 1,2,3: 0th-order hamiltonian combined with 1st-order wavefunctions
     kin0=   4.35600715E+01 eigvalue=   5.37043774E+00  local=  -2.61979893E+01
 4,5,6: 1st-order hamiltonian combined with 1st and 0th-order wfs
     kin1=  -5.38251452E+01  Hartree=   0.00000000E+00     xc=   0.00000000E+00
 7,8,9: eventually, occupation + non-local contributions
    edocc=   9.53924206E+00     enl0=   5.70217131E+00   enl1=  -2.21227214E+01
 1-9 gives the relaxation energy (to be shifted if some occ is /=2.0)
   erelax=  -3.79739333E+01
  No Ewald or frozen-wf contrib.: the relaxation energy is the total one
 2DEtotal=   -0.3797393331E+02 Ha. Also 2DEtotal=   -0.103332327608E+04 eV
    (  non-var. 2DEtotal :   -3.7973933314E+01 Ha)

 Perturbation wavevector (in red.coord.)   0.000000  0.000000  0.000000
 Perturbation : derivative vs k along direction   2
 The set of symmetries contains only one element for this perturbation.
 symkpt : not enough symmetry to change the number of k points.

[...]

 Perturbation wavevector (in red.coord.)   0.000000  0.000000  0.000000
 Perturbation : derivative vs k along direction   3
 The set of symmetries contains only one element for this perturbation.
 symkpt : not enough symmetry to change the number of k points.

-inwffil : will read wavefunctions from disk file /scratch/users/j/a/jabreu/flow_simple_8atoms/flow/w428/t1/indata/in_WFK

 Initialisation of the first-order wave-functions :
  ireadwf=   0

--- !BeginCycle
iteration_state: {dtset: 1, }
solver: {iscf: 7, nstep: 2000, nline: 4, wfoptalg: 0, }
tolerances: {tolwfr: 1.00E-20, }
...

     iter   2DEtotal(Ha)        deltaE(Ha) residm    vres2
-ETOT  1  -33.964397583971     -3.396E+01 7.750E-02 0.000E+00
 ETOT  2  -34.044209217135     -7.981E-02 6.284E-03 0.000E+00
 ETOT  3  -34.045719013725     -1.510E-03 3.788E-04 0.000E+00
 ETOT  4  -34.045778047493     -5.903E-05 4.598E-05 0.000E+00
 ETOT  5  -34.045781128377     -3.081E-06 3.614E-06 0.000E+00
 ETOT  6  -34.045781311191     -1.828E-07 4.905E-07 0.000E+00
 ETOT  7  -34.045781322780     -1.159E-08 4.732E-08 0.000E+00
 ETOT  8  -34.045781323542     -7.617E-10 5.566E-09 0.000E+00
 ETOT  9  -34.045781323593     -5.123E-11 6.528E-10 0.000E+00
 ETOT 10  -34.045781323597     -3.510E-12 6.503E-11 0.000E+00
 ETOT 11  -34.045781323597     -2.558E-13 9.215E-12 0.000E+00
 ETOT 12  -34.045781323597     -2.132E-14 8.734E-13 0.000E+00
 ETOT 13  -34.045781323597      0.000E+00 1.316E-13 0.000E+00
 ETOT 14  -34.045781323597     -7.105E-15 1.240E-14 0.000E+00
 ETOT 15  -34.045781323597      0.000E+00 1.892E-15 0.000E+00
 ETOT 16  -34.045781323597      1.421E-14 1.772E-16 0.000E+00
 ETOT 17  -34.045781323597     -1.421E-14 2.733E-17 0.000E+00
 ETOT 18  -34.045781323597      0.000E+00 2.546E-18 0.000E+00
 ETOT 19  -34.045781323597      0.000E+00 3.961E-19 0.000E+00
 ETOT 20  -34.045781323597      0.000E+00 3.674E-20 0.000E+00
 ETOT 21  -34.045781323597      0.000E+00 9.979E-21 0.000E+00

 At SCF step   21   max residual=  9.98E-21 < tolwfr=  1.00E-20 =>converged.

 ----iterations are completed or convergence reached----

 dfpt_looppert: DFPT cycle converged with prtwf=-1. Will skip output of the 1st-order WFK file.
 dfpt_looppert : ek2=    4.6701462811E+01
          f-sum rule ratio=    1.0095764610E+00
 prteigrs : about to open file /scratch/users/j/a/jabreu/flow_simple_8atoms/flow/w428/t1/tmpdata/tmp_1WF1_EIG
 Expectation of eigenvalue derivatives (hartree) for nkpt=   2  k points:
  (in case of degenerate eigenvalues, averaged derivative)
 kpt#   1, nband= 45, wtk=  0.50000, kpt=  0.5000 -0.5000  0.0000 (reduced coord)
  -0.00000   -0.00000   -0.00000    0.00000   -0.00000   -0.00000    0.00000    0.00000
   0.00000   -0.00000    0.00000    0.00000    0.00000   -0.00000   -0.00000    0.00000
  -0.00000    0.00000    0.00000    0.00000   -0.00000    0.00000    0.00000   -0.00000
  -0.00000   -0.00000   -0.00000    0.00000    0.00000    0.00000   -0.00000    0.00000
  -0.00000   -0.00000    0.00000   -0.00000    0.00000   -0.00000    0.00000   -0.00000
  -0.00000   -0.00000    0.00000   -0.00000   -0.00004
 prteigrs : prtvol=0 or 1, do not print more k-points.

 Eight components of 2nd-order total energy (hartree) are
 1,2,3: 0th-order hamiltonian combined with 1st-order wavefunctions
     kin0=   4.05724074E+01 eigvalue=   5.25015130E+00  local=  -2.43447521E+01
 4,5,6: 1st-order hamiltonian combined with 1st and 0th-order wfs
     kin1=  -4.71486975E+01  Hartree=   0.00000000E+00     xc=   0.00000000E+00
 7,8,9: eventually, occupation + non-local contributions
    edocc=   7.32868461E+00     enl0=   5.23929013E+00   enl1=  -2.09428651E+01
 1-9 gives the relaxation energy (to be shifted if some occ is /=2.0)
   erelax=  -3.40457813E+01
  No Ewald or frozen-wf contrib.: the relaxation energy is the total one
 2DEtotal=   -0.3404578132E+02 Ha. Also 2DEtotal=   -0.926432824410E+03 eV
    (  non-var. 2DEtotal :   -3.4045781323E+01 Ha)

 CALCULATION OF EFFECTIVE MASSES
 NOTE : Additional infos (eff. mass eigenvalues, eigenvectors and, if degenerate, average mass) are available in stdout.

 K-point ( 0.500,-0.500, 0.000) | band =    36
 Effective mass tensor:
             -0.8517656655             -0.2420728819              0.4477917394
             -0.2420728819             -0.9450804761              0.5423354556
              0.4477917394              0.5423354556             -1.4828284530
 Effective mass tensor eigenvalues:
             -2.0372054783             -0.6518947893             -0.5905743269
 Angular average effective mass 1/(<1/m>)=  -0.8068582228
 Angular average effective mass for Frohlich model (<m**0.5>)**2=  -0.8674392820
 Effective masses along directions: (cart. coord. / red. coord. -> eff. mass)
    1:   1.000000  0.000000  0.000000 /   0.982559 -0.185949  0.000000 ->  -0.7083298479
    2:   0.000000  1.000000  0.000000 /   0.000000  1.000000  0.000000 ->  -0.7381692640
    3:   0.000000  0.000000  1.000000 /   0.302405  0.302405  0.903937 ->  -1.0508055663
    4:   0.577350  0.577350  0.577350 /   0.640412  0.545163  0.540989 ->  -0.5919492737
    5:   0.000000  0.707107  0.707107 /   0.212556  0.742382  0.635365 ->  -0.6234611909
    6:   0.707107  0.000000  0.707107 /   0.759153  0.111473  0.641296 ->  -0.6435400863
    7:   0.707107  0.707107  0.000000 /   0.783660  0.621190  0.000000 ->  -0.8095791010

 K-point ( 0.521, 0.521, 0.300) | band =    37
 Effective mass tensor:
              0.7145744367              0.4685793970             -0.7239727395
              0.4685793970              0.8951884960             -0.8768195577
             -0.7239727395             -0.8768195577              1.5937557012
 Effective mass tensor eigenvalues:
              0.2902116062              0.3276791918              2.5856278360
 Angular average effective mass 1/(<1/m>)=   0.4357754078
 Angular average effective mass for Frohlich model (<m**0.5>)**2=   0.5193309774
 Effective masses along directions: (cart. coord. / red. coord. -> eff. mass)
    1:   1.000000  0.000000  0.000000 /   0.982559 -0.185949  0.000000 ->   0.3737405974
    2:   0.000000  1.000000  0.000000 /   0.000000  1.000000  0.000000 ->   0.3999925660
    3:   0.000000  0.000000  1.000000 /   0.302405  0.302405  0.903937 ->   0.5852809636
    4:   0.577350  0.577350  0.577350 /   0.640412  0.545163  0.540989 ->   0.2929732488
    5:   0.000000  0.707107  0.707107 /   0.212556  0.742382  0.635365 ->   0.3055478261
    6:   0.707107  0.000000  0.707107 /   0.759153  0.111473  0.641296 ->   0.3167631488
    7:   0.707107  0.707107  0.000000 /   0.783660  0.621190  0.000000 ->   0.4689730874

 END OF EFFECTIVE MASSES SECTION

 ---- first-order wavefunction calculations are completed ----

 Total localisation tensor (bohr^2) in cartesian coordinates
  WARNING : still subject to testing - especially symmetries.
      direction              matrix element
   alpha     beta       real part   imaginary part
     1        1       1.8493346624    0.0000000000
     1        2      -0.3317765654    0.0000000000
     1        3       0.5702199263    0.0000000000
     2        1      -0.3317765654    0.0000000000
     2        2       1.7214319922    0.0000000000
     2        3       0.6906074278    0.0000000000
     3        1       0.5702199263    0.0000000000
     3        2       0.6906074278    0.0000000000
     3        3       2.4947401080    0.0000000000

 respfn : d/dk was computed, but no 2DTE, so no DDB output.

== END DATASET(S) ==============================================================

 -outvars: echo values of variables after computation  --------
            acell      1.0000000000E+00  1.0000000000E+00  1.0000000000E+00 Bohr
              amu      3.90983000E+01  1.21753000E+02  3.20660000E+01
             ecut      4.20000000E+01 Hartree
           etotal     -3.4045781324E+01
            fcart      0.0000000000E+00  0.0000000000E+00  0.0000000000E+00
                       0.0000000000E+00  0.0000000000E+00  0.0000000000E+00
                       0.0000000000E+00  0.0000000000E+00  0.0000000000E+00
                       0.0000000000E+00  0.0000000000E+00  0.0000000000E+00
                       0.0000000000E+00  0.0000000000E+00  0.0000000000E+00
                       0.0000000000E+00  0.0000000000E+00  0.0000000000E+00
                       0.0000000000E+00  0.0000000000E+00  0.0000000000E+00
                       0.0000000000E+00  0.0000000000E+00  0.0000000000E+00
-          fftalg         512
           irdden           1
           irdwfk           1
              ixc     -116133
              kpt      5.00000000E-01 -5.00000000E-01  0.00000000E+00
                       5.20919619E-01  5.20919619E-01  3.00370468E-01
           kptopt           0
P           mkmem           2
P          mkqmem           2
P          mk1mem           2
            natom           8
            nband          45
           nbdbuf           4
            ngfft          72      72      80
             nkpt           2
            nstep        2000
             nsym           4
           ntypat           3
              occ      2.000000  2.000000  2.000000  2.000000  2.000000  2.000000
                       2.000000  2.000000  2.000000  2.000000  2.000000  2.000000
                       2.000000  2.000000  2.000000  2.000000  2.000000  2.000000
                       2.000000  2.000000  2.000000  2.000000  2.000000  2.000000
                       2.000000  2.000000  2.000000  2.000000  2.000000  2.000000
                       2.000000  2.000000  2.000000  2.000000  2.000000  2.000000
                       0.000000  0.000000  0.000000  0.000000  0.000000  0.000000
                       0.000000  0.000000  0.000000
        optdriver           1
            prtwf          -1
            rfdir           1       1       1
           rfelfd           2
            rprim      1.1018104035E+01  0.0000000000E+00  4.3403854840E+00
                      -2.0851762240E+00  1.0818995177E+01  4.3403854840E+00
                       0.0000000000E+00  0.0000000000E+00  1.2974107517E+01
          spgroup          15
           strten      0.0000000000E+00  0.0000000000E+00  0.0000000000E+00
                       0.0000000000E+00  0.0000000000E+00  0.0000000000E+00
           symrel      1  0  0   0  1  0   0  0  1      -1  0  0   0 -1  0   0  0 -1
                       0 -1  0  -1  0  0   0  0 -1       0  1  0   1  0  0   0  0  1
            tnons      0.0000000  0.0000000  0.0000000     0.0000000  0.0000000  0.0000000
                       0.0000000  0.0000000  0.5000000     0.0000000 -0.0000000  0.5000000
           tolwfr      1.00000000E-20
            typat      1  1  2  2  3  3  3  3
           useylm           1
              wtk        0.50000    0.50000
           xangst     -1.2059476215E-01  4.9136692355E+00  7.4460345746E+00
                       4.8476965658E+00  8.1149643205E-01  4.0132335746E+00
                       1.7189910358E+00  3.3947770587E+00  4.0132335746E+00
                       3.0081107678E+00  2.3303886088E+00  7.4460345746E+00
                       1.9267420822E+00  1.2399792809E+00  2.8644788595E+00
                       3.8741662123E+00  3.5985757810E+00  5.1619882898E+00
                       8.5293559135E-01  2.1265898866E+00  6.2972798595E+00
                       2.8003597214E+00  4.4851863866E+00  8.5947892898E+00
            xcart     -2.2789107351E-01  9.2854891627E+00  1.4070966122E+01
                       9.1608188846E+00  1.5335060144E+00  7.5839123633E+00
                       3.2484222825E+00  6.4151989232E+00  7.5839123633E+00
                       5.6845055286E+00  4.4037962539E+00  1.4070966122E+01
                       3.6410148641E+00  2.3432212514E+00  5.4130805579E+00
                       7.3211131345E+00  6.8003226945E+00  9.7547441688E+00
                       1.6118146766E+00  4.0186724826E+00  1.1900134317E+01
                       5.2919129470E+00  8.4757739257E+00  1.6241797928E+01
             xred      1.4174200000E-01  8.5825800000E-01  7.5000000000E-01
                       8.5825800000E-01  1.4174200000E-01  2.5000000000E-01
                       4.0704300000E-01  5.9295700000E-01  2.5000000000E-01
                       5.9295700000E-01  4.0704300000E-01  7.5000000000E-01
                       3.7144600000E-01  2.1658400000E-01  2.2050100000E-01
                       7.8341600000E-01  6.2855400000E-01  2.7949900000E-01
                       2.1658400000E-01  3.7144600000E-01  7.2050100000E-01
                       6.2855400000E-01  7.8341600000E-01  7.7949900000E-01
            znucl       19.00000   51.00000   16.00000

- Timing analysis has been suppressed with timopt=0

 Suggested references for the acknowledgment of ABINIT usage.

 Calculation completed.
.Delivered  14 WARNINGs and   9 COMMENTs to log file.