.Version 9.5.1 of ABINIT

 ABINIT is a project of the Universite Catholique de Louvain,
 Corning Inc. and other collaborators, see ~abinit/doc/developers/contributors.txt .
 acknowledgments of the ABINIT effort.

.Starting date : Tue 27 Apr 2021.
- ( at 18h45 )

- input  file    -> /scratch/users/j/a/jabreu/flow_simple_4atoms/flow/w250/t1/run.abi
- output file    -> /scratch/users/j/a/jabreu/flow_simple_4atoms/flow/w250/t1/run.abo
- root for input  files -> /scratch/users/j/a/jabreu/flow_simple_4atoms/flow/w250/t1/indata/in
- root for output files -> /scratch/users/j/a/jabreu/flow_simple_4atoms/flow/w250/t1/outdata/out

 Symmetries : space group Fm -3 m (#225); Bravais cF (face-center cubic)
     intxc =       0      iscf =       7    lmnmax =      32     lnmax =       8
     mgfft =      72  mpssoang =       4    mqgrid =    3001     natom =       4
  nloc_mem =       1    nspden =       1   nspinor =       1    nsppol =       1
      nsym =      48    n1xccc =    2501    ntypat =       2    occopt =       1
   xclevel =       2
-    mband =          30        mffmem =           1         mkmem =           2
-   mkqmem =           2        mk1mem =           2           mpw =       16145
      nfft =      373248          nkpt =           2
  Rough estimation (10% accuracy) of disk space for files :

------------- Echo of variables that govern the present computation ------------
-
- outvars: echo of selected default values
-   iomode0 =  0 , fftalg0 =512 , wfoptalg0 =  0
-
- outvars: echo of global parameters not present in the input file
-  max_nthreads =    0
-
 -outvars: echo values of preprocessed input variables --------
            acell      1.0000000000E+00  1.0000000000E+00  1.0000000000E+00 Bohr
              amu      1.32905430E+02  1.21753000E+02
             ecut      4.20000000E+01 Hartree
-          fftalg         512
           irdden           1
           irdwfk           1
           istwfk        1    1
              ixc     -116133
              kpt      5.00000000E-01 -2.46519033E-32  5.00000000E-01
                       0.00000000E+00  0.00000000E+00  0.00000000E+00
           kptopt           0
P           mkmem           2
P          mkqmem           2
P          mk1mem           2
            natom           4
            nband          30
           nbdbuf           4
            ngfft          72      72      72
             nkpt           2
            nstep         100
             nsym          48
           ntypat           2
              occ      2.000000  2.000000  2.000000  2.000000  2.000000  2.000000
                       2.000000  2.000000  2.000000  2.000000  2.000000  2.000000
                       2.000000  2.000000  2.000000  2.000000  2.000000  2.000000
                       2.000000  2.000000  2.000000  0.000000  0.000000  0.000000
                       0.000000  0.000000  0.000000  0.000000  0.000000  0.000000
        optdriver           1
            prtwf          -1
            rfdir           1       1       1
           rfelfd           2
            rprim      1.0442805153E+01  0.0000000000E+00  6.0291563663E+00
                       3.4809350511E+00  9.8455711179E+00  6.0291563663E+00
                       0.0000000000E+00  0.0000000000E+00  1.2058312732E+01
          spgroup         225
           symrel      1  0  0   0  1  0   0  0  1      -1  0  0   0 -1  0   0  0 -1
                       0 -1  1   0 -1  0   1 -1  0       0  1 -1   0  1  0  -1  1  0
                      -1  0  0  -1  0  1  -1  1  0       1  0  0   1  0 -1   1 -1  0
                       0  1 -1   1  0 -1   0  0 -1       0 -1  1  -1  0  1   0  0  1
                      -1  0  0  -1  1  0  -1  0  1       1  0  0   1 -1  0   1  0 -1
                       0 -1  1   1 -1  0   0 -1  0       0  1 -1  -1  1  0   0  1  0
                       1  0  0   0  0  1   0  1  0      -1  0  0   0  0 -1   0 -1  0
                       0  1 -1   0  0 -1   1  0 -1       0 -1  1   0  0  1  -1  0  1
                      -1  0  1  -1  1  0  -1  0  0       1  0 -1   1 -1  0   1  0  0
                       0 -1  0   1 -1  0   0 -1  1       0  1  0  -1  1  0   0  1 -1
                       1  0 -1   0  0 -1   0  1 -1      -1  0  1   0  0  1   0 -1  1
                       0  1  0   0  0  1   1  0  0       0 -1  0   0  0 -1  -1  0  0
                       1  0 -1   0  1 -1   0  0 -1      -1  0  1   0 -1  1   0  0  1
                       0 -1  0   0 -1  1   1 -1  0       0  1  0   0  1 -1  -1  1  0
                      -1  0  1  -1  0  0  -1  1  0       1  0 -1   1  0  0   1 -1  0
                       0  1  0   1  0  0   0  0  1       0 -1  0  -1  0  0   0  0 -1
                       0  0 -1   0  1 -1   1  0 -1       0  0  1   0 -1  1  -1  0  1
                       1 -1  0   0 -1  1   0 -1  0      -1  1  0   0  1 -1   0  1  0
                       0  0  1   1  0  0   0  1  0       0  0 -1  -1  0  0   0 -1  0
                      -1  1  0  -1  0  0  -1  0  1       1 -1  0   1  0  0   1  0 -1
                       0  0  1   0  1  0   1  0  0       0  0 -1   0 -1  0  -1  0  0
                       1 -1  0   0 -1  0   0 -1  1      -1  1  0   0  1  0   0  1 -1
                       0  0 -1   1  0 -1   0  1 -1       0  0  1  -1  0  1   0 -1  1
                      -1  1  0  -1  0  1  -1  0  0       1 -1  0   1  0 -1   1  0  0
           tolwfr      1.00000000E-20
            typat      1  1  1  2
           useylm           1
              wtk        0.50000    0.50000
           xangst      1.8420314936E+00  1.3025129603E+00  3.1904921361E+00
                       5.5260944808E+00  3.9075388809E+00  9.5714764082E+00
                       3.6840629872E+00  2.6050259206E+00  6.3809842721E+00
                       0.0000000000E+00  0.0000000000E+00  0.0000000000E+00
            xcart      3.4809350511E+00  2.4613927795E+00  6.0291563663E+00
                       1.0442805153E+01  7.3841783384E+00  1.8087469099E+01
                       6.9618701021E+00  4.9227855590E+00  1.2058312733E+01
                       0.0000000000E+00  0.0000000000E+00  0.0000000000E+00
             xred      2.5000000000E-01  2.5000000000E-01  2.5000000000E-01
                       7.5000000000E-01  7.5000000000E-01  7.5000000000E-01
                       5.0000000000E-01  5.0000000000E-01  5.0000000000E-01
                       0.0000000000E+00  0.0000000000E+00  0.0000000000E+00
            znucl       55.00000   51.00000

 chkinp: Checking input parameters for consistency.

== DATASET  1 ==================================================================
-   mpi_nproc: 1, omp_nthreads: -1 (-1 if OMP is not activated)

--- !DatasetInfo
iteration_state: {dtset: 1, }
dimensions: {natom: 4, nkpt: 2, mband: 30, nsppol: 1, nspinor: 1, nspden: 1, mpw: 16145, }
cutoff_energies: {ecut:  42.0, pawecutdg:  -1.0, }
electrons: {nelect:   4.20000000E+01, charge:   0.00000000E+00, occopt:   1.00000000E+00, tsmear:   1.00000000E-02, }
meta: {optdriver: 1, rfelfd: 2, }
...

 Real(R)+Recip(G) space primitive vectors, cartesian coordinates (Bohr,Bohr^-1):
 R(1)= 10.4428052  0.0000000  6.0291564  G(1)=  0.0957597 -0.0338562  0.0000000
 R(2)=  3.4809351  9.8455711  6.0291564  G(2)=  0.0000000  0.1015685  0.0000000
 R(3)=  0.0000000  0.0000000 12.0583127  G(3)= -0.0478799 -0.0338562  0.0829303
 Unit cell volume ucvol=  1.2397800E+03 bohr^3
 Angles (23,13,12)=  6.00000000E+01  6.00000000E+01  6.00000000E+01 degrees

 getcut: wavevector=  0.0000  0.0000  0.0000  ngfft=  72  72  72
         ecut(hartree)=     42.000   => boxcut(ratio)=   2.04671

--- Pseudopotential description ------------------------------------------------
- pspini: atom type   1  psp file is /scratch/users/j/a/jabreu/pseudos/PBEsol/Cs.psp8
- pspatm: opening atomic psp file    /scratch/users/j/a/jabreu/pseudos/PBEsol/Cs.psp8
- Cs    ONCVPSP-3.3.0  r_core=   2.27353   1.85623   2.01788   1.90105
- 55.00000   9.00000    180112                znucl, zion, pspdat
    8 -116133    3    4       600   0.00000   pspcod,pspxc,lmax,lloc,mmax,r2well
    5.99000000000000    5.00000000000000    0.00000000000000   rchrg,fchrg,qchrg
     nproj     2     2     2     2
     extension_switch     1
  pspatm : epsatm=   22.12462445
         --- l  ekb(1:nproj) -->
             0    6.214110    0.767882
             1    6.311966    0.793598
             2    3.769790    0.913105
             3   -9.247129   -2.432478
 pspatm: atomic psp has been read  and splines computed

- pspini: atom type   2  psp file is /scratch/users/j/a/jabreu/pseudos/PBEsol/Sb.psp8
- pspatm: opening atomic psp file    /scratch/users/j/a/jabreu/pseudos/PBEsol/Sb.psp8
- Sb    ONCVPSP-3.3.0  r_core=   1.81962   2.12485   1.81962
- 51.00000  15.00000    180112                znucl, zion, pspdat
    8 -116133    2    4       600   0.00000   pspcod,pspxc,lmax,lloc,mmax,r2well
    5.99000000000000    5.00000000000000    0.00000000000000   rchrg,fchrg,qchrg
     nproj     2     2     2
     extension_switch     1
  pspatm : epsatm=   26.35641246
         --- l  ekb(1:nproj) -->
             0    9.727814    1.485032
             1    5.505335    0.704623
             2   -4.710637   -1.436443
 pspatm: atomic psp has been read  and splines computed

   3.89467200E+03                                ecore*ucvol(ha*bohr**3)

-inwffil : will read wavefunctions from disk file /scratch/users/j/a/jabreu/flow_simple_4atoms/flow/w250/t1/indata/in_WFK

 ==>  initialize data related to q vector <==

 The list of irreducible perturbations for this q vector is:
    1)    idir= 1    ipert=   5
    2)    idir= 2    ipert=   5
    3)    idir= 3    ipert=   5

 Perturbation wavevector (in red.coord.)   0.000000  0.000000  0.000000
 Perturbation : derivative vs k along direction   1

 dfpt_looppert : COMMENT -
  In a d/dk calculation, iscf is set to -3 automatically.
 The set of symmetries contains only one element for this perturbation.
 symkpt : not enough symmetry to change the number of k points.

[...]

 Initialisation of the first-order wave-functions :
  ireadwf=   0

--- !BeginCycle
iteration_state: {dtset: 1, }
solver: {iscf: 7, nstep: 100, nline: 4, wfoptalg: 0, }
tolerances: {tolwfr: 1.00E-20, }
...

     iter   2DEtotal(Ha)        deltaE(Ha) residm    vres2
-ETOT  1  -28.817507814351     -2.882E+01 2.224E-02 0.000E+00
 ETOT  2  -28.843463240596     -2.596E-02 7.257E-04 0.000E+00
 ETOT  3  -28.844681162322     -1.218E-03 1.609E-04 0.000E+00
 ETOT  4  -28.844838091989     -1.569E-04 2.294E-05 0.000E+00
 ETOT  5  -28.844860957482     -2.287E-05 6.485E-06 0.000E+00
 ETOT  6  -28.844864504524     -3.547E-06 1.075E-06 0.000E+00
 ETOT  7  -28.844865071146     -5.666E-07 3.089E-07 0.000E+00
 ETOT  8  -28.844865163601     -9.245E-08 5.241E-08 0.000E+00
 ETOT  9  -28.844865178879     -1.528E-08 1.509E-08 0.000E+00
 ETOT 10  -28.844865181428     -2.549E-09 2.604E-09 0.000E+00
 ETOT 11  -28.844865181856     -4.285E-10 7.467E-10 0.000E+00
 ETOT 12  -28.844865181929     -7.237E-11 1.315E-10 0.000E+00
 ETOT 13  -28.844865181941     -1.231E-11 3.737E-11 0.000E+00
 ETOT 14  -28.844865181943     -2.110E-12 6.739E-12 0.000E+00
 ETOT 15  -28.844865181943     -3.482E-13 1.889E-12 0.000E+00
[...]
  -0.00000    0.00000    0.00000    0.00000    0.00000    0.00000    0.00000   -0.00000
  -0.00000   -0.00000    0.00000   -0.00000   -0.00000   -0.00000   -0.00000   -0.00000
   0.00000    0.00000   -0.00000   -0.00000   -0.00000   -0.00000    0.00000   -0.00000
   0.00000    0.00000    0.00000    0.00000   -0.00007   -0.00000
 prteigrs : prtvol=0 or 1, do not print more k-points.

 Eight components of 2nd-order total energy (hartree) are
 1,2,3: 0th-order hamiltonian combined with 1st-order wavefunctions
     kin0=   2.81501103E+01 eigvalue=   2.97274303E+00  local=  -1.79883607E+01
 4,5,6: 1st-order hamiltonian combined with 1st and 0th-order wfs
     kin1=  -3.97560808E+01  Hartree=   0.00000000E+00     xc=   0.00000000E+00
 7,8,9: eventually, occupation + non-local contributions
    edocc=   9.71944735E+00     enl0=   5.99092522E+00   enl1=  -1.79336496E+01
 1-9 gives the relaxation energy (to be shifted if some occ is /=2.0)
   erelax=  -2.88448652E+01
  No Ewald or frozen-wf contrib.: the relaxation energy is the total one
 2DEtotal=   -0.2884486518E+02 Ha. Also 2DEtotal=   -0.784908698856E+03 eV
    (  non-var. 2DEtotal :   -2.8844865182E+01 Ha)

 Perturbation wavevector (in red.coord.)   0.000000  0.000000  0.000000
 Perturbation : derivative vs k along direction   2
 The set of symmetries contains only one element for this perturbation.
 symkpt : not enough symmetry to change the number of k points.

[...]

 Perturbation wavevector (in red.coord.)   0.000000  0.000000  0.000000
 Perturbation : derivative vs k along direction   3
 The set of symmetries contains only one element for this perturbation.
 symkpt : not enough symmetry to change the number of k points.

-inwffil : will read wavefunctions from disk file /scratch/users/j/a/jabreu/flow_simple_4atoms/flow/w250/t1/indata/in_WFK

 Initialisation of the first-order wave-functions :
  ireadwf=   0

--- !BeginCycle
iteration_state: {dtset: 1, }
solver: {iscf: 7, nstep: 100, nline: 4, wfoptalg: 0, }
tolerances: {tolwfr: 1.00E-20, }
...

     iter   2DEtotal(Ha)        deltaE(Ha) residm    vres2
-ETOT  1  -28.815435519337     -2.882E+01 2.236E-02 0.000E+00
 ETOT  2  -28.843426921530     -2.799E-02 1.794E-03 0.000E+00
 ETOT  3  -28.844673314591     -1.246E-03 1.594E-04 0.000E+00
 ETOT  4  -28.844834777425     -1.615E-04 2.142E-05 0.000E+00
 ETOT  5  -28.844858719329     -2.394E-05 6.266E-06 0.000E+00
 ETOT  6  -28.844862471865     -3.753E-06 9.859E-07 0.000E+00
 ETOT  7  -28.844863077535     -6.057E-07 2.911E-07 0.000E+00
 ETOT  8  -28.844863177373     -9.984E-08 4.686E-08 0.000E+00
 ETOT  9  -28.844863194041     -1.667E-08 1.387E-08 0.000E+00
 ETOT 10  -28.844863196851     -2.810E-09 2.267E-09 0.000E+00
 ETOT 11  -28.844863197328     -4.772E-10 6.696E-10 0.000E+00
 ETOT 12  -28.844863197410     -8.147E-11 1.115E-10 0.000E+00
 ETOT 13  -28.844863197424     -1.394E-11 3.272E-11 0.000E+00
 ETOT 14  -28.844863197426     -2.419E-12 5.571E-12 0.000E+00
 ETOT 15  -28.844863197426     -3.801E-13 1.615E-12 0.000E+00
 ETOT 16  -28.844863197426     -6.750E-14 2.819E-13 0.000E+00
 ETOT 17  -28.844863197426     -2.132E-14 8.049E-14 0.000E+00
 ETOT 18  -28.844863197426      1.776E-14 1.442E-14 0.000E+00
 ETOT 19  -28.844863197427     -2.487E-14 4.040E-15 0.000E+00
 ETOT 20  -28.844863197427     -1.776E-14 7.438E-16 0.000E+00
 ETOT 21  -28.844863197427      1.421E-14 2.040E-16 0.000E+00
 ETOT 22  -28.844863197426      7.105E-15 3.860E-17 0.000E+00
 ETOT 23  -28.844863197426      1.776E-14 1.035E-17 0.000E+00
 ETOT 24  -28.844863197427     -2.487E-14 2.012E-18 0.000E+00
 ETOT 25  -28.844863197427      0.000E+00 5.268E-19 0.000E+00
 ETOT 26  -28.844863197427     -3.553E-15 1.052E-19 0.000E+00
 ETOT 27  -28.844863197427      7.105E-15 2.690E-20 0.000E+00
 ETOT 28  -28.844863197427     -3.553E-15 9.955E-21 0.000E+00

 At SCF step   28   max residual=  9.95E-21 < tolwfr=  1.00E-20 =>converged.

 ----iterations are completed or convergence reached----

 dfpt_looppert: DFPT cycle converged with prtwf=-1. Will skip output of the 1st-order WFK file.
 dfpt_looppert : ek2=    3.4210324653E+01
          f-sum rule ratio=    1.1621070218E+00
 prteigrs : about to open file /scratch/users/j/a/jabreu/flow_simple_4atoms/flow/w250/t1/tmpdata/tmp_1WF1_EIG
 Expectation of eigenvalue derivatives (hartree) for nkpt=   2  k points:
  (in case of degenerate eigenvalues, averaged derivative)
 kpt#   1, nband= 30, wtk=  0.50000, kpt=  0.5000  0.0000  0.5000 (reduced coord)
   0.00000    0.00000    0.00000    0.00000    0.00000   -0.00000   -0.00000    0.00000
   0.00000    0.00000   -0.00000   -0.00000    0.00000    0.00000    0.00000    0.00000
   0.00000   -0.00000   -0.00000   -0.00000   -0.00000    0.00000    0.00000    0.00000
  -0.00000   -0.00000   -0.00000   -0.00000   -0.00019    0.00000
 prteigrs : prtvol=0 or 1, do not print more k-points.

 Eight components of 2nd-order total energy (hartree) are
 1,2,3: 0th-order hamiltonian combined with 1st-order wavefunctions
     kin0=   2.81572738E+01 eigvalue=   2.97483524E+00  local=  -1.79989769E+01
 4,5,6: 1st-order hamiltonian combined with 1st and 0th-order wfs
     kin1=  -3.97560585E+01  Hartree=   0.00000000E+00     xc=   0.00000000E+00
 7,8,9: eventually, occupation + non-local contributions
    edocc=   9.71376866E+00     enl0=   5.99796235E+00   enl1=  -1.79336679E+01
 1-9 gives the relaxation energy (to be shifted if some occ is /=2.0)
   erelax=  -2.88448632E+01
  No Ewald or frozen-wf contrib.: the relaxation energy is the total one
 2DEtotal=   -0.2884486320E+02 Ha. Also 2DEtotal=   -0.784908644854E+03 eV
    (  non-var. 2DEtotal :   -2.8844863197E+01 Ha)

 CALCULATION OF EFFECTIVE MASSES
 NOTE : Additional infos (eff. mass eigenvalues, eigenvectors and, if degenerate, average mass) are available in stdout.

 COMMENTS:
 - At k-point ( 0.500,-0.000, 0.500), bands    20 through    21
   are DEGENERATE (effective mass tensor is therefore not defined).
   See Section IIIB Eqs. (67)-(70) and Appendix E of PRB 93 205147 (2016).
 - Angular average effective mass for Frohlich model is to be averaged over degenerate bands. See later.
 - Associated theta integrals calculated with ntheta=   1000 points.

 K-point ( 0.500,-0.000, 0.500) | band =    20
 Transport equivalent effective mass tensor:
             -0.5532908076              0.2391398184             -0.2928852664
              0.2391398184             -0.7223881750              0.4142023004
             -0.2928852664              0.4142023004             -0.8914855658
 Transport equivalent effective mass tensor eigenvalues:
             -1.3987777168             -0.3841934179             -0.3841934137
 Angular average effective mass 1/(<1/m>)=  -0.5065874043
 Angular average effective mass for Frohlich model (<m**0.5>)**2=  -0.5500434236
 Effective masses along directions: (cart. coord. / red. coord. -> eff. mass)
    1:   1.000000  0.000000  0.000000 /   0.948683  0.316228  0.000000 ->  -0.4379730862
    2:   0.000000  1.000000  0.000000 /   0.000000  1.000000  0.000000 ->  -0.5107789244
    3:   0.000000  0.000000  1.000000 /   0.408248  0.408248  0.816497 ->  -0.5983690509
    4:   0.577350  0.577350  0.577350 /   0.585539  0.688047  0.428644 ->  -0.4153338875
    5:   0.000000  0.707107  0.707107 /   0.289489  0.762222  0.578977 ->  -0.3868620549
    6:   0.707107  0.000000  0.707107 /   0.731423  0.422287  0.535439 ->  -0.6990593515
    7:   0.707107  0.707107  0.000000 /   0.616798  0.787122  0.000000 ->  -0.3850146896

 K-point ( 0.500,-0.000, 0.500) | band =    21
 Transport equivalent effective mass tensor:
             -0.8729644557              0.1491263814             -0.1826417759
              0.1491263814             -0.9784127276              0.2582944864
             -0.1826417759              0.2582944864             -1.0838610231
 Transport equivalent effective mass tensor eigenvalues:
             -1.4002058572             -0.7675161814             -0.7675161678
 Angular average effective mass 1/(<1/m>)=  -0.9027489445
 Angular average effective mass for Frohlich model (<m**0.5>)**2=  -0.9222198123
 Effective masses along directions: (cart. coord. / red. coord. -> eff. mass)
    1:   1.000000  0.000000  0.000000 /   0.948683  0.316228  0.000000 ->  -0.8255400455
    2:   0.000000  1.000000  0.000000 /   0.000000  1.000000  0.000000 ->  -0.8897378403
    3:   0.000000  0.000000  1.000000 /   0.408248  0.408248  0.816497 ->  -1.0023471431
    4:   0.577350  0.577350  0.577350 /   0.585539  0.688047  0.428644 ->  -0.7931942438
    5:   0.000000  0.707107  0.707107 /   0.289489  0.762222  0.578977 ->  -0.7682423745
    6:   0.707107  0.000000  0.707107 /   0.731423  0.422287  0.535439 ->  -1.0682108596
    7:   0.707107  0.707107  0.000000 /   0.616798  0.787122  0.000000 ->  -0.7844947000

 Angular average effective mass for Frohlich model, averaged over degenerate bands.
 Value of     (<<m**0.5>>)**2 =     7.241771E-01
 Absolute Value of <<m**0.5>> =     8.509859E-01

 K-point ( 0.000, 0.000, 0.000) | band =    22
 Effective mass tensor:
              0.1585808785              0.0000000008             -0.0000000015
              0.0000000008              0.1585808742              0.0000000028
             -0.0000000015              0.0000000028              0.1585808763
 Effective mass tensor eigenvalues:
              0.1585808718              0.1585808777              0.1585808793
 Angular average effective mass 1/(<1/m>)=   0.1585808763
 Angular average effective mass for Frohlich model (<m**0.5>)**2=   0.1585808763
 Effective masses along directions: (cart. coord. / red. coord. -> eff. mass)
    1:   1.000000  0.000000  0.000000 /   0.948683  0.316228  0.000000 ->   0.1585808785
    2:   0.000000  1.000000  0.000000 /   0.000000  1.000000  0.000000 ->   0.1585808742
    3:   0.000000  0.000000  1.000000 /   0.408248  0.408248  0.816497 ->   0.1585808763
    4:   0.577350  0.577350  0.577350 /   0.585539  0.688047  0.428644 ->   0.1585808777
    5:   0.000000  0.707107  0.707107 /   0.289489  0.762222  0.578977 ->   0.1585808780
    6:   0.707107  0.000000  0.707107 /   0.731423  0.422287  0.535439 ->   0.1585808759
    7:   0.707107  0.707107  0.000000 /   0.616798  0.787122  0.000000 ->   0.1585808771

 END OF EFFECTIVE MASSES SECTION

 ---- first-order wavefunction calculations are completed ----

 Total localisation tensor (bohr^2) in cartesian coordinates
  WARNING : still subject to testing - especially symmetries.
      direction              matrix element
   alpha     beta       real part   imaginary part
     1        1       4.2123475481    0.0000000000
     1        2       1.1914324159    0.0000000000
     1        3       2.9184002378    0.0000000000
     2        1       1.1914324159    0.0000000000
     2        2       3.3698797624    0.0000000000
     2        3       2.0636214781    0.0000000000
     3        1       2.9184002378    0.0000000000
     3        2       2.0636214781    0.0000000000
     3        3       7.5822238768    0.0000000000

 respfn : d/dk was computed, but no 2DTE, so no DDB output.

== END DATASET(S) ==============================================================

 -outvars: echo values of variables after computation  --------
            acell      1.0000000000E+00  1.0000000000E+00  1.0000000000E+00 Bohr
              amu      1.32905430E+02  1.21753000E+02
             ecut      4.20000000E+01 Hartree
           etotal     -2.8844863197E+01
            fcart      0.0000000000E+00  0.0000000000E+00  0.0000000000E+00
                       0.0000000000E+00  0.0000000000E+00  0.0000000000E+00
                       0.0000000000E+00  0.0000000000E+00  0.0000000000E+00
                       0.0000000000E+00  0.0000000000E+00  0.0000000000E+00
-          fftalg         512
           irdden           1
           irdwfk           1
           istwfk        1    1
              ixc     -116133
              kpt      5.00000000E-01 -2.46519033E-32  5.00000000E-01
                       0.00000000E+00  0.00000000E+00  0.00000000E+00
           kptopt           0
P           mkmem           2
P          mkqmem           2
P          mk1mem           2
            natom           4
            nband          30
           nbdbuf           4
            ngfft          72      72      72
             nkpt           2
            nstep         100
             nsym          48
           ntypat           2
              occ      2.000000  2.000000  2.000000  2.000000  2.000000  2.000000
                       2.000000  2.000000  2.000000  2.000000  2.000000  2.000000
                       2.000000  2.000000  2.000000  2.000000  2.000000  2.000000
                       2.000000  2.000000  2.000000  0.000000  0.000000  0.000000
                       0.000000  0.000000  0.000000  0.000000  0.000000  0.000000
        optdriver           1
            prtwf          -1
            rfdir           1       1       1
           rfelfd           2
            rprim      1.0442805153E+01  0.0000000000E+00  6.0291563663E+00
                       3.4809350511E+00  9.8455711179E+00  6.0291563663E+00
                       0.0000000000E+00  0.0000000000E+00  1.2058312732E+01
          spgroup         225
           strten      0.0000000000E+00  0.0000000000E+00  0.0000000000E+00
                       0.0000000000E+00  0.0000000000E+00  0.0000000000E+00
           symrel      1  0  0   0  1  0   0  0  1      -1  0  0   0 -1  0   0  0 -1
                       0 -1  1   0 -1  0   1 -1  0       0  1 -1   0  1  0  -1  1  0
                      -1  0  0  -1  0  1  -1  1  0       1  0  0   1  0 -1   1 -1  0
                       0  1 -1   1  0 -1   0  0 -1       0 -1  1  -1  0  1   0  0  1
                      -1  0  0  -1  1  0  -1  0  1       1  0  0   1 -1  0   1  0 -1
                       0 -1  1   1 -1  0   0 -1  0       0  1 -1  -1  1  0   0  1  0
                       1  0  0   0  0  1   0  1  0      -1  0  0   0  0 -1   0 -1  0
                       0  1 -1   0  0 -1   1  0 -1       0 -1  1   0  0  1  -1  0  1
                      -1  0  1  -1  1  0  -1  0  0       1  0 -1   1 -1  0   1  0  0
                       0 -1  0   1 -1  0   0 -1  1       0  1  0  -1  1  0   0  1 -1
                       1  0 -1   0  0 -1   0  1 -1      -1  0  1   0  0  1   0 -1  1
                       0  1  0   0  0  1   1  0  0       0 -1  0   0  0 -1  -1  0  0
                       1  0 -1   0  1 -1   0  0 -1      -1  0  1   0 -1  1   0  0  1
                       0 -1  0   0 -1  1   1 -1  0       0  1  0   0  1 -1  -1  1  0
                      -1  0  1  -1  0  0  -1  1  0       1  0 -1   1  0  0   1 -1  0
                       0  1  0   1  0  0   0  0  1       0 -1  0  -1  0  0   0  0 -1
                       0  0 -1   0  1 -1   1  0 -1       0  0  1   0 -1  1  -1  0  1
                       1 -1  0   0 -1  1   0 -1  0      -1  1  0   0  1 -1   0  1  0
                       0  0  1   1  0  0   0  1  0       0  0 -1  -1  0  0   0 -1  0
                      -1  1  0  -1  0  0  -1  0  1       1 -1  0   1  0  0   1  0 -1
                       0  0  1   0  1  0   1  0  0       0  0 -1   0 -1  0  -1  0  0
                       1 -1  0   0 -1  0   0 -1  1      -1  1  0   0  1  0   0  1 -1
                       0  0 -1   1  0 -1   0  1 -1       0  0  1  -1  0  1   0 -1  1
                      -1  1  0  -1  0  1  -1  0  0       1 -1  0   1  0 -1   1  0  0
           tolwfr      1.00000000E-20
            typat      1  1  1  2
           useylm           1
              wtk        0.50000    0.50000
           xangst      1.8420314936E+00  1.3025129603E+00  3.1904921361E+00
                       5.5260944808E+00  3.9075388809E+00  9.5714764082E+00
                       3.6840629872E+00  2.6050259206E+00  6.3809842721E+00
                       0.0000000000E+00  0.0000000000E+00  0.0000000000E+00
            xcart      3.4809350511E+00  2.4613927795E+00  6.0291563663E+00
                       1.0442805153E+01  7.3841783384E+00  1.8087469099E+01
                       6.9618701021E+00  4.9227855590E+00  1.2058312733E+01
                       0.0000000000E+00  0.0000000000E+00  0.0000000000E+00
             xred      2.5000000000E-01  2.5000000000E-01  2.5000000000E-01
                       7.5000000000E-01  7.5000000000E-01  7.5000000000E-01
                       5.0000000000E-01  5.0000000000E-01  5.0000000000E-01
                       0.0000000000E+00  0.0000000000E+00  0.0000000000E+00
            znucl       55.00000   51.00000

- Timing analysis has been suppressed with timopt=0

 Suggested references for the acknowledgment of ABINIT usage.

 Calculation completed.
.Delivered  14 WARNINGs and   9 COMMENTs to log file.