.Version 9.5.2 of ABINIT

 ABINIT is a project of the Universite Catholique de Louvain,
 Corning Inc. and other collaborators, see ~abinit/doc/developers/contributors.txt .
 acknowledgments of the ABINIT effort.

.Starting date : Tue  1 Jun 2021.
- ( at 13h36 )

- input  file    -> /scratch/users/j/a/jabreu/flow_simple_11atoms/flow/w404/t1/run.abi
- output file    -> /scratch/users/j/a/jabreu/flow_simple_11atoms/flow/w404/t1/run.abo
- root for input  files -> /scratch/users/j/a/jabreu/flow_simple_11atoms/flow/w404/t1/indata/in
- root for output files -> /scratch/users/j/a/jabreu/flow_simple_11atoms/flow/w404/t1/outdata/out

 Symmetries : space group Cm c m (# 63); Bravais oC (1-face-center ortho.)
     intxc =       0      iscf =       7    lmnmax =      32     lnmax =       8
     mgfft =     125  mpssoang =       4    mqgrid =    6095     natom =      12
  nloc_mem =       1    nspden =       1   nspinor =       1    nsppol =       1
      nsym =       8    n1xccc =    2501    ntypat =       4    occopt =       1
   xclevel =       2
-    mband =          97        mffmem =           1         mkmem =           1
-   mkqmem =           1        mk1mem =           1           mpw =       33187
      nfft =     1152000          nkpt =           1
  Rough estimation (10% accuracy) of disk space for files :

------------- Echo of variables that govern the present computation ------------
-
- outvars: echo of selected default values
-   iomode0 =  0 , fftalg0 =512 , wfoptalg0 =  0
-
- outvars: echo of global parameters not present in the input file
-  max_nthreads =    0
-
 -outvars: echo values of preprocessed input variables --------
            acell      1.0000000000E+00  1.0000000000E+00  1.0000000000E+00 Bohr
              amu      1.32905430E+02  8.89058500E+01  2.00590000E+02
                       7.89600000E+01
             ecut      4.30000000E+01 Hartree
-          fftalg         512
           irdden           1
           irdwfk           1
           istwfk        1
              ixc     -116133
           kptopt           0
P           mkmem           1
P          mkqmem           1
P          mk1mem           1
            natom          12
            nband          97
           nbdbuf           4
            ngfft          96      96     125
             nkpt           1
            nstep        2000
             nsym           8
           ntypat           4
              occ      2.000000  2.000000  2.000000  2.000000  2.000000  2.000000
                       2.000000  2.000000  2.000000  2.000000  2.000000  2.000000
                       2.000000  2.000000  2.000000  2.000000  2.000000  2.000000
                       2.000000  2.000000  2.000000  2.000000  2.000000  2.000000
                       2.000000  2.000000  2.000000  2.000000  2.000000  2.000000
                       2.000000  2.000000  2.000000  2.000000  2.000000  2.000000
                       2.000000  2.000000  2.000000  2.000000  2.000000  2.000000
                       2.000000  2.000000  2.000000  2.000000  2.000000  2.000000
                       2.000000  2.000000  2.000000  2.000000  2.000000  2.000000
                       2.000000  2.000000  2.000000  2.000000  2.000000  2.000000
                       2.000000  2.000000  2.000000  2.000000  2.000000  2.000000
                       2.000000  2.000000  2.000000  2.000000  2.000000  2.000000
                       2.000000  2.000000  2.000000  2.000000  2.000000  2.000000
                       2.000000  2.000000  2.000000  2.000000  2.000000  2.000000
                       2.000000  2.000000  2.000000  2.000000  0.000000  0.000000
                       0.000000  0.000000  0.000000  0.000000  0.000000  0.000000
                       0.000000
        optdriver           1
            prtwf          -1
            rfdir           1       1       1
           rfelfd           2
            rprim      1.5501082702E+01  0.0000000000E+00  0.0000000000E+00
                      -1.3457542019E+01  7.6927321372E+00  0.0000000000E+00
                       0.0000000000E+00  0.0000000000E+00  2.0645111968E+01
          spgroup          63
           symrel      1  0  0   0  1  0   0  0  1      -1  0  0   0 -1  0   0  0 -1
                       0  1  0   1  0  0   0  0 -1       0 -1  0  -1  0  0   0  0  1
                      -1  0  0   0 -1  0   0  0  1       1  0  0   0  1  0   0  0 -1
                       0 -1  0  -1  0  0   0  0 -1       0  1  0   1  0  0   0  0  1
            tnons      0.0000000  0.0000000  0.0000000    -0.0000000 -0.0000000 -0.0000000
                       0.0000000  0.0000000 -0.0000000    -0.0000000 -0.0000000  0.0000000
                      -0.0000000 -0.0000000  0.5000000     0.0000000  0.0000000  0.5000000
                      -0.0000000 -0.0000000  0.5000000     0.0000000  0.0000000  0.5000000
           tolwfr      1.00000000E-20
            typat      1  1  2  2  3  3  4  4  4  4  4  4
           useylm           1
           xangst     -3.3514765573E+00  3.0693483133E+00  8.1936920417E+00
                       4.4328717115E+00  1.0014702054E+00  2.7312306806E+00
                       5.4069757708E-01  2.0354092594E+00  0.0000000000E+00
                       5.4069757708E-01  2.0354092594E+00  5.4624613611E+00
                       7.5248904353E+00  1.8008894045E-01  8.1936920417E+00
                      -6.4434952811E+00  3.8907295783E+00  2.7312306806E+00
                       1.5071057129E+00  1.7786871603E+00  8.1936920417E+00
                      -4.2571055878E-01  2.2921313585E+00  2.7312306806E+00
                      -5.2660110057E+00  3.5779360250E+00  5.0152714993E+00
                      -5.2660110057E+00  3.5779360250E+00  4.4718986179E-01
                       6.3474061599E+00  4.9288249380E-01  1.0477732860E+01
                       6.3474061599E+00  4.9288249380E-01  5.9096512229E+00
            xcart     -6.3333728341E+00  5.8002277187E+00  1.5483833976E+01
                       8.3769135169E+00  1.8925044185E+00  5.1612779920E+00
                       1.0217703414E+00  3.8463660686E+00  0.0000000000E+00
                       1.0217703414E+00  3.8463660686E+00  1.0322555984E+01
                       1.4219982103E+01  3.4031877702E-01  1.5483833976E+01
                      -1.2176441420E+01  7.3524133602E+00  5.1612779920E+00
                       2.8480170508E+00  3.3612316091E+00  1.5483833976E+01
                      -8.0447636797E-01  4.3315005281E+00  5.1612779920E+00
                      -9.9513186135E+00  6.7613192082E+00  9.4774896158E+00
                      -9.9513186135E+00  6.7613192082E+00  8.4506636819E-01
                       1.1994859296E+01  9.3141292898E-01  1.9800045600E+01
                       1.1994859296E+01  9.3141292898E-01  1.1167622352E+01
             xred      2.4601200000E-01  7.5398800000E-01  7.5000000000E-01
                       7.5398800000E-01  2.4601200000E-01  2.5000000000E-01
                       5.0000000000E-01  5.0000000000E-01  0.0000000000E+00
                       5.0000000000E-01  5.0000000000E-01  5.0000000000E-01
                       9.5576100000E-01  4.4239000000E-02  7.5000000000E-01
                       4.4239000000E-02  9.5576100000E-01  2.5000000000E-01
                       5.6306400000E-01  4.3693600000E-01  7.5000000000E-01
                       4.3693600000E-01  5.6306400000E-01  2.5000000000E-01
                       1.2107700000E-01  8.7892300000E-01  4.5906700000E-01
                       1.2107700000E-01  8.7892300000E-01  4.0933000000E-02
                       8.7892300000E-01  1.2107700000E-01  9.5906700000E-01
                       8.7892300000E-01  1.2107700000E-01  5.4093300000E-01
            znucl       55.00000   39.00000   80.00000   34.00000

 chkinp: Checking input parameters for consistency.

== DATASET  1 ==================================================================
-   mpi_nproc: 1, omp_nthreads: -1 (-1 if OMP is not activated)

--- !DatasetInfo
iteration_state: {dtset: 1, }
dimensions: {natom: 12, nkpt: 1, mband: 97, nsppol: 1, nspinor: 1, nspden: 1, mpw: 33187, }
cutoff_energies: {ecut:  43.0, pawecutdg:  -1.0, }
electrons: {nelect:   1.76000000E+02, charge:   0.00000000E+00, occopt:   1.00000000E+00, tsmear:   1.00000000E-02, }
meta: {optdriver: 1, rfelfd: 2, }
...

 Real(R)+Recip(G) space primitive vectors, cartesian coordinates (Bohr,Bohr^-1):
 R(1)= 15.5010827  0.0000000  0.0000000  G(1)=  0.0645116  0.1128556  0.0000000
 R(2)=-13.4575420  7.6927321  0.0000000  G(2)=  0.0000000  0.1299928  0.0000000
 R(3)=  0.0000000  0.0000000 20.6451120  G(3)=  0.0000000  0.0000000  0.0484376
 Unit cell volume ucvol=  2.4618404E+03 bohr^3
 Angles (23,13,12)=  9.00000000E+01  9.00000000E+01  1.50246428E+02 degrees

 getcut: wavevector=  0.0000  0.0000  0.0000  ngfft=  96  96 125
         ecut(hartree)=     43.000   => boxcut(ratio)=   2.03472

--- Pseudopotential description ------------------------------------------------
- pspini: atom type   1  psp file is /scratch/users/j/a/jabreu/pseudos/PBEsol/Cs.psp8
- pspatm: opening atomic psp file    /scratch/users/j/a/jabreu/pseudos/PBEsol/Cs.psp8
- Cs    ONCVPSP-3.3.0  r_core=   2.27353   1.85623   2.01788   1.90105
- 55.00000   9.00000    180112                znucl, zion, pspdat
    8 -116133    3    4       600   0.00000   pspcod,pspxc,lmax,lloc,mmax,r2well
    5.99000000000000    5.00000000000000    0.00000000000000   rchrg,fchrg,qchrg
     nproj     2     2     2     2
     extension_switch     1
  pspatm : epsatm=   22.12462445
         --- l  ekb(1:nproj) -->
             0    6.214110    0.767882
             1    6.311966    0.793598
             2    3.769790    0.913105
             3   -9.247129   -2.432478
 pspatm: atomic psp has been read  and splines computed

- pspini: atom type   2  psp file is /scratch/users/j/a/jabreu/pseudos/PBEsol/Y.psp8
- pspatm: opening atomic psp file    /scratch/users/j/a/jabreu/pseudos/PBEsol/Y.psp8
- Y     ONCVPSP-3.3.0  r_core=   1.60520   1.51226   1.56736
- 39.00000  11.00000    180112                znucl, zion, pspdat
    8 -116133    2    4       600   0.00000   pspcod,pspxc,lmax,lloc,mmax,r2well
    5.99000000000000    4.00000000000000    0.00000000000000   rchrg,fchrg,qchrg
     nproj     2     2     2
     extension_switch     1
  pspatm : epsatm=   18.54790046
         --- l  ekb(1:nproj) -->
             0   10.130768    0.866504
             1    5.598307    0.427135
             2    1.217602    0.315447
 pspatm: atomic psp has been read  and splines computed

[...]

- pspini: atom type   4  psp file is /scratch/users/j/a/jabreu/pseudos/PBEsol/Se.psp8
- pspatm: opening atomic psp file    /scratch/users/j/a/jabreu/pseudos/PBEsol/Se.psp8
- Se    ONCVPSP-3.3.0  r_core=   1.81943   1.50330   1.90835
- 34.00000  16.00000    180112                znucl, zion, pspdat
    8 -116133    2    4       600   0.00000   pspcod,pspxc,lmax,lloc,mmax,r2well
    5.99000000000000    5.00000000000000    0.00000000000000   rchrg,fchrg,qchrg
     nproj     2     2     2
     extension_switch     1
  pspatm : epsatm=   29.17862020
         --- l  ekb(1:nproj) -->
             0    8.973804    1.019550
[...]
   0.00001

 Eight components of 2nd-order total energy (hartree) are
 1,2,3: 0th-order hamiltonian combined with 1st-order wavefunctions
     kin0=   3.38585221E+02 eigvalue=   2.36915780E+01  local=  -1.80905722E+02
 4,5,6: 1st-order hamiltonian combined with 1st and 0th-order wfs
     kin1=  -2.71706325E+02  Hartree=   0.00000000E+00     xc=   0.00000000E+00
 7,8,9: eventually, occupation + non-local contributions
    edocc=   2.46318844E+01     enl0=   3.50614324E+01   enl1=  -2.10422460E+02
 1-9 gives the relaxation energy (to be shifted if some occ is /=2.0)
   erelax=  -2.41064393E+02
  No Ewald or frozen-wf contrib.: the relaxation energy is the total one
 2DEtotal=   -0.2410643927E+03 Ha. Also 2DEtotal=   -0.655969572430E+04 eV
    (  non-var. 2DEtotal :   -2.4106439268E+02 Ha)

 Perturbation wavevector (in red.coord.)   0.000000  0.000000  0.000000
 Perturbation : derivative vs k along direction   2
 The set of symmetries contains only one element for this perturbation.
 symkpt : not enough symmetry to change the number of k points.

[...]

 Perturbation wavevector (in red.coord.)   0.000000  0.000000  0.000000
 Perturbation : derivative vs k along direction   3
 The set of symmetries contains only one element for this perturbation.
 symkpt : not enough symmetry to change the number of k points.

 Initialisation of the first-order wave-functions :
  ireadwf=   0

--- !BeginCycle
iteration_state: {dtset: 1, }
solver: {iscf: 7, nstep: 2000, nline: 4, wfoptalg: 0, }
tolerances: {tolwfr: 1.00E-20, }
...

     iter   2DEtotal(Ha)        deltaE(Ha) residm    vres2
-ETOT  1  -31.617094844319     -3.162E+01 2.761E-02 0.000E+00
 ETOT  2  -31.668738189884     -5.164E-02 1.766E-03 0.000E+00
 ETOT  3  -31.669891638491     -1.153E-03 1.191E-04 0.000E+00
 ETOT  4  -31.669963379505     -7.174E-05 2.712E-05 0.000E+00
 ETOT  5  -31.669969348946     -5.969E-06 2.327E-06 0.000E+00
 ETOT  6  -31.669969960962     -6.120E-07 5.318E-07 0.000E+00
 ETOT  7  -31.669970033049     -7.209E-08 4.781E-08 0.000E+00
 ETOT  8  -31.669970042564     -9.515E-09 1.094E-08 0.000E+00
 ETOT  9  -31.669970043902     -1.338E-09 1.124E-09 0.000E+00
 ETOT 10  -31.669970044098     -1.963E-10 3.218E-10 0.000E+00
 ETOT 11  -31.669970044127     -2.916E-11 3.920E-11 0.000E+00
 ETOT 12  -31.669970044132     -4.327E-12 1.131E-11 0.000E+00
 ETOT 13  -31.669970044132     -6.892E-13 1.363E-12 0.000E+00
 ETOT 14  -31.669970044133     -9.948E-14 3.982E-13 0.000E+00
 ETOT 15  -31.669970044133     -1.421E-14 4.733E-14 0.000E+00
 ETOT 16  -31.669970044133     -1.421E-14 1.402E-14 0.000E+00
 ETOT 17  -31.669970044133      2.842E-14 1.645E-15 0.000E+00
 ETOT 18  -31.669970044132      2.842E-14 4.944E-16 0.000E+00
 ETOT 19  -31.669970044133     -2.842E-14 5.727E-17 0.000E+00
 ETOT 20  -31.669970044133     -1.421E-14 1.745E-17 0.000E+00
 ETOT 21  -31.669970044133     -3.553E-15 1.997E-18 0.000E+00
 ETOT 22  -31.669970044133      2.132E-14 6.173E-19 0.000E+00
 ETOT 23  -31.669970044133     -7.105E-15 6.976E-20 0.000E+00
 ETOT 24  -31.669970044133      7.105E-15 2.186E-20 0.000E+00
 ETOT 25  -31.669970044133     -1.066E-14 9.999E-21 0.000E+00

 At SCF step   25   max residual=  1.00E-20 < tolwfr=  1.00E-20 =>converged.

 ----iterations are completed or convergence reached----

 dfpt_looppert: DFPT cycle converged with prtwf=-1. Will skip output of the 1st-order WFK file.
 dfpt_looppert : ek2=    3.2603777073E+01
          f-sum rule ratio=    1.0495534254E+00
 prteigrs : about to open file /scratch/users/j/a/jabreu/flow_simple_11atoms/flow/w404/t1/tmpdata/tmp_1WF1_EIG
 Expectation of eigenvalue derivatives (hartree) for nkpt=   1  k points:
  (in case of degenerate eigenvalues, averaged derivative)
 kpt#   1, nband= 97, wtk=  1.00000, kpt=  0.0000  0.0000  0.0000 (reduced coord)
   0.00000    0.00000    0.00000   -0.00000    0.00000    0.00000    0.00000    0.00000
  -0.00000   -0.00000   -0.00000   -0.00000    0.00000    0.00000    0.00000    0.00000
  -0.00000   -0.00000   -0.00000   -0.00000    0.00000   -0.00000    0.00000   -0.00000
  -0.00000    0.00000    0.00000    0.00000   -0.00000   -0.00000   -0.00000   -0.00000
  -0.00000    0.00000    0.00000   -0.00000   -0.00000   -0.00000    0.00000    0.00000
   0.00000   -0.00000   -0.00000    0.00000    0.00000    0.00000    0.00000    0.00000
   0.00000   -0.00000    0.00000    0.00000    0.00000    0.00000    0.00000   -0.00000
   0.00000    0.00000   -0.00000    0.00000    0.00000    0.00000   -0.00000    0.00000
  -0.00000   -0.00000    0.00000    0.00000    0.00000    0.00000   -0.00000    0.00000
   0.00000    0.00000    0.00000    0.00000   -0.00000    0.00000   -0.00000   -0.00000
  -0.00000    0.00000   -0.00000    0.00000    0.00000    0.00000   -0.00000   -0.00000
  -0.00000   -0.00000   -0.00000   -0.00000    0.00000    0.00000    0.00000   -0.00000
   0.00000

 Eight components of 2nd-order total energy (hartree) are
 1,2,3: 0th-order hamiltonian combined with 1st-order wavefunctions
     kin0=   4.07070840E+01 eigvalue=   4.19499323E+00  local=  -2.07191954E+01
 4,5,6: 1st-order hamiltonian combined with 1st and 0th-order wfs
     kin1=  -3.42194059E+01  Hartree=   0.00000000E+00     xc=   0.00000000E+00
 7,8,9: eventually, occupation + non-local contributions
    edocc=   3.31086300E+00     enl0=   4.17622525E+00   enl1=  -2.91205342E+01
 1-9 gives the relaxation energy (to be shifted if some occ is /=2.0)
   erelax=  -3.16699700E+01
  No Ewald or frozen-wf contrib.: the relaxation energy is the total one
 2DEtotal=   -0.3166997004E+02 Ha. Also 2DEtotal=   -0.861783711706E+03 eV
    (  non-var. 2DEtotal :   -3.1669970044E+01 Ha)

 CALCULATION OF EFFECTIVE MASSES
 NOTE : Additional infos (eff. mass eigenvalues, eigenvectors and, if degenerate, average mass) are available in stdout.

 K-point ( 0.000, 0.000, 0.000) | band =    88
 Effective mass tensor:
             -2.4148325066              0.6002396718              0.0000097363
              0.6002396718             -0.3147528084             -0.0000025833
              0.0000097363             -0.0000025833             -1.2052342676
 Effective mass tensor eigenvalues:
             -2.5742848437             -1.2052342676             -0.1553004714
 Angular average effective mass 1/(<1/m>)=  -0.3917828970
 Angular average effective mass for Frohlich model (<m**0.5>)**2=  -0.5956807885
 Effective masses along directions: (cart. coord. / red. coord. -> eff. mass)
    1:   1.000000  0.000000  0.000000 /   0.755128 -0.655578  0.000000 ->  -1.2701638841
    2:   0.000000  1.000000  0.000000 /   0.000000  1.000000  0.000000 ->  -0.1655550224
    3:   0.000000  0.000000  1.000000 /   0.000000  0.000000  1.000000 ->  -1.2052342676
    4:   0.577350  0.577350  0.577350 /   0.585996 -0.217930  0.780458 ->  -0.2814232719
    5:   0.000000  0.707107  0.707107 /   0.000000  0.349165  0.937061 ->  -0.2911207946
    6:   0.707107  0.000000  0.707107 /   0.532432 -0.462240  0.709119 ->  -1.2368427184
    7:   0.707107  0.707107  0.000000 /   0.937282 -0.348573  0.000000 ->  -0.2034509274

 K-point ( 0.000, 0.000, 0.000) | band =    89
 Effective mass tensor:
              0.3230686223             -0.0365744083             -0.0000000334
             -0.0365744083              0.1951032575              0.0000000089
             -0.0000000334              0.0000000089              0.1744071024
 Effective mass tensor eigenvalues:
              0.1744071024              0.1853874257              0.3327844541
 Angular average effective mass 1/(<1/m>)=   0.2122726327
 Angular average effective mass for Frohlich model (<m**0.5>)**2=   0.2171009481
 Effective masses along directions: (cart. coord. / red. coord. -> eff. mass)
    1:   1.000000  0.000000  0.000000 /   0.755128 -0.655578  0.000000 ->   0.3162123178
    2:   0.000000  1.000000  0.000000 /   0.000000  1.000000  0.000000 ->   0.1909626903
    3:   0.000000  0.000000  1.000000 /   0.000000  0.000000  1.000000 ->   0.1744071024
    4:   0.577350  0.577350  0.577350 /   0.585996 -0.217930  0.780458 ->   0.1958423975
    5:   0.000000  0.707107  0.707107 /   0.000000  0.349165  0.937061 ->   0.1823098191
    6:   0.707107  0.000000  0.707107 /   0.532432 -0.462240  0.709119 ->   0.2248164858
    7:   0.707107  0.707107  0.000000 /   0.937282 -0.348573  0.000000 ->   0.2086652932

 END OF EFFECTIVE MASSES SECTION

 ---- first-order wavefunction calculations are completed ----

 Total localisation tensor (bohr^2) in cartesian coordinates
  WARNING : still subject to testing - especially symmetries.
      direction              matrix element
   alpha     beta       real part   imaginary part
     1        1      12.3071565552    0.0000000000
     1        2      -3.0235743530    0.0000000000
     1        3       0.0000000000    0.0000000000
     2        1      -3.0235743530    0.0000000000
     2        2       1.7283652217    0.0000000000
     2        3       0.0000000000    0.0000000000
     3        1       0.0000000000    0.0000000000
     3        2       0.0000000000    0.0000000000
     3        3       1.3807846055    0.0000000000

 respfn : d/dk was computed, but no 2DTE, so no DDB output.

== END DATASET(S) ==============================================================

 -outvars: echo values of variables after computation  --------
            acell      1.0000000000E+00  1.0000000000E+00  1.0000000000E+00 Bohr
              amu      1.32905430E+02  8.89058500E+01  2.00590000E+02
                       7.89600000E+01
             ecut      4.30000000E+01 Hartree
           etotal     -3.1669970044E+01
            fcart      0.0000000000E+00  0.0000000000E+00  0.0000000000E+00
                       0.0000000000E+00  0.0000000000E+00  0.0000000000E+00
                       0.0000000000E+00  0.0000000000E+00  0.0000000000E+00
                       0.0000000000E+00  0.0000000000E+00  0.0000000000E+00
                       0.0000000000E+00  0.0000000000E+00  0.0000000000E+00
                       0.0000000000E+00  0.0000000000E+00  0.0000000000E+00
                       0.0000000000E+00  0.0000000000E+00  0.0000000000E+00
                       0.0000000000E+00  0.0000000000E+00  0.0000000000E+00
                       0.0000000000E+00  0.0000000000E+00  0.0000000000E+00
                       0.0000000000E+00  0.0000000000E+00  0.0000000000E+00
                       0.0000000000E+00  0.0000000000E+00  0.0000000000E+00
                       0.0000000000E+00  0.0000000000E+00  0.0000000000E+00
-          fftalg         512
           irdden           1
           irdwfk           1
           istwfk        1
              ixc     -116133
           kptopt           0
P           mkmem           1
P          mkqmem           1
P          mk1mem           1
            natom          12
            nband          97
           nbdbuf           4
            ngfft          96      96     125
             nkpt           1
            nstep        2000
             nsym           8
           ntypat           4
              occ      2.000000  2.000000  2.000000  2.000000  2.000000  2.000000
                       2.000000  2.000000  2.000000  2.000000  2.000000  2.000000
                       2.000000  2.000000  2.000000  2.000000  2.000000  2.000000
                       2.000000  2.000000  2.000000  2.000000  2.000000  2.000000
                       2.000000  2.000000  2.000000  2.000000  2.000000  2.000000
                       2.000000  2.000000  2.000000  2.000000  2.000000  2.000000
                       2.000000  2.000000  2.000000  2.000000  2.000000  2.000000
                       2.000000  2.000000  2.000000  2.000000  2.000000  2.000000
                       2.000000  2.000000  2.000000  2.000000  2.000000  2.000000
                       2.000000  2.000000  2.000000  2.000000  2.000000  2.000000
                       2.000000  2.000000  2.000000  2.000000  2.000000  2.000000
                       2.000000  2.000000  2.000000  2.000000  2.000000  2.000000
                       2.000000  2.000000  2.000000  2.000000  2.000000  2.000000
                       2.000000  2.000000  2.000000  2.000000  2.000000  2.000000
                       2.000000  2.000000  2.000000  2.000000  0.000000  0.000000
                       0.000000  0.000000  0.000000  0.000000  0.000000  0.000000
                       0.000000
        optdriver           1
            prtwf          -1
            rfdir           1       1       1
           rfelfd           2
            rprim      1.5501082702E+01  0.0000000000E+00  0.0000000000E+00
                      -1.3457542019E+01  7.6927321372E+00  0.0000000000E+00
                       0.0000000000E+00  0.0000000000E+00  2.0645111968E+01
          spgroup          63
           strten      0.0000000000E+00  0.0000000000E+00  0.0000000000E+00
                       0.0000000000E+00  0.0000000000E+00  0.0000000000E+00
           symrel      1  0  0   0  1  0   0  0  1      -1  0  0   0 -1  0   0  0 -1
                       0  1  0   1  0  0   0  0 -1       0 -1  0  -1  0  0   0  0  1
                      -1  0  0   0 -1  0   0  0  1       1  0  0   0  1  0   0  0 -1
                       0 -1  0  -1  0  0   0  0 -1       0  1  0   1  0  0   0  0  1
            tnons      0.0000000  0.0000000  0.0000000    -0.0000000 -0.0000000 -0.0000000
                       0.0000000  0.0000000 -0.0000000    -0.0000000 -0.0000000  0.0000000
                      -0.0000000 -0.0000000  0.5000000     0.0000000  0.0000000  0.5000000
                      -0.0000000 -0.0000000  0.5000000     0.0000000  0.0000000  0.5000000
           tolwfr      1.00000000E-20
            typat      1  1  2  2  3  3  4  4  4  4  4  4
           useylm           1
           xangst     -3.3514765573E+00  3.0693483133E+00  8.1936920417E+00
                       4.4328717115E+00  1.0014702054E+00  2.7312306806E+00
                       5.4069757708E-01  2.0354092594E+00  0.0000000000E+00
                       5.4069757708E-01  2.0354092594E+00  5.4624613611E+00
                       7.5248904353E+00  1.8008894045E-01  8.1936920417E+00
                      -6.4434952811E+00  3.8907295783E+00  2.7312306806E+00
                       1.5071057129E+00  1.7786871603E+00  8.1936920417E+00
                      -4.2571055878E-01  2.2921313585E+00  2.7312306806E+00
                      -5.2660110057E+00  3.5779360250E+00  5.0152714993E+00
                      -5.2660110057E+00  3.5779360250E+00  4.4718986179E-01
                       6.3474061599E+00  4.9288249380E-01  1.0477732860E+01
                       6.3474061599E+00  4.9288249380E-01  5.9096512229E+00
            xcart     -6.3333728341E+00  5.8002277187E+00  1.5483833976E+01
                       8.3769135169E+00  1.8925044185E+00  5.1612779920E+00
                       1.0217703414E+00  3.8463660686E+00  0.0000000000E+00
                       1.0217703414E+00  3.8463660686E+00  1.0322555984E+01
                       1.4219982103E+01  3.4031877702E-01  1.5483833976E+01
                      -1.2176441420E+01  7.3524133602E+00  5.1612779920E+00
                       2.8480170508E+00  3.3612316091E+00  1.5483833976E+01
                      -8.0447636797E-01  4.3315005281E+00  5.1612779920E+00
                      -9.9513186135E+00  6.7613192082E+00  9.4774896158E+00
                      -9.9513186135E+00  6.7613192082E+00  8.4506636819E-01
                       1.1994859296E+01  9.3141292898E-01  1.9800045600E+01
                       1.1994859296E+01  9.3141292898E-01  1.1167622352E+01
             xred      2.4601200000E-01  7.5398800000E-01  7.5000000000E-01
                       7.5398800000E-01  2.4601200000E-01  2.5000000000E-01
                       5.0000000000E-01  5.0000000000E-01  0.0000000000E+00
                       5.0000000000E-01  5.0000000000E-01  5.0000000000E-01
                       9.5576100000E-01  4.4239000000E-02  7.5000000000E-01
                       4.4239000000E-02  9.5576100000E-01  2.5000000000E-01
                       5.6306400000E-01  4.3693600000E-01  7.5000000000E-01
                       4.3693600000E-01  5.6306400000E-01  2.5000000000E-01
                       1.2107700000E-01  8.7892300000E-01  4.5906700000E-01
                       1.2107700000E-01  8.7892300000E-01  4.0933000000E-02
                       8.7892300000E-01  1.2107700000E-01  9.5906700000E-01
                       8.7892300000E-01  1.2107700000E-01  5.4093300000E-01
            znucl       55.00000   39.00000   80.00000   34.00000

- Timing analysis has been suppressed with timopt=0

 Suggested references for the acknowledgment of ABINIT usage.

 Calculation completed.
.Delivered   2 WARNINGs and   5 COMMENTs to log file.