.Version 9.5.1 of ABINIT

 ABINIT is a project of the Universite Catholique de Louvain,
 Corning Inc. and other collaborators, see ~abinit/doc/developers/contributors.txt .
 acknowledgments of the ABINIT effort.

.Starting date : Tue  4 May 2021.
- ( at 19h48 )

- input  file    -> /scratch/users/j/a/jabreu/flow_simple_6atoms/flow/w229/t1/run.abi
- output file    -> /scratch/users/j/a/jabreu/flow_simple_6atoms/flow/w229/t1/run.abo
- root for input  files -> /scratch/users/j/a/jabreu/flow_simple_6atoms/flow/w229/t1/indata/in
- root for output files -> /scratch/users/j/a/jabreu/flow_simple_6atoms/flow/w229/t1/outdata/out

 Symmetries : space group P6_3/m m c (#194); Bravais hP (primitive hexag.)
     intxc =       0      iscf =       7    lmnmax =      18     lnmax =       6
     mgfft =     150  mpssoang =       3    mqgrid =    7313     natom =       6
  nloc_mem =       1    nspden =       1   nspinor =       1    nsppol =       1
      nsym =      24    n1xccc =    2501    ntypat =       2    occopt =       1
   xclevel =       2
-    mband =          55        mffmem =           1         mkmem =           2
-   mkqmem =           2        mk1mem =           2           mpw =       11043
      nfft =      240000          nkpt =           2
  Rough estimation (10% accuracy) of disk space for files :

------------- Echo of variables that govern the present computation ------------
-
- outvars: echo of selected default values
-   iomode0 =  0 , fftalg0 =512 , wfoptalg0 =  0
-
- outvars: echo of global parameters not present in the input file
-  max_nthreads =    0
-
 -outvars: echo values of preprocessed input variables --------
            acell      1.0000000000E+00  1.0000000000E+00  1.0000000000E+00 Bohr
              amu      9.59400000E+01  7.89600000E+01
             ecut      4.30000000E+01 Hartree
-          fftalg         512
           irdden           1
           irdwfk           1
           istwfk        1    0
              ixc     -116133
              kpt      0.00000000E+00  0.00000000E+00  0.00000000E+00
                       1.79487180E-01  1.79487180E-01  0.00000000E+00
           kptopt           0
P           mkmem           2
P          mkqmem           2
P          mk1mem           2
            natom           6
            nband          55
           nbdbuf           4
            ngfft          40      40     150
             nkpt           2
            nstep        1000
             nsym          24
           ntypat           2
              occ      2.000000  2.000000  2.000000  2.000000  2.000000  2.000000
                       2.000000  2.000000  2.000000  2.000000  2.000000  2.000000
                       2.000000  2.000000  2.000000  2.000000  2.000000  2.000000
                       2.000000  2.000000  2.000000  2.000000  2.000000  2.000000
                       2.000000  2.000000  2.000000  2.000000  2.000000  2.000000
                       2.000000  2.000000  2.000000  2.000000  2.000000  2.000000
                       2.000000  2.000000  2.000000  2.000000  2.000000  2.000000
                       2.000000  2.000000  2.000000  2.000000  0.000000  0.000000
                       0.000000  0.000000  0.000000  0.000000  0.000000  0.000000
                       0.000000
        optdriver           1
            prtwf          -1
            rfdir           1       1       1
           rfelfd           2
            rprim      6.1805063835E+00  0.0000000000E+00  0.0000000000E+00
                      -3.0902531918E+00  5.3524755364E+00  0.0000000000E+00
                       0.0000000000E+00  0.0000000000E+00  2.4771613573E+01
          spgroup         194
           symrel      1  0  0   0  1  0   0  0  1      -1  0  0   0 -1  0   0  0 -1
                       0  1  0   1  0  0   0  0  1       0 -1  0  -1  0  0   0  0 -1
                       1  1  0  -1  0  0   0  0  1      -1 -1  0   1  0  0   0  0 -1
                      -1  0  0   1  1  0   0  0  1       1  0  0  -1 -1  0   0  0 -1
                       0  1  0  -1 -1  0   0  0  1       0 -1  0   1  1  0   0  0 -1
                      -1 -1  0   0  1  0   0  0  1       1  1  0   0 -1  0   0  0 -1
                      -1  0  0   0 -1  0   0  0  1       1  0  0   0  1  0   0  0 -1
                       0 -1  0  -1  0  0   0  0  1       0  1  0   1  0  0   0  0 -1
                      -1 -1  0   1  0  0   0  0  1       1  1  0  -1  0  0   0  0 -1
                       1  0  0  -1 -1  0   0  0  1      -1  0  0   1  1  0   0  0 -1
                       0 -1  0   1  1  0   0  0  1       0  1  0  -1 -1  0   0  0 -1
                       1  1  0   0 -1  0   0  0  1      -1 -1  0   0  1  0   0  0 -1
            tnons      0.0000000  0.0000000  0.0000000    -0.0000000 -0.0000000  0.0000000
                      -0.0000000  0.0000000  0.5000000    -0.0000000 -0.0000000  0.5000000
                      -0.0000000  0.0000000  0.5000000    -0.0000000 -0.0000000  0.5000000
                      -0.0000000  0.0000000  0.0000000    -0.0000000 -0.0000000  0.0000000
                      -0.0000000 -0.0000000  0.0000000    -0.0000000 -0.0000000  0.0000000
                      -0.0000000 -0.0000000  0.5000000     0.0000000 -0.0000000  0.5000000
                      -0.0000000 -0.0000000  0.5000000     0.0000000  0.0000000  0.5000000
                      -0.0000000 -0.0000000  0.0000000    -0.0000000  0.0000000  0.0000000
                      -0.0000000 -0.0000000  0.0000000    -0.0000000  0.0000000  0.0000000
                      -0.0000000 -0.0000000  0.5000000    -0.0000000  0.0000000  0.5000000
                      -0.0000000 -0.0000000  0.5000000    -0.0000000 -0.0000000  0.5000000
                       0.0000000 -0.0000000  0.0000000    -0.0000000 -0.0000000  0.0000000
           tolwfr      1.00000000E-20
            typat      1  1  2  2  2  2
           useylm           1
              wtk        0.50000    0.50000
           xangst     -1.7639476748E-11  1.8882720423E+00  3.2771433307E+00
                       1.6352915578E+00  9.4413602113E-01  9.8314299920E+00
                       1.6352915578E+00  9.4413602113E-01  1.6124200616E+00
                      -1.7639476748E-11  1.8882720423E+00  8.1667067229E+00
                       1.6352915578E+00  9.4413602113E-01  4.9418665998E+00
                      -1.7639476748E-11  1.8882720423E+00  1.1496153261E+01
            xcart     -3.3333780181E-11  3.5683170243E+00  6.1929033932E+00
                       3.0902531917E+00  1.7841585121E+00  1.8578710180E+01
                       3.0902531917E+00  1.7841585121E+00  3.0470323275E+00
                      -3.3333780181E-11  3.5683170243E+00  1.5432839114E+01
                       3.0902531917E+00  1.7841585121E+00  9.3387744589E+00
                      -3.3333780181E-11  3.5683170243E+00  2.1724581245E+01
             xred      3.3333333333E-01  6.6666666667E-01  2.5000000000E-01
                       6.6666666667E-01  3.3333333333E-01  7.5000000000E-01
                       6.6666666667E-01  3.3333333333E-01  1.2300500000E-01
                       3.3333333333E-01  6.6666666667E-01  6.2300500000E-01
                       6.6666666667E-01  3.3333333333E-01  3.7699500000E-01
                       3.3333333333E-01  6.6666666667E-01  8.7699500000E-01
            znucl       42.00000   34.00000

 chkinp: Checking input parameters for consistency.

== DATASET  1 ==================================================================
-   mpi_nproc: 1, omp_nthreads: -1 (-1 if OMP is not activated)

--- !DatasetInfo
iteration_state: {dtset: 1, }
dimensions: {natom: 6, nkpt: 2, mband: 55, nsppol: 1, nspinor: 1, nspden: 1, mpw: 11043, }
cutoff_energies: {ecut:  43.0, pawecutdg:  -1.0, }
electrons: {nelect:   9.20000000E+01, charge:   0.00000000E+00, occopt:   1.00000000E+00, tsmear:   1.00000000E-02, }
meta: {optdriver: 1, rfelfd: 2, }
...

 Real(R)+Recip(G) space primitive vectors, cartesian coordinates (Bohr,Bohr^-1):
 R(1)=  6.1805064  0.0000000  0.0000000  G(1)=  0.1617990  0.0934147  0.0000000
 R(2)= -3.0902532  5.3524755  0.0000000  G(2)=  0.0000000  0.1868294  0.0000000
 R(3)=  0.0000000  0.0000000 24.7716136  G(3)=  0.0000000  0.0000000  0.0403688
 Unit cell volume ucvol=  8.1946998E+02 bohr^3
 Angles (23,13,12)=  9.00000000E+01  9.00000000E+01  1.20000000E+02 degrees

 getcut: wavevector=  0.0000  0.0000  0.0000  ngfft=  40  40 150
         ecut(hartree)=     43.000   => boxcut(ratio)=   2.05134

--- Pseudopotential description ------------------------------------------------
- pspini: atom type   1  psp file is /scratch/users/j/a/jabreu/pseudos/PBEsol/Mo.psp8
- pspatm: opening atomic psp file    /scratch/users/j/a/jabreu/pseudos/PBEsol/Mo.psp8
- Mo    ONCVPSP-3.3.0  r_core=   1.45541   1.45541   1.35488
- 42.00000  14.00000    180112                znucl, zion, pspdat
    8 -116133    2    4       600   0.00000   pspcod,pspxc,lmax,lloc,mmax,r2well
    5.99000000000000    3.00000000000000    0.00000000000000   rchrg,fchrg,qchrg
     nproj     2     2     2
     extension_switch     1
  pspatm : epsatm=   15.94988468
         --- l  ekb(1:nproj) -->
             0   13.816922    1.348814
             1    7.998851    1.130086
             2    2.759390    0.956378
 pspatm: atomic psp has been read  and splines computed

- pspini: atom type   2  psp file is /scratch/users/j/a/jabreu/pseudos/PBEsol/Se.psp8
- pspatm: opening atomic psp file    /scratch/users/j/a/jabreu/pseudos/PBEsol/Se.psp8
- Se    ONCVPSP-3.3.0  r_core=   1.81943   1.50330   1.90835
- 34.00000  16.00000    180112                znucl, zion, pspdat
    8 -116133    2    4       600   0.00000   pspcod,pspxc,lmax,lloc,mmax,r2well
    5.99000000000000    5.00000000000000    0.00000000000000   rchrg,fchrg,qchrg
     nproj     2     2     2
     extension_switch     1
  pspatm : epsatm=   29.17862020
         --- l  ekb(1:nproj) -->
             0    8.973804    1.019550
             1    6.849857    1.297308
             2   -9.203962   -3.731027
 pspatm: atomic psp has been read  and splines computed

   1.36725110E+04                                ecore*ucvol(ha*bohr**3)

-inwffil : will read wavefunctions from disk file /scratch/users/j/a/jabreu/flow_simple_6atoms/flow/w229/t1/indata/in_WFK

 ==>  initialize data related to q vector <==

 The list of irreducible perturbations for this q vector is:
    1)    idir= 1    ipert=   7
    2)    idir= 2    ipert=   7
    3)    idir= 3    ipert=   7

 Perturbation wavevector (in red.coord.)   0.000000  0.000000  0.000000
 Perturbation : derivative vs k along direction   1

 dfpt_looppert : COMMENT -
  In a d/dk calculation, iscf is set to -3 automatically.
 The set of symmetries contains only one element for this perturbation.
 symkpt : not enough symmetry to change the number of k points.

[...]

 Initialisation of the first-order wave-functions :
  ireadwf=   0

--- !BeginCycle
iteration_state: {dtset: 1, }
solver: {iscf: 7, nstep: 1000, nline: 4, wfoptalg: 0, }
tolerances: {tolwfr: 1.00E-20, }
...

     iter   2DEtotal(Ha)        deltaE(Ha) residm    vres2
-ETOT  1  -271.78987676869     -2.718E+02 3.734E-01 0.000E+00
[...]
 ETOT 10  -271.97842634016     -1.137E-13 9.840E-12 0.000E+00
 ETOT 11  -271.97842634016      0.000E+00 4.155E-13 0.000E+00
 ETOT 12  -271.97842634016     -5.684E-14 7.197E-14 0.000E+00
 ETOT 13  -271.97842634016      5.684E-14 3.064E-15 0.000E+00
 ETOT 14  -271.97842634016     -5.684E-14 5.295E-16 0.000E+00
 ETOT 15  -271.97842634016      5.684E-14 2.265E-17 0.000E+00
 ETOT 16  -271.97842634016      0.000E+00 3.909E-18 0.000E+00
 ETOT 17  -271.97842634016      0.000E+00 1.676E-19 0.000E+00
 ETOT 18  -271.97842634016     -5.684E-14 2.893E-20 0.000E+00
 ETOT 19  -271.97842634016      5.684E-14 9.739E-21 0.000E+00

 At SCF step   19   max residual=  9.74E-21 < tolwfr=  1.00E-20 =>converged.

 ----iterations are completed or convergence reached----

 dfpt_looppert: DFPT cycle converged with prtwf=-1. Will skip output of the 1st-order WFK file.
 dfpt_looppert : ek2=    2.5355266388E+02
          f-sum rule ratio=    1.0484114104E+00
 prteigrs : about to open file /scratch/users/j/a/jabreu/flow_simple_6atoms/flow/w229/t1/tmpdata/tmp_1WF1_EIG
 Expectation of eigenvalue derivatives (hartree) for nkpt=   2  k points:
  (in case of degenerate eigenvalues, averaged derivative)
 kpt#   1, nband= 55, wtk=  0.50000, kpt=  0.0000  0.0000  0.0000 (reduced coord)
  -0.00000    0.00000   -0.00000   -0.00000   -0.00000   -0.00000   -0.00000   -0.00000
   0.00000    0.00000    0.00000    0.00000   -0.00000   -0.00000   -0.00000   -0.00000
  -0.00000   -0.00000    0.00000    0.00000   -0.00000    0.00000   -0.00000   -0.00000
   0.00000    0.00000   -0.00000   -0.00000    0.00000    0.00000   -0.00000   -0.00000
   0.00000   -0.00000    0.00000    0.00000    0.00000    0.00000    0.00000    0.00000
   0.00000   -0.00000   -0.00000   -0.00000    0.00000    0.00000   -0.00000   -0.00000
  -0.00000   -0.00000    0.00000    0.00000   -0.00000   -0.00000   -0.00000
 prteigrs : prtvol=0 or 1, do not print more k-points.

 Eight components of 2nd-order total energy (hartree) are
 1,2,3: 0th-order hamiltonian combined with 1st-order wavefunctions
     kin0=   3.04952019E+02 eigvalue=   2.67346757E+01  local=  -1.24670884E+02
 4,5,6: 1st-order hamiltonian combined with 1st and 0th-order wfs
     kin1=  -2.65827506E+02  Hartree=   0.00000000E+00     xc=   0.00000000E+00
 7,8,9: eventually, occupation + non-local contributions
    edocc=   3.85226374E+01     enl0=   2.64399779E+01   enl1=  -2.78129347E+02
 1-9 gives the relaxation energy (to be shifted if some occ is /=2.0)
   erelax=  -2.71978426E+02
  No Ewald or frozen-wf contrib.: the relaxation energy is the total one
 2DEtotal=   -0.2719784263E+03 Ha. Also 2DEtotal=   -0.740090936078E+04 eV
    (  non-var. 2DEtotal :   -2.7197842634E+02 Ha)

 Perturbation wavevector (in red.coord.)   0.000000  0.000000  0.000000
 Perturbation : derivative vs k along direction   2
 The set of symmetries contains only one element for this perturbation.
 symkpt : not enough symmetry to change the number of k points.

[...]

 Perturbation wavevector (in red.coord.)   0.000000  0.000000  0.000000
 Perturbation : derivative vs k along direction   3
 The set of symmetries contains only one element for this perturbation.
 symkpt : not enough symmetry to change the number of k points.

-inwffil : will read wavefunctions from disk file /scratch/users/j/a/jabreu/flow_simple_6atoms/flow/w229/t1/indata/in_WFK

 Initialisation of the first-order wave-functions :
  ireadwf=   0

--- !BeginCycle
iteration_state: {dtset: 1, }
solver: {iscf: 7, nstep: 1000, nline: 4, wfoptalg: 0, }
tolerances: {tolwfr: 1.00E-20, }
...

     iter   2DEtotal(Ha)        deltaE(Ha) residm    vres2
-ETOT  1  -12.423674462285     -1.242E+01 1.024E-02 0.000E+00
 ETOT  2  -12.432364310523     -8.690E-03 1.259E-04 0.000E+00
 ETOT  3  -12.432381672916     -1.736E-05 2.453E-06 0.000E+00
 ETOT  4  -12.432381766650     -9.373E-08 4.148E-08 0.000E+00
 ETOT  5  -12.432381767279     -6.286E-10 1.503E-09 0.000E+00
 ETOT  6  -12.432381767283     -4.656E-12 7.003E-11 0.000E+00
 ETOT  7  -12.432381767283     -3.375E-14 3.357E-12 0.000E+00
 ETOT  8  -12.432381767283     -1.066E-14 1.602E-13 0.000E+00
 ETOT  9  -12.432381767283      1.599E-14 7.837E-15 0.000E+00
 ETOT 10  -12.432381767283      3.553E-15 3.742E-16 0.000E+00
 ETOT 11  -12.432381767283     -7.105E-15 1.863E-17 0.000E+00
 ETOT 12  -12.432381767283      1.066E-14 8.830E-19 0.000E+00
 ETOT 13  -12.432381767283     -7.105E-15 4.487E-20 0.000E+00
 ETOT 14  -12.432381767283      0.000E+00 9.899E-21 0.000E+00

 At SCF step   14   max residual=  9.90E-21 < tolwfr=  1.00E-20 =>converged.

 ----iterations are completed or convergence reached----

 dfpt_looppert: DFPT cycle converged with prtwf=-1. Will skip output of the 1st-order WFK file.
 dfpt_looppert : ek2=    1.1837744621E+01
          f-sum rule ratio=    1.0087128892E+00
 prteigrs : about to open file /scratch/users/j/a/jabreu/flow_simple_6atoms/flow/w229/t1/tmpdata/tmp_1WF1_EIG
 Expectation of eigenvalue derivatives (hartree) for nkpt=   2  k points:
  (in case of degenerate eigenvalues, averaged derivative)
 kpt#   1, nband= 55, wtk=  0.50000, kpt=  0.0000  0.0000  0.0000 (reduced coord)
  -0.00000    0.00000   -0.00000   -0.00000   -0.00000   -0.00000    0.00000    0.00000
   0.00000    0.00000   -0.00000   -0.00000   -0.00000   -0.00000   -0.00000   -0.00000
  -0.00000   -0.00000   -0.00000   -0.00000    0.00000    0.00000    0.00000    0.00000
   0.00000    0.00000   -0.00000   -0.00000    0.00000    0.00000   -0.00000    0.00000
  -0.00000    0.00000   -0.00000    0.00000    0.00000   -0.00000   -0.00000   -0.00000
  -0.00000   -0.00000   -0.00000    0.00000   -0.00000    0.00000    0.00000    0.00000
   0.00000    0.00000   -0.00000   -0.00000   -0.00000   -0.00000   -0.00000
 prteigrs : prtvol=0 or 1, do not print more k-points.

 Eight components of 2nd-order total energy (hartree) are
 1,2,3: 0th-order hamiltonian combined with 1st-order wavefunctions
     kin0=   1.44130710E+01 eigvalue=   1.20625039E+00  local=  -6.03796784E+00
 4,5,6: 1st-order hamiltonian combined with 1st and 0th-order wfs
     kin1=  -1.19408856E+01  Hartree=   0.00000000E+00     xc=   0.00000000E+00
 7,8,9: eventually, occupation + non-local contributions
    edocc=   1.60782782E+00     enl0=   1.24320045E+00   enl1=  -1.29238780E+01
 1-9 gives the relaxation energy (to be shifted if some occ is /=2.0)
   erelax=  -1.24323818E+01
  No Ewald or frozen-wf contrib.: the relaxation energy is the total one
 2DEtotal=   -0.1243238177E+02 Ha. Also 2DEtotal=   -0.338302312564E+03 eV
    (  non-var. 2DEtotal :   -1.2432381767E+01 Ha)

 CALCULATION OF EFFECTIVE MASSES
 NOTE : Additional infos (eff. mass eigenvalues, eigenvectors and, if degenerate, average mass) are available in stdout.

 K-point ( 0.000, 0.000, 0.000) | band =    46
 Effective mass tensor:
             -0.9504218549             -0.0000000000              0.0000000002
             -0.0000000000             -0.9504218549             -0.0000000001
              0.0000000002             -0.0000000001             -1.2054523609
 Effective mass tensor eigenvalues:
             -1.2054523609             -0.9504218550             -0.9504218549
 Angular average effective mass 1/(<1/m>)=  -1.0225322438
 Angular average effective mass for Frohlich model (<m**0.5>)**2=  -1.0262227814
 Effective masses along directions: (cart. coord. / red. coord. -> eff. mass)
    1:   1.000000  0.000000  0.000000 /   0.894427 -0.447214  0.000000 ->  -0.9504218549
    2:   0.000000  1.000000  0.000000 /   0.000000  1.000000  0.000000 ->  -0.9504218549
    3:   0.000000  0.000000  1.000000 /   0.000000  0.000000  1.000000 ->  -1.2054523609
    4:   0.577350  0.577350  0.577350 /   0.241134  0.088261  0.966470 ->  -1.0225322438
    5:   0.000000  0.707107  0.707107 /   0.000000  0.211199  0.977443 ->  -1.0628526103
    6:   0.707107  0.000000  0.707107 /   0.240325 -0.120162  0.963226 ->  -1.0628526101
    7:   0.707107  0.707107  0.000000 /   0.939071  0.343724  0.000000 ->  -0.9504218550

 K-point ( 0.179, 0.179, 0.000) | band =    47
 Effective mass tensor:
              0.6352053681             -0.0923455645              0.0000263751
             -0.0923455645              0.5284380587             -0.0000130031
              0.0000263751             -0.0000130031              0.4873321836
 Effective mass tensor eigenvalues:
              0.4751562648              0.4873321797              0.6884871661
 Angular average effective mass 1/(<1/m>)=   0.5348528726
 Angular average effective mass for Frohlich model (<m**0.5>)**2=   0.5391586989
 Effective masses along directions: (cart. coord. / red. coord. -> eff. mass)
    1:   1.000000  0.000000  0.000000 /   0.894427 -0.447214  0.000000 ->   0.6190678024
    2:   0.000000  1.000000  0.000000 /   0.000000  1.000000  0.000000 ->   0.5150129465
    3:   0.000000  0.000000  1.000000 /   0.000000  0.000000  1.000000 ->   0.4873321824
    4:   0.577350  0.577350  0.577350 /   0.241134  0.088261  0.966470 ->   0.4859482296
    5:   0.000000  0.707107  0.707107 /   0.000000  0.211199  0.977443 ->   0.5007811869
    6:   0.707107  0.000000  0.707107 /   0.240325 -0.120162  0.963226 ->   0.5453810784
    7:   0.707107  0.707107  0.000000 /   0.939071  0.343724  0.000000 ->   0.4852489864

 END OF EFFECTIVE MASSES SECTION

 ---- first-order wavefunction calculations are completed ----

 Total localisation tensor (bohr^2) in cartesian coordinates
  WARNING : still subject to testing - especially symmetries.
      direction              matrix element
   alpha     beta       real part   imaginary part
     1        1       1.9198437444    0.0000000000
     1        2      -0.6650430356    0.0000000000
     1        3       0.0000000000    0.0000000000
     2        1      -0.6650430356    0.0000000000
     2        2       1.1518883268    0.0000000000
     2        3       0.0000000000    0.0000000000
     3        1       0.0000000000    0.0000000000
     3        2       0.0000000000    0.0000000000
     3        3       0.9584407036    0.0000000000

 respfn : d/dk was computed, but no 2DTE, so no DDB output.

== END DATASET(S) ==============================================================

 -outvars: echo values of variables after computation  --------
            acell      1.0000000000E+00  1.0000000000E+00  1.0000000000E+00 Bohr
              amu      9.59400000E+01  7.89600000E+01
             ecut      4.30000000E+01 Hartree
           etotal     -1.2432381767E+01
            fcart      0.0000000000E+00  0.0000000000E+00  0.0000000000E+00
                       0.0000000000E+00  0.0000000000E+00  0.0000000000E+00
                       0.0000000000E+00  0.0000000000E+00  0.0000000000E+00
                       0.0000000000E+00  0.0000000000E+00  0.0000000000E+00
                       0.0000000000E+00  0.0000000000E+00  0.0000000000E+00
                       0.0000000000E+00  0.0000000000E+00  0.0000000000E+00
-          fftalg         512
           irdden           1
           irdwfk           1
           istwfk        1    0
              ixc     -116133
              kpt      0.00000000E+00  0.00000000E+00  0.00000000E+00
                       1.79487180E-01  1.79487180E-01  0.00000000E+00
           kptopt           0
P           mkmem           2
P          mkqmem           2
P          mk1mem           2
            natom           6
            nband          55
           nbdbuf           4
            ngfft          40      40     150
             nkpt           2
            nstep        1000
             nsym          24
           ntypat           2
              occ      2.000000  2.000000  2.000000  2.000000  2.000000  2.000000
                       2.000000  2.000000  2.000000  2.000000  2.000000  2.000000
                       2.000000  2.000000  2.000000  2.000000  2.000000  2.000000
                       2.000000  2.000000  2.000000  2.000000  2.000000  2.000000
                       2.000000  2.000000  2.000000  2.000000  2.000000  2.000000
                       2.000000  2.000000  2.000000  2.000000  2.000000  2.000000
                       2.000000  2.000000  2.000000  2.000000  2.000000  2.000000
                       2.000000  2.000000  2.000000  2.000000  0.000000  0.000000
                       0.000000  0.000000  0.000000  0.000000  0.000000  0.000000
                       0.000000
        optdriver           1
            prtwf          -1
            rfdir           1       1       1
           rfelfd           2
            rprim      6.1805063835E+00  0.0000000000E+00  0.0000000000E+00
                      -3.0902531918E+00  5.3524755364E+00  0.0000000000E+00
                       0.0000000000E+00  0.0000000000E+00  2.4771613573E+01
          spgroup         194
           strten      0.0000000000E+00  0.0000000000E+00  0.0000000000E+00
                       0.0000000000E+00  0.0000000000E+00  0.0000000000E+00
           symrel      1  0  0   0  1  0   0  0  1      -1  0  0   0 -1  0   0  0 -1
                       0  1  0   1  0  0   0  0  1       0 -1  0  -1  0  0   0  0 -1
                       1  1  0  -1  0  0   0  0  1      -1 -1  0   1  0  0   0  0 -1
                      -1  0  0   1  1  0   0  0  1       1  0  0  -1 -1  0   0  0 -1
                       0  1  0  -1 -1  0   0  0  1       0 -1  0   1  1  0   0  0 -1
                      -1 -1  0   0  1  0   0  0  1       1  1  0   0 -1  0   0  0 -1
                      -1  0  0   0 -1  0   0  0  1       1  0  0   0  1  0   0  0 -1
                       0 -1  0  -1  0  0   0  0  1       0  1  0   1  0  0   0  0 -1
                      -1 -1  0   1  0  0   0  0  1       1  1  0  -1  0  0   0  0 -1
                       1  0  0  -1 -1  0   0  0  1      -1  0  0   1  1  0   0  0 -1
                       0 -1  0   1  1  0   0  0  1       0  1  0  -1 -1  0   0  0 -1
                       1  1  0   0 -1  0   0  0  1      -1 -1  0   0  1  0   0  0 -1
            tnons      0.0000000  0.0000000  0.0000000    -0.0000000 -0.0000000  0.0000000
                      -0.0000000  0.0000000  0.5000000    -0.0000000 -0.0000000  0.5000000
                      -0.0000000  0.0000000  0.5000000    -0.0000000 -0.0000000  0.5000000
                      -0.0000000  0.0000000  0.0000000    -0.0000000 -0.0000000  0.0000000
                      -0.0000000 -0.0000000  0.0000000    -0.0000000 -0.0000000  0.0000000
                      -0.0000000 -0.0000000  0.5000000     0.0000000 -0.0000000  0.5000000
                      -0.0000000 -0.0000000  0.5000000     0.0000000  0.0000000  0.5000000
                      -0.0000000 -0.0000000  0.0000000    -0.0000000  0.0000000  0.0000000
                      -0.0000000 -0.0000000  0.0000000    -0.0000000  0.0000000  0.0000000
                      -0.0000000 -0.0000000  0.5000000    -0.0000000  0.0000000  0.5000000
                      -0.0000000 -0.0000000  0.5000000    -0.0000000 -0.0000000  0.5000000
                       0.0000000 -0.0000000  0.0000000    -0.0000000 -0.0000000  0.0000000
           tolwfr      1.00000000E-20
            typat      1  1  2  2  2  2
           useylm           1
              wtk        0.50000    0.50000
           xangst     -1.7639476748E-11  1.8882720423E+00  3.2771433307E+00
                       1.6352915578E+00  9.4413602113E-01  9.8314299920E+00
                       1.6352915578E+00  9.4413602113E-01  1.6124200616E+00
                      -1.7639476748E-11  1.8882720423E+00  8.1667067229E+00
                       1.6352915578E+00  9.4413602113E-01  4.9418665998E+00
                      -1.7639476748E-11  1.8882720423E+00  1.1496153261E+01
            xcart     -3.3333780181E-11  3.5683170243E+00  6.1929033932E+00
                       3.0902531917E+00  1.7841585121E+00  1.8578710180E+01
                       3.0902531917E+00  1.7841585121E+00  3.0470323275E+00
                      -3.3333780181E-11  3.5683170243E+00  1.5432839114E+01
                       3.0902531917E+00  1.7841585121E+00  9.3387744589E+00
                      -3.3333780181E-11  3.5683170243E+00  2.1724581245E+01
             xred      3.3333333333E-01  6.6666666667E-01  2.5000000000E-01
                       6.6666666667E-01  3.3333333333E-01  7.5000000000E-01
                       6.6666666667E-01  3.3333333333E-01  1.2300500000E-01
                       3.3333333333E-01  6.6666666667E-01  6.2300500000E-01
                       6.6666666667E-01  3.3333333333E-01  3.7699500000E-01
                       3.3333333333E-01  6.6666666667E-01  8.7699500000E-01
            znucl       42.00000   34.00000

- Timing analysis has been suppressed with timopt=0

 Suggested references for the acknowledgment of ABINIT usage.

 Calculation completed.
.Delivered  14 WARNINGs and   9 COMMENTs to log file.