.Version 9.5.2 of ABINIT

 ABINIT is a project of the Universite Catholique de Louvain,
 Corning Inc. and other collaborators, see ~abinit/doc/developers/contributors.txt .
 acknowledgments of the ABINIT effort.

.Starting date : Tue 25 May 2021.
- ( at 11h17 )

- input  file    -> /scratch/users/j/a/jabreu/flow_simple_10atoms/flow/w507/t1/run.abi
- output file    -> /scratch/users/j/a/jabreu/flow_simple_10atoms/flow/w507/t1/run.abo
- root for input  files -> /scratch/users/j/a/jabreu/flow_simple_10atoms/flow/w507/t1/indata/in
- root for output files -> /scratch/users/j/a/jabreu/flow_simple_10atoms/flow/w507/t1/outdata/out

 Symmetries : space group Cm c m (# 63); Bravais oC (1-face-center ortho.)
     intxc =       0      iscf =       7    lmnmax =      32     lnmax =       8
     mgfft =      90  mpssoang =       4    mqgrid =    3404     natom =      10
  nloc_mem =       1    nspden =       1   nspinor =       1    nsppol =       1
      nsym =       8    n1xccc =    2501    ntypat =       3    occopt =       1
   xclevel =       2
-    mband =          75        mffmem =           1         mkmem =           2
-   mkqmem =           2        mk1mem =           2           mpw =       26120
      nfft =      583200          nkpt =           2
  Rough estimation (10% accuracy) of disk space for files :

------------- Echo of variables that govern the present computation ------------
-
- outvars: echo of selected default values
-   iomode0 =  0 , fftalg0 =512 , wfoptalg0 =  0
-
- outvars: echo of global parameters not present in the input file
-  max_nthreads =    0
-
 -outvars: echo values of preprocessed input variables --------
            acell      1.0000000000E+00  1.0000000000E+00  1.0000000000E+00 Bohr
              amu      8.54678000E+01  7.49215900E+01  1.95080000E+02
             ecut      4.20000000E+01 Hartree
-          fftalg         512
           irdden           1
           irdwfk           1
           istwfk        1    0
              ixc     -116133
              kpt      0.00000000E+00  0.00000000E+00  0.00000000E+00
                       2.33088231E-01  2.33088231E-01  0.00000000E+00
           kptopt           0
P           mkmem           2
P          mkqmem           2
P          mk1mem           2
            natom          10
            nband          75
           nbdbuf           4
            ngfft          90      90      72
             nkpt           2
            nstep        2000
             nsym           8
           ntypat           3
              occ      2.000000  2.000000  2.000000  2.000000  2.000000  2.000000
                       2.000000  2.000000  2.000000  2.000000  2.000000  2.000000
                       2.000000  2.000000  2.000000  2.000000  2.000000  2.000000
                       2.000000  2.000000  2.000000  2.000000  2.000000  2.000000
                       2.000000  2.000000  2.000000  2.000000  2.000000  2.000000
                       2.000000  2.000000  2.000000  2.000000  2.000000  2.000000
                       2.000000  2.000000  2.000000  2.000000  2.000000  2.000000
                       2.000000  2.000000  2.000000  2.000000  2.000000  2.000000
                       2.000000  2.000000  2.000000  2.000000  2.000000  2.000000
                       2.000000  2.000000  2.000000  2.000000  2.000000  2.000000
                       2.000000  2.000000  2.000000  2.000000  2.000000  2.000000
                       0.000000  0.000000  0.000000  0.000000  0.000000  0.000000
                       0.000000  0.000000  0.000000
        optdriver           1
            prtwf          -1
            rfdir           1       1       1
           rfelfd           2
            rprim      1.5225730368E+01  0.0000000000E+00  0.0000000000E+00
                      -1.0177171088E+01  1.1324665729E+01  0.0000000000E+00
                       0.0000000000E+00  0.0000000000E+00  1.1666870101E+01
          spgroup          63
           symrel      1  0  0   0  1  0   0  0  1      -1  0  0   0 -1  0   0  0 -1
                       0  1  0   1  0  0   0  0 -1       0 -1  0  -1  0  0   0  0  1
                      -1  0  0   0 -1  0   0  0  1       1  0  0   0  1  0   0  0 -1
                       0 -1  0  -1  0  0   0  0 -1       0  1  0   1  0  0   0  0  1
            tnons      0.0000000  0.0000000  0.0000000     0.0000000  0.0000000  0.0000000
                       0.0000000  0.0000000  0.0000000     0.0000000  0.0000000  0.0000000
                       0.0000000  0.0000000  0.5000000     0.0000000  0.0000000  0.5000000
                       0.0000000  0.0000000  0.5000000     0.0000000  0.0000000  0.5000000
           tolwfr      1.00000000E-20
            typat      1  1  1  1  2  2  2  2  3  3
           useylm           1
              wtk        0.50000    0.50000
           xangst     -2.6285229008E+00  4.7636769052E+00  1.5434604383E+00
                       2.4357484264E+00  2.5060143289E+00  1.5434604383E+00
                       5.3001054081E+00  1.2290780938E+00  4.6303813148E+00
                       2.3583408082E-01  3.4867406700E+00  4.6303813148E+00
                       7.5946815190E-01  5.5122379249E+00  1.5434604383E+00
                       3.5922752657E+00  4.2493666857E+00  4.6303813148E+00
                       1.9121143553E+00  4.8051707408E-01  4.6303813148E+00
                      -9.2069275849E-01  1.7433883133E+00  1.5434604383E+00
                       0.0000000000E+00  0.0000000000E+00  0.0000000000E+00
                       0.0000000000E+00  0.0000000000E+00  3.0869208765E+00
            xcart     -4.9671884166E+00  9.0020447364E+00  2.9167175252E+00
                       4.6028974545E+00  4.7356807668E+00  2.9167175252E+00
                       1.0015747697E+01  2.3226209931E+00  8.7501525757E+00
                       4.4566182555E-01  6.5889849627E+00  8.7501525757E+00
                       1.4351868137E+00  1.0416620057E+01  2.9167175252E+00
                       6.7884164462E+00  8.0301392741E+00  8.7501525757E+00
                       3.6133724664E+00  9.0804567219E-01  8.7501525757E+00
                      -1.7398571661E+00  3.2945264554E+00  2.9167175252E+00
                       0.0000000000E+00  0.0000000000E+00  0.0000000000E+00
                       0.0000000000E+00  0.0000000000E+00  5.8334350505E+00
             xred      2.0509400000E-01  7.9490600000E-01  2.5000000000E-01
                       5.8182600000E-01  4.1817400000E-01  2.5000000000E-01
                       7.9490600000E-01  2.0509400000E-01  7.5000000000E-01
                       4.1817400000E-01  5.8182600000E-01  7.5000000000E-01
                       7.0908400000E-01  9.1981700000E-01  2.5000000000E-01
                       9.1981700000E-01  7.0908400000E-01  7.5000000000E-01
                       2.9091600000E-01  8.0183000000E-02  7.5000000000E-01
                       8.0183000000E-02  2.9091600000E-01  2.5000000000E-01
                       0.0000000000E+00  0.0000000000E+00  0.0000000000E+00
                       0.0000000000E+00  0.0000000000E+00  5.0000000000E-01
            znucl       37.00000   33.00000   78.00000

 chkinp: Checking input parameters for consistency.

== DATASET  1 ==================================================================
-   mpi_nproc: 1, omp_nthreads: -1 (-1 if OMP is not activated)

--- !DatasetInfo
iteration_state: {dtset: 1, }
dimensions: {natom: 10, nkpt: 2, mband: 75, nsppol: 1, nspinor: 1, nspden: 1, mpw: 26120, }
cutoff_energies: {ecut:  42.0, pawecutdg:  -1.0, }
electrons: {nelect:   1.32000000E+02, charge:   0.00000000E+00, occopt:   1.00000000E+00, tsmear:   1.00000000E-02, }
meta: {optdriver: 1, rfelfd: 2, }
...

 Real(R)+Recip(G) space primitive vectors, cartesian coordinates (Bohr,Bohr^-1):
 R(1)= 15.2257304  0.0000000  0.0000000  G(1)=  0.0656783  0.0590233  0.0000000
 R(2)=-10.1771711 11.3246657  0.0000000  G(2)=  0.0000000  0.0883028  0.0000000
 R(3)=  0.0000000  0.0000000 11.6668701  G(3)=  0.0000000  0.0000000  0.0857128
 Unit cell volume ucvol=  2.0116753E+03 bohr^3
 Angles (23,13,12)=  9.00000000E+01  9.00000000E+01  1.31945178E+02 degrees

 getcut: wavevector=  0.0000  0.0000  0.0000  ngfft=  90  90  72
         ecut(hartree)=     42.000   => boxcut(ratio)=   2.02617

--- Pseudopotential description ------------------------------------------------
- pspini: atom type   1  psp file is /scratch/users/j/a/jabreu/pseudos/PBEsol/Rb.psp8
- pspatm: opening atomic psp file    /scratch/users/j/a/jabreu/pseudos/PBEsol/Rb.psp8
- Rb    ONCVPSP-3.3.0  r_core=   1.71227   1.75361   1.90633
- 37.00000   9.00000    180112                znucl, zion, pspdat
    8 -116133    2    4       600   0.00000   pspcod,pspxc,lmax,lloc,mmax,r2well
    5.99000000000000    7.00000000000000    0.00000000000000   rchrg,fchrg,qchrg
     nproj     2     2     2
     extension_switch     1
  pspatm : epsatm=   34.48400912
         --- l  ekb(1:nproj) -->
             0    8.196957   -0.477221
             1    3.231347   -0.378736
             2   -1.047201    0.996637
 pspatm: atomic psp has been read  and splines computed

- pspini: atom type   2  psp file is /scratch/users/j/a/jabreu/pseudos/PBEsol/As.psp8
- pspatm: opening atomic psp file    /scratch/users/j/a/jabreu/pseudos/PBEsol/As.psp8
- As    ONCVPSP-3.3.0  r_core=   1.76603   1.70395   1.80867
- 33.00000  15.00000    180112                znucl, zion, pspdat
    8 -116133    2    4       600   0.00000   pspcod,pspxc,lmax,lloc,mmax,r2well
    5.99000000000000    5.00000000000000    0.00000000000000   rchrg,fchrg,qchrg
     nproj     2     2     2
     extension_switch     1
  pspatm : epsatm=   28.79155382
         --- l  ekb(1:nproj) -->
             0    8.270760    0.868950
             1    4.919053    0.756587
             2  -10.048665   -4.076802
 pspatm: atomic psp has been read  and splines computed

- pspini: atom type   3  psp file is /scratch/users/j/a/jabreu/pseudos/PBEsol/Pt.psp8
- pspatm: opening atomic psp file    /scratch/users/j/a/jabreu/pseudos/PBEsol/Pt.psp8
- Pt    ONCVPSP-3.3.0  r_core=   1.45722   1.45722   1.45722   1.91724
- 78.00000  18.00000    180112                znucl, zion, pspdat
    8 -116133    3    4       500   0.00000   pspcod,pspxc,lmax,lloc,mmax,r2well
    4.99000000000000    5.00000000000000    0.00000000000000   rchrg,fchrg,qchrg
     nproj     2     2     2     2
     extension_switch     1
  pspatm : epsatm=   26.54019552
         --- l  ekb(1:nproj) -->
             0   18.149684    1.747248
             1    8.048135    1.208190
             2    2.365973    0.348456
             3    3.491561    0.381218
 pspatm: atomic psp has been read  and splines computed

   4.04161088E+04                                ecore*ucvol(ha*bohr**3)

 ==>  initialize data related to q vector <==

 The list of irreducible perturbations for this q vector is:
    1)    idir= 1    ipert=  11
    2)    idir= 2    ipert=  11
    3)    idir= 3    ipert=  11

 Perturbation wavevector (in red.coord.)   0.000000  0.000000  0.000000
 Perturbation : derivative vs k along direction   1

 dfpt_looppert : COMMENT -
  In a d/dk calculation, iscf is set to -3 automatically.
[...]
  (in case of degenerate eigenvalues, averaged derivative)
 kpt#   1, nband= 75, wtk=  0.50000, kpt=  0.0000  0.0000  0.0000 (reduced coord)
  -0.00000    0.00000    0.00000    0.00000    0.00000    0.00000   -0.00000    0.00000
  -0.00000   -0.00000   -0.00000    0.00000   -0.00000    0.00000    0.00000   -0.00000
  -0.00000    0.00000   -0.00000    0.00000   -0.00000    0.00000    0.00000   -0.00000
   0.00000    0.00000   -0.00000    0.00000    0.00000    0.00000   -0.00000    0.00000
  -0.00000    0.00000    0.00000   -0.00000   -0.00000    0.00000    0.00000    0.00000
  -0.00000   -0.00000   -0.00000    0.00000   -0.00000   -0.00000    0.00000   -0.00000
  -0.00000   -0.00000    0.00000    0.00000   -0.00000    0.00000   -0.00000    0.00000
   0.00000   -0.00000    0.00000    0.00000    0.00000    0.00000    0.00000   -0.00000
   0.00000    0.00000   -0.00000   -0.00000    0.00000    0.00000   -0.00000    0.00000
  -0.00000   -0.00002    0.00147
 prteigrs : prtvol=0 or 1, do not print more k-points.

 Eight components of 2nd-order total energy (hartree) are
 1,2,3: 0th-order hamiltonian combined with 1st-order wavefunctions
     kin0=   9.11963139E+01 eigvalue=   9.36006315E+00  local=  -4.33889082E+01
 4,5,6: 1st-order hamiltonian combined with 1st and 0th-order wfs
     kin1=  -8.46308493E+01  Hartree=   0.00000000E+00     xc=   0.00000000E+00
 7,8,9: eventually, occupation + non-local contributions
    edocc=   8.86079585E+00     enl0=   6.32209816E+00   enl1=  -6.00698765E+01
 1-9 gives the relaxation energy (to be shifted if some occ is /=2.0)
   erelax=  -7.23503629E+01
  No Ewald or frozen-wf contrib.: the relaxation energy is the total one
 2DEtotal=   -0.7235036286E+02 Ha. Also 2DEtotal=   -0.196875349629E+04 eV
    (  non-var. 2DEtotal :   -7.2350362863E+01 Ha)

 Perturbation wavevector (in red.coord.)   0.000000  0.000000  0.000000
 Perturbation : derivative vs k along direction   2
 The set of symmetries contains only one element for this perturbation.
 symkpt : not enough symmetry to change the number of k points.

[...]

 Perturbation wavevector (in red.coord.)   0.000000  0.000000  0.000000
 Perturbation : derivative vs k along direction   3
 The set of symmetries contains only one element for this perturbation.
 symkpt : not enough symmetry to change the number of k points.

 Initialisation of the first-order wave-functions :
  ireadwf=   0

--- !BeginCycle
iteration_state: {dtset: 1, }
solver: {iscf: 7, nstep: 2000, nline: 4, wfoptalg: 0, }
tolerances: {tolwfr: 1.00E-20, }
...

     iter   2DEtotal(Ha)        deltaE(Ha) residm    vres2
-ETOT  1  -69.830280206930     -6.983E+01 7.796E-02 0.000E+00
 ETOT  2  -69.933370111857     -1.031E-01 2.550E-03 0.000E+00
 ETOT  3  -69.936359816290     -2.990E-03 2.819E-04 0.000E+00
 ETOT  4  -69.936646966851     -2.872E-04 3.400E-05 0.000E+00
 ETOT  5  -69.936684828821     -3.786E-05 6.103E-06 0.000E+00
 ETOT  6  -69.936690398213     -5.569E-06 7.872E-07 0.000E+00
 ETOT  7  -69.936691254564     -8.564E-07 1.488E-07 0.000E+00
 ETOT  8  -69.936691388938     -1.344E-07 1.945E-08 0.000E+00
 ETOT  9  -69.936691410237     -2.130E-08 3.797E-09 0.000E+00
 ETOT 10  -69.936691413629     -3.392E-09 5.210E-10 0.000E+00
 ETOT 11  -69.936691414173     -5.442E-10 1.419E-10 0.000E+00
 ETOT 12  -69.936691414261     -8.812E-11 2.225E-11 0.000E+00
 ETOT 13  -69.936691414276     -1.504E-11 4.493E-12 0.000E+00
 ETOT 14  -69.936691414279     -2.643E-12 6.128E-13 0.000E+00
 ETOT 15  -69.936691414280     -4.832E-13 1.378E-13 0.000E+00
 ETOT 16  -69.936691414280     -1.421E-14 1.894E-14 0.000E+00
 ETOT 17  -69.936691414280     -1.279E-13 4.360E-15 0.000E+00
 ETOT 18  -69.936691414280      2.842E-14 5.999E-16 0.000E+00
 ETOT 19  -69.936691414280     -1.421E-14 1.390E-16 0.000E+00
 ETOT 20  -69.936691414280      1.421E-14 1.927E-17 0.000E+00
 ETOT 21  -69.936691414280      2.842E-14 4.447E-18 0.000E+00
 ETOT 22  -69.936691414280      0.000E+00 6.204E-19 0.000E+00
 ETOT 23  -69.936691414280     -2.842E-14 1.428E-19 0.000E+00
 ETOT 24  -69.936691414280      0.000E+00 2.004E-20 0.000E+00
 ETOT 25  -69.936691414280      0.000E+00 9.977E-21 0.000E+00

 At SCF step   25   max residual=  9.98E-21 < tolwfr=  1.00E-20 =>converged.

 ----iterations are completed or convergence reached----

 dfpt_looppert: DFPT cycle converged with prtwf=-1. Will skip output of the 1st-order WFK file.
 dfpt_looppert : ek2=    7.6569346175E+01
          f-sum rule ratio=    1.0863883067E+00
 prteigrs : about to open file /scratch/users/j/a/jabreu/flow_simple_10atoms/flow/w507/t1/tmpdata/tmp_1WF1_EIG
 Expectation of eigenvalue derivatives (hartree) for nkpt=   2  k points:
  (in case of degenerate eigenvalues, averaged derivative)
 kpt#   1, nband= 75, wtk=  0.50000, kpt=  0.0000  0.0000  0.0000 (reduced coord)
  -0.00000   -0.00000   -0.00000    0.00000   -0.00000    0.00000   -0.00000    0.00000
  -0.00000   -0.00000    0.00000    0.00000    0.00000   -0.00000   -0.00000    0.00000
  -0.00000   -0.00000   -0.00000    0.00000   -0.00000   -0.00000    0.00000    0.00000
  -0.00000    0.00000    0.00000    0.00000   -0.00000    0.00000    0.00000    0.00000
   0.00000   -0.00000    0.00000   -0.00000    0.00000    0.00000    0.00000    0.00000
   0.00000    0.00000    0.00000   -0.00000    0.00000    0.00000   -0.00000    0.00000
   0.00000    0.00000   -0.00000    0.00000   -0.00000    0.00000    0.00000    0.00000
  -0.00000   -0.00000   -0.00000   -0.00000    0.00000   -0.00000   -0.00000   -0.00000
   0.00000   -0.00000    0.00000    0.00000   -0.00000   -0.00000    0.00000   -0.00000
   0.00000    0.00009   -0.00055
 prteigrs : prtvol=0 or 1, do not print more k-points.

 Eight components of 2nd-order total energy (hartree) are
 1,2,3: 0th-order hamiltonian combined with 1st-order wavefunctions
     kin0=   8.79960189E+01 eigvalue=   8.71221653E+00  local=  -4.17738888E+01
 4,5,6: 1st-order hamiltonian combined with 1st and 0th-order wfs
     kin1=  -8.31840423E+01  Hartree=   0.00000000E+00     xc=   0.00000000E+00
 7,8,9: eventually, occupation + non-local contributions
    edocc=   9.13504538E+00     enl0=   5.86729940E+00   enl1=  -5.66893405E+01
 1-9 gives the relaxation energy (to be shifted if some occ is /=2.0)
   erelax=  -6.99366914E+01
  No Ewald or frozen-wf contrib.: the relaxation energy is the total one
 2DEtotal=   -0.6993669141E+02 Ha. Also 2DEtotal=   -0.190307415597E+04 eV
    (  non-var. 2DEtotal :   -6.9936691414E+01 Ha)

 CALCULATION OF EFFECTIVE MASSES
 NOTE : Additional infos (eff. mass eigenvalues, eigenvectors and, if degenerate, average mass) are available in stdout.

 K-point ( 0.000, 0.000, 0.000) | band =    66
 Effective mass tensor:
            -49.6154832449             11.6679967597             -0.0003038303
             11.6679967597            -28.5590476556              0.0001354735
             -0.0003038303              0.0001354735             -0.1150897121
 Effective mass tensor eigenvalues:
            -54.8030383672            -23.3714925353             -0.1150897101
 Angular average effective mass 1/(<1/m>)=  -0.3428607312
 Angular average effective mass for Frohlich model (<m**0.5>)**2=  -1.4469368918
 Effective masses along directions: (cart. coord. / red. coord. -> eff. mass)
    1:   1.000000  0.000000  0.000000 /   0.831377 -0.555709  0.000000 -> -44.8484418033
    2:   0.000000  1.000000  0.000000 /   0.000000  1.000000  0.000000 -> -25.8151027972
    3:   0.000000  0.000000  1.000000 /   0.000000  0.000000  1.000000 ->  -0.1150897101
    4:   0.577350  0.577350  0.577350 /   0.792346  0.059716  0.607143 ->  -0.3421503701
    5:   0.000000  0.707107  0.707107 /   0.000000  0.696505  0.717552 ->  -0.2291566501
    6:   0.707107  0.000000  0.707107 /   0.701182 -0.468684  0.537288 ->  -0.2295927851
    7:   0.707107  0.707107  0.000000 /   0.997172  0.075152  0.000000 -> -25.2353892972

 K-point ( 0.233, 0.233, 0.000) | band =    67
 Effective mass tensor:
              3.3102480681             -1.4235928178             -0.0000022719
             -1.4235928178              0.7515590087              0.0000010107
             -0.0000022719              0.0000010107              0.6789279411
 Effective mass tensor eigenvalues:
              0.1169184453              0.6789279411              3.9448886315
 Angular average effective mass 1/(<1/m>)=   0.2918465848
 Angular average effective mass for Frohlich model (<m**0.5>)**2=   0.4625335487
 Effective masses along directions: (cart. coord. / red. coord. -> eff. mass)
    1:   1.000000  0.000000  0.000000 /   0.831377 -0.555709  0.000000 ->   0.6136979803
    2:   0.000000  1.000000  0.000000 /   0.000000  1.000000  0.000000 ->   0.1393340427
    3:   0.000000  0.000000  1.000000 /   0.000000  0.000000  1.000000 ->   0.6789279411
    4:   0.577350  0.577350  0.577350 /   0.792346  0.059716  0.607143 ->   0.1823442295
    5:   0.000000  0.707107  0.707107 /   0.000000  0.696505  0.717552 ->   0.2312163693
    6:   0.707107  0.000000  0.707107 /   0.701182 -0.468684  0.537288 ->   0.6446667499
    7:   0.707107  0.707107  0.000000 /   0.997172  0.075152  0.000000 ->   0.1335159161

 END OF EFFECTIVE MASSES SECTION

 ---- first-order wavefunction calculations are completed ----

 Total localisation tensor (bohr^2) in cartesian coordinates
  WARNING : still subject to testing - especially symmetries.
      direction              matrix element
   alpha     beta       real part   imaginary part
     1        1       3.8646036728    0.0000000000
     1        2      -1.3279946502    0.0000000000
     1        3       0.0000000000    0.0000000000
     2        1      -1.3279946502    0.0000000000
     2        2       1.4777284743    0.0000000000
     2        3       0.0000000000    0.0000000000
     3        1       0.0000000000    0.0000000000
     3        2       0.0000000000    0.0000000000
     3        3       2.1502927792    0.0000000000

 respfn : d/dk was computed, but no 2DTE, so no DDB output.

== END DATASET(S) ==============================================================

 -outvars: echo values of variables after computation  --------
            acell      1.0000000000E+00  1.0000000000E+00  1.0000000000E+00 Bohr
              amu      8.54678000E+01  7.49215900E+01  1.95080000E+02
             ecut      4.20000000E+01 Hartree
           etotal     -6.9936691414E+01
            fcart      0.0000000000E+00  0.0000000000E+00  0.0000000000E+00
                       0.0000000000E+00  0.0000000000E+00  0.0000000000E+00
                       0.0000000000E+00  0.0000000000E+00  0.0000000000E+00
                       0.0000000000E+00  0.0000000000E+00  0.0000000000E+00
                       0.0000000000E+00  0.0000000000E+00  0.0000000000E+00
                       0.0000000000E+00  0.0000000000E+00  0.0000000000E+00
                       0.0000000000E+00  0.0000000000E+00  0.0000000000E+00
                       0.0000000000E+00  0.0000000000E+00  0.0000000000E+00
                       0.0000000000E+00  0.0000000000E+00  0.0000000000E+00
                       0.0000000000E+00  0.0000000000E+00  0.0000000000E+00
-          fftalg         512
           irdden           1
           irdwfk           1
           istwfk        1    0
              ixc     -116133
              kpt      0.00000000E+00  0.00000000E+00  0.00000000E+00
                       2.33088231E-01  2.33088231E-01  0.00000000E+00
           kptopt           0
P           mkmem           2
P          mkqmem           2
P          mk1mem           2
            natom          10
            nband          75
           nbdbuf           4
            ngfft          90      90      72
             nkpt           2
            nstep        2000
             nsym           8
           ntypat           3
              occ      2.000000  2.000000  2.000000  2.000000  2.000000  2.000000
                       2.000000  2.000000  2.000000  2.000000  2.000000  2.000000
                       2.000000  2.000000  2.000000  2.000000  2.000000  2.000000
                       2.000000  2.000000  2.000000  2.000000  2.000000  2.000000
                       2.000000  2.000000  2.000000  2.000000  2.000000  2.000000
                       2.000000  2.000000  2.000000  2.000000  2.000000  2.000000
                       2.000000  2.000000  2.000000  2.000000  2.000000  2.000000
                       2.000000  2.000000  2.000000  2.000000  2.000000  2.000000
                       2.000000  2.000000  2.000000  2.000000  2.000000  2.000000
                       2.000000  2.000000  2.000000  2.000000  2.000000  2.000000
                       2.000000  2.000000  2.000000  2.000000  2.000000  2.000000
                       0.000000  0.000000  0.000000  0.000000  0.000000  0.000000
                       0.000000  0.000000  0.000000
        optdriver           1
            prtwf          -1
            rfdir           1       1       1
           rfelfd           2
            rprim      1.5225730368E+01  0.0000000000E+00  0.0000000000E+00
                      -1.0177171088E+01  1.1324665729E+01  0.0000000000E+00
                       0.0000000000E+00  0.0000000000E+00  1.1666870101E+01
          spgroup          63
           strten      0.0000000000E+00  0.0000000000E+00  0.0000000000E+00
                       0.0000000000E+00  0.0000000000E+00  0.0000000000E+00
           symrel      1  0  0   0  1  0   0  0  1      -1  0  0   0 -1  0   0  0 -1
                       0  1  0   1  0  0   0  0 -1       0 -1  0  -1  0  0   0  0  1
                      -1  0  0   0 -1  0   0  0  1       1  0  0   0  1  0   0  0 -1
                       0 -1  0  -1  0  0   0  0 -1       0  1  0   1  0  0   0  0  1
            tnons      0.0000000  0.0000000  0.0000000     0.0000000  0.0000000  0.0000000
                       0.0000000  0.0000000  0.0000000     0.0000000  0.0000000  0.0000000
                       0.0000000  0.0000000  0.5000000     0.0000000  0.0000000  0.5000000
                       0.0000000  0.0000000  0.5000000     0.0000000  0.0000000  0.5000000
           tolwfr      1.00000000E-20
            typat      1  1  1  1  2  2  2  2  3  3
           useylm           1
              wtk        0.50000    0.50000
           xangst     -2.6285229008E+00  4.7636769052E+00  1.5434604383E+00
                       2.4357484264E+00  2.5060143289E+00  1.5434604383E+00
                       5.3001054081E+00  1.2290780938E+00  4.6303813148E+00
                       2.3583408082E-01  3.4867406700E+00  4.6303813148E+00
                       7.5946815190E-01  5.5122379249E+00  1.5434604383E+00
                       3.5922752657E+00  4.2493666857E+00  4.6303813148E+00
                       1.9121143553E+00  4.8051707408E-01  4.6303813148E+00
                      -9.2069275849E-01  1.7433883133E+00  1.5434604383E+00
                       0.0000000000E+00  0.0000000000E+00  0.0000000000E+00
                       0.0000000000E+00  0.0000000000E+00  3.0869208765E+00
            xcart     -4.9671884166E+00  9.0020447364E+00  2.9167175252E+00
                       4.6028974545E+00  4.7356807668E+00  2.9167175252E+00
                       1.0015747697E+01  2.3226209931E+00  8.7501525757E+00
                       4.4566182555E-01  6.5889849627E+00  8.7501525757E+00
                       1.4351868137E+00  1.0416620057E+01  2.9167175252E+00
                       6.7884164462E+00  8.0301392741E+00  8.7501525757E+00
                       3.6133724664E+00  9.0804567219E-01  8.7501525757E+00
                      -1.7398571661E+00  3.2945264554E+00  2.9167175252E+00
                       0.0000000000E+00  0.0000000000E+00  0.0000000000E+00
                       0.0000000000E+00  0.0000000000E+00  5.8334350505E+00
             xred      2.0509400000E-01  7.9490600000E-01  2.5000000000E-01
                       5.8182600000E-01  4.1817400000E-01  2.5000000000E-01
                       7.9490600000E-01  2.0509400000E-01  7.5000000000E-01
                       4.1817400000E-01  5.8182600000E-01  7.5000000000E-01
                       7.0908400000E-01  9.1981700000E-01  2.5000000000E-01
                       9.1981700000E-01  7.0908400000E-01  7.5000000000E-01
                       2.9091600000E-01  8.0183000000E-02  7.5000000000E-01
                       8.0183000000E-02  2.9091600000E-01  2.5000000000E-01
                       0.0000000000E+00  0.0000000000E+00  0.0000000000E+00
                       0.0000000000E+00  0.0000000000E+00  5.0000000000E-01
            znucl       37.00000   33.00000   78.00000

- Timing analysis has been suppressed with timopt=0

 Suggested references for the acknowledgment of ABINIT usage.

 Calculation completed.
.Delivered   2 WARNINGs and   7 COMMENTs to log file.