.Version 9.5.1 of ABINIT

 ABINIT is a project of the Universite Catholique de Louvain,
 Corning Inc. and other collaborators, see ~abinit/doc/developers/contributors.txt .
 acknowledgments of the ABINIT effort.

.Starting date : Wed 19 May 2021.
- ( at 01h20 )

- input  file    -> /scratch/users/j/a/jabreu/flow_simple_8atoms/flow/w429/t1/run.abi
- output file    -> /scratch/users/j/a/jabreu/flow_simple_8atoms/flow/w429/t1/run.abo
- root for input  files -> /scratch/users/j/a/jabreu/flow_simple_8atoms/flow/w429/t1/indata/in
- root for output files -> /scratch/users/j/a/jabreu/flow_simple_8atoms/flow/w429/t1/outdata/out

 Symmetries : space group I-4 2 d (#122); Bravais tI (body-center tetrag.)
     intxc =       0      iscf =       7    lmnmax =      18     lnmax =       6
     mgfft =      90  mpssoang =       3    mqgrid =    3001     natom =       8
  nloc_mem =       1    nspden =       1   nspinor =       1    nsppol =       1
      nsym =       8    n1xccc =    2501    ntypat =       3    occopt =       1
   xclevel =       2
-    mband =          63        mffmem =           1         mkmem =           1
-   mkqmem =           1        mk1mem =           1           mpw =       19365
      nfft =      729000          nkpt =           1
  Rough estimation (10% accuracy) of disk space for files :

------------- Echo of variables that govern the present computation ------------
-
- outvars: echo of selected default values
-   iomode0 =  0 , fftalg0 =512 , wfoptalg0 =  0
-
- outvars: echo of global parameters not present in the input file
-  max_nthreads =    0
-
 -outvars: echo values of preprocessed input variables --------
            acell      1.0000000000E+00  1.0000000000E+00  1.0000000000E+00 Bohr
              amu      2.43050000E+01  1.18710000E+02  7.49215900E+01
             ecut      4.20000000E+01 Hartree
-          fftalg         512
           irdden           1
           irdwfk           1
           istwfk        1
              ixc     -116133
           kptopt           0
P           mkmem           1
P          mkqmem           1
P          mk1mem           1
            natom           8
            nband          63
           nbdbuf           4
            ngfft          90      90      90
             nkpt           1
            nstep        2000
             nsym           8
           ntypat           3
              occ      2.000000  2.000000  2.000000  2.000000  2.000000  2.000000
                       2.000000  2.000000  2.000000  2.000000  2.000000  2.000000
                       2.000000  2.000000  2.000000  2.000000  2.000000  2.000000
                       2.000000  2.000000  2.000000  2.000000  2.000000  2.000000
                       2.000000  2.000000  2.000000  2.000000  2.000000  2.000000
                       2.000000  2.000000  2.000000  2.000000  2.000000  2.000000
                       2.000000  2.000000  2.000000  2.000000  2.000000  2.000000
                       2.000000  2.000000  2.000000  2.000000  2.000000  2.000000
                       2.000000  2.000000  2.000000  2.000000  2.000000  2.000000
                       0.000000  0.000000  0.000000  0.000000  0.000000  0.000000
                       0.000000  0.000000  0.000000
        optdriver           1
            prtwf          -1
            rfdir           1       1       1
           rfelfd           2
            rprim      1.0467972801E+01  0.0000000000E+00 -9.1152408496E+00
                      -2.1691817999E+00  1.0240757046E+01 -9.1152408496E+00
                       0.0000000000E+00  0.0000000000E+00  1.3880420393E+01
          spgroup         122
           symrel      1  0  0   0  1  0   0  0  1       0  0  1  -1 -1 -1   1  0  0
                       0  1  0   1  0  0  -1 -1 -1      -1 -1 -1   0  0  1   0  1  0
                       0  1  0   1  0  0   0  0  1       0  0  1  -1 -1 -1   0  1  0
                       1  0  0   0  1  0  -1 -1 -1      -1 -1 -1   0  0  1   1  0  0
            tnons      0.0000000  0.0000000  0.0000000    -0.2500000  0.2500000  0.5000000
                      -0.0000000 -0.0000000 -0.0000000    -0.2500000  0.2500000  0.5000000
                      -0.2500000  0.2500000  0.5000000     0.0000000  0.0000000 -0.0000000
                      -0.2500000  0.2500000  0.5000000     0.0000000  0.0000000 -0.0000000
           tolwfr      1.00000000E-20
            typat      1  1  2  2  3  3  3  3
           useylm           1
           xangst      3.8675890772E+00  1.3547938068E+00 -1.1509766495E+00
                       0.0000000000E+00  0.0000000000E+00  0.0000000000E+00
                       2.1957655282E+00  2.7095876137E+00 -4.8235777084E+00
                       5.2394197921E-01  4.0643814205E+00 -1.1509766495E+00
                       5.4702474528E-01  6.7739690342E-01  2.4658341498E+00
                       1.0724861942E+00  4.7436533586E+00 -6.0285996535E+00
                       2.7466235470E+00  3.3869845171E+00 -2.3559985945E+00
                       4.4169276263E+00  2.0303156756E+00  1.3148575003E+00
            xcart      7.3086841505E+00  2.5601892615E+00 -2.1750306529E+00
                       0.0000000000E+00  0.0000000000E+00  0.0000000000E+00
                       4.1493955003E+00  5.1203785229E+00 -9.1152408496E+00
                       9.9010685023E-01  7.6805677844E+00 -2.1750306529E+00
                       1.0337269565E+00  1.2800946307E+00  4.6597512322E+00
                       2.0267051884E+00  8.9642057171E+00 -1.1392402310E+01
                       5.1903662940E+00  6.4004731537E+00 -4.4521921131E+00
                       8.3467835625E+00  3.8367405903E+00  2.4847205794E+00
             xred      7.5000000000E-01  2.5000000000E-01  5.0000000000E-01
                       0.0000000000E+00  0.0000000000E+00  0.0000000000E+00
                       5.0000000000E-01  5.0000000000E-01 -5.5511151231E-17
                       2.5000000000E-01  7.5000000000E-01  5.0000000000E-01
                       1.2465400000E-01  1.2500000000E-01  4.9965400000E-01
                       3.7500000000E-01  8.7534600000E-01  3.4600000000E-04
                       6.2534600000E-01  6.2500000000E-01  5.0034600000E-01
                       8.7500000000E-01  3.7465400000E-01  9.9965400000E-01
            znucl       12.00000   50.00000   33.00000

 chkinp: Checking input parameters for consistency.

== DATASET  1 ==================================================================
-   mpi_nproc: 1, omp_nthreads: -1 (-1 if OMP is not activated)

--- !DatasetInfo
iteration_state: {dtset: 1, }
dimensions: {natom: 8, nkpt: 1, mband: 63, nsppol: 1, nspinor: 1, nspden: 1, mpw: 19365, }
cutoff_energies: {ecut:  42.0, pawecutdg:  -1.0, }
electrons: {nelect:   1.08000000E+02, charge:   0.00000000E+00, occopt:   1.00000000E+00, tsmear:   1.00000000E-02, }
meta: {optdriver: 1, rfelfd: 2, }
...

 Real(R)+Recip(G) space primitive vectors, cartesian coordinates (Bohr,Bohr^-1):
 R(1)= 10.4679728  0.0000000 -9.1152408  G(1)=  0.0955295  0.0202349  0.0000000
 R(2)= -2.1691818 10.2407570 -9.1152408  G(2)=  0.0000000  0.0976490  0.0000000
 R(3)=  0.0000000  0.0000000 13.8804204  G(3)=  0.0627340  0.0774141  0.0720439
 Unit cell volume ucvol=  1.4879806E+03 bohr^3
 Angles (23,13,12)=  1.31048508E+02  1.31048508E+02  7.17360212E+01 degrees

 getcut: wavevector=  0.0000  0.0000  0.0000  ngfft=  90  90  90
         ecut(hartree)=     42.000   => boxcut(ratio)=   2.22295

 getcut : COMMENT -
  Note that boxcut > 2.2 ; recall that boxcut=Gcut(box)/Gcut(sphere) = 2
  is sufficient for exact treatment of convolution.
  Such a large boxcut is a waste : you could raise ecut
  e.g. ecut=   51.885762 Hartrees makes boxcut=2

--- Pseudopotential description ------------------------------------------------
- pspini: atom type   1  psp file is /scratch/users/j/a/jabreu/pseudos/PBEsol/Mg.psp8
- pspatm: opening atomic psp file    /scratch/users/j/a/jabreu/pseudos/PBEsol/Mg.psp8
- Mg    ONCVPSP-3.3.0  r_core=   1.16056   1.56380
- 12.00000  10.00000    180112                znucl, zion, pspdat
    8 -116133    1    4       400   0.00000   pspcod,pspxc,lmax,lloc,mmax,r2well
    3.99000000000000    0.00000000000000    0.00000000000000   rchrg,fchrg,qchrg
     nproj     2     2
     extension_switch     1
  pspatm : epsatm=    9.18164846
         --- l  ekb(1:nproj) -->
             0    2.230603   -0.826587
             1   -6.503151   -2.501445
 pspatm: atomic psp has been read  and splines computed

- pspini: atom type   2  psp file is /scratch/users/j/a/jabreu/pseudos/PBEsol/Sn.psp8
- pspatm: opening atomic psp file    /scratch/users/j/a/jabreu/pseudos/PBEsol/Sn.psp8
- Sn    ONCVPSP-3.3.0  r_core=   2.27326   2.62311   1.85601
- 50.00000  14.00000    180112                znucl, zion, pspdat
    8 -116133    2    4       600   0.00000   pspcod,pspxc,lmax,lloc,mmax,r2well
    5.99000000000000    6.50000000000000    0.00000000000000   rchrg,fchrg,qchrg
     nproj     2     2     2
     extension_switch     1
  pspatm : epsatm=   32.44586081
         --- l  ekb(1:nproj) -->
             0    5.587869    0.749373
             1    4.197111    0.728791
             2   -5.271877   -1.523486
 pspatm: atomic psp has been read  and splines computed

- pspini: atom type   3  psp file is /scratch/users/j/a/jabreu/pseudos/PBEsol/As.psp8
- pspatm: opening atomic psp file    /scratch/users/j/a/jabreu/pseudos/PBEsol/As.psp8
- As    ONCVPSP-3.3.0  r_core=   1.76603   1.70395   1.80867
- 33.00000  15.00000    180112                znucl, zion, pspdat
    8 -116133    2    4       600   0.00000   pspcod,pspxc,lmax,lloc,mmax,r2well
    5.99000000000000    5.00000000000000    0.00000000000000   rchrg,fchrg,qchrg
     nproj     2     2     2
     extension_switch     1
  pspatm : epsatm=   28.79155382
         --- l  ekb(1:nproj) -->
             0    8.270760    0.868950
             1    4.919053    0.756587
             2  -10.048665   -4.076802
 pspatm: atomic psp has been read  and splines computed

   2.14294933E+04                                ecore*ucvol(ha*bohr**3)

-inwffil : will read wavefunctions from disk file /scratch/users/j/a/jabreu/flow_simple_8atoms/flow/w429/t1/indata/in_WFK

 ==>  initialize data related to q vector <==

 The list of irreducible perturbations for this q vector is:
    1)    idir= 1    ipert=   9
    2)    idir= 2    ipert=   9
    3)    idir= 3    ipert=   9

 Perturbation wavevector (in red.coord.)   0.000000  0.000000  0.000000
 Perturbation : derivative vs k along direction   1

 dfpt_looppert : COMMENT -
  In a d/dk calculation, iscf is set to -3 automatically.
 The set of symmetries contains only one element for this perturbation.
 symkpt : not enough symmetry to change the number of k points.

[...]

 Initialisation of the first-order wave-functions :
  ireadwf=   0

--- !BeginCycle
iteration_state: {dtset: 1, }
solver: {iscf: 7, nstep: 2000, nline: 4, wfoptalg: 0, }
tolerances: {tolwfr: 1.00E-20, }
...

     iter   2DEtotal(Ha)        deltaE(Ha) residm    vres2
-ETOT  1  -107.36179746163     -1.074E+02 7.225E-02 0.000E+00
 ETOT  2  -107.43941868960     -7.762E-02 6.864E-03 0.000E+00
[...]
 ETOT  8  -107.43956048535     -5.684E-14 1.350E-08 0.000E+00
 ETOT  9  -107.43956048535      1.279E-13 9.679E-10 0.000E+00
 ETOT 10  -107.43956048535     -1.421E-14 2.041E-10 0.000E+00
 ETOT 11  -107.43956048535     -4.263E-14 1.462E-11 0.000E+00
 ETOT 12  -107.43956048535      0.000E+00 3.125E-12 0.000E+00
 ETOT 13  -107.43956048535      0.000E+00 2.231E-13 0.000E+00
 ETOT 14  -107.43956048535      0.000E+00 4.816E-14 0.000E+00
 ETOT 15  -107.43956048535     -1.421E-14 3.424E-15 0.000E+00
 ETOT 16  -107.43956048535     -1.421E-14 7.453E-16 0.000E+00
 ETOT 17  -107.43956048535      1.421E-14 5.272E-17 0.000E+00
 ETOT 18  -107.43956048535     -1.421E-14 1.156E-17 0.000E+00
 ETOT 19  -107.43956048535      0.000E+00 8.135E-19 0.000E+00
 ETOT 20  -107.43956048535      0.000E+00 1.795E-19 0.000E+00
 ETOT 21  -107.43956048535      1.421E-14 1.257E-20 0.000E+00
 ETOT 22  -107.43956048535      0.000E+00 9.733E-21 0.000E+00

 At SCF step   22   max residual=  9.73E-21 < tolwfr=  1.00E-20 =>converged.

 ----iterations are completed or convergence reached----

 dfpt_looppert: DFPT cycle converged with prtwf=-1. Will skip output of the 1st-order WFK file.
 dfpt_looppert : ek2=    8.1311011177E+01
          f-sum rule ratio=    1.3750122339E+00
 prteigrs : about to open file /scratch/users/j/a/jabreu/flow_simple_8atoms/flow/w429/t1/tmpdata/tmp_1WF1_EIG
 Expectation of eigenvalue derivatives (hartree) for nkpt=   1  k points:
  (in case of degenerate eigenvalues, averaged derivative)
 kpt#   1, nband= 63, wtk=  1.00000, kpt=  0.0000  0.0000  0.0000 (reduced coord)
  -0.00000    0.00000    0.00000   -0.00000    0.00000    0.00000    0.00000    0.00000
  -0.00000   -0.00000   -0.00000   -0.00000   -0.00000   -0.00000   -0.00000   -0.00000
   0.00000   -0.00000    0.00000    0.00000   -0.00000   -0.00000    0.00000    0.00000
  -0.00000    0.00000    0.00000    0.00000    0.00000   -0.00000   -0.00000    0.00000
   0.00000    0.00000    0.00000    0.00000    0.00000    0.00000   -0.00000    0.00000
   0.00000    0.00000    0.00000    0.00000   -0.00000   -0.00000    0.00000   -0.00000
   0.00000   -0.00000   -0.00000   -0.00000   -0.00000   -0.00000    0.00000   -0.00000
   0.00000    0.00000    0.00000   -0.00000    0.00000    0.00000    0.00000

 Eight components of 2nd-order total energy (hartree) are
 1,2,3: 0th-order hamiltonian combined with 1st-order wavefunctions
     kin0=   1.01719435E+02 eigvalue=   1.48094357E+01  local=  -4.31621272E+01
 4,5,6: 1st-order hamiltonian combined with 1st and 0th-order wfs
     kin1=  -1.11803635E+02  Hartree=   0.00000000E+00     xc=   0.00000000E+00
 7,8,9: eventually, occupation + non-local contributions
    edocc=   2.45469392E+01     enl0=   9.52587791E+00   enl1=  -1.03075486E+02
 1-9 gives the relaxation energy (to be shifted if some occ is /=2.0)
   erelax=  -1.07439560E+02
  No Ewald or frozen-wf contrib.: the relaxation energy is the total one
 2DEtotal=   -0.1074395605E+03 Ha. Also 2DEtotal=   -0.292357912212E+04 eV
    (  non-var. 2DEtotal :   -1.0743956049E+02 Ha)

 Perturbation wavevector (in red.coord.)   0.000000  0.000000  0.000000
 Perturbation : derivative vs k along direction   2
 The set of symmetries contains only one element for this perturbation.
 symkpt : not enough symmetry to change the number of k points.

[...]

 Perturbation wavevector (in red.coord.)   0.000000  0.000000  0.000000
 Perturbation : derivative vs k along direction   3
 The set of symmetries contains only one element for this perturbation.
 symkpt : not enough symmetry to change the number of k points.

-inwffil : will read wavefunctions from disk file /scratch/users/j/a/jabreu/flow_simple_8atoms/flow/w429/t1/indata/in_WFK

 Initialisation of the first-order wave-functions :
  ireadwf=   0

--- !BeginCycle
iteration_state: {dtset: 1, }
solver: {iscf: 7, nstep: 2000, nline: 4, wfoptalg: 0, }
tolerances: {tolwfr: 1.00E-20, }
...

     iter   2DEtotal(Ha)        deltaE(Ha) residm    vres2
-ETOT  1  -170.35946881506     -1.704E+02 1.350E-01 0.000E+00
 ETOT  2  -170.46404297429     -1.046E-01 6.430E-03 0.000E+00
 ETOT  3  -170.46420911938     -1.661E-04 9.187E-04 0.000E+00
 ETOT  4  -170.46420997577     -8.564E-07 4.765E-05 0.000E+00
 ETOT  5  -170.46420998277     -6.997E-09 9.056E-06 0.000E+00
 ETOT  6  -170.46420998284     -6.648E-11 4.647E-07 0.000E+00
 ETOT  7  -170.46420998284     -6.253E-13 9.556E-08 0.000E+00
 ETOT  8  -170.46420998284     -4.263E-13 4.736E-09 0.000E+00
 ETOT  9  -170.46420998284     -3.126E-13 1.059E-09 0.000E+00
 ETOT 10  -170.46420998284      0.000E+00 5.048E-11 0.000E+00
 ETOT 11  -170.46420998284     -2.842E-14 1.217E-11 0.000E+00
 ETOT 12  -170.46420998284      0.000E+00 5.758E-13 0.000E+00
 ETOT 13  -170.46420998284      5.684E-14 1.439E-13 0.000E+00
 ETOT 14  -170.46420998284      0.000E+00 6.943E-15 0.000E+00
 ETOT 15  -170.46420998284     -2.842E-14 1.740E-15 0.000E+00
 ETOT 16  -170.46420998284      2.842E-14 8.547E-17 0.000E+00
 ETOT 17  -170.46420998284      0.000E+00 2.131E-17 0.000E+00
 ETOT 18  -170.46420998284     -2.842E-14 1.055E-18 0.000E+00
 ETOT 19  -170.46420998284      0.000E+00 2.626E-19 0.000E+00
 ETOT 20  -170.46420998284     -2.842E-14 1.302E-20 0.000E+00
 ETOT 21  -170.46420998284      2.842E-14 9.808E-21 0.000E+00

 At SCF step   21   max residual=  9.81E-21 < tolwfr=  1.00E-20 =>converged.

 ----iterations are completed or convergence reached----

 dfpt_looppert: DFPT cycle converged with prtwf=-1. Will skip output of the 1st-order WFK file.
 dfpt_looppert : ek2=    1.2892335519E+02
          f-sum rule ratio=    1.3768363962E+00
 prteigrs : about to open file /scratch/users/j/a/jabreu/flow_simple_8atoms/flow/w429/t1/tmpdata/tmp_1WF1_EIG
 Expectation of eigenvalue derivatives (hartree) for nkpt=   1  k points:
  (in case of degenerate eigenvalues, averaged derivative)
 kpt#   1, nband= 63, wtk=  1.00000, kpt=  0.0000  0.0000  0.0000 (reduced coord)
   0.00000   -0.00000    0.00000    0.00000    0.00000    0.00000   -0.00000   -0.00000
   0.00000   -0.00000   -0.00000   -0.00000   -0.00000   -0.00000   -0.00000   -0.00000
   0.00000   -0.00000    0.00000    0.00000   -0.00000   -0.00000    0.00000    0.00000
  -0.00000    0.00000   -0.00000   -0.00000   -0.00000   -0.00000   -0.00000    0.00000
   0.00000    0.00000    0.00000    0.00000    0.00000    0.00000   -0.00000    0.00000
   0.00000    0.00000   -0.00000    0.00000    0.00000    0.00000    0.00000   -0.00000
  -0.00000   -0.00000   -0.00000    0.00000    0.00000    0.00000   -0.00000    0.00000
   0.00000    0.00000    0.00000    0.00000   -0.00000   -0.00000    0.00000

 Eight components of 2nd-order total energy (hartree) are
 1,2,3: 0th-order hamiltonian combined with 1st-order wavefunctions
     kin0=   1.60498179E+02 eigvalue=   2.35201730E+01  local=  -6.79984441E+01
 4,5,6: 1st-order hamiltonian combined with 1st and 0th-order wfs
     kin1=  -1.77506368E+02  Hartree=   0.00000000E+00     xc=   0.00000000E+00
 7,8,9: eventually, occupation + non-local contributions
    edocc=   3.92879409E+01     enl0=   1.51563613E+01   enl1=  -1.63422052E+02
 1-9 gives the relaxation energy (to be shifted if some occ is /=2.0)
   erelax=  -1.70464210E+02
  No Ewald or frozen-wf contrib.: the relaxation energy is the total one
 2DEtotal=   -0.1704642100E+03 Ha. Also 2DEtotal=   -0.463856705223E+04 eV
    (  non-var. 2DEtotal :   -1.7046420998E+02 Ha)

 CALCULATION OF EFFECTIVE MASSES
 NOTE : Additional infos (eff. mass eigenvalues, eigenvectors and, if degenerate, average mass) are available in stdout.

 K-point ( 0.000, 0.000, 0.000) | band =    54
 Effective mass tensor:
             -0.4312523566              0.0753423552             -0.1341236337
              0.0753423552             -0.3993345849             -0.1655093136
             -0.1341236337             -0.1655093136             -0.1976696130
 Effective mass tensor eigenvalues:
             -0.4923074740             -0.4923074728             -0.0436416077
 Angular average effective mass 1/(<1/m>)=  -0.1112082545
 Angular average effective mass for Frohlich model (<m**0.5>)**2=  -0.1695668459
 Effective masses along directions: (cart. coord. / red. coord. -> eff. mass)
    1:   1.000000  0.000000  0.000000 /   0.979197 -0.202910  0.000000 ->  -0.2052126243
    2:   0.000000  1.000000  0.000000 /   0.000000  1.000000  0.000000 ->  -0.1572680077
    3:   0.000000  0.000000  1.000000 /  -0.481190 -0.481190  0.732743 ->  -0.0635128396
    4:   0.577350  0.577350  0.577350 /   0.096726 -0.074627  0.992509 ->  -0.4919892513
    5:   0.000000  0.707107  0.707107 /  -0.547662  0.067623  0.833963 ->  -0.2986625790
    6:   0.707107  0.000000  0.707107 /   0.075404 -0.629018  0.773725 ->  -0.2459248173
    7:   0.707107  0.707107  0.000000 /   0.791918  0.610627  0.000000 ->  -0.1096189417

 K-point ( 0.000, 0.000, 0.000) | band =    55
 Effective mass tensor:
              0.0504048569             -0.0012692186              0.0022594487
             -0.0012692186              0.0498671690              0.0027881730
              0.0022594487              0.0027881730              0.0464699176
 Effective mass tensor eigenvalues:
              0.0438751593              0.0514333921              0.0514333922
 Angular average effective mass 1/(<1/m>)=   0.0486403530
 Angular average effective mass for Frohlich model (<m**0.5>)**2=   0.0487245261
 Effective masses along directions: (cart. coord. / red. coord. -> eff. mass)
    1:   1.000000  0.000000  0.000000 /   0.979197 -0.202910  0.000000 ->   0.0502552918
    2:   0.000000  1.000000  0.000000 /   0.000000  1.000000  0.000000 ->   0.0496606431
    3:   0.000000  0.000000  1.000000 /  -0.481190 -0.481190  0.732743 ->   0.0462062121
    4:   0.577350  0.577350  0.577350 /   0.096726 -0.074627  0.992509 ->   0.0514328347
    5:   0.000000  0.707107  0.707107 /  -0.547662  0.067623  0.833963 ->   0.0508806066
    6:   0.707107  0.000000  0.707107 /   0.075404 -0.629018  0.773725 ->   0.0505842075
    7:   0.707107  0.707107  0.000000 /   0.791918  0.610627  0.000000 ->   0.0485909323

 END OF EFFECTIVE MASSES SECTION

 ---- first-order wavefunction calculations are completed ----

 Total localisation tensor (bohr^2) in cartesian coordinates
  WARNING : still subject to testing - especially symmetries.
      direction              matrix element
   alpha     beta       real part   imaginary part
     1        1      11.1035215341    0.0000000000
     1        2      -2.1582611376    0.0000000000
     1        3      -7.3495212492    0.0000000000
     2        1      -2.1582611376    0.0000000000
     2        2      10.1892003485    0.0000000000
     2        3      -9.0693505202    0.0000000000
     3        1      -7.3495212492    0.0000000000
     3        2      -9.0693505202    0.0000000000
     3        3      43.8145929658    0.0000000000

 respfn : d/dk was computed, but no 2DTE, so no DDB output.

== END DATASET(S) ==============================================================

 -outvars: echo values of variables after computation  --------
            acell      1.0000000000E+00  1.0000000000E+00  1.0000000000E+00 Bohr
              amu      2.43050000E+01  1.18710000E+02  7.49215900E+01
             ecut      4.20000000E+01 Hartree
           etotal     -1.7046420998E+02
            fcart      0.0000000000E+00  0.0000000000E+00  0.0000000000E+00
                       0.0000000000E+00  0.0000000000E+00  0.0000000000E+00
                       0.0000000000E+00  0.0000000000E+00  0.0000000000E+00
                       0.0000000000E+00  0.0000000000E+00  0.0000000000E+00
                       0.0000000000E+00  0.0000000000E+00  0.0000000000E+00
                       0.0000000000E+00  0.0000000000E+00  0.0000000000E+00
                       0.0000000000E+00  0.0000000000E+00  0.0000000000E+00
                       0.0000000000E+00  0.0000000000E+00  0.0000000000E+00
-          fftalg         512
           irdden           1
           irdwfk           1
           istwfk        1
              ixc     -116133
           kptopt           0
P           mkmem           1
P          mkqmem           1
P          mk1mem           1
            natom           8
            nband          63
           nbdbuf           4
            ngfft          90      90      90
             nkpt           1
            nstep        2000
             nsym           8
           ntypat           3
              occ      2.000000  2.000000  2.000000  2.000000  2.000000  2.000000
                       2.000000  2.000000  2.000000  2.000000  2.000000  2.000000
                       2.000000  2.000000  2.000000  2.000000  2.000000  2.000000
                       2.000000  2.000000  2.000000  2.000000  2.000000  2.000000
                       2.000000  2.000000  2.000000  2.000000  2.000000  2.000000
                       2.000000  2.000000  2.000000  2.000000  2.000000  2.000000
                       2.000000  2.000000  2.000000  2.000000  2.000000  2.000000
                       2.000000  2.000000  2.000000  2.000000  2.000000  2.000000
                       2.000000  2.000000  2.000000  2.000000  2.000000  2.000000
                       0.000000  0.000000  0.000000  0.000000  0.000000  0.000000
                       0.000000  0.000000  0.000000
        optdriver           1
            prtwf          -1
            rfdir           1       1       1
           rfelfd           2
            rprim      1.0467972801E+01  0.0000000000E+00 -9.1152408496E+00
                      -2.1691817999E+00  1.0240757046E+01 -9.1152408496E+00
                       0.0000000000E+00  0.0000000000E+00  1.3880420393E+01
          spgroup         122
           strten      0.0000000000E+00  0.0000000000E+00  0.0000000000E+00
                       0.0000000000E+00  0.0000000000E+00  0.0000000000E+00
           symrel      1  0  0   0  1  0   0  0  1       0  0  1  -1 -1 -1   1  0  0
                       0  1  0   1  0  0  -1 -1 -1      -1 -1 -1   0  0  1   0  1  0
                       0  1  0   1  0  0   0  0  1       0  0  1  -1 -1 -1   0  1  0
                       1  0  0   0  1  0  -1 -1 -1      -1 -1 -1   0  0  1   1  0  0
            tnons      0.0000000  0.0000000  0.0000000    -0.2500000  0.2500000  0.5000000
                      -0.0000000 -0.0000000 -0.0000000    -0.2500000  0.2500000  0.5000000
                      -0.2500000  0.2500000  0.5000000     0.0000000  0.0000000 -0.0000000
                      -0.2500000  0.2500000  0.5000000     0.0000000  0.0000000 -0.0000000
           tolwfr      1.00000000E-20
            typat      1  1  2  2  3  3  3  3
           useylm           1
           xangst      3.8675890772E+00  1.3547938068E+00 -1.1509766495E+00
                       0.0000000000E+00  0.0000000000E+00  0.0000000000E+00
                       2.1957655282E+00  2.7095876137E+00 -4.8235777084E+00
                       5.2394197921E-01  4.0643814205E+00 -1.1509766495E+00
                       5.4702474528E-01  6.7739690342E-01  2.4658341498E+00
                       1.0724861942E+00  4.7436533586E+00 -6.0285996535E+00
                       2.7466235470E+00  3.3869845171E+00 -2.3559985945E+00
                       4.4169276263E+00  2.0303156756E+00  1.3148575003E+00
            xcart      7.3086841505E+00  2.5601892615E+00 -2.1750306529E+00
                       0.0000000000E+00  0.0000000000E+00  0.0000000000E+00
                       4.1493955003E+00  5.1203785229E+00 -9.1152408496E+00
                       9.9010685023E-01  7.6805677844E+00 -2.1750306529E+00
                       1.0337269565E+00  1.2800946307E+00  4.6597512322E+00
                       2.0267051884E+00  8.9642057171E+00 -1.1392402310E+01
                       5.1903662940E+00  6.4004731537E+00 -4.4521921131E+00
                       8.3467835625E+00  3.8367405903E+00  2.4847205794E+00
             xred      7.5000000000E-01  2.5000000000E-01  5.0000000000E-01
                       0.0000000000E+00  0.0000000000E+00  0.0000000000E+00
                       5.0000000000E-01  5.0000000000E-01 -5.5511151231E-17
                       2.5000000000E-01  7.5000000000E-01  5.0000000000E-01
                       1.2465400000E-01  1.2500000000E-01  4.9965400000E-01
                       3.7500000000E-01  8.7534600000E-01  3.4600000000E-04
                       6.2534600000E-01  6.2500000000E-01  5.0034600000E-01
                       8.7500000000E-01  3.7465400000E-01  9.9965400000E-01
            znucl       12.00000   50.00000   33.00000

- Timing analysis has been suppressed with timopt=0

 Suggested references for the acknowledgment of ABINIT usage.

 Calculation completed.
.Delivered   6 WARNINGs and  11 COMMENTs to log file.