.Version 9.5.1 of ABINIT

 ABINIT is a project of the Universite Catholique de Louvain,
 Corning Inc. and other collaborators, see ~abinit/doc/developers/contributors.txt .
 acknowledgments of the ABINIT effort.

.Starting date : Tue 27 Apr 2021.
- ( at 15h42 )

- input  file    -> /scratch/users/j/a/jabreu/flow_simple/flow/w173/t1/run.abi
- output file    -> /scratch/users/j/a/jabreu/flow_simple/flow/w173/t1/run.abo
- root for input  files -> /scratch/users/j/a/jabreu/flow_simple/flow/w173/t1/indata/in
- root for output files -> /scratch/users/j/a/jabreu/flow_simple/flow/w173/t1/outdata/out

 Symmetries : space group Fm -3 m (#225); Bravais cF (face-center cubic)
     intxc =       0      iscf =       7    lmnmax =      13     lnmax =       5
     mgfft =      40  mpssoang =       3    mqgrid =    3001     natom =       3
  nloc_mem =       1    nspden =       1   nspinor =       1    nsppol =       1
      nsym =      48    n1xccc =    2501    ntypat =       2    occopt =       1
   xclevel =       2
-    mband =          15        mffmem =           1         mkmem =           2
-   mkqmem =           2        mk1mem =           2           mpw =        2272
      nfft =       64000          nkpt =           2
  Rough estimation (10% accuracy) of disk space for files :

------------- Echo of variables that govern the present computation ------------
-
- outvars: echo of selected default values
-   iomode0 =  0 , fftalg0 =512 , wfoptalg0 =  0
-
- outvars: echo of global parameters not present in the input file
-  max_nthreads =    0
-
 -outvars: echo values of preprocessed input variables --------
            acell      1.0000000000E+00  1.0000000000E+00  1.0000000000E+00 Bohr
              amu      6.94100000E+00  1.59994000E+01
             ecut      4.40000000E+01 Hartree
-          fftalg         512
           irdden           1
           irdwfk           1
           istwfk        1    1
              ixc     -116133
              kpt      0.00000000E+00  0.00000000E+00  0.00000000E+00
                       5.00000000E-01  0.00000000E+00  5.00000000E-01
           kptopt           0
P           mkmem           2
P          mkqmem           2
P          mk1mem           2
            natom           3
            nband          15
           nbdbuf           4
            ngfft          40      40      40
             nkpt           2
            nstep         100
             nsym          48
           ntypat           2
              occ      2.000000  2.000000  2.000000  2.000000  2.000000  2.000000
                       0.000000  0.000000  0.000000  0.000000  0.000000  0.000000
                       0.000000  0.000000  0.000000
        optdriver           1
            prtwf          -1
            rfdir           1       1       1
           rfelfd           2
            rprim      5.2964180734E+00  0.0000000000E+00  3.0578884004E+00
                       1.7654726911E+00  4.9935108476E+00  3.0578884004E+00
                       0.0000000000E+00  0.0000000000E+00  6.1157768009E+00
          spgroup         225
           symrel      1  0  0   0  1  0   0  0  1      -1  0  0   0 -1  0   0  0 -1
                       0 -1  1   0 -1  0   1 -1  0       0  1 -1   0  1  0  -1  1  0
                      -1  0  0  -1  0  1  -1  1  0       1  0  0   1  0 -1   1 -1  0
                       0  1 -1   1  0 -1   0  0 -1       0 -1  1  -1  0  1   0  0  1
                      -1  0  0  -1  1  0  -1  0  1       1  0  0   1 -1  0   1  0 -1
                       0 -1  1   1 -1  0   0 -1  0       0  1 -1  -1  1  0   0  1  0
                       1  0  0   0  0  1   0  1  0      -1  0  0   0  0 -1   0 -1  0
                       0  1 -1   0  0 -1   1  0 -1       0 -1  1   0  0  1  -1  0  1
                      -1  0  1  -1  1  0  -1  0  0       1  0 -1   1 -1  0   1  0  0
                       0 -1  0   1 -1  0   0 -1  1       0  1  0  -1  1  0   0  1 -1
                       1  0 -1   0  0 -1   0  1 -1      -1  0  1   0  0  1   0 -1  1
                       0  1  0   0  0  1   1  0  0       0 -1  0   0  0 -1  -1  0  0
                       1  0 -1   0  1 -1   0  0 -1      -1  0  1   0 -1  1   0  0  1
                       0 -1  0   0 -1  1   1 -1  0       0  1  0   0  1 -1  -1  1  0
                      -1  0  1  -1  0  0  -1  1  0       1  0 -1   1  0  0   1 -1  0
                       0  1  0   1  0  0   0  0  1       0 -1  0  -1  0  0   0  0 -1
                       0  0 -1   0  1 -1   1  0 -1       0  0  1   0 -1  1  -1  0  1
                       1 -1  0   0 -1  1   0 -1  0      -1  1  0   0  1 -1   0  1  0
                       0  0  1   1  0  0   0  1  0       0  0 -1  -1  0  0   0 -1  0
                      -1  1  0  -1  0  0  -1  0  1       1 -1  0   1  0  0   1  0 -1
                       0  0  1   0  1  0   1  0  0       0  0 -1   0 -1  0  -1  0  0
                       1 -1  0   0 -1  0   0 -1  1      -1  1  0   0  1  0   0  1 -1
                       0  0 -1   1  0 -1   0  1 -1       0  0  1  -1  0  1   0 -1  1
                      -1  1  0  -1  0  1  -1  0  0       1 -1  0   1  0 -1   1  0  0
           tolwfr      1.00000000E-20
            typat      1  1  2
           useylm           1
              wtk        0.50000    0.50000
           xangst      9.3424791053E-01  6.6061303285E-01  1.6181648479E+00
                       2.8027437316E+00  1.9818390985E+00  4.8544945437E+00
                       0.0000000000E+00  0.0000000000E+00  0.0000000000E+00
            xcart      1.7654726911E+00  1.2483777119E+00  3.0578884004E+00
                       5.2964180734E+00  3.7451331357E+00  9.1736652013E+00
                       0.0000000000E+00  0.0000000000E+00  0.0000000000E+00
             xred      2.5000000000E-01  2.5000000000E-01  2.5000000000E-01
                       7.5000000000E-01  7.5000000000E-01  7.5000000000E-01
                       0.0000000000E+00  0.0000000000E+00  0.0000000000E+00
            znucl        3.00000    8.00000

 chkinp: Checking input parameters for consistency.

== DATASET  1 ==================================================================
-   mpi_nproc: 1, omp_nthreads: -1 (-1 if OMP is not activated)

--- !DatasetInfo
iteration_state: {dtset: 1, }
dimensions: {natom: 3, nkpt: 2, mband: 15, nsppol: 1, nspinor: 1, nspden: 1, mpw: 2272, }
cutoff_energies: {ecut:  44.0, pawecutdg:  -1.0, }
electrons: {nelect:   1.20000000E+01, charge:   0.00000000E+00, occopt:   1.00000000E+00, tsmear:   1.00000000E-02, }
meta: {optdriver: 1, rfelfd: 2, }
...

 Real(R)+Recip(G) space primitive vectors, cartesian coordinates (Bohr,Bohr^-1):
 R(1)=  5.2964181  0.0000000  3.0578884  G(1)=  0.1888068 -0.0667533  0.0000000
 R(2)=  1.7654727  4.9935108  3.0578884  G(2)=  0.0000000  0.2002599  0.0000000
 R(3)=  0.0000000  0.0000000  6.1157768  G(3)= -0.0944034 -0.0667533  0.1635115
 Unit cell volume ucvol=  1.6174836E+02 bohr^3
 Angles (23,13,12)=  6.00000000E+01  6.00000000E+01  6.00000000E+01 degrees

 getcut: wavevector=  0.0000  0.0000  0.0000  ngfft=  40  40  40
         ecut(hartree)=     44.000   => boxcut(ratio)=   2.19037

--- Pseudopotential description ------------------------------------------------
- pspini: atom type   1  psp file is /scratch/users/j/a/jabreu/pseudos/PBEsol/Li.psp8
- pspatm: opening atomic psp file    /scratch/users/j/a/jabreu/pseudos/PBEsol/Li.psp8
- Li    ONCVPSP-3.3.0  r_core=   1.40824   1.10935
-  3.00000   3.00000    180112                znucl, zion, pspdat
    8 -116133    1    4       400   0.00000   pspcod,pspxc,lmax,lloc,mmax,r2well
    3.99000000000000    0.00000000000000    0.00000000000000   rchrg,fchrg,qchrg
     nproj     2     2
     extension_switch     1
  pspatm : epsatm=    2.60859637
         --- l  ekb(1:nproj) -->
             0   -4.855856   -1.482423
             1   -2.171544   -0.427615
 pspatm: atomic psp has been read  and splines computed

- pspini: atom type   2  psp file is /scratch/users/j/a/jabreu/pseudos/PBEsol/O.psp8
- pspatm: opening atomic psp file    /scratch/users/j/a/jabreu/pseudos/PBEsol/O.psp8
- O     ONCVPSP-3.3.0  r_core=   1.35509   1.45563   1.26150
-  8.00000   6.00000    180112                znucl, zion, pspdat
    8 -116133    2    4       600   0.00000   pspcod,pspxc,lmax,lloc,mmax,r2well
    5.99000000000000    4.00000000000000    0.00000000000000   rchrg,fchrg,qchrg
     nproj     2     2     1
     extension_switch     1
  pspatm : epsatm=    6.22910522
         --- l  ekb(1:nproj) -->
             0    6.050032    0.820363
             1   -4.739617   -1.153841
             2   -1.335834
 pspatm: atomic psp has been read  and splines computed

   1.37355576E+02                                ecore*ucvol(ha*bohr**3)

-inwffil : will read wavefunctions from disk file /scratch/users/j/a/jabreu/flow_simple/flow/w173/t1/indata/in_WFK

 ==>  initialize data related to q vector <==

 The list of irreducible perturbations for this q vector is:
    1)    idir= 1    ipert=   4
    2)    idir= 2    ipert=   4
    3)    idir= 3    ipert=   4

 Perturbation wavevector (in red.coord.)   0.000000  0.000000  0.000000
 Perturbation : derivative vs k along direction   1

 dfpt_looppert : COMMENT -
  In a d/dk calculation, iscf is set to -3 automatically.
 The set of symmetries contains only one element for this perturbation.
 symkpt : not enough symmetry to change the number of k points.

[...]

 Initialisation of the first-order wave-functions :
  ireadwf=   0

--- !BeginCycle
iteration_state: {dtset: 1, }
solver: {iscf: 7, nstep: 100, nline: 4, wfoptalg: 0, }
tolerances: {tolwfr: 1.00E-20, }
...

     iter   2DEtotal(Ha)        deltaE(Ha) residm    vres2
-ETOT  1  -23.593479717870     -2.359E+01 4.749E-02 0.000E+00
 ETOT  2  -23.595290495771     -1.811E-03 1.503E-05 0.000E+00
 ETOT  3  -23.595291102655     -6.069E-07 6.004E-09 0.000E+00
 ETOT  4  -23.595291102830     -1.755E-10 3.096E-12 0.000E+00
 ETOT  5  -23.595291102830     -7.816E-14 1.751E-15 0.000E+00
 ETOT  6  -23.595291102830     -7.105E-15 9.516E-19 0.000E+00
 ETOT  7  -23.595291102830     -1.421E-14 9.379E-21 0.000E+00

 At SCF step    7   max residual=  9.38E-21 < tolwfr=  1.00E-20 =>converged.

 ----iterations are completed or convergence reached----

 dfpt_looppert: DFPT cycle converged with prtwf=-1. Will skip output of the 1st-order WFK file.
 dfpt_looppert : ek2=    3.7997846424E+01
          f-sum rule ratio=    1.2232419463E+00
 prteigrs : about to open file /scratch/users/j/a/jabreu/flow_simple/flow/w173/t1/tmpdata/tmp_1WF1_EIG
 Expectation of eigenvalue derivatives (hartree) for nkpt=   2  k points:
  (in case of degenerate eigenvalues, averaged derivative)
 kpt#   1, nband= 15, wtk=  0.50000, kpt=  0.0000  0.0000  0.0000 (reduced coord)
   0.00000    0.00000   -0.00000   -0.00000   -0.00000   -0.00000    0.00000    0.00000
   0.00000    0.00000    0.00000    0.00000    0.00000    0.00000    0.00000
 prteigrs : prtvol=0 or 1, do not print more k-points.

 Eight components of 2nd-order total energy (hartree) are
 1,2,3: 0th-order hamiltonian combined with 1st-order wavefunctions
     kin0=   1.39513745E+01 eigvalue=   1.72759980E+00  local=  -4.12696740E+00
 4,5,6: 1st-order hamiltonian combined with 1st and 0th-order wfs
     kin1=  -4.64805596E+01  Hartree=   0.00000000E+00     xc=   0.00000000E+00
 7,8,9: eventually, occupation + non-local contributions
    edocc=   1.32160004E+01     enl0=  -1.17271614E+00   enl1=  -7.10022591E-01
 1-9 gives the relaxation energy (to be shifted if some occ is /=2.0)
   erelax=  -2.35952911E+01
  No Ewald or frozen-wf contrib.: the relaxation energy is the total one
 2DEtotal=   -0.2359529110E+02 Ha. Also 2DEtotal=   -0.642060523488E+03 eV
    (  non-var. 2DEtotal :   -2.3595291103E+01 Ha)

 Perturbation wavevector (in red.coord.)   0.000000  0.000000  0.000000
 Perturbation : derivative vs k along direction   2
 The set of symmetries contains only one element for this perturbation.
 symkpt : not enough symmetry to change the number of k points.

[...]

 Perturbation wavevector (in red.coord.)   0.000000  0.000000  0.000000
 Perturbation : derivative vs k along direction   3
 The set of symmetries contains only one element for this perturbation.
 symkpt : not enough symmetry to change the number of k points.

-inwffil : will read wavefunctions from disk file /scratch/users/j/a/jabreu/flow_simple/flow/w173/t1/indata/in_WFK

 Initialisation of the first-order wave-functions :
  ireadwf=   0

--- !BeginCycle
iteration_state: {dtset: 1, }
solver: {iscf: 7, nstep: 100, nline: 4, wfoptalg: 0, }
tolerances: {tolwfr: 1.00E-20, }
...

     iter   2DEtotal(Ha)        deltaE(Ha) residm    vres2
-ETOT  1  -23.594071746116     -2.359E+01 4.749E-02 0.000E+00
 ETOT  2  -23.595883310875     -1.812E-03 1.510E-05 0.000E+00
 ETOT  3  -23.595883921739     -6.109E-07 6.004E-09 0.000E+00
 ETOT  4  -23.595883921915     -1.757E-10 3.096E-12 0.000E+00
 ETOT  5  -23.595883921915     -8.882E-14 1.751E-15 0.000E+00
 ETOT  6  -23.595883921915      1.066E-14 9.516E-19 0.000E+00
 ETOT  7  -23.595883921915     -2.132E-14 9.404E-21 0.000E+00

 At SCF step    7   max residual=  9.40E-21 < tolwfr=  1.00E-20 =>converged.

 ----iterations are completed or convergence reached----

 dfpt_looppert: DFPT cycle converged with prtwf=-1. Will skip output of the 1st-order WFK file.
 dfpt_looppert : ek2=    3.7997846424E+01
          f-sum rule ratio=    1.2232716611E+00
 prteigrs : about to open file /scratch/users/j/a/jabreu/flow_simple/flow/w173/t1/tmpdata/tmp_1WF1_EIG
 Expectation of eigenvalue derivatives (hartree) for nkpt=   2  k points:
  (in case of degenerate eigenvalues, averaged derivative)
 kpt#   1, nband= 15, wtk=  0.50000, kpt=  0.0000  0.0000  0.0000 (reduced coord)
  -0.00000   -0.00000   -0.00000   -0.00000   -0.00000   -0.00000   -0.00000    0.00000
   0.00000    0.00000   -0.00000   -0.00000   -0.00000    0.00000    0.00000
 prteigrs : prtvol=0 or 1, do not print more k-points.

 Eight components of 2nd-order total energy (hartree) are
 1,2,3: 0th-order hamiltonian combined with 1st-order wavefunctions
     kin0=   1.39451120E+01 eigvalue=   1.72342891E+00  local=  -4.12461449E+00
 4,5,6: 1st-order hamiltonian combined with 1st and 0th-order wfs
     kin1=  -4.64816887E+01  Hartree=   0.00000000E+00     xc=   0.00000000E+00
 7,8,9: eventually, occupation + non-local contributions
    edocc=   1.32240767E+01     enl0=  -1.17211917E+00   enl1=  -7.10079131E-01
 1-9 gives the relaxation energy (to be shifted if some occ is /=2.0)
   erelax=  -2.35958839E+01
  No Ewald or frozen-wf contrib.: the relaxation energy is the total one
 2DEtotal=   -0.2359588392E+02 Ha. Also 2DEtotal=   -0.642076654915E+03 eV
    (  non-var. 2DEtotal :   -2.3595883922E+01 Ha)

 CALCULATION OF EFFECTIVE MASSES
 NOTE : Additional infos (eff. mass eigenvalues, eigenvectors and, if degenerate, average mass) are available in stdout.

 COMMENTS:
 - At k-point ( 0.000, 0.000, 0.000), bands     4 through     6
   are DEGENERATE (effective mass tensor is therefore not defined).
   See Section IIIB Eqs. (67)-(70) and Appendix E of PRB 93 205147 (2016).
 - Angular average effective mass for Frohlich model is to be averaged over degenerate bands. See later.
 - Associated theta integrals calculated with ntheta=   1000 points.

 K-point ( 0.000, 0.000, 0.000) | band =     4
 Transport equivalent effective mass tensor:
             -0.7560576926              0.0000000000              0.0000000001
              0.0000000000             -0.7560576927              0.0000000000
              0.0000000001              0.0000000000             -0.7560576927
 Transport equivalent effective mass tensor eigenvalues:
             -0.7560576928             -0.7560576927             -0.7560576926
 Angular average effective mass 1/(<1/m>)=  -0.6554166826
 Angular average effective mass for Frohlich model (<m**0.5>)**2=  -0.6614587679
 Effective masses along directions: (cart. coord. / red. coord. -> eff. mass)
    1:   1.000000  0.000000  0.000000 /   0.948683  0.316228  0.000000 ->  -0.6124771801
    2:   0.000000  1.000000  0.000000 /   0.000000  1.000000  0.000000 ->  -0.5680949824
    3:   0.000000  0.000000  1.000000 /   0.408248  0.408248  0.816497 ->  -0.6281016901
    4:   0.577350  0.577350  0.577350 /   0.585539  0.688047  0.428644 ->  -0.6130912703
    5:   0.000000  0.707107  0.707107 /   0.289489  0.762222  0.578977 ->  -0.6946728401
    6:   0.707107  0.000000  0.707107 /   0.731423  0.422287  0.535439 ->  -0.6199414960
    7:   0.707107  0.707107  0.000000 /   0.616798  0.787122  0.000000 ->  -0.8446368651

[...]

 K-point ( 0.000, 0.000, 0.000) | band =     6
 Transport equivalent effective mass tensor:
            -46.1330772713              0.0000509149             -0.0000000046
              0.0000509149            -46.1330616582             -0.0000000038
             -0.0000000046             -0.0000000038            -46.1330005488
 Transport equivalent effective mass tensor eigenvalues:
            -46.1331209746            -46.1330179548            -46.1330005488
 Angular average effective mass 1/(<1/m>)=  -4.5419582894
 Angular average effective mass for Frohlich model (<m**0.5>)**2=  -5.4933466790
 Effective masses along directions: (cart. coord. / red. coord. -> eff. mass)
    1:   1.000000  0.000000  0.000000 /   0.948683  0.316228  0.000000 ->  -5.0137555050
    2:   0.000000  1.000000  0.000000 /   0.000000  1.000000  0.000000 ->  -4.1655160117
    3:   0.000000  0.000000  1.000000 /   0.408248  0.408248  0.816497 -> -13.9089492731
    4:   0.577350  0.577350  0.577350 /   0.585539  0.688047  0.428644 ->  -5.9974207837
    5:   0.000000  0.707107  0.707107 /   0.289489  0.762222  0.578977 ->  -4.1870390984
    6:   0.707107  0.000000  0.707107 /   0.731423  0.422287  0.535439 ->  -8.1954818138
    7:   0.707107  0.707107  0.000000 /   0.616798  0.787122  0.000000 ->  -2.0223223426

 Angular average effective mass for Frohlich model, averaged over degenerate bands.
 Value of     (<<m**0.5>>)**2 =     2.347964E+00
 Absolute Value of <<m**0.5>> =     1.532307E+00

 K-point ( 0.500, 0.000, 0.500) | band =     7
 Effective mass tensor:
              0.4914577271             -0.0912470562              0.1117542610
             -0.0912470562              0.5559791023             -0.1580444458
              0.1117542610             -0.1580444458              0.6205004669
 Effective mass tensor eigenvalues:
              0.4269362911              0.4269364061              0.8140645991
 Angular average effective mass 1/(<1/m>)=   0.5073615798
 Angular average effective mass for Frohlich model (<m**0.5>)**2=   0.5198354698
 Effective masses along directions: (cart. coord. / red. coord. -> eff. mass)
    1:   1.000000  0.000000  0.000000 /   0.948683  0.316228  0.000000 ->   0.4636874271
    2:   0.000000  1.000000  0.000000 /   0.000000  1.000000  0.000000 ->   0.5073615669
    3:   0.000000  0.000000  1.000000 /   0.408248  0.408248  0.816497 ->   0.5601184687
    4:   0.577350  0.577350  0.577350 /   0.585539  0.688047  0.428644 ->   0.4474672051
    5:   0.000000  0.707107  0.707107 /   0.289489  0.762222  0.578977 ->   0.4286523989
    6:   0.707107  0.000000  0.707107 /   0.731423  0.422287  0.535439 ->   0.6062679310
    7:   0.707107  0.707107  0.000000 /   0.616798  0.787122  0.000000 ->   0.4298590327

 END OF EFFECTIVE MASSES SECTION

 ---- first-order wavefunction calculations are completed ----

 Total localisation tensor (bohr^2) in cartesian coordinates
  WARNING : still subject to testing - especially symmetries.
      direction              matrix element
   alpha     beta       real part   imaginary part
     1        1       1.1464432865    0.0000000000
     1        2       0.3242652001    0.0000000000
     1        3       0.7942800537    0.0000000000
     2        1       0.3242652001    0.0000000000
     2        2       0.9171604875    0.0000000000
     2        3       0.5616438017    0.0000000000
     3        1       0.7942800537    0.0000000000
     3        2       0.5616438017    0.0000000000
     3        3       2.0636139429    0.0000000000

 respfn : d/dk was computed, but no 2DTE, so no DDB output.

== END DATASET(S) ==============================================================

 -outvars: echo values of variables after computation  --------
            acell      1.0000000000E+00  1.0000000000E+00  1.0000000000E+00 Bohr
              amu      6.94100000E+00  1.59994000E+01
             ecut      4.40000000E+01 Hartree
           etotal     -2.3595883922E+01
            fcart      0.0000000000E+00  0.0000000000E+00  0.0000000000E+00
                       0.0000000000E+00  0.0000000000E+00  0.0000000000E+00
                       0.0000000000E+00  0.0000000000E+00  0.0000000000E+00
-          fftalg         512
           irdden           1
           irdwfk           1
           istwfk        1    1
              ixc     -116133
              kpt      0.00000000E+00  0.00000000E+00  0.00000000E+00
                       5.00000000E-01  0.00000000E+00  5.00000000E-01
           kptopt           0
P           mkmem           2
P          mkqmem           2
P          mk1mem           2
            natom           3
            nband          15
           nbdbuf           4
            ngfft          40      40      40
             nkpt           2
            nstep         100
             nsym          48
           ntypat           2
              occ      2.000000  2.000000  2.000000  2.000000  2.000000  2.000000
                       0.000000  0.000000  0.000000  0.000000  0.000000  0.000000
                       0.000000  0.000000  0.000000
        optdriver           1
            prtwf          -1
            rfdir           1       1       1
           rfelfd           2
            rprim      5.2964180734E+00  0.0000000000E+00  3.0578884004E+00
                       1.7654726911E+00  4.9935108476E+00  3.0578884004E+00
                       0.0000000000E+00  0.0000000000E+00  6.1157768009E+00
          spgroup         225
           strten      0.0000000000E+00  0.0000000000E+00  0.0000000000E+00
                       0.0000000000E+00  0.0000000000E+00  0.0000000000E+00
           symrel      1  0  0   0  1  0   0  0  1      -1  0  0   0 -1  0   0  0 -1
                       0 -1  1   0 -1  0   1 -1  0       0  1 -1   0  1  0  -1  1  0
                      -1  0  0  -1  0  1  -1  1  0       1  0  0   1  0 -1   1 -1  0
                       0  1 -1   1  0 -1   0  0 -1       0 -1  1  -1  0  1   0  0  1
                      -1  0  0  -1  1  0  -1  0  1       1  0  0   1 -1  0   1  0 -1
                       0 -1  1   1 -1  0   0 -1  0       0  1 -1  -1  1  0   0  1  0
                       1  0  0   0  0  1   0  1  0      -1  0  0   0  0 -1   0 -1  0
                       0  1 -1   0  0 -1   1  0 -1       0 -1  1   0  0  1  -1  0  1
                      -1  0  1  -1  1  0  -1  0  0       1  0 -1   1 -1  0   1  0  0
                       0 -1  0   1 -1  0   0 -1  1       0  1  0  -1  1  0   0  1 -1
                       1  0 -1   0  0 -1   0  1 -1      -1  0  1   0  0  1   0 -1  1
                       0  1  0   0  0  1   1  0  0       0 -1  0   0  0 -1  -1  0  0
                       1  0 -1   0  1 -1   0  0 -1      -1  0  1   0 -1  1   0  0  1
                       0 -1  0   0 -1  1   1 -1  0       0  1  0   0  1 -1  -1  1  0
                      -1  0  1  -1  0  0  -1  1  0       1  0 -1   1  0  0   1 -1  0
                       0  1  0   1  0  0   0  0  1       0 -1  0  -1  0  0   0  0 -1
                       0  0 -1   0  1 -1   1  0 -1       0  0  1   0 -1  1  -1  0  1
                       1 -1  0   0 -1  1   0 -1  0      -1  1  0   0  1 -1   0  1  0
                       0  0  1   1  0  0   0  1  0       0  0 -1  -1  0  0   0 -1  0
                      -1  1  0  -1  0  0  -1  0  1       1 -1  0   1  0  0   1  0 -1
                       0  0  1   0  1  0   1  0  0       0  0 -1   0 -1  0  -1  0  0
                       1 -1  0   0 -1  0   0 -1  1      -1  1  0   0  1  0   0  1 -1
                       0  0 -1   1  0 -1   0  1 -1       0  0  1  -1  0  1   0 -1  1
                      -1  1  0  -1  0  1  -1  0  0       1 -1  0   1  0 -1   1  0  0
           tolwfr      1.00000000E-20
            typat      1  1  2
           useylm           1
              wtk        0.50000    0.50000
           xangst      9.3424791053E-01  6.6061303285E-01  1.6181648479E+00
                       2.8027437316E+00  1.9818390985E+00  4.8544945437E+00
                       0.0000000000E+00  0.0000000000E+00  0.0000000000E+00
            xcart      1.7654726911E+00  1.2483777119E+00  3.0578884004E+00
                       5.2964180734E+00  3.7451331357E+00  9.1736652013E+00
                       0.0000000000E+00  0.0000000000E+00  0.0000000000E+00
             xred      2.5000000000E-01  2.5000000000E-01  2.5000000000E-01
                       7.5000000000E-01  7.5000000000E-01  7.5000000000E-01
                       0.0000000000E+00  0.0000000000E+00  0.0000000000E+00
            znucl        3.00000    8.00000

- Timing analysis has been suppressed with timopt=0

 Suggested references for the acknowledgment of ABINIT usage.

 Calculation completed.
.Delivered  14 WARNINGs and   9 COMMENTs to log file.