.Version 9.5.2 of ABINIT

 ABINIT is a project of the Universite Catholique de Louvain,
 Corning Inc. and other collaborators, see ~abinit/doc/developers/contributors.txt .
 acknowledgments of the ABINIT effort.

.Starting date : Mon 24 May 2021.
- ( at 20h56 )

- input  file    -> /scratch/users/j/a/jabreu/flow_simple_10atoms/flow/w406/t1/run.abi
- output file    -> /scratch/users/j/a/jabreu/flow_simple_10atoms/flow/w406/t1/run.abo
- root for input  files -> /scratch/users/j/a/jabreu/flow_simple_10atoms/flow/w406/t1/indata/in
- root for output files -> /scratch/users/j/a/jabreu/flow_simple_10atoms/flow/w406/t1/outdata/out

 Symmetries : space group Fm m m (# 69); Bravais oF (face-center ortho.)
     intxc =       0      iscf =       7    lmnmax =      32     lnmax =       8
     mgfft =     108  mpssoang =       4    mqgrid =    3532     natom =      10
  nloc_mem =       1    nspden =       1   nspinor =       1    nsppol =       1
      nsym =       8    n1xccc =    2501    ntypat =       2    occopt =       1
   xclevel =       2
-    mband =          72        mffmem =           1         mkmem =           2
-   mkqmem =           2        mk1mem =           2           mpw =       33840
      nfft =     1259712          nkpt =           2
  Rough estimation (10% accuracy) of disk space for files :

------------- Echo of variables that govern the present computation ------------
-
- outvars: echo of selected default values
-   iomode0 =  0 , fftalg0 =512 , wfoptalg0 =  0
-
- outvars: echo of global parameters not present in the input file
-  max_nthreads =    0
-
 -outvars: echo values of preprocessed input variables --------
            acell      1.0000000000E+00  1.0000000000E+00  1.0000000000E+00 Bohr
              amu      1.32905430E+02  7.49215900E+01
             ecut      4.20000000E+01 Hartree
-          fftalg         512
           irdden           1
           irdwfk           1
           istwfk        1    0
              ixc     -116133
              kpt      5.00000000E-01  0.00000000E+00  5.00000000E-01
                       5.00000000E-01  6.53647813E-02  5.65364781E-01
           kptopt           0
P           mkmem           2
P          mkqmem           2
P          mk1mem           2
            natom          10
            nband          72
           nbdbuf           4
            ngfft         108     108     108
             nkpt           2
            nstep        2000
             nsym           8
           ntypat           2
              occ      2.000000  2.000000  2.000000  2.000000  2.000000  2.000000
                       2.000000  2.000000  2.000000  2.000000  2.000000  2.000000
                       2.000000  2.000000  2.000000  2.000000  2.000000  2.000000
                       2.000000  2.000000  2.000000  2.000000  2.000000  2.000000
                       2.000000  2.000000  2.000000  2.000000  2.000000  2.000000
                       2.000000  2.000000  2.000000  2.000000  2.000000  2.000000
                       2.000000  2.000000  2.000000  2.000000  2.000000  2.000000
                       2.000000  2.000000  2.000000  2.000000  2.000000  2.000000
                       2.000000  2.000000  2.000000  2.000000  2.000000  2.000000
                       2.000000  2.000000  2.000000  2.000000  2.000000  2.000000
                       2.000000  2.000000  2.000000  0.000000  0.000000  0.000000
                       0.000000  0.000000  0.000000  0.000000  0.000000  0.000000
        optdriver           1
            prtwf          -1
            rfdir           1       1       1
           rfelfd           2
            rprim      1.6156397616E+01  0.0000000000E+00  7.1857206333E+00
                       1.0699120500E+01  1.2106114346E+01  6.1350798017E+00
                       0.0000000000E+00  0.0000000000E+00  1.3320800433E+01
          spgroup          69
           symrel      1  0  0   0  1  0   0  0  1      -1  0  0   0 -1  0   0  0 -1
                      -1  0  0  -1  0  1  -1  1  0       1  0  0   1  0 -1   1 -1  0
                       0 -1  1   0 -1  0   1 -1  0       0  1 -1   0  1  0  -1  1  0
                       0  1 -1   1  0 -1   0  0 -1       0 -1  1  -1  0  1   0  0  1
           tolwfr      1.00000000E-20
            typat      1  1  1  1  2  2  2  2  2  2
           useylm           1
              wtk        0.50000    0.50000
           xangst      3.5528320280E+00  1.6015699491E+00  3.5245319949E+00
                       1.0658496084E+01  4.8047098474E+00  1.0573595985E+01
                       7.8811428930E+00  1.4828615845E+00  9.0912451586E+00
                       6.3301852190E+00  4.9234182120E+00  5.0068828210E+00
                       5.3946560902E+00  4.0952848290E+00  8.4503050196E+00
                       7.5702398882E+00  5.0760093905E+00  8.4503050198E+00
                       8.8166720219E+00  2.3109949675E+00  5.6478229600E+00
                       6.6410882238E+00  1.3302704060E+00  5.6478229598E+00
                       4.9184980256E+00  2.2171942187E+00  7.0490639896E+00
                       9.2928300865E+00  4.1890855778E+00  7.0490639900E+00
            xcart      6.7138795291E+00  3.0265285865E+00  6.6604002169E+00
                       2.0141638587E+01  9.0795857595E+00  1.9981200651E+01
                       1.4893201682E+01  2.8022022877E+00  1.7179963557E+01
                       1.1962316434E+01  9.3039120583E+00  9.4616373112E+00
                       1.0194422592E+01  7.7389667629E+00  1.5968762226E+01
                       1.4305680149E+01  9.5922675959E+00  1.5968762227E+01
                       1.6661095525E+01  4.3671475831E+00  1.0672838641E+01
                       1.2549837967E+01  2.5138467501E+00  1.0672838641E+01
                       9.2946142535E+00  4.1898898568E+00  1.3320800434E+01
                       1.7560903863E+01  7.9162244892E+00  1.3320800434E+01
             xred      2.5000000000E-01  2.5000000000E-01  2.5000000000E-01
                       7.5000000000E-01  7.5000000000E-01  7.5000000000E-01
                       7.6853000000E-01  2.3147000000E-01  7.6853000000E-01
                       2.3147000000E-01  7.6853000000E-01  2.3147000000E-01
                       2.0765100000E-01  6.3926100000E-01  7.9234900000E-01
                       3.6073900000E-01  7.9234900000E-01  6.3926100000E-01
                       7.9234900000E-01  3.6073900000E-01  2.0765100000E-01
                       6.3926100000E-01  2.0765100000E-01  3.6073900000E-01
                       3.4609700000E-01  3.4609700000E-01  6.5390300000E-01
                       6.5390300000E-01  6.5390300000E-01  3.4609700000E-01
            znucl       55.00000   33.00000

 chkinp: Checking input parameters for consistency.

== DATASET  1 ==================================================================
-   mpi_nproc: 1, omp_nthreads: -1 (-1 if OMP is not activated)

--- !DatasetInfo
iteration_state: {dtset: 1, }
dimensions: {natom: 10, nkpt: 2, mband: 72, nsppol: 1, nspinor: 1, nspden: 1, mpw: 33840, }
cutoff_energies: {ecut:  42.0, pawecutdg:  -1.0, }
electrons: {nelect:   1.26000000E+02, charge:   0.00000000E+00, occopt:   1.00000000E+00, tsmear:   1.00000000E-02, }
meta: {optdriver: 1, rfelfd: 2, }
...

 Real(R)+Recip(G) space primitive vectors, cartesian coordinates (Bohr,Bohr^-1):
 R(1)= 16.1563976  0.0000000  7.1857206  G(1)=  0.0618950 -0.0547014  0.0000000
 R(2)= 10.6991205 12.1061143  6.1350798  G(2)=  0.0000000  0.0826029  0.0000000
 R(3)=  0.0000000  0.0000000 13.3208004  G(3)= -0.0333884 -0.0085360  0.0750706
 Unit cell volume ucvol=  2.6054313E+03 bohr^3
 Angles (23,13,12)=  6.92066942E+01  6.60224114E+01  4.47708944E+01 degrees

 getcut: wavevector=  0.0000  0.0000  0.0000  ngfft= 108 108 108
         ecut(hartree)=     42.000   => boxcut(ratio)=   2.09395

--- Pseudopotential description ------------------------------------------------
- pspini: atom type   1  psp file is /scratch/users/j/a/jabreu/pseudos/PBEsol/Cs.psp8
- pspatm: opening atomic psp file    /scratch/users/j/a/jabreu/pseudos/PBEsol/Cs.psp8
- Cs    ONCVPSP-3.3.0  r_core=   2.27353   1.85623   2.01788   1.90105
- 55.00000   9.00000    180112                znucl, zion, pspdat
    8 -116133    3    4       600   0.00000   pspcod,pspxc,lmax,lloc,mmax,r2well
    5.99000000000000    5.00000000000000    0.00000000000000   rchrg,fchrg,qchrg
     nproj     2     2     2     2
     extension_switch     1
  pspatm : epsatm=   22.12462445
         --- l  ekb(1:nproj) -->
             0    6.214110    0.767882
             1    6.311966    0.793598
             2    3.769790    0.913105
             3   -9.247129   -2.432478
 pspatm: atomic psp has been read  and splines computed

- pspini: atom type   2  psp file is /scratch/users/j/a/jabreu/pseudos/PBEsol/As.psp8
- pspatm: opening atomic psp file    /scratch/users/j/a/jabreu/pseudos/PBEsol/As.psp8
- As    ONCVPSP-3.3.0  r_core=   1.76603   1.70395   1.80867
- 33.00000  15.00000    180112                znucl, zion, pspdat
    8 -116133    2    4       600   0.00000   pspcod,pspxc,lmax,lloc,mmax,r2well
    5.99000000000000    5.00000000000000    0.00000000000000   rchrg,fchrg,qchrg
     nproj     2     2     2
     extension_switch     1
  pspatm : epsatm=   28.79155382
         --- l  ekb(1:nproj) -->
             0    8.270760    0.868950
             1    4.919053    0.756587
             2  -10.048665   -4.076802
 pspatm: atomic psp has been read  and splines computed

   3.29172254E+04                                ecore*ucvol(ha*bohr**3)

 ==>  initialize data related to q vector <==

 The list of irreducible perturbations for this q vector is:
    1)    idir= 1    ipert=  11
    2)    idir= 2    ipert=  11
    3)    idir= 3    ipert=  11

 Perturbation wavevector (in red.coord.)   0.000000  0.000000  0.000000
 Perturbation : derivative vs k along direction   1

 dfpt_looppert : COMMENT -
  In a d/dk calculation, iscf is set to -3 automatically.
 The set of symmetries contains only one element for this perturbation.
 symkpt : not enough symmetry to change the number of k points.

 Initialisation of the first-order wave-functions :
  ireadwf=   0

--- !BeginCycle
iteration_state: {dtset: 1, }
solver: {iscf: 7, nstep: 2000, nline: 4, wfoptalg: 0, }
tolerances: {tolwfr: 1.00E-20, }
...

     iter   2DEtotal(Ha)        deltaE(Ha) residm    vres2
-ETOT  1  -74.030456889578     -7.403E+01 3.832E-02 0.000E+00
 ETOT  2  -74.095512295620     -6.506E-02 7.104E-04 0.000E+00
 ETOT  3  -74.096555195271     -1.043E-03 1.255E-04 0.000E+00
 ETOT  4  -74.096653042164     -9.785E-05 9.981E-06 0.000E+00
 ETOT  5  -74.096663504261     -1.046E-05 2.279E-06 0.000E+00
 ETOT  6  -74.096664747238     -1.243E-06 2.132E-07 0.000E+00
 ETOT  7  -74.096664902613     -1.554E-07 5.114E-08 0.000E+00
 ETOT  8  -74.096664923089     -2.048E-08 5.063E-09 0.000E+00
 ETOT  9  -74.096664925873     -2.784E-09 1.213E-09 0.000E+00
 ETOT 10  -74.096664926264     -3.910E-10 1.423E-10 0.000E+00
 ETOT 11  -74.096664926320     -5.619E-11 2.970E-11 0.000E+00
 ETOT 12  -74.096664926329     -8.413E-12 4.483E-12 0.000E+00
 ETOT 13  -74.096664926330     -1.123E-12 9.325E-13 0.000E+00
[...]
 ETOT 24  -74.096664926330      0.000E+00 9.973E-21 0.000E+00

 At SCF step   24   max residual=  9.97E-21 < tolwfr=  1.00E-20 =>converged.

 ----iterations are completed or convergence reached----

 dfpt_looppert: DFPT cycle converged with prtwf=-1. Will skip output of the 1st-order WFK file.
 dfpt_looppert : ek2=    6.7881391200E+01
          f-sum rule ratio=    1.0212848693E+00
 prteigrs : about to open file /scratch/users/j/a/jabreu/flow_simple_10atoms/flow/w406/t1/tmpdata/tmp_1WF1_EIG
 Expectation of eigenvalue derivatives (hartree) for nkpt=   2  k points:
  (in case of degenerate eigenvalues, averaged derivative)
 kpt#   1, nband= 72, wtk=  0.50000, kpt=  0.5000  0.0000  0.5000 (reduced coord)
  -0.00000    0.00000   -0.00000   -0.00000   -0.00000   -0.00000    0.00000    0.00000
  -0.00000   -0.00000   -0.00000    0.00000    0.00000    0.00000    0.00000   -0.00000
  -0.00000   -0.00000    0.00000    0.00000    0.00000    0.00000    0.00000   -0.00000
  -0.00000    0.00000    0.00000    0.00000   -0.00000    0.00000    0.00000   -0.00000
   0.00000    0.00000    0.00000   -0.00000    0.00000    0.00000   -0.00000   -0.00000
  -0.00000    0.00000   -0.00000    0.00000    0.00000   -0.00000    0.00000    0.00000
  -0.00000   -0.00000   -0.00000    0.00000    0.00000    0.00000   -0.00000    0.00000
  -0.00000   -0.00000    0.00000   -0.00000    0.00000    0.00000   -0.00000   -0.00000
  -0.00000   -0.00000   -0.00000    0.00000   -0.00000    0.00000    0.00000    0.00000
 prteigrs : prtvol=0 or 1, do not print more k-points.

 Eight components of 2nd-order total energy (hartree) are
 1,2,3: 0th-order hamiltonian combined with 1st-order wavefunctions
     kin0=   8.38740339E+01 eigvalue=   1.13184426E+01  local=  -3.82124850E+01
 4,5,6: 1st-order hamiltonian combined with 1st and 0th-order wfs
     kin1=  -6.93262377E+01  Hartree=   0.00000000E+00     xc=   0.00000000E+00
 7,8,9: eventually, occupation + non-local contributions
    edocc=   7.18369049E+00     enl0=   9.93298290E+00   enl1=  -7.88670921E+01
 1-9 gives the relaxation energy (to be shifted if some occ is /=2.0)
   erelax=  -7.40966649E+01
  No Ewald or frozen-wf contrib.: the relaxation energy is the total one
 2DEtotal=   -0.7409666493E+02 Ha. Also 2DEtotal=   -0.201627279206E+04 eV
    (  non-var. 2DEtotal :   -7.4096664926E+01 Ha)

 Perturbation wavevector (in red.coord.)   0.000000  0.000000  0.000000
 Perturbation : derivative vs k along direction   2
 The set of symmetries contains only one element for this perturbation.
 symkpt : not enough symmetry to change the number of k points.

[...]

 Perturbation wavevector (in red.coord.)   0.000000  0.000000  0.000000
 Perturbation : derivative vs k along direction   3
 The set of symmetries contains only one element for this perturbation.
 symkpt : not enough symmetry to change the number of k points.

 Initialisation of the first-order wave-functions :
  ireadwf=   0

--- !BeginCycle
iteration_state: {dtset: 1, }
solver: {iscf: 7, nstep: 2000, nline: 4, wfoptalg: 0, }
tolerances: {tolwfr: 1.00E-20, }
...

     iter   2DEtotal(Ha)        deltaE(Ha) residm    vres2
-ETOT  1  -74.030456899587     -7.403E+01 3.832E-02 0.000E+00
 ETOT  2  -74.095512303734     -6.506E-02 7.104E-04 0.000E+00
 ETOT  3  -74.096555203383     -1.043E-03 1.255E-04 0.000E+00
 ETOT  4  -74.096653050276     -9.785E-05 9.981E-06 0.000E+00
 ETOT  5  -74.096663512373     -1.046E-05 2.279E-06 0.000E+00
 ETOT  6  -74.096664755350     -1.243E-06 2.132E-07 0.000E+00
 ETOT  7  -74.096664910725     -1.554E-07 5.114E-08 0.000E+00
 ETOT  8  -74.096664931202     -2.048E-08 5.063E-09 0.000E+00
 ETOT  9  -74.096664933985     -2.784E-09 1.213E-09 0.000E+00
 ETOT 10  -74.096664934376     -3.911E-10 1.423E-10 0.000E+00
 ETOT 11  -74.096664934433     -5.619E-11 2.970E-11 0.000E+00
 ETOT 12  -74.096664934441     -8.285E-12 4.483E-12 0.000E+00
 ETOT 13  -74.096664934442     -1.180E-12 9.325E-13 0.000E+00
 ETOT 14  -74.096664934442     -2.842E-13 1.427E-13 0.000E+00
 ETOT 15  -74.096664934442     -2.842E-14 2.985E-14 0.000E+00
 ETOT 16  -74.096664934442      5.684E-14 4.573E-15 0.000E+00
 ETOT 17  -74.096664934442     -2.842E-14 9.620E-16 0.000E+00
 ETOT 18  -74.096664934442      1.421E-14 1.474E-16 0.000E+00
 ETOT 19  -74.096664934442     -2.842E-14 3.116E-17 0.000E+00
 ETOT 20  -74.096664934442      0.000E+00 4.770E-18 0.000E+00
 ETOT 21  -74.096664934442      1.421E-14 1.013E-18 0.000E+00
 ETOT 22  -74.096664934442     -1.421E-14 1.549E-19 0.000E+00
 ETOT 23  -74.096664934442      1.421E-14 3.305E-20 0.000E+00
 ETOT 24  -74.096664934442      0.000E+00 9.973E-21 0.000E+00

 At SCF step   24   max residual=  9.97E-21 < tolwfr=  1.00E-20 =>converged.

 ----iterations are completed or convergence reached----

 dfpt_looppert: DFPT cycle converged with prtwf=-1. Will skip output of the 1st-order WFK file.
 dfpt_looppert : ek2=    6.7881391208E+01
          f-sum rule ratio=    1.0212848692E+00
 prteigrs : about to open file /scratch/users/j/a/jabreu/flow_simple_10atoms/flow/w406/t1/tmpdata/tmp_1WF1_EIG
 Expectation of eigenvalue derivatives (hartree) for nkpt=   2  k points:
  (in case of degenerate eigenvalues, averaged derivative)
 kpt#   1, nband= 72, wtk=  0.50000, kpt=  0.5000  0.0000  0.5000 (reduced coord)
   0.00000   -0.00000    0.00000    0.00000    0.00000    0.00000   -0.00000   -0.00000
   0.00000   -0.00000    0.00000    0.00000   -0.00000   -0.00000   -0.00000    0.00000
   0.00000   -0.00000   -0.00000   -0.00000    0.00000   -0.00000    0.00000   -0.00000
   0.00000    0.00000   -0.00000    0.00000   -0.00000    0.00000    0.00000   -0.00000
   0.00000   -0.00000    0.00000   -0.00000   -0.00000    0.00000    0.00000    0.00000
   0.00000    0.00000   -0.00000   -0.00000   -0.00000    0.00000    0.00000   -0.00000
   0.00000   -0.00000    0.00000    0.00000    0.00000   -0.00000   -0.00000    0.00000
  -0.00000   -0.00000    0.00000    0.00000    0.00000    0.00000   -0.00000    0.00000
  -0.00000   -0.00000    0.00000   -0.00000    0.00000   -0.00000    0.00000   -0.00000
 prteigrs : prtvol=0 or 1, do not print more k-points.

 Eight components of 2nd-order total energy (hartree) are
 1,2,3: 0th-order hamiltonian combined with 1st-order wavefunctions
     kin0=   8.38740339E+01 eigvalue=   1.13184426E+01  local=  -3.82124850E+01
 4,5,6: 1st-order hamiltonian combined with 1st and 0th-order wfs
     kin1=  -6.93262377E+01  Hartree=   0.00000000E+00     xc=   0.00000000E+00
 7,8,9: eventually, occupation + non-local contributions
    edocc=   7.18369049E+00     enl0=   9.93298290E+00   enl1=  -7.88670921E+01
 1-9 gives the relaxation energy (to be shifted if some occ is /=2.0)
   erelax=  -7.40966649E+01
  No Ewald or frozen-wf contrib.: the relaxation energy is the total one
 2DEtotal=   -0.7409666493E+02 Ha. Also 2DEtotal=   -0.201627279228E+04 eV
    (  non-var. 2DEtotal :   -7.4096664934E+01 Ha)

 CALCULATION OF EFFECTIVE MASSES
 NOTE : Additional infos (eff. mass eigenvalues, eigenvectors and, if degenerate, average mass) are available in stdout.

 K-point ( 0.500, 0.000, 0.500) | band =    63
 Effective mass tensor:
             -0.7270338791              0.0190453233              0.1912432014
              0.0190453233             -0.7606975623             -0.4242430807
              0.1912432014             -0.4242430807             -0.6956462526
 Effective mass tensor eigenvalues:
             -1.1992747782             -0.7184484976             -0.2656544182
 Angular average effective mass 1/(<1/m>)=  -0.5008335149
 Angular average effective mass for Frohlich model (<m**0.5>)**2=  -0.5658119790
 Effective masses along directions: (cart. coord. / red. coord. -> eff. mass)
    1:   1.000000  0.000000  0.000000 /   0.833757  0.552132  0.000000 ->  -0.6554873903
    2:   0.000000  1.000000  0.000000 /   0.000000  1.000000  0.000000 ->  -0.4878516650
    3:   0.000000  0.000000  1.000000 /   0.439992  0.375660  0.815651 ->  -0.4141423465
    4:   0.577350  0.577350  0.577350 /   0.591017  0.732762  0.337280 ->  -0.7625490131
    5:   0.000000  0.707107  0.707107 /   0.303160  0.769582  0.561994 ->  -1.1103708725
    6:   0.707107  0.000000  0.707107 /   0.736052  0.530836  0.420048 ->  -0.3890474518
    7:   0.707107  0.707107  0.000000 /   0.578081  0.815979  0.000000 ->  -0.6706398183

 K-point ( 0.500, 0.065, 0.565) | band =    64
 Effective mass tensor:
              0.4619157870             -0.3450232295             -0.2698472980
             -0.3450232295              1.0717638320              0.5986139525
             -0.2698472980              0.5986139525              1.1233931875
 Effective mass tensor eigenvalues:
              0.3063838524              0.5166676482              1.8340213058
 Angular average effective mass 1/(<1/m>)=   0.5222286892
 Angular average effective mass for Frohlich model (<m**0.5>)**2=   0.5939625547
 Effective masses along directions: (cart. coord. / red. coord. -> eff. mass)
    1:   1.000000  0.000000  0.000000 /   0.833757  0.552132  0.000000 ->   0.3433039369
    2:   0.000000  1.000000  0.000000 /   0.000000  1.000000  0.000000 ->   0.6508092109
    3:   0.000000  0.000000  1.000000 /   0.439992  0.375660  0.815651 ->   0.7720873002
    4:   0.577350  0.577350  0.577350 /   0.591017  0.732762  0.337280 ->   0.4539939536
    5:   0.000000  0.707107  0.707107 /   0.303160  0.769582  0.561994 ->   1.2752825904
    6:   0.707107  0.000000  0.707107 /   0.736052  0.530836  0.420048 ->   0.4186191911
    7:   0.707107  0.707107  0.000000 /   0.578081  0.815979  0.000000 ->   0.3329595560

 END OF EFFECTIVE MASSES SECTION

 ---- first-order wavefunction calculations are completed ----

 Total localisation tensor (bohr^2) in cartesian coordinates
  WARNING : still subject to testing - especially symmetries.
      direction              matrix element
   alpha     beta       real part   imaginary part
     1        1       3.7880404232    0.0000000000
     1        2       1.3066434436    0.0000000000
     1        3       1.8333423804    0.0000000000
     2        1       1.3066434436    0.0000000000
     2        2       1.4784743229    0.0000000000
     2        3       0.7492542773    0.0000000000
     3        1       1.8333423804    0.0000000000
     3        2       0.7492542773    0.0000000000
     3        3       2.6906410898    0.0000000000

 respfn : d/dk was computed, but no 2DTE, so no DDB output.

== END DATASET(S) ==============================================================

 -outvars: echo values of variables after computation  --------
            acell      1.0000000000E+00  1.0000000000E+00  1.0000000000E+00 Bohr
              amu      1.32905430E+02  7.49215900E+01
             ecut      4.20000000E+01 Hartree
           etotal     -7.4096664934E+01
            fcart      0.0000000000E+00  0.0000000000E+00  0.0000000000E+00
                       0.0000000000E+00  0.0000000000E+00  0.0000000000E+00
                       0.0000000000E+00  0.0000000000E+00  0.0000000000E+00
                       0.0000000000E+00  0.0000000000E+00  0.0000000000E+00
                       0.0000000000E+00  0.0000000000E+00  0.0000000000E+00
                       0.0000000000E+00  0.0000000000E+00  0.0000000000E+00
                       0.0000000000E+00  0.0000000000E+00  0.0000000000E+00
                       0.0000000000E+00  0.0000000000E+00  0.0000000000E+00
                       0.0000000000E+00  0.0000000000E+00  0.0000000000E+00
                       0.0000000000E+00  0.0000000000E+00  0.0000000000E+00
-          fftalg         512
           irdden           1
           irdwfk           1
           istwfk        1    0
              ixc     -116133
              kpt      5.00000000E-01  0.00000000E+00  5.00000000E-01
                       5.00000000E-01  6.53647813E-02  5.65364781E-01
           kptopt           0
P           mkmem           2
P          mkqmem           2
P          mk1mem           2
            natom          10
            nband          72
           nbdbuf           4
            ngfft         108     108     108
             nkpt           2
            nstep        2000
             nsym           8
           ntypat           2
              occ      2.000000  2.000000  2.000000  2.000000  2.000000  2.000000
                       2.000000  2.000000  2.000000  2.000000  2.000000  2.000000
                       2.000000  2.000000  2.000000  2.000000  2.000000  2.000000
                       2.000000  2.000000  2.000000  2.000000  2.000000  2.000000
                       2.000000  2.000000  2.000000  2.000000  2.000000  2.000000
                       2.000000  2.000000  2.000000  2.000000  2.000000  2.000000
                       2.000000  2.000000  2.000000  2.000000  2.000000  2.000000
                       2.000000  2.000000  2.000000  2.000000  2.000000  2.000000
                       2.000000  2.000000  2.000000  2.000000  2.000000  2.000000
                       2.000000  2.000000  2.000000  2.000000  2.000000  2.000000
                       2.000000  2.000000  2.000000  0.000000  0.000000  0.000000
                       0.000000  0.000000  0.000000  0.000000  0.000000  0.000000
        optdriver           1
            prtwf          -1
            rfdir           1       1       1
           rfelfd           2
            rprim      1.6156397616E+01  0.0000000000E+00  7.1857206333E+00
                       1.0699120500E+01  1.2106114346E+01  6.1350798017E+00
                       0.0000000000E+00  0.0000000000E+00  1.3320800433E+01
          spgroup          69
           strten      0.0000000000E+00  0.0000000000E+00  0.0000000000E+00
                       0.0000000000E+00  0.0000000000E+00  0.0000000000E+00
           symrel      1  0  0   0  1  0   0  0  1      -1  0  0   0 -1  0   0  0 -1
                      -1  0  0  -1  0  1  -1  1  0       1  0  0   1  0 -1   1 -1  0
                       0 -1  1   0 -1  0   1 -1  0       0  1 -1   0  1  0  -1  1  0
                       0  1 -1   1  0 -1   0  0 -1       0 -1  1  -1  0  1   0  0  1
           tolwfr      1.00000000E-20
            typat      1  1  1  1  2  2  2  2  2  2
           useylm           1
              wtk        0.50000    0.50000
           xangst      3.5528320280E+00  1.6015699491E+00  3.5245319949E+00
                       1.0658496084E+01  4.8047098474E+00  1.0573595985E+01
                       7.8811428930E+00  1.4828615845E+00  9.0912451586E+00
                       6.3301852190E+00  4.9234182120E+00  5.0068828210E+00
                       5.3946560902E+00  4.0952848290E+00  8.4503050196E+00
                       7.5702398882E+00  5.0760093905E+00  8.4503050198E+00
                       8.8166720219E+00  2.3109949675E+00  5.6478229600E+00
                       6.6410882238E+00  1.3302704060E+00  5.6478229598E+00
                       4.9184980256E+00  2.2171942187E+00  7.0490639896E+00
                       9.2928300865E+00  4.1890855778E+00  7.0490639900E+00
            xcart      6.7138795291E+00  3.0265285865E+00  6.6604002169E+00
                       2.0141638587E+01  9.0795857595E+00  1.9981200651E+01
                       1.4893201682E+01  2.8022022877E+00  1.7179963557E+01
                       1.1962316434E+01  9.3039120583E+00  9.4616373112E+00
                       1.0194422592E+01  7.7389667629E+00  1.5968762226E+01
                       1.4305680149E+01  9.5922675959E+00  1.5968762227E+01
                       1.6661095525E+01  4.3671475831E+00  1.0672838641E+01
                       1.2549837967E+01  2.5138467501E+00  1.0672838641E+01
                       9.2946142535E+00  4.1898898568E+00  1.3320800434E+01
                       1.7560903863E+01  7.9162244892E+00  1.3320800434E+01
             xred      2.5000000000E-01  2.5000000000E-01  2.5000000000E-01
                       7.5000000000E-01  7.5000000000E-01  7.5000000000E-01
                       7.6853000000E-01  2.3147000000E-01  7.6853000000E-01
                       2.3147000000E-01  7.6853000000E-01  2.3147000000E-01
                       2.0765100000E-01  6.3926100000E-01  7.9234900000E-01
                       3.6073900000E-01  7.9234900000E-01  6.3926100000E-01
                       7.9234900000E-01  3.6073900000E-01  2.0765100000E-01
                       6.3926100000E-01  2.0765100000E-01  3.6073900000E-01
                       3.4609700000E-01  3.4609700000E-01  6.5390300000E-01
                       6.5390300000E-01  6.5390300000E-01  3.4609700000E-01
            znucl       55.00000   33.00000

- Timing analysis has been suppressed with timopt=0

 Suggested references for the acknowledgment of ABINIT usage.

 Calculation completed.
.Delivered   2 WARNINGs and   7 COMMENTs to log file.