.Version 9.5.1 of ABINIT

 ABINIT is a project of the Universite Catholique de Louvain,
 Corning Inc. and other collaborators, see ~abinit/doc/developers/contributors.txt .
 acknowledgments of the ABINIT effort.

.Starting date : Tue  4 May 2021.
- ( at 21h50 )

- input  file    -> /scratch/users/j/a/jabreu/flow_simple_6atoms/flow/w269/t1/run.abi
- output file    -> /scratch/users/j/a/jabreu/flow_simple_6atoms/flow/w269/t1/run.abo
- root for input  files -> /scratch/users/j/a/jabreu/flow_simple_6atoms/flow/w269/t1/indata/in
- root for output files -> /scratch/users/j/a/jabreu/flow_simple_6atoms/flow/w269/t1/outdata/out

 Symmetries : space group P4/n m m (#129); Bravais tP (primitive tetrag.)
     intxc =       0      iscf =       7    lmnmax =      18     lnmax =       6
     mgfft =      80  mpssoang =       3    mqgrid =    3984     natom =       6
  nloc_mem =       1    nspden =       1   nspinor =       1    nsppol =       1
      nsym =      16    n1xccc =    2501    ntypat =       3    occopt =       1
   xclevel =       2
-    mband =          53        mffmem =           1         mkmem =           1
-   mkqmem =           1        mk1mem =           1           mpw =       11267
      nfft =      184320          nkpt =           1
  Rough estimation (10% accuracy) of disk space for files :

------------- Echo of variables that govern the present computation ------------
-
- outvars: echo of selected default values
-   iomode0 =  0 , fftalg0 =512 , wfoptalg0 =  0
-
- outvars: echo of global parameters not present in the input file
-  max_nthreads =    0
-
 -outvars: echo values of preprocessed input variables --------
            acell      1.0000000000E+00  1.0000000000E+00  1.0000000000E+00 Bohr
              amu      2.29897680E+01  6.53900000E+01  7.49215900E+01
             ecut      4.40000000E+01 Hartree
-          fftalg         512
           irdden           1
           irdwfk           1
           istwfk        1
              ixc     -116133
           kptopt           0
P           mkmem           1
P          mkqmem           1
P          mk1mem           1
            natom           6
            nband          53
           nbdbuf           4
            ngfft          48      48      80
             nkpt           1
            nstep        1000
             nsym          16
           ntypat           3
              occ      2.000000  2.000000  2.000000  2.000000  2.000000  2.000000
                       2.000000  2.000000  2.000000  2.000000  2.000000  2.000000
                       2.000000  2.000000  2.000000  2.000000  2.000000  2.000000
                       2.000000  2.000000  2.000000  2.000000  2.000000  2.000000
                       2.000000  2.000000  2.000000  2.000000  2.000000  2.000000
                       2.000000  2.000000  2.000000  2.000000  2.000000  2.000000
                       2.000000  2.000000  2.000000  2.000000  2.000000  2.000000
                       2.000000  2.000000  0.000000  0.000000  0.000000  0.000000
                       0.000000  0.000000  0.000000  0.000000  0.000000
        optdriver           1
            prtwf          -1
            rfdir           1       1       1
           rfelfd           2
            rprim      7.7799312502E+00  0.0000000000E+00  0.0000000000E+00
                       0.0000000000E+00  7.7799312502E+00  0.0000000000E+00
                       0.0000000000E+00  0.0000000000E+00  1.3342178394E+01
          spgroup         129
           symrel      1  0  0   0  1  0   0  0  1      -1  0  0   0 -1  0   0  0 -1
                      -1  0  0   0  1  0   0  0 -1       1  0  0   0 -1  0   0  0  1
                      -1  0  0   0 -1  0   0  0  1       1  0  0   0  1  0   0  0 -1
                       1  0  0   0 -1  0   0  0 -1      -1  0  0   0  1  0   0  0  1
                       0  1  0   1  0  0   0  0  1       0 -1  0  -1  0  0   0  0 -1
                       0 -1  0   1  0  0   0  0 -1       0  1  0  -1  0  0   0  0  1
                       0 -1  0  -1  0  0   0  0  1       0  1  0   1  0  0   0  0 -1
                       0  1  0  -1  0  0   0  0 -1       0 -1  0   1  0  0   0  0  1
            tnons      0.0000000  0.0000000  0.0000000     0.5000000  0.5000000 -0.0000000
                       0.5000000  0.5000000 -0.0000000     0.0000000 -0.0000000  0.0000000
                       0.0000000 -0.0000000  0.0000000     0.5000000  0.5000000 -0.0000000
                       0.5000000  0.5000000 -0.0000000     0.0000000  0.0000000  0.0000000
                       0.5000000  0.5000000  0.0000000    -0.0000000  0.0000000 -0.0000000
                       0.0000000  0.0000000 -0.0000000     0.5000000  0.5000000  0.0000000
                       0.5000000  0.5000000  0.0000000     0.0000000  0.0000000 -0.0000000
                      -0.0000000  0.0000000 -0.0000000     0.5000000  0.5000000  0.0000000
           tolwfr      1.00000000E-20
            typat      1  1  2  2  3  3
           useylm           1
           xangst      0.0000000000E+00  2.0584811510E+00  4.5824316039E+00
                       2.0584811510E+00  0.0000000000E+00  2.4779451152E+00
                       2.0584811510E+00  2.0584811510E+00  0.0000000000E+00
                       0.0000000000E+00  0.0000000000E+00  0.0000000000E+00
                       2.0584811510E+00  0.0000000000E+00  5.5282890918E+00
                       0.0000000000E+00  2.0584811510E+00  1.5320876273E+00
            xcart      0.0000000000E+00  3.8899656251E+00  8.6595407541E+00
                       3.8899656251E+00  0.0000000000E+00  4.6826376401E+00
                       3.8899656251E+00  3.8899656251E+00  0.0000000000E+00
                       0.0000000000E+00  0.0000000000E+00  0.0000000000E+00
                       3.8899656251E+00  0.0000000000E+00  1.0446952367E+01
                       0.0000000000E+00  3.8899656251E+00  2.8952260272E+00
             xred      0.0000000000E+00  5.0000000000E-01  6.4903500000E-01
                       5.0000000000E-01  0.0000000000E+00  3.5096500000E-01
                       5.0000000000E-01  5.0000000000E-01  0.0000000000E+00
                       0.0000000000E+00  0.0000000000E+00  0.0000000000E+00
                       5.0000000000E-01  0.0000000000E+00  7.8300200000E-01
                       0.0000000000E+00  5.0000000000E-01  2.1699800000E-01
            znucl       11.00000   30.00000   33.00000

 chkinp: Checking input parameters for consistency.

== DATASET  1 ==================================================================
-   mpi_nproc: 1, omp_nthreads: -1 (-1 if OMP is not activated)

--- !DatasetInfo
iteration_state: {dtset: 1, }
dimensions: {natom: 6, nkpt: 1, mband: 53, nsppol: 1, nspinor: 1, nspden: 1, mpw: 11267, }
cutoff_energies: {ecut:  44.0, pawecutdg:  -1.0, }
electrons: {nelect:   8.80000000E+01, charge:   0.00000000E+00, occopt:   1.00000000E+00, tsmear:   1.00000000E-02, }
meta: {optdriver: 1, rfelfd: 2, }
...

 Real(R)+Recip(G) space primitive vectors, cartesian coordinates (Bohr,Bohr^-1):
 R(1)=  7.7799313  0.0000000  0.0000000  G(1)=  0.1285358  0.0000000  0.0000000
 R(2)=  0.0000000  7.7799313  0.0000000  G(2)=  0.0000000  0.1285358  0.0000000
 R(3)=  0.0000000  0.0000000 13.3421784  G(3)=  0.0000000  0.0000000  0.0749503
 Unit cell volume ucvol=  8.0756644E+02 bohr^3
 Angles (23,13,12)=  9.00000000E+01  9.00000000E+01  9.00000000E+01 degrees

 getcut: wavevector=  0.0000  0.0000  0.0000  ngfft=  48  48  80
         ecut(hartree)=     44.000   => boxcut(ratio)=   2.00804

--- Pseudopotential description ------------------------------------------------
- pspini: atom type   1  psp file is /scratch/users/j/a/jabreu/pseudos/PBEsol/Na.psp8
- pspatm: opening atomic psp file    /scratch/users/j/a/jabreu/pseudos/PBEsol/Na.psp8
- Na    ONCVPSP-3.3.0  r_core=   1.20708   1.55069
- 11.00000   9.00000    180112                znucl, zion, pspdat
    8 -116133    1    4       400   0.00000   pspcod,pspxc,lmax,lloc,mmax,r2well
    3.99000000000000    0.00000000000000    0.00000000000000   rchrg,fchrg,qchrg
     nproj     2     2
     extension_switch     1
  pspatm : epsatm=    9.32878306
         --- l  ekb(1:nproj) -->
             0    2.657905   -0.678300
             1   -6.761319   -2.404728
 pspatm: atomic psp has been read  and splines computed

- pspini: atom type   2  psp file is /scratch/users/j/a/jabreu/pseudos/PBEsol/Zn.psp8
- pspatm: opening atomic psp file    /scratch/users/j/a/jabreu/pseudos/PBEsol/Zn.psp8
- Zn    ONCVPSP-3.3.0  r_core=   1.35823   1.66358   1.85211
- 30.00000  20.00000    180112                znucl, zion, pspdat
    8 -116133    2    4       600   0.00000   pspcod,pspxc,lmax,lloc,mmax,r2well
    5.99000000000000    2.50000000000000    0.00000000000000   rchrg,fchrg,qchrg
     nproj     2     2     2
     extension_switch     1
  pspatm : epsatm=   26.57343589
         --- l  ekb(1:nproj) -->
             0    2.830835   -1.519107
             1   -4.626739   -1.324150
             2   -6.948510   -2.555500
 pspatm: atomic psp has been read  and splines computed

- pspini: atom type   3  psp file is /scratch/users/j/a/jabreu/pseudos/PBEsol/As.psp8
- pspatm: opening atomic psp file    /scratch/users/j/a/jabreu/pseudos/PBEsol/As.psp8
- As    ONCVPSP-3.3.0  r_core=   1.76603   1.70395   1.80867
- 33.00000  15.00000    180112                znucl, zion, pspdat
    8 -116133    2    4       600   0.00000   pspcod,pspxc,lmax,lloc,mmax,r2well
    5.99000000000000    5.00000000000000    0.00000000000000   rchrg,fchrg,qchrg
     nproj     2     2     2
     extension_switch     1
  pspatm : epsatm=   28.79155382
         --- l  ekb(1:nproj) -->
             0    8.270760    0.868950
             1    4.919053    0.756587
             2  -10.048665   -4.076802
 pspatm: atomic psp has been read  and splines computed

   1.13861040E+04                                ecore*ucvol(ha*bohr**3)

-inwffil : will read wavefunctions from disk file /scratch/users/j/a/jabreu/flow_simple_6atoms/flow/w269/t1/indata/in_WFK

 ==>  initialize data related to q vector <==

 The list of irreducible perturbations for this q vector is:
    1)    idir= 1    ipert=   7
    2)    idir= 2    ipert=   7
    3)    idir= 3    ipert=   7

 Perturbation wavevector (in red.coord.)   0.000000  0.000000  0.000000
 Perturbation : derivative vs k along direction   1

 dfpt_looppert : COMMENT -
  In a d/dk calculation, iscf is set to -3 automatically.
 The set of symmetries contains only one element for this perturbation.
 symkpt : not enough symmetry to change the number of k points.

[...]

 Initialisation of the first-order wave-functions :
  ireadwf=   0

--- !BeginCycle
iteration_state: {dtset: 1, }
solver: {iscf: 7, nstep: 1000, nline: 4, wfoptalg: 0, }
tolerances: {tolwfr: 1.00E-20, }
...

     iter   2DEtotal(Ha)        deltaE(Ha) residm    vres2
-ETOT  1  -138.51155817607     -1.385E+02 5.462E-02 0.000E+00
 ETOT  2  -138.60507737402     -9.352E-02 4.251E-04 0.000E+00
 ETOT  3  -138.60562138256     -5.440E-04 7.641E-06 0.000E+00
 ETOT  4  -138.60562974347     -8.361E-06 2.498E-07 0.000E+00
 ETOT  5  -138.60562995370     -2.102E-07 8.987E-09 0.000E+00
[...]
 dfpt_looppert : ek2=    1.1479444854E+02
          f-sum rule ratio=    1.7348810880E+00
 prteigrs : about to open file /scratch/users/j/a/jabreu/flow_simple_6atoms/flow/w269/t1/tmpdata/tmp_1WF1_EIG
 Expectation of eigenvalue derivatives (hartree) for nkpt=   1  k points:
  (in case of degenerate eigenvalues, averaged derivative)
 kpt#   1, nband= 53, wtk=  1.00000, kpt=  0.0000  0.0000  0.0000 (reduced coord)
   0.00000   -0.00000   -0.00000   -0.00000   -0.00000   -0.00000   -0.00000    0.00000
   0.00000    0.00000    0.00000    0.00000   -0.00000   -0.00000    0.00000    0.00000
  -0.00000   -0.00000   -0.00000   -0.00000   -0.00000   -0.00000   -0.00000    0.00000
  -0.00000   -0.00000   -0.00000   -0.00000   -0.00000    0.00000    0.00000    0.00000
  -0.00000    0.00000    0.00000    0.00000    0.00000    0.00000    0.00000   -0.00000
  -0.00000    0.00000    0.00000    0.00000   -0.00000    0.00000   -0.00000    0.00000
  -0.00000   -0.00000    0.00000   -0.00000    0.00236

 Eight components of 2nd-order total energy (hartree) are
 1,2,3: 0th-order hamiltonian combined with 1st-order wavefunctions
     kin0=   1.15326043E+02 eigvalue=   1.09519839E+01  local=  -4.12326423E+01
 4,5,6: 1st-order hamiltonian combined with 1st and 0th-order wfs
     kin1=  -1.99154718E+02  Hartree=   0.00000000E+00     xc=   0.00000000E+00
 7,8,9: eventually, occupation + non-local contributions
    edocc=   5.11764816E+01     enl0=   2.38376386E+00   enl1=  -7.80565421E+01
 1-9 gives the relaxation energy (to be shifted if some occ is /=2.0)
   erelax=  -1.38605630E+02
  No Ewald or frozen-wf contrib.: the relaxation energy is the total one
 2DEtotal=   -0.1386056300E+03 Ha. Also 2DEtotal=   -0.377165100200E+04 eV
    (  non-var. 2DEtotal :   -1.3860562996E+02 Ha)

 Perturbation wavevector (in red.coord.)   0.000000  0.000000  0.000000
 Perturbation : derivative vs k along direction   2
 The set of symmetries contains only one element for this perturbation.
 symkpt : not enough symmetry to change the number of k points.

[...]

 Perturbation wavevector (in red.coord.)   0.000000  0.000000  0.000000
 Perturbation : derivative vs k along direction   3
 The set of symmetries contains only one element for this perturbation.
 symkpt : not enough symmetry to change the number of k points.

-inwffil : will read wavefunctions from disk file /scratch/users/j/a/jabreu/flow_simple_6atoms/flow/w269/t1/indata/in_WFK

 Initialisation of the first-order wave-functions :
  ireadwf=   0

--- !BeginCycle
iteration_state: {dtset: 1, }
solver: {iscf: 7, nstep: 1000, nline: 4, wfoptalg: 0, }
tolerances: {tolwfr: 1.00E-20, }
...

     iter   2DEtotal(Ha)        deltaE(Ha) residm    vres2
-ETOT  1  -38.354994240449     -3.835E+01 1.945E-02 0.000E+00
 ETOT  2  -38.388239342544     -3.325E-02 1.042E-04 0.000E+00
 ETOT  3  -38.388395863418     -1.565E-04 8.940E-07 0.000E+00
 ETOT  4  -38.388397904577     -2.041E-06 4.792E-08 0.000E+00
 ETOT  5  -38.388397953820     -4.924E-08 9.261E-10 0.000E+00
 ETOT  6  -38.388397955116     -1.296E-09 3.278E-11 0.000E+00
 ETOT  7  -38.388397955152     -3.685E-11 7.013E-13 0.000E+00
 ETOT  8  -38.388397955153     -1.059E-12 2.864E-14 0.000E+00
 ETOT  9  -38.388397955153     -2.132E-14 6.474E-16 0.000E+00
 ETOT 10  -38.388397955153      0.000E+00 3.007E-17 0.000E+00
 ETOT 11  -38.388397955153     -1.421E-14 6.953E-19 0.000E+00
 ETOT 12  -38.388397955153      1.421E-14 3.412E-20 0.000E+00
 ETOT 13  -38.388397955153      0.000E+00 9.725E-21 0.000E+00

 At SCF step   13   max residual=  9.72E-21 < tolwfr=  1.00E-20 =>converged.

 ----iterations are completed or convergence reached----

 dfpt_looppert: DFPT cycle converged with prtwf=-1. Will skip output of the 1st-order WFK file.
 dfpt_looppert : ek2=    3.9031830414E+01
          f-sum rule ratio=    1.2797175290E+00
 prteigrs : about to open file /scratch/users/j/a/jabreu/flow_simple_6atoms/flow/w269/t1/tmpdata/tmp_1WF1_EIG
 Expectation of eigenvalue derivatives (hartree) for nkpt=   1  k points:
  (in case of degenerate eigenvalues, averaged derivative)
 kpt#   1, nband= 53, wtk=  1.00000, kpt=  0.0000  0.0000  0.0000 (reduced coord)
   0.00000   -0.00000    0.00000    0.00000    0.00000    0.00000   -0.00000   -0.00000
  -0.00000    0.00000   -0.00000   -0.00000    0.00000    0.00000    0.00000   -0.00000
   0.00000    0.00000   -0.00000    0.00000   -0.00000   -0.00000   -0.00000    0.00000
  -0.00000   -0.00000    0.00000   -0.00000   -0.00000   -0.00000    0.00000    0.00000
  -0.00000   -0.00000   -0.00000   -0.00000   -0.00000   -0.00000    0.00000   -0.00000
  -0.00000    0.00000    0.00000    0.00000    0.00000   -0.00000   -0.00000    0.00000
  -0.00000   -0.00000   -0.00000   -0.00000   -0.00074

 Eight components of 2nd-order total energy (hartree) are
 1,2,3: 0th-order hamiltonian combined with 1st-order wavefunctions
     kin0=   3.78264157E+01 eigvalue=   3.87617635E+00  local=  -1.35521428E+01
 4,5,6: 1st-order hamiltonian combined with 1st and 0th-order wfs
     kin1=  -4.99497176E+01  Hartree=   0.00000000E+00     xc=   0.00000000E+00
 7,8,9: eventually, occupation + non-local contributions
    edocc=   8.98769269E+00     enl0=   1.25025607E+00   enl1=  -2.68270783E+01
 1-9 gives the relaxation energy (to be shifted if some occ is /=2.0)
   erelax=  -3.83883980E+01
  No Ewald or frozen-wf contrib.: the relaxation energy is the total one
 2DEtotal=   -0.3838839796E+02 Ha. Also 2DEtotal=   -0.104460143253E+04 eV
    (  non-var. 2DEtotal :   -3.8388397955E+01 Ha)

 CALCULATION OF EFFECTIVE MASSES
 NOTE : Additional infos (eff. mass eigenvalues, eigenvectors and, if degenerate, average mass) are available in stdout.

 COMMENTS:
 - At k-point ( 0.000, 0.000, 0.000), bands    43 through    44
   are DEGENERATE (effective mass tensor is therefore not defined).
   See Section IIIB Eqs. (67)-(70) and Appendix E of PRB 93 205147 (2016).
 - Angular average effective mass for Frohlich model is to be averaged over degenerate bands. See later.
 - Associated theta integrals calculated with ntheta=   1000 points.

 K-point ( 0.000, 0.000, 0.000) | band =    43
 Transport equivalent effective mass tensor:
             -0.0417891453              0.0000000392              0.0000005328
              0.0000000392             -0.0417890887             -0.0000002811
              0.0000005328             -0.0000002811             -1.5359493755
 Transport equivalent effective mass tensor eigenvalues:
             -1.5359493755             -0.0417891653             -0.0417890687
 Angular average effective mass 1/(<1/m>)=  -0.0612021240
 Angular average effective mass for Frohlich model (<m**0.5>)**2=  -0.0840032225
 Effective masses along directions: (cart. coord. / red. coord. -> eff. mass)
    1:   1.000000  0.000000  0.000000 /   1.000000  0.000000  0.000000 ->  -0.0389492313
    2:   0.000000  1.000000  0.000000 /   0.000000  1.000000  0.000000 ->  -0.0389491786
    3:   0.000000  0.000000  1.000000 /   0.000000  0.000000  1.000000 ->  -1.5107682234
    4:   0.577350  0.577350  0.577350 /   0.449874  0.449874  0.771510 ->  -0.0654861976
    5:   0.000000  0.707107  0.707107 /   0.000000  0.503726  0.863864 ->  -0.0759405568
    6:   0.707107  0.000000  0.707107 /   0.503726  0.000000  0.863864 ->  -0.0759405829
    7:   0.707107  0.707107  0.000000 /   0.707107  0.707107  0.000000 ->  -0.0442975171

 K-point ( 0.000, 0.000, 0.000) | band =    44
 Transport equivalent effective mass tensor:
            -19.8737529595              0.0000098850              0.0000232637
              0.0000098850            -19.8737425610             -0.0000122694
              0.0000232637             -0.0000122694           -137.3544421234
 Transport equivalent effective mass tensor eigenvalues:
           -137.3544421234            -19.8737589292            -19.8737365913
 Angular average effective mass 1/(<1/m>)=  -0.7865434847
 Angular average effective mass for Frohlich model (<m**0.5>)**2=  -1.2387128463
 Effective masses along directions: (cart. coord. / red. coord. -> eff. mass)
    1:   1.000000  0.000000  0.000000 /   1.000000  0.000000  0.000000 -> -12.5546645115
    2:   0.000000  1.000000  0.000000 /   0.000000  1.000000  0.000000 -> -12.5546645360
    3:   0.000000  0.000000  1.000000 /   0.000000  0.000000  1.000000 ->  -1.5107682276
    4:   0.577350  0.577350  0.577350 /   0.449874  0.449874  0.771510 ->  -0.4272936119
    5:   0.000000  0.707107  0.707107 /   0.000000  0.503726  0.863864 ->  -2.6969931822
    6:   0.707107  0.000000  0.707107 /   0.503726  0.000000  0.863864 ->  -2.6969932081
    7:   0.707107  0.707107  0.000000 /   0.707107  0.707107  0.000000 ->  -0.3145139449

 Angular average effective mass for Frohlich model, averaged over degenerate bands.
 Value of     (<<m**0.5>>)**2 =     4.919675E-01
 Absolute Value of <<m**0.5>> =     7.014039E-01

 K-point ( 0.000, 0.000, 0.000) | band =    45
 Effective mass tensor:
              0.0428943502             -0.0000000004              0.0000000001
             -0.0000000004              0.0428943498              0.0000000000
              0.0000000001              0.0000000000              0.0746361134
 Effective mass tensor eigenvalues:
              0.0428943496              0.0428943505              0.0746361134
 Angular average effective mass 1/(<1/m>)=   0.0499795692
 Angular average effective mass for Frohlich model (<m**0.5>)**2=   0.0509013299
 Effective masses along directions: (cart. coord. / red. coord. -> eff. mass)
    1:   1.000000  0.000000  0.000000 /   1.000000  0.000000  0.000000 ->   0.0428943502
    2:   0.000000  1.000000  0.000000 /   0.000000  1.000000  0.000000 ->   0.0428943498
    3:   0.000000  0.000000  1.000000 /   0.000000  0.000000  1.000000 ->   0.0746361134
    4:   0.577350  0.577350  0.577350 /   0.449874  0.449874  0.771510 ->   0.0499795688
    5:   0.000000  0.707107  0.707107 /   0.000000  0.503726  0.863864 ->   0.0544789405
    6:   0.707107  0.000000  0.707107 /   0.503726  0.000000  0.863864 ->   0.0544789409
    7:   0.707107  0.707107  0.000000 /   0.707107  0.707107  0.000000 ->   0.0428943496

 END OF EFFECTIVE MASSES SECTION

 ---- first-order wavefunction calculations are completed ----

 Total localisation tensor (bohr^2) in cartesian coordinates
  WARNING : still subject to testing - especially symmetries.
      direction              matrix element
   alpha     beta       real part   imaginary part
     1        1      18.2976032683    0.0000000000
     1        2       0.0000000000    0.0000000000
     1        3       0.0000000000    0.0000000000
     2        1       0.0000000000    0.0000000000
     2        2      18.2976038733    0.0000000000
     2        3       0.0000000000    0.0000000000
     3        1       0.0000000000    0.0000000000
     3        2       0.0000000000    0.0000000000
     3        3       4.5354114302    0.0000000000

 respfn : d/dk was computed, but no 2DTE, so no DDB output.

== END DATASET(S) ==============================================================

 -outvars: echo values of variables after computation  --------
            acell      1.0000000000E+00  1.0000000000E+00  1.0000000000E+00 Bohr
              amu      2.29897680E+01  6.53900000E+01  7.49215900E+01
             ecut      4.40000000E+01 Hartree
           etotal     -3.8388397955E+01
            fcart      0.0000000000E+00  0.0000000000E+00  0.0000000000E+00
                       0.0000000000E+00  0.0000000000E+00  0.0000000000E+00
                       0.0000000000E+00  0.0000000000E+00  0.0000000000E+00
                       0.0000000000E+00  0.0000000000E+00  0.0000000000E+00
                       0.0000000000E+00  0.0000000000E+00  0.0000000000E+00
                       0.0000000000E+00  0.0000000000E+00  0.0000000000E+00
-          fftalg         512
           irdden           1
           irdwfk           1
           istwfk        1
              ixc     -116133
           kptopt           0
P           mkmem           1
P          mkqmem           1
P          mk1mem           1
            natom           6
            nband          53
           nbdbuf           4
            ngfft          48      48      80
             nkpt           1
            nstep        1000
             nsym          16
           ntypat           3
              occ      2.000000  2.000000  2.000000  2.000000  2.000000  2.000000
                       2.000000  2.000000  2.000000  2.000000  2.000000  2.000000
                       2.000000  2.000000  2.000000  2.000000  2.000000  2.000000
                       2.000000  2.000000  2.000000  2.000000  2.000000  2.000000
                       2.000000  2.000000  2.000000  2.000000  2.000000  2.000000
                       2.000000  2.000000  2.000000  2.000000  2.000000  2.000000
                       2.000000  2.000000  2.000000  2.000000  2.000000  2.000000
                       2.000000  2.000000  0.000000  0.000000  0.000000  0.000000
                       0.000000  0.000000  0.000000  0.000000  0.000000
        optdriver           1
            prtwf          -1
            rfdir           1       1       1
           rfelfd           2
            rprim      7.7799312502E+00  0.0000000000E+00  0.0000000000E+00
                       0.0000000000E+00  7.7799312502E+00  0.0000000000E+00
                       0.0000000000E+00  0.0000000000E+00  1.3342178394E+01
          spgroup         129
           strten      0.0000000000E+00  0.0000000000E+00  0.0000000000E+00
                       0.0000000000E+00  0.0000000000E+00  0.0000000000E+00
           symrel      1  0  0   0  1  0   0  0  1      -1  0  0   0 -1  0   0  0 -1
                      -1  0  0   0  1  0   0  0 -1       1  0  0   0 -1  0   0  0  1
                      -1  0  0   0 -1  0   0  0  1       1  0  0   0  1  0   0  0 -1
                       1  0  0   0 -1  0   0  0 -1      -1  0  0   0  1  0   0  0  1
                       0  1  0   1  0  0   0  0  1       0 -1  0  -1  0  0   0  0 -1
                       0 -1  0   1  0  0   0  0 -1       0  1  0  -1  0  0   0  0  1
                       0 -1  0  -1  0  0   0  0  1       0  1  0   1  0  0   0  0 -1
                       0  1  0  -1  0  0   0  0 -1       0 -1  0   1  0  0   0  0  1
            tnons      0.0000000  0.0000000  0.0000000     0.5000000  0.5000000 -0.0000000
                       0.5000000  0.5000000 -0.0000000     0.0000000 -0.0000000  0.0000000
                       0.0000000 -0.0000000  0.0000000     0.5000000  0.5000000 -0.0000000
                       0.5000000  0.5000000 -0.0000000     0.0000000  0.0000000  0.0000000
                       0.5000000  0.5000000  0.0000000    -0.0000000  0.0000000 -0.0000000
                       0.0000000  0.0000000 -0.0000000     0.5000000  0.5000000  0.0000000
                       0.5000000  0.5000000  0.0000000     0.0000000  0.0000000 -0.0000000
                      -0.0000000  0.0000000 -0.0000000     0.5000000  0.5000000  0.0000000
           tolwfr      1.00000000E-20
            typat      1  1  2  2  3  3
           useylm           1
           xangst      0.0000000000E+00  2.0584811510E+00  4.5824316039E+00
                       2.0584811510E+00  0.0000000000E+00  2.4779451152E+00
                       2.0584811510E+00  2.0584811510E+00  0.0000000000E+00
                       0.0000000000E+00  0.0000000000E+00  0.0000000000E+00
                       2.0584811510E+00  0.0000000000E+00  5.5282890918E+00
                       0.0000000000E+00  2.0584811510E+00  1.5320876273E+00
            xcart      0.0000000000E+00  3.8899656251E+00  8.6595407541E+00
                       3.8899656251E+00  0.0000000000E+00  4.6826376401E+00
                       3.8899656251E+00  3.8899656251E+00  0.0000000000E+00
                       0.0000000000E+00  0.0000000000E+00  0.0000000000E+00
                       3.8899656251E+00  0.0000000000E+00  1.0446952367E+01
                       0.0000000000E+00  3.8899656251E+00  2.8952260272E+00
             xred      0.0000000000E+00  5.0000000000E-01  6.4903500000E-01
                       5.0000000000E-01  0.0000000000E+00  3.5096500000E-01
                       5.0000000000E-01  5.0000000000E-01  0.0000000000E+00
                       0.0000000000E+00  0.0000000000E+00  0.0000000000E+00
                       5.0000000000E-01  0.0000000000E+00  7.8300200000E-01
                       0.0000000000E+00  5.0000000000E-01  2.1699800000E-01
            znucl       11.00000   30.00000   33.00000

- Timing analysis has been suppressed with timopt=0

 Suggested references for the acknowledgment of ABINIT usage.

 Calculation completed.
.Delivered   6 WARNINGs and   5 COMMENTs to log file.