.Version 9.5.1 of ABINIT

 ABINIT is a project of the Universite Catholique de Louvain,
 Corning Inc. and other collaborators, see ~abinit/doc/developers/contributors.txt .
 acknowledgments of the ABINIT effort.

.Starting date : Wed  5 May 2021.
- ( at 19h53 )

- input  file    -> /scratch/users/j/a/jabreu/flow_simple_7atoms/flow/w155/t1/run.abi
- output file    -> /scratch/users/j/a/jabreu/flow_simple_7atoms/flow/w155/t1/run.abo
- root for input  files -> /scratch/users/j/a/jabreu/flow_simple_7atoms/flow/w155/t1/indata/in
- root for output files -> /scratch/users/j/a/jabreu/flow_simple_7atoms/flow/w155/t1/outdata/out

 Symmetries : space group I-4 (# 82); Bravais tI (body-center tetrag.)
     intxc =       0      iscf =       7    lmnmax =      18     lnmax =       6
     mgfft =      90  mpssoang =       3    mqgrid =    3296     natom =       7
  nloc_mem =       1    nspden =       1   nspinor =       1    nsppol =       1
      nsym =       4    n1xccc =    2501    ntypat =       3    occopt =       1
   xclevel =       2
-    mband =          64        mffmem =           1         mkmem =           1
-   mkqmem =           1        mk1mem =           1           mpw =       25851
      nfft =      729000          nkpt =           1
  Rough estimation (10% accuracy) of disk space for files :

------------- Echo of variables that govern the present computation ------------
-
- outvars: echo of selected default values
-   iomode0 =  0 , fftalg0 =512 , wfoptalg0 =  0
-
- outvars: echo of global parameters not present in the input file
-  max_nthreads =    0
-
 -outvars: echo values of preprocessed input variables --------
            acell      1.0000000000E+00  1.0000000000E+00  1.0000000000E+00 Bohr
              amu      1.12411000E+02  6.97230000E+01  1.27600000E+02
             ecut      5.10000000E+01 Hartree
-          fftalg         512
           irdden           1
           irdwfk           1
           istwfk        1
              ixc     -116133
           kptopt           0
P           mkmem           1
P          mkqmem           1
P          mk1mem           1
            natom           7
            nband          64
           nbdbuf           4
            ngfft          90      90      90
             nkpt           1
            nstep        2000
             nsym           4
           ntypat           3
              occ      2.000000  2.000000  2.000000  2.000000  2.000000  2.000000
                       2.000000  2.000000  2.000000  2.000000  2.000000  2.000000
                       2.000000  2.000000  2.000000  2.000000  2.000000  2.000000
                       2.000000  2.000000  2.000000  2.000000  2.000000  2.000000
                       2.000000  2.000000  2.000000  2.000000  2.000000  2.000000
                       2.000000  2.000000  2.000000  2.000000  2.000000  2.000000
                       2.000000  2.000000  2.000000  2.000000  2.000000  2.000000
                       2.000000  2.000000  2.000000  2.000000  2.000000  2.000000
                       2.000000  2.000000  2.000000  2.000000  2.000000  2.000000
                       2.000000  0.000000  0.000000  0.000000  0.000000  0.000000
                       0.000000  0.000000  0.000000  0.000000
        optdriver           1
            prtwf          -1
            rfdir           1       1       1
           rfelfd           2
            rprim      1.0486403916E+01  0.0000000000E+00 -8.9991523434E+00
                      -2.2148276598E+00  1.0249839293E+01 -8.9991523434E+00
                       0.0000000000E+00  0.0000000000E+00  1.3818444558E+01
          spgroup          82
           symrel      1  0  0   0  1  0   0  0  1       0  1  0   1  0  0  -1 -1 -1
                       0  0  1  -1 -1 -1   0  1  0      -1 -1 -1   0  0  1   1  0  0
           tolwfr      1.00000000E-20
            typat      1  2  2  3  3  3  3
           useylm           1
           xangst      0.0000000000E+00  0.0000000000E+00  0.0000000000E+00
                       5.0826424923E-01  4.0679860091E+00 -1.1059433577E+00
                       2.1885648170E+00  2.7119906728E+00 -4.7621463168E+00
                      -8.8312100338E-02  3.1500693741E+00  3.7976077909E+00
                       3.7271802320E+00  4.8449767609E+00 -4.8845877475E+00
                       1.8736241395E+00  2.0953382336E+00  1.0080259147E-02
                       3.2417669967E+00  7.5757832249E-01 -3.3468737334E+00
            xcart      0.0000000000E+00  0.0000000000E+00  0.0000000000E+00
                       9.6048023417E-01  7.6873794697E+00 -2.0899300646E+00
                       4.1357881281E+00  5.1249196465E+00 -8.9991523434E+00
                      -1.6688568386E-01  5.9527684166E+00  7.1764386849E+00
                       7.0433498864E+00  9.1556791982E+00 -9.2305331149E+00
                       3.5406364997E+00  3.9596154172E+00  1.9048929136E-02
                       6.1260518104E+00  1.4316155537E+00 -6.3246747576E+00
             xred      0.0000000000E+00  0.0000000000E+00  0.0000000000E+00
                       2.5000000000E-01  7.5000000000E-01  5.0000000000E-01
                       5.0000000000E-01  5.0000000000E-01  0.0000000000E+00
                       1.0674900000E-01  5.8076700000E-01  9.6707700000E-01
                       8.6032800000E-01  8.9325100000E-01  4.7401800000E-01
                       4.1923300000E-01  3.8631000000E-01  5.2598200000E-01
                       6.1369000000E-01  1.3967200000E-01  3.2923000000E-02
            znucl       48.00000   31.00000   52.00000

 chkinp: Checking input parameters for consistency.

== DATASET  1 ==================================================================
-   mpi_nproc: 1, omp_nthreads: -1 (-1 if OMP is not activated)

--- !DatasetInfo
iteration_state: {dtset: 1, }
dimensions: {natom: 7, nkpt: 1, mband: 64, nsppol: 1, nspinor: 1, nspden: 1, mpw: 25851, }
cutoff_energies: {ecut:  51.0, pawecutdg:  -1.0, }
electrons: {nelect:   1.10000000E+02, charge:   0.00000000E+00, occopt:   1.00000000E+00, tsmear:   1.00000000E-02, }
meta: {optdriver: 1, rfelfd: 2, }
...

 Real(R)+Recip(G) space primitive vectors, cartesian coordinates (Bohr,Bohr^-1):
 R(1)= 10.4864039  0.0000000 -8.9991523  G(1)=  0.0953616  0.0206061  0.0000000
 R(2)= -2.2148277 10.2498393 -8.9991523  G(2)=  0.0000000  0.0975625  0.0000000
 R(3)=  0.0000000  0.0000000 13.8184446  G(3)=  0.0621035  0.0769564  0.0723670
 Unit cell volume ucvol=  1.4852611E+03 bohr^3
 Angles (23,13,12)=  1.30635314E+02  1.30635314E+02  7.23931332E+01 degrees

 getcut: wavevector=  0.0000  0.0000  0.0000  ngfft=  90  90  90
         ecut(hartree)=     51.000   => boxcut(ratio)=   2.02618

--- Pseudopotential description ------------------------------------------------
- pspini: atom type   1  psp file is /scratch/users/j/a/jabreu/pseudos/PBEsol/Cd.psp8
- pspatm: opening atomic psp file    /scratch/users/j/a/jabreu/pseudos/PBEsol/Cd.psp8
- Cd    ONCVPSP-3.3.0  r_core=   1.25838   1.30423   1.35174
- 48.00000  20.00000    180112                znucl, zion, pspdat
    8 -116133    2    4       600   0.00000   pspcod,pspxc,lmax,lloc,mmax,r2well
    5.99000000000000    6.00000000000000    0.00000000000000   rchrg,fchrg,qchrg
     nproj     2     2     2
     extension_switch     1
  pspatm : epsatm=   23.26728021
         --- l  ekb(1:nproj) -->
             0   63.701523    3.700425
             1    8.703569    1.290373
             2    0.983656   -0.721725
 pspatm: atomic psp has been read  and splines computed

- pspini: atom type   2  psp file is /scratch/users/j/a/jabreu/pseudos/PBEsol/Ga.psp8
- pspatm: opening atomic psp file    /scratch/users/j/a/jabreu/pseudos/PBEsol/Ga.psp8
- Ga    ONCVPSP-3.3.0  r_core=   1.66857   1.75011   1.90252
- 31.00000  13.00000    180112                znucl, zion, pspdat
    8 -116133    2    4       600   0.00000   pspcod,pspxc,lmax,lloc,mmax,r2well
    5.99000000000000    5.00000000000000    0.00000000000000   rchrg,fchrg,qchrg
     nproj     2     2     2
     extension_switch     1
  pspatm : epsatm=   24.50969055
         --- l  ekb(1:nproj) -->
             0    7.053021    1.156713
             1    6.846070    1.293139
             2   -8.368667   -2.819170
 pspatm: atomic psp has been read  and splines computed

- pspini: atom type   3  psp file is /scratch/users/j/a/jabreu/pseudos/PBEsol/Te.psp8
- pspatm: opening atomic psp file    /scratch/users/j/a/jabreu/pseudos/PBEsol/Te.psp8
- Te    ONCVPSP-3.3.0  r_core=   2.26547   1.91704   1.80604
- 52.00000  16.00000    180112                znucl, zion, pspdat
    8 -116133    2    4       600   0.00000   pspcod,pspxc,lmax,lloc,mmax,r2well
    5.99000000000000    5.00000000000000    0.00000000000000   rchrg,fchrg,qchrg
     nproj     2     2     2
     extension_switch     1
  pspatm : epsatm=   36.82679836
         --- l  ekb(1:nproj) -->
             0    6.345999    0.785432
             1    5.709019    1.070069
             2   -6.035173   -1.870937
 pspatm: atomic psp has been read  and splines computed

   2.41553240E+04                                ecore*ucvol(ha*bohr**3)

-inwffil : will read wavefunctions from disk file /scratch/users/j/a/jabreu/flow_simple_7atoms/flow/w155/t1/indata/in_WFK

 ==>  initialize data related to q vector <==

 The list of irreducible perturbations for this q vector is:
    1)    idir= 1    ipert=   8
    2)    idir= 2    ipert=   8
    3)    idir= 3    ipert=   8

 Perturbation wavevector (in red.coord.)   0.000000  0.000000  0.000000
 Perturbation : derivative vs k along direction   1

 dfpt_looppert : COMMENT -
  In a d/dk calculation, iscf is set to -3 automatically.
 The set of symmetries contains only one element for this perturbation.
 symkpt : not enough symmetry to change the number of k points.

[...]

 Initialisation of the first-order wave-functions :
  ireadwf=   0

--- !BeginCycle
iteration_state: {dtset: 1, }
solver: {iscf: 7, nstep: 2000, nline: 4, wfoptalg: 0, }
tolerances: {tolwfr: 1.00E-20, }
...

     iter   2DEtotal(Ha)        deltaE(Ha) residm    vres2
-ETOT  1  -96.266026891906     -9.627E+01 2.374E-01 0.000E+00
 ETOT  2  -96.428018180649     -1.620E-01 6.330E-03 0.000E+00
 ETOT  3  -96.429485419743     -1.467E-03 6.215E-04 0.000E+00
 ETOT  4  -96.429516241964     -3.082E-05 3.359E-05 0.000E+00
 ETOT  5  -96.429517046722     -8.048E-07 4.184E-06 0.000E+00
 ETOT  6  -96.429517069721     -2.300E-08 2.527E-07 0.000E+00
 ETOT  7  -96.429517070412     -6.909E-10 3.548E-08 0.000E+00
 ETOT  8  -96.429517070434     -2.152E-11 2.143E-09 0.000E+00
 ETOT  9  -96.429517070434     -6.537E-13 3.537E-10 0.000E+00
 ETOT 10  -96.429517070434      2.842E-14 2.162E-11 0.000E+00
 ETOT 11  -96.429517070434     -1.421E-14 3.942E-12 0.000E+00
 ETOT 12  -96.429517070434      4.263E-14 2.458E-13 0.000E+00
 ETOT 13  -96.429517070434     -5.684E-14 4.709E-14 0.000E+00
 ETOT 14  -96.429517070434      1.421E-14 3.004E-15 0.000E+00
 ETOT 15  -96.429517070434      1.421E-14 5.992E-16 0.000E+00
 ETOT 16  -96.429517070434     -1.421E-14 3.927E-17 0.000E+00
 ETOT 17  -96.429517070434      0.000E+00 8.135E-18 0.000E+00
 ETOT 18  -96.429517070434      2.842E-14 5.478E-19 0.000E+00
[...]
 dfpt_looppert : ek2=    8.2670069978E+01
          f-sum rule ratio=    1.1687284200E+00
 prteigrs : about to open file /scratch/users/j/a/jabreu/flow_simple_7atoms/flow/w155/t1/tmpdata/tmp_1WF1_EIG
 Expectation of eigenvalue derivatives (hartree) for nkpt=   1  k points:
  (in case of degenerate eigenvalues, averaged derivative)
 kpt#   1, nband= 64, wtk=  1.00000, kpt=  0.0000  0.0000  0.0000 (reduced coord)
   0.00000    0.00000   -0.00000   -0.00000   -0.00000    0.00000    0.00000    0.00000
   0.00000    0.00000    0.00000    0.00000    0.00000   -0.00000    0.00000    0.00000
  -0.00000   -0.00000   -0.00000   -0.00000    0.00000   -0.00000   -0.00000   -0.00000
   0.00000    0.00000    0.00000    0.00000    0.00000    0.00000    0.00000   -0.00000
   0.00000    0.00000   -0.00000   -0.00000   -0.00000   -0.00000    0.00000   -0.00000
  -0.00000   -0.00000   -0.00000    0.00000    0.00000   -0.00000    0.00000   -0.00000
  -0.00000    0.00000    0.00000    0.00000    0.00000    0.00000    0.00000    0.00000
  -0.00000    0.00000    0.00000   -0.00000   -0.00000   -0.00000    0.00000    0.00000

 Eight components of 2nd-order total energy (hartree) are
 1,2,3: 0th-order hamiltonian combined with 1st-order wavefunctions
     kin0=   1.02988618E+02 eigvalue=   1.39571971E+01  local=  -5.04054540E+01
 4,5,6: 1st-order hamiltonian combined with 1st and 0th-order wfs
     kin1=  -9.66188603E+01  Hartree=   0.00000000E+00     xc=   0.00000000E+00
 7,8,9: eventually, occupation + non-local contributions
    edocc=   1.70456989E+01     enl0=   1.28434574E+01   enl1=  -9.62401739E+01
 1-9 gives the relaxation energy (to be shifted if some occ is /=2.0)
   erelax=  -9.64295171E+01
  No Ewald or frozen-wf contrib.: the relaxation energy is the total one
 2DEtotal=   -0.9642951707E+02 Ha. Also 2DEtotal=   -0.262398060444E+04 eV
    (  non-var. 2DEtotal :   -9.6429517070E+01 Ha)

 Perturbation wavevector (in red.coord.)   0.000000  0.000000  0.000000
 Perturbation : derivative vs k along direction   2
 The set of symmetries contains only one element for this perturbation.
 symkpt : not enough symmetry to change the number of k points.

[...]

 Perturbation wavevector (in red.coord.)   0.000000  0.000000  0.000000
 Perturbation : derivative vs k along direction   3
 The set of symmetries contains only one element for this perturbation.
 symkpt : not enough symmetry to change the number of k points.

-inwffil : will read wavefunctions from disk file /scratch/users/j/a/jabreu/flow_simple_7atoms/flow/w155/t1/indata/in_WFK

 Initialisation of the first-order wave-functions :
  ireadwf=   0

--- !BeginCycle
iteration_state: {dtset: 1, }
solver: {iscf: 7, nstep: 2000, nline: 4, wfoptalg: 0, }
tolerances: {tolwfr: 1.00E-20, }
...

     iter   2DEtotal(Ha)        deltaE(Ha) residm    vres2
-ETOT  1  -153.70696925732     -1.537E+02 6.327E-01 0.000E+00
 ETOT  2  -153.89984090478     -1.929E-01 3.100E-02 0.000E+00
 ETOT  3  -153.90116928443     -1.328E-03 2.271E-03 0.000E+00
 ETOT  4  -153.90119709268     -2.781E-05 2.105E-04 0.000E+00
 ETOT  5  -153.90119786086     -7.682E-07 1.847E-05 0.000E+00
 ETOT  6  -153.90119788474     -2.388E-08 1.868E-06 0.000E+00
 ETOT  7  -153.90119788553     -7.923E-10 1.685E-07 0.000E+00
 ETOT  8  -153.90119788556     -2.731E-11 1.724E-08 0.000E+00
 ETOT  9  -153.90119788556     -1.165E-12 1.583E-09 0.000E+00
 ETOT 10  -153.90119788556      5.684E-14 1.622E-10 0.000E+00
 ETOT 11  -153.90119788556      1.990E-13 1.520E-11 0.000E+00
 ETOT 12  -153.90119788556     -2.842E-14 1.557E-12 0.000E+00
 ETOT 13  -153.90119788556      5.684E-14 1.494E-13 0.000E+00
 ETOT 14  -153.90119788556     -2.842E-14 1.535E-14 0.000E+00
 ETOT 15  -153.90119788556     -2.842E-14 1.517E-15 0.000E+00
 ETOT 16  -153.90119788556      2.842E-14 1.571E-16 0.000E+00
 ETOT 17  -153.90119788556      0.000E+00 1.614E-17 0.000E+00
 ETOT 18  -153.90119788556      0.000E+00 1.695E-18 0.000E+00
 ETOT 19  -153.90119788556      0.000E+00 1.824E-19 0.000E+00
 ETOT 20  -153.90119788556      2.842E-14 1.948E-20 0.000E+00
 ETOT 21  -153.90119788556     -2.842E-14 9.958E-21 0.000E+00

 At SCF step   21   max residual=  9.96E-21 < tolwfr=  1.00E-20 =>converged.

 ----iterations are completed or convergence reached----

 dfpt_looppert: DFPT cycle converged with prtwf=-1. Will skip output of the 1st-order WFK file.
 dfpt_looppert : ek2=    1.3041873905E+02
          f-sum rule ratio=    1.1939854745E+00
 prteigrs : about to open file /scratch/users/j/a/jabreu/flow_simple_7atoms/flow/w155/t1/tmpdata/tmp_1WF1_EIG
 Expectation of eigenvalue derivatives (hartree) for nkpt=   1  k points:
  (in case of degenerate eigenvalues, averaged derivative)
 kpt#   1, nband= 64, wtk=  1.00000, kpt=  0.0000  0.0000  0.0000 (reduced coord)
   0.00000   -0.00000    0.00000    0.00000   -0.00000    0.00000    0.00000    0.00000
   0.00000    0.00000    0.00000    0.00000    0.00000   -0.00000    0.00000    0.00000
   0.00000   -0.00000   -0.00000   -0.00000   -0.00000   -0.00000   -0.00000   -0.00000
   0.00000    0.00000    0.00000    0.00000    0.00000    0.00000   -0.00000   -0.00000
   0.00000    0.00000   -0.00000   -0.00000   -0.00000    0.00000    0.00000    0.00000
  -0.00000   -0.00000   -0.00000    0.00000    0.00000   -0.00000    0.00000   -0.00000
  -0.00000   -0.00000    0.00000    0.00000    0.00000   -0.00000   -0.00000   -0.00000
  -0.00000   -0.00000    0.00000   -0.00000   -0.00000    0.00000    0.00000    0.00000

 Eight components of 2nd-order total energy (hartree) are
 1,2,3: 0th-order hamiltonian combined with 1st-order wavefunctions
     kin0=   1.62104459E+02 eigvalue=   2.20376866E+01  local=  -7.92197417E+01
 4,5,6: 1st-order hamiltonian combined with 1st and 0th-order wfs
     kin1=  -1.55718080E+02  Hartree=   0.00000000E+00     xc=   0.00000000E+00
 7,8,9: eventually, occupation + non-local contributions
    edocc=   2.88541334E+01     enl0=   2.01246604E+01   enl1=  -1.52084316E+02
 1-9 gives the relaxation energy (to be shifted if some occ is /=2.0)
   erelax=  -1.53901198E+02
  No Ewald or frozen-wf contrib.: the relaxation energy is the total one
 2DEtotal=   -0.1539011979E+03 Ha. Also 2DEtotal=   -0.418786457218E+04 eV
    (  non-var. 2DEtotal :   -1.5390119788E+02 Ha)

 CALCULATION OF EFFECTIVE MASSES
 NOTE : Additional infos (eff. mass eigenvalues, eigenvectors and, if degenerate, average mass) are available in stdout.

 COMMENTS:
 - At k-point ( 0.000, 0.000, 0.000), bands    54 through    55
   are DEGENERATE (effective mass tensor is therefore not defined).
   See Section IIIB Eqs. (67)-(70) and Appendix E of PRB 93 205147 (2016).
 - Angular average effective mass for Frohlich model is to be averaged over degenerate bands. See later.
 - Associated theta integrals calculated with ntheta=   1000 points.

 K-point ( 0.000, 0.000, 0.000) | band =    54
 Transport equivalent effective mass tensor:
             -0.1340821115             -0.0640389429              0.1124498033
             -0.0640389429             -0.1617577122              0.1393437466
              0.1124498033              0.1393437466             -0.3270849645
 Transport equivalent effective mass tensor eigenvalues:
             -0.4581188674             -0.0824029604             -0.0824029604
 Angular average effective mass 1/(<1/m>)=  -0.1121990154
 Angular average effective mass for Frohlich model (<m**0.5>)**2=  -0.1276157063
 Effective masses along directions: (cart. coord. / red. coord. -> eff. mass)
    1:   1.000000  0.000000  0.000000 /   0.978415 -0.206650  0.000000 ->  -0.0958888297
    2:   0.000000  1.000000  0.000000 /   0.000000  1.000000  0.000000 ->  -0.1052455222
    3:   0.000000  0.000000  1.000000 /  -0.479032 -0.479032  0.735566 ->  -0.1671316603
    4:   0.577350  0.577350  0.577350 /   0.106753 -0.069205  0.991874 ->  -0.0770971133
    5:   0.000000  0.707107  0.707107 /  -0.544157  0.075626  0.835568 ->  -0.0874561183
    6:   0.707107  0.000000  0.707107 /   0.083281 -0.627946  0.773788 ->  -0.0930125052
    7:   0.707107  0.707107  0.000000 /   0.793773  0.608214  0.000000 ->  -0.1083382115

 K-point ( 0.000, 0.000, 0.000) | band =    55
 Transport equivalent effective mass tensor:
             -3.3806558839              0.0626376042             -0.1099891088
              0.0626376042             -3.3535858974             -0.1362945422
             -0.1099891088             -0.1362945422             -3.1918764362
 Transport equivalent effective mass tensor eigenvalues:
             -3.4312041607             -3.4312041603             -3.0637098963
 Angular average effective mass 1/(<1/m>)=  -0.6859830368
 Angular average effective mass for Frohlich model (<m**0.5>)**2=  -0.7963654559
 Effective masses along directions: (cart. coord. / red. coord. -> eff. mass)
    1:   1.000000  0.000000  0.000000 /   0.978415 -0.206650  0.000000 ->  -0.5937723608
    2:   0.000000  1.000000  0.000000 /   0.000000  1.000000  0.000000 ->  -0.5113127623
    3:   0.000000  0.000000  1.000000 /  -0.479032 -0.479032  0.735566 ->  -0.6418694514
    4:   0.577350  0.577350  0.577350 /   0.106753 -0.069205  0.991874 ->  -2.7418148691
    5:   0.000000  0.707107  0.707107 /  -0.544157  0.075626  0.835568 ->  -0.7322728486
    6:   0.707107  0.000000  0.707107 /   0.083281 -0.627946  0.773788 ->  -0.5749058464
    7:   0.707107  0.707107  0.000000 /   0.793773  0.608214  0.000000 ->  -0.9635023578

 Angular average effective mass for Frohlich model, averaged over degenerate bands.
 Value of     (<<m**0.5>>)**2 =     3.903916E-01
 Absolute Value of <<m**0.5>> =     6.248133E-01

 K-point ( 0.000, 0.000, 0.000) | band =    56
 Effective mass tensor:
              0.1018418170              0.0158859845             -0.0278951486
              0.0158859845              0.1087072355             -0.0345666631
             -0.0278951486             -0.0345666631              0.1497195630
 Effective mass tensor eigenvalues:
              0.0890218957              0.0890218958              0.1822248239
 Angular average effective mass 1/(<1/m>)=   0.1073187470
 Angular average effective mass for Frohlich model (<m**0.5>)**2=   0.1105226395
 Effective masses along directions: (cart. coord. / red. coord. -> eff. mass)
    1:   1.000000  0.000000  0.000000 /   0.978415 -0.206650  0.000000 ->   0.0957587356
    2:   0.000000  1.000000  0.000000 /   0.000000  1.000000  0.000000 ->   0.0998034376
    3:   0.000000  0.000000  1.000000 /  -0.479032 -0.479032  0.735566 ->   0.1334845620
    4:   0.577350  0.577350  0.577350 /   0.106753 -0.069205  0.991874 ->   0.0890302461
    5:   0.000000  0.707107  0.707107 /  -0.544157  0.075626  0.835568 ->   0.0918573091
    6:   0.707107  0.000000  0.707107 /   0.083281 -0.627946  0.773788 ->   0.0935734254
    7:   0.707107  0.707107  0.000000 /   0.793773  0.608214  0.000000 ->   0.1080845428

 END OF EFFECTIVE MASSES SECTION

 ---- first-order wavefunction calculations are completed ----

 Total localisation tensor (bohr^2) in cartesian coordinates
  WARNING : still subject to testing - especially symmetries.
      direction              matrix element
   alpha     beta       real part   imaginary part
     1        1       3.5084048374    0.0000000000
     1        2      -0.6933612848    0.0000000000
     1        3      -2.2734870014    0.0000000000
     2        1      -0.6933612848    0.0000000000
     2        2       3.2087560899    0.0000000000
     2        3      -2.8172231837    0.0000000000
     3        1      -2.2734870014    0.0000000000
     3        2      -2.8172231837    0.0000000000
     3        3      14.9553221936    0.0000000000

 respfn : d/dk was computed, but no 2DTE, so no DDB output.

== END DATASET(S) ==============================================================

 -outvars: echo values of variables after computation  --------
            acell      1.0000000000E+00  1.0000000000E+00  1.0000000000E+00 Bohr
              amu      1.12411000E+02  6.97230000E+01  1.27600000E+02
             ecut      5.10000000E+01 Hartree
           etotal     -1.5390119789E+02
            fcart      0.0000000000E+00  0.0000000000E+00  0.0000000000E+00
                       0.0000000000E+00  0.0000000000E+00  0.0000000000E+00
                       0.0000000000E+00  0.0000000000E+00  0.0000000000E+00
                       0.0000000000E+00  0.0000000000E+00  0.0000000000E+00
                       0.0000000000E+00  0.0000000000E+00  0.0000000000E+00
                       0.0000000000E+00  0.0000000000E+00  0.0000000000E+00
                       0.0000000000E+00  0.0000000000E+00  0.0000000000E+00
-          fftalg         512
           irdden           1
           irdwfk           1
           istwfk        1
              ixc     -116133
           kptopt           0
P           mkmem           1
P          mkqmem           1
P          mk1mem           1
            natom           7
            nband          64
           nbdbuf           4
            ngfft          90      90      90
             nkpt           1
            nstep        2000
             nsym           4
           ntypat           3
              occ      2.000000  2.000000  2.000000  2.000000  2.000000  2.000000
                       2.000000  2.000000  2.000000  2.000000  2.000000  2.000000
                       2.000000  2.000000  2.000000  2.000000  2.000000  2.000000
                       2.000000  2.000000  2.000000  2.000000  2.000000  2.000000
                       2.000000  2.000000  2.000000  2.000000  2.000000  2.000000
                       2.000000  2.000000  2.000000  2.000000  2.000000  2.000000
                       2.000000  2.000000  2.000000  2.000000  2.000000  2.000000
                       2.000000  2.000000  2.000000  2.000000  2.000000  2.000000
                       2.000000  2.000000  2.000000  2.000000  2.000000  2.000000
                       2.000000  0.000000  0.000000  0.000000  0.000000  0.000000
                       0.000000  0.000000  0.000000  0.000000
        optdriver           1
            prtwf          -1
            rfdir           1       1       1
           rfelfd           2
            rprim      1.0486403916E+01  0.0000000000E+00 -8.9991523434E+00
                      -2.2148276598E+00  1.0249839293E+01 -8.9991523434E+00
                       0.0000000000E+00  0.0000000000E+00  1.3818444558E+01
          spgroup          82
           strten      0.0000000000E+00  0.0000000000E+00  0.0000000000E+00
                       0.0000000000E+00  0.0000000000E+00  0.0000000000E+00
           symrel      1  0  0   0  1  0   0  0  1       0  1  0   1  0  0  -1 -1 -1
                       0  0  1  -1 -1 -1   0  1  0      -1 -1 -1   0  0  1   1  0  0
           tolwfr      1.00000000E-20
            typat      1  2  2  3  3  3  3
           useylm           1
           xangst      0.0000000000E+00  0.0000000000E+00  0.0000000000E+00
                       5.0826424923E-01  4.0679860091E+00 -1.1059433577E+00
                       2.1885648170E+00  2.7119906728E+00 -4.7621463168E+00
                      -8.8312100338E-02  3.1500693741E+00  3.7976077909E+00
                       3.7271802320E+00  4.8449767609E+00 -4.8845877475E+00
                       1.8736241395E+00  2.0953382336E+00  1.0080259147E-02
                       3.2417669967E+00  7.5757832249E-01 -3.3468737334E+00
            xcart      0.0000000000E+00  0.0000000000E+00  0.0000000000E+00
                       9.6048023417E-01  7.6873794697E+00 -2.0899300646E+00
                       4.1357881281E+00  5.1249196465E+00 -8.9991523434E+00
                      -1.6688568386E-01  5.9527684166E+00  7.1764386849E+00
                       7.0433498864E+00  9.1556791982E+00 -9.2305331149E+00
                       3.5406364997E+00  3.9596154172E+00  1.9048929136E-02
                       6.1260518104E+00  1.4316155537E+00 -6.3246747576E+00
             xred      0.0000000000E+00  0.0000000000E+00  0.0000000000E+00
                       2.5000000000E-01  7.5000000000E-01  5.0000000000E-01
                       5.0000000000E-01  5.0000000000E-01  0.0000000000E+00
                       1.0674900000E-01  5.8076700000E-01  9.6707700000E-01
                       8.6032800000E-01  8.9325100000E-01  4.7401800000E-01
                       4.1923300000E-01  3.8631000000E-01  5.2598200000E-01
                       6.1369000000E-01  1.3967200000E-01  3.2923000000E-02
            znucl       48.00000   31.00000   52.00000

- Timing analysis has been suppressed with timopt=0

 Suggested references for the acknowledgment of ABINIT usage.

 Calculation completed.
.Delivered   6 WARNINGs and   5 COMMENTs to log file.