.Version 9.5.2 of ABINIT

 ABINIT is a project of the Universite Catholique de Louvain,
 Corning Inc. and other collaborators, see ~abinit/doc/developers/contributors.txt .
 acknowledgments of the ABINIT effort.

.Starting date : Mon 31 May 2021.
- ( at 21h54 )

- input  file    -> /scratch/users/j/a/jabreu/flow_simple_11atoms/flow/w319/t1/run.abi
- output file    -> /scratch/users/j/a/jabreu/flow_simple_11atoms/flow/w319/t1/run.abo
- root for input  files -> /scratch/users/j/a/jabreu/flow_simple_11atoms/flow/w319/t1/indata/in
- root for output files -> /scratch/users/j/a/jabreu/flow_simple_11atoms/flow/w319/t1/outdata/out

 Symmetries : space group C2/m (# 12); Bravais mC (1-face-center monocl.)
     intxc =       0      iscf =       7    lmnmax =      18     lnmax =       6
     mgfft =      90  mpssoang =       3    mqgrid =    3435     natom =      12
  nloc_mem =       1    nspden =       1   nspinor =       1    nsppol =       1
      nsym =       4    n1xccc =    2501    ntypat =       3    occopt =       1
   xclevel =       2
-    mband =          49        mffmem =           1         mkmem =           2
-   mkqmem =           2        mk1mem =           2           mpw =       15841
      nfft =      466560          nkpt =           2
  Rough estimation (10% accuracy) of disk space for files :

------------- Echo of variables that govern the present computation ------------
-
- outvars: echo of selected default values
-   iomode0 =  0 , fftalg0 =512 , wfoptalg0 =  0
-
- outvars: echo of global parameters not present in the input file
-  max_nthreads =    0
-
 -outvars: echo values of preprocessed input variables --------
            acell      1.0000000000E+00  1.0000000000E+00  1.0000000000E+00 Bohr
              amu      8.54678000E+01  2.80855000E+01  3.20660000E+01
             ecut      2.70000000E+01 Hartree
-          fftalg         512
           irdden           1
           irdwfk           1
           istwfk        1    1
              ixc     -116133
              kpt      0.00000000E+00  0.00000000E+00  0.00000000E+00
                       5.00000000E-01  5.00000000E-01  5.00000000E-01
           kptopt           0
P           mkmem           2
P          mkqmem           2
P          mk1mem           2
            natom          12
            nband          49
           nbdbuf           4
            ngfft          72      72      90
             nkpt           2
            nstep        2000
             nsym           4
           ntypat           3
              occ      2.000000  2.000000  2.000000  2.000000  2.000000  2.000000
                       2.000000  2.000000  2.000000  2.000000  2.000000  2.000000
                       2.000000  2.000000  2.000000  2.000000  2.000000  2.000000
                       2.000000  2.000000  2.000000  2.000000  2.000000  2.000000
                       2.000000  2.000000  2.000000  2.000000  2.000000  2.000000
                       2.000000  2.000000  2.000000  2.000000  2.000000  2.000000
                       2.000000  2.000000  2.000000  2.000000  0.000000  0.000000
                       0.000000  0.000000  0.000000  0.000000  0.000000  0.000000
                       0.000000
        optdriver           1
            prtwf          -1
            rfdir           1       1       1
           rfelfd           2
            rprim      1.2053068331E+01  0.0000000000E+00  7.2823714364E+00
                       5.2067706620E+00  1.0870418367E+01  7.2823714364E+00
                       0.0000000000E+00  0.0000000000E+00  1.8039426081E+01
          spgroup          12
           symrel      1  0  0   0  1  0   0  0  1      -1  0  0   0 -1  0   0  0 -1
                       0 -1  0  -1  0  0   0  0 -1       0  1  0   1  0  0   0  0  1
           tolwfr      1.00000000E-20
            typat      1  1  1  1  2  2  3  3  3  3  3  3
           useylm           1
              wtk        0.50000    0.50000
           xangst      1.7553882110E+00  1.1055609648E+00  3.2700266000E+00
                       7.3781252080E+00  4.6468166827E+00  1.3983356515E+01
                       3.8171418627E+00  2.4040739331E+00  6.7010195064E+00
                       5.3163715564E+00  3.3483037144E+00  1.0552363609E+01
                       8.0750122819E+00  5.0857230972E+00  8.5156483332E+00
                       1.0585011372E+00  6.6665455032E-01  8.7377347824E+00
                       5.5125087330E+00  1.3745421436E+00  3.8536649886E+00
                       3.6210046861E+00  4.3778355039E+00  3.8536649886E+00
                       1.0315846731E+00  6.4970229340E-01  6.6594696587E+00
                       8.1019287460E+00  5.1026753541E+00  1.0593913457E+01
                       2.6418504894E+00  1.6638637298E+00  9.6568178005E+00
                       6.4916629296E+00  4.0885139177E+00  7.5965653150E+00
            xcart      3.3172029758E+00  2.0892074467E+00  6.1794547213E+00
                       1.3942636017E+01  8.7812109200E+00  2.6424714233E+01
                       7.2133527309E+00  4.5430413367E+00  1.2663091678E+01
                       1.0046486262E+01  6.3273770300E+00  1.9941077276E+01
                       1.5259561733E+01  9.6106238413E+00  1.6092243194E+01
                       2.0002772606E+00  1.2597945254E+00  1.6511925760E+01
                       1.0417131810E+01  2.5975082096E+00  7.2823714364E+00
                       6.8427071826E+00  8.2729101571E+00  7.2823714364E+00
                       1.9494125151E+00  1.2277594024E+00  1.2584573845E+01
                       1.5310426478E+01  9.6426589643E+00  2.0019595109E+01
                       4.9923739091E+00  3.1442467717E+00  1.8248740958E+01
                       1.2267465084E+01  7.7261715950E+00  1.4355427996E+01
             xred      1.9219200000E-01  1.9219200000E-01  1.8738000000E-01
                       8.0780800000E-01  8.0780800000E-01  8.1262000000E-01
                       4.1792700000E-01  4.1792700000E-01  3.6454000000E-01
                       5.8207300000E-01  5.8207300000E-01  6.3546000000E-01
                       8.8410800000E-01  8.8410800000E-01  1.7824500000E-01
                       1.1589200000E-01  1.1589200000E-01  8.2175500000E-01
                       7.6104800000E-01  2.3895200000E-01  5.5511151231E-17
                       2.3895200000E-01  7.6104800000E-01  2.7755575616E-17
                       1.1294500000E-01  1.1294500000E-01  6.0642500000E-01
                       8.8705500000E-01  8.8705500000E-01  3.9357500000E-01
                       2.8924800000E-01  2.8924800000E-01  7.7806900000E-01
                       7.1075200000E-01  7.1075200000E-01  2.2193100000E-01
            znucl       37.00000   14.00000   16.00000

 chkinp: Checking input parameters for consistency.

== DATASET  1 ==================================================================
-   mpi_nproc: 1, omp_nthreads: -1 (-1 if OMP is not activated)

--- !DatasetInfo
iteration_state: {dtset: 1, }
dimensions: {natom: 12, nkpt: 2, mband: 49, nsppol: 1, nspinor: 1, nspden: 1, mpw: 15841, }
cutoff_energies: {ecut:  27.0, pawecutdg:  -1.0, }
electrons: {nelect:   8.00000000E+01, charge:   0.00000000E+00, occopt:   1.00000000E+00, tsmear:   1.00000000E-02, }
meta: {optdriver: 1, rfelfd: 2, }
...

 Real(R)+Recip(G) space primitive vectors, cartesian coordinates (Bohr,Bohr^-1):
 R(1)= 12.0530683  0.0000000  7.2823714  G(1)=  0.0829664 -0.0397397  0.0000000
 R(2)=  5.2067707 10.8704184  7.2823714  G(2)=  0.0000000  0.0919928  0.0000000
 R(3)=  0.0000000  0.0000000 18.0394261  G(3)= -0.0334929 -0.0210941  0.0554341
 Unit cell volume ucvol=  2.3635598E+03 bohr^3
 Angles (23,13,12)=  5.88599504E+01  5.88599504E+01  5.42755206E+01 degrees

 getcut: wavevector=  0.0000  0.0000  0.0000  ngfft=  72  72  90
         ecut(hartree)=     27.000   => boxcut(ratio)=   2.13296

--- Pseudopotential description ------------------------------------------------
- pspini: atom type   1  psp file is /scratch/users/j/a/jabreu/pseudos/PBEsol/Rb.psp8
- pspatm: opening atomic psp file    /scratch/users/j/a/jabreu/pseudos/PBEsol/Rb.psp8
- Rb    ONCVPSP-3.3.0  r_core=   1.71227   1.75361   1.90633
- 37.00000   9.00000    180112                znucl, zion, pspdat
    8 -116133    2    4       600   0.00000   pspcod,pspxc,lmax,lloc,mmax,r2well
    5.99000000000000    7.00000000000000    0.00000000000000   rchrg,fchrg,qchrg
     nproj     2     2     2
     extension_switch     1
  pspatm : epsatm=   34.48400912
         --- l  ekb(1:nproj) -->
             0    8.196957   -0.477221
             1    3.231347   -0.378736
             2   -1.047201    0.996637
 pspatm: atomic psp has been read  and splines computed

- pspini: atom type   2  psp file is /scratch/users/j/a/jabreu/pseudos/PBEsol/Si.psp8
- pspatm: opening atomic psp file    /scratch/users/j/a/jabreu/pseudos/PBEsol/Si.psp8
- Si    ONCVPSP-3.3.0  r_core=   1.60303   1.72197   1.91712
- 14.00000   4.00000    180112                znucl, zion, pspdat
    8 -116133    2    4       600   0.00000   pspcod,pspxc,lmax,lloc,mmax,r2well
    5.99000000000000    4.00000000000000    0.00000000000000   rchrg,fchrg,qchrg
     nproj     2     2     2
     extension_switch     1
  pspatm : epsatm=    7.86468782
         --- l  ekb(1:nproj) -->
             0    5.384426    0.843824
             1    2.663259    0.615854
             2   -2.267219   -0.458043
 pspatm: atomic psp has been read  and splines computed

- pspini: atom type   3  psp file is /scratch/users/j/a/jabreu/pseudos/PBEsol/S.psp8
- pspatm: opening atomic psp file    /scratch/users/j/a/jabreu/pseudos/PBEsol/S.psp8
- S     ONCVPSP-3.3.0  r_core=   1.45376   1.45376   1.61851
- 16.00000   6.00000    180112                znucl, zion, pspdat
    8 -116133    2    4       600   0.00000   pspcod,pspxc,lmax,lloc,mmax,r2well
    5.99000000000000    6.00000000000000    0.00000000000000   rchrg,fchrg,qchrg
     nproj     2     2     2
     extension_switch     1
  pspatm : epsatm=    8.71840985
         --- l  ekb(1:nproj) -->
             0    6.834532    0.579453
             1    3.282851    0.896984
             2   -3.496974   -0.974265
 pspatm: atomic psp has been read  and splines computed

   1.64780697E+04                                ecore*ucvol(ha*bohr**3)

 ==>  initialize data related to q vector <==

 The list of irreducible perturbations for this q vector is:
    1)    idir= 1    ipert=  13
    2)    idir= 2    ipert=  13
    3)    idir= 3    ipert=  13

 Perturbation wavevector (in red.coord.)   0.000000  0.000000  0.000000
 Perturbation : derivative vs k along direction   1

 dfpt_looppert : COMMENT -
  In a d/dk calculation, iscf is set to -3 automatically.
 The set of symmetries contains only one element for this perturbation.
 symkpt : not enough symmetry to change the number of k points.

 Initialisation of the first-order wave-functions :
  ireadwf=   0

--- !BeginCycle
iteration_state: {dtset: 1, }
solver: {iscf: 7, nstep: 2000, nline: 4, wfoptalg: 0, }
tolerances: {tolwfr: 1.00E-20, }
...

     iter   2DEtotal(Ha)        deltaE(Ha) residm    vres2
-ETOT  1  -28.711269046618     -2.871E+01 4.076E-02 0.000E+00
[...]

 At SCF step   31   max residual=  9.76E-21 < tolwfr=  1.00E-20 =>converged.

 ----iterations are completed or convergence reached----

 dfpt_looppert: DFPT cycle converged with prtwf=-1. Will skip output of the 1st-order WFK file.
 dfpt_looppert : ek2=    5.3454860611E+01
          f-sum rule ratio=    1.1062082117E+00
 prteigrs : about to open file /scratch/users/j/a/jabreu/flow_simple_11atoms/flow/w319/t1/tmpdata/tmp_1WF1_EIG
 Expectation of eigenvalue derivatives (hartree) for nkpt=   2  k points:
  (in case of degenerate eigenvalues, averaged derivative)
 kpt#   1, nband= 49, wtk=  0.50000, kpt=  0.0000  0.0000  0.0000 (reduced coord)
   0.00000   -0.00000    0.00000    0.00000   -0.00000   -0.00000   -0.00000   -0.00000
   0.00000    0.00000    0.00000   -0.00000    0.00000   -0.00000    0.00000   -0.00000
   0.00000    0.00000    0.00000   -0.00000    0.00000    0.00000    0.00000   -0.00000
   0.00000    0.00000    0.00000   -0.00000   -0.00000   -0.00000    0.00000   -0.00000
   0.00000    0.00000   -0.00000   -0.00000    0.00000    0.00000   -0.00000   -0.00000
   0.00000   -0.00000   -0.00000    0.00000    0.00000   -0.00000    0.00000   -0.00008
  -0.00105
 prteigrs : prtvol=0 or 1, do not print more k-points.

 Eight components of 2nd-order total energy (hartree) are
 1,2,3: 0th-order hamiltonian combined with 1st-order wavefunctions
     kin0=   3.90569639E+01 eigvalue=   3.62421213E+00  local=  -2.27505192E+01
 4,5,6: 1st-order hamiltonian combined with 1st and 0th-order wfs
     kin1=  -5.91322058E+01  Hartree=   0.00000000E+00     xc=   0.00000000E+00
 7,8,9: eventually, occupation + non-local contributions
    edocc=   7.84015527E+00     enl0=   9.95880426E-01   enl1=   1.59882070E+00
 1-9 gives the relaxation energy (to be shifted if some occ is /=2.0)
   erelax=  -2.87666925E+01
  No Ewald or frozen-wf contrib.: the relaxation energy is the total one
 2DEtotal=   -0.2876669253E+02 Ha. Also 2DEtotal=   -0.782781512912E+03 eV
    (  non-var. 2DEtotal :   -2.8766692533E+01 Ha)

 Perturbation wavevector (in red.coord.)   0.000000  0.000000  0.000000
 Perturbation : derivative vs k along direction   2
 The set of symmetries contains only one element for this perturbation.
 symkpt : not enough symmetry to change the number of k points.

[...]

 Perturbation wavevector (in red.coord.)   0.000000  0.000000  0.000000
 Perturbation : derivative vs k along direction   3
 The set of symmetries contains only one element for this perturbation.
 symkpt : not enough symmetry to change the number of k points.

 Initialisation of the first-order wave-functions :
  ireadwf=   0

--- !BeginCycle
iteration_state: {dtset: 1, }
solver: {iscf: 7, nstep: 2000, nline: 4, wfoptalg: 0, }
tolerances: {tolwfr: 1.00E-20, }
...

     iter   2DEtotal(Ha)        deltaE(Ha) residm    vres2
-ETOT  1  -14.424322833477     -1.442E+01 5.429E-02 0.000E+00
 ETOT  2  -14.445016473250     -2.069E-02 3.745E-03 0.000E+00
 ETOT  3  -14.445159829759     -1.434E-04 2.126E-04 0.000E+00
 ETOT  4  -14.445161196835     -1.367E-06 3.154E-05 0.000E+00
 ETOT  5  -14.445161211423     -1.459E-08 6.801E-06 0.000E+00
 ETOT  6  -14.445161211589     -1.659E-10 1.034E-06 0.000E+00
 ETOT  7  -14.445161211591     -1.950E-12 4.003E-07 0.000E+00
 ETOT  8  -14.445161211591     -2.132E-14 6.050E-08 0.000E+00
 ETOT  9  -14.445161211591     -8.882E-15 2.378E-08 0.000E+00
 ETOT 10  -14.445161211591     -7.105E-15 3.582E-09 0.000E+00
 ETOT 11  -14.445161211591      0.000E+00 1.424E-09 0.000E+00
 ETOT 12  -14.445161211591      3.553E-15 2.145E-10 0.000E+00
 ETOT 13  -14.445161211591      5.329E-15 8.601E-11 0.000E+00
 ETOT 14  -14.445161211591      0.000E+00 1.298E-11 0.000E+00
 ETOT 15  -14.445161211591      0.000E+00 5.233E-12 0.000E+00
 ETOT 16  -14.445161211591     -1.776E-15 7.924E-13 0.000E+00
 ETOT 17  -14.445161211591      0.000E+00 3.205E-13 0.000E+00
 ETOT 18  -14.445161211591      0.000E+00 4.874E-14 0.000E+00
 ETOT 19  -14.445161211591      0.000E+00 1.975E-14 0.000E+00
 ETOT 20  -14.445161211591      0.000E+00 3.017E-15 0.000E+00
 ETOT 21  -14.445161211591      0.000E+00 1.222E-15 0.000E+00
 ETOT 22  -14.445161211591      0.000E+00 1.877E-16 0.000E+00
 ETOT 23  -14.445161211591      1.776E-15 7.602E-17 0.000E+00
 ETOT 24  -14.445161211591      0.000E+00 1.174E-17 0.000E+00
 ETOT 25  -14.445161211591     -3.553E-15 4.749E-18 0.000E+00
 ETOT 26  -14.445161211591      1.776E-15 7.371E-19 0.000E+00
 ETOT 27  -14.445161211591      0.000E+00 2.980E-19 0.000E+00
 ETOT 28  -14.445161211591      7.105E-15 4.648E-20 0.000E+00
 ETOT 29  -14.445161211591     -8.882E-15 1.878E-20 0.000E+00
 ETOT 30  -14.445161211591      1.243E-14 9.839E-21 0.000E+00

 At SCF step   30   max residual=  9.84E-21 < tolwfr=  1.00E-20 =>converged.

 ----iterations are completed or convergence reached----

 dfpt_looppert: DFPT cycle converged with prtwf=-1. Will skip output of the 1st-order WFK file.
 dfpt_looppert : ek2=    2.9306753180E+01
          f-sum rule ratio=    1.0113369772E+00
 prteigrs : about to open file /scratch/users/j/a/jabreu/flow_simple_11atoms/flow/w319/t1/tmpdata/tmp_1WF1_EIG
 Expectation of eigenvalue derivatives (hartree) for nkpt=   2  k points:
  (in case of degenerate eigenvalues, averaged derivative)
 kpt#   1, nband= 49, wtk=  0.50000, kpt=  0.0000  0.0000  0.0000 (reduced coord)
  -0.00000   -0.00000    0.00000   -0.00000   -0.00000    0.00000    0.00000    0.00000
  -0.00000    0.00000    0.00000    0.00000   -0.00000    0.00000    0.00000   -0.00000
  -0.00000    0.00000    0.00000   -0.00000   -0.00000   -0.00000   -0.00000    0.00000
   0.00000   -0.00000   -0.00000    0.00000   -0.00000    0.00000    0.00000    0.00000
  -0.00000   -0.00000    0.00000   -0.00000   -0.00000   -0.00000    0.00000   -0.00000
  -0.00000    0.00000    0.00000    0.00000   -0.00000    0.00000    0.00000    0.00000
   0.00025
 prteigrs : prtvol=0 or 1, do not print more k-points.

 Eight components of 2nd-order total energy (hartree) are
 1,2,3: 0th-order hamiltonian combined with 1st-order wavefunctions
     kin0=   2.06282084E+01 eigvalue=   2.03290195E+00  local=  -1.23500820E+01
 4,5,6: 1st-order hamiltonian combined with 1st and 0th-order wfs
     kin1=  -2.96390032E+01  Hartree=   0.00000000E+00     xc=   0.00000000E+00
 7,8,9: eventually, occupation + non-local contributions
    edocc=   3.47880714E+00     enl0=   6.55325771E-01   enl1=   7.48680750E-01
 1-9 gives the relaxation energy (to be shifted if some occ is /=2.0)
   erelax=  -1.44451612E+01
  No Ewald or frozen-wf contrib.: the relaxation energy is the total one
 2DEtotal=   -0.1444516121E+02 Ha. Also 2DEtotal=   -0.393072826648E+03 eV
    (  non-var. 2DEtotal :   -1.4445161211E+01 Ha)

 CALCULATION OF EFFECTIVE MASSES
 NOTE : Additional infos (eff. mass eigenvalues, eigenvectors and, if degenerate, average mass) are available in stdout.

 K-point ( 0.000, 0.000, 0.000) | band =    40
 Effective mass tensor:
             -2.3122771873             -0.6374351737             -0.8368095434
             -0.6374351737             -1.7016338118             -0.5270315979
             -0.8368095434             -0.5270315979             -2.9812570890
 Effective mass tensor eigenvalues:
             -3.8454485605             -1.8495489555             -1.3001705721
 Angular average effective mass 1/(<1/m>)=  -1.9110107290
 Angular average effective mass for Frohlich model (<m**0.5>)**2=  -2.0163983545
 Effective masses along directions: (cart. coord. / red. coord. -> eff. mass)
    1:   1.000000  0.000000  0.000000 /   0.918006  0.396567  0.000000 ->  -1.9284230667
    2:   0.000000  1.000000  0.000000 /   0.000000  1.000000  0.000000 ->  -1.4931212657
    3:   0.000000  0.000000  1.000000 /   0.350582  0.350582  0.868438 ->  -2.6208642867
    4:   0.577350  0.577350  0.577350 /   0.547997  0.662047  0.511266 ->  -3.4454592000
    5:   0.000000  0.707107  0.707107 /   0.273693  0.682234  0.677974 ->  -2.2146199159
    6:   0.707107  0.000000  0.707107 /   0.661158  0.427055  0.616842 ->  -3.0084229706
    7:   0.707107  0.707107  0.000000 /   0.599846  0.800115  0.000000 ->  -2.2918131688

 K-point ( 0.500, 0.500, 0.500) | band =    41
 Effective mass tensor:
              0.9946689595              0.1116866778              0.7809870501
              0.1116866778              0.8876764041              0.4918734159
              0.7809870501              0.4918734159              2.5431331973
 Effective mass tensor eigenvalues:
              0.6216623539              0.8173350231              2.9864811839
 Angular average effective mass 1/(<1/m>)=   0.9472923476
 Angular average effective mass for Frohlich model (<m**0.5>)**2=   1.0500373892
 Effective masses along directions: (cart. coord. / red. coord. -> eff. mass)
    1:   1.000000  0.000000  0.000000 /   0.918006  0.396567  0.000000 ->   0.7528753290
    2:   0.000000  1.000000  0.000000 /   0.000000  1.000000  0.000000 ->   0.7904889950
    3:   0.000000  0.000000  1.000000 /   0.350582  0.350582  0.868438 ->   1.7432534240
    4:   0.577350  0.577350  0.577350 /   0.547997  0.662047  0.511266 ->   1.5562722520
    5:   0.000000  0.707107  0.707107 /   0.273693  0.682234  0.677974 ->   1.5281054268
    6:   0.707107  0.000000  0.707107 /   0.661158  0.427055  0.616842 ->   1.8857880328
    7:   0.707107  0.707107  0.000000 /   0.599846  0.800115  0.000000 ->   0.7338831608

 END OF EFFECTIVE MASSES SECTION

 ---- first-order wavefunction calculations are completed ----

 Total localisation tensor (bohr^2) in cartesian coordinates
  WARNING : still subject to testing - especially symmetries.
      direction              matrix element
   alpha     beta       real part   imaginary part
     1        1       2.0325785530    0.0000000000
     1        2       0.6673770620    0.0000000000
     1        3       1.4820229238    0.0000000000
     2        1       0.6673770620    0.0000000000
     2        2       1.3933142716    0.0000000000
     2        3       0.9334168853    0.0000000000
     3        1       1.4820229238    0.0000000000
     3        2       0.9334168853    0.0000000000
     3        3       3.1225631091    0.0000000000

 respfn : d/dk was computed, but no 2DTE, so no DDB output.

== END DATASET(S) ==============================================================

 -outvars: echo values of variables after computation  --------
            acell      1.0000000000E+00  1.0000000000E+00  1.0000000000E+00 Bohr
              amu      8.54678000E+01  2.80855000E+01  3.20660000E+01
             ecut      2.70000000E+01 Hartree
           etotal     -1.4445161212E+01
            fcart      0.0000000000E+00  0.0000000000E+00  0.0000000000E+00
                       0.0000000000E+00  0.0000000000E+00  0.0000000000E+00
                       0.0000000000E+00  0.0000000000E+00  0.0000000000E+00
                       0.0000000000E+00  0.0000000000E+00  0.0000000000E+00
                       0.0000000000E+00  0.0000000000E+00  0.0000000000E+00
                       0.0000000000E+00  0.0000000000E+00  0.0000000000E+00
                       0.0000000000E+00  0.0000000000E+00  0.0000000000E+00
                       0.0000000000E+00  0.0000000000E+00  0.0000000000E+00
                       0.0000000000E+00  0.0000000000E+00  0.0000000000E+00
                       0.0000000000E+00  0.0000000000E+00  0.0000000000E+00
                       0.0000000000E+00  0.0000000000E+00  0.0000000000E+00
                       0.0000000000E+00  0.0000000000E+00  0.0000000000E+00
-          fftalg         512
           irdden           1
           irdwfk           1
           istwfk        1    1
              ixc     -116133
              kpt      0.00000000E+00  0.00000000E+00  0.00000000E+00
                       5.00000000E-01  5.00000000E-01  5.00000000E-01
           kptopt           0
P           mkmem           2
P          mkqmem           2
P          mk1mem           2
            natom          12
            nband          49
           nbdbuf           4
            ngfft          72      72      90
             nkpt           2
            nstep        2000
             nsym           4
           ntypat           3
              occ      2.000000  2.000000  2.000000  2.000000  2.000000  2.000000
                       2.000000  2.000000  2.000000  2.000000  2.000000  2.000000
                       2.000000  2.000000  2.000000  2.000000  2.000000  2.000000
                       2.000000  2.000000  2.000000  2.000000  2.000000  2.000000
                       2.000000  2.000000  2.000000  2.000000  2.000000  2.000000
                       2.000000  2.000000  2.000000  2.000000  2.000000  2.000000
                       2.000000  2.000000  2.000000  2.000000  0.000000  0.000000
                       0.000000  0.000000  0.000000  0.000000  0.000000  0.000000
                       0.000000
        optdriver           1
            prtwf          -1
            rfdir           1       1       1
           rfelfd           2
            rprim      1.2053068331E+01  0.0000000000E+00  7.2823714364E+00
                       5.2067706620E+00  1.0870418367E+01  7.2823714364E+00
                       0.0000000000E+00  0.0000000000E+00  1.8039426081E+01
          spgroup          12
           strten      0.0000000000E+00  0.0000000000E+00  0.0000000000E+00
                       0.0000000000E+00  0.0000000000E+00  0.0000000000E+00
           symrel      1  0  0   0  1  0   0  0  1      -1  0  0   0 -1  0   0  0 -1
                       0 -1  0  -1  0  0   0  0 -1       0  1  0   1  0  0   0  0  1
           tolwfr      1.00000000E-20
            typat      1  1  1  1  2  2  3  3  3  3  3  3
           useylm           1
              wtk        0.50000    0.50000
           xangst      1.7553882110E+00  1.1055609648E+00  3.2700266000E+00
                       7.3781252080E+00  4.6468166827E+00  1.3983356515E+01
                       3.8171418627E+00  2.4040739331E+00  6.7010195064E+00
                       5.3163715564E+00  3.3483037144E+00  1.0552363609E+01
                       8.0750122819E+00  5.0857230972E+00  8.5156483332E+00
                       1.0585011372E+00  6.6665455032E-01  8.7377347824E+00
                       5.5125087330E+00  1.3745421436E+00  3.8536649886E+00
                       3.6210046861E+00  4.3778355039E+00  3.8536649886E+00
                       1.0315846731E+00  6.4970229340E-01  6.6594696587E+00
                       8.1019287460E+00  5.1026753541E+00  1.0593913457E+01
                       2.6418504894E+00  1.6638637298E+00  9.6568178005E+00
                       6.4916629296E+00  4.0885139177E+00  7.5965653150E+00
            xcart      3.3172029758E+00  2.0892074467E+00  6.1794547213E+00
                       1.3942636017E+01  8.7812109200E+00  2.6424714233E+01
                       7.2133527309E+00  4.5430413367E+00  1.2663091678E+01
                       1.0046486262E+01  6.3273770300E+00  1.9941077276E+01
                       1.5259561733E+01  9.6106238413E+00  1.6092243194E+01
                       2.0002772606E+00  1.2597945254E+00  1.6511925760E+01
                       1.0417131810E+01  2.5975082096E+00  7.2823714364E+00
                       6.8427071826E+00  8.2729101571E+00  7.2823714364E+00
                       1.9494125151E+00  1.2277594024E+00  1.2584573845E+01
                       1.5310426478E+01  9.6426589643E+00  2.0019595109E+01
                       4.9923739091E+00  3.1442467717E+00  1.8248740958E+01
                       1.2267465084E+01  7.7261715950E+00  1.4355427996E+01
             xred      1.9219200000E-01  1.9219200000E-01  1.8738000000E-01
                       8.0780800000E-01  8.0780800000E-01  8.1262000000E-01
                       4.1792700000E-01  4.1792700000E-01  3.6454000000E-01
                       5.8207300000E-01  5.8207300000E-01  6.3546000000E-01
                       8.8410800000E-01  8.8410800000E-01  1.7824500000E-01
                       1.1589200000E-01  1.1589200000E-01  8.2175500000E-01
                       7.6104800000E-01  2.3895200000E-01  5.5511151231E-17
                       2.3895200000E-01  7.6104800000E-01  2.7755575616E-17
                       1.1294500000E-01  1.1294500000E-01  6.0642500000E-01
                       8.8705500000E-01  8.8705500000E-01  3.9357500000E-01
                       2.8924800000E-01  2.8924800000E-01  7.7806900000E-01
                       7.1075200000E-01  7.1075200000E-01  2.2193100000E-01
            znucl       37.00000   14.00000   16.00000

- Timing analysis has been suppressed with timopt=0

 Suggested references for the acknowledgment of ABINIT usage.

 Calculation completed.
.Delivered   2 WARNINGs and   5 COMMENTs to log file.