.Version 9.5.1 of ABINIT

 ABINIT is a project of the Universite Catholique de Louvain,
 Corning Inc. and other collaborators, see ~abinit/doc/developers/contributors.txt .
 acknowledgments of the ABINIT effort.

.Starting date : Tue 11 May 2021.
- ( at 21h15 )

- input  file    -> /scratch/users/j/a/jabreu/flow_simple_8atoms/flow/w271/t1/run.abi
- output file    -> /scratch/users/j/a/jabreu/flow_simple_8atoms/flow/w271/t1/run.abo
- root for input  files -> /scratch/users/j/a/jabreu/flow_simple_8atoms/flow/w271/t1/indata/in
- root for output files -> /scratch/users/j/a/jabreu/flow_simple_8atoms/flow/w271/t1/outdata/out

 Symmetries : space group R-3 m (#166); Bravais hR (rhombohedral)
     intxc =       0      iscf =       7    lmnmax =      18     lnmax =       6
     mgfft =      90  mpssoang =       3    mqgrid =    3001     natom =       8
  nloc_mem =       1    nspden =       1   nspinor =       1    nsppol =       1
      nsym =      12    n1xccc =    2501    ntypat =       3    occopt =       1
   xclevel =       2
-    mband =          66        mffmem =           1         mkmem =           1
-   mkqmem =           1        mk1mem =           1           mpw =       19516
      nfft =      729000          nkpt =           1
  Rough estimation (10% accuracy) of disk space for files :

------------- Echo of variables that govern the present computation ------------
-
- outvars: echo of selected default values
-   iomode0 =  0 , fftalg0 =512 , wfoptalg0 =  0
-
- outvars: echo of global parameters not present in the input file
-  max_nthreads =    0
-
 -outvars: echo values of preprocessed input variables --------
            acell      1.0000000000E+00  1.0000000000E+00  1.0000000000E+00 Bohr
              amu      3.90983000E+01  1.07868200E+02  7.49215900E+01
             ecut      4.30000000E+01 Hartree
-          fftalg         512
           irdden           1
           irdwfk           1
           istwfk        1
              ixc     -116133
              kpt      5.00000000E-01  5.00000000E-01  5.00000000E-01
           kptopt           0
P           mkmem           1
P          mkqmem           1
P          mk1mem           1
            natom           8
            nband          66
           nbdbuf           4
            ngfft          90      90      90
             nkpt           1
            nstep        2000
             nsym          12
           ntypat           3
              occ      2.000000  2.000000  2.000000  2.000000  2.000000  2.000000
                       2.000000  2.000000  2.000000  2.000000  2.000000  2.000000
                       2.000000  2.000000  2.000000  2.000000  2.000000  2.000000
                       2.000000  2.000000  2.000000  2.000000  2.000000  2.000000
                       2.000000  2.000000  2.000000  2.000000  2.000000  2.000000
                       2.000000  2.000000  2.000000  2.000000  2.000000  2.000000
                       2.000000  2.000000  2.000000  2.000000  2.000000  2.000000
                       2.000000  2.000000  2.000000  2.000000  2.000000  2.000000
                       2.000000  2.000000  2.000000  2.000000  2.000000  2.000000
                       2.000000  2.000000  2.000000  0.000000  0.000000  0.000000
                       0.000000  0.000000  0.000000  0.000000  0.000000  0.000000
        optdriver           1
            prtwf          -1
            rfdir           1       1       1
           rfelfd           2
            rprim      1.0361826943E+01  0.0000000000E+00  1.0586862182E+01
                       4.3187523680E+00  9.4189084068E+00  1.0586862182E+01
                       0.0000000000E+00  0.0000000000E+00  1.4813814784E+01
          spgroup         166
           symrel      1  0  0   0  1  0   0  0  1      -1  0  0   0 -1  0   0  0 -1
                       0  1  0   1  0  0   0  0  1       0 -1  0  -1  0  0   0  0 -1
                       0  0  1   1  0  0   0  1  0       0  0 -1  -1  0  0   0 -1  0
                       1  0  0   0  0  1   0  1  0      -1  0  0   0  0 -1   0 -1  0
                       0  1  0   0  0  1   1  0  0       0 -1  0   0  0 -1  -1  0  0
                       0  0  1   0  1  0   1  0  0       0  0 -1   0 -1  0  -1  0  0
           tolwfr      1.00000000E-20
            typat      1  1  1  2  2  2  3  3
           useylm           1
           xangst      7.0637182145E+00  4.5320088169E+00  1.7315790500E+01
                       7.0490976566E-01  4.5226284176E-01  1.7279950096E+00
                       3.8843139901E+00  2.4921358293E+00  9.5218927548E+00
                       2.7416213287E+00  0.0000000000E+00  6.7207296663E+00
                       1.1426926613E+00  2.4921358293E+00  6.7207296663E+00
                       3.8843139901E+00  2.4921358293E+00  5.6023261769E+00
                       1.9023971570E+00  1.2205584123E+00  4.6634802832E+00
                       5.8662308231E+00  3.7637132464E+00  1.4380305226E+01
            xcart      1.3348492905E+01  8.5642554958E+00  3.2722101820E+01
                       1.3320864055E+00  8.5465291102E-01  3.2654373271E+00
                       7.3402896554E+00  4.7094542034E+00  1.7993769573E+01
                       5.1809134714E+00  0.0000000000E+00  1.2700338483E+01
                       2.1593761840E+00  4.7094542034E+00  1.2700338483E+01
                       7.3402896554E+00  4.7094542034E+00  1.0586862181E+01
                       3.5950096228E+00  2.3065211285E+00  8.8127005613E+00
                       1.1085569688E+01  7.1123872783E+00  2.7174838585E+01
             xred      9.0926200000E-01  9.0926200000E-01  9.0926200000E-01
                       9.0738000000E-02  9.0738000000E-02  9.0738000000E-02
                       5.0000000000E-01  5.0000000000E-01  5.0000000000E-01
                       5.0000000000E-01  0.0000000000E+00  5.0000000000E-01
                       0.0000000000E+00  5.0000000000E-01  5.0000000000E-01
                       5.0000000000E-01  5.0000000000E-01 -1.1102230246E-16
                       2.4488200000E-01  2.4488200000E-01  2.4488200000E-01
                       7.5511800000E-01  7.5511800000E-01  7.5511800000E-01
            znucl       19.00000   47.00000   33.00000

 chkinp: Checking input parameters for consistency.

== DATASET  1 ==================================================================
-   mpi_nproc: 1, omp_nthreads: -1 (-1 if OMP is not activated)

--- !DatasetInfo
iteration_state: {dtset: 1, }
dimensions: {natom: 8, nkpt: 1, mband: 66, nsppol: 1, nspinor: 1, nspden: 1, mpw: 19516, }
cutoff_energies: {ecut:  43.0, pawecutdg:  -1.0, }
electrons: {nelect:   1.14000000E+02, charge:   0.00000000E+00, occopt:   1.00000000E+00, tsmear:   1.00000000E-02, }
meta: {optdriver: 1, rfelfd: 2, }
...

 Real(R)+Recip(G) space primitive vectors, cartesian coordinates (Bohr,Bohr^-1):
 R(1)= 10.3618269  0.0000000 10.5868622  G(1)=  0.0965081 -0.0442508  0.0000000
 R(2)=  4.3187524  9.4189084 10.5868622  G(2)=  0.0000000  0.1061694  0.0000000
 R(3)=  0.0000000  0.0000000 14.8138148  G(3)= -0.0689706 -0.0442508  0.0675046
 Unit cell volume ucvol=  1.4457853E+03 bohr^3
 Angles (23,13,12)=  4.43845403E+01  4.43845403E+01  4.43845403E+01 degrees

 getcut: wavevector=  0.0000  0.0000  0.0000  ngfft=  90  90  90
         ecut(hartree)=     43.000   => boxcut(ratio)=   2.05818

--- Pseudopotential description ------------------------------------------------
- pspini: atom type   1  psp file is /scratch/users/j/a/jabreu/pseudos/PBEsol/K.psp8
- pspatm: opening atomic psp file    /scratch/users/j/a/jabreu/pseudos/PBEsol/K.psp8
- K     ONCVPSP-3.3.0  r_core=   1.36296   1.46408   1.61068
- 19.00000   9.00000    180112                znucl, zion, pspdat
    8 -116133    2    4       400   0.00000   pspcod,pspxc,lmax,lloc,mmax,r2well
    3.99000000000000    5.00000000000000    0.00000000000000   rchrg,fchrg,qchrg
     nproj     2     2     2
     extension_switch     1
  pspatm : epsatm=    8.32487830
         --- l  ekb(1:nproj) -->
             0   10.921326    0.816676
             1    4.431000    0.560368
             2   -3.384038   -1.043186
 pspatm: atomic psp has been read  and splines computed

- pspini: atom type   2  psp file is /scratch/users/j/a/jabreu/pseudos/PBEsol/Ag.psp8
- pspatm: opening atomic psp file    /scratch/users/j/a/jabreu/pseudos/PBEsol/Ag.psp8
- Ag    ONCVPSP-3.3.0  r_core=   1.41384   1.46535   1.61207
- 47.00000  19.00000    180112                znucl, zion, pspdat
    8 -116133    2    4       600   0.00000   pspcod,pspxc,lmax,lloc,mmax,r2well
    5.99000000000000    7.00000000000000    0.00000000000000   rchrg,fchrg,qchrg
     nproj     2     2     2
     extension_switch     1
  pspatm : epsatm=   27.64581383
         --- l  ekb(1:nproj) -->
             0    9.559407   -0.398585
             1    3.418858   -0.136622
             2   -1.644397   -0.401551
 pspatm: atomic psp has been read  and splines computed

- pspini: atom type   3  psp file is /scratch/users/j/a/jabreu/pseudos/PBEsol/As.psp8
- pspatm: opening atomic psp file    /scratch/users/j/a/jabreu/pseudos/PBEsol/As.psp8
- As    ONCVPSP-3.3.0  r_core=   1.76603   1.70395   1.80867
- 33.00000  15.00000    180112                znucl, zion, pspdat
    8 -116133    2    4       600   0.00000   pspcod,pspxc,lmax,lloc,mmax,r2well
    5.99000000000000    5.00000000000000    0.00000000000000   rchrg,fchrg,qchrg
     nproj     2     2     2
     extension_switch     1
  pspatm : epsatm=   28.79155382
         --- l  ekb(1:nproj) -->
             0    8.270760    0.868950
             1    4.919053    0.756587
             2  -10.048665   -4.076802
 pspatm: atomic psp has been read  and splines computed

   1.88664510E+04                                ecore*ucvol(ha*bohr**3)

-inwffil : will read wavefunctions from disk file /scratch/users/j/a/jabreu/flow_simple_8atoms/flow/w271/t1/indata/in_WFK

 ==>  initialize data related to q vector <==

 The list of irreducible perturbations for this q vector is:
    1)    idir= 1    ipert=   9
    2)    idir= 2    ipert=   9
    3)    idir= 3    ipert=   9

 Perturbation wavevector (in red.coord.)   0.000000  0.000000  0.000000
 Perturbation : derivative vs k along direction   1

 dfpt_looppert : COMMENT -
  In a d/dk calculation, iscf is set to -3 automatically.
 The set of symmetries contains only one element for this perturbation.
 symkpt : not enough symmetry to change the number of k points.

[...]

 Initialisation of the first-order wave-functions :
  ireadwf=   0

--- !BeginCycle
iteration_state: {dtset: 1, }
solver: {iscf: 7, nstep: 2000, nline: 4, wfoptalg: 0, }
tolerances: {tolwfr: 1.00E-20, }
...

     iter   2DEtotal(Ha)        deltaE(Ha) residm    vres2
-ETOT  1  -75.994736908083     -7.599E+01 1.351E-01 0.000E+00
 ETOT  2  -76.193959763235     -1.992E-01 1.673E-02 0.000E+00
 ETOT  3  -76.197303661730     -3.344E-03 2.208E-03 0.000E+00
 ETOT  4  -76.197409268958     -1.056E-04 3.335E-04 0.000E+00
 ETOT  5  -76.197413486466     -4.218E-06 5.134E-05 0.000E+00
 ETOT  6  -76.197413675728     -1.893E-07 9.374E-06 0.000E+00
 ETOT  7  -76.197413684694     -8.966E-09 1.556E-06 0.000E+00
[...]
   0.00000    0.00000

 Eight components of 2nd-order total energy (hartree) are
 1,2,3: 0th-order hamiltonian combined with 1st-order wavefunctions
     kin0=   9.95610810E+01 eigvalue=   6.95693970E+00  local=  -4.75602878E+01
 4,5,6: 1st-order hamiltonian combined with 1st and 0th-order wfs
     kin1=  -1.11051214E+02  Hartree=   0.00000000E+00     xc=   0.00000000E+00
 7,8,9: eventually, occupation + non-local contributions
    edocc=   1.20567937E+01     enl0=   5.18288708E+00   enl1=  -4.13436135E+01
 1-9 gives the relaxation energy (to be shifted if some occ is /=2.0)
   erelax=  -7.61974137E+01
  No Ewald or frozen-wf contrib.: the relaxation energy is the total one
 2DEtotal=   -0.7619741369E+02 Ha. Also 2DEtotal=   -0.207343707293E+04 eV
    (  non-var. 2DEtotal :   -7.6197413685E+01 Ha)

 Perturbation wavevector (in red.coord.)   0.000000  0.000000  0.000000
 Perturbation : derivative vs k along direction   2
 The set of symmetries contains only one element for this perturbation.
 symkpt : not enough symmetry to change the number of k points.

[...]

 Perturbation wavevector (in red.coord.)   0.000000  0.000000  0.000000
 Perturbation : derivative vs k along direction   3
 The set of symmetries contains only one element for this perturbation.
 symkpt : not enough symmetry to change the number of k points.

-inwffil : will read wavefunctions from disk file /scratch/users/j/a/jabreu/flow_simple_8atoms/flow/w271/t1/indata/in_WFK

 Initialisation of the first-order wave-functions :
  ireadwf=   0

--- !BeginCycle
iteration_state: {dtset: 1, }
solver: {iscf: 7, nstep: 2000, nline: 4, wfoptalg: 0, }
tolerances: {tolwfr: 1.00E-20, }
...

     iter   2DEtotal(Ha)        deltaE(Ha) residm    vres2
-ETOT  1  -75.996098864156     -7.600E+01 1.351E-01 0.000E+00
 ETOT  2  -76.193926821278     -1.978E-01 1.673E-02 0.000E+00
 ETOT  3  -76.197305538507     -3.379E-03 2.208E-03 0.000E+00
 ETOT  4  -76.197409380603     -1.038E-04 3.335E-04 0.000E+00
 ETOT  5  -76.197413307692     -3.927E-06 5.134E-05 0.000E+00
 ETOT  6  -76.197413473833     -1.661E-07 9.374E-06 0.000E+00
 ETOT  7  -76.197413481308     -7.475E-09 1.556E-06 0.000E+00
 ETOT  8  -76.197413481666     -3.576E-10 2.885E-07 0.000E+00
 ETOT  9  -76.197413481684     -1.791E-11 5.002E-08 0.000E+00
 ETOT 10  -76.197413481685     -8.953E-13 9.350E-09 0.000E+00
 ETOT 11  -76.197413481685     -2.842E-14 1.669E-09 0.000E+00
 ETOT 12  -76.197413481685     -1.137E-13 3.123E-10 0.000E+00
 ETOT 13  -76.197413481685      8.527E-14 5.690E-11 0.000E+00
 ETOT 14  -76.197413481685     -2.842E-14 1.062E-11 0.000E+00
 ETOT 15  -76.197413481685      9.948E-14 1.963E-12 0.000E+00
 ETOT 16  -76.197413481685     -4.263E-14 3.652E-13 0.000E+00
 ETOT 17  -76.197413481685      0.000E+00 6.825E-14 0.000E+00
 ETOT 18  -76.197413481685     -1.421E-14 1.266E-14 0.000E+00
 ETOT 19  -76.197413481685      1.421E-14 2.385E-15 0.000E+00
 ETOT 20  -76.197413481685      0.000E+00 4.413E-16 0.000E+00
 ETOT 21  -76.197413481685      0.000E+00 8.362E-17 0.000E+00
 ETOT 22  -76.197413481685      0.000E+00 1.545E-17 0.000E+00
 ETOT 23  -76.197413481685      0.000E+00 2.940E-18 0.000E+00
 ETOT 24  -76.197413481685      2.842E-14 5.430E-19 0.000E+00
 ETOT 25  -76.197413481685      0.000E+00 1.036E-19 0.000E+00
 ETOT 26  -76.197413481685      1.421E-14 1.913E-20 0.000E+00
 ETOT 27  -76.197413481685     -1.421E-14 9.869E-21 0.000E+00

 At SCF step   27   max residual=  9.87E-21 < tolwfr=  1.00E-20 =>converged.

 ----iterations are completed or convergence reached----

 dfpt_looppert: DFPT cycle converged with prtwf=-1. Will skip output of the 1st-order WFK file.
 dfpt_looppert : ek2=    1.0145966789E+02
          f-sum rule ratio=    1.0945355481E+00
 prteigrs : about to open file /scratch/users/j/a/jabreu/flow_simple_8atoms/flow/w271/t1/tmpdata/tmp_1WF1_EIG
 Expectation of eigenvalue derivatives (hartree) for nkpt=   1  k points:
  (in case of degenerate eigenvalues, averaged derivative)
 kpt#   1, nband= 66, wtk=  1.00000, kpt=  0.5000  0.5000  0.5000 (reduced coord)
   0.00000    0.00000    0.00000    0.00000    0.00000    0.00000    0.00000    0.00000
   0.00000    0.00000   -0.00000   -0.00000   -0.00000    0.00000   -0.00000   -0.00000
  -0.00000   -0.00000   -0.00000   -0.00000   -0.00000   -0.00000    0.00000    0.00000
  -0.00000   -0.00000   -0.00000   -0.00000   -0.00000   -0.00000   -0.00000   -0.00000
   0.00000    0.00000   -0.00000   -0.00000   -0.00000   -0.00000   -0.00000   -0.00000
   0.00000    0.00000    0.00000   -0.00000   -0.00000    0.00000   -0.00000   -0.00000
   0.00000    0.00000   -0.00000   -0.00000    0.00000   -0.00000   -0.00000    0.00000
   0.00000    0.00000   -0.00000   -0.00000   -0.00000   -0.00000   -0.00000   -0.00000
   0.00000    0.00000

 Eight components of 2nd-order total energy (hartree) are
 1,2,3: 0th-order hamiltonian combined with 1st-order wavefunctions
     kin0=   9.95610983E+01 eigvalue=   6.95694077E+00  local=  -4.75603013E+01
 4,5,6: 1st-order hamiltonian combined with 1st and 0th-order wfs
     kin1=  -1.11051213E+02  Hartree=   0.00000000E+00     xc=   0.00000000E+00
 7,8,9: eventually, occupation + non-local contributions
    edocc=   1.20567884E+01     enl0=   5.18288730E+00   enl1=  -4.13436138E+01
 1-9 gives the relaxation energy (to be shifted if some occ is /=2.0)
   erelax=  -7.61974135E+01
  No Ewald or frozen-wf contrib.: the relaxation energy is the total one
 2DEtotal=   -0.7619741348E+02 Ha. Also 2DEtotal=   -0.207343706739E+04 eV
    (  non-var. 2DEtotal :   -7.6197413481E+01 Ha)

 CALCULATION OF EFFECTIVE MASSES
 NOTE : Additional infos (eff. mass eigenvalues, eigenvectors and, if degenerate, average mass) are available in stdout.

 COMMENTS:
 - At k-point ( 0.500, 0.500, 0.500), bands    56 through    57
   are DEGENERATE (effective mass tensor is therefore not defined).
   See Section IIIB Eqs. (67)-(70) and Appendix E of PRB 93 205147 (2016).
 - Angular average effective mass for Frohlich model is to be averaged over degenerate bands. See later.
 - Associated theta integrals calculated with ntheta=   1000 points.

 K-point ( 0.500, 0.500, 0.500) | band =    56
 Transport equivalent effective mass tensor:
             -0.3898765370             -0.1079030723             -0.4122784425
             -0.1079030723             -0.2909236005             -0.2645121980
             -0.4122784425             -0.2645121980             -1.2323525229
 Transport equivalent effective mass tensor eigenvalues:
             -1.4697626413             -0.2216954685             -0.2216945506
 Angular average effective mass 1/(<1/m>)=  -0.3011131284
 Angular average effective mass for Frohlich model (<m**0.5>)**2=  -0.3490094700
 Effective masses along directions: (cart. coord. / red. coord. -> eff. mass)
    1:   1.000000  0.000000  0.000000 /   0.923035  0.384716  0.000000 ->  -0.2418812748
    2:   0.000000  1.000000  0.000000 /   0.000000  1.000000  0.000000 ->  -0.2228300525
    3:   0.000000  0.000000  1.000000 /   0.502650  0.502650  0.703340 ->  -0.6349024342
    4:   0.577350  0.577350  0.577350 /   0.592523  0.688007  0.419001 ->  -0.6184848531
    5:   0.000000  0.707107  0.707107 /   0.391365  0.739555  0.547624 ->  -0.4675708063
    6:   0.707107  0.000000  0.707107 /   0.705990  0.502333  0.499239 ->  -0.6230089028
    7:   0.707107  0.707107  0.000000 /   0.602177  0.798363  0.000000 ->  -0.2620856039

 K-point ( 0.500, 0.500, 0.500) | band =    57
 Transport equivalent effective mass tensor:
             -1.2132529134             -0.0590941315             -0.2257883723
             -0.0590941315             -1.1590639945             -0.1448648196
             -0.2257883723             -0.1448648196             -1.6746228255
 Transport equivalent effective mass tensor eigenvalues:
             -1.8046477900             -1.1211490844             -1.1211428590
 Angular average effective mass 1/(<1/m>)=  -1.1159735221
 Angular average effective mass for Frohlich model (<m**0.5>)**2=  -1.1362984674
 Effective masses along directions: (cart. coord. / red. coord. -> eff. mass)
    1:   1.000000  0.000000  0.000000 /   0.923035  0.384716  0.000000 ->  -1.0788123176
    2:   0.000000  1.000000  0.000000 /   0.000000  1.000000  0.000000 ->  -1.0982918290
    3:   0.000000  0.000000  1.000000 /   0.502650  0.502650  0.703340 ->  -1.6213006157
    4:   0.577350  0.577350  0.577350 /   0.592523  0.688007  0.419001 ->  -1.2217620455
    5:   0.000000  0.707107  0.707107 /   0.391365  0.739555  0.547624 ->  -1.3237937220
    6:   0.707107  0.000000  0.707107 /   0.705990  0.502333  0.499239 ->  -1.6201777963
    7:   0.707107  0.707107  0.000000 /   0.602177  0.798363  0.000000 ->  -0.9554238506

 Angular average effective mass for Frohlich model, averaged over degenerate bands.
 Value of     (<<m**0.5>>)**2 =     6.861995E-01
 Absolute Value of <<m**0.5>> =     8.283716E-01

 K-point ( 0.500, 0.500, 0.500) | band =    58
 Effective mass tensor:
              0.4494842293              0.1813944865              0.6930675502
              0.1813944865              0.2831385602              0.4446651365
              0.6930675502              0.4446651365              1.8657231958
 Effective mass tensor eigenvalues:
              0.1667576901              0.1667576947              2.2648306005
 Angular average effective mass 1/(<1/m>)=   0.2412548368
 Angular average effective mass for Frohlich model (<m**0.5>)**2=   0.3023526149
 Effective masses along directions: (cart. coord. / red. coord. -> eff. mass)
    1:   1.000000  0.000000  0.000000 /   0.923035  0.384716  0.000000 ->   0.1905439457
    2:   0.000000  1.000000  0.000000 /   0.000000  1.000000  0.000000 ->   0.1757909039
    3:   0.000000  0.000000  1.000000 /   0.502650  0.502650  0.703340 ->   0.6674345644
    4:   0.577350  0.577350  0.577350 /   0.592523  0.688007  0.419001 ->   0.5505068912
    5:   0.000000  0.707107  0.707107 /   0.391365  0.739555  0.547624 ->   0.4138971178
    6:   0.707107  0.000000  0.707107 /   0.705990  0.502333  0.499239 ->   0.6501409120
    7:   0.707107  0.707107  0.000000 /   0.602177  0.798363  0.000000 ->   0.2004785013

 END OF EFFECTIVE MASSES SECTION

 ---- first-order wavefunction calculations are completed ----

 Total localisation tensor (bohr^2) in cartesian coordinates
  WARNING : still subject to testing - especially symmetries.
      direction              matrix element
   alpha     beta       real part   imaginary part
     1        1       2.7712906029    0.0000000000
     1        2       0.8945500410    0.0000000000
     1        3       3.4178753386    0.0000000000
     2        1       0.8945500410    0.0000000000
     2        2       1.9509534660    0.0000000000
     2        3       2.1928735874    0.0000000000
     3        1       3.4178753386    0.0000000000
     3        2       2.1928735874    0.0000000000
     3        3       9.7554981564    0.0000000000

 respfn : d/dk was computed, but no 2DTE, so no DDB output.

== END DATASET(S) ==============================================================

 -outvars: echo values of variables after computation  --------
            acell      1.0000000000E+00  1.0000000000E+00  1.0000000000E+00 Bohr
              amu      3.90983000E+01  1.07868200E+02  7.49215900E+01
             ecut      4.30000000E+01 Hartree
           etotal     -7.6197413482E+01
            fcart      0.0000000000E+00  0.0000000000E+00  0.0000000000E+00
                       0.0000000000E+00  0.0000000000E+00  0.0000000000E+00
                       0.0000000000E+00  0.0000000000E+00  0.0000000000E+00
                       0.0000000000E+00  0.0000000000E+00  0.0000000000E+00
                       0.0000000000E+00  0.0000000000E+00  0.0000000000E+00
                       0.0000000000E+00  0.0000000000E+00  0.0000000000E+00
                       0.0000000000E+00  0.0000000000E+00  0.0000000000E+00
                       0.0000000000E+00  0.0000000000E+00  0.0000000000E+00
-          fftalg         512
           irdden           1
           irdwfk           1
           istwfk        1
              ixc     -116133
              kpt      5.00000000E-01  5.00000000E-01  5.00000000E-01
           kptopt           0
P           mkmem           1
P          mkqmem           1
P          mk1mem           1
            natom           8
            nband          66
           nbdbuf           4
            ngfft          90      90      90
             nkpt           1
            nstep        2000
             nsym          12
           ntypat           3
              occ      2.000000  2.000000  2.000000  2.000000  2.000000  2.000000
                       2.000000  2.000000  2.000000  2.000000  2.000000  2.000000
                       2.000000  2.000000  2.000000  2.000000  2.000000  2.000000
                       2.000000  2.000000  2.000000  2.000000  2.000000  2.000000
                       2.000000  2.000000  2.000000  2.000000  2.000000  2.000000
                       2.000000  2.000000  2.000000  2.000000  2.000000  2.000000
                       2.000000  2.000000  2.000000  2.000000  2.000000  2.000000
                       2.000000  2.000000  2.000000  2.000000  2.000000  2.000000
                       2.000000  2.000000  2.000000  2.000000  2.000000  2.000000
                       2.000000  2.000000  2.000000  0.000000  0.000000  0.000000
                       0.000000  0.000000  0.000000  0.000000  0.000000  0.000000
        optdriver           1
            prtwf          -1
            rfdir           1       1       1
           rfelfd           2
            rprim      1.0361826943E+01  0.0000000000E+00  1.0586862182E+01
                       4.3187523680E+00  9.4189084068E+00  1.0586862182E+01
                       0.0000000000E+00  0.0000000000E+00  1.4813814784E+01
          spgroup         166
           strten      0.0000000000E+00  0.0000000000E+00  0.0000000000E+00
                       0.0000000000E+00  0.0000000000E+00  0.0000000000E+00
           symrel      1  0  0   0  1  0   0  0  1      -1  0  0   0 -1  0   0  0 -1
                       0  1  0   1  0  0   0  0  1       0 -1  0  -1  0  0   0  0 -1
                       0  0  1   1  0  0   0  1  0       0  0 -1  -1  0  0   0 -1  0
                       1  0  0   0  0  1   0  1  0      -1  0  0   0  0 -1   0 -1  0
                       0  1  0   0  0  1   1  0  0       0 -1  0   0  0 -1  -1  0  0
                       0  0  1   0  1  0   1  0  0       0  0 -1   0 -1  0  -1  0  0
           tolwfr      1.00000000E-20
            typat      1  1  1  2  2  2  3  3
           useylm           1
           xangst      7.0637182145E+00  4.5320088169E+00  1.7315790500E+01
                       7.0490976566E-01  4.5226284176E-01  1.7279950096E+00
                       3.8843139901E+00  2.4921358293E+00  9.5218927548E+00
                       2.7416213287E+00  0.0000000000E+00  6.7207296663E+00
                       1.1426926613E+00  2.4921358293E+00  6.7207296663E+00
                       3.8843139901E+00  2.4921358293E+00  5.6023261769E+00
                       1.9023971570E+00  1.2205584123E+00  4.6634802832E+00
                       5.8662308231E+00  3.7637132464E+00  1.4380305226E+01
            xcart      1.3348492905E+01  8.5642554958E+00  3.2722101820E+01
                       1.3320864055E+00  8.5465291102E-01  3.2654373271E+00
                       7.3402896554E+00  4.7094542034E+00  1.7993769573E+01
                       5.1809134714E+00  0.0000000000E+00  1.2700338483E+01
                       2.1593761840E+00  4.7094542034E+00  1.2700338483E+01
                       7.3402896554E+00  4.7094542034E+00  1.0586862181E+01
                       3.5950096228E+00  2.3065211285E+00  8.8127005613E+00
                       1.1085569688E+01  7.1123872783E+00  2.7174838585E+01
             xred      9.0926200000E-01  9.0926200000E-01  9.0926200000E-01
                       9.0738000000E-02  9.0738000000E-02  9.0738000000E-02
                       5.0000000000E-01  5.0000000000E-01  5.0000000000E-01
                       5.0000000000E-01  0.0000000000E+00  5.0000000000E-01
                       0.0000000000E+00  5.0000000000E-01  5.0000000000E-01
                       5.0000000000E-01  5.0000000000E-01 -1.1102230246E-16
                       2.4488200000E-01  2.4488200000E-01  2.4488200000E-01
                       7.5511800000E-01  7.5511800000E-01  7.5511800000E-01
            znucl       19.00000   47.00000   33.00000

- Timing analysis has been suppressed with timopt=0

 Suggested references for the acknowledgment of ABINIT usage.

 Calculation completed.
.Delivered   6 WARNINGs and   5 COMMENTs to log file.