.Version 9.5.2 of ABINIT

 ABINIT is a project of the Universite Catholique de Louvain,
 Corning Inc. and other collaborators, see ~abinit/doc/developers/contributors.txt .
 acknowledgments of the ABINIT effort.

.Starting date : Wed 26 May 2021.
- ( at 03h12 )

- input  file    -> /scratch/users/j/a/jabreu/flow_simple_11atoms/flow/w286/t1/run.abi
- output file    -> /scratch/users/j/a/jabreu/flow_simple_11atoms/flow/w286/t1/run.abo
- root for input  files -> /scratch/users/j/a/jabreu/flow_simple_11atoms/flow/w286/t1/indata/in
- root for output files -> /scratch/users/j/a/jabreu/flow_simple_11atoms/flow/w286/t1/outdata/out

 Symmetries : space group Pn m a (# 62); Bravais oP (primitive ortho.)
     intxc =       0      iscf =       7    lmnmax =      18     lnmax =       6
     mgfft =     108  mpssoang =       3    mqgrid =    5184     natom =      12
  nloc_mem =       1    nspden =       1   nspinor =       1    nsppol =       1
      nsym =       8    n1xccc =    2501    ntypat =       2    occopt =       1
   xclevel =       2
-    mband =          77        mffmem =           1         mkmem =           1
-   mkqmem =           1        mk1mem =           1           mpw =       32927
      nfft =      583200          nkpt =           1
  Rough estimation (10% accuracy) of disk space for files :

------------- Echo of variables that govern the present computation ------------
-
- outvars: echo of selected default values
-   iomode0 =  0 , fftalg0 =512 , wfoptalg0 =  0
-
- outvars: echo of global parameters not present in the input file
-  max_nthreads =    0
-
 -outvars: echo values of preprocessed input variables --------
            acell      1.0000000000E+00  1.0000000000E+00  1.0000000000E+00 Bohr
              amu      8.76200000E+01  7.26100000E+01
             ecut      4.10000000E+01 Hartree
-          fftalg         512
           irdden           1
           irdwfk           1
           istwfk        1
              ixc     -116133
           kptopt           0
P           mkmem           1
P          mkqmem           1
P          mk1mem           1
            natom          12
            nband          77
           nbdbuf           4
            ngfft          60      90     108
             nkpt           1
            nstep        2000
             nsym           8
           ntypat           2
              occ      2.000000  2.000000  2.000000  2.000000  2.000000  2.000000
                       2.000000  2.000000  2.000000  2.000000  2.000000  2.000000
                       2.000000  2.000000  2.000000  2.000000  2.000000  2.000000
                       2.000000  2.000000  2.000000  2.000000  2.000000  2.000000
                       2.000000  2.000000  2.000000  2.000000  2.000000  2.000000
                       2.000000  2.000000  2.000000  2.000000  2.000000  2.000000
                       2.000000  2.000000  2.000000  2.000000  2.000000  2.000000
                       2.000000  2.000000  2.000000  2.000000  2.000000  2.000000
                       2.000000  2.000000  2.000000  2.000000  2.000000  2.000000
                       2.000000  2.000000  2.000000  2.000000  2.000000  2.000000
                       2.000000  2.000000  2.000000  2.000000  2.000000  2.000000
                       2.000000  2.000000  0.000000  0.000000  0.000000  0.000000
                       0.000000  0.000000  0.000000  0.000000  0.000000
        optdriver           1
            prtwf          -1
            rfdir           1       1       1
           rfelfd           2
            rprim      9.6619155259E+00  0.0000000000E+00  0.0000000000E+00
                       0.0000000000E+00  1.5132083988E+01  0.0000000000E+00
                       0.0000000000E+00  0.0000000000E+00  1.7984804814E+01
          spgroup          62
           symrel      1  0  0   0  1  0   0  0  1      -1  0  0   0 -1  0   0  0 -1
                      -1  0  0   0  1  0   0  0 -1       1  0  0   0 -1  0   0  0  1
                      -1  0  0   0 -1  0   0  0  1       1  0  0   0  1  0   0  0 -1
                       1  0  0   0 -1  0   0  0 -1      -1  0  0   0  1  0   0  0  1
            tnons      0.0000000  0.0000000  0.0000000    -0.0000000  0.0000000  0.0000000
                       0.5000000  0.5000000  0.5000000     0.5000000  0.5000000  0.5000000
                      -0.0000000  0.5000000  0.5000000     0.0000000  0.5000000  0.5000000
                       0.5000000  0.0000000  0.0000000     0.5000000  0.0000000  0.0000000
           tolwfr      1.00000000E-20
            typat      1  1  1  1  1  1  1  1  2  2  2  2
           useylm           1
           xangst      3.8346491157E+00  2.7821685723E+00  4.0136386155E+00
                       1.2782163719E+00  5.2253853928E+00  5.5035101929E+00
                       3.8346491157E+00  6.7859455548E+00  7.4493578868E-01
                       1.2782163719E+00  1.2216084102E+00  8.7722130197E+00
                       1.2782163719E+00  1.4838798253E-01  3.0858403296E+00
                       3.8346491157E+00  7.8591659825E+00  6.4313084788E+00
                       1.2782163719E+00  4.1521649650E+00  1.6727340746E+00
                       3.8346491157E+00  3.8553890000E+00  7.8444147338E+00
                       1.2782163719E+00  6.0223852464E+00  8.5454193636E+00
                       3.8346491157E+00  1.9851687186E+00  9.7172944478E-01
                       1.2782163719E+00  2.0186082639E+00  5.7303038490E+00
                       3.8346491157E+00  5.9889457011E+00  3.7868449594E+00
            xcart      7.2464366444E+00  5.2575366571E+00  7.5846777797E+00
                       2.4154788815E+00  9.8745473311E+00  1.0400127034E+01
                       7.2464366444E+00  1.2823578651E+01  1.4077246272E+00
                       2.4154788815E+00  2.3085053370E+00  1.6577080187E+01
                       2.4154788815E+00  2.8041264839E-01  5.8313931128E+00
                       7.2464366444E+00  1.4851671340E+01  1.2153411701E+01
                       2.4154788815E+00  7.8464546425E+00  3.1610092941E+00
                       7.2464366444E+00  7.2856293457E+00  1.4823795520E+01
                       2.4154788815E+00  1.1380658783E+01  1.6148502288E+01
                       7.2464366444E+00  3.7514252057E+00  1.8363025259E+00
                       2.4154788815E+00  3.8146167884E+00  1.0828704933E+01
                       7.2464366444E+00  1.1317467200E+01  7.1560998810E+00
             xred      7.5000000000E-01  3.4744300000E-01  4.2172700000E-01
                       2.5000000000E-01  6.5255700000E-01  5.7827300000E-01
                       7.5000000000E-01  8.4744300000E-01  7.8273000000E-02
                       2.5000000000E-01  1.5255700000E-01  9.2172700000E-01
                       2.5000000000E-01  1.8531000000E-02  3.2424000000E-01
                       7.5000000000E-01  9.8146900000E-01  6.7576000000E-01
                       2.5000000000E-01  5.1853100000E-01  1.7576000000E-01
                       7.5000000000E-01  4.8146900000E-01  8.2424000000E-01
                       2.5000000000E-01  7.5208800000E-01  8.9789700000E-01
                       7.5000000000E-01  2.4791200000E-01  1.0210300000E-01
                       2.5000000000E-01  2.5208800000E-01  6.0210300000E-01
                       7.5000000000E-01  7.4791200000E-01  3.9789700000E-01
            znucl       38.00000   32.00000

 chkinp: Checking input parameters for consistency.

== DATASET  1 ==================================================================
-   mpi_nproc: 1, omp_nthreads: -1 (-1 if OMP is not activated)

--- !DatasetInfo
iteration_state: {dtset: 1, }
dimensions: {natom: 12, nkpt: 1, mband: 77, nsppol: 1, nspinor: 1, nspden: 1, mpw: 32927, }
cutoff_energies: {ecut:  41.0, pawecutdg:  -1.0, }
electrons: {nelect:   1.36000000E+02, charge:   0.00000000E+00, occopt:   1.00000000E+00, tsmear:   1.00000000E-02, }
meta: {optdriver: 1, rfelfd: 2, }
...

 Real(R)+Recip(G) space primitive vectors, cartesian coordinates (Bohr,Bohr^-1):
 R(1)=  9.6619155  0.0000000  0.0000000  G(1)=  0.1034991  0.0000000  0.0000000
 R(2)=  0.0000000 15.1320840  0.0000000  G(2)=  0.0000000  0.0660848  0.0000000
 R(3)=  0.0000000  0.0000000 17.9848048  G(3)=  0.0000000  0.0000000  0.0556025
 Unit cell volume ucvol=  2.6294669E+03 bohr^3
 Angles (23,13,12)=  9.00000000E+01  9.00000000E+01  9.00000000E+01 degrees

 getcut: wavevector=  0.0000  0.0000  0.0000  ngfft=  60  90 108
         ecut(hartree)=     41.000   => boxcut(ratio)=   2.06342

--- Pseudopotential description ------------------------------------------------
- pspini: atom type   1  psp file is /scratch/users/j/a/jabreu/pseudos/PBEsol/Sr.psp8
- pspatm: opening atomic psp file    /scratch/users/j/a/jabreu/pseudos/PBEsol/Sr.psp8
- Sr    ONCVPSP-3.3.0  r_core=   1.66721   1.31335   1.51547
- 38.00000  10.00000    180112                znucl, zion, pspdat
    8 -116133    2    4       600   0.00000   pspcod,pspxc,lmax,lloc,mmax,r2well
    5.99000000000000    6.00000000000000    0.00000000000000   rchrg,fchrg,qchrg
     nproj     2     2     2
     extension_switch     1
  pspatm : epsatm=   12.46450977
         --- l  ekb(1:nproj) -->
             0   10.029206    1.044171
             1    7.472414    1.670829
             2    4.142950    0.968140
 pspatm: atomic psp has been read  and splines computed

- pspini: atom type   2  psp file is /scratch/users/j/a/jabreu/pseudos/PBEsol/Ge.psp8
- pspatm: opening atomic psp file    /scratch/users/j/a/jabreu/pseudos/PBEsol/Ge.psp8
- Ge    ONCVPSP-3.3.0  r_core=   1.91022   1.82122   1.91022
- 32.00000  14.00000    180112                znucl, zion, pspdat
    8 -116133    2    4       600   0.00000   pspcod,pspxc,lmax,lloc,mmax,r2well
    5.99000000000000    5.00000000000000    0.00000000000000   rchrg,fchrg,qchrg
     nproj     2     2     2
     extension_switch     1
  pspatm : epsatm=   30.86751540
         --- l  ekb(1:nproj) -->
             0    6.339734    0.583066
             1    3.813259    0.738801
             2   -9.332373   -3.602819
 pspatm: atomic psp has been read  and splines computed

   3.03533150E+04                                ecore*ucvol(ha*bohr**3)

 ==>  initialize data related to q vector <==

 The list of irreducible perturbations for this q vector is:
    1)    idir= 1    ipert=  13
    2)    idir= 2    ipert=  13
    3)    idir= 3    ipert=  13

 Perturbation wavevector (in red.coord.)   0.000000  0.000000  0.000000
 Perturbation : derivative vs k along direction   1

 dfpt_looppert : COMMENT -
  In a d/dk calculation, iscf is set to -3 automatically.
 The set of symmetries contains only one element for this perturbation.
 symkpt : not enough symmetry to change the number of k points.

 Initialisation of the first-order wave-functions :
  ireadwf=   0

--- !BeginCycle
iteration_state: {dtset: 1, }
solver: {iscf: 7, nstep: 2000, nline: 4, wfoptalg: 0, }
tolerances: {tolwfr: 1.00E-20, }
...

     iter   2DEtotal(Ha)        deltaE(Ha) residm    vres2
-ETOT  1  -113.67312277740     -1.137E+02 7.619E-02 0.000E+00
 ETOT  2  -113.84875176343     -1.756E-01 2.622E-03 0.000E+00
[...]
  -0.00000   -0.00000   -0.00000   -0.00000   -0.00000   -0.00000   -0.00000   -0.00000
   0.00000    0.00000   -0.00000   -0.00000    0.00000   -0.00000    0.00000    0.00000
  -0.00000    0.00000    0.00000   -0.00000   -0.00000    0.00000   -0.00000    0.00000
   0.00000    0.00000   -0.00000   -0.00000   -0.00000   -0.00000    0.00000    0.00000
   0.00000    0.00000   -0.00000    0.00000    0.00172

 Eight components of 2nd-order total energy (hartree) are
 1,2,3: 0th-order hamiltonian combined with 1st-order wavefunctions
     kin0=   1.51498824E+02 eigvalue=   2.44107353E+00  local=  -8.49531595E+01
 4,5,6: 1st-order hamiltonian combined with 1st and 0th-order wfs
     kin1=  -1.49372974E+02  Hartree=   0.00000000E+00     xc=   0.00000000E+00
 7,8,9: eventually, occupation + non-local contributions
    edocc=   2.50502290E+01     enl0=   1.98148528E+01   enl1=  -7.83306649E+01
 1-9 gives the relaxation energy (to be shifted if some occ is /=2.0)
   erelax=  -1.13851819E+02
  No Ewald or frozen-wf contrib.: the relaxation energy is the total one
 2DEtotal=   -0.1138518195E+03 Ha. Also 2DEtotal=   -0.309806556335E+04 eV
    (  non-var. 2DEtotal :   -1.1385181949E+02 Ha)

 Perturbation wavevector (in red.coord.)   0.000000  0.000000  0.000000
 Perturbation : derivative vs k along direction   2
 The set of symmetries contains only one element for this perturbation.
 symkpt : not enough symmetry to change the number of k points.

[...]

 Perturbation wavevector (in red.coord.)   0.000000  0.000000  0.000000
 Perturbation : derivative vs k along direction   3
 The set of symmetries contains only one element for this perturbation.
 symkpt : not enough symmetry to change the number of k points.

 Initialisation of the first-order wave-functions :
  ireadwf=   0

--- !BeginCycle
iteration_state: {dtset: 1, }
solver: {iscf: 7, nstep: 2000, nline: 4, wfoptalg: 0, }
tolerances: {tolwfr: 1.00E-20, }
...

     iter   2DEtotal(Ha)        deltaE(Ha) residm    vres2
-ETOT  1  -29.013798680517     -2.901E+01 2.355E-02 0.000E+00
 ETOT  2  -29.049252609834     -3.545E-02 2.999E-03 0.000E+00
 ETOT  3  -29.049674531800     -4.219E-04 2.829E-04 0.000E+00
 ETOT  4  -29.049687239880     -1.271E-05 8.824E-05 0.000E+00
 ETOT  5  -29.049687743216     -5.033E-07 1.266E-05 0.000E+00
 ETOT  6  -29.049687765889     -2.267E-08 3.844E-06 0.000E+00
 ETOT  7  -29.049687766987     -1.097E-09 5.720E-07 0.000E+00
 ETOT  8  -29.049687767042     -5.491E-11 1.697E-07 0.000E+00
 ETOT  9  -29.049687767044     -2.817E-12 2.558E-08 0.000E+00
 ETOT 10  -29.049687767045     -1.847E-13 7.613E-09 0.000E+00
 ETOT 11  -29.049687767045      3.553E-15 1.151E-09 0.000E+00
 ETOT 12  -29.049687767045     -1.421E-14 3.453E-10 0.000E+00
 ETOT 13  -29.049687767045     -1.066E-14 5.211E-11 0.000E+00
 ETOT 14  -29.049687767045     -2.487E-14 1.574E-11 0.000E+00
 ETOT 15  -29.049687767045      1.421E-14 2.370E-12 0.000E+00
 ETOT 16  -29.049687767045     -7.105E-15 7.168E-13 0.000E+00
 ETOT 17  -29.049687767045      3.553E-15 1.083E-13 0.000E+00
 ETOT 18  -29.049687767045     -3.553E-15 3.256E-14 0.000E+00
 ETOT 19  -29.049687767045      0.000E+00 4.962E-15 0.000E+00
 ETOT 20  -29.049687767045      1.066E-14 1.492E-15 0.000E+00
 ETOT 21  -29.049687767045     -7.105E-15 2.280E-16 0.000E+00
 ETOT 22  -29.049687767045     -1.066E-14 6.865E-17 0.000E+00
 ETOT 23  -29.049687767045      7.105E-15 1.048E-17 0.000E+00
 ETOT 24  -29.049687767045      3.553E-15 3.162E-18 0.000E+00
 ETOT 25  -29.049687767045      0.000E+00 4.828E-19 0.000E+00
 ETOT 26  -29.049687767045      0.000E+00 1.458E-19 0.000E+00
 ETOT 27  -29.049687767045      3.553E-15 2.225E-20 0.000E+00
 ETOT 28  -29.049687767045      1.421E-14 9.817E-21 0.000E+00

 At SCF step   28   max residual=  9.82E-21 < tolwfr=  1.00E-20 =>converged.

 ----iterations are completed or convergence reached----

 dfpt_looppert: DFPT cycle converged with prtwf=-1. Will skip output of the 1st-order WFK file.
 dfpt_looppert : ek2=    3.3198402270E+01
          f-sum rule ratio=    1.0769307424E+00
 prteigrs : about to open file /scratch/users/j/a/jabreu/flow_simple_11atoms/flow/w286/t1/tmpdata/tmp_1WF1_EIG
 Expectation of eigenvalue derivatives (hartree) for nkpt=   1  k points:
  (in case of degenerate eigenvalues, averaged derivative)
 kpt#   1, nband= 77, wtk=  1.00000, kpt=  0.0000  0.0000  0.0000 (reduced coord)
  -0.00000    0.00000   -0.00000   -0.00000   -0.00000   -0.00000    0.00000   -0.00000
   0.00000    0.00000    0.00000   -0.00000   -0.00000    0.00000    0.00000   -0.00000
   0.00000    0.00000    0.00000    0.00000    0.00000    0.00000   -0.00000    0.00000
  -0.00000   -0.00000    0.00000   -0.00000   -0.00000   -0.00000    0.00000    0.00000
   0.00000    0.00000    0.00000    0.00000   -0.00000   -0.00000    0.00000    0.00000
   0.00000    0.00000   -0.00000   -0.00000    0.00000   -0.00000   -0.00000   -0.00000
   0.00000    0.00000   -0.00000    0.00000   -0.00000    0.00000   -0.00000   -0.00000
  -0.00000    0.00000    0.00000   -0.00000    0.00000    0.00000    0.00000   -0.00000
  -0.00000   -0.00000   -0.00000    0.00000    0.00000    0.00000    0.00000    0.00000
   0.00000   -0.00000    0.00000   -0.00000   -0.00001

 Eight components of 2nd-order total energy (hartree) are
 1,2,3: 0th-order hamiltonian combined with 1st-order wavefunctions
     kin0=   3.96223789E+01 eigvalue=   2.52525474E+00  local=  -2.18033087E+01
 4,5,6: 1st-order hamiltonian combined with 1st and 0th-order wfs
     kin1=  -3.57523800E+01  Hartree=   0.00000000E+00     xc=   0.00000000E+00
 7,8,9: eventually, occupation + non-local contributions
    edocc=   3.95981778E+00     enl0=   4.74554502E+00   enl1=  -2.23469955E+01
 1-9 gives the relaxation energy (to be shifted if some occ is /=2.0)
   erelax=  -2.90496878E+01
  No Ewald or frozen-wf contrib.: the relaxation energy is the total one
 2DEtotal=   -0.2904968777E+02 Ha. Also 2DEtotal=   -0.790482204842E+03 eV
    (  non-var. 2DEtotal :   -2.9049687767E+01 Ha)

 CALCULATION OF EFFECTIVE MASSES
 NOTE : Additional infos (eff. mass eigenvalues, eigenvectors and, if degenerate, average mass) are available in stdout.

 K-point ( 0.000, 0.000, 0.000) | band =    68
 Effective mass tensor:
             -0.0728516402              0.0000000229              0.0000193749
              0.0000000229             -2.3057424178              0.0004444902
              0.0000193749              0.0004444902             -1.6652379001
 Effective mass tensor eigenvalues:
             -2.3057427263             -1.6652375919             -0.0728516400
 Angular average effective mass 1/(<1/m>)=  -0.2032418210
 Angular average effective mass for Frohlich model (<m**0.5>)**2=  -0.4096405065
 Effective masses along directions: (cart. coord. / red. coord. -> eff. mass)
    1:   1.000000  0.000000  0.000000 /   1.000000  0.000000  0.000000 ->  -0.0728516400
    2:   0.000000  1.000000  0.000000 /   0.000000  1.000000  0.000000 ->  -2.3057422992
    3:   0.000000  0.000000  1.000000 /   0.000000  0.000000  1.000000 ->  -1.6652378093
    4:   0.577350  0.577350  0.577350 /   0.380206  0.595463  0.707720 ->  -0.2032342307
    5:   0.000000  0.707107  0.707107 /   0.000000  0.643812  0.765184 ->  -1.9334017155
    6:   0.707107  0.000000  0.707107 /   0.473256  0.000000  0.880925 ->  -0.1395930467
    7:   0.707107  0.707107  0.000000 /   0.538160  0.842843  0.000000 ->  -0.1412406726

 K-point ( 0.000, 0.000, 0.000) | band =    69
 Effective mass tensor:
              0.0630636032             -0.0000000034              0.0000000199
             -0.0000000034              0.4550348459             -0.0000002730
              0.0000000199             -0.0000002730              0.6251070710
 Effective mass tensor eigenvalues:
              0.0630636032              0.4550348459              0.6251070710
 Angular average effective mass 1/(<1/m>)=   0.1526378345
 Angular average effective mass for Frohlich model (<m**0.5>)**2=   0.2133774841
 Effective masses along directions: (cart. coord. / red. coord. -> eff. mass)
    1:   1.000000  0.000000  0.000000 /   1.000000  0.000000  0.000000 ->   0.0630636032
    2:   0.000000  1.000000  0.000000 /   0.000000  1.000000  0.000000 ->   0.4550348459
    3:   0.000000  0.000000  1.000000 /   0.000000  0.000000  1.000000 ->   0.6251070710
    4:   0.577350  0.577350  0.577350 /   0.380206  0.595463  0.707720 ->   0.1526378256
    5:   0.000000  0.707107  0.707107 /   0.000000  0.643812  0.765184 ->   0.5266814508
    6:   0.707107  0.000000  0.707107 /   0.473256  0.000000  0.880925 ->   0.1145689813
    7:   0.707107  0.707107  0.000000 /   0.538160  0.842843  0.000000 ->   0.1107748407

 END OF EFFECTIVE MASSES SECTION

 ---- first-order wavefunction calculations are completed ----

 Total localisation tensor (bohr^2) in cartesian coordinates
  WARNING : still subject to testing - especially symmetries.
      direction              matrix element
   alpha     beta       real part   imaginary part
     1        1      12.9714855911    0.0000000000
     1        2       0.0000000000    0.0000000000
     1        3       0.0000000000    0.0000000000
     2        1       0.0000000000    0.0000000000
     2        2       6.6426257104    0.0000000000
     2        3       0.0000000000    0.0000000000
     3        1       0.0000000000    0.0000000000
     3        2       0.0000000000    0.0000000000
     3        3       2.3602319905    0.0000000000

 respfn : d/dk was computed, but no 2DTE, so no DDB output.

== END DATASET(S) ==============================================================

 -outvars: echo values of variables after computation  --------
            acell      1.0000000000E+00  1.0000000000E+00  1.0000000000E+00 Bohr
              amu      8.76200000E+01  7.26100000E+01
             ecut      4.10000000E+01 Hartree
           etotal     -2.9049687767E+01
            fcart      0.0000000000E+00  0.0000000000E+00  0.0000000000E+00
                       0.0000000000E+00  0.0000000000E+00  0.0000000000E+00
                       0.0000000000E+00  0.0000000000E+00  0.0000000000E+00
                       0.0000000000E+00  0.0000000000E+00  0.0000000000E+00
                       0.0000000000E+00  0.0000000000E+00  0.0000000000E+00
                       0.0000000000E+00  0.0000000000E+00  0.0000000000E+00
                       0.0000000000E+00  0.0000000000E+00  0.0000000000E+00
                       0.0000000000E+00  0.0000000000E+00  0.0000000000E+00
                       0.0000000000E+00  0.0000000000E+00  0.0000000000E+00
                       0.0000000000E+00  0.0000000000E+00  0.0000000000E+00
                       0.0000000000E+00  0.0000000000E+00  0.0000000000E+00
                       0.0000000000E+00  0.0000000000E+00  0.0000000000E+00
-          fftalg         512
           irdden           1
           irdwfk           1
           istwfk        1
              ixc     -116133
           kptopt           0
P           mkmem           1
P          mkqmem           1
P          mk1mem           1
            natom          12
            nband          77
           nbdbuf           4
            ngfft          60      90     108
             nkpt           1
            nstep        2000
             nsym           8
           ntypat           2
              occ      2.000000  2.000000  2.000000  2.000000  2.000000  2.000000
                       2.000000  2.000000  2.000000  2.000000  2.000000  2.000000
                       2.000000  2.000000  2.000000  2.000000  2.000000  2.000000
                       2.000000  2.000000  2.000000  2.000000  2.000000  2.000000
                       2.000000  2.000000  2.000000  2.000000  2.000000  2.000000
                       2.000000  2.000000  2.000000  2.000000  2.000000  2.000000
                       2.000000  2.000000  2.000000  2.000000  2.000000  2.000000
                       2.000000  2.000000  2.000000  2.000000  2.000000  2.000000
                       2.000000  2.000000  2.000000  2.000000  2.000000  2.000000
                       2.000000  2.000000  2.000000  2.000000  2.000000  2.000000
                       2.000000  2.000000  2.000000  2.000000  2.000000  2.000000
                       2.000000  2.000000  0.000000  0.000000  0.000000  0.000000
                       0.000000  0.000000  0.000000  0.000000  0.000000
        optdriver           1
            prtwf          -1
            rfdir           1       1       1
           rfelfd           2
            rprim      9.6619155259E+00  0.0000000000E+00  0.0000000000E+00
                       0.0000000000E+00  1.5132083988E+01  0.0000000000E+00
                       0.0000000000E+00  0.0000000000E+00  1.7984804814E+01
          spgroup          62
           strten      0.0000000000E+00  0.0000000000E+00  0.0000000000E+00
                       0.0000000000E+00  0.0000000000E+00  0.0000000000E+00
           symrel      1  0  0   0  1  0   0  0  1      -1  0  0   0 -1  0   0  0 -1
                      -1  0  0   0  1  0   0  0 -1       1  0  0   0 -1  0   0  0  1
                      -1  0  0   0 -1  0   0  0  1       1  0  0   0  1  0   0  0 -1
                       1  0  0   0 -1  0   0  0 -1      -1  0  0   0  1  0   0  0  1
            tnons      0.0000000  0.0000000  0.0000000    -0.0000000  0.0000000  0.0000000
                       0.5000000  0.5000000  0.5000000     0.5000000  0.5000000  0.5000000
                      -0.0000000  0.5000000  0.5000000     0.0000000  0.5000000  0.5000000
                       0.5000000  0.0000000  0.0000000     0.5000000  0.0000000  0.0000000
           tolwfr      1.00000000E-20
            typat      1  1  1  1  1  1  1  1  2  2  2  2
           useylm           1
           xangst      3.8346491157E+00  2.7821685723E+00  4.0136386155E+00
                       1.2782163719E+00  5.2253853928E+00  5.5035101929E+00
                       3.8346491157E+00  6.7859455548E+00  7.4493578868E-01
                       1.2782163719E+00  1.2216084102E+00  8.7722130197E+00
                       1.2782163719E+00  1.4838798253E-01  3.0858403296E+00
                       3.8346491157E+00  7.8591659825E+00  6.4313084788E+00
                       1.2782163719E+00  4.1521649650E+00  1.6727340746E+00
                       3.8346491157E+00  3.8553890000E+00  7.8444147338E+00
                       1.2782163719E+00  6.0223852464E+00  8.5454193636E+00
                       3.8346491157E+00  1.9851687186E+00  9.7172944478E-01
                       1.2782163719E+00  2.0186082639E+00  5.7303038490E+00
                       3.8346491157E+00  5.9889457011E+00  3.7868449594E+00
            xcart      7.2464366444E+00  5.2575366571E+00  7.5846777797E+00
                       2.4154788815E+00  9.8745473311E+00  1.0400127034E+01
                       7.2464366444E+00  1.2823578651E+01  1.4077246272E+00
                       2.4154788815E+00  2.3085053370E+00  1.6577080187E+01
                       2.4154788815E+00  2.8041264839E-01  5.8313931128E+00
                       7.2464366444E+00  1.4851671340E+01  1.2153411701E+01
                       2.4154788815E+00  7.8464546425E+00  3.1610092941E+00
                       7.2464366444E+00  7.2856293457E+00  1.4823795520E+01
                       2.4154788815E+00  1.1380658783E+01  1.6148502288E+01
                       7.2464366444E+00  3.7514252057E+00  1.8363025259E+00
                       2.4154788815E+00  3.8146167884E+00  1.0828704933E+01
                       7.2464366444E+00  1.1317467200E+01  7.1560998810E+00
             xred      7.5000000000E-01  3.4744300000E-01  4.2172700000E-01
                       2.5000000000E-01  6.5255700000E-01  5.7827300000E-01
                       7.5000000000E-01  8.4744300000E-01  7.8273000000E-02
                       2.5000000000E-01  1.5255700000E-01  9.2172700000E-01
                       2.5000000000E-01  1.8531000000E-02  3.2424000000E-01
                       7.5000000000E-01  9.8146900000E-01  6.7576000000E-01
                       2.5000000000E-01  5.1853100000E-01  1.7576000000E-01
                       7.5000000000E-01  4.8146900000E-01  8.2424000000E-01
                       2.5000000000E-01  7.5208800000E-01  8.9789700000E-01
                       7.5000000000E-01  2.4791200000E-01  1.0210300000E-01
                       2.5000000000E-01  2.5208800000E-01  6.0210300000E-01
                       7.5000000000E-01  7.4791200000E-01  3.9789700000E-01
            znucl       38.00000   32.00000

- Timing analysis has been suppressed with timopt=0

 Suggested references for the acknowledgment of ABINIT usage.

 Calculation completed.
.Delivered   2 WARNINGs and   5 COMMENTs to log file.