.Version 9.5.2 of ABINIT

 ABINIT is a project of the Universite Catholique de Louvain,
 Corning Inc. and other collaborators, see ~abinit/doc/developers/contributors.txt .
 acknowledgments of the ABINIT effort.

.Starting date : Tue  1 Jun 2021.
- ( at 12h11 )

- input  file    -> /scratch/users/j/a/jabreu/flow_simple_11atoms/flow/w384/t1/run.abi
- output file    -> /scratch/users/j/a/jabreu/flow_simple_11atoms/flow/w384/t1/run.abo
- root for input  files -> /scratch/users/j/a/jabreu/flow_simple_11atoms/flow/w384/t1/indata/in
- root for output files -> /scratch/users/j/a/jabreu/flow_simple_11atoms/flow/w384/t1/outdata/out

 Symmetries : space group Pn m a (# 62); Bravais oP (primitive ortho.)
     intxc =       0      iscf =       7    lmnmax =      18     lnmax =       6
     mgfft =     100  mpssoang =       3    mqgrid =    4905     natom =      12
  nloc_mem =       1    nspden =       1   nspinor =       1    nsppol =       1
      nsym =       8    n1xccc =    2501    ntypat =       3    occopt =       1
   xclevel =       2
-    mband =          77        mffmem =           1         mkmem =           2
-   mkqmem =           2        mk1mem =           2           mpw =       28919
      nfft =      486000          nkpt =           2
  Rough estimation (10% accuracy) of disk space for files :

------------- Echo of variables that govern the present computation ------------
-
- outvars: echo of selected default values
-   iomode0 =  0 , fftalg0 =512 , wfoptalg0 =  0
-
- outvars: echo of global parameters not present in the input file
-  max_nthreads =    0
-
 -outvars: echo values of preprocessed input variables --------
            acell      1.0000000000E+00  1.0000000000E+00  1.0000000000E+00 Bohr
              amu      8.76200000E+01  4.00780000E+01  2.07200000E+02
             ecut      3.60000000E+01 Hartree
-          fftalg         512
           irdden           1
           irdwfk           1
              ixc     -116133
              kpt      5.26315789E-02  0.00000000E+00  0.00000000E+00
                       0.00000000E+00  4.16666667E-02  0.00000000E+00
           kptopt           0
P           mkmem           2
P          mkqmem           2
P          mk1mem           2
            natom          12
            nband          77
           nbdbuf           4
            ngfft          54      90     100
             nkpt           2
            nstep        2000
             nsym           8
           ntypat           3
              occ      2.000000  2.000000  2.000000  2.000000  2.000000  2.000000
                       2.000000  2.000000  2.000000  2.000000  2.000000  2.000000
                       2.000000  2.000000  2.000000  2.000000  2.000000  2.000000
                       2.000000  2.000000  2.000000  2.000000  2.000000  2.000000
                       2.000000  2.000000  2.000000  2.000000  2.000000  2.000000
                       2.000000  2.000000  2.000000  2.000000  2.000000  2.000000
                       2.000000  2.000000  2.000000  2.000000  2.000000  2.000000
                       2.000000  2.000000  2.000000  2.000000  2.000000  2.000000
                       2.000000  2.000000  2.000000  2.000000  2.000000  2.000000
                       2.000000  2.000000  2.000000  2.000000  2.000000  2.000000
                       2.000000  2.000000  2.000000  2.000000  2.000000  2.000000
                       2.000000  2.000000  0.000000  0.000000  0.000000  0.000000
                       0.000000  0.000000  0.000000  0.000000  0.000000
        optdriver           1
            prtwf          -1
            rfdir           1       1       1
           rfelfd           2
            rprim      9.7641326073E+00  0.0000000000E+00  0.0000000000E+00
                       0.0000000000E+00  1.5830291323E+01  0.0000000000E+00
                       0.0000000000E+00  0.0000000000E+00  1.8158890013E+01
          spgroup          62
           symrel      1  0  0   0  1  0   0  0  1      -1  0  0   0 -1  0   0  0 -1
                      -1  0  0   0  1  0   0  0 -1       1  0  0   0 -1  0   0  0  1
                      -1  0  0   0 -1  0   0  0  1       1  0  0   0  1  0   0  0 -1
                       1  0  0   0 -1  0   0  0 -1      -1  0  0   0  1  0   0  0  1
            tnons      0.0000000  0.0000000  0.0000000     0.0000000 -0.0000000  0.0000000
                       0.5000000  0.5000000  0.5000000     0.5000000  0.5000000  0.5000000
                       0.0000000  0.5000000  0.5000000     0.0000000  0.5000000  0.5000000
                       0.5000000 -0.0000000  0.0000000     0.5000000  0.0000000  0.0000000
           tolwfr      1.00000000E-20
            typat      1  1  1  1  2  2  2  2  3  3  3  3
           useylm           1
              wtk        0.50000    0.50000
           xangst      3.8752173281E+00  8.2042866507E+00  3.0414398874E+00
                       1.2917391094E+00  1.7274272271E-01  6.5678308406E+00
                       3.8752173281E+00  4.0157719640E+00  1.7631954766E+00
                       1.2917391094E+00  4.3612574094E+00  7.8460752514E+00
                       3.8752173281E+00  7.1144853914E+00  8.9288670956E+00
                       1.2917391094E+00  1.2625439820E+00  6.8040363244E-01
                       3.8752173281E+00  2.9259707047E+00  5.4850389964E+00
                       1.2917391094E+00  5.4510586687E+00  4.1242317316E+00
                       3.8752173281E+00  6.1734685508E+00  5.8509984629E+00
                       1.2917391094E+00  2.2035608226E+00  3.7582722652E+00
                       3.8752173281E+00  1.9849538641E+00  8.5629076292E+00
                       1.2917391094E+00  6.3920755093E+00  1.0463630988E+00
            xcart      7.3230994555E+00  1.5503854885E+01  5.7474884368E+00
                       2.4410331518E+00  3.2643643737E-01  1.2411401576E+01
                       7.3230994555E+00  7.5887092240E+00  3.3319565695E+00
                       2.4410331518E+00  8.2415820988E+00  1.4826933443E+01
                       7.3230994555E+00  1.3444428966E+01  1.6873113488E+01
                       2.4410331518E+00  2.3858623567E+00  1.2857765251E+00
                       7.3230994555E+00  5.5292833047E+00  1.0365221531E+01
                       2.4410331518E+00  1.0301008018E+01  7.7936684812E+00
                       7.3230994555E+00  1.1666164851E+01  1.1056784699E+01
                       2.4410331518E+00  4.1641264719E+00  7.1021053140E+00
                       7.3230994555E+00  3.7510191895E+00  1.6181550320E+01
                       2.4410331518E+00  1.2079272133E+01  1.9773396924E+00
             xred      7.5000000000E-01  9.7937900000E-01  3.1651100000E-01
                       2.5000000000E-01  2.0621000000E-02  6.8348900000E-01
                       7.5000000000E-01  4.7937900000E-01  1.8348900000E-01
                       2.5000000000E-01  5.2062100000E-01  8.1651100000E-01
                       7.5000000000E-01  8.4928500000E-01  9.2919300000E-01
                       2.5000000000E-01  1.5071500000E-01  7.0807000000E-02
                       7.5000000000E-01  3.4928500000E-01  5.7080700000E-01
                       2.5000000000E-01  6.5071500000E-01  4.2919300000E-01
                       7.5000000000E-01  7.3695200000E-01  6.0889100000E-01
                       2.5000000000E-01  2.6304800000E-01  3.9110900000E-01
                       7.5000000000E-01  2.3695200000E-01  8.9110900000E-01
                       2.5000000000E-01  7.6304800000E-01  1.0889100000E-01
            znucl       38.00000   20.00000   82.00000

 chkinp: Checking input parameters for consistency.

== DATASET  1 ==================================================================
-   mpi_nproc: 1, omp_nthreads: -1 (-1 if OMP is not activated)

--- !DatasetInfo
iteration_state: {dtset: 1, }
dimensions: {natom: 12, nkpt: 2, mband: 77, nsppol: 1, nspinor: 1, nspden: 1, mpw: 28919, }
cutoff_energies: {ecut:  36.0, pawecutdg:  -1.0, }
electrons: {nelect:   1.36000000E+02, charge:   0.00000000E+00, occopt:   1.00000000E+00, tsmear:   1.00000000E-02, }
meta: {optdriver: 1, rfelfd: 2, }
...

 Real(R)+Recip(G) space primitive vectors, cartesian coordinates (Bohr,Bohr^-1):
 R(1)=  9.7641326  0.0000000  0.0000000  G(1)=  0.1024157  0.0000000  0.0000000
 R(2)=  0.0000000 15.8302913  0.0000000  G(2)=  0.0000000  0.0631700  0.0000000
 R(3)=  0.0000000  0.0000000 18.1588900  G(3)=  0.0000000  0.0000000  0.0550694
 Unit cell volume ucvol=  2.8068026E+03 bohr^3
 Angles (23,13,12)=  9.00000000E+01  9.00000000E+01  9.00000000E+01 degrees

 getcut: wavevector=  0.0000  0.0000  0.0000  ngfft=  54  90 100
         ecut(hartree)=     36.000   => boxcut(ratio)=   2.03889

--- Pseudopotential description ------------------------------------------------
- pspini: atom type   1  psp file is /scratch/users/j/a/jabreu/pseudos/PBEsol/Sr.psp8
- pspatm: opening atomic psp file    /scratch/users/j/a/jabreu/pseudos/PBEsol/Sr.psp8
- Sr    ONCVPSP-3.3.0  r_core=   1.66721   1.31335   1.51547
- 38.00000  10.00000    180112                znucl, zion, pspdat
    8 -116133    2    4       600   0.00000   pspcod,pspxc,lmax,lloc,mmax,r2well
    5.99000000000000    6.00000000000000    0.00000000000000   rchrg,fchrg,qchrg
     nproj     2     2     2
     extension_switch     1
  pspatm : epsatm=   12.46450977
         --- l  ekb(1:nproj) -->
             0   10.029206    1.044171
             1    7.472414    1.670829
             2    4.142950    0.968140
 pspatm: atomic psp has been read  and splines computed

- pspini: atom type   2  psp file is /scratch/users/j/a/jabreu/pseudos/PBEsol/Ca.psp8
- pspatm: opening atomic psp file    /scratch/users/j/a/jabreu/pseudos/PBEsol/Ca.psp8
- Ca    ONCVPSP-3.3.0  r_core=   1.45885   1.45885   1.85192
- 20.00000  10.00000    180112                znucl, zion, pspdat
    8 -116133    2    4       400   0.00000   pspcod,pspxc,lmax,lloc,mmax,r2well
    3.99000000000000    6.00000000000000    0.00000000000000   rchrg,fchrg,qchrg
     nproj     2     2     2
     extension_switch     1
  pspatm : epsatm=   12.46045226
         --- l  ekb(1:nproj) -->
             0   10.054847    0.973777
             1    2.998958    0.458102
             2   -3.447298   -1.091650
 pspatm: atomic psp has been read  and splines computed

- pspini: atom type   3  psp file is /scratch/users/j/a/jabreu/pseudos/PBEsol/Pb.psp8
- pspatm: opening atomic psp file    /scratch/users/j/a/jabreu/pseudos/PBEsol/Pb.psp8
- Pb    ONCVPSP-3.3.0  r_core=   2.42823   2.42823   2.10438
- 82.00000  14.00000    180112                znucl, zion, pspdat
    8 -116133    2    4       600   0.00000   pspcod,pspxc,lmax,lloc,mmax,r2well
    5.99000000000000    6.00000000000000    0.00000000000000   rchrg,fchrg,qchrg
     nproj     2     2     2
     extension_switch     1
  pspatm : epsatm=   44.32675151
         --- l  ekb(1:nproj) -->
             0    6.256780    1.206521
             1    4.272336    0.573876
             2   -3.251371   -0.847363
 pspatm: atomic psp has been read  and splines computed

   3.76729322E+04                                ecore*ucvol(ha*bohr**3)

[...]
 ETOT  2  -26.726180942308     -1.058E-01 8.323E-03 0.000E+00
 ETOT  3  -26.734647476181     -8.467E-03 1.180E-03 0.000E+00
 ETOT  4  -26.735824110592     -1.177E-03 7.187E-04 0.000E+00
 ETOT  5  -26.736024221571     -2.001E-04 1.709E-04 0.000E+00
 ETOT  6  -26.736061416753     -3.720E-05 1.023E-04 0.000E+00
 ETOT  7  -26.736068707107     -7.290E-06 3.460E-05 0.000E+00
 ETOT  8  -26.736070187319     -1.480E-06 1.955E-05 0.000E+00
 ETOT  9  -26.736070496336     -3.090E-07 7.833E-06 0.000E+00
 ETOT 10  -26.736070562215     -6.588E-08 4.526E-06 0.000E+00
 ETOT 11  -26.736070576501     -1.429E-08 1.839E-06 0.000E+00
 ETOT 12  -26.736070579643     -3.142E-09 1.073E-06 0.000E+00
 ETOT 13  -26.736070580343     -6.995E-10 4.376E-07 0.000E+00
 ETOT 14  -26.736070580500     -1.573E-10 2.566E-07 0.000E+00
 ETOT 15  -26.736070580536     -3.581E-11 1.046E-07 0.000E+00
 ETOT 16  -26.736070580544     -8.136E-12 6.159E-08 0.000E+00
 ETOT 17  -26.736070580546     -1.890E-12 2.509E-08 0.000E+00
 ETOT 18  -26.736070580546     -4.050E-13 1.481E-08 0.000E+00
 ETOT 19  -26.736070580546     -1.137E-13 6.023E-09 0.000E+00
 ETOT 20  -26.736070580546     -5.684E-14 3.568E-09 0.000E+00
 ETOT 21  -26.736070580546     -2.132E-14 1.448E-09 0.000E+00
 ETOT 22  -26.736070580546     -1.421E-14 8.602E-10 0.000E+00
 ETOT 23  -26.736070580546      3.908E-14 3.482E-10 0.000E+00
 ETOT 24  -26.736070580546     -1.066E-14 2.075E-10 0.000E+00
 ETOT 25  -26.736070580546     -3.553E-15 8.382E-11 0.000E+00
 ETOT 26  -26.736070580546     -3.553E-15 5.007E-11 0.000E+00
 ETOT 27  -26.736070580546     -2.132E-14 2.018E-11 0.000E+00
 ETOT 28  -26.736070580546      3.197E-14 1.209E-11 0.000E+00
 ETOT 29  -26.736070580546     -1.776E-14 4.861E-12 0.000E+00
 ETOT 30  -26.736070580546      7.105E-15 2.919E-12 0.000E+00
 ETOT 31  -26.736070580546      0.000E+00 1.171E-12 0.000E+00
 ETOT 32  -26.736070580546     -1.066E-14 7.048E-13 0.000E+00
 ETOT 33  -26.736070580546      7.105E-15 2.823E-13 0.000E+00
 ETOT 34  -26.736070580546      0.000E+00 1.702E-13 0.000E+00
 ETOT 35  -26.736070580546      3.553E-15 6.805E-14 0.000E+00
 ETOT 36  -26.736070580546      0.000E+00 4.111E-14 0.000E+00
 ETOT 37  -26.736070580546      7.105E-15 1.641E-14 0.000E+00
 ETOT 38  -26.736070580546     -1.421E-14 9.931E-15 0.000E+00
 ETOT 39  -26.736070580546      7.105E-15 3.956E-15 0.000E+00
 ETOT 40  -26.736070580546      0.000E+00 2.399E-15 0.000E+00
 ETOT 41  -26.736070580546      0.000E+00 9.540E-16 0.000E+00
 ETOT 42  -26.736070580546      0.000E+00 5.794E-16 0.000E+00
 ETOT 43  -26.736070580546      0.000E+00 2.301E-16 0.000E+00
 ETOT 44  -26.736070580546      7.105E-15 1.400E-16 0.000E+00
 ETOT 45  -26.736070580546      0.000E+00 5.549E-17 0.000E+00
 ETOT 46  -26.736070580546     -7.105E-15 3.381E-17 0.000E+00
 ETOT 47  -26.736070580546      7.105E-15 1.339E-17 0.000E+00
 ETOT 48  -26.736070580546     -7.105E-15 8.166E-18 0.000E+00
 ETOT 49  -26.736070580546      0.000E+00 3.229E-18 0.000E+00
 ETOT 50  -26.736070580546      7.105E-15 1.972E-18 0.000E+00
 ETOT 51  -26.736070580546     -1.421E-14 7.791E-19 0.000E+00
 ETOT 52  -26.736070580546      7.105E-15 4.764E-19 0.000E+00
 ETOT 53  -26.736070580546      0.000E+00 1.880E-19 0.000E+00
 ETOT 54  -26.736070580546      1.421E-14 1.151E-19 0.000E+00
 ETOT 55  -26.736070580546     -7.105E-15 4.536E-20 0.000E+00
 ETOT 56  -26.736070580546      0.000E+00 2.779E-20 0.000E+00
 ETOT 57  -26.736070580546     -7.105E-15 1.094E-20 0.000E+00
 ETOT 58  -26.736070580546      7.105E-15 9.772E-21 0.000E+00

 At SCF step   58   max residual=  9.77E-21 < tolwfr=  1.00E-20 =>converged.

 ----iterations are completed or convergence reached----

 dfpt_looppert: DFPT cycle converged with prtwf=-1. Will skip output of the 1st-order WFK file.
 dfpt_looppert : ek2=    3.2564922163E+01
          f-sum rule ratio=    1.1099169936E+00
 prteigrs : about to open file /scratch/users/j/a/jabreu/flow_simple_11atoms/flow/w384/t1/tmpdata/tmp_1WF1_EIG
 Expectation of eigenvalue derivatives (hartree) for nkpt=   2  k points:
  (in case of degenerate eigenvalues, averaged derivative)
 kpt#   1, nband= 77, wtk=  0.50000, kpt=  0.0526  0.0000  0.0000 (reduced coord)
   0.00000   -0.00000    0.00000   -0.00000    0.00000   -0.00000    0.00000    0.00000
   0.00000    0.00000   -0.00000    0.00000    0.00000    0.00000    0.00000   -0.00000
  -0.00000    0.00000   -0.00000    0.00000    0.00000   -0.00000   -0.00000    0.00000
  -0.00000    0.00000    0.00000   -0.00000   -0.00000    0.00000   -0.00000   -0.00000
  -0.00000   -0.00000   -0.00000   -0.00000   -0.00000    0.00000    0.00000    0.00000
   0.00000   -0.00000   -0.00000   -0.00000   -0.00000   -0.00000    0.00000    0.00000
   0.00000    0.00000   -0.00000   -0.00000   -0.00000    0.00000    0.00000    0.00000
  -0.00000   -0.00000    0.00000   -0.00000   -0.00000    0.00000    0.00000   -0.00000
   0.00000    0.00000   -0.00000    0.00000    0.00000    0.00000   -0.00000    0.00000
   0.00000   -0.00000    0.00000   -0.00002    0.00007
 prteigrs : prtvol=0 or 1, do not print more k-points.

 Eight components of 2nd-order total energy (hartree) are
 1,2,3: 0th-order hamiltonian combined with 1st-order wavefunctions
     kin0=   4.16267439E+01 eigvalue=   2.88906938E+00  local=  -2.65568430E+01
 4,5,6: 1st-order hamiltonian combined with 1st and 0th-order wfs
     kin1=  -3.61443605E+01  Hartree=   0.00000000E+00     xc=   0.00000000E+00
 7,8,9: eventually, occupation + non-local contributions
    edocc=   4.74923764E+00     enl0=   4.02786268E+00   enl1=  -1.73277807E+01
 1-9 gives the relaxation energy (to be shifted if some occ is /=2.0)
   erelax=  -2.67360706E+01
  No Ewald or frozen-wf contrib.: the relaxation energy is the total one
 2DEtotal=   -0.2673607058E+02 Ha. Also 2DEtotal=   -0.727525479475E+03 eV
    (  non-var. 2DEtotal :   -2.6736070580E+01 Ha)

 CALCULATION OF EFFECTIVE MASSES
 NOTE : Additional infos (eff. mass eigenvalues, eigenvectors and, if degenerate, average mass) are available in stdout.

 K-point ( 0.053, 0.000, 0.000) | band =    68
 Effective mass tensor:
             -0.5895415650              0.0000000426             -0.0000232431
              0.0000000426             -0.0737398902              0.0000249653
             -0.0000232431              0.0000249653             -1.7837749092
 Effective mass tensor eigenvalues:
             -1.7837749100             -0.5895415646             -0.0737398898
 Angular average effective mass 1/(<1/m>)=  -0.1896570744
 Angular average effective mass for Frohlich model (<m**0.5>)**2=  -0.3050574664
 Effective masses along directions: (cart. coord. / red. coord. -> eff. mass)
    1:   1.000000  0.000000  0.000000 /   1.000000  0.000000  0.000000 ->  -0.5895415647
    2:   0.000000  1.000000  0.000000 /   0.000000  1.000000  0.000000 ->  -0.0737398899
    3:   0.000000  0.000000  1.000000 /   0.000000  0.000000  1.000000 ->  -1.7837748998
    4:   0.577350  0.577350  0.577350 /   0.375632  0.609001  0.698583 ->  -0.1896530298
    5:   0.000000  0.707107  0.707107 /   0.000000  0.657123  0.753784 ->  -0.1416212994
    6:   0.707107  0.000000  0.707107 /   0.473583  0.000000  0.880749 ->  -0.8862113920
    7:   0.707107  0.707107  0.000000 /   0.524971  0.851120  0.000000 ->  -0.1310837932

 K-point ( 0.000, 0.042, 0.000) | band =    69
 Effective mass tensor:
              0.0644511840             -0.0000000075             -0.0000000034
             -0.0000000075              0.2722831163              0.0000005553
             -0.0000000034              0.0000005553              0.4705618594
 Effective mass tensor eigenvalues:
              0.0644511840              0.2722831163              0.4705618594
 Angular average effective mass 1/(<1/m>)=   0.1407566136
 Angular average effective mass for Frohlich model (<m**0.5>)**2=   0.1757929509
 Effective masses along directions: (cart. coord. / red. coord. -> eff. mass)
    1:   1.000000  0.000000  0.000000 /   1.000000  0.000000  0.000000 ->   0.0644511840
    2:   0.000000  1.000000  0.000000 /   0.000000  1.000000  0.000000 ->   0.2722831163
    3:   0.000000  0.000000  1.000000 /   0.000000  0.000000  1.000000 ->   0.4705618594
    4:   0.577350  0.577350  0.577350 /   0.375632  0.609001  0.698583 ->   0.1407566638
    5:   0.000000  0.707107  0.707107 /   0.000000  0.657123  0.753784 ->   0.3449609144
    6:   0.707107  0.000000  0.707107 /   0.473583  0.000000  0.880749 ->   0.1133739409
    7:   0.707107  0.707107  0.000000 /   0.524971  0.851120  0.000000 ->   0.1042303586

 END OF EFFECTIVE MASSES SECTION

 ---- first-order wavefunction calculations are completed ----

 Total localisation tensor (bohr^2) in cartesian coordinates
  WARNING : still subject to testing - especially symmetries.
      direction              matrix element
   alpha     beta       real part   imaginary part
     1        1       6.5376366444    0.0000000000
     1        2       0.0000000000    0.0000000000
     1        3       0.0000000000    0.0000000000
     2        1       0.0000000000    0.0000000000
     2        2       6.1075134007    0.0000000000
     2        3       0.0000000000    0.0000000000
     3        1       0.0000000000    0.0000000000
     3        2       0.0000000000    0.0000000000
     3        3       3.3998486412    0.0000000000

 respfn : d/dk was computed, but no 2DTE, so no DDB output.

== END DATASET(S) ==============================================================

 -outvars: echo values of variables after computation  --------
            acell      1.0000000000E+00  1.0000000000E+00  1.0000000000E+00 Bohr
              amu      8.76200000E+01  4.00780000E+01  2.07200000E+02
             ecut      3.60000000E+01 Hartree
           etotal     -2.6736070581E+01
            fcart      0.0000000000E+00  0.0000000000E+00  0.0000000000E+00
                       0.0000000000E+00  0.0000000000E+00  0.0000000000E+00
                       0.0000000000E+00  0.0000000000E+00  0.0000000000E+00
                       0.0000000000E+00  0.0000000000E+00  0.0000000000E+00
                       0.0000000000E+00  0.0000000000E+00  0.0000000000E+00
                       0.0000000000E+00  0.0000000000E+00  0.0000000000E+00
                       0.0000000000E+00  0.0000000000E+00  0.0000000000E+00
                       0.0000000000E+00  0.0000000000E+00  0.0000000000E+00
                       0.0000000000E+00  0.0000000000E+00  0.0000000000E+00
                       0.0000000000E+00  0.0000000000E+00  0.0000000000E+00
                       0.0000000000E+00  0.0000000000E+00  0.0000000000E+00
                       0.0000000000E+00  0.0000000000E+00  0.0000000000E+00
-          fftalg         512
           irdden           1
           irdwfk           1
              ixc     -116133
              kpt      5.26315789E-02  0.00000000E+00  0.00000000E+00
                       0.00000000E+00  4.16666667E-02  0.00000000E+00
           kptopt           0
P           mkmem           2
P          mkqmem           2
P          mk1mem           2
            natom          12
            nband          77
           nbdbuf           4
            ngfft          54      90     100
             nkpt           2
            nstep        2000
             nsym           8
           ntypat           3
              occ      2.000000  2.000000  2.000000  2.000000  2.000000  2.000000
                       2.000000  2.000000  2.000000  2.000000  2.000000  2.000000
                       2.000000  2.000000  2.000000  2.000000  2.000000  2.000000
                       2.000000  2.000000  2.000000  2.000000  2.000000  2.000000
                       2.000000  2.000000  2.000000  2.000000  2.000000  2.000000
                       2.000000  2.000000  2.000000  2.000000  2.000000  2.000000
                       2.000000  2.000000  2.000000  2.000000  2.000000  2.000000
                       2.000000  2.000000  2.000000  2.000000  2.000000  2.000000
                       2.000000  2.000000  2.000000  2.000000  2.000000  2.000000
                       2.000000  2.000000  2.000000  2.000000  2.000000  2.000000
                       2.000000  2.000000  2.000000  2.000000  2.000000  2.000000
                       2.000000  2.000000  0.000000  0.000000  0.000000  0.000000
                       0.000000  0.000000  0.000000  0.000000  0.000000
        optdriver           1
            prtwf          -1
            rfdir           1       1       1
           rfelfd           2
            rprim      9.7641326073E+00  0.0000000000E+00  0.0000000000E+00
                       0.0000000000E+00  1.5830291323E+01  0.0000000000E+00
                       0.0000000000E+00  0.0000000000E+00  1.8158890013E+01
          spgroup          62
           strten      0.0000000000E+00  0.0000000000E+00  0.0000000000E+00
                       0.0000000000E+00  0.0000000000E+00  0.0000000000E+00
           symrel      1  0  0   0  1  0   0  0  1      -1  0  0   0 -1  0   0  0 -1
                      -1  0  0   0  1  0   0  0 -1       1  0  0   0 -1  0   0  0  1
                      -1  0  0   0 -1  0   0  0  1       1  0  0   0  1  0   0  0 -1
                       1  0  0   0 -1  0   0  0 -1      -1  0  0   0  1  0   0  0  1
            tnons      0.0000000  0.0000000  0.0000000     0.0000000 -0.0000000  0.0000000
                       0.5000000  0.5000000  0.5000000     0.5000000  0.5000000  0.5000000
                       0.0000000  0.5000000  0.5000000     0.0000000  0.5000000  0.5000000
                       0.5000000 -0.0000000  0.0000000     0.5000000  0.0000000  0.0000000
           tolwfr      1.00000000E-20
            typat      1  1  1  1  2  2  2  2  3  3  3  3
           useylm           1
              wtk        0.50000    0.50000
           xangst      3.8752173281E+00  8.2042866507E+00  3.0414398874E+00
                       1.2917391094E+00  1.7274272271E-01  6.5678308406E+00
                       3.8752173281E+00  4.0157719640E+00  1.7631954766E+00
                       1.2917391094E+00  4.3612574094E+00  7.8460752514E+00
                       3.8752173281E+00  7.1144853914E+00  8.9288670956E+00
                       1.2917391094E+00  1.2625439820E+00  6.8040363244E-01
                       3.8752173281E+00  2.9259707047E+00  5.4850389964E+00
                       1.2917391094E+00  5.4510586687E+00  4.1242317316E+00
                       3.8752173281E+00  6.1734685508E+00  5.8509984629E+00
                       1.2917391094E+00  2.2035608226E+00  3.7582722652E+00
                       3.8752173281E+00  1.9849538641E+00  8.5629076292E+00
                       1.2917391094E+00  6.3920755093E+00  1.0463630988E+00
            xcart      7.3230994555E+00  1.5503854885E+01  5.7474884368E+00
                       2.4410331518E+00  3.2643643737E-01  1.2411401576E+01
                       7.3230994555E+00  7.5887092240E+00  3.3319565695E+00
                       2.4410331518E+00  8.2415820988E+00  1.4826933443E+01
                       7.3230994555E+00  1.3444428966E+01  1.6873113488E+01
                       2.4410331518E+00  2.3858623567E+00  1.2857765251E+00
                       7.3230994555E+00  5.5292833047E+00  1.0365221531E+01
                       2.4410331518E+00  1.0301008018E+01  7.7936684812E+00
                       7.3230994555E+00  1.1666164851E+01  1.1056784699E+01
                       2.4410331518E+00  4.1641264719E+00  7.1021053140E+00
                       7.3230994555E+00  3.7510191895E+00  1.6181550320E+01
                       2.4410331518E+00  1.2079272133E+01  1.9773396924E+00
             xred      7.5000000000E-01  9.7937900000E-01  3.1651100000E-01
                       2.5000000000E-01  2.0621000000E-02  6.8348900000E-01
                       7.5000000000E-01  4.7937900000E-01  1.8348900000E-01
                       2.5000000000E-01  5.2062100000E-01  8.1651100000E-01
                       7.5000000000E-01  8.4928500000E-01  9.2919300000E-01
                       2.5000000000E-01  1.5071500000E-01  7.0807000000E-02
                       7.5000000000E-01  3.4928500000E-01  5.7080700000E-01
                       2.5000000000E-01  6.5071500000E-01  4.2919300000E-01
                       7.5000000000E-01  7.3695200000E-01  6.0889100000E-01
                       2.5000000000E-01  2.6304800000E-01  3.9110900000E-01
                       7.5000000000E-01  2.3695200000E-01  8.9110900000E-01
                       2.5000000000E-01  7.6304800000E-01  1.0889100000E-01
            znucl       38.00000   20.00000   82.00000

- Timing analysis has been suppressed with timopt=0

 Suggested references for the acknowledgment of ABINIT usage.

 Calculation completed.
.Delivered   2 WARNINGs and   7 COMMENTs to log file.