.Version 9.5.1 of ABINIT

 ABINIT is a project of the Universite Catholique de Louvain,
 Corning Inc. and other collaborators, see ~abinit/doc/developers/contributors.txt .
 acknowledgments of the ABINIT effort.

.Starting date : Tue 11 May 2021.
- ( at 21h45 )

- input  file    -> /scratch/users/j/a/jabreu/flow_simple_8atoms/flow/w350/t1/run.abi
- output file    -> /scratch/users/j/a/jabreu/flow_simple_8atoms/flow/w350/t1/run.abo
- root for input  files -> /scratch/users/j/a/jabreu/flow_simple_8atoms/flow/w350/t1/indata/in
- root for output files -> /scratch/users/j/a/jabreu/flow_simple_8atoms/flow/w350/t1/outdata/out

 Symmetries : space group R-3 c (#167); Bravais hR (rhombohedral)
     intxc =       0      iscf =       7    lmnmax =      18     lnmax =       6
     mgfft =      50  mpssoang =       3    mqgrid =    3001     natom =       8
  nloc_mem =       1    nspden =       1   nspinor =       1    nsppol =       1
      nsym =      12    n1xccc =    2501    ntypat =       2    occopt =       1
   xclevel =       2
-    mband =          15        mffmem =           1         mkmem =           2
-   mkqmem =           2        mk1mem =           2           mpw =        5055
      nfft =      125000          nkpt =           2
  Rough estimation (10% accuracy) of disk space for files :

------------- Echo of variables that govern the present computation ------------
-
- outvars: echo of selected default values
-   iomode0 =  0 , fftalg0 =512 , wfoptalg0 =  0
-
- outvars: echo of global parameters not present in the input file
-  max_nthreads =    0
-
 -outvars: echo values of preprocessed input variables --------
            acell      1.0000000000E+00  1.0000000000E+00  1.0000000000E+00 Bohr
              amu      2.69815390E+01  1.00794000E+00
             ecut      3.90000000E+01 Hartree
-          fftalg         512
           irdden           1
           irdwfk           1
           istwfk        0    1
              ixc     -116133
              kpt      6.10553543E-01  3.89446457E-01  0.00000000E+00
                       0.00000000E+00  0.00000000E+00  0.00000000E+00
           kptopt           0
P           mkmem           2
P          mkqmem           2
P          mk1mem           2
            natom           8
            nband          15
           nbdbuf           4
            ngfft          50      50      50
             nkpt           2
            nstep        2000
             nsym          12
           ntypat           2
              occ      2.000000  2.000000  2.000000  2.000000  2.000000  2.000000
                       0.000000  0.000000  0.000000  0.000000  0.000000  0.000000
                       0.000000  0.000000  0.000000
        optdriver           1
            prtwf          -1
            rfdir           1       1       1
           rfelfd           2
            rprim      7.2588762278E+00  0.0000000000E+00  4.9748065704E+00
                       2.6215618546E+00  6.7689509920E+00  4.9748065704E+00
                       0.0000000000E+00  0.0000000000E+00  8.7999991195E+00
          spgroup         167
           symrel      1  0  0   0  1  0   0  0  1      -1  0  0   0 -1  0   0  0 -1
                       0  1  0   1  0  0   0  0  1       0 -1  0  -1  0  0   0  0 -1
                       0  0  1   1  0  0   0  1  0       0  0 -1  -1  0  0   0 -1  0
                       1  0  0   0  0  1   0  1  0      -1  0  0   0  0 -1   0 -1  0
                       0  1  0   0  0  1   1  0  0       0 -1  0   0  0 -1  -1  0  0
                       0  0  1   0  1  0   1  0  0       0  0 -1   0 -1  0  -1  0  0
            tnons      0.0000000  0.0000000  0.0000000     0.0000000  0.0000000  0.0000000
                       0.5000000  0.5000000  0.5000000     0.5000000  0.5000000  0.5000000
                       0.0000000  0.0000000  0.0000000     0.0000000  0.0000000  0.0000000
                       0.5000000  0.5000000  0.5000000     0.5000000  0.5000000  0.5000000
                       0.0000000  0.0000000  0.0000000     0.0000000  0.0000000  0.0000000
                       0.5000000  0.5000000  0.5000000     0.5000000  0.5000000  0.5000000
           tolwfr      1.00000000E-20
            typat      1  1  2  2  2  2  2  2
           useylm           1
              wtk        0.50000    0.50000
           xangst      2.6142513220E+00  1.7909872955E+00  4.9609337390E+00
                       0.0000000000E+00  0.0000000000E+00  0.0000000000E+00
                       1.7885613395E+00  2.1385749459E+00  6.4347498831E+00
                       3.8153040986E+00  8.9549364776E-01  5.8154970798E+00
                       1.6824884550E+00  3.4758765036E-01  4.8088463543E+00
                       1.4131985455E+00  2.6864809433E+00  4.1063703983E+00
                       3.4399413046E+00  1.4433996452E+00  3.4871175949E+00
                       3.5460141891E+00  3.2343869407E+00  5.1130211237E+00
            xcart      4.9402190412E+00  3.3844754960E+00  9.3748061302E+00
                       0.0000000000E+00  0.0000000000E+00  0.0000000000E+00
                       3.3798911035E+00  4.0413209624E+00  1.2159915013E+01
                       7.2098798601E+00  1.6922377480E+00  1.0989696807E+01
                       3.1794424018E+00  6.5684546636E-01  9.0874026248E+00
                       2.6705582223E+00  5.0767132440E+00  7.7599154530E+00
                       6.5005469789E+00  2.7276300296E+00  6.5896972476E+00
                       6.7009956806E+00  6.1121055256E+00  9.6622096355E+00
             xred      5.0000000000E-01  5.0000000000E-01  5.0000000000E-01
                       0.0000000000E+00  0.0000000000E+00  0.0000000000E+00
                       2.5000000000E-01  5.9703800000E-01  9.0296200000E-01
                       9.0296200000E-01  2.5000000000E-01  5.9703800000E-01
                       4.0296200000E-01  9.7038000000E-02  7.5000000000E-01
                       9.7038000000E-02  7.5000000000E-01  4.0296200000E-01
                       7.5000000000E-01  4.0296200000E-01  9.7038000000E-02
                       5.9703800000E-01  9.0296200000E-01  2.5000000000E-01
            znucl       13.00000    1.00000

 chkinp: Checking input parameters for consistency.

== DATASET  1 ==================================================================
-   mpi_nproc: 1, omp_nthreads: -1 (-1 if OMP is not activated)

--- !DatasetInfo
iteration_state: {dtset: 1, }
dimensions: {natom: 8, nkpt: 2, mband: 15, nsppol: 1, nspinor: 1, nspden: 1, mpw: 5055, }
cutoff_energies: {ecut:  39.0, pawecutdg:  -1.0, }
electrons: {nelect:   1.20000000E+01, charge:   0.00000000E+00, occopt:   1.00000000E+00, tsmear:   1.00000000E-02, }
meta: {optdriver: 1, rfelfd: 2, }
...

 Real(R)+Recip(G) space primitive vectors, cartesian coordinates (Bohr,Bohr^-1):
 R(1)=  7.2588762  0.0000000  4.9748066  G(1)=  0.1377624 -0.0533543  0.0000000
 R(2)=  2.6215619  6.7689510  4.9748066  G(2)=  0.0000000  0.1477334  0.0000000
 R(3)=  0.0000000  0.0000000  8.7999991  G(3)= -0.0778797 -0.0533543  0.1136364
 Unit cell volume ucvol=  4.3238776E+02 bohr^3
 Angles (23,13,12)=  5.55755549E+01  5.55755549E+01  5.55755549E+01 degrees

 getcut: wavevector=  0.0000  0.0000  0.0000  ngfft=  50  50  50
         ecut(hartree)=     39.000   => boxcut(ratio)=   2.02117

--- Pseudopotential description ------------------------------------------------
- pspini: atom type   1  psp file is /scratch/users/j/a/jabreu/pseudos/PBEsol/Al.psp8
- pspatm: opening atomic psp file    /scratch/users/j/a/jabreu/pseudos/PBEsol/Al.psp8
- Al    ONCVPSP-3.3.0  r_core=   1.76802   1.76802   1.70587
- 13.00000   3.00000    180112                znucl, zion, pspdat
    8 -116133    2    4       600   0.00000   pspcod,pspxc,lmax,lloc,mmax,r2well
    5.99000000000000    5.00000000000000    0.00000000000000   rchrg,fchrg,qchrg
     nproj     2     2     2
     extension_switch     1
  pspatm : epsatm=    0.68509324
         --- l  ekb(1:nproj) -->
             0    5.834965    0.726662
             1    6.225605    0.924840
             2   -2.432733   -0.548689
 pspatm: atomic psp has been read  and splines computed

- pspini: atom type   2  psp file is /scratch/users/j/a/jabreu/pseudos/PBEsol/H.psp8
- pspatm: opening atomic psp file    /scratch/users/j/a/jabreu/pseudos/PBEsol/H.psp8
- H     ONCVPSP-3.3.0  r_core=   1.00957   0.70586
-  1.00000   1.00000    180112                znucl, zion, pspdat
    8 -116133    1    4       300   0.00000   pspcod,pspxc,lmax,lloc,mmax,r2well
    2.99000000000000    0.00000000000000    0.00000000000000   rchrg,fchrg,qchrg
     nproj     2     1
     extension_switch     1
  pspatm : epsatm=    0.35627032
         --- l  ekb(1:nproj) -->
             0   -1.674911   -0.523609
             1   -0.494138
 pspatm: atomic psp has been read  and splines computed

   4.20937009E+01                                ecore*ucvol(ha*bohr**3)

-inwffil : will read wavefunctions from disk file /scratch/users/j/a/jabreu/flow_simple_8atoms/flow/w350/t1/indata/in_WFK

 ==>  initialize data related to q vector <==

 The list of irreducible perturbations for this q vector is:
    1)    idir= 1    ipert=   9
    2)    idir= 2    ipert=   9
    3)    idir= 3    ipert=   9

 Perturbation wavevector (in red.coord.)   0.000000  0.000000  0.000000
 Perturbation : derivative vs k along direction   1

 dfpt_looppert : COMMENT -
  In a d/dk calculation, iscf is set to -3 automatically.
 The set of symmetries contains only one element for this perturbation.
 symkpt : not enough symmetry to change the number of k points.

[...]

 Initialisation of the first-order wave-functions :
  ireadwf=   0

--- !BeginCycle
iteration_state: {dtset: 1, }
solver: {iscf: 7, nstep: 2000, nline: 4, wfoptalg: 0, }
tolerances: {tolwfr: 1.00E-20, }
...

     iter   2DEtotal(Ha)        deltaE(Ha) residm    vres2
-ETOT  1  -13.684304773596     -1.368E+01 1.479E-02 0.000E+00
 ETOT  2  -13.685192398008     -8.876E-04 5.163E-05 0.000E+00
 ETOT  3  -13.685192698588     -3.006E-07 1.447E-07 0.000E+00
 ETOT  4  -13.685192698791     -2.032E-10 6.958E-10 0.000E+00
 ETOT  5  -13.685192698792     -1.670E-13 2.421E-12 0.000E+00
 ETOT  6  -13.685192698792      1.066E-14 1.222E-14 0.000E+00
 ETOT  7  -13.685192698792     -2.132E-14 4.323E-17 0.000E+00
 ETOT  8  -13.685192698792      5.329E-15 2.243E-19 0.000E+00
 ETOT  9  -13.685192698792     -1.776E-15 8.737E-21 0.000E+00

 At SCF step    9   max residual=  8.74E-21 < tolwfr=  1.00E-20 =>converged.

 ----iterations are completed or convergence reached----

 dfpt_looppert: DFPT cycle converged with prtwf=-1. Will skip output of the 1st-order WFK file.
 dfpt_looppert : ek2=    2.0678938371E+01
          f-sum rule ratio=    1.3465385951E+00
 prteigrs : about to open file /scratch/users/j/a/jabreu/flow_simple_8atoms/flow/w350/t1/tmpdata/tmp_1WF1_EIG
 Expectation of eigenvalue derivatives (hartree) for nkpt=   2  k points:
  (in case of degenerate eigenvalues, averaged derivative)
 kpt#   1, nband= 15, wtk=  0.50000, kpt=  0.6106  0.3894  0.0000 (reduced coord)
   0.11305   -0.32020    0.09068    0.09430    0.11354   -0.01033    0.22991   -0.29299
  -0.20964   -0.30389   -0.35558    0.37404   -0.20563    0.13239    0.04287
 prteigrs : prtvol=0 or 1, do not print more k-points.

 Eight components of 2nd-order total energy (hartree) are
 1,2,3: 0th-order hamiltonian combined with 1st-order wavefunctions
     kin0=   2.31551616E+00 eigvalue=   5.14792713E-02  local=  -7.95009921E-01
 4,5,6: 1st-order hamiltonian combined with 1st and 0th-order wfs
     kin1=  -2.78449886E+01  Hartree=   0.00000000E+00     xc=   0.00000000E+00
 7,8,9: eventually, occupation + non-local contributions
    edocc=   1.19951816E+01     enl0=   1.18025628E-01   enl1=   4.74603225E-01
 1-9 gives the relaxation energy (to be shifted if some occ is /=2.0)
   erelax=  -1.36851927E+01
  No Ewald or frozen-wf contrib.: the relaxation energy is the total one
 2DEtotal=   -0.1368519270E+02 Ha. Also 2DEtotal=   -0.372393031725E+03 eV
    (  non-var. 2DEtotal :   -1.3685192699E+01 Ha)

 Perturbation wavevector (in red.coord.)   0.000000  0.000000  0.000000
 Perturbation : derivative vs k along direction   2
 The set of symmetries contains only one element for this perturbation.
 symkpt : not enough symmetry to change the number of k points.

[...]

 Perturbation wavevector (in red.coord.)   0.000000  0.000000  0.000000
 Perturbation : derivative vs k along direction   3
 The set of symmetries contains only one element for this perturbation.
 symkpt : not enough symmetry to change the number of k points.

-inwffil : will read wavefunctions from disk file /scratch/users/j/a/jabreu/flow_simple_8atoms/flow/w350/t1/indata/in_WFK

 Initialisation of the first-order wave-functions :
  ireadwf=   0

--- !BeginCycle
iteration_state: {dtset: 1, }
solver: {iscf: 7, nstep: 2000, nline: 4, wfoptalg: 0, }
tolerances: {tolwfr: 1.00E-20, }
...

     iter   2DEtotal(Ha)        deltaE(Ha) residm    vres2
-ETOT  1  -12.746681078646     -1.275E+01 6.290E-03 0.000E+00
 ETOT  2  -12.748261961761     -1.581E-03 1.600E-05 0.000E+00
 ETOT  3  -12.748262296970     -3.352E-07 3.052E-08 0.000E+00
 ETOT  4  -12.748262297251     -2.810E-10 1.155E-10 0.000E+00
 ETOT  5  -12.748262297251     -1.474E-13 3.608E-13 0.000E+00
 ETOT  6  -12.748262297251      1.066E-14 1.481E-15 0.000E+00
 ETOT  7  -12.748262297251     -7.105E-15 5.264E-18 0.000E+00
 ETOT  8  -12.748262297251      5.329E-15 2.226E-20 0.000E+00
 ETOT  9  -12.748262297251      0.000E+00 8.721E-21 0.000E+00

 At SCF step    9   max residual=  8.72E-21 < tolwfr=  1.00E-20 =>converged.

 ----iterations are completed or convergence reached----

 dfpt_looppert: DFPT cycle converged with prtwf=-1. Will skip output of the 1st-order WFK file.
 dfpt_looppert : ek2=    2.0678938371E+01
          f-sum rule ratio=    1.2505770878E+00
 prteigrs : about to open file /scratch/users/j/a/jabreu/flow_simple_8atoms/flow/w350/t1/tmpdata/tmp_1WF1_EIG
 Expectation of eigenvalue derivatives (hartree) for nkpt=   2  k points:
  (in case of degenerate eigenvalues, averaged derivative)
 kpt#   1, nband= 15, wtk=  0.50000, kpt=  0.6106  0.3894  0.0000 (reduced coord)
  -0.00000   -0.00000    0.00000   -0.00000    0.00000    0.00000    0.00000    0.00000
  -0.00000    0.00000   -0.00000   -0.00000   -0.00000   -0.00000   -0.00000
 prteigrs : prtvol=0 or 1, do not print more k-points.

 Eight components of 2nd-order total energy (hartree) are
 1,2,3: 0th-order hamiltonian combined with 1st-order wavefunctions
     kin0=   2.52391655E+00 eigvalue=   3.78659487E-02  local=  -8.68409338E-01
 4,5,6: 1st-order hamiltonian combined with 1st and 0th-order wfs
     kin1=  -2.58606065E+01  Hartree=   0.00000000E+00     xc=   0.00000000E+00
 7,8,9: eventually, occupation + non-local contributions
    edocc=   1.09261832E+01     enl0=   1.28705891E-01   enl1=   3.64081933E-01
 1-9 gives the relaxation energy (to be shifted if some occ is /=2.0)
   erelax=  -1.27482623E+01
  No Ewald or frozen-wf contrib.: the relaxation energy is the total one
 2DEtotal=   -0.1274826230E+02 Ha. Also 2DEtotal=   -0.346897858918E+03 eV
    (  non-var. 2DEtotal :   -1.2748262297E+01 Ha)

 CALCULATION OF EFFECTIVE MASSES
 NOTE : Additional infos (eff. mass eigenvalues, eigenvectors and, if degenerate, average mass) are available in stdout.

--- !WARNING
src_file: m_efmas.F90
src_line: 0
message: |

    Band(s)     6,
    are not band extrema, but saddle points;
    the transport equivalent formalism breaks down in these conditions.
    The associated tensor(s) will therefore not be printed.
...

 K-point ( 0.611, 0.389, 0.000) | band =     6
 Effective mass tensor:
     *** SADDLE POINT: TRANSPORT EQV. EFF. MASS NOT DEFINED (see WARNING above) ***
 Angular average effective mass 1/(<1/m>)=  -0.8620988558
 Angular average effective mass for Frohlich model (<m**0.5>)**2=  -1.7619565485
 Effective masses along directions: (cart. coord. / red. coord. -> eff. mass)
    1:   1.000000  0.000000  0.000000 /   0.940541  0.339679  0.000000 ->  -1.2697946782
    2:   0.000000  1.000000  0.000000 /   0.000000  1.000000  0.000000 ->  -0.6851103857
    3:   0.000000  0.000000  1.000000 /   0.441552  0.441552  0.781066 ->  -0.8112065612
    4:   0.577350  0.577350  0.577350 /   0.587598  0.689983  0.422674 ->  -0.7905497398
    5:   0.000000  0.707107  0.707107 /   0.321052  0.757891  0.567914 ->  -0.5672279716
    6:   0.707107  0.000000  0.707107 /   0.724905  0.450122  0.521443 ->  -0.6178567537
    7:   0.707107  0.707107  0.000000 /   0.611583  0.791180  0.000000 ->  -3.9078412761

 K-point ( 0.000, 0.000, 0.000) | band =     7
 Effective mass tensor:
              0.4133792424             -0.0377181636             -0.1044771846
             -0.0377181636              0.4425951428             -0.0715758691
             -0.1044771846             -0.0715758691              0.2701742150
 Effective mass tensor eigenvalues:
              0.1892779339              0.4684353331              0.4684353332
 Angular average effective mass 1/(<1/m>)=   0.3140450760
 Angular average effective mass for Frohlich model (<m**0.5>)**2=   0.3338123980
 Effective masses along directions: (cart. coord. / red. coord. -> eff. mass)
    1:   1.000000  0.000000  0.000000 /   0.940541  0.339679  0.000000 ->   0.3628822149
    2:   0.000000  1.000000  0.000000 /   0.000000  1.000000  0.000000 ->   0.4121664427
    3:   0.000000  0.000000  1.000000 /   0.441552  0.441552  0.781066 ->   0.2287884836
    4:   0.577350  0.577350  0.577350 /   0.587598  0.689983  0.422674 ->   0.2086986241
    5:   0.000000  0.707107  0.707107 /   0.321052  0.757891  0.567914 ->   0.2377672627
    6:   0.707107  0.000000  0.707107 /   0.724905  0.450122  0.521443 ->   0.2108981396
    7:   0.707107  0.707107  0.000000 /   0.611583  0.791180  0.000000 ->   0.3315250786

 END OF EFFECTIVE MASSES SECTION

 ---- first-order wavefunction calculations are completed ----

 Total localisation tensor (bohr^2) in cartesian coordinates
  WARNING : still subject to testing - especially symmetries.
      direction              matrix element
   alpha     beta       real part   imaginary part
     1        1       3.2126191876    0.0000000000
     1        2       0.9571011068    0.0000000000
     1        3       2.6511160419    0.0000000000
     2        1       0.9571011068    0.0000000000
     2        2       2.4712636381    0.0000000000
     2        3       1.8162428120    0.0000000000
     3        1       2.6511160419    0.0000000000
     3        2       1.8162428120    0.0000000000
     3        3       6.4154645780    0.0000000000

 respfn : d/dk was computed, but no 2DTE, so no DDB output.

== END DATASET(S) ==============================================================

 -outvars: echo values of variables after computation  --------
            acell      1.0000000000E+00  1.0000000000E+00  1.0000000000E+00 Bohr
              amu      2.69815390E+01  1.00794000E+00
             ecut      3.90000000E+01 Hartree
           etotal     -1.2748262297E+01
            fcart      0.0000000000E+00  0.0000000000E+00  0.0000000000E+00
                       0.0000000000E+00  0.0000000000E+00  0.0000000000E+00
                       0.0000000000E+00  0.0000000000E+00  0.0000000000E+00
                       0.0000000000E+00  0.0000000000E+00  0.0000000000E+00
                       0.0000000000E+00  0.0000000000E+00  0.0000000000E+00
                       0.0000000000E+00  0.0000000000E+00  0.0000000000E+00
                       0.0000000000E+00  0.0000000000E+00  0.0000000000E+00
                       0.0000000000E+00  0.0000000000E+00  0.0000000000E+00
-          fftalg         512
           irdden           1
           irdwfk           1
           istwfk        0    1
              ixc     -116133
              kpt      6.10553543E-01  3.89446457E-01  0.00000000E+00
                       0.00000000E+00  0.00000000E+00  0.00000000E+00
           kptopt           0
P           mkmem           2
P          mkqmem           2
P          mk1mem           2
            natom           8
            nband          15
           nbdbuf           4
            ngfft          50      50      50
             nkpt           2
            nstep        2000
             nsym          12
           ntypat           2
              occ      2.000000  2.000000  2.000000  2.000000  2.000000  2.000000
                       0.000000  0.000000  0.000000  0.000000  0.000000  0.000000
                       0.000000  0.000000  0.000000
        optdriver           1
            prtwf          -1
            rfdir           1       1       1
           rfelfd           2
            rprim      7.2588762278E+00  0.0000000000E+00  4.9748065704E+00
                       2.6215618546E+00  6.7689509920E+00  4.9748065704E+00
                       0.0000000000E+00  0.0000000000E+00  8.7999991195E+00
          spgroup         167
           strten      0.0000000000E+00  0.0000000000E+00  0.0000000000E+00
                       0.0000000000E+00  0.0000000000E+00  0.0000000000E+00
           symrel      1  0  0   0  1  0   0  0  1      -1  0  0   0 -1  0   0  0 -1
                       0  1  0   1  0  0   0  0  1       0 -1  0  -1  0  0   0  0 -1
                       0  0  1   1  0  0   0  1  0       0  0 -1  -1  0  0   0 -1  0
                       1  0  0   0  0  1   0  1  0      -1  0  0   0  0 -1   0 -1  0
                       0  1  0   0  0  1   1  0  0       0 -1  0   0  0 -1  -1  0  0
                       0  0  1   0  1  0   1  0  0       0  0 -1   0 -1  0  -1  0  0
            tnons      0.0000000  0.0000000  0.0000000     0.0000000  0.0000000  0.0000000
                       0.5000000  0.5000000  0.5000000     0.5000000  0.5000000  0.5000000
                       0.0000000  0.0000000  0.0000000     0.0000000  0.0000000  0.0000000
                       0.5000000  0.5000000  0.5000000     0.5000000  0.5000000  0.5000000
                       0.0000000  0.0000000  0.0000000     0.0000000  0.0000000  0.0000000
                       0.5000000  0.5000000  0.5000000     0.5000000  0.5000000  0.5000000
           tolwfr      1.00000000E-20
            typat      1  1  2  2  2  2  2  2
           useylm           1
              wtk        0.50000    0.50000
           xangst      2.6142513220E+00  1.7909872955E+00  4.9609337390E+00
                       0.0000000000E+00  0.0000000000E+00  0.0000000000E+00
                       1.7885613395E+00  2.1385749459E+00  6.4347498831E+00
                       3.8153040986E+00  8.9549364776E-01  5.8154970798E+00
                       1.6824884550E+00  3.4758765036E-01  4.8088463543E+00
                       1.4131985455E+00  2.6864809433E+00  4.1063703983E+00
                       3.4399413046E+00  1.4433996452E+00  3.4871175949E+00
                       3.5460141891E+00  3.2343869407E+00  5.1130211237E+00
            xcart      4.9402190412E+00  3.3844754960E+00  9.3748061302E+00
                       0.0000000000E+00  0.0000000000E+00  0.0000000000E+00
                       3.3798911035E+00  4.0413209624E+00  1.2159915013E+01
                       7.2098798601E+00  1.6922377480E+00  1.0989696807E+01
                       3.1794424018E+00  6.5684546636E-01  9.0874026248E+00
                       2.6705582223E+00  5.0767132440E+00  7.7599154530E+00
                       6.5005469789E+00  2.7276300296E+00  6.5896972476E+00
                       6.7009956806E+00  6.1121055256E+00  9.6622096355E+00
             xred      5.0000000000E-01  5.0000000000E-01  5.0000000000E-01
                       0.0000000000E+00  0.0000000000E+00  0.0000000000E+00
                       2.5000000000E-01  5.9703800000E-01  9.0296200000E-01
                       9.0296200000E-01  2.5000000000E-01  5.9703800000E-01
                       4.0296200000E-01  9.7038000000E-02  7.5000000000E-01
                       9.7038000000E-02  7.5000000000E-01  4.0296200000E-01
                       7.5000000000E-01  4.0296200000E-01  9.7038000000E-02
                       5.9703800000E-01  9.0296200000E-01  2.5000000000E-01
            znucl       13.00000    1.00000

- Timing analysis has been suppressed with timopt=0

 Suggested references for the acknowledgment of ABINIT usage.

 Calculation completed.
.Delivered  15 WARNINGs and   9 COMMENTs to log file.