.Version 9.5.2 of ABINIT

 ABINIT is a project of the Universite Catholique de Louvain,
 Corning Inc. and other collaborators, see ~abinit/doc/developers/contributors.txt .
 acknowledgments of the ABINIT effort.

.Starting date : Mon 31 May 2021.
- ( at 21h55 )

- input  file    -> /scratch/users/j/a/jabreu/flow_simple_11atoms/flow/w326/t1/run.abi
- output file    -> /scratch/users/j/a/jabreu/flow_simple_11atoms/flow/w326/t1/run.abo
- root for input  files -> /scratch/users/j/a/jabreu/flow_simple_11atoms/flow/w326/t1/indata/in
- root for output files -> /scratch/users/j/a/jabreu/flow_simple_11atoms/flow/w326/t1/outdata/out

 Symmetries : space group Pn m a (# 62); Bravais oP (primitive ortho.)
     intxc =       0      iscf =       7    lmnmax =      18     lnmax =       6
     mgfft =      90  mpssoang =       3    mqgrid =    4334     natom =      12
  nloc_mem =       1    nspden =       1   nspinor =       1    nsppol =       1
      nsym =       8    n1xccc =    2501    ntypat =       3    occopt =       1
   xclevel =       2
-    mband =          65        mffmem =           1         mkmem =           1
-   mkqmem =           1        mk1mem =           1           mpw =       21661
      nfft =      388800          nkpt =           1
  Rough estimation (10% accuracy) of disk space for files :

------------- Echo of variables that govern the present computation ------------
-
- outvars: echo of selected default values
-   iomode0 =  0 , fftalg0 =512 , wfoptalg0 =  0
-
- outvars: echo of global parameters not present in the input file
-  max_nthreads =    0
-
 -outvars: echo values of preprocessed input variables --------
            acell      1.0000000000E+00  1.0000000000E+00  1.0000000000E+00 Bohr
              amu      2.29897680E+01  6.94100000E+00  7.89600000E+01
             ecut      4.40000000E+01 Hartree
-          fftalg         512
           irdden           1
           irdwfk           1
           istwfk        1
              ixc     -116133
           kptopt           0
P           mkmem           1
P          mkqmem           1
P          mk1mem           1
            natom          12
            nband          65
           nbdbuf           4
            ngfft          48      90      90
             nkpt           1
            nstep        2000
             nsym           8
           ntypat           3
              occ      2.000000  2.000000  2.000000  2.000000  2.000000  2.000000
                       2.000000  2.000000  2.000000  2.000000  2.000000  2.000000
                       2.000000  2.000000  2.000000  2.000000  2.000000  2.000000
                       2.000000  2.000000  2.000000  2.000000  2.000000  2.000000
                       2.000000  2.000000  2.000000  2.000000  2.000000  2.000000
                       2.000000  2.000000  2.000000  2.000000  2.000000  2.000000
                       2.000000  2.000000  2.000000  2.000000  2.000000  2.000000
                       2.000000  2.000000  2.000000  2.000000  2.000000  2.000000
                       2.000000  2.000000  2.000000  2.000000  2.000000  2.000000
                       2.000000  2.000000  0.000000  0.000000  0.000000  0.000000
                       0.000000  0.000000  0.000000  0.000000  0.000000
        optdriver           1
            prtwf          -1
            rfdir           1       1       1
           rfelfd           2
            rprim      7.9823205024E+00  0.0000000000E+00  0.0000000000E+00
                       0.0000000000E+00  1.3450507681E+01  0.0000000000E+00
                       0.0000000000E+00  0.0000000000E+00  1.4513108523E+01
          spgroup          62
           symrel      1  0  0   0  1  0   0  0  1      -1  0  0   0 -1  0   0  0 -1
                      -1  0  0   0  1  0   0  0 -1       1  0  0   0 -1  0   0  0  1
                      -1  0  0   0 -1  0   0  0  1       1  0  0   0  1  0   0  0 -1
                       1  0  0   0 -1  0   0  0 -1      -1  0  0   0  1  0   0  0  1
            tnons      0.0000000  0.0000000  0.0000000     0.0000000  0.0000000  0.0000000
                       0.5000000  0.5000000  0.5000000     0.5000000  0.5000000  0.5000000
                       0.0000000  0.5000000  0.5000000     0.0000000  0.5000000  0.5000000
                       0.5000000  0.0000000  0.0000000     0.5000000  0.0000000  0.0000000
           tolwfr      1.00000000E-20
            typat      1  1  1  1  2  2  2  2  3  3  3  3
           useylm           1
           xangst      3.1680465611E+00  3.4583063945E+00  2.4403603880E+00
                       1.0560155204E+00  3.6593957144E+00  5.2396458684E+00
                       3.1680465611E+00  7.0171574489E+00  1.3996427402E+00
                       1.0560155204E+00  1.0054465999E-01  6.2803635162E+00
                       3.1680465611E+00  2.5412545370E+00  7.1340960517E+00
                       1.0560155204E+00  4.5764475719E+00  5.4591020472E-01
                       3.1680465611E+00  6.1001055915E+00  4.3859133329E+00
                       1.0560155204E+00  1.0175965174E+00  3.2940929235E+00
                       3.1680465611E+00  5.1331799954E+00  6.8482692589E+00
                       1.0560155204E+00  1.9845221135E+00  8.3173699757E-01
                       3.1680465611E+00  1.5743289410E+00  4.6717401258E+00
                       1.0560155204E+00  5.5433731679E+00  3.0082661306E+00
            xcart      5.9867403768E+00  6.5352519691E+00  4.6116127989E+00
                       1.9955801256E+00  6.9152557122E+00  9.9014957246E+00
                       5.9867403768E+00  1.3260505810E+01  2.6449414629E+00
                       1.9955801256E+00  1.9000187151E-01  1.1868167061E+01
                       5.9867403768E+00  4.8022751090E+00  1.3481487743E+01
                       1.9955801256E+00  8.6482325723E+00  1.0316207801E+00
                       5.9867403768E+00  1.1527528950E+01  8.2881750418E+00
                       1.9955801256E+00  1.9229787317E+00  6.2249334817E+00
                       5.9867403768E+00  9.7003043821E+00  1.2941353384E+01
                       1.9955801256E+00  3.7502032992E+00  1.5717551400E+00
                       5.9867403768E+00  2.9750505415E+00  8.8283094017E+00
                       1.9955801256E+00  1.0475457140E+01  5.6847991218E+00
             xred      7.5000000000E-01  4.8587400000E-01  3.1775500000E-01
                       2.5000000000E-01  5.1412600000E-01  6.8224500000E-01
                       7.5000000000E-01  9.8587400000E-01  1.8224500000E-01
                       2.5000000000E-01  1.4126000000E-02  8.1775500000E-01
                       7.5000000000E-01  3.5703300000E-01  9.2891800000E-01
                       2.5000000000E-01  6.4296700000E-01  7.1082000000E-02
                       7.5000000000E-01  8.5703300000E-01  5.7108200000E-01
                       2.5000000000E-01  1.4296700000E-01  4.2891800000E-01
                       7.5000000000E-01  7.2118500000E-01  8.9170100000E-01
                       2.5000000000E-01  2.7881500000E-01  1.0829900000E-01
                       7.5000000000E-01  2.2118500000E-01  6.0829900000E-01
                       2.5000000000E-01  7.7881500000E-01  3.9170100000E-01
            znucl       11.00000    3.00000   34.00000

 chkinp: Checking input parameters for consistency.

== DATASET  1 ==================================================================
-   mpi_nproc: 1, omp_nthreads: -1 (-1 if OMP is not activated)

--- !DatasetInfo
iteration_state: {dtset: 1, }
dimensions: {natom: 12, nkpt: 1, mband: 65, nsppol: 1, nspinor: 1, nspden: 1, mpw: 21661, }
cutoff_energies: {ecut:  44.0, pawecutdg:  -1.0, }
electrons: {nelect:   1.12000000E+02, charge:   0.00000000E+00, occopt:   1.00000000E+00, tsmear:   1.00000000E-02, }
meta: {optdriver: 1, rfelfd: 2, }
...

 Real(R)+Recip(G) space primitive vectors, cartesian coordinates (Bohr,Bohr^-1):
 R(1)=  7.9823205  0.0000000  0.0000000  G(1)=  0.1252769  0.0000000  0.0000000
 R(2)=  0.0000000 13.4505077  0.0000000  G(2)=  0.0000000  0.0743466  0.0000000
 R(3)=  0.0000000  0.0000000 14.5131085  G(3)=  0.0000000  0.0000000  0.0689032
 Unit cell volume ucvol=  1.5582182E+03 bohr^3
 Angles (23,13,12)=  9.00000000E+01  9.00000000E+01  9.00000000E+01 degrees

 getcut: wavevector=  0.0000  0.0000  0.0000  ngfft=  48  90  90
         ecut(hartree)=     44.000   => boxcut(ratio)=   2.01382

--- Pseudopotential description ------------------------------------------------
- pspini: atom type   1  psp file is /scratch/users/j/a/jabreu/pseudos/PBEsol/Na.psp8
- pspatm: opening atomic psp file    /scratch/users/j/a/jabreu/pseudos/PBEsol/Na.psp8
- Na    ONCVPSP-3.3.0  r_core=   1.20708   1.55069
- 11.00000   9.00000    180112                znucl, zion, pspdat
    8 -116133    1    4       400   0.00000   pspcod,pspxc,lmax,lloc,mmax,r2well
    3.99000000000000    0.00000000000000    0.00000000000000   rchrg,fchrg,qchrg
     nproj     2     2
     extension_switch     1
  pspatm : epsatm=    9.32878306
         --- l  ekb(1:nproj) -->
             0    2.657905   -0.678300
             1   -6.761319   -2.404728
 pspatm: atomic psp has been read  and splines computed

- pspini: atom type   2  psp file is /scratch/users/j/a/jabreu/pseudos/PBEsol/Li.psp8
- pspatm: opening atomic psp file    /scratch/users/j/a/jabreu/pseudos/PBEsol/Li.psp8
- Li    ONCVPSP-3.3.0  r_core=   1.40824   1.10935
-  3.00000   3.00000    180112                znucl, zion, pspdat
    8 -116133    1    4       400   0.00000   pspcod,pspxc,lmax,lloc,mmax,r2well
    3.99000000000000    0.00000000000000    0.00000000000000   rchrg,fchrg,qchrg
     nproj     2     2
     extension_switch     1
  pspatm : epsatm=    2.60859637
         --- l  ekb(1:nproj) -->
             0   -4.855856   -1.482423
             1   -2.171544   -0.427615
 pspatm: atomic psp has been read  and splines computed

- pspini: atom type   3  psp file is /scratch/users/j/a/jabreu/pseudos/PBEsol/Se.psp8
- pspatm: opening atomic psp file    /scratch/users/j/a/jabreu/pseudos/PBEsol/Se.psp8
- Se    ONCVPSP-3.3.0  r_core=   1.81943   1.50330   1.90835
- 34.00000  16.00000    180112                znucl, zion, pspdat
    8 -116133    2    4       600   0.00000   pspcod,pspxc,lmax,lloc,mmax,r2well
    5.99000000000000    5.00000000000000    0.00000000000000   rchrg,fchrg,qchrg
     nproj     2     2     2
     extension_switch     1
  pspatm : epsatm=   29.17862020
         --- l  ekb(1:nproj) -->
             0    8.973804    1.019550
             1    6.849857    1.297308
             2   -9.203962   -3.731027
 pspatm: atomic psp has been read  and splines computed

   1.84199678E+04                                ecore*ucvol(ha*bohr**3)

 ==>  initialize data related to q vector <==

 The list of irreducible perturbations for this q vector is:
    1)    idir= 1    ipert=  13
    2)    idir= 2    ipert=  13
    3)    idir= 3    ipert=  13

 Perturbation wavevector (in red.coord.)   0.000000  0.000000  0.000000
 Perturbation : derivative vs k along direction   1

 dfpt_looppert : COMMENT -
  In a d/dk calculation, iscf is set to -3 automatically.
[...]
 ETOT  6  -149.32486320097     -3.695E-13 7.382E-15 0.000E+00
 ETOT  7  -149.32486320097      1.137E-13 1.810E-16 0.000E+00
 ETOT  8  -149.32486320097     -5.684E-14 2.841E-19 0.000E+00
 ETOT  9  -149.32486320097     -2.842E-14 2.178E-20 0.000E+00
 ETOT 10  -149.32486320097      5.684E-14 9.578E-21 0.000E+00

 At SCF step   10   max residual=  9.58E-21 < tolwfr=  1.00E-20 =>converged.

 ----iterations are completed or convergence reached----

 dfpt_looppert: DFPT cycle converged with prtwf=-1. Will skip output of the 1st-order WFK file.
 dfpt_looppert : ek2=    1.3878720582E+02
          f-sum rule ratio=    1.1800567285E+00
 prteigrs : about to open file /scratch/users/j/a/jabreu/flow_simple_11atoms/flow/w326/t1/tmpdata/tmp_1WF1_EIG
 Expectation of eigenvalue derivatives (hartree) for nkpt=   1  k points:
  (in case of degenerate eigenvalues, averaged derivative)
 kpt#   1, nband= 65, wtk=  1.00000, kpt=  0.0000  0.0000  0.0000 (reduced coord)
   0.00000    0.00000   -0.00000    0.00000   -0.00000    0.00000    0.00000   -0.00000
  -0.00000   -0.00000    0.00000   -0.00000    0.00000   -0.00000   -0.00000    0.00000
   0.00000    0.00000   -0.00000   -0.00000    0.00000   -0.00000   -0.00000    0.00000
  -0.00000   -0.00000   -0.00000   -0.00000   -0.00000    0.00000    0.00000   -0.00000
   0.00000    0.00000    0.00000   -0.00000   -0.00000    0.00000   -0.00000   -0.00000
  -0.00000   -0.00000   -0.00000   -0.00000   -0.00000   -0.00000    0.00000    0.00000
  -0.00000   -0.00000   -0.00000    0.00000   -0.00000    0.00000   -0.00000    0.00000
   0.00000    0.00000   -0.00000    0.00000    0.00000    0.00000   -0.00000   -0.00000
   0.00009

 Eight components of 2nd-order total energy (hartree) are
 1,2,3: 0th-order hamiltonian combined with 1st-order wavefunctions
     kin0=   1.51862973E+02 eigvalue=   2.67677109E+01  local=  -6.01407945E+01
 4,5,6: 1st-order hamiltonian combined with 1st and 0th-order wfs
     kin1=  -1.63776776E+02  Hartree=   0.00000000E+00     xc=   0.00000000E+00
 7,8,9: eventually, occupation + non-local contributions
    edocc=   2.30903698E+01     enl0=   7.74460432E+00   enl1=  -1.34872950E+02
 1-9 gives the relaxation energy (to be shifted if some occ is /=2.0)
   erelax=  -1.49324863E+02
  No Ewald or frozen-wf contrib.: the relaxation energy is the total one
 2DEtotal=   -0.1493248632E+03 Ha. Also 2DEtotal=   -0.406333617240E+04 eV
    (  non-var. 2DEtotal :   -1.4932486320E+02 Ha)

 Perturbation wavevector (in red.coord.)   0.000000  0.000000  0.000000
 Perturbation : derivative vs k along direction   2
 The set of symmetries contains only one element for this perturbation.
 symkpt : not enough symmetry to change the number of k points.

[...]

 Perturbation wavevector (in red.coord.)   0.000000  0.000000  0.000000
 Perturbation : derivative vs k along direction   3
 The set of symmetries contains only one element for this perturbation.
 symkpt : not enough symmetry to change the number of k points.

 Initialisation of the first-order wave-functions :
  ireadwf=   0

--- !BeginCycle
iteration_state: {dtset: 1, }
solver: {iscf: 7, nstep: 2000, nline: 4, wfoptalg: 0, }
tolerances: {tolwfr: 1.00E-20, }
...

     iter   2DEtotal(Ha)        deltaE(Ha) residm    vres2
-ETOT  1  -42.794737371647     -4.279E+01 3.975E-02 0.000E+00
 ETOT  2  -42.824791454508     -3.005E-02 2.388E-04 0.000E+00
 ETOT  3  -42.824807244327     -1.579E-05 1.006E-05 0.000E+00
 ETOT  4  -42.824807273733     -2.941E-08 7.564E-08 0.000E+00
 ETOT  5  -42.824807273820     -8.672E-11 4.472E-09 0.000E+00
 ETOT  6  -42.824807273820     -2.913E-13 3.465E-11 0.000E+00
 ETOT  7  -42.824807273820     -7.105E-14 2.090E-12 0.000E+00
 ETOT  8  -42.824807273820      7.816E-14 1.715E-14 0.000E+00
 ETOT  9  -42.824807273820     -3.553E-14 1.001E-15 0.000E+00
 ETOT 10  -42.824807273820      7.105E-15 8.723E-18 0.000E+00
 ETOT 11  -42.824807273820      0.000E+00 4.904E-19 0.000E+00
 ETOT 12  -42.824807273820     -1.421E-14 8.986E-21 0.000E+00

 At SCF step   12   max residual=  8.99E-21 < tolwfr=  1.00E-20 =>converged.

 ----iterations are completed or convergence reached----

 dfpt_looppert: DFPT cycle converged with prtwf=-1. Will skip output of the 1st-order WFK file.
 dfpt_looppert : ek2=    4.1984295446E+01
          f-sum rule ratio=    1.0717579189E+00
 prteigrs : about to open file /scratch/users/j/a/jabreu/flow_simple_11atoms/flow/w326/t1/tmpdata/tmp_1WF1_EIG
 Expectation of eigenvalue derivatives (hartree) for nkpt=   1  k points:
  (in case of degenerate eigenvalues, averaged derivative)
 kpt#   1, nband= 65, wtk=  1.00000, kpt=  0.0000  0.0000  0.0000 (reduced coord)
  -0.00000    0.00000    0.00000   -0.00000   -0.00000   -0.00000   -0.00000   -0.00000
  -0.00000    0.00000    0.00000    0.00000   -0.00000   -0.00000   -0.00000   -0.00000
   0.00000    0.00000    0.00000   -0.00000   -0.00000   -0.00000    0.00000   -0.00000
   0.00000   -0.00000    0.00000    0.00000   -0.00000    0.00000   -0.00000    0.00000
  -0.00000   -0.00000   -0.00000    0.00000   -0.00000   -0.00000   -0.00000    0.00000
   0.00000   -0.00000    0.00000    0.00000    0.00000    0.00000   -0.00000    0.00000
  -0.00000    0.00000    0.00000    0.00000   -0.00000   -0.00000   -0.00000    0.00000
  -0.00000   -0.00000   -0.00000   -0.00000   -0.00000   -0.00000    0.00000    0.00002
  -0.00000

 Eight components of 2nd-order total energy (hartree) are
 1,2,3: 0th-order hamiltonian combined with 1st-order wavefunctions
     kin0=   4.70301359E+01 eigvalue=   8.06284687E+00  local=  -1.86019054E+01
 4,5,6: 1st-order hamiltonian combined with 1st and 0th-order wfs
     kin1=  -4.49970011E+01  Hartree=   0.00000000E+00     xc=   0.00000000E+00
 7,8,9: eventually, occupation + non-local contributions
    edocc=   4.22412114E+00     enl0=   2.10960872E+00   enl1=  -4.06526134E+01
 1-9 gives the relaxation energy (to be shifted if some occ is /=2.0)
   erelax=  -4.28248073E+01
  No Ewald or frozen-wf contrib.: the relaxation energy is the total one
 2DEtotal=   -0.4282480727E+02 Ha. Also 2DEtotal=   -0.116532226946E+04 eV
    (  non-var. 2DEtotal :   -4.2824807274E+01 Ha)

 CALCULATION OF EFFECTIVE MASSES
 NOTE : Additional infos (eff. mass eigenvalues, eigenvectors and, if degenerate, average mass) are available in stdout.

 K-point ( 0.000, 0.000, 0.000) | band =    56
 Effective mass tensor:
            -13.6957348211              0.0000035092              0.0000001256
              0.0000035092             -0.2138611933             -0.0000037539
              0.0000001256             -0.0000037539             -1.5924219014
 Effective mass tensor eigenvalues:
            -13.6957348212             -1.5924219014             -0.2138611932
 Angular average effective mass 1/(<1/m>)=  -0.5579402482
 Angular average effective mass for Frohlich model (<m**0.5>)**2=  -0.9913534802
 Effective masses along directions: (cart. coord. / red. coord. -> eff. mass)
    1:   1.000000  0.000000  0.000000 /   1.000000  0.000000  0.000000 -> -13.6957348211
    2:   0.000000  1.000000  0.000000 /   0.000000  1.000000  0.000000 ->  -0.2138611932
    3:   0.000000  0.000000  1.000000 /   0.000000  0.000000  1.000000 ->  -1.5924219013
    4:   0.577350  0.577350  0.577350 /   0.374108  0.630387  0.680188 ->  -0.5579422859
    5:   0.000000  0.707107  0.707107 /   0.000000  0.679747  0.733447 ->  -0.3770822686
    6:   0.707107  0.000000  0.707107 /   0.481924  0.000000  0.876213 ->  -2.8531088635
    7:   0.707107  0.707107  0.000000 /   0.510354  0.859965  0.000000 ->  -0.4211459068

 K-point ( 0.000, 0.000, 0.000) | band =    57
 Effective mass tensor:
              0.2291222627             -0.0000001237             -0.0000001984
             -0.0000001237              0.2181758166             -0.0000000030
             -0.0000001984             -0.0000000030              0.2231719638
 Effective mass tensor eigenvalues:
              0.2181758166              0.2231719638              0.2291222627
 Angular average effective mass 1/(<1/m>)=   0.2234006020
 Angular average effective mass for Frohlich model (<m**0.5>)**2=   0.2234273957
 Effective masses along directions: (cart. coord. / red. coord. -> eff. mass)
    1:   1.000000  0.000000  0.000000 /   1.000000  0.000000  0.000000 ->   0.2291222627
    2:   0.000000  1.000000  0.000000 /   0.000000  1.000000  0.000000 ->   0.2181758166
    3:   0.000000  0.000000  1.000000 /   0.000000  0.000000  1.000000 ->   0.2231719638
    4:   0.577350  0.577350  0.577350 /   0.374108  0.630387  0.680188 ->   0.2234003885
    5:   0.000000  0.707107  0.707107 /   0.000000  0.679747  0.733447 ->   0.2206456085
    6:   0.707107  0.000000  0.707107 /   0.481924  0.000000  0.876213 ->   0.2261077744
    7:   0.707107  0.707107  0.000000 /   0.510354  0.859965  0.000000 ->   0.2235149733

 END OF EFFECTIVE MASSES SECTION

 ---- first-order wavefunction calculations are completed ----

 Total localisation tensor (bohr^2) in cartesian coordinates
  WARNING : still subject to testing - especially symmetries.
      direction              matrix element
   alpha     beta       real part   imaginary part
     1        1       1.3268692496    0.0000000000
     1        2       0.0000000000    0.0000000000
     1        3       0.0000000000    0.0000000000
     2        1       0.0000000000    0.0000000000
     2        2       0.9114437011    0.0000000000
     2        3       0.0000000000    0.0000000000
     3        1       0.0000000000    0.0000000000
     3        2       0.0000000000    0.0000000000
     3        3       1.0241601101    0.0000000000

 respfn : d/dk was computed, but no 2DTE, so no DDB output.

== END DATASET(S) ==============================================================

 -outvars: echo values of variables after computation  --------
            acell      1.0000000000E+00  1.0000000000E+00  1.0000000000E+00 Bohr
              amu      2.29897680E+01  6.94100000E+00  7.89600000E+01
             ecut      4.40000000E+01 Hartree
           etotal     -4.2824807274E+01
            fcart      0.0000000000E+00  0.0000000000E+00  0.0000000000E+00
                       0.0000000000E+00  0.0000000000E+00  0.0000000000E+00
                       0.0000000000E+00  0.0000000000E+00  0.0000000000E+00
                       0.0000000000E+00  0.0000000000E+00  0.0000000000E+00
                       0.0000000000E+00  0.0000000000E+00  0.0000000000E+00
                       0.0000000000E+00  0.0000000000E+00  0.0000000000E+00
                       0.0000000000E+00  0.0000000000E+00  0.0000000000E+00
                       0.0000000000E+00  0.0000000000E+00  0.0000000000E+00
                       0.0000000000E+00  0.0000000000E+00  0.0000000000E+00
                       0.0000000000E+00  0.0000000000E+00  0.0000000000E+00
                       0.0000000000E+00  0.0000000000E+00  0.0000000000E+00
                       0.0000000000E+00  0.0000000000E+00  0.0000000000E+00
-          fftalg         512
           irdden           1
           irdwfk           1
           istwfk        1
              ixc     -116133
           kptopt           0
P           mkmem           1
P          mkqmem           1
P          mk1mem           1
            natom          12
            nband          65
           nbdbuf           4
            ngfft          48      90      90
             nkpt           1
            nstep        2000
             nsym           8
           ntypat           3
              occ      2.000000  2.000000  2.000000  2.000000  2.000000  2.000000
                       2.000000  2.000000  2.000000  2.000000  2.000000  2.000000
                       2.000000  2.000000  2.000000  2.000000  2.000000  2.000000
                       2.000000  2.000000  2.000000  2.000000  2.000000  2.000000
                       2.000000  2.000000  2.000000  2.000000  2.000000  2.000000
                       2.000000  2.000000  2.000000  2.000000  2.000000  2.000000
                       2.000000  2.000000  2.000000  2.000000  2.000000  2.000000
                       2.000000  2.000000  2.000000  2.000000  2.000000  2.000000
                       2.000000  2.000000  2.000000  2.000000  2.000000  2.000000
                       2.000000  2.000000  0.000000  0.000000  0.000000  0.000000
                       0.000000  0.000000  0.000000  0.000000  0.000000
        optdriver           1
            prtwf          -1
            rfdir           1       1       1
           rfelfd           2
            rprim      7.9823205024E+00  0.0000000000E+00  0.0000000000E+00
                       0.0000000000E+00  1.3450507681E+01  0.0000000000E+00
                       0.0000000000E+00  0.0000000000E+00  1.4513108523E+01
          spgroup          62
           strten      0.0000000000E+00  0.0000000000E+00  0.0000000000E+00
                       0.0000000000E+00  0.0000000000E+00  0.0000000000E+00
           symrel      1  0  0   0  1  0   0  0  1      -1  0  0   0 -1  0   0  0 -1
                      -1  0  0   0  1  0   0  0 -1       1  0  0   0 -1  0   0  0  1
                      -1  0  0   0 -1  0   0  0  1       1  0  0   0  1  0   0  0 -1
                       1  0  0   0 -1  0   0  0 -1      -1  0  0   0  1  0   0  0  1
            tnons      0.0000000  0.0000000  0.0000000     0.0000000  0.0000000  0.0000000
                       0.5000000  0.5000000  0.5000000     0.5000000  0.5000000  0.5000000
                       0.0000000  0.5000000  0.5000000     0.0000000  0.5000000  0.5000000
                       0.5000000  0.0000000  0.0000000     0.5000000  0.0000000  0.0000000
           tolwfr      1.00000000E-20
            typat      1  1  1  1  2  2  2  2  3  3  3  3
           useylm           1
           xangst      3.1680465611E+00  3.4583063945E+00  2.4403603880E+00
                       1.0560155204E+00  3.6593957144E+00  5.2396458684E+00
                       3.1680465611E+00  7.0171574489E+00  1.3996427402E+00
                       1.0560155204E+00  1.0054465999E-01  6.2803635162E+00
                       3.1680465611E+00  2.5412545370E+00  7.1340960517E+00
                       1.0560155204E+00  4.5764475719E+00  5.4591020472E-01
                       3.1680465611E+00  6.1001055915E+00  4.3859133329E+00
                       1.0560155204E+00  1.0175965174E+00  3.2940929235E+00
                       3.1680465611E+00  5.1331799954E+00  6.8482692589E+00
                       1.0560155204E+00  1.9845221135E+00  8.3173699757E-01
                       3.1680465611E+00  1.5743289410E+00  4.6717401258E+00
                       1.0560155204E+00  5.5433731679E+00  3.0082661306E+00
            xcart      5.9867403768E+00  6.5352519691E+00  4.6116127989E+00
                       1.9955801256E+00  6.9152557122E+00  9.9014957246E+00
                       5.9867403768E+00  1.3260505810E+01  2.6449414629E+00
                       1.9955801256E+00  1.9000187151E-01  1.1868167061E+01
                       5.9867403768E+00  4.8022751090E+00  1.3481487743E+01
                       1.9955801256E+00  8.6482325723E+00  1.0316207801E+00
                       5.9867403768E+00  1.1527528950E+01  8.2881750418E+00
                       1.9955801256E+00  1.9229787317E+00  6.2249334817E+00
                       5.9867403768E+00  9.7003043821E+00  1.2941353384E+01
                       1.9955801256E+00  3.7502032992E+00  1.5717551400E+00
                       5.9867403768E+00  2.9750505415E+00  8.8283094017E+00
                       1.9955801256E+00  1.0475457140E+01  5.6847991218E+00
             xred      7.5000000000E-01  4.8587400000E-01  3.1775500000E-01
                       2.5000000000E-01  5.1412600000E-01  6.8224500000E-01
                       7.5000000000E-01  9.8587400000E-01  1.8224500000E-01
                       2.5000000000E-01  1.4126000000E-02  8.1775500000E-01
                       7.5000000000E-01  3.5703300000E-01  9.2891800000E-01
                       2.5000000000E-01  6.4296700000E-01  7.1082000000E-02
                       7.5000000000E-01  8.5703300000E-01  5.7108200000E-01
                       2.5000000000E-01  1.4296700000E-01  4.2891800000E-01
                       7.5000000000E-01  7.2118500000E-01  8.9170100000E-01
                       2.5000000000E-01  2.7881500000E-01  1.0829900000E-01
                       7.5000000000E-01  2.2118500000E-01  6.0829900000E-01
                       2.5000000000E-01  7.7881500000E-01  3.9170100000E-01
            znucl       11.00000    3.00000   34.00000

- Timing analysis has been suppressed with timopt=0

 Suggested references for the acknowledgment of ABINIT usage.

 Calculation completed.
.Delivered   2 WARNINGs and   5 COMMENTs to log file.