.Version 9.5.2 of ABINIT

 ABINIT is a project of the Universite Catholique de Louvain,
 Corning Inc. and other collaborators, see ~abinit/doc/developers/contributors.txt .
 acknowledgments of the ABINIT effort.

.Starting date : Mon 31 May 2021.
- ( at 22h57 )

- input  file    -> /scratch/users/j/a/jabreu/flow_simple_11atoms/flow/w391/t1/run.abi
- output file    -> /scratch/users/j/a/jabreu/flow_simple_11atoms/flow/w391/t1/run.abo
- root for input  files -> /scratch/users/j/a/jabreu/flow_simple_11atoms/flow/w391/t1/indata/in
- root for output files -> /scratch/users/j/a/jabreu/flow_simple_11atoms/flow/w391/t1/outdata/out

 Symmetries : space group P-4 2 c (#112); Bravais tP (primitive tetrag.)
     intxc =       0      iscf =       7    lmnmax =      18     lnmax =       6
     mgfft =     120  mpssoang =       3    mqgrid =    5696     natom =      12
  nloc_mem =       1    nspden =       1   nspinor =       1    nsppol =       1
      nsym =       8    n1xccc =    2501    ntypat =       3    occopt =       1
   xclevel =       2
-    mband =          59        mffmem =           1         mkmem =           2
-   mkqmem =           2        mk1mem =           2           mpw =       29116
      nfft =      491520          nkpt =           2
  Rough estimation (10% accuracy) of disk space for files :

------------- Echo of variables that govern the present computation ------------
-
- outvars: echo of selected default values
-   iomode0 =  0 , fftalg0 =512 , wfoptalg0 =  0
-
- outvars: echo of global parameters not present in the input file
-  max_nthreads =    0
-
 -outvars: echo values of preprocessed input variables --------
            acell      1.0000000000E+00  1.0000000000E+00  1.0000000000E+00 Bohr
              amu      2.69815390E+01  6.35460000E+01  3.54527000E+01
             ecut      4.60000000E+01 Hartree
-          fftalg         512
           irdden           1
           irdwfk           1
           istwfk        1    1
              ixc     -116133
              kpt      5.00000000E-01  5.00000000E-01  0.00000000E+00
                       0.00000000E+00  0.00000000E+00  0.00000000E+00
           kptopt           0
P           mkmem           2
P          mkqmem           2
P          mk1mem           2
            natom          12
            nband          59
           nbdbuf           4
            ngfft          64      64     120
             nkpt           2
            nstep        2000
             nsym           8
           ntypat           3
              occ      2.000000  2.000000  2.000000  2.000000  2.000000  2.000000
                       2.000000  2.000000  2.000000  2.000000  2.000000  2.000000
                       2.000000  2.000000  2.000000  2.000000  2.000000  2.000000
                       2.000000  2.000000  2.000000  2.000000  2.000000  2.000000
                       2.000000  2.000000  2.000000  2.000000  2.000000  2.000000
                       2.000000  2.000000  2.000000  2.000000  2.000000  2.000000
                       2.000000  2.000000  2.000000  2.000000  2.000000  2.000000
                       2.000000  2.000000  2.000000  2.000000  2.000000  2.000000
                       2.000000  2.000000  0.000000  0.000000  0.000000  0.000000
                       0.000000  0.000000  0.000000  0.000000  0.000000
        optdriver           1
            prtwf          -1
            rfdir           1       1       1
           rfelfd           2
            rprim      1.0227659220E+01  0.0000000000E+00  0.0000000000E+00
                       0.0000000000E+00  1.0227659220E+01  0.0000000000E+00
                       0.0000000000E+00  0.0000000000E+00  1.8654229598E+01
          spgroup         112
           symrel      1  0  0   0  1  0   0  0  1      -1  0  0   0  1  0   0  0 -1
                      -1  0  0   0 -1  0   0  0  1       1  0  0   0 -1  0   0  0 -1
                       0  1  0   1  0  0   0  0  1       0 -1  0   1  0  0   0  0 -1
                       0 -1  0  -1  0  0   0  0  1       0  1  0  -1  0  0   0  0 -1
            tnons      0.0000000  0.0000000  0.0000000     0.0000000  0.0000000  0.5000000
                       0.0000000  0.0000000  0.0000000     0.0000000  0.0000000  0.5000000
                       0.0000000  0.0000000  0.5000000     0.0000000  0.0000000  0.0000000
                       0.0000000  0.0000000  0.5000000     0.0000000  0.0000000  0.0000000
           tolwfr      1.00000000E-20
            typat      1  1  2  2  3  3  3  3  3  3  3  3
           useylm           1
              wtk        0.50000    0.50000
           xangst      0.0000000000E+00  2.7061220782E+00  2.4678482867E+00
                       2.7061220782E+00  0.0000000000E+00  7.4035448601E+00
                       0.0000000000E+00  0.0000000000E+00  0.0000000000E+00
                       0.0000000000E+00  0.0000000000E+00  4.9356965734E+00
                       3.9573842169E+00  4.1475867133E+00  8.6276568387E+00
                       1.4548599394E+00  1.2646574430E+00  8.6276568387E+00
                       4.1475867133E+00  3.9573842169E+00  3.6919602653E+00
                       3.9573842169E+00  1.2646574430E+00  6.1794328816E+00
                       1.4548599394E+00  4.1475867133E+00  6.1794328816E+00
                       4.1475867133E+00  1.4548599394E+00  1.2437363081E+00
                       1.2646574430E+00  3.9573842169E+00  1.2437363081E+00
                       1.2646574430E+00  1.4548599394E+00  3.6919602653E+00
            xcart      0.0000000000E+00  5.1138296099E+00  4.6635573994E+00
                       5.1138296099E+00  0.0000000000E+00  1.3990672198E+01
                       0.0000000000E+00  0.0000000000E+00  0.0000000000E+00
                       0.0000000000E+00  0.0000000000E+00  9.3271147988E+00
                       7.4783723726E+00  7.8378030005E+00  1.6303908594E+01
                       2.7492868472E+00  2.3898562193E+00  1.6303908594E+01
                       7.8378030005E+00  7.4783723726E+00  6.9767937949E+00
                       7.4783723726E+00  2.3898562193E+00  1.1677435803E+01
                       2.7492868472E+00  7.8378030005E+00  1.1677435803E+01
                       7.8378030005E+00  2.7492868472E+00  2.3503210039E+00
                       2.3898562193E+00  7.4783723726E+00  2.3503210039E+00
                       2.3898562193E+00  2.7492868472E+00  6.9767937949E+00
             xred      0.0000000000E+00  5.0000000000E-01  2.5000000000E-01
                       5.0000000000E-01  0.0000000000E+00  7.5000000000E-01
                       0.0000000000E+00  0.0000000000E+00  0.0000000000E+00
                       0.0000000000E+00  0.0000000000E+00  5.0000000000E-01
                       7.3119100000E-01  7.6633400000E-01  8.7400600000E-01
                       2.6880900000E-01  2.3366600000E-01  8.7400600000E-01
                       7.6633400000E-01  7.3119100000E-01  3.7400600000E-01
                       7.3119100000E-01  2.3366600000E-01  6.2599400000E-01
                       2.6880900000E-01  7.6633400000E-01  6.2599400000E-01
                       7.6633400000E-01  2.6880900000E-01  1.2599400000E-01
                       2.3366600000E-01  7.3119100000E-01  1.2599400000E-01
                       2.3366600000E-01  2.6880900000E-01  3.7400600000E-01
            znucl       13.00000   29.00000   17.00000

 chkinp: Checking input parameters for consistency.

== DATASET  1 ==================================================================
-   mpi_nproc: 1, omp_nthreads: -1 (-1 if OMP is not activated)

--- !DatasetInfo
iteration_state: {dtset: 1, }
dimensions: {natom: 12, nkpt: 2, mband: 59, nsppol: 1, nspinor: 1, nspden: 1, mpw: 29116, }
cutoff_energies: {ecut:  46.0, pawecutdg:  -1.0, }
electrons: {nelect:   1.00000000E+02, charge:   0.00000000E+00, occopt:   1.00000000E+00, tsmear:   1.00000000E-02, }
meta: {optdriver: 1, rfelfd: 2, }
...

 Real(R)+Recip(G) space primitive vectors, cartesian coordinates (Bohr,Bohr^-1):
 R(1)= 10.2276592  0.0000000  0.0000000  G(1)=  0.0977741  0.0000000  0.0000000
 R(2)=  0.0000000 10.2276592  0.0000000  G(2)=  0.0000000  0.0977741  0.0000000
 R(3)=  0.0000000  0.0000000 18.6542296  G(3)=  0.0000000  0.0000000  0.0536071
 Unit cell volume ucvol=  1.9513259E+03 bohr^3
 Angles (23,13,12)=  9.00000000E+01  9.00000000E+01  9.00000000E+01 degrees

 getcut: wavevector=  0.0000  0.0000  0.0000  ngfft=  64  64 120
         ecut(hartree)=     46.000   => boxcut(ratio)=   2.04956

--- Pseudopotential description ------------------------------------------------
- pspini: atom type   1  psp file is /scratch/users/j/a/jabreu/pseudos/PBEsol/Al.psp8
- pspatm: opening atomic psp file    /scratch/users/j/a/jabreu/pseudos/PBEsol/Al.psp8
- Al    ONCVPSP-3.3.0  r_core=   1.76802   1.76802   1.70587
- 13.00000   3.00000    180112                znucl, zion, pspdat
    8 -116133    2    4       600   0.00000   pspcod,pspxc,lmax,lloc,mmax,r2well
    5.99000000000000    5.00000000000000    0.00000000000000   rchrg,fchrg,qchrg
     nproj     2     2     2
     extension_switch     1
  pspatm : epsatm=    0.68509324
         --- l  ekb(1:nproj) -->
             0    5.834965    0.726662
             1    6.225605    0.924840
             2   -2.432733   -0.548689
 pspatm: atomic psp has been read  and splines computed

- pspini: atom type   2  psp file is /scratch/users/j/a/jabreu/pseudos/PBEsol/Cu.psp8
- pspatm: opening atomic psp file    /scratch/users/j/a/jabreu/pseudos/PBEsol/Cu.psp8
- Cu    ONCVPSP-3.3.0  r_core=   1.26204   1.45626   1.76249
- 29.00000  19.00000    180112                znucl, zion, pspdat
    8 -116133    2    4       600   0.00000   pspcod,pspxc,lmax,lloc,mmax,r2well
    5.99000000000000    3.50000000000000    0.00000000000000   rchrg,fchrg,qchrg
     nproj     2     2     2
     extension_switch     1
  pspatm : epsatm=   21.63488701
         --- l  ekb(1:nproj) -->
             0    5.008230   -0.401634
             1   -3.496700   -0.765945
             2   -6.895851   -2.521180
 pspatm: atomic psp has been read  and splines computed

- pspini: atom type   3  psp file is /scratch/users/j/a/jabreu/pseudos/PBEsol/Cl.psp8
- pspatm: opening atomic psp file    /scratch/users/j/a/jabreu/pseudos/PBEsol/Cl.psp8
- Cl    ONCVPSP-3.3.0  r_core=   1.56009   1.35202   1.75774
- 17.00000   7.00000    180112                znucl, zion, pspdat
    8 -116133    2    4       600   0.00000   pspcod,pspxc,lmax,lloc,mmax,r2well
    5.99000000000000    8.00000000000000    0.00000000000000   rchrg,fchrg,qchrg
     nproj     2     2     2
     extension_switch     1
  pspatm : epsatm=    8.95520722
         --- l  ekb(1:nproj) -->
             0    8.193503    0.707970
             1    3.869736    1.114731
             2   -2.915303   -0.810552
 pspatm: atomic psp has been read  and splines computed

   1.16281618E+04                                ecore*ucvol(ha*bohr**3)

 ==>  initialize data related to q vector <==

 The list of irreducible perturbations for this q vector is:
    1)    idir= 1    ipert=  13
    2)    idir= 2    ipert=  13
    3)    idir= 3    ipert=  13

[...]
  -0.00000   -0.00000   -0.00000   -0.00000    0.00000    0.00000    0.00000    0.00000
   0.00000    0.00000   -0.00000    0.00000   -0.00000   -0.00000   -0.00000   -0.00000
  -0.00000   -0.00000    0.00000    0.00000    0.00000    0.00000    0.00000    0.00000
  -0.00000    0.00000   -0.00000   -0.00000   -0.00000   -0.00000   -0.00000    0.00000
   0.00000   -0.00000   -0.00000    0.00000   -0.00000   -0.00000   -0.00000   -0.00000
   0.00000   -0.00000    0.00000   -0.00000   -0.00000    0.00000    0.00000    0.00000
   0.00000   -0.00000    0.00000   -0.00000   -0.00000    0.00000   -0.00000   -0.00000
   0.00000    0.00000    0.00000
 prteigrs : prtvol=0 or 1, do not print more k-points.

 Eight components of 2nd-order total energy (hartree) are
 1,2,3: 0th-order hamiltonian combined with 1st-order wavefunctions
     kin0=   6.00666039E+01 eigvalue=   1.50191649E+00  local=  -2.96877305E+01
 4,5,6: 1st-order hamiltonian combined with 1st and 0th-order wfs
     kin1=  -7.81384072E+01  Hartree=   0.00000000E+00     xc=   0.00000000E+00
 7,8,9: eventually, occupation + non-local contributions
    edocc=   7.66901142E+00     enl0=  -3.88692126E-02   enl1=  -8.83457163E-01
 1-9 gives the relaxation energy (to be shifted if some occ is /=2.0)
   erelax=  -3.95109322E+01
  No Ewald or frozen-wf contrib.: the relaxation energy is the total one
 2DEtotal=   -0.3951093217E+02 Ha. Also 2DEtotal=   -0.107514714201E+04 eV
    (  non-var. 2DEtotal :   -3.9510932172E+01 Ha)

 Perturbation wavevector (in red.coord.)   0.000000  0.000000  0.000000
 Perturbation : derivative vs k along direction   2
 The set of symmetries contains only one element for this perturbation.
 symkpt : not enough symmetry to change the number of k points.

[...]

 Perturbation wavevector (in red.coord.)   0.000000  0.000000  0.000000
 Perturbation : derivative vs k along direction   3
 The set of symmetries contains only one element for this perturbation.
 symkpt : not enough symmetry to change the number of k points.

 Initialisation of the first-order wave-functions :
  ireadwf=   0

--- !BeginCycle
iteration_state: {dtset: 1, }
solver: {iscf: 7, nstep: 2000, nline: 4, wfoptalg: 0, }
tolerances: {tolwfr: 1.00E-20, }
...

     iter   2DEtotal(Ha)        deltaE(Ha) residm    vres2
-ETOT  1  -11.520892272295     -1.152E+01 5.436E-02 0.000E+00
 ETOT  2  -11.606064146445     -8.517E-02 3.470E-03 0.000E+00
 ETOT  3  -11.610219915732     -4.156E-03 3.793E-04 0.000E+00
 ETOT  4  -11.610534794719     -3.149E-04 4.193E-05 0.000E+00
 ETOT  5  -11.610562234027     -2.744E-05 8.560E-06 0.000E+00
 ETOT  6  -11.610564809777     -2.576E-06 1.133E-06 0.000E+00
 ETOT  7  -11.610565066758     -2.570E-07 2.004E-07 0.000E+00
 ETOT  8  -11.610565093621     -2.686E-08 3.381E-08 0.000E+00
 ETOT  9  -11.610565096546     -2.925E-09 5.264E-09 0.000E+00
 ETOT 10  -11.610565096874     -3.284E-10 1.097E-09 0.000E+00
 ETOT 11  -11.610565096912     -3.797E-11 1.725E-10 0.000E+00
 ETOT 12  -11.610565096917     -4.471E-12 3.959E-11 0.000E+00
 ETOT 13  -11.610565096917     -5.329E-13 6.446E-12 0.000E+00
 ETOT 14  -11.610565096917     -6.040E-14 1.502E-12 0.000E+00
 ETOT 15  -11.610565096917     -1.776E-14 2.481E-13 0.000E+00
 ETOT 16  -11.610565096917      1.776E-15 5.802E-14 0.000E+00
 ETOT 17  -11.610565096917      1.776E-15 9.617E-15 0.000E+00
 ETOT 18  -11.610565096917      3.553E-15 2.256E-15 0.000E+00
 ETOT 19  -11.610565096917      0.000E+00 3.745E-16 0.000E+00
 ETOT 20  -11.610565096917     -7.105E-15 8.804E-17 0.000E+00
 ETOT 21  -11.610565096917      1.776E-15 1.464E-17 0.000E+00
 ETOT 22  -11.610565096917      1.776E-15 3.444E-18 0.000E+00
 ETOT 23  -11.610565096917      3.553E-15 5.738E-19 0.000E+00
 ETOT 24  -11.610565096917     -3.553E-15 1.350E-19 0.000E+00
 ETOT 25  -11.610565096917      3.553E-15 2.255E-20 0.000E+00
 ETOT 26  -11.610565096917      0.000E+00 9.794E-21 0.000E+00

 At SCF step   26   max residual=  9.79E-21 < tolwfr=  1.00E-20 =>converged.

 ----iterations are completed or convergence reached----

 dfpt_looppert: DFPT cycle converged with prtwf=-1. Will skip output of the 1st-order WFK file.
 dfpt_looppert : ek2=    2.2690031395E+01
          f-sum rule ratio=    1.0095992788E+00
 prteigrs : about to open file /scratch/users/j/a/jabreu/flow_simple_11atoms/flow/w391/t1/tmpdata/tmp_1WF1_EIG
 Expectation of eigenvalue derivatives (hartree) for nkpt=   2  k points:
  (in case of degenerate eigenvalues, averaged derivative)
 kpt#   1, nband= 59, wtk=  0.50000, kpt=  0.5000  0.5000  0.0000 (reduced coord)
  -0.00000   -0.00000   -0.00000   -0.00000    0.00000    0.00000   -0.00000   -0.00000
   0.00000    0.00000   -0.00000    0.00000   -0.00000    0.00000    0.00000    0.00000
  -0.00000   -0.00000    0.00000   -0.00000   -0.00000    0.00000   -0.00000   -0.00000
   0.00000   -0.00000    0.00000   -0.00000   -0.00000   -0.00000   -0.00000    0.00000
  -0.00000    0.00000    0.00000   -0.00000   -0.00000    0.00000    0.00000    0.00000
  -0.00000   -0.00000    0.00000    0.00000   -0.00000    0.00000    0.00000    0.00000
   0.00000   -0.00000    0.00000   -0.00000   -0.00000   -0.00000   -0.00000   -0.00000
  -0.00000    0.00000   -0.00000
 prteigrs : prtvol=0 or 1, do not print more k-points.

 Eight components of 2nd-order total energy (hartree) are
 1,2,3: 0th-order hamiltonian combined with 1st-order wavefunctions
     kin0=   1.83551182E+01 eigvalue=   5.07434449E-01  local=  -9.16601356E+00
 4,5,6: 1st-order hamiltonian combined with 1st and 0th-order wfs
     kin1=  -2.29078393E+01  Hartree=   0.00000000E+00     xc=   0.00000000E+00
 7,8,9: eventually, occupation + non-local contributions
    edocc=   1.80417562E+00     enl0=   1.09850418E-01   enl1=  -3.13290861E-01
 1-9 gives the relaxation energy (to be shifted if some occ is /=2.0)
   erelax=  -1.16105651E+01
  No Ewald or frozen-wf contrib.: the relaxation energy is the total one
 2DEtotal=   -0.1161056510E+02 Ha. Also 2DEtotal=   -0.315939543684E+03 eV
    (  non-var. 2DEtotal :   -1.1610565097E+01 Ha)

 CALCULATION OF EFFECTIVE MASSES
 NOTE : Additional infos (eff. mass eigenvalues, eigenvectors and, if degenerate, average mass) are available in stdout.

 K-point ( 0.500, 0.500, 0.000) | band =    50
 Effective mass tensor:
             -4.4985623064              0.0000000004             -0.0000000002
              0.0000000004             -4.4985623055             -0.0000000005
             -0.0000000002             -0.0000000005             -1.2977517721
 Effective mass tensor eigenvalues:
             -4.4985623065             -4.4985623054             -1.2977517721
 Angular average effective mass 1/(<1/m>)=  -2.4688312715
 Angular average effective mass for Frohlich model (<m**0.5>)**2=  -2.7739475449
 Effective masses along directions: (cart. coord. / red. coord. -> eff. mass)
    1:   1.000000  0.000000  0.000000 /   1.000000  0.000000  0.000000 ->  -4.4985623064
    2:   0.000000  1.000000  0.000000 /   0.000000  1.000000  0.000000 ->  -4.4985623055
    3:   0.000000  0.000000  1.000000 /   0.000000  0.000000  1.000000 ->  -1.2977517721
    4:   0.577350  0.577350  0.577350 /   0.433286  0.433286  0.790270 ->  -2.4688312720
    5:   0.000000  0.707107  0.707107 /   0.000000  0.480757  0.876854 ->  -2.0143895333
    6:   0.707107  0.000000  0.707107 /   0.480757  0.000000  0.876854 ->  -2.0143895332
    7:   0.707107  0.707107  0.000000 /   0.707107  0.707107  0.000000 ->  -4.4985623056

 K-point ( 0.000, 0.000, 0.000) | band =    51
 Effective mass tensor:
              0.4085858443             -0.0000000089              0.0000000016
             -0.0000000089              0.4085858138             -0.0000000015
              0.0000000016             -0.0000000015              0.3743057653
 Effective mass tensor eigenvalues:
              0.3743057653              0.4085858114              0.4085858467
 Angular average effective mass 1/(<1/m>)=   0.3964821476
 Angular average effective mass for Frohlich model (<m**0.5>)**2=   0.3966882096
 Effective masses along directions: (cart. coord. / red. coord. -> eff. mass)
    1:   1.000000  0.000000  0.000000 /   1.000000  0.000000  0.000000 ->   0.4085858443
    2:   0.000000  1.000000  0.000000 /   0.000000  1.000000  0.000000 ->   0.4085858138
    3:   0.000000  0.000000  1.000000 /   0.000000  0.000000  1.000000 ->   0.3743057653
    4:   0.577350  0.577350  0.577350 /   0.433286  0.433286  0.790270 ->   0.3964821421
    5:   0.000000  0.707107  0.707107 /   0.000000  0.480757  0.876854 ->   0.3906952871
    6:   0.707107  0.000000  0.707107 /   0.480757  0.000000  0.876854 ->   0.3906953042
    7:   0.707107  0.707107  0.000000 /   0.707107  0.707107  0.000000 ->   0.4085858202

 END OF EFFECTIVE MASSES SECTION

 ---- first-order wavefunction calculations are completed ----

 Total localisation tensor (bohr^2) in cartesian coordinates
  WARNING : still subject to testing - especially symmetries.
      direction              matrix element
   alpha     beta       real part   imaginary part
     1        1       0.8413847844    0.0000000000
     1        2       0.0000000000    0.0000000000
     1        3       0.0000000000    0.0000000000
     2        1       0.0000000000    0.0000000000
     2        2       0.8413864596    0.0000000000
     2        3       0.0000000000    0.0000000000
     3        1       0.0000000000    0.0000000000
     3        2       0.0000000000    0.0000000000
     3        3       0.7979610746    0.0000000000

 respfn : d/dk was computed, but no 2DTE, so no DDB output.

== END DATASET(S) ==============================================================

 -outvars: echo values of variables after computation  --------
            acell      1.0000000000E+00  1.0000000000E+00  1.0000000000E+00 Bohr
              amu      2.69815390E+01  6.35460000E+01  3.54527000E+01
             ecut      4.60000000E+01 Hartree
           etotal     -1.1610565097E+01
            fcart      0.0000000000E+00  0.0000000000E+00  0.0000000000E+00
                       0.0000000000E+00  0.0000000000E+00  0.0000000000E+00
                       0.0000000000E+00  0.0000000000E+00  0.0000000000E+00
                       0.0000000000E+00  0.0000000000E+00  0.0000000000E+00
                       0.0000000000E+00  0.0000000000E+00  0.0000000000E+00
                       0.0000000000E+00  0.0000000000E+00  0.0000000000E+00
                       0.0000000000E+00  0.0000000000E+00  0.0000000000E+00
                       0.0000000000E+00  0.0000000000E+00  0.0000000000E+00
                       0.0000000000E+00  0.0000000000E+00  0.0000000000E+00
                       0.0000000000E+00  0.0000000000E+00  0.0000000000E+00
                       0.0000000000E+00  0.0000000000E+00  0.0000000000E+00
                       0.0000000000E+00  0.0000000000E+00  0.0000000000E+00
-          fftalg         512
           irdden           1
           irdwfk           1
           istwfk        1    1
              ixc     -116133
              kpt      5.00000000E-01  5.00000000E-01  0.00000000E+00
                       0.00000000E+00  0.00000000E+00  0.00000000E+00
           kptopt           0
P           mkmem           2
P          mkqmem           2
P          mk1mem           2
            natom          12
            nband          59
           nbdbuf           4
            ngfft          64      64     120
             nkpt           2
            nstep        2000
             nsym           8
           ntypat           3
              occ      2.000000  2.000000  2.000000  2.000000  2.000000  2.000000
                       2.000000  2.000000  2.000000  2.000000  2.000000  2.000000
                       2.000000  2.000000  2.000000  2.000000  2.000000  2.000000
                       2.000000  2.000000  2.000000  2.000000  2.000000  2.000000
                       2.000000  2.000000  2.000000  2.000000  2.000000  2.000000
                       2.000000  2.000000  2.000000  2.000000  2.000000  2.000000
                       2.000000  2.000000  2.000000  2.000000  2.000000  2.000000
                       2.000000  2.000000  2.000000  2.000000  2.000000  2.000000
                       2.000000  2.000000  0.000000  0.000000  0.000000  0.000000
                       0.000000  0.000000  0.000000  0.000000  0.000000
        optdriver           1
            prtwf          -1
            rfdir           1       1       1
           rfelfd           2
            rprim      1.0227659220E+01  0.0000000000E+00  0.0000000000E+00
                       0.0000000000E+00  1.0227659220E+01  0.0000000000E+00
                       0.0000000000E+00  0.0000000000E+00  1.8654229598E+01
          spgroup         112
           strten      0.0000000000E+00  0.0000000000E+00  0.0000000000E+00
                       0.0000000000E+00  0.0000000000E+00  0.0000000000E+00
           symrel      1  0  0   0  1  0   0  0  1      -1  0  0   0  1  0   0  0 -1
                      -1  0  0   0 -1  0   0  0  1       1  0  0   0 -1  0   0  0 -1
                       0  1  0   1  0  0   0  0  1       0 -1  0   1  0  0   0  0 -1
                       0 -1  0  -1  0  0   0  0  1       0  1  0  -1  0  0   0  0 -1
            tnons      0.0000000  0.0000000  0.0000000     0.0000000  0.0000000  0.5000000
                       0.0000000  0.0000000  0.0000000     0.0000000  0.0000000  0.5000000
                       0.0000000  0.0000000  0.5000000     0.0000000  0.0000000  0.0000000
                       0.0000000  0.0000000  0.5000000     0.0000000  0.0000000  0.0000000
           tolwfr      1.00000000E-20
            typat      1  1  2  2  3  3  3  3  3  3  3  3
           useylm           1
              wtk        0.50000    0.50000
           xangst      0.0000000000E+00  2.7061220782E+00  2.4678482867E+00
                       2.7061220782E+00  0.0000000000E+00  7.4035448601E+00
                       0.0000000000E+00  0.0000000000E+00  0.0000000000E+00
                       0.0000000000E+00  0.0000000000E+00  4.9356965734E+00
                       3.9573842169E+00  4.1475867133E+00  8.6276568387E+00
                       1.4548599394E+00  1.2646574430E+00  8.6276568387E+00
                       4.1475867133E+00  3.9573842169E+00  3.6919602653E+00
                       3.9573842169E+00  1.2646574430E+00  6.1794328816E+00
                       1.4548599394E+00  4.1475867133E+00  6.1794328816E+00
                       4.1475867133E+00  1.4548599394E+00  1.2437363081E+00
                       1.2646574430E+00  3.9573842169E+00  1.2437363081E+00
                       1.2646574430E+00  1.4548599394E+00  3.6919602653E+00
            xcart      0.0000000000E+00  5.1138296099E+00  4.6635573994E+00
                       5.1138296099E+00  0.0000000000E+00  1.3990672198E+01
                       0.0000000000E+00  0.0000000000E+00  0.0000000000E+00
                       0.0000000000E+00  0.0000000000E+00  9.3271147988E+00
                       7.4783723726E+00  7.8378030005E+00  1.6303908594E+01
                       2.7492868472E+00  2.3898562193E+00  1.6303908594E+01
                       7.8378030005E+00  7.4783723726E+00  6.9767937949E+00
                       7.4783723726E+00  2.3898562193E+00  1.1677435803E+01
                       2.7492868472E+00  7.8378030005E+00  1.1677435803E+01
                       7.8378030005E+00  2.7492868472E+00  2.3503210039E+00
                       2.3898562193E+00  7.4783723726E+00  2.3503210039E+00
                       2.3898562193E+00  2.7492868472E+00  6.9767937949E+00
             xred      0.0000000000E+00  5.0000000000E-01  2.5000000000E-01
                       5.0000000000E-01  0.0000000000E+00  7.5000000000E-01
                       0.0000000000E+00  0.0000000000E+00  0.0000000000E+00
                       0.0000000000E+00  0.0000000000E+00  5.0000000000E-01
                       7.3119100000E-01  7.6633400000E-01  8.7400600000E-01
                       2.6880900000E-01  2.3366600000E-01  8.7400600000E-01
                       7.6633400000E-01  7.3119100000E-01  3.7400600000E-01
                       7.3119100000E-01  2.3366600000E-01  6.2599400000E-01
                       2.6880900000E-01  7.6633400000E-01  6.2599400000E-01
                       7.6633400000E-01  2.6880900000E-01  1.2599400000E-01
                       2.3366600000E-01  7.3119100000E-01  1.2599400000E-01
                       2.3366600000E-01  2.6880900000E-01  3.7400600000E-01
            znucl       13.00000   29.00000   17.00000

- Timing analysis has been suppressed with timopt=0

 Suggested references for the acknowledgment of ABINIT usage.

 Calculation completed.
.Delivered   2 WARNINGs and   5 COMMENTs to log file.