.Version 9.5.1 of ABINIT

 ABINIT is a project of the Universite Catholique de Louvain,
 Corning Inc. and other collaborators, see ~abinit/doc/developers/contributors.txt .
 acknowledgments of the ABINIT effort.

.Starting date : Sun 25 Apr 2021.
- ( at 17h18 )

- input  file    -> /scratch/users/j/a/jabreu/flow_simple2/flow/w171/t1/run.abi
- output file    -> /scratch/users/j/a/jabreu/flow_simple2/flow/w171/t1/run.abo
- root for input  files -> /scratch/users/j/a/jabreu/flow_simple2/flow/w171/t1/indata/in
- root for output files -> /scratch/users/j/a/jabreu/flow_simple2/flow/w171/t1/outdata/out

 Symmetries : space group F-4 3 m (#216); Bravais cF (face-center cubic)
     intxc =       0      iscf =       7    lmnmax =      18     lnmax =       6
     mgfft =      54  mpssoang =       3    mqgrid =    3001     natom =       2
  nloc_mem =       1    nspden =       1   nspinor =       1    nsppol =       1
      nsym =      24    n1xccc =    2501    ntypat =       2    occopt =       1
   xclevel =       2
-    mband =          22        mffmem =           1         mkmem =           1
-   mkqmem =           1        mk1mem =           1           mpw =        5817
      nfft =      157464          nkpt =           1
  Rough estimation (10% accuracy) of disk space for files :

------------- Echo of variables that govern the present computation ------------
-
- outvars: echo of selected default values
-   iomode0 =  0 , fftalg0 =512 , wfoptalg0 =  0
-
- outvars: echo of global parameters not present in the input file
-  max_nthreads =    0
-
 -outvars: echo values of preprocessed input variables --------
            acell      1.0000000000E+00  1.0000000000E+00  1.0000000000E+00 Bohr
              amu      1.12411000E+02  3.20660000E+01
             ecut      5.10000000E+01 Hartree
-          fftalg         512
           irdden           1
           irdwfk           1
           istwfk        1
              ixc     -116133
           kptopt           0
P           mkmem           1
P          mkqmem           1
P          mk1mem           1
            natom           2
            nband          22
           nbdbuf           4
            ngfft          54      54      54
             nkpt           1
            nstep         100
             nsym          24
           ntypat           2
              occ      2.000000  2.000000  2.000000  2.000000  2.000000  2.000000
                       2.000000  2.000000  2.000000  2.000000  2.000000  2.000000
                       2.000000  0.000000  0.000000  0.000000  0.000000  0.000000
                       0.000000  0.000000  0.000000  0.000000
        optdriver           1
            prtwf          -1
            rfdir           1       1       1
           rfelfd           2
            rprim      6.7414479423E+00  0.0000000000E+00  3.8921767842E+00
                       2.2471493141E+00  6.3558980733E+00  3.8921767842E+00
                       0.0000000000E+00  0.0000000000E+00  7.7843535684E+00
          spgroup         216
           symrel      1  0  0   0  1  0   0  0  1       0 -1  1   0 -1  0   1 -1  0
                      -1  0  0  -1  0  1  -1  1  0       0  1 -1   1  0 -1   0  0 -1
                      -1  0  0  -1  1  0  -1  0  1       0 -1  1   1 -1  0   0 -1  0
                       1  0  0   0  0  1   0  1  0       0  1 -1   0  0 -1   1  0 -1
                      -1  0  1  -1  1  0  -1  0  0       0 -1  0   1 -1  0   0 -1  1
                       1  0 -1   0  0 -1   0  1 -1       0  1  0   0  0  1   1  0  0
                       1  0 -1   0  1 -1   0  0 -1       0 -1  0   0 -1  1   1 -1  0
                      -1  0  1  -1  0  0  -1  1  0       0  1  0   1  0  0   0  0  1
                       0  0 -1   0  1 -1   1  0 -1       1 -1  0   0 -1  1   0 -1  0
                       0  0  1   1  0  0   0  1  0      -1  1  0  -1  0  0  -1  0  1
                       0  0  1   0  1  0   1  0  0       1 -1  0   0 -1  0   0 -1  1
                       0  0 -1   1  0 -1   0  1 -1      -1  1  0  -1  0  1  -1  0  0
           tolwfr      1.00000000E-20
            typat      1  2
           useylm           1
           xangst      0.0000000000E+00  0.0000000000E+00  0.0000000000E+00
                       1.1891402013E+00  8.4084910013E-01  2.0596512460E+00
            xcart      0.0000000000E+00  0.0000000000E+00  0.0000000000E+00
                       2.2471493141E+00  1.5889745183E+00  3.8921767842E+00
             xred      0.0000000000E+00  0.0000000000E+00  0.0000000000E+00
                       2.5000000000E-01  2.5000000000E-01  2.5000000000E-01
            znucl       48.00000   16.00000

 chkinp: Checking input parameters for consistency.

== DATASET  1 ==================================================================
-   mpi_nproc: 1, omp_nthreads: -1 (-1 if OMP is not activated)

--- !DatasetInfo
iteration_state: {dtset: 1, }
dimensions: {natom: 2, nkpt: 1, mband: 22, nsppol: 1, nspinor: 1, nspden: 1, mpw: 5817, }
cutoff_energies: {ecut:  51.0, pawecutdg:  -1.0, }
electrons: {nelect:   2.60000000E+01, charge:   0.00000000E+00, occopt:   1.00000000E+00, tsmear:   1.00000000E-02, }
meta: {optdriver: 1, rfelfd: 2, }
...

 Real(R)+Recip(G) space primitive vectors, cartesian coordinates (Bohr,Bohr^-1):
 R(1)=  6.7414479  0.0000000  3.8921768  G(1)=  0.1483361 -0.0524447  0.0000000
 R(2)=  2.2471493  6.3558981  3.8921768  G(2)=  0.0000000  0.1573342  0.0000000
 R(3)=  0.0000000  0.0000000  7.7843536  G(3)= -0.0741680 -0.0524447  0.1284628
 Unit cell volume ucvol=  3.3354364E+02 bohr^3
 Angles (23,13,12)=  6.00000000E+01  6.00000000E+01  6.00000000E+01 degrees

 getcut: wavevector=  0.0000  0.0000  0.0000  ngfft=  54  54  54
         ecut(hartree)=     51.000   => boxcut(ratio)=   2.15859

--- Pseudopotential description ------------------------------------------------
- pspini: atom type   1  psp file is /scratch/users/j/a/jabreu/pseudos/PBEsol/Cd.psp8
- pspatm: opening atomic psp file    /scratch/users/j/a/jabreu/pseudos/PBEsol/Cd.psp8
- Cd    ONCVPSP-3.3.0  r_core=   1.25838   1.30423   1.35174
- 48.00000  20.00000    180112                znucl, zion, pspdat
    8 -116133    2    4       600   0.00000   pspcod,pspxc,lmax,lloc,mmax,r2well
    5.99000000000000    6.00000000000000    0.00000000000000   rchrg,fchrg,qchrg
     nproj     2     2     2
     extension_switch     1
  pspatm : epsatm=   23.26728021
         --- l  ekb(1:nproj) -->
             0   63.701523    3.700425
             1    8.703569    1.290373
             2    0.983656   -0.721725
 pspatm: atomic psp has been read  and splines computed

- pspini: atom type   2  psp file is /scratch/users/j/a/jabreu/pseudos/PBEsol/S.psp8
- pspatm: opening atomic psp file    /scratch/users/j/a/jabreu/pseudos/PBEsol/S.psp8
- S     ONCVPSP-3.3.0  r_core=   1.45376   1.45376   1.61851
- 16.00000   6.00000    180112                znucl, zion, pspdat
    8 -116133    2    4       600   0.00000   pspcod,pspxc,lmax,lloc,mmax,r2well
    5.99000000000000    6.00000000000000    0.00000000000000   rchrg,fchrg,qchrg
     nproj     2     2     2
     extension_switch     1
  pspatm : epsatm=    8.71840985
         --- l  ekb(1:nproj) -->
             0    6.834532    0.579453
             1    3.282851    0.896984
             2   -3.496974   -0.974265
 pspatm: atomic psp has been read  and splines computed

   8.31627942E+02                                ecore*ucvol(ha*bohr**3)

-inwffil : will read wavefunctions from disk file /scratch/users/j/a/jabreu/flow_simple2/flow/w171/t1/indata/in_WFK

 ==>  initialize data related to q vector <==

 The list of irreducible perturbations for this q vector is:
    1)    idir= 1    ipert=   3
    2)    idir= 2    ipert=   3
    3)    idir= 3    ipert=   3

 Perturbation wavevector (in red.coord.)   0.000000  0.000000  0.000000
 Perturbation : derivative vs k along direction   1

 dfpt_looppert : COMMENT -
  In a d/dk calculation, iscf is set to -3 automatically.
 The set of symmetries contains only one element for this perturbation.
 symkpt : not enough symmetry to change the number of k points.

[...]

 Initialisation of the first-order wave-functions :
  ireadwf=   0

--- !BeginCycle
iteration_state: {dtset: 1, }
solver: {iscf: 7, nstep: 100, nline: 4, wfoptalg: 0, }
tolerances: {tolwfr: 1.00E-20, }
...

     iter   2DEtotal(Ha)        deltaE(Ha) residm    vres2
-ETOT  1  -45.564624454847     -4.556E+01 7.707E-02 0.000E+00
 ETOT  2  -45.595351857207     -3.073E-02 4.096E-04 0.000E+00
 ETOT  3  -45.595498541683     -1.467E-04 3.117E-06 0.000E+00
 ETOT  4  -45.595499657618     -1.116E-06 9.677E-08 0.000E+00
 ETOT  5  -45.595499667395     -9.777E-09 7.625E-10 0.000E+00
 ETOT  6  -45.595499667485     -8.993E-11 2.552E-11 0.000E+00
 ETOT  7  -45.595499667486     -9.095E-13 2.061E-13 0.000E+00
 ETOT  8  -45.595499667486     -1.350E-13 2.326E-14 0.000E+00
 ETOT  9  -45.595499667486      2.700E-13 7.916E-16 0.000E+00
 ETOT 10  -45.595499667486     -3.553E-13 1.471E-16 0.000E+00
 ETOT 11  -45.595499667486      1.421E-14 4.963E-18 0.000E+00
 ETOT 12  -45.595499667486      1.421E-14 9.452E-19 0.000E+00
 ETOT 13  -45.595499667486      7.105E-15 3.166E-20 0.000E+00
 ETOT 14  -45.595499667486      7.105E-15 9.543E-21 0.000E+00

 At SCF step   14   max residual=  9.54E-21 < tolwfr=  1.00E-20 =>converged.

 ----iterations are completed or convergence reached----

 dfpt_looppert: DFPT cycle converged with prtwf=-1. Will skip output of the 1st-order WFK file.
 dfpt_looppert : ek2=    5.0817024525E+01
          f-sum rule ratio=    1.8501969434E+00
 prteigrs : about to open file /scratch/users/j/a/jabreu/flow_simple2/flow/w171/t1/tmpdata/tmp_1WF1_EIG
 Expectation of eigenvalue derivatives (hartree) for nkpt=   1  k points:
  (in case of degenerate eigenvalues, averaged derivative)
 kpt#   1, nband= 22, wtk=  1.00000, kpt=  0.0000  0.0000  0.0000 (reduced coord)
   0.00000   -0.00000   -0.00000   -0.00000   -0.00000    0.00000    0.00000    0.00000
  -0.00000   -0.00000   -0.00000   -0.00000   -0.00000    0.00000    0.00000    0.00000
   0.00000    0.00000    0.00000    0.00000   -0.00000   -0.00000

 Eight components of 2nd-order total energy (hartree) are
 1,2,3: 0th-order hamiltonian combined with 1st-order wavefunctions
     kin0=   3.21049948E+01 eigvalue=   9.91818088E-01  local=  -1.71053017E+01
 4,5,6: 1st-order hamiltonian combined with 1st and 0th-order wfs
     kin1=  -9.40215034E+01  Hartree=   0.00000000E+00     xc=   0.00000000E+00
 7,8,9: eventually, occupation + non-local contributions
    edocc=   2.81589414E+01     enl0=   1.44504709E+00   enl1=   2.83050411E+00
 1-9 gives the relaxation energy (to be shifted if some occ is /=2.0)
   erelax=  -4.55954997E+01
  No Ewald or frozen-wf contrib.: the relaxation energy is the total one
 2DEtotal=   -0.4559549967E+02 Ha. Also 2DEtotal=   -0.124071664374E+04 eV
    (  non-var. 2DEtotal :   -4.5595499667E+01 Ha)

 Perturbation wavevector (in red.coord.)   0.000000  0.000000  0.000000
 Perturbation : derivative vs k along direction   2
 The set of symmetries contains only one element for this perturbation.
 symkpt : not enough symmetry to change the number of k points.

[...]

 Perturbation wavevector (in red.coord.)   0.000000  0.000000  0.000000
 Perturbation : derivative vs k along direction   3
 The set of symmetries contains only one element for this perturbation.
 symkpt : not enough symmetry to change the number of k points.

-inwffil : will read wavefunctions from disk file /scratch/users/j/a/jabreu/flow_simple2/flow/w171/t1/indata/in_WFK

 Initialisation of the first-order wave-functions :
  ireadwf=   0

--- !BeginCycle
iteration_state: {dtset: 1, }
solver: {iscf: 7, nstep: 100, nline: 4, wfoptalg: 0, }
tolerances: {tolwfr: 1.00E-20, }
...

     iter   2DEtotal(Ha)        deltaE(Ha) residm    vres2
-ETOT  1  -45.560031338645     -4.556E+01 2.549E-01 0.000E+00
 ETOT  2  -45.595287173715     -3.526E-02 6.524E-04 0.000E+00
 ETOT  3  -45.595497679858     -2.105E-04 1.288E-05 0.000E+00
 ETOT  4  -45.595499642443     -1.963E-06 1.457E-07 0.000E+00
 ETOT  5  -45.595499663421     -2.098E-08 1.614E-09 0.000E+00
 ETOT  6  -45.595499663655     -2.343E-10 3.897E-11 0.000E+00
 ETOT  7  -45.595499663658     -2.593E-12 3.488E-13 0.000E+00
 ETOT  8  -45.595499663658      7.816E-14 2.592E-13 0.000E+00
 ETOT  9  -45.595499663658     -2.132E-14 2.165E-15 0.000E+00
 ETOT 10  -45.595499663658      0.000E+00 1.841E-15 0.000E+00
 ETOT 11  -45.595499663658      2.842E-14 1.529E-17 0.000E+00
 ETOT 12  -45.595499663658     -7.105E-15 1.324E-17 0.000E+00
 ETOT 13  -45.595499663658     -7.105E-15 1.100E-19 0.000E+00
 ETOT 14  -45.595499663658      7.105E-15 9.564E-20 0.000E+00
 ETOT 15  -45.595499663658      2.132E-14 8.137E-21 0.000E+00

 At SCF step   15   max residual=  8.14E-21 < tolwfr=  1.00E-20 =>converged.

 ----iterations are completed or convergence reached----

 dfpt_looppert: DFPT cycle converged with prtwf=-1. Will skip output of the 1st-order WFK file.
 dfpt_looppert : ek2=    5.0817024525E+01
          f-sum rule ratio=    1.8501969432E+00
 prteigrs : about to open file /scratch/users/j/a/jabreu/flow_simple2/flow/w171/t1/tmpdata/tmp_1WF1_EIG
 Expectation of eigenvalue derivatives (hartree) for nkpt=   1  k points:
  (in case of degenerate eigenvalues, averaged derivative)
 kpt#   1, nband= 22, wtk=  1.00000, kpt=  0.0000  0.0000  0.0000 (reduced coord)
  -0.00000    0.00000    0.00000    0.00000    0.00000   -0.00000   -0.00000   -0.00000
   0.00000    0.00000    0.00000    0.00000    0.00000    0.00000    0.00000    0.00000
   0.00000    0.00000   -0.00000   -0.00000    0.00000    0.00000

 Eight components of 2nd-order total energy (hartree) are
 1,2,3: 0th-order hamiltonian combined with 1st-order wavefunctions
     kin0=   3.21531580E+01 eigvalue=   9.96500840E-01  local=  -1.71447523E+01
 4,5,6: 1st-order hamiltonian combined with 1st and 0th-order wfs
     kin1=  -9.40215034E+01  Hartree=   0.00000000E+00     xc=   0.00000000E+00
 7,8,9: eventually, occupation + non-local contributions
    edocc=   2.81378831E+01     enl0=   1.45270999E+00   enl1=   2.83050411E+00
 1-9 gives the relaxation energy (to be shifted if some occ is /=2.0)
   erelax=  -4.55954997E+01
  No Ewald or frozen-wf contrib.: the relaxation energy is the total one
 2DEtotal=   -0.4559549966E+02 Ha. Also 2DEtotal=   -0.124071664364E+04 eV
    (  non-var. 2DEtotal :   -4.5595499664E+01 Ha)

 CALCULATION OF EFFECTIVE MASSES
 NOTE : Additional infos (eff. mass eigenvalues, eigenvectors and, if degenerate, average mass) are available in stdout.

 COMMENTS:
 - At k-point ( 0.000, 0.000, 0.000), bands    11 through    13
   are DEGENERATE (effective mass tensor is therefore not defined).
   See Section IIIB Eqs. (67)-(70) and Appendix E of PRB 93 205147 (2016).
 - Angular average effective mass for Frohlich model is to be averaged over degenerate bands. See later.
 - Associated theta integrals calculated with ntheta=   1000 points.

 K-point ( 0.000, 0.000, 0.000) | band =    11
 Transport equivalent effective mass tensor:
             -0.1093397377             -0.0000000000              0.0000000000
             -0.0000000000             -0.1093397377              0.0000000000
              0.0000000000              0.0000000000             -0.1093397377
 Transport equivalent effective mass tensor eigenvalues:
             -0.1093397378             -0.1093397377             -0.1093397377
 Angular average effective mass 1/(<1/m>)=  -0.1076061034
 Angular average effective mass for Frohlich model (<m**0.5>)**2=  -0.1077246666
 Effective masses along directions: (cart. coord. / red. coord. -> eff. mass)
    1:   1.000000  0.000000  0.000000 /   0.948683  0.316228  0.000000 ->  -0.1052001503
    2:   0.000000  1.000000  0.000000 /   0.000000  1.000000  0.000000 ->  -0.1018184318
    3:   0.000000  0.000000  1.000000 /   0.408248  0.408248  0.816497 ->  -0.1054935187
    4:   0.577350  0.577350  0.577350 /   0.585539  0.688047  0.428644 ->  -0.1051237574
    5:   0.000000  0.707107  0.707107 /   0.289489  0.762222  0.578977 ->  -0.1100817656
    6:   0.707107  0.000000  0.707107 /   0.731423  0.422287  0.535439 ->  -0.1053461827
    7:   0.707107  0.707107  0.000000 /   0.616798  0.787122  0.000000 ->  -0.1165186474

[...]

 K-point ( 0.000, 0.000, 0.000) | band =    13
 Transport equivalent effective mass tensor:
             -7.0383504598              0.0000079891              0.0000000015
              0.0000079891             -7.0383490857              0.0000000007
              0.0000000015              0.0000000007             -7.0383440802
 Transport equivalent effective mass tensor eigenvalues:
             -7.0383577913             -7.0383440802             -7.0383417542
 Angular average effective mass 1/(<1/m>)=  -1.5269765003
 Angular average effective mass for Frohlich model (<m**0.5>)**2=  -1.7058054330
 Effective masses along directions: (cart. coord. / red. coord. -> eff. mass)
    1:   1.000000  0.000000  0.000000 /   0.948683  0.316228  0.000000 ->  -1.6072185509
    2:   0.000000  1.000000  0.000000 /   0.000000  1.000000  0.000000 ->  -1.5417171190
    3:   0.000000  0.000000  1.000000 /   0.408248  0.408248  0.816497 ->  -3.2628737972
    4:   0.577350  0.577350  0.577350 /   0.585539  0.688047  0.428644 ->  -1.8636153249
    5:   0.000000  0.707107  0.707107 /   0.289489  0.762222  0.578977 ->  -1.3734922255
    6:   0.707107  0.000000  0.707107 /   0.731423  0.422287  0.535439 ->  -2.3377289905
    7:   0.707107  0.707107  0.000000 /   0.616798  0.787122  0.000000 ->  -0.8111825661

 Angular average effective mass for Frohlich model, averaged over degenerate bands.
 Value of     (<<m**0.5>>)**2 =     7.319811E-01
 Absolute Value of <<m**0.5>> =     8.555589E-01

 K-point ( 0.000, 0.000, 0.000) | band =    14
 Effective mass tensor:
              0.1118510209              0.0000000000             -0.0000000000
              0.0000000000              0.1118510209             -0.0000000000
             -0.0000000000             -0.0000000000              0.1118510209
 Effective mass tensor eigenvalues:
              0.1118510209              0.1118510209              0.1118510209
 Angular average effective mass 1/(<1/m>)=   0.1118510209
 Angular average effective mass for Frohlich model (<m**0.5>)**2=   0.1118510209
 Effective masses along directions: (cart. coord. / red. coord. -> eff. mass)
    1:   1.000000  0.000000  0.000000 /   0.948683  0.316228  0.000000 ->   0.1118510209
    2:   0.000000  1.000000  0.000000 /   0.000000  1.000000  0.000000 ->   0.1118510209
    3:   0.000000  0.000000  1.000000 /   0.408248  0.408248  0.816497 ->   0.1118510209
    4:   0.577350  0.577350  0.577350 /   0.585539  0.688047  0.428644 ->   0.1118510209
    5:   0.000000  0.707107  0.707107 /   0.289489  0.762222  0.578977 ->   0.1118510209
    6:   0.707107  0.000000  0.707107 /   0.731423  0.422287  0.535439 ->   0.1118510209
    7:   0.707107  0.707107  0.000000 /   0.616798  0.787122  0.000000 ->   0.1118510209

 END OF EFFECTIVE MASSES SECTION

 ---- first-order wavefunction calculations are completed ----

 Total localisation tensor (bohr^2) in cartesian coordinates
  WARNING : still subject to testing - especially symmetries.
      direction              matrix element
   alpha     beta       real part   imaginary part
     1        1      11.4429108026    0.0000000000
     1        2       3.2365439291    0.0000000000
     1        3       7.9278811582    0.0000000000
     2        1       3.2365439291    0.0000000000
     2        2       9.1543286393    0.0000000000
     2        3       5.6058585260    0.0000000000
     3        1       7.9278811582    0.0000000000
     3        2       5.6058585260    0.0000000000
     3        3      20.5972394379    0.0000000000

 respfn : d/dk was computed, but no 2DTE, so no DDB output.

== END DATASET(S) ==============================================================

 -outvars: echo values of variables after computation  --------
            acell      1.0000000000E+00  1.0000000000E+00  1.0000000000E+00 Bohr
              amu      1.12411000E+02  3.20660000E+01
             ecut      5.10000000E+01 Hartree
           etotal     -4.5595499664E+01
            fcart      0.0000000000E+00  0.0000000000E+00  0.0000000000E+00
                       0.0000000000E+00  0.0000000000E+00  0.0000000000E+00
-          fftalg         512
           irdden           1
           irdwfk           1
           istwfk        1
              ixc     -116133
           kptopt           0
P           mkmem           1
P          mkqmem           1
P          mk1mem           1
            natom           2
            nband          22
           nbdbuf           4
            ngfft          54      54      54
             nkpt           1
            nstep         100
             nsym          24
           ntypat           2
              occ      2.000000  2.000000  2.000000  2.000000  2.000000  2.000000
                       2.000000  2.000000  2.000000  2.000000  2.000000  2.000000
                       2.000000  0.000000  0.000000  0.000000  0.000000  0.000000
                       0.000000  0.000000  0.000000  0.000000
        optdriver           1
            prtwf          -1
            rfdir           1       1       1
           rfelfd           2
            rprim      6.7414479423E+00  0.0000000000E+00  3.8921767842E+00
                       2.2471493141E+00  6.3558980733E+00  3.8921767842E+00
                       0.0000000000E+00  0.0000000000E+00  7.7843535684E+00
          spgroup         216
           strten      0.0000000000E+00  0.0000000000E+00  0.0000000000E+00
                       0.0000000000E+00  0.0000000000E+00  0.0000000000E+00
           symrel      1  0  0   0  1  0   0  0  1       0 -1  1   0 -1  0   1 -1  0
                      -1  0  0  -1  0  1  -1  1  0       0  1 -1   1  0 -1   0  0 -1
                      -1  0  0  -1  1  0  -1  0  1       0 -1  1   1 -1  0   0 -1  0
                       1  0  0   0  0  1   0  1  0       0  1 -1   0  0 -1   1  0 -1
                      -1  0  1  -1  1  0  -1  0  0       0 -1  0   1 -1  0   0 -1  1
                       1  0 -1   0  0 -1   0  1 -1       0  1  0   0  0  1   1  0  0
                       1  0 -1   0  1 -1   0  0 -1       0 -1  0   0 -1  1   1 -1  0
                      -1  0  1  -1  0  0  -1  1  0       0  1  0   1  0  0   0  0  1
                       0  0 -1   0  1 -1   1  0 -1       1 -1  0   0 -1  1   0 -1  0
                       0  0  1   1  0  0   0  1  0      -1  1  0  -1  0  0  -1  0  1
                       0  0  1   0  1  0   1  0  0       1 -1  0   0 -1  0   0 -1  1
                       0  0 -1   1  0 -1   0  1 -1      -1  1  0  -1  0  1  -1  0  0
           tolwfr      1.00000000E-20
            typat      1  2
           useylm           1
           xangst      0.0000000000E+00  0.0000000000E+00  0.0000000000E+00
                       1.1891402013E+00  8.4084910013E-01  2.0596512460E+00
            xcart      0.0000000000E+00  0.0000000000E+00  0.0000000000E+00
                       2.2471493141E+00  1.5889745183E+00  3.8921767842E+00
             xred      0.0000000000E+00  0.0000000000E+00  0.0000000000E+00
                       2.5000000000E-01  2.5000000000E-01  2.5000000000E-01
            znucl       48.00000   16.00000

- Timing analysis has been suppressed with timopt=0

 Suggested references for the acknowledgment of ABINIT usage.

 Calculation completed.
.Delivered   6 WARNINGs and   5 COMMENTs to log file.