.Version 9.5.1 of ABINIT

 ABINIT is a project of the Universite Catholique de Louvain,
 Corning Inc. and other collaborators, see ~abinit/doc/developers/contributors.txt .
 acknowledgments of the ABINIT effort.

.Starting date : Tue 27 Apr 2021.
- ( at 18h34 )

- input  file    -> /scratch/users/j/a/jabreu/flow_simple_4atoms/flow/w188/t1/run.abi
- output file    -> /scratch/users/j/a/jabreu/flow_simple_4atoms/flow/w188/t1/run.abo
- root for input  files -> /scratch/users/j/a/jabreu/flow_simple_4atoms/flow/w188/t1/indata/in
- root for output files -> /scratch/users/j/a/jabreu/flow_simple_4atoms/flow/w188/t1/outdata/out

 Symmetries : space group R-3 m (#166); Bravais hR (rhombohedral)
     intxc =       0      iscf =       7    lmnmax =      18     lnmax =       6
     mgfft =      90  mpssoang =       3    mqgrid =    3001     natom =       4
  nloc_mem =       1    nspden =       1   nspinor =       1    nsppol =       1
      nsym =      12    n1xccc =    2501    ntypat =       3    occopt =       1
   xclevel =       2
-    mband =          30        mffmem =           1         mkmem =           2
-   mkqmem =           2        mk1mem =           2           mpw =       10466
      nfft =      729000          nkpt =           2
  Rough estimation (10% accuracy) of disk space for files :

------------- Echo of variables that govern the present computation ------------
-
- outvars: echo of selected default values
-   iomode0 =  0 , fftalg0 =512 , wfoptalg0 =  0
-
- outvars: echo of global parameters not present in the input file
-  max_nthreads =    0
-
 -outvars: echo values of preprocessed input variables --------
            acell      1.0000000000E+00  1.0000000000E+00  1.0000000000E+00 Bohr
              amu      4.00780000E+01  7.49215900E+01  1.26904470E+02
             ecut      4.20000000E+01 Hartree
-          fftalg         512
           irdden           1
           irdwfk           1
           istwfk        1    1
              ixc     -116133
              kpt      0.00000000E+00  0.00000000E+00  0.00000000E+00
                       5.00000000E-01  5.00000000E-01 -5.55111512E-17
           kptopt           0
P           mkmem           2
P          mkqmem           2
P          mk1mem           2
            natom           4
            nband          30
           nbdbuf           4
            ngfft          90      90      90
             nkpt           2
            nstep         100
             nsym          12
           ntypat           3
              occ      2.000000  2.000000  2.000000  2.000000  2.000000  2.000000
                       2.000000  2.000000  2.000000  2.000000  2.000000  2.000000
                       2.000000  2.000000  2.000000  2.000000  2.000000  2.000000
                       2.000000  2.000000  2.000000  0.000000  0.000000  0.000000
                       0.000000  0.000000  0.000000  0.000000  0.000000  0.000000
        optdriver           1
            prtwf          -1
            rfdir           1       1       1
           rfelfd           2
            rprim      7.8538629699E+00  0.0000000000E+00  1.2375543312E+01
                       3.5954680396E+00  6.9825334318E+00  1.2375543312E+01
                       0.0000000000E+00  0.0000000000E+00  1.4657327036E+01
          spgroup         166
           symrel      1  0  0   0  1  0   0  0  1      -1  0  0   0 -1  0   0  0 -1
                       0  1  0   1  0  0   0  0  1       0 -1  0  -1  0  0   0  0 -1
                       0  0  1   1  0  0   0  1  0       0  0 -1  -1  0  0   0 -1  0
                       1  0  0   0  0  1   0  1  0      -1  0  0   0  0 -1   0 -1  0
                       0  1  0   0  0  1   1  0  0       0 -1  0   0  0 -1  -1  0  0
                       0  0  1   0  1  0   1  0  0       0  0 -1   0 -1  0  -1  0  0
           tolwfr      1.00000000E-20
            typat      1  1  2  3
           useylm           1
              wtk        0.50000    0.50000
           xangst      1.4050243918E+00  8.5687362692E-01  4.8360714165E+00
                       4.6537006321E+00  2.8381239234E+00  1.6017962919E+01
                       3.0293625119E+00  1.8474987752E+00  1.0427017168E+01
                       0.0000000000E+00  0.0000000000E+00  0.0000000000E+00
            xcart      2.6551113104E+00  1.6192564854E+00  9.1388505363E+00
                       8.7942196991E+00  5.3632769464E+00  3.0269563124E+01
                       5.7246655047E+00  3.4912667159E+00  1.9704206830E+01
                       0.0000000000E+00  0.0000000000E+00  0.0000000000E+00
             xred      2.3190100000E-01  2.3190100000E-01  2.3190100000E-01
                       7.6809900000E-01  7.6809900000E-01  7.6809900000E-01
                       5.0000000000E-01  5.0000000000E-01  5.0000000000E-01
                       0.0000000000E+00  0.0000000000E+00  0.0000000000E+00
            znucl       20.00000   33.00000   53.00000

 chkinp: Checking input parameters for consistency.

== DATASET  1 ==================================================================
-   mpi_nproc: 1, omp_nthreads: -1 (-1 if OMP is not activated)

--- !DatasetInfo
iteration_state: {dtset: 1, }
dimensions: {natom: 4, nkpt: 2, mband: 30, nsppol: 1, nspinor: 1, nspden: 1, mpw: 10466, }
cutoff_energies: {ecut:  42.0, pawecutdg:  -1.0, }
electrons: {nelect:   4.20000000E+01, charge:   0.00000000E+00, occopt:   1.00000000E+00, tsmear:   1.00000000E-02, }
meta: {optdriver: 1, rfelfd: 2, }
...

 Real(R)+Recip(G) space primitive vectors, cartesian coordinates (Bohr,Bohr^-1):
 R(1)=  7.8538630  0.0000000 12.3755433  G(1)=  0.1273259 -0.0655630  0.0000000
 R(2)=  3.5954680  6.9825334 12.3755433  G(2)=  0.0000000  0.1432145  0.0000000
 R(3)=  0.0000000  0.0000000 14.6573270  G(3)= -0.1075044 -0.0655630  0.0682253
 Unit cell volume ucvol=  8.0380577E+02 bohr^3
 Angles (23,13,12)=  3.24003445E+01  3.24003445E+01  3.24003445E+01 degrees

 getcut: wavevector=  0.0000  0.0000  0.0000  ngfft=  90  90  90
         ecut(hartree)=     42.000   => boxcut(ratio)=   2.10474

--- Pseudopotential description ------------------------------------------------
- pspini: atom type   1  psp file is /scratch/users/j/a/jabreu/pseudos/PBEsol/Ca.psp8
- pspatm: opening atomic psp file    /scratch/users/j/a/jabreu/pseudos/PBEsol/Ca.psp8
- Ca    ONCVPSP-3.3.0  r_core=   1.45885   1.45885   1.85192
- 20.00000  10.00000    180112                znucl, zion, pspdat
    8 -116133    2    4       400   0.00000   pspcod,pspxc,lmax,lloc,mmax,r2well
    3.99000000000000    6.00000000000000    0.00000000000000   rchrg,fchrg,qchrg
     nproj     2     2     2
     extension_switch     1
  pspatm : epsatm=   12.46045226
         --- l  ekb(1:nproj) -->
             0   10.054847    0.973777
             1    2.998958    0.458102
             2   -3.447298   -1.091650
 pspatm: atomic psp has been read  and splines computed

- pspini: atom type   2  psp file is /scratch/users/j/a/jabreu/pseudos/PBEsol/As.psp8
- pspatm: opening atomic psp file    /scratch/users/j/a/jabreu/pseudos/PBEsol/As.psp8
- As    ONCVPSP-3.3.0  r_core=   1.76603   1.70395   1.80867
- 33.00000  15.00000    180112                znucl, zion, pspdat
    8 -116133    2    4       600   0.00000   pspcod,pspxc,lmax,lloc,mmax,r2well
    5.99000000000000    5.00000000000000    0.00000000000000   rchrg,fchrg,qchrg
     nproj     2     2     2
     extension_switch     1
  pspatm : epsatm=   28.79155382
         --- l  ekb(1:nproj) -->
             0    8.270760    0.868950
             1    4.919053    0.756587
             2  -10.048665   -4.076802
 pspatm: atomic psp has been read  and splines computed

- pspini: atom type   3  psp file is /scratch/users/j/a/jabreu/pseudos/PBEsol/I.psp8
- pspatm: opening atomic psp file    /scratch/users/j/a/jabreu/pseudos/PBEsol/I.psp8
- I     ONCVPSP-3.3.0  r_core=   2.02042   2.17032   2.27639
- 53.00000   7.00000    180112                znucl, zion, pspdat
    8 -116133    2    4       600   0.00000   pspcod,pspxc,lmax,lloc,mmax,r2well
    5.99000000000000    4.00000000000000    0.00000000000000   rchrg,fchrg,qchrg
     nproj     2     2     2
     extension_switch     1
  pspatm : epsatm=   18.14229533
         --- l  ekb(1:nproj) -->
             0    6.015861    0.935228
             1    4.063749    0.754139
             2    4.149534    0.722940
 pspatm: atomic psp has been read  and splines computed

   3.01789965E+03                                ecore*ucvol(ha*bohr**3)

-inwffil : will read wavefunctions from disk file /scratch/users/j/a/jabreu/flow_simple_4atoms/flow/w188/t1/indata/in_WFK

 ==>  initialize data related to q vector <==

 The list of irreducible perturbations for this q vector is:
    1)    idir= 1    ipert=   5
    2)    idir= 2    ipert=   5
    3)    idir= 3    ipert=   5

 Perturbation wavevector (in red.coord.)   0.000000  0.000000  0.000000
 Perturbation : derivative vs k along direction   1

 dfpt_looppert : COMMENT -
  In a d/dk calculation, iscf is set to -3 automatically.
 The set of symmetries contains only one element for this perturbation.
 symkpt : not enough symmetry to change the number of k points.

[...]

 Initialisation of the first-order wave-functions :
  ireadwf=   0

--- !BeginCycle
iteration_state: {dtset: 1, }
solver: {iscf: 7, nstep: 100, nline: 4, wfoptalg: 0, }
tolerances: {tolwfr: 1.00E-20, }
...

     iter   2DEtotal(Ha)        deltaE(Ha) residm    vres2
-ETOT  1  -59.816921476581     -5.982E+01 1.185E-01 0.000E+00
 ETOT  2  -59.936039038660     -1.191E-01 3.378E-02 0.000E+00
 ETOT  3  -59.941330644583     -5.292E-03 2.126E-03 0.000E+00
 ETOT  4  -59.941749813100     -4.192E-04 1.648E-03 0.000E+00
 ETOT  5  -59.941787615265     -3.780E-05 3.327E-04 0.000E+00
 ETOT  6  -59.941791139943     -3.525E-06 4.132E-04 0.000E+00
 ETOT  7  -59.941791480246     -3.403E-07 1.338E-04 0.000E+00
 ETOT  8  -59.941791513437     -3.319E-08 1.775E-04 0.000E+00
 ETOT  9  -59.941791516706     -3.269E-09 6.179E-05 0.000E+00
 ETOT 10  -59.941791517030     -3.235E-10 8.037E-05 0.000E+00
 ETOT 11  -59.941791517062     -3.210E-11 2.642E-05 0.000E+00
 ETOT 12  -59.941791517065     -3.190E-12 3.581E-05 0.000E+00
 ETOT 13  -59.941791517065     -2.984E-13 1.089E-05 0.000E+00
 ETOT 14  -59.941791517065     -5.684E-14 1.578E-05 0.000E+00
 ETOT 15  -59.941791517065      5.684E-14 4.689E-06 0.000E+00
 ETOT 16  -59.941791517065     -5.684E-14 6.938E-06 0.000E+00
 ETOT 17  -59.941791517065      2.842E-14 2.046E-06 0.000E+00
 ETOT 18  -59.941791517065      2.842E-14 3.049E-06 0.000E+00
 ETOT 19  -59.941791517065     -5.684E-14 8.950E-07 0.000E+00
 ETOT 20  -59.941791517065      2.132E-14 1.340E-06 0.000E+00
 ETOT 21  -59.941791517065      2.132E-14 3.921E-07 0.000E+00
 ETOT 22  -59.941791517065     -1.421E-14 5.890E-07 0.000E+00
 ETOT 23  -59.941791517065      0.000E+00 1.723E-07 0.000E+00
 ETOT 24  -59.941791517065      1.421E-14 2.594E-07 0.000E+00
 ETOT 25  -59.941791517065     -2.842E-14 7.590E-08 0.000E+00
 ETOT 26  -59.941791517065      2.842E-14 1.144E-07 0.000E+00
 ETOT 27  -59.941791517065      0.000E+00 3.353E-08 0.000E+00
 ETOT 28  -59.941791517065      0.000E+00 5.057E-08 0.000E+00
[...]
 1-9 gives the relaxation energy (to be shifted if some occ is /=2.0)
   erelax=  -5.99417915E+01
  No Ewald or frozen-wf contrib.: the relaxation energy is the total one
 2DEtotal=   -0.5994179152E+02 Ha. Also 2DEtotal=   -0.163109909823E+04 eV
    (  non-var. 2DEtotal :   -5.9941791517E+01 Ha)

 Perturbation wavevector (in red.coord.)   0.000000  0.000000  0.000000
 Perturbation : derivative vs k along direction   2
 The set of symmetries contains only one element for this perturbation.
 symkpt : not enough symmetry to change the number of k points.

[...]

 Perturbation wavevector (in red.coord.)   0.000000  0.000000  0.000000
 Perturbation : derivative vs k along direction   3
 The set of symmetries contains only one element for this perturbation.
 symkpt : not enough symmetry to change the number of k points.

-inwffil : will read wavefunctions from disk file /scratch/users/j/a/jabreu/flow_simple_4atoms/flow/w188/t1/indata/in_WFK

 Initialisation of the first-order wave-functions :
  ireadwf=   0

--- !BeginCycle
iteration_state: {dtset: 1, }
solver: {iscf: 7, nstep: 100, nline: 4, wfoptalg: 0, }
tolerances: {tolwfr: 1.00E-20, }
...

     iter   2DEtotal(Ha)        deltaE(Ha) residm    vres2
-ETOT  1  -56.660972352114     -5.666E+01 1.142E-01 0.000E+00
 ETOT  2  -56.773727975894     -1.128E-01 1.260E-02 0.000E+00
 ETOT  3  -56.778704639681     -4.977E-03 2.614E-03 0.000E+00
 ETOT  4  -56.779079167321     -3.745E-04 2.004E-03 0.000E+00
 ETOT  5  -56.779111669302     -3.250E-05 2.756E-04 0.000E+00
 ETOT  6  -56.779114640165     -2.971E-06 4.229E-04 0.000E+00
 ETOT  7  -56.779114923467     -2.833E-07 7.537E-05 0.000E+00
 ETOT  8  -56.779114951130     -2.766E-08 1.146E-04 0.000E+00
 ETOT  9  -56.779114953888     -2.758E-09 2.113E-05 0.000E+00
 ETOT 10  -56.779114954167     -2.783E-10 3.145E-05 0.000E+00
 ETOT 11  -56.779114954195     -2.834E-11 5.896E-06 0.000E+00
 ETOT 12  -56.779114954198     -2.906E-12 8.819E-06 0.000E+00
 ETOT 13  -56.779114954198     -2.984E-13 1.654E-06 0.000E+00
 ETOT 14  -56.779114954198     -1.421E-14 2.530E-06 0.000E+00
 ETOT 15  -56.779114954198      2.132E-14 4.685E-07 0.000E+00
 ETOT 16  -56.779114954198     -7.105E-14 7.383E-07 0.000E+00
 ETOT 17  -56.779114954198      4.263E-14 1.341E-07 0.000E+00
 ETOT 18  -56.779114954198      0.000E+00 2.178E-07 0.000E+00
 ETOT 19  -56.779114954198     -1.421E-14 3.882E-08 0.000E+00
 ETOT 20  -56.779114954198      7.105E-15 6.466E-08 0.000E+00
 ETOT 21  -56.779114954198     -7.105E-15 1.136E-08 0.000E+00
 ETOT 22  -56.779114954198      1.421E-14 1.926E-08 0.000E+00
 ETOT 23  -56.779114954198     -1.421E-14 3.349E-09 0.000E+00
 ETOT 24  -56.779114954198      0.000E+00 5.751E-09 0.000E+00
 ETOT 25  -56.779114954198      1.421E-14 9.929E-10 0.000E+00
 ETOT 26  -56.779114954198     -1.421E-14 1.719E-09 0.000E+00
 ETOT 27  -56.779114954198     -1.421E-14 2.954E-10 0.000E+00
 ETOT 28  -56.779114954198      1.421E-14 5.139E-10 0.000E+00
 ETOT 29  -56.779114954198      0.000E+00 8.809E-11 0.000E+00
 ETOT 30  -56.779114954198      0.000E+00 1.537E-10 0.000E+00
 ETOT 31  -56.779114954198      0.000E+00 2.630E-11 0.000E+00
 ETOT 32  -56.779114954198     -1.421E-14 4.597E-11 0.000E+00
 ETOT 33  -56.779114954198      1.421E-14 7.854E-12 0.000E+00
 ETOT 34  -56.779114954198      1.421E-14 1.375E-11 0.000E+00
 ETOT 35  -56.779114954198      0.000E+00 2.346E-12 0.000E+00
 ETOT 36  -56.779114954198     -7.105E-15 4.111E-12 0.000E+00
 ETOT 37  -56.779114954198     -7.105E-15 7.010E-13 0.000E+00
 ETOT 38  -56.779114954198      1.421E-14 1.229E-12 0.000E+00
 ETOT 39  -56.779114954198      1.421E-14 2.094E-13 0.000E+00
 ETOT 40  -56.779114954198     -2.132E-14 3.676E-13 0.000E+00
 ETOT 41  -56.779114954198     -7.105E-15 6.256E-14 0.000E+00
 ETOT 42  -56.779114954198      1.421E-14 1.099E-13 0.000E+00
 ETOT 43  -56.779114954198     -7.105E-15 1.869E-14 0.000E+00
 ETOT 44  -56.779114954198     -7.105E-15 3.286E-14 0.000E+00
 ETOT 45  -56.779114954198      2.132E-14 5.582E-15 0.000E+00
 ETOT 46  -56.779114954198     -7.105E-15 9.827E-15 0.000E+00
 ETOT 47  -56.779114954198      0.000E+00 1.667E-15 0.000E+00
 ETOT 48  -56.779114954198      0.000E+00 2.939E-15 0.000E+00
 ETOT 49  -56.779114954198      0.000E+00 4.980E-16 0.000E+00
 ETOT 50  -56.779114954198     -1.421E-14 8.789E-16 0.000E+00
 ETOT 51  -56.779114954198      0.000E+00 1.487E-16 0.000E+00
 ETOT 52  -56.779114954198      0.000E+00 2.629E-16 0.000E+00
 ETOT 53  -56.779114954198      0.000E+00 4.442E-17 0.000E+00
 ETOT 54  -56.779114954198      0.000E+00 7.865E-17 0.000E+00
 ETOT 55  -56.779114954198      1.421E-14 1.327E-17 0.000E+00
 ETOT 56  -56.779114954198     -2.132E-14 2.353E-17 0.000E+00
 ETOT 57  -56.779114954198      0.000E+00 3.963E-18 0.000E+00
 ETOT 58  -56.779114954198      0.000E+00 7.042E-18 0.000E+00
 ETOT 59  -56.779114954198      0.000E+00 1.184E-18 0.000E+00
 ETOT 60  -56.779114954198     -7.105E-15 2.108E-18 0.000E+00
 ETOT 61  -56.779114954198      1.421E-14 3.537E-19 0.000E+00
 ETOT 62  -56.779114954198      0.000E+00 6.310E-19 0.000E+00
 ETOT 63  -56.779114954198      7.105E-15 1.057E-19 0.000E+00
 ETOT 64  -56.779114954198      0.000E+00 1.889E-19 0.000E+00
 ETOT 65  -56.779114954198     -7.105E-15 3.157E-20 0.000E+00
 ETOT 66  -56.779114954198      0.000E+00 5.658E-20 0.000E+00
 ETOT 67  -56.779114954198      0.000E+00 9.863E-21 0.000E+00

 At SCF step   67   max residual=  9.86E-21 < tolwfr=  1.00E-20 =>converged.

 ----iterations are completed or convergence reached----

 dfpt_looppert: DFPT cycle converged with prtwf=-1. Will skip output of the 1st-order WFK file.
 dfpt_looppert : ek2=    6.8016295633E+01
          f-sum rule ratio=    1.1347951631E+00
 prteigrs : about to open file /scratch/users/j/a/jabreu/flow_simple_4atoms/flow/w188/t1/tmpdata/tmp_1WF1_EIG
 Expectation of eigenvalue derivatives (hartree) for nkpt=   2  k points:
  (in case of degenerate eigenvalues, averaged derivative)
 kpt#   1, nband= 30, wtk=  0.50000, kpt=  0.0000  0.0000  0.0000 (reduced coord)
   0.00000    0.00000    0.00000    0.00000   -0.00000    0.00000    0.00000    0.00000
   0.00000   -0.00000   -0.00000   -0.00000   -0.00000   -0.00000   -0.00000    0.00000
   0.00000    0.00000   -0.00000    0.00000    0.00000   -0.00000    0.00000    0.00000
  -0.00000   -0.00000   -0.00000   -0.00000   -0.00000   -0.00000
 prteigrs : prtvol=0 or 1, do not print more k-points.

 Eight components of 2nd-order total energy (hartree) are
 1,2,3: 0th-order hamiltonian combined with 1st-order wavefunctions
     kin0=   5.85392899E+01 eigvalue=   5.33853719E+00  local=  -2.81426700E+01
 4,5,6: 1st-order hamiltonian combined with 1st and 0th-order wfs
     kin1=  -7.71845633E+01  Hartree=   0.00000000E+00     xc=   0.00000000E+00
 7,8,9: eventually, occupation + non-local contributions
    edocc=   1.70231051E+01     enl0=   4.02085278E+00   enl1=  -3.63736666E+01
 1-9 gives the relaxation energy (to be shifted if some occ is /=2.0)
   erelax=  -5.67791150E+01
  No Ewald or frozen-wf contrib.: the relaxation energy is the total one
 2DEtotal=   -0.5677911495E+02 Ha. Also 2DEtotal=   -0.154503829225E+04 eV
    (  non-var. 2DEtotal :   -5.6779114954E+01 Ha)

 CALCULATION OF EFFECTIVE MASSES
 NOTE : Additional infos (eff. mass eigenvalues, eigenvectors and, if degenerate, average mass) are available in stdout.

 COMMENTS:
 - At k-point ( 0.000, 0.000, 0.000), bands    20 through    21
   are DEGENERATE (effective mass tensor is therefore not defined).
   See Section IIIB Eqs. (67)-(70) and Appendix E of PRB 93 205147 (2016).
 - Angular average effective mass for Frohlich model is to be averaged over degenerate bands. See later.
 - Associated theta integrals calculated with ntheta=   1000 points.

 K-point ( 0.000, 0.000, 0.000) | band =    20
 Transport equivalent effective mass tensor:
             -0.3208849327             -0.0550151740             -0.3104978539
             -0.0550151740             -0.2642278713             -0.1893615746
             -0.3104978539             -0.1893615746             -1.2994051207
 Transport equivalent effective mass tensor eigenvalues:
             -1.4231658734             -0.2306760741             -0.2306759772
 Angular average effective mass 1/(<1/m>)=  -0.3183837121
 Angular average effective mass for Frohlich model (<m**0.5>)**2=  -0.3661825034
 Effective masses along directions: (cart. coord. / red. coord. -> eff. mass)
    1:   1.000000  0.000000  0.000000 /   0.909250  0.416251  0.000000 ->  -0.2446904252
    2:   0.000000  1.000000  0.000000 /   0.000000  1.000000  0.000000 ->  -0.2337428391
    3:   0.000000  0.000000  1.000000 /   0.542107  0.542107  0.642060 ->  -0.8858994974
    4:   0.577350  0.577350  0.577350 /   0.596291  0.676589  0.432046 ->  -0.5072161713
    5:   0.000000  0.707107  0.707107 /   0.454098  0.710310  0.537824 ->  -0.4692533965
    6:   0.707107  0.000000  0.707107 /   0.682267  0.538646  0.494340 ->  -0.5944136647
    7:   0.707107  0.707107  0.000000 /   0.596124  0.802892  0.000000 ->  -0.2520166307

 K-point ( 0.000, 0.000, 0.000) | band =    21
 Transport equivalent effective mass tensor:
             -2.0334669112              0.0251656219              0.1420294453
              0.0251656219             -2.0593834455              0.0866187699
              0.1420294453              0.0866187699             -1.5858669722
 Transport equivalent effective mass tensor eigenvalues:
             -2.0747311030             -2.0747305017             -1.5292557242
 Angular average effective mass 1/(<1/m>)=  -1.7543062019
 Angular average effective mass for Frohlich model (<m**0.5>)**2=  -1.7734638723
 Effective masses along directions: (cart. coord. / red. coord. -> eff. mass)
    1:   1.000000  0.000000  0.000000 /   0.909250  0.416251  0.000000 ->  -1.9499110109
    2:   0.000000  1.000000  0.000000 /   0.000000  1.000000  0.000000 ->  -2.0605766740
    3:   0.000000  0.000000  1.000000 /   0.542107  0.542107  0.642060 ->  -1.5607280622
    4:   0.577350  0.577350  0.577350 /   0.596291  0.676589  0.432046 ->  -1.4937504961
    5:   0.000000  0.707107  0.707107 /   0.454098  0.710310  0.537824 ->  -1.7012859901
    6:   0.707107  0.000000  0.707107 /   0.682267  0.538646  0.494340 ->  -1.6550373000
    7:   0.707107  0.707107  0.000000 /   0.596124  0.802892  0.000000 ->  -1.8035427367

 Angular average effective mass for Frohlich model, averaged over degenerate bands.
 Value of     (<<m**0.5>>)**2 =     9.378419E-01
 Absolute Value of <<m**0.5>> =     9.684224E-01

 K-point ( 0.500, 0.500,-0.000) | band =    22
 Effective mass tensor:
              0.5687386017              0.1695504931             -0.4607768152
              0.1695504931              0.3941276571             -0.2810111363
             -0.4607768152             -0.2810111363              1.1166662258
 Effective mass tensor eigenvalues:
              0.2907249356              0.3107231004              1.4780844487
 Angular average effective mass 1/(<1/m>)=   0.4090242604
 Angular average effective mass for Frohlich model (<m**0.5>)**2=   0.4589105045
 Effective masses along directions: (cart. coord. / red. coord. -> eff. mass)
    1:   1.000000  0.000000  0.000000 /   0.909250  0.416251  0.000000 ->   0.3697237356
    2:   0.000000  1.000000  0.000000 /   0.000000  1.000000  0.000000 ->   0.3158237855
    3:   0.000000  0.000000  1.000000 /   0.542107  0.542107  0.642060 ->   0.6833012146
    4:   0.577350  0.577350  0.577350 /   0.596291  0.676589  0.432046 ->   0.3102911384
    5:   0.000000  0.707107  0.707107 /   0.454098  0.710310  0.537824 ->   0.3416746168
    6:   0.707107  0.000000  0.707107 /   0.682267  0.538646  0.494340 ->   0.3238999813
    7:   0.707107  0.707107  0.000000 /   0.596124  0.802892  0.000000 ->   0.4020424108

 END OF EFFECTIVE MASSES SECTION

 ---- first-order wavefunction calculations are completed ----

 Total localisation tensor (bohr^2) in cartesian coordinates
  WARNING : still subject to testing - especially symmetries.
      direction              matrix element
   alpha     beta       real part   imaginary part
     1        1       3.2855663724    0.0000000000
     1        2       1.1055500574    0.0000000000
     1        3       6.2395656975    0.0000000000
     2        1       1.1055500574    0.0000000000
     2        2       2.1470195678    0.0000000000
     2        3       3.8052855620    0.0000000000
     3        1       6.2395656975    0.0000000000
     3        2       3.8052855620    0.0000000000
     3        3      21.2102767668    0.0000000000

 respfn : d/dk was computed, but no 2DTE, so no DDB output.

== END DATASET(S) ==============================================================

 -outvars: echo values of variables after computation  --------
            acell      1.0000000000E+00  1.0000000000E+00  1.0000000000E+00 Bohr
              amu      4.00780000E+01  7.49215900E+01  1.26904470E+02
             ecut      4.20000000E+01 Hartree
           etotal     -5.6779114954E+01
            fcart      0.0000000000E+00  0.0000000000E+00  0.0000000000E+00
                       0.0000000000E+00  0.0000000000E+00  0.0000000000E+00
                       0.0000000000E+00  0.0000000000E+00  0.0000000000E+00
                       0.0000000000E+00  0.0000000000E+00  0.0000000000E+00
-          fftalg         512
           irdden           1
           irdwfk           1
           istwfk        1    1
              ixc     -116133
              kpt      0.00000000E+00  0.00000000E+00  0.00000000E+00
                       5.00000000E-01  5.00000000E-01 -5.55111512E-17
           kptopt           0
P           mkmem           2
P          mkqmem           2
P          mk1mem           2
            natom           4
            nband          30
           nbdbuf           4
            ngfft          90      90      90
             nkpt           2
            nstep         100
             nsym          12
           ntypat           3
              occ      2.000000  2.000000  2.000000  2.000000  2.000000  2.000000
                       2.000000  2.000000  2.000000  2.000000  2.000000  2.000000
                       2.000000  2.000000  2.000000  2.000000  2.000000  2.000000
                       2.000000  2.000000  2.000000  0.000000  0.000000  0.000000
                       0.000000  0.000000  0.000000  0.000000  0.000000  0.000000
        optdriver           1
            prtwf          -1
            rfdir           1       1       1
           rfelfd           2
            rprim      7.8538629699E+00  0.0000000000E+00  1.2375543312E+01
                       3.5954680396E+00  6.9825334318E+00  1.2375543312E+01
                       0.0000000000E+00  0.0000000000E+00  1.4657327036E+01
          spgroup         166
           strten      0.0000000000E+00  0.0000000000E+00  0.0000000000E+00
                       0.0000000000E+00  0.0000000000E+00  0.0000000000E+00
           symrel      1  0  0   0  1  0   0  0  1      -1  0  0   0 -1  0   0  0 -1
                       0  1  0   1  0  0   0  0  1       0 -1  0  -1  0  0   0  0 -1
                       0  0  1   1  0  0   0  1  0       0  0 -1  -1  0  0   0 -1  0
                       1  0  0   0  0  1   0  1  0      -1  0  0   0  0 -1   0 -1  0
                       0  1  0   0  0  1   1  0  0       0 -1  0   0  0 -1  -1  0  0
                       0  0  1   0  1  0   1  0  0       0  0 -1   0 -1  0  -1  0  0
           tolwfr      1.00000000E-20
            typat      1  1  2  3
           useylm           1
              wtk        0.50000    0.50000
           xangst      1.4050243918E+00  8.5687362692E-01  4.8360714165E+00
                       4.6537006321E+00  2.8381239234E+00  1.6017962919E+01
                       3.0293625119E+00  1.8474987752E+00  1.0427017168E+01
                       0.0000000000E+00  0.0000000000E+00  0.0000000000E+00
            xcart      2.6551113104E+00  1.6192564854E+00  9.1388505363E+00
                       8.7942196991E+00  5.3632769464E+00  3.0269563124E+01
                       5.7246655047E+00  3.4912667159E+00  1.9704206830E+01
                       0.0000000000E+00  0.0000000000E+00  0.0000000000E+00
             xred      2.3190100000E-01  2.3190100000E-01  2.3190100000E-01
                       7.6809900000E-01  7.6809900000E-01  7.6809900000E-01
                       5.0000000000E-01  5.0000000000E-01  5.0000000000E-01
                       0.0000000000E+00  0.0000000000E+00  0.0000000000E+00
            znucl       20.00000   33.00000   53.00000

- Timing analysis has been suppressed with timopt=0

 Suggested references for the acknowledgment of ABINIT usage.

 Calculation completed.
.Delivered  14 WARNINGs and   9 COMMENTs to log file.