.Version 9.5.1 of ABINIT

 ABINIT is a project of the Universite Catholique de Louvain,
 Corning Inc. and other collaborators, see ~abinit/doc/developers/contributors.txt .
 acknowledgments of the ABINIT effort.

.Starting date : Sun 25 Apr 2021.
- ( at 17h13 )

- input  file    -> /scratch/users/j/a/jabreu/flow_simple2/flow/w139/t1/run.abi
- output file    -> /scratch/users/j/a/jabreu/flow_simple2/flow/w139/t1/run.abo
- root for input  files -> /scratch/users/j/a/jabreu/flow_simple2/flow/w139/t1/indata/in
- root for output files -> /scratch/users/j/a/jabreu/flow_simple2/flow/w139/t1/outdata/out

 Symmetries : space group Pm -3 m (#221); Bravais cP (primitive cubic)
     intxc =       0      iscf =       7    lmnmax =      18     lnmax =       6
     mgfft =      36  mpssoang =       3    mqgrid =    3001     natom =       2
  nloc_mem =       1    nspden =       1   nspinor =       1    nsppol =       1
      nsym =      48    n1xccc =    2501    ntypat =       2    occopt =       1
   xclevel =       2
-    mband =          17        mffmem =           1         mkmem =           2
-   mkqmem =           2        mk1mem =           2           mpw =        2832
      nfft =       46656          nkpt =           2
  Rough estimation (10% accuracy) of disk space for files :

------------- Echo of variables that govern the present computation ------------
-
- outvars: echo of selected default values
-   iomode0 =  0 , fftalg0 =512 , wfoptalg0 =  0
-
- outvars: echo of global parameters not present in the input file
-  max_nthreads =    0
-
 -outvars: echo values of preprocessed input variables --------
            acell      1.0000000000E+00  1.0000000000E+00  1.0000000000E+00 Bohr
              amu      8.54678000E+01  3.54527000E+01
             ecut      2.80000000E+01 Hartree
-          fftalg         512
           irdden           1
           irdwfk           1
           istwfk        1    1
              ixc     -116133
              kpt      5.00000000E-01  5.00000000E-01  0.00000000E+00
                       0.00000000E+00  0.00000000E+00  0.00000000E+00
           kptopt           0
P           mkmem           2
P          mkqmem           2
P          mk1mem           2
            natom           2
            nband          17
           nbdbuf           4
            ngfft          36      36      36
             nkpt           2
            nstep         100
             nsym          48
           ntypat           2
              occ      2.000000  2.000000  2.000000  2.000000  2.000000  2.000000
                       2.000000  2.000000  0.000000  0.000000  0.000000  0.000000
                       0.000000  0.000000  0.000000  0.000000  0.000000
        optdriver           1
            prtwf          -1
            rfdir           1       1       1
           rfelfd           2
            rprim      7.3460635868E+00  0.0000000000E+00  0.0000000000E+00
                       0.0000000000E+00  7.3460635868E+00  0.0000000000E+00
                       0.0000000000E+00  0.0000000000E+00  7.3460635868E+00
          spgroup         221
           symrel      1  0  0   0  1  0   0  0  1      -1  0  0   0 -1  0   0  0 -1
                      -1  0  0   0  1  0   0  0 -1       1  0  0   0 -1  0   0  0  1
                      -1  0  0   0 -1  0   0  0  1       1  0  0   0  1  0   0  0 -1
                       1  0  0   0 -1  0   0  0 -1      -1  0  0   0  1  0   0  0  1
                       0  1  0   1  0  0   0  0  1       0 -1  0  -1  0  0   0  0 -1
                       0 -1  0   1  0  0   0  0 -1       0  1  0  -1  0  0   0  0  1
                       0 -1  0  -1  0  0   0  0  1       0  1  0   1  0  0   0  0 -1
                       0  1  0  -1  0  0   0  0 -1       0 -1  0   1  0  0   0  0  1
                       0  0  1   1  0  0   0  1  0       0  0 -1  -1  0  0   0 -1  0
                       0  0 -1   1  0  0   0 -1  0       0  0  1  -1  0  0   0  1  0
                       0  0 -1  -1  0  0   0  1  0       0  0  1   1  0  0   0 -1  0
                       0  0  1  -1  0  0   0 -1  0       0  0 -1   1  0  0   0  1  0
                       1  0  0   0  0  1   0  1  0      -1  0  0   0  0 -1   0 -1  0
                      -1  0  0   0  0  1   0 -1  0       1  0  0   0  0 -1   0  1  0
                      -1  0  0   0  0 -1   0  1  0       1  0  0   0  0  1   0 -1  0
                       1  0  0   0  0 -1   0 -1  0      -1  0  0   0  0  1   0  1  0
                       0  1  0   0  0  1   1  0  0       0 -1  0   0  0 -1  -1  0  0
                       0 -1  0   0  0  1  -1  0  0       0  1  0   0  0 -1   1  0  0
                       0 -1  0   0  0 -1   1  0  0       0  1  0   0  0  1  -1  0  0
                       0  1  0   0  0 -1  -1  0  0       0 -1  0   0  0  1   1  0  0
                       0  0  1   0  1  0   1  0  0       0  0 -1   0 -1  0  -1  0  0
                       0  0 -1   0  1  0  -1  0  0       0  0  1   0 -1  0   1  0  0
                       0  0 -1   0 -1  0   1  0  0       0  0  1   0  1  0  -1  0  0
                       0  0  1   0 -1  0  -1  0  0       0  0 -1   0  1  0   1  0  0
           tolwfr      1.00000000E-20
            typat      1  2
           useylm           1
              wtk        0.50000    0.50000
           xangst      0.0000000000E+00  0.0000000000E+00  0.0000000000E+00
                       1.9436847115E+00  1.9436847115E+00  1.9436847115E+00
            xcart      0.0000000000E+00  0.0000000000E+00  0.0000000000E+00
                       3.6730317934E+00  3.6730317934E+00  3.6730317934E+00
             xred      0.0000000000E+00  0.0000000000E+00  0.0000000000E+00
                       5.0000000000E-01  5.0000000000E-01  5.0000000000E-01
            znucl       37.00000   17.00000

 chkinp: Checking input parameters for consistency.

== DATASET  1 ==================================================================
-   mpi_nproc: 1, omp_nthreads: -1 (-1 if OMP is not activated)

--- !DatasetInfo
iteration_state: {dtset: 1, }
dimensions: {natom: 2, nkpt: 2, mband: 17, nsppol: 1, nspinor: 1, nspden: 1, mpw: 2832, }
cutoff_energies: {ecut:  28.0, pawecutdg:  -1.0, }
electrons: {nelect:   1.60000000E+01, charge:   0.00000000E+00, occopt:   1.00000000E+00, tsmear:   1.00000000E-02, }
meta: {optdriver: 1, rfelfd: 2, }
...

 Real(R)+Recip(G) space primitive vectors, cartesian coordinates (Bohr,Bohr^-1):
 R(1)=  7.3460636  0.0000000  0.0000000  G(1)=  0.1361273  0.0000000  0.0000000
 R(2)=  0.0000000  7.3460636  0.0000000  G(2)=  0.0000000  0.1361273  0.0000000
 R(3)=  0.0000000  0.0000000  7.3460636  G(3)=  0.0000000  0.0000000  0.1361273
 Unit cell volume ucvol=  3.9642775E+02 bohr^3
 Angles (23,13,12)=  9.00000000E+01  9.00000000E+01  9.00000000E+01 degrees

 getcut: wavevector=  0.0000  0.0000  0.0000  ngfft=  36  36  36
         ecut(hartree)=     28.000   => boxcut(ratio)=   2.05733

--- Pseudopotential description ------------------------------------------------
- pspini: atom type   1  psp file is /scratch/users/j/a/jabreu/pseudos/PBEsol/Rb.psp8
- pspatm: opening atomic psp file    /scratch/users/j/a/jabreu/pseudos/PBEsol/Rb.psp8
- Rb    ONCVPSP-3.3.0  r_core=   1.71227   1.75361   1.90633
- 37.00000   9.00000    180112                znucl, zion, pspdat
    8 -116133    2    4       600   0.00000   pspcod,pspxc,lmax,lloc,mmax,r2well
    5.99000000000000    7.00000000000000    0.00000000000000   rchrg,fchrg,qchrg
     nproj     2     2     2
     extension_switch     1
  pspatm : epsatm=   34.48400912
         --- l  ekb(1:nproj) -->
             0    8.196957   -0.477221
             1    3.231347   -0.378736
             2   -1.047201    0.996637
 pspatm: atomic psp has been read  and splines computed

- pspini: atom type   2  psp file is /scratch/users/j/a/jabreu/pseudos/PBEsol/Cl.psp8
- pspatm: opening atomic psp file    /scratch/users/j/a/jabreu/pseudos/PBEsol/Cl.psp8
- Cl    ONCVPSP-3.3.0  r_core=   1.56009   1.35202   1.75774
- 17.00000   7.00000    180112                znucl, zion, pspdat
    8 -116133    2    4       600   0.00000   pspcod,pspxc,lmax,lloc,mmax,r2well
    5.99000000000000    8.00000000000000    0.00000000000000   rchrg,fchrg,qchrg
     nproj     2     2     2
     extension_switch     1
  pspatm : epsatm=    8.95520722
         --- l  ekb(1:nproj) -->
             0    8.193503    0.707970
             1    3.869736    1.114731
             2   -2.915303   -0.810552
 pspatm: atomic psp has been read  and splines computed

   6.95027461E+02                                ecore*ucvol(ha*bohr**3)

-inwffil : will read wavefunctions from disk file /scratch/users/j/a/jabreu/flow_simple2/flow/w139/t1/indata/in_WFK

 ==>  initialize data related to q vector <==

 The list of irreducible perturbations for this q vector is:
    1)    idir= 1    ipert=   3
    2)    idir= 2    ipert=   3
    3)    idir= 3    ipert=   3

 Perturbation wavevector (in red.coord.)   0.000000  0.000000  0.000000
 Perturbation : derivative vs k along direction   1

 dfpt_looppert : COMMENT -
  In a d/dk calculation, iscf is set to -3 automatically.
 The set of symmetries contains only one element for this perturbation.
 symkpt : not enough symmetry to change the number of k points.

[...]

 Initialisation of the first-order wave-functions :
  ireadwf=   0

--- !BeginCycle
iteration_state: {dtset: 1, }
solver: {iscf: 7, nstep: 100, nline: 4, wfoptalg: 0, }
tolerances: {tolwfr: 1.00E-20, }
...

     iter   2DEtotal(Ha)        deltaE(Ha) residm    vres2
-ETOT  1  -13.174662935424     -1.317E+01 1.597E-01 0.000E+00
 ETOT  2  -13.177159207729     -2.496E-03 3.812E-03 0.000E+00
 ETOT  3  -13.177162992773     -3.785E-06 1.245E-04 0.000E+00
 ETOT  4  -13.177163005211     -1.244E-08 3.238E-06 0.000E+00
 ETOT  5  -13.177163005277     -6.637E-11 1.848E-07 0.000E+00
 ETOT  6  -13.177163005278     -4.192E-13 1.148E-08 0.000E+00
 ETOT  7  -13.177163005278     -1.776E-15 6.521E-10 0.000E+00
 ETOT  8  -13.177163005278     -8.882E-15 4.533E-11 0.000E+00
 ETOT  9  -13.177163005278      0.000E+00 2.529E-12 0.000E+00
 ETOT 10  -13.177163005278     -3.553E-15 1.818E-13 0.000E+00
 ETOT 11  -13.177163005278      3.553E-15 1.004E-14 0.000E+00
 ETOT 12  -13.177163005278      0.000E+00 7.333E-16 0.000E+00
 ETOT 13  -13.177163005278      0.000E+00 4.020E-17 0.000E+00
 ETOT 14  -13.177163005278      0.000E+00 2.963E-18 0.000E+00
 ETOT 15  -13.177163005278      0.000E+00 1.616E-19 0.000E+00
 ETOT 16  -13.177163005278      0.000E+00 1.199E-20 0.000E+00
 ETOT 17  -13.177163005278     -1.776E-15 9.964E-21 0.000E+00

 At SCF step   17   max residual=  9.96E-21 < tolwfr=  1.00E-20 =>converged.

 ----iterations are completed or convergence reached----

 dfpt_looppert: DFPT cycle converged with prtwf=-1. Will skip output of the 1st-order WFK file.
 dfpt_looppert : ek2=    2.3409942586E+01
          f-sum rule ratio=    1.1594289378E+00
 prteigrs : about to open file /scratch/users/j/a/jabreu/flow_simple2/flow/w139/t1/tmpdata/tmp_1WF1_EIG
 Expectation of eigenvalue derivatives (hartree) for nkpt=   2  k points:
  (in case of degenerate eigenvalues, averaged derivative)
 kpt#   1, nband= 17, wtk=  0.50000, kpt=  0.5000  0.5000  0.0000 (reduced coord)
   0.00000    0.00000   -0.00000   -0.00000   -0.00000   -0.00000   -0.00000   -0.00000
   0.00000   -0.00000    0.00000    0.00000   -0.00000   -0.00000   -0.00000    0.00000
  -0.00000
 prteigrs : prtvol=0 or 1, do not print more k-points.

 Eight components of 2nd-order total energy (hartree) are
 1,2,3: 0th-order hamiltonian combined with 1st-order wavefunctions
     kin0=   4.87955854E+00 eigvalue=   4.08379072E-01  local=  -2.36708205E+00
 4,5,6: 1st-order hamiltonian combined with 1st and 0th-order wfs
     kin1=  -2.71421649E+01  Hartree=   0.00000000E+00     xc=   0.00000000E+00
 7,8,9: eventually, occupation + non-local contributions
    edocc=   9.95538049E+00     enl0=   3.00926949E-01   enl1=   7.87838856E-01
 1-9 gives the relaxation energy (to be shifted if some occ is /=2.0)
   erelax=  -1.31771630E+01
  No Ewald or frozen-wf contrib.: the relaxation energy is the total one
 2DEtotal=   -0.1317716301E+02 Ha. Also 2DEtotal=   -0.358568840722E+03 eV
    (  non-var. 2DEtotal :   -1.3177163005E+01 Ha)

 Perturbation wavevector (in red.coord.)   0.000000  0.000000  0.000000
 Perturbation : derivative vs k along direction   2
 The set of symmetries contains only one element for this perturbation.
 symkpt : not enough symmetry to change the number of k points.

[...]

 Perturbation wavevector (in red.coord.)   0.000000  0.000000  0.000000
 Perturbation : derivative vs k along direction   3
 The set of symmetries contains only one element for this perturbation.
 symkpt : not enough symmetry to change the number of k points.

-inwffil : will read wavefunctions from disk file /scratch/users/j/a/jabreu/flow_simple2/flow/w139/t1/indata/in_WFK

 Initialisation of the first-order wave-functions :
  ireadwf=   0

--- !BeginCycle
iteration_state: {dtset: 1, }
solver: {iscf: 7, nstep: 100, nline: 4, wfoptalg: 0, }
tolerances: {tolwfr: 1.00E-20, }
...

     iter   2DEtotal(Ha)        deltaE(Ha) residm    vres2
-ETOT  1  -15.145008367267     -1.515E+01 4.953E-02 0.000E+00
 ETOT  2  -15.146858397508     -1.850E-03 2.074E-05 0.000E+00
 ETOT  3  -15.146860094929     -1.697E-06 1.417E-07 0.000E+00
 ETOT  4  -15.146860098396     -3.467E-09 1.326E-09 0.000E+00
 ETOT  5  -15.146860098406     -9.743E-12 1.231E-11 0.000E+00
 ETOT  6  -15.146860098406     -5.329E-14 1.499E-13 0.000E+00
 ETOT  7  -15.146860098406      1.954E-14 2.426E-15 0.000E+00
 ETOT  8  -15.146860098406     -5.329E-15 2.044E-17 0.000E+00
 ETOT  9  -15.146860098406     -1.066E-14 5.432E-19 0.000E+00
 ETOT 10  -15.146860098406     -3.553E-15 9.994E-21 0.000E+00

 At SCF step   10   max residual=  9.99E-21 < tolwfr=  1.00E-20 =>converged.

 ----iterations are completed or convergence reached----

 dfpt_looppert: DFPT cycle converged with prtwf=-1. Will skip output of the 1st-order WFK file.
 dfpt_looppert : ek2=    2.3409942586E+01
          f-sum rule ratio=    1.3345778254E+00
 prteigrs : about to open file /scratch/users/j/a/jabreu/flow_simple2/flow/w139/t1/tmpdata/tmp_1WF1_EIG
 Expectation of eigenvalue derivatives (hartree) for nkpt=   2  k points:
  (in case of degenerate eigenvalues, averaged derivative)
 kpt#   1, nband= 17, wtk=  0.50000, kpt=  0.5000  0.5000  0.0000 (reduced coord)
  -0.00000    0.00000    0.00000    0.00000    0.00000   -0.00000   -0.00000    0.00000
   0.00000   -0.00000   -0.00000   -0.00000   -0.00000   -0.00000    0.00000   -0.00000
   0.00000
 prteigrs : prtvol=0 or 1, do not print more k-points.

 Eight components of 2nd-order total energy (hartree) are
 1,2,3: 0th-order hamiltonian combined with 1st-order wavefunctions
     kin0=   4.32106628E+00 eigvalue=   4.45863138E-01  local=  -2.09339488E+00
 4,5,6: 1st-order hamiltonian combined with 1st and 0th-order wfs
     kin1=  -3.12423903E+01  Hartree=   0.00000000E+00     xc=   0.00000000E+00
 7,8,9: eventually, occupation + non-local contributions
    edocc=   1.21270202E+01     enl0=   3.46305409E-01   enl1=   9.48670073E-01
 1-9 gives the relaxation energy (to be shifted if some occ is /=2.0)
   erelax=  -1.51468601E+01
  No Ewald or frozen-wf contrib.: the relaxation energy is the total one
 2DEtotal=   -0.1514686010E+02 Ha. Also 2DEtotal=   -0.412167024411E+03 eV
    (  non-var. 2DEtotal :   -1.5146860098E+01 Ha)

 CALCULATION OF EFFECTIVE MASSES
 NOTE : Additional infos (eff. mass eigenvalues, eigenvectors and, if degenerate, average mass) are available in stdout.

 K-point ( 0.500, 0.500, 0.000) | band =     8
 Effective mass tensor:
             -4.2143275825              0.0000000000              0.0000000789
              0.0000000000             -4.2143275826              0.0000000442
              0.0000000789              0.0000000442             -0.5899027838
 Effective mass tensor eigenvalues:
             -4.2143275826             -4.2143275825             -0.5899027838
 Angular average effective mass 1/(<1/m>)=  -1.3826374898
 Angular average effective mass for Frohlich model (<m**0.5>)**2=  -1.8432659246
 Effective masses along directions: (cart. coord. / red. coord. -> eff. mass)
    1:   1.000000  0.000000  0.000000 /   1.000000  0.000000  0.000000 ->  -4.2143275825
    2:   0.000000  1.000000  0.000000 /   0.000000  1.000000  0.000000 ->  -4.2143275826
    3:   0.000000  0.000000  1.000000 /   0.000000  0.000000  1.000000 ->  -0.5899027838
    4:   0.577350  0.577350  0.577350 /   0.577350  0.577350  0.577350 ->  -1.3826374268
    5:   0.000000  0.707107  0.707107 /   0.000000  0.707107  0.707107 ->  -1.0349393504
    6:   0.707107  0.000000  0.707107 /   0.707107  0.000000  0.707107 ->  -1.0349393354
    7:   0.707107  0.707107  0.000000 /   0.707107  0.707107  0.000000 ->  -4.2143275825

 K-point ( 0.000, 0.000, 0.000) | band =     9
 Effective mass tensor:
              0.3558821976             -0.0000000012              0.0000000011
             -0.0000000012              0.3558821974             -0.0000000006
              0.0000000011             -0.0000000006              0.3558821990
 Effective mass tensor eigenvalues:
              0.3558821963              0.3558821975              0.3558822001
 Angular average effective mass 1/(<1/m>)=   0.3558821980
 Angular average effective mass for Frohlich model (<m**0.5>)**2=   0.3558821980
 Effective masses along directions: (cart. coord. / red. coord. -> eff. mass)
    1:   1.000000  0.000000  0.000000 /   1.000000  0.000000  0.000000 ->   0.3558821976
    2:   0.000000  1.000000  0.000000 /   0.000000  1.000000  0.000000 ->   0.3558821974
    3:   0.000000  0.000000  1.000000 /   0.000000  0.000000  1.000000 ->   0.3558821990
    4:   0.577350  0.577350  0.577350 /   0.577350  0.577350  0.577350 ->   0.3558821976
    5:   0.000000  0.707107  0.707107 /   0.000000  0.707107  0.707107 ->   0.3558821975
    6:   0.707107  0.000000  0.707107 /   0.707107  0.000000  0.707107 ->   0.3558821995
    7:   0.707107  0.707107  0.000000 /   0.707107  0.707107  0.000000 ->   0.3558821963

 END OF EFFECTIVE MASSES SECTION

 ---- first-order wavefunction calculations are completed ----

 Total localisation tensor (bohr^2) in cartesian coordinates
  WARNING : still subject to testing - especially symmetries.
      direction              matrix element
   alpha     beta       real part   imaginary part
     1        1       1.2268440247    0.0000000000
     1        2       0.0000000000    0.0000000000
     1        3       0.0000000000    0.0000000000
     2        1       0.0000000000    0.0000000000
     2        2       1.2268440169    0.0000000000
     2        3       0.0000000000    0.0000000000
     3        1       0.0000000000    0.0000000000
     3        2       0.0000000000    0.0000000000
     3        3       1.5294805327    0.0000000000

 respfn : d/dk was computed, but no 2DTE, so no DDB output.

== END DATASET(S) ==============================================================

 -outvars: echo values of variables after computation  --------
            acell      1.0000000000E+00  1.0000000000E+00  1.0000000000E+00 Bohr
              amu      8.54678000E+01  3.54527000E+01
             ecut      2.80000000E+01 Hartree
           etotal     -1.5146860098E+01
            fcart      0.0000000000E+00  0.0000000000E+00  0.0000000000E+00
                       0.0000000000E+00  0.0000000000E+00  0.0000000000E+00
-          fftalg         512
           irdden           1
           irdwfk           1
           istwfk        1    1
              ixc     -116133
              kpt      5.00000000E-01  5.00000000E-01  0.00000000E+00
                       0.00000000E+00  0.00000000E+00  0.00000000E+00
           kptopt           0
P           mkmem           2
P          mkqmem           2
P          mk1mem           2
            natom           2
            nband          17
           nbdbuf           4
            ngfft          36      36      36
             nkpt           2
            nstep         100
             nsym          48
           ntypat           2
              occ      2.000000  2.000000  2.000000  2.000000  2.000000  2.000000
                       2.000000  2.000000  0.000000  0.000000  0.000000  0.000000
                       0.000000  0.000000  0.000000  0.000000  0.000000
        optdriver           1
            prtwf          -1
            rfdir           1       1       1
           rfelfd           2
            rprim      7.3460635868E+00  0.0000000000E+00  0.0000000000E+00
                       0.0000000000E+00  7.3460635868E+00  0.0000000000E+00
                       0.0000000000E+00  0.0000000000E+00  7.3460635868E+00
          spgroup         221
           strten      0.0000000000E+00  0.0000000000E+00  0.0000000000E+00
                       0.0000000000E+00  0.0000000000E+00  0.0000000000E+00
           symrel      1  0  0   0  1  0   0  0  1      -1  0  0   0 -1  0   0  0 -1
                      -1  0  0   0  1  0   0  0 -1       1  0  0   0 -1  0   0  0  1
                      -1  0  0   0 -1  0   0  0  1       1  0  0   0  1  0   0  0 -1
                       1  0  0   0 -1  0   0  0 -1      -1  0  0   0  1  0   0  0  1
                       0  1  0   1  0  0   0  0  1       0 -1  0  -1  0  0   0  0 -1
                       0 -1  0   1  0  0   0  0 -1       0  1  0  -1  0  0   0  0  1
                       0 -1  0  -1  0  0   0  0  1       0  1  0   1  0  0   0  0 -1
                       0  1  0  -1  0  0   0  0 -1       0 -1  0   1  0  0   0  0  1
                       0  0  1   1  0  0   0  1  0       0  0 -1  -1  0  0   0 -1  0
                       0  0 -1   1  0  0   0 -1  0       0  0  1  -1  0  0   0  1  0
                       0  0 -1  -1  0  0   0  1  0       0  0  1   1  0  0   0 -1  0
                       0  0  1  -1  0  0   0 -1  0       0  0 -1   1  0  0   0  1  0
                       1  0  0   0  0  1   0  1  0      -1  0  0   0  0 -1   0 -1  0
                      -1  0  0   0  0  1   0 -1  0       1  0  0   0  0 -1   0  1  0
                      -1  0  0   0  0 -1   0  1  0       1  0  0   0  0  1   0 -1  0
                       1  0  0   0  0 -1   0 -1  0      -1  0  0   0  0  1   0  1  0
                       0  1  0   0  0  1   1  0  0       0 -1  0   0  0 -1  -1  0  0
                       0 -1  0   0  0  1  -1  0  0       0  1  0   0  0 -1   1  0  0
                       0 -1  0   0  0 -1   1  0  0       0  1  0   0  0  1  -1  0  0
                       0  1  0   0  0 -1  -1  0  0       0 -1  0   0  0  1   1  0  0
                       0  0  1   0  1  0   1  0  0       0  0 -1   0 -1  0  -1  0  0
                       0  0 -1   0  1  0  -1  0  0       0  0  1   0 -1  0   1  0  0
                       0  0 -1   0 -1  0   1  0  0       0  0  1   0  1  0  -1  0  0
                       0  0  1   0 -1  0  -1  0  0       0  0 -1   0  1  0   1  0  0
           tolwfr      1.00000000E-20
            typat      1  2
           useylm           1
              wtk        0.50000    0.50000
           xangst      0.0000000000E+00  0.0000000000E+00  0.0000000000E+00
                       1.9436847115E+00  1.9436847115E+00  1.9436847115E+00
            xcart      0.0000000000E+00  0.0000000000E+00  0.0000000000E+00
                       3.6730317934E+00  3.6730317934E+00  3.6730317934E+00
             xred      0.0000000000E+00  0.0000000000E+00  0.0000000000E+00
                       5.0000000000E-01  5.0000000000E-01  5.0000000000E-01
            znucl       37.00000   17.00000

- Timing analysis has been suppressed with timopt=0

 Suggested references for the acknowledgment of ABINIT usage.

 Calculation completed.
.Delivered  14 WARNINGs and   9 COMMENTs to log file.