.Version 9.5.1 of ABINIT

 ABINIT is a project of the Universite Catholique de Louvain,
 Corning Inc. and other collaborators, see ~abinit/doc/developers/contributors.txt .
 acknowledgments of the ABINIT effort.

.Starting date : Wed 19 May 2021.
- ( at 07h44 )

- input  file    -> /scratch/users/j/a/jabreu/flow_simple_9atoms/flow/w110/t1/run.abi
- output file    -> /scratch/users/j/a/jabreu/flow_simple_9atoms/flow/w110/t1/run.abo
- root for input  files -> /scratch/users/j/a/jabreu/flow_simple_9atoms/flow/w110/t1/indata/in
- root for output files -> /scratch/users/j/a/jabreu/flow_simple_9atoms/flow/w110/t1/outdata/out

 Symmetries : space group Fm -3 m (#225); Bravais cF (face-center cubic)
     intxc =       0      iscf =       7    lmnmax =      18     lnmax =       6
     mgfft =      54  mpssoang =       3    mqgrid =    3001     natom =       9
  nloc_mem =       1    nspden =       1   nspinor =       1    nsppol =       1
      nsym =      48    n1xccc =    2501    ntypat =       3    occopt =       1
   xclevel =       2
-    mband =          30        mffmem =           1         mkmem =           2
-   mkqmem =           2        mk1mem =           2           mpw =        6710
      nfft =      157464          nkpt =           2
  Rough estimation (10% accuracy) of disk space for files :

------------- Echo of variables that govern the present computation ------------
-
- outvars: echo of selected default values
-   iomode0 =  0 , fftalg0 =512 , wfoptalg0 =  0
-
- outvars: echo of global parameters not present in the input file
-  max_nthreads =    0
-
 -outvars: echo values of preprocessed input variables --------
            acell      1.0000000000E+00  1.0000000000E+00  1.0000000000E+00 Bohr
              amu      2.43050000E+01  5.58470000E+01  1.00794000E+00
             ecut      4.70000000E+01 Hartree
-          fftalg         512
           irdden           1
           irdwfk           1
           istwfk        0    1
              ixc     -116133
              kpt      5.00000000E-01  2.50000000E-01  7.50000000E-01
                       5.00000000E-01  0.00000000E+00  5.00000000E-01
           kptopt           0
P           mkmem           2
P          mkqmem           2
P          mk1mem           2
            natom           9
            nband          30
           nbdbuf           4
            ngfft          54      54      54
             nkpt           2
            nstep        2000
             nsym          48
           ntypat           3
              occ      2.000000  2.000000  2.000000  2.000000  2.000000  2.000000
                       2.000000  2.000000  2.000000  2.000000  2.000000  2.000000
                       2.000000  2.000000  2.000000  2.000000  2.000000  2.000000
                       2.000000  2.000000  2.000000  0.000000  0.000000  0.000000
                       0.000000  0.000000  0.000000  0.000000  0.000000  0.000000
        optdriver           1
            prtwf          -1
            rfdir           1       1       1
           rfelfd           2
            rprim      7.3440229958E+00  0.0000000000E+00  4.2400736535E+00
                       2.4480076653E+00  6.9240112820E+00  4.2400736535E+00
                       0.0000000000E+00  0.0000000000E+00  8.4801473071E+00
          spgroup         225
           symrel      1  0  0   0  1  0   0  0  1      -1  0  0   0 -1  0   0  0 -1
                       0 -1  1   0 -1  0   1 -1  0       0  1 -1   0  1  0  -1  1  0
                      -1  0  0  -1  0  1  -1  1  0       1  0  0   1  0 -1   1 -1  0
                       0  1 -1   1  0 -1   0  0 -1       0 -1  1  -1  0  1   0  0  1
                      -1  0  0  -1  1  0  -1  0  1       1  0  0   1 -1  0   1  0 -1
                       0 -1  1   1 -1  0   0 -1  0       0  1 -1  -1  1  0   0  1  0
                       1  0  0   0  0  1   0  1  0      -1  0  0   0  0 -1   0 -1  0
                       0  1 -1   0  0 -1   1  0 -1       0 -1  1   0  0  1  -1  0  1
                      -1  0  1  -1  1  0  -1  0  0       1  0 -1   1 -1  0   1  0  0
                       0 -1  0   1 -1  0   0 -1  1       0  1  0  -1  1  0   0  1 -1
                       1  0 -1   0  0 -1   0  1 -1      -1  0  1   0  0  1   0 -1  1
                       0  1  0   0  0  1   1  0  0       0 -1  0   0  0 -1  -1  0  0
                       1  0 -1   0  1 -1   0  0 -1      -1  0  1   0 -1  1   0  0  1
                       0 -1  0   0 -1  1   1 -1  0       0  1  0   0  1 -1  -1  1  0
                      -1  0  1  -1  0  0  -1  1  0       1  0 -1   1  0  0   1 -1  0
                       0  1  0   1  0  0   0  0  1       0 -1  0  -1  0  0   0  0 -1
                       0  0 -1   0  1 -1   1  0 -1       0  0  1   0 -1  1  -1  0  1
                       1 -1  0   0 -1  1   0 -1  0      -1  1  0   0  1 -1   0  1  0
                       0  0  1   1  0  0   0  1  0       0  0 -1  -1  0  0   0 -1  0
                      -1  1  0  -1  0  0  -1  0  1       1 -1  0   1  0  0   1  0 -1
                       0  0  1   0  1  0   1  0  0       0  0 -1   0 -1  0  -1  0  0
                       1 -1  0   0 -1  0   0 -1  1      -1  1  0   0  1  0   0  1 -1
                       0  0 -1   1  0 -1   0  1 -1       0  0  1  -1  0  1   0 -1  1
                      -1  1  0  -1  0  1  -1  0  0       1 -1  0   1  0 -1   1  0  0
           tolwfr      1.00000000E-20
            typat      1  1  2  3  3  3  3  3  3
           useylm           1
              wtk        0.50000    0.50000
           xangst      1.2954298629E+00  9.1600724061E-01  2.2437503402E+00
                       3.8862895888E+00  2.7480217218E+00  6.7312510206E+00
                       0.0000000000E+00  0.0000000000E+00  0.0000000000E+00
                       3.2536042346E+00  8.9475220860E-01  5.6354078419E+00
                       1.2653707084E+00  8.9475220860E-01  4.4875006804E+00
                       3.9163487433E+00  2.7692767539E+00  4.4875006804E+00
                       1.9281152171E+00  2.7692767539E+00  3.3395935188E+00
                       1.9281152171E+00  2.7692767539E+00  5.6354078419E+00
                       3.2536042346E+00  8.9475220860E-01  3.3395935188E+00
            xcart      2.4480076653E+00  1.7310028205E+00  4.2400736535E+00
                       7.3440229958E+00  5.1930084615E+00  1.2720220961E+01
                       0.0000000000E+00  0.0000000000E+00  0.0000000000E+00
                       6.1484209481E+00  1.6908366311E+00  1.0649377468E+01
                       2.3912040954E+00  1.6908366311E+00  8.4801473071E+00
                       7.4008265657E+00  5.2331746509E+00  8.4801473070E+00
                       3.6436097130E+00  5.2331746509E+00  6.3109171457E+00
                       3.6436097130E+00  5.2331746509E+00  1.0649377468E+01
                       6.1484209481E+00  1.6908366311E+00  6.3109171457E+00
             xred      2.5000000000E-01  2.5000000000E-01  2.5000000000E-01
                       7.5000000000E-01  7.5000000000E-01  7.5000000000E-01
                       0.0000000000E+00  0.0000000000E+00  0.0000000000E+00
                       7.5580100000E-01  2.4419900000E-01  7.5580100000E-01
                       2.4419900000E-01  2.4419900000E-01  7.5580100000E-01
                       7.5580100000E-01  7.5580100000E-01  2.4419900000E-01
                       2.4419900000E-01  7.5580100000E-01  2.4419900000E-01
                       2.4419900000E-01  7.5580100000E-01  7.5580100000E-01
                       7.5580100000E-01  2.4419900000E-01  2.4419900000E-01
            znucl       12.00000   26.00000    1.00000

 chkinp: Checking input parameters for consistency.

== DATASET  1 ==================================================================
-   mpi_nproc: 1, omp_nthreads: -1 (-1 if OMP is not activated)

--- !DatasetInfo
iteration_state: {dtset: 1, }
dimensions: {natom: 9, nkpt: 2, mband: 30, nsppol: 1, nspinor: 1, nspden: 1, mpw: 6710, }
cutoff_energies: {ecut:  47.0, pawecutdg:  -1.0, }
electrons: {nelect:   4.20000000E+01, charge:   0.00000000E+00, occopt:   1.00000000E+00, tsmear:   1.00000000E-02, }
meta: {optdriver: 1, rfelfd: 2, }
...

 Real(R)+Recip(G) space primitive vectors, cartesian coordinates (Bohr,Bohr^-1):
 R(1)=  7.3440230  0.0000000  4.2400737  G(1)=  0.1361652 -0.0481417  0.0000000
 R(2)=  2.4480077  6.9240113  4.2400737  G(2)=  0.0000000  0.1444250  0.0000000
 R(3)=  0.0000000  0.0000000  8.4801473  G(3)= -0.0680826 -0.0481417  0.1179225
 Unit cell volume ucvol=  4.3121632E+02 bohr^3
 Angles (23,13,12)=  6.00000000E+01  6.00000000E+01  6.00000000E+01 degrees

 getcut: wavevector=  0.0000  0.0000  0.0000  ngfft=  54  54  54
         ecut(hartree)=     47.000   => boxcut(ratio)=   2.06407

--- Pseudopotential description ------------------------------------------------
- pspini: atom type   1  psp file is /scratch/users/j/a/jabreu/pseudos/PBEsol/Mg.psp8
- pspatm: opening atomic psp file    /scratch/users/j/a/jabreu/pseudos/PBEsol/Mg.psp8
- Mg    ONCVPSP-3.3.0  r_core=   1.16056   1.56380
- 12.00000  10.00000    180112                znucl, zion, pspdat
    8 -116133    1    4       400   0.00000   pspcod,pspxc,lmax,lloc,mmax,r2well
    3.99000000000000    0.00000000000000    0.00000000000000   rchrg,fchrg,qchrg
     nproj     2     2
     extension_switch     1
  pspatm : epsatm=    9.18164846
         --- l  ekb(1:nproj) -->
             0    2.230603   -0.826587
             1   -6.503151   -2.501445
 pspatm: atomic psp has been read  and splines computed

- pspini: atom type   2  psp file is /scratch/users/j/a/jabreu/pseudos/PBEsol/Fe.psp8
- pspatm: opening atomic psp file    /scratch/users/j/a/jabreu/pseudos/PBEsol/Fe.psp8
- Fe    ONCVPSP-3.3.0  r_core=   1.26437   1.20546   1.56719
- 26.00000  16.00000    180112                znucl, zion, pspdat
    8 -116133    2    4       600   0.00000   pspcod,pspxc,lmax,lloc,mmax,r2well
    5.99000000000000    3.00000000000000    0.00000000000000   rchrg,fchrg,qchrg
     nproj     2     2     2
     extension_switch     1
  pspatm : epsatm=   15.04792780
         --- l  ekb(1:nproj) -->
             0   10.133364    1.456638
             1    1.580231   -0.508538
             2   -5.545701   -2.037616
 pspatm: atomic psp has been read  and splines computed

- pspini: atom type   3  psp file is /scratch/users/j/a/jabreu/pseudos/PBEsol/H.psp8
- pspatm: opening atomic psp file    /scratch/users/j/a/jabreu/pseudos/PBEsol/H.psp8
- H     ONCVPSP-3.3.0  r_core=   1.00957   0.70586
-  1.00000   1.00000    180112                znucl, zion, pspdat
    8 -116133    1    4       300   0.00000   pspcod,pspxc,lmax,lloc,mmax,r2well
    2.99000000000000    0.00000000000000    0.00000000000000   rchrg,fchrg,qchrg
     nproj     2     1
     extension_switch     1
  pspatm : epsatm=    0.35627032
         --- l  ekb(1:nproj) -->
             0   -1.674911   -0.523609
             1   -0.494138
 pspatm: atomic psp has been read  and splines computed

   1.49305156E+03                                ecore*ucvol(ha*bohr**3)

-inwffil : will read wavefunctions from disk file /scratch/users/j/a/jabreu/flow_simple_9atoms/flow/w110/t1/indata/in_WFK

[...]
-ETOT  1  -36.454895653513     -3.645E+01 1.441E-01 0.000E+00
 ETOT  2  -36.468362737521     -1.347E-02 2.254E-04 0.000E+00
 ETOT  3  -36.468410416549     -4.768E-05 4.159E-06 0.000E+00
 ETOT  4  -36.468410766484     -3.499E-07 3.204E-08 0.000E+00
 ETOT  5  -36.468410769656     -3.172E-09 3.773E-10 0.000E+00
 ETOT  6  -36.468410769687     -3.143E-11 9.081E-12 0.000E+00
 ETOT  7  -36.468410769688     -3.482E-13 1.111E-13 0.000E+00
 ETOT  8  -36.468410769688     -3.553E-14 2.837E-15 0.000E+00
 ETOT  9  -36.468410769688      3.553E-14 3.633E-17 0.000E+00
 ETOT 10  -36.468410769688     -7.105E-15 9.459E-19 0.000E+00
 ETOT 11  -36.468410769688      7.105E-15 1.388E-20 0.000E+00
 ETOT 12  -36.468410769688      0.000E+00 9.506E-21 0.000E+00

 At SCF step   12   max residual=  9.51E-21 < tolwfr=  1.00E-20 =>converged.

 ----iterations are completed or convergence reached----

 dfpt_looppert: DFPT cycle converged with prtwf=-1. Will skip output of the 1st-order WFK file.
 dfpt_looppert : ek2=    6.9170909980E+01
          f-sum rule ratio=    9.3400852073E-01
 prteigrs : about to open file /scratch/users/j/a/jabreu/flow_simple_9atoms/flow/w110/t1/tmpdata/tmp_1WF1_EIG
 Expectation of eigenvalue derivatives (hartree) for nkpt=   2  k points:
  (in case of degenerate eigenvalues, averaged derivative)
 kpt#   1, nband= 30, wtk=  0.50000, kpt=  0.5000  0.2500  0.7500 (reduced coord)
   0.00000   -0.00000   -0.00000    0.00000   -0.00000   -0.00000   -0.00000    0.00000
  -0.00000   -0.00000    0.00000   -0.00000    0.00000    0.00000   -0.00000   -0.00000
  -0.00000    0.00000   -0.00000   -0.00000    0.00000   -0.00000    0.00000    0.00000
   0.00000   -0.00000   -0.00000    0.00000    0.00000    0.04116
 prteigrs : prtvol=0 or 1, do not print more k-points.

 Eight components of 2nd-order total energy (hartree) are
 1,2,3: 0th-order hamiltonian combined with 1st-order wavefunctions
     kin0=   3.96265705E+01 eigvalue=   4.57999454E+00  local=  -1.64100398E+01
 4,5,6: 1st-order hamiltonian combined with 1st and 0th-order wfs
     kin1=  -6.46062193E+01  Hartree=   0.00000000E+00     xc=   0.00000000E+00
 7,8,9: eventually, occupation + non-local contributions
    edocc=   8.90629764E+00     enl0=  -2.34412177E-01   enl1=  -8.33060223E+00
 1-9 gives the relaxation energy (to be shifted if some occ is /=2.0)
   erelax=  -3.64684108E+01
  No Ewald or frozen-wf contrib.: the relaxation energy is the total one
 2DEtotal=   -0.3646841077E+02 Ha. Also 2DEtotal=   -0.992355924218E+03 eV
    (  non-var. 2DEtotal :   -3.6468410770E+01 Ha)

 Perturbation wavevector (in red.coord.)   0.000000  0.000000  0.000000
 Perturbation : derivative vs k along direction   2
 The set of symmetries contains only one element for this perturbation.
 symkpt : not enough symmetry to change the number of k points.

[...]

 Perturbation wavevector (in red.coord.)   0.000000  0.000000  0.000000
 Perturbation : derivative vs k along direction   3
 The set of symmetries contains only one element for this perturbation.
 symkpt : not enough symmetry to change the number of k points.

-inwffil : will read wavefunctions from disk file /scratch/users/j/a/jabreu/flow_simple_9atoms/flow/w110/t1/indata/in_WFK

 Initialisation of the first-order wave-functions :
  ireadwf=   0

--- !BeginCycle
iteration_state: {dtset: 1, }
solver: {iscf: 7, nstep: 2000, nline: 4, wfoptalg: 0, }
tolerances: {tolwfr: 1.00E-20, }
...

     iter   2DEtotal(Ha)        deltaE(Ha) residm    vres2
-ETOT  1  -36.454673647874     -3.645E+01 1.441E-01 0.000E+00
 ETOT  2  -36.468367848950     -1.369E-02 2.254E-04 0.000E+00
 ETOT  3  -36.468415019633     -4.717E-05 4.389E-06 0.000E+00
 ETOT  4  -36.468415366214     -3.466E-07 2.526E-08 0.000E+00
 ETOT  5  -36.468415369383     -3.169E-09 3.806E-10 0.000E+00
 ETOT  6  -36.468415369415     -3.200E-11 7.930E-12 0.000E+00
 ETOT  7  -36.468415369415     -3.482E-13 1.198E-13 0.000E+00
 ETOT  8  -36.468415369415      7.105E-15 2.743E-15 0.000E+00
 ETOT  9  -36.468415369415      1.421E-14 4.372E-17 0.000E+00
 ETOT 10  -36.468415369415     -1.421E-14 1.009E-18 0.000E+00
 ETOT 11  -36.468415369415      0.000E+00 1.655E-20 0.000E+00
 ETOT 12  -36.468415369415      0.000E+00 9.505E-21 0.000E+00

 At SCF step   12   max residual=  9.51E-21 < tolwfr=  1.00E-20 =>converged.

 ----iterations are completed or convergence reached----

 dfpt_looppert: DFPT cycle converged with prtwf=-1. Will skip output of the 1st-order WFK file.
 dfpt_looppert : ek2=    6.9170909979E+01
          f-sum rule ratio=    9.3400865387E-01
 prteigrs : about to open file /scratch/users/j/a/jabreu/flow_simple_9atoms/flow/w110/t1/tmpdata/tmp_1WF1_EIG
 Expectation of eigenvalue derivatives (hartree) for nkpt=   2  k points:
  (in case of degenerate eigenvalues, averaged derivative)
 kpt#   1, nband= 30, wtk=  0.50000, kpt=  0.5000  0.2500  0.7500 (reduced coord)
   0.00000    0.00000    0.00000    0.00000   -0.00000   -0.00000    0.00000   -0.00000
  -0.00000   -0.00000   -0.00000    0.00000   -0.00000    0.00000   -0.00000   -0.00000
  -0.00000   -0.00000    0.00000    0.00000    0.00000    0.00000   -0.00000    0.00000
   0.00000   -0.00000   -0.00000   -0.00000   -0.00001   -0.04132
 prteigrs : prtvol=0 or 1, do not print more k-points.

 Eight components of 2nd-order total energy (hartree) are
 1,2,3: 0th-order hamiltonian combined with 1st-order wavefunctions
     kin0=   3.96386191E+01 eigvalue=   4.57589165E+00  local=  -1.64031399E+01
 4,5,6: 1st-order hamiltonian combined with 1st and 0th-order wfs
     kin1=  -6.46062285E+01  Hartree=   0.00000000E+00     xc=   0.00000000E+00
 7,8,9: eventually, occupation + non-local contributions
    edocc=   8.89013826E+00     enl0=  -2.33093770E-01   enl1=  -8.33060222E+00
 1-9 gives the relaxation energy (to be shifted if some occ is /=2.0)
   erelax=  -3.64684154E+01
  No Ewald or frozen-wf contrib.: the relaxation energy is the total one
 2DEtotal=   -0.3646841537E+02 Ha. Also 2DEtotal=   -0.992356049383E+03 eV
    (  non-var. 2DEtotal :   -3.6468415369E+01 Ha)

 CALCULATION OF EFFECTIVE MASSES
 NOTE : Additional infos (eff. mass eigenvalues, eigenvectors and, if degenerate, average mass) are available in stdout.

 K-point ( 0.500, 0.250, 0.750) | band =    21
 Effective mass tensor:
           -292.6725994384            407.1719967605            498.6781490497
            407.1719967605           -580.5994893975           -705.2478347252
            498.6781490497           -705.2478347252           -868.5051431923
 Effective mass tensor eigenvalues:
          -1732.2516307114             -4.7628162092             -4.7627851077
 Angular average effective mass 1/(<1/m>)=  -7.1343930326
 Angular average effective mass for Frohlich model (<m**0.5>)**2= -11.0101778325
 Effective masses along directions: (cart. coord. / red. coord. -> eff. mass)
    1:   1.000000  0.000000  0.000000 /   0.948683  0.316228  0.000000 ->  -5.7121815369
    2:   0.000000  1.000000  0.000000 /   0.000000  1.000000  0.000000 ->  -7.1344526407
    3:   0.000000  0.000000  1.000000 /   0.408248  0.408248  0.816497 ->  -9.4994823750
    4:   0.577350  0.577350  0.577350 /   0.585539  0.688047  0.428644 ->  -6.3948364793
    5:   0.000000  0.707107  0.707107 /   0.289489  0.762222  0.578977 -> -26.8553401353
    6:   0.707107  0.000000  0.707107 /   0.731423  0.422287  0.535439 ->  -4.9847979135
    7:   0.707107  0.707107  0.000000 /   0.616798  0.787122  0.000000 ->  -4.8316903232

 K-point ( 0.500, 0.000, 0.500) | band =    22
 Effective mass tensor:
              1.0023399294             -0.5249374297              0.6429144248
             -0.5249374297              1.3735267456             -0.9092182991
              0.6429144248             -0.9092182991              1.7447135620
 Effective mass tensor eigenvalues:
              0.6311531131              0.6311531132              2.8582740107
 Angular average effective mass 1/(<1/m>)=   0.8525961613
 Angular average effective mass for Frohlich model (<m**0.5>)**2=   0.9476183214
 Effective masses along directions: (cart. coord. / red. coord. -> eff. mass)
    1:   1.000000  0.000000  0.000000 /   0.948683  0.316228  0.000000 ->   0.7253499371
    2:   0.000000  1.000000  0.000000 /   0.000000  1.000000  0.000000 ->   0.8525961613
    3:   0.000000  0.000000  1.000000 /   0.408248  0.408248  0.816497 ->   1.0339855089
    4:   0.577350  0.577350  0.577350 /   0.585539  0.688047  0.428644 ->   0.6824590446
    5:   0.000000  0.707107  0.707107 /   0.289489  0.762222  0.578977 ->   0.6353204741
    6:   0.707107  0.000000  0.707107 /   0.731423  0.422287  0.535439 ->   1.2247289500
    7:   0.707107  0.707107  0.000000 /   0.616798  0.787122  0.000000 ->   0.6382637334

 END OF EFFECTIVE MASSES SECTION

 ---- first-order wavefunction calculations are completed ----

 Total localisation tensor (bohr^2) in cartesian coordinates
  WARNING : still subject to testing - especially symmetries.
      direction              matrix element
   alpha     beta       real part   imaginary part
     1        1       0.6365356833    0.0000000000
     1        2       0.1800394404    0.0000000000
     1        3       0.4410048419    0.0000000000
     2        1       0.1800394404    0.0000000000
     2        2       0.5092284368    0.0000000000
     2        3       0.3118374582    0.0000000000
     3        1       0.4410048419    0.0000000000
     3        2       0.3118374582    0.0000000000
     3        3       1.1457646408    0.0000000000

 respfn : d/dk was computed, but no 2DTE, so no DDB output.

== END DATASET(S) ==============================================================

 -outvars: echo values of variables after computation  --------
            acell      1.0000000000E+00  1.0000000000E+00  1.0000000000E+00 Bohr
              amu      2.43050000E+01  5.58470000E+01  1.00794000E+00
             ecut      4.70000000E+01 Hartree
           etotal     -3.6468415369E+01
            fcart      0.0000000000E+00  0.0000000000E+00  0.0000000000E+00
                       0.0000000000E+00  0.0000000000E+00  0.0000000000E+00
                       0.0000000000E+00  0.0000000000E+00  0.0000000000E+00
                       0.0000000000E+00  0.0000000000E+00  0.0000000000E+00
                       0.0000000000E+00  0.0000000000E+00  0.0000000000E+00
                       0.0000000000E+00  0.0000000000E+00  0.0000000000E+00
                       0.0000000000E+00  0.0000000000E+00  0.0000000000E+00
                       0.0000000000E+00  0.0000000000E+00  0.0000000000E+00
                       0.0000000000E+00  0.0000000000E+00  0.0000000000E+00
-          fftalg         512
           irdden           1
           irdwfk           1
           istwfk        0    1
              ixc     -116133
              kpt      5.00000000E-01  2.50000000E-01  7.50000000E-01
                       5.00000000E-01  0.00000000E+00  5.00000000E-01
           kptopt           0
P           mkmem           2
P          mkqmem           2
P          mk1mem           2
            natom           9
            nband          30
           nbdbuf           4
            ngfft          54      54      54
             nkpt           2
            nstep        2000
             nsym          48
           ntypat           3
              occ      2.000000  2.000000  2.000000  2.000000  2.000000  2.000000
                       2.000000  2.000000  2.000000  2.000000  2.000000  2.000000
                       2.000000  2.000000  2.000000  2.000000  2.000000  2.000000
                       2.000000  2.000000  2.000000  0.000000  0.000000  0.000000
                       0.000000  0.000000  0.000000  0.000000  0.000000  0.000000
        optdriver           1
            prtwf          -1
            rfdir           1       1       1
           rfelfd           2
            rprim      7.3440229958E+00  0.0000000000E+00  4.2400736535E+00
                       2.4480076653E+00  6.9240112820E+00  4.2400736535E+00
                       0.0000000000E+00  0.0000000000E+00  8.4801473071E+00
          spgroup         225
           strten      0.0000000000E+00  0.0000000000E+00  0.0000000000E+00
                       0.0000000000E+00  0.0000000000E+00  0.0000000000E+00
           symrel      1  0  0   0  1  0   0  0  1      -1  0  0   0 -1  0   0  0 -1
                       0 -1  1   0 -1  0   1 -1  0       0  1 -1   0  1  0  -1  1  0
                      -1  0  0  -1  0  1  -1  1  0       1  0  0   1  0 -1   1 -1  0
                       0  1 -1   1  0 -1   0  0 -1       0 -1  1  -1  0  1   0  0  1
                      -1  0  0  -1  1  0  -1  0  1       1  0  0   1 -1  0   1  0 -1
                       0 -1  1   1 -1  0   0 -1  0       0  1 -1  -1  1  0   0  1  0
                       1  0  0   0  0  1   0  1  0      -1  0  0   0  0 -1   0 -1  0
                       0  1 -1   0  0 -1   1  0 -1       0 -1  1   0  0  1  -1  0  1
                      -1  0  1  -1  1  0  -1  0  0       1  0 -1   1 -1  0   1  0  0
                       0 -1  0   1 -1  0   0 -1  1       0  1  0  -1  1  0   0  1 -1
                       1  0 -1   0  0 -1   0  1 -1      -1  0  1   0  0  1   0 -1  1
                       0  1  0   0  0  1   1  0  0       0 -1  0   0  0 -1  -1  0  0
                       1  0 -1   0  1 -1   0  0 -1      -1  0  1   0 -1  1   0  0  1
                       0 -1  0   0 -1  1   1 -1  0       0  1  0   0  1 -1  -1  1  0
                      -1  0  1  -1  0  0  -1  1  0       1  0 -1   1  0  0   1 -1  0
                       0  1  0   1  0  0   0  0  1       0 -1  0  -1  0  0   0  0 -1
                       0  0 -1   0  1 -1   1  0 -1       0  0  1   0 -1  1  -1  0  1
                       1 -1  0   0 -1  1   0 -1  0      -1  1  0   0  1 -1   0  1  0
                       0  0  1   1  0  0   0  1  0       0  0 -1  -1  0  0   0 -1  0
                      -1  1  0  -1  0  0  -1  0  1       1 -1  0   1  0  0   1  0 -1
                       0  0  1   0  1  0   1  0  0       0  0 -1   0 -1  0  -1  0  0
                       1 -1  0   0 -1  0   0 -1  1      -1  1  0   0  1  0   0  1 -1
                       0  0 -1   1  0 -1   0  1 -1       0  0  1  -1  0  1   0 -1  1
                      -1  1  0  -1  0  1  -1  0  0       1 -1  0   1  0 -1   1  0  0
           tolwfr      1.00000000E-20
            typat      1  1  2  3  3  3  3  3  3
           useylm           1
              wtk        0.50000    0.50000
           xangst      1.2954298629E+00  9.1600724061E-01  2.2437503402E+00
                       3.8862895888E+00  2.7480217218E+00  6.7312510206E+00
                       0.0000000000E+00  0.0000000000E+00  0.0000000000E+00
                       3.2536042346E+00  8.9475220860E-01  5.6354078419E+00
                       1.2653707084E+00  8.9475220860E-01  4.4875006804E+00
                       3.9163487433E+00  2.7692767539E+00  4.4875006804E+00
                       1.9281152171E+00  2.7692767539E+00  3.3395935188E+00
                       1.9281152171E+00  2.7692767539E+00  5.6354078419E+00
                       3.2536042346E+00  8.9475220860E-01  3.3395935188E+00
            xcart      2.4480076653E+00  1.7310028205E+00  4.2400736535E+00
                       7.3440229958E+00  5.1930084615E+00  1.2720220961E+01
                       0.0000000000E+00  0.0000000000E+00  0.0000000000E+00
                       6.1484209481E+00  1.6908366311E+00  1.0649377468E+01
                       2.3912040954E+00  1.6908366311E+00  8.4801473071E+00
                       7.4008265657E+00  5.2331746509E+00  8.4801473070E+00
                       3.6436097130E+00  5.2331746509E+00  6.3109171457E+00
                       3.6436097130E+00  5.2331746509E+00  1.0649377468E+01
                       6.1484209481E+00  1.6908366311E+00  6.3109171457E+00
             xred      2.5000000000E-01  2.5000000000E-01  2.5000000000E-01
                       7.5000000000E-01  7.5000000000E-01  7.5000000000E-01
                       0.0000000000E+00  0.0000000000E+00  0.0000000000E+00
                       7.5580100000E-01  2.4419900000E-01  7.5580100000E-01
                       2.4419900000E-01  2.4419900000E-01  7.5580100000E-01
                       7.5580100000E-01  7.5580100000E-01  2.4419900000E-01
                       2.4419900000E-01  7.5580100000E-01  2.4419900000E-01
                       2.4419900000E-01  7.5580100000E-01  7.5580100000E-01
                       7.5580100000E-01  2.4419900000E-01  2.4419900000E-01
            znucl       12.00000   26.00000    1.00000

- Timing analysis has been suppressed with timopt=0

 Suggested references for the acknowledgment of ABINIT usage.

 Calculation completed.
.Delivered  14 WARNINGs and   9 COMMENTs to log file.