.Version 9.5.1 of ABINIT

 ABINIT is a project of the Universite Catholique de Louvain,
 Corning Inc. and other collaborators, see ~abinit/doc/developers/contributors.txt .
 acknowledgments of the ABINIT effort.

.Starting date : Wed  5 May 2021.
- ( at 19h51 )

- input  file    -> /scratch/users/j/a/jabreu/flow_simple_7atoms/flow/w150/t1/run.abi
- output file    -> /scratch/users/j/a/jabreu/flow_simple_7atoms/flow/w150/t1/run.abo
- root for input  files -> /scratch/users/j/a/jabreu/flow_simple_7atoms/flow/w150/t1/indata/in
- root for output files -> /scratch/users/j/a/jabreu/flow_simple_7atoms/flow/w150/t1/outdata/out

 Symmetries : space group I-4 (# 82); Bravais tI (body-center tetrag.)
     intxc =       0      iscf =       7    lmnmax =      25     lnmax =       7
     mgfft =      90  mpssoang =       4    mqgrid =    3148     natom =       7
  nloc_mem =       1    nspden =       1   nspinor =       1    nsppol =       1
      nsym =       4    n1xccc =    2501    ntypat =       3    occopt =       1
   xclevel =       2
-    mband =          52        mffmem =           1         mkmem =           1
-   mkqmem =           1        mk1mem =           1           mpw =       22891
      nfft =      729000          nkpt =           1
  Rough estimation (10% accuracy) of disk space for files :

------------- Echo of variables that govern the present computation ------------
-
- outvars: echo of selected default values
-   iomode0 =  0 , fftalg0 =512 , wfoptalg0 =  0
-
- outvars: echo of global parameters not present in the input file
-  max_nthreads =    0
-
 -outvars: echo values of preprocessed input variables --------
            acell      1.0000000000E+00  1.0000000000E+00  1.0000000000E+00 Bohr
              amu      1.07868200E+02  2.00590000E+02  1.26904470E+02
             ecut      4.30000000E+01 Hartree
-          fftalg         512
           irdden           1
           irdwfk           1
           istwfk        1
              ixc     -116133
           kptopt           0
P           mkmem           1
P          mkqmem           1
P          mk1mem           1
            natom           7
            nband          52
           nbdbuf           4
            ngfft          90      90      90
             nkpt           1
            nstep        2000
             nsym           4
           ntypat           3
              occ      2.000000  2.000000  2.000000  2.000000  2.000000  2.000000
                       2.000000  2.000000  2.000000  2.000000  2.000000  2.000000
                       2.000000  2.000000  2.000000  2.000000  2.000000  2.000000
                       2.000000  2.000000  2.000000  2.000000  2.000000  2.000000
                       2.000000  2.000000  2.000000  2.000000  2.000000  2.000000
                       2.000000  2.000000  2.000000  2.000000  2.000000  2.000000
                       2.000000  2.000000  2.000000  2.000000  2.000000  2.000000
                       2.000000  0.000000  0.000000  0.000000  0.000000  0.000000
                       0.000000  0.000000  0.000000  0.000000
        optdriver           1
            prtwf          -1
            rfdir           1       1       1
           rfelfd           2
            rprim      1.0882432106E+01  0.0000000000E+00 -9.7509858844E+00
                      -2.1712942824E+00  1.0663620852E+01 -9.7509858844E+00
                       0.0000000000E+00  0.0000000000E+00  1.4611949023E+01
          spgroup          82
           symrel      1  0  0   0  1  0   0  0  1       0  1  0   1  0  0  -1 -1 -1
                       0  0  1  -1 -1 -1   0  1  0      -1 -1 -1   0  0  1   1  0  0
           tolwfr      1.00000000E-20
            typat      1  1  2  3  3  3  3
           useylm           1
           xangst      5.7793417559E-01  4.2322088370E+00 -1.2938442932E+00
                       2.3048677986E+00  2.8214725580E+00 -5.1599994913E+00
                       0.0000000000E+00  0.0000000000E+00  0.0000000000E+00
                      -1.0991610388E-01  3.3678394330E+00  3.8691945187E+00
                       1.8982958987E+00  2.0798541391E+00 -9.1578465354E-02
                       3.4815550851E+00  7.5950655495E-01 -3.6851068183E+00
                       3.9495363143E+00  5.0786901050E+00 -5.2678864078E+00
            xcart      1.0921373147E+00  7.9977156391E+00 -2.4450113727E+00
                       4.3555689118E+00  5.3318104261E+00 -9.7509858844E+00
                       0.0000000000E+00  0.0000000000E+00  0.0000000000E+00
                      -2.0771133393E-01  6.3642941879E+00  7.3117179951E+00
                       3.5872593678E+00  3.9303547192E+00 -1.7305821919E-01
                       6.5791856275E+00  1.4352593850E+00 -6.9638426570E+00
                       7.4635419859E+00  9.5973334123E+00 -9.9548626099E+00
             xred      2.5000000000E-01  7.5000000000E-01  5.0000000000E-01
                       5.0000000000E-01  5.0000000000E-01  0.0000000000E+00
                       0.0000000000E+00  0.0000000000E+00  0.0000000000E+00
                       9.9993000000E-02  5.9682300000E-01  9.6539900000E-01
                       4.0317700000E-01  3.6857600000E-01  5.0317000000E-01
                       6.3142400000E-01  1.3459400000E-01  3.4601000000E-02
                       8.6540600000E-01  9.0000700000E-01  4.9683000000E-01
            znucl       47.00000   80.00000   53.00000

 chkinp: Checking input parameters for consistency.

== DATASET  1 ==================================================================
-   mpi_nproc: 1, omp_nthreads: -1 (-1 if OMP is not activated)

--- !DatasetInfo
iteration_state: {dtset: 1, }
dimensions: {natom: 7, nkpt: 1, mband: 52, nsppol: 1, nspinor: 1, nspden: 1, mpw: 22891, }
cutoff_energies: {ecut:  43.0, pawecutdg:  -1.0, }
electrons: {nelect:   8.60000000E+01, charge:   0.00000000E+00, occopt:   1.00000000E+00, tsmear:   1.00000000E-02, }
meta: {optdriver: 1, rfelfd: 2, }
...

 Real(R)+Recip(G) space primitive vectors, cartesian coordinates (Bohr,Bohr^-1):
 R(1)= 10.8824321  0.0000000 -9.7509859  G(1)=  0.0918912  0.0187106  0.0000000
 R(2)= -2.1712943 10.6636209 -9.7509859  G(2)=  0.0000000  0.0937768  0.0000000
 R(3)=  0.0000000  0.0000000 14.6119490  G(3)=  0.0613217  0.0750662  0.0684371
 Unit cell volume ucvol=  1.6956601E+03 bohr^3
 Angles (23,13,12)=  1.31861294E+02  1.31861294E+02  7.04481863E+01 degrees

 getcut: wavevector=  0.0000  0.0000  0.0000  ngfft=  90  90  90
         ecut(hartree)=     43.000   => boxcut(ratio)=   2.08658

--- Pseudopotential description ------------------------------------------------
- pspini: atom type   1  psp file is /scratch/users/j/a/jabreu/pseudos/PBEsol/Ag.psp8
- pspatm: opening atomic psp file    /scratch/users/j/a/jabreu/pseudos/PBEsol/Ag.psp8
- Ag    ONCVPSP-3.3.0  r_core=   1.41384   1.46535   1.61207
- 47.00000  19.00000    180112                znucl, zion, pspdat
    8 -116133    2    4       600   0.00000   pspcod,pspxc,lmax,lloc,mmax,r2well
    5.99000000000000    7.00000000000000    0.00000000000000   rchrg,fchrg,qchrg
     nproj     2     2     2
     extension_switch     1
  pspatm : epsatm=   27.64581383
         --- l  ekb(1:nproj) -->
             0    9.559407   -0.398585
             1    3.418858   -0.136622
             2   -1.644397   -0.401551
 pspatm: atomic psp has been read  and splines computed

- pspini: atom type   2  psp file is /scratch/users/j/a/jabreu/pseudos/PBEsol/Hg.psp8
- pspatm: opening atomic psp file    /scratch/users/j/a/jabreu/pseudos/PBEsol/Hg.psp8
- Hg    ONCVPSP-3.3.0  r_core=   1.60079   1.60079   1.45509   1.60079
- 80.00000  20.00000    180112                znucl, zion, pspdat
    8 -116133    3    4       600   0.00000   pspcod,pspxc,lmax,lloc,mmax,r2well
    5.99000000000000    5.00000000000000    0.00000000000000   rchrg,fchrg,qchrg
     nproj     2     2     2     1
     extension_switch     1
  pspatm : epsatm=   30.52477316
         --- l  ekb(1:nproj) -->
             0   15.280580    2.063595
             1   11.999965    1.374025
             2    2.245749    0.205661
             3    0.961656
 pspatm: atomic psp has been read  and splines computed

- pspini: atom type   3  psp file is /scratch/users/j/a/jabreu/pseudos/PBEsol/I.psp8
- pspatm: opening atomic psp file    /scratch/users/j/a/jabreu/pseudos/PBEsol/I.psp8
- I     ONCVPSP-3.3.0  r_core=   2.02042   2.17032   2.27639
- 53.00000   7.00000    180112                znucl, zion, pspdat
    8 -116133    2    4       600   0.00000   pspcod,pspxc,lmax,lloc,mmax,r2well
    5.99000000000000    4.00000000000000    0.00000000000000   rchrg,fchrg,qchrg
     nproj     2     2     2
     extension_switch     1
  pspatm : epsatm=   18.14229533
         --- l  ekb(1:nproj) -->
             0    6.015861    0.935228
             1    4.063749    0.754139
             2    4.149534    0.722940
 pspatm: atomic psp has been read  and splines computed

   1.36211601E+04                                ecore*ucvol(ha*bohr**3)

-inwffil : will read wavefunctions from disk file /scratch/users/j/a/jabreu/flow_simple_7atoms/flow/w150/t1/indata/in_WFK

 ==>  initialize data related to q vector <==

 The list of irreducible perturbations for this q vector is:
    1)    idir= 1    ipert=   8
    2)    idir= 2    ipert=   8
    3)    idir= 3    ipert=   8

 Perturbation wavevector (in red.coord.)   0.000000  0.000000  0.000000
 Perturbation : derivative vs k along direction   1

 dfpt_looppert : COMMENT -
  In a d/dk calculation, iscf is set to -3 automatically.
 The set of symmetries contains only one element for this perturbation.
 symkpt : not enough symmetry to change the number of k points.

[...]

 Initialisation of the first-order wave-functions :
  ireadwf=   0

--- !BeginCycle
iteration_state: {dtset: 1, }
solver: {iscf: 7, nstep: 2000, nline: 4, wfoptalg: 0, }
tolerances: {tolwfr: 1.00E-20, }
...

     iter   2DEtotal(Ha)        deltaE(Ha) residm    vres2
-ETOT  1  -35.758632296198     -3.576E+01 8.597E-02 0.000E+00
 ETOT  2  -35.797220944054     -3.859E-02 2.210E-03 0.000E+00
 ETOT  3  -35.797440581131     -2.196E-04 9.901E-05 0.000E+00
 ETOT  4  -35.797442491924     -1.911E-06 3.123E-06 0.000E+00
 ETOT  5  -35.797442513044     -2.112E-08 1.883E-07 0.000E+00
 ETOT  6  -35.797442513305     -2.604E-10 5.311E-09 0.000E+00
 ETOT  7  -35.797442513308     -3.475E-12 3.490E-10 0.000E+00
 ETOT  8  -35.797442513308      0.000E+00 9.691E-12 0.000E+00
 ETOT  9  -35.797442513308     -4.974E-14 6.683E-13 0.000E+00
 ETOT 10  -35.797442513308      1.421E-14 1.856E-14 0.000E+00
 ETOT 11  -35.797442513308     -1.421E-14 1.320E-15 0.000E+00
 ETOT 12  -35.797442513308      0.000E+00 3.684E-17 0.000E+00
 ETOT 13  -35.797442513308      0.000E+00 2.672E-18 0.000E+00
 ETOT 14  -35.797442513308     -7.105E-15 7.504E-20 0.000E+00
 ETOT 15  -35.797442513308      2.132E-14 9.380E-21 0.000E+00

 At SCF step   15   max residual=  9.38E-21 < tolwfr=  1.00E-20 =>converged.

 ----iterations are completed or convergence reached----

 dfpt_looppert: DFPT cycle converged with prtwf=-1. Will skip output of the 1st-order WFK file.
 dfpt_looppert : ek2=    5.9714361531E+01
          f-sum rule ratio=    1.0976175523E+00
 prteigrs : about to open file /scratch/users/j/a/jabreu/flow_simple_7atoms/flow/w150/t1/tmpdata/tmp_1WF1_EIG
 Expectation of eigenvalue derivatives (hartree) for nkpt=   1  k points:
  (in case of degenerate eigenvalues, averaged derivative)
 kpt#   1, nband= 52, wtk=  1.00000, kpt=  0.0000  0.0000  0.0000 (reduced coord)
  -0.00000   -0.00000   -0.00000    0.00000    0.00000    0.00000    0.00000    0.00000
   0.00000    0.00000    0.00000    0.00000   -0.00000   -0.00000    0.00000    0.00000
  -0.00000   -0.00000   -0.00000    0.00000   -0.00000   -0.00000    0.00000   -0.00000
  -0.00000    0.00000    0.00000   -0.00000    0.00000    0.00000    0.00000   -0.00000
  -0.00000    0.00000    0.00000    0.00000   -0.00000    0.00000    0.00000    0.00000
  -0.00000   -0.00000   -0.00000    0.00000    0.00000    0.00000    0.00000   -0.00000
  -0.00000    0.00000    0.00000   -0.00000

 Eight components of 2nd-order total energy (hartree) are
 1,2,3: 0th-order hamiltonian combined with 1st-order wavefunctions
     kin0=   4.52019779E+01 eigvalue=   9.69620377E-01  local=  -2.51513081E+01
 4,5,6: 1st-order hamiltonian combined with 1st and 0th-order wfs
     kin1=  -6.55435313E+01  Hartree=   0.00000000E+00     xc=   0.00000000E+00
 7,8,9: eventually, occupation + non-local contributions
    edocc=   1.09929473E+01     enl0=   3.78420498E+00   enl1=  -6.05135368E+00
 1-9 gives the relaxation energy (to be shifted if some occ is /=2.0)
   erelax=  -3.57974425E+01
  No Ewald or frozen-wf contrib.: the relaxation energy is the total one
 2DEtotal=   -0.3579744251E+02 Ha. Also 2DEtotal=   -0.974097949436E+03 eV
    (  non-var. 2DEtotal :   -3.5797442513E+01 Ha)

 Perturbation wavevector (in red.coord.)   0.000000  0.000000  0.000000
 Perturbation : derivative vs k along direction   2
 The set of symmetries contains only one element for this perturbation.
 symkpt : not enough symmetry to change the number of k points.

[...]

 Perturbation wavevector (in red.coord.)   0.000000  0.000000  0.000000
 Perturbation : derivative vs k along direction   3
 The set of symmetries contains only one element for this perturbation.
 symkpt : not enough symmetry to change the number of k points.

-inwffil : will read wavefunctions from disk file /scratch/users/j/a/jabreu/flow_simple_7atoms/flow/w150/t1/indata/in_WFK

 Initialisation of the first-order wave-functions :
  ireadwf=   0

--- !BeginCycle
iteration_state: {dtset: 1, }
solver: {iscf: 7, nstep: 2000, nline: 4, wfoptalg: 0, }
tolerances: {tolwfr: 1.00E-20, }
...

     iter   2DEtotal(Ha)        deltaE(Ha) residm    vres2
-ETOT  1  -57.724005383845     -5.772E+01 4.726E-02 0.000E+00
 ETOT  2  -57.781675745939     -5.767E-02 3.510E-03 0.000E+00
 ETOT  3  -57.782011119626     -3.354E-04 6.361E-05 0.000E+00
 ETOT  4  -57.782014098473     -2.979E-06 5.021E-06 0.000E+00
 ETOT  5  -57.782014131131     -3.266E-08 1.031E-07 0.000E+00
 ETOT  6  -57.782014131520     -3.888E-10 8.995E-09 0.000E+00
 ETOT  7  -57.782014131525     -4.967E-12 1.981E-10 0.000E+00
 ETOT  8  -57.782014131525      9.948E-14 1.760E-11 0.000E+00
 ETOT  9  -57.782014131525     -1.421E-13 4.015E-13 0.000E+00
 ETOT 10  -57.782014131525     -7.816E-14 3.635E-14 0.000E+00
 ETOT 11  -57.782014131525      7.105E-15 8.421E-16 0.000E+00
 ETOT 12  -57.782014131525      2.842E-14 7.731E-17 0.000E+00
 ETOT 13  -57.782014131525     -2.132E-14 1.805E-18 0.000E+00
 ETOT 14  -57.782014131525     -7.105E-15 1.671E-19 0.000E+00
 ETOT 15  -57.782014131525     -7.105E-15 9.547E-21 0.000E+00

 At SCF step   15   max residual=  9.55E-21 < tolwfr=  1.00E-20 =>converged.

 ----iterations are completed or convergence reached----

 dfpt_looppert: DFPT cycle converged with prtwf=-1. Will skip output of the 1st-order WFK file.
 dfpt_looppert : ek2=    9.5599959288E+01
          f-sum rule ratio=    1.1072755489E+00
 prteigrs : about to open file /scratch/users/j/a/jabreu/flow_simple_7atoms/flow/w150/t1/tmpdata/tmp_1WF1_EIG
 Expectation of eigenvalue derivatives (hartree) for nkpt=   1  k points:
  (in case of degenerate eigenvalues, averaged derivative)
 kpt#   1, nband= 52, wtk=  1.00000, kpt=  0.0000  0.0000  0.0000 (reduced coord)
  -0.00000   -0.00000   -0.00000    0.00000    0.00000    0.00000    0.00000    0.00000
   0.00000    0.00000    0.00000    0.00000    0.00000   -0.00000   -0.00000   -0.00000
  -0.00000   -0.00000   -0.00000   -0.00000   -0.00000   -0.00000    0.00000   -0.00000
  -0.00000    0.00000    0.00000    0.00000    0.00000    0.00000    0.00000   -0.00000
  -0.00000    0.00000    0.00000    0.00000   -0.00000   -0.00000   -0.00000    0.00000
   0.00000   -0.00000   -0.00000    0.00000   -0.00000   -0.00000    0.00000   -0.00000
  -0.00000    0.00000    0.00000   -0.00000

 Eight components of 2nd-order total energy (hartree) are
 1,2,3: 0th-order hamiltonian combined with 1st-order wavefunctions
     kin0=   7.16237670E+01 eigvalue=   1.59451860E+00  local=  -3.97783108E+01
 4,5,6: 1st-order hamiltonian combined with 1st and 0th-order wfs
     kin1=  -1.05855497E+02  Hartree=   0.00000000E+00     xc=   0.00000000E+00
 7,8,9: eventually, occupation + non-local contributions
    edocc=   1.84516904E+01     enl0=   5.89034900E+00   enl1=  -9.70853087E+00
 1-9 gives the relaxation energy (to be shifted if some occ is /=2.0)
   erelax=  -5.77820141E+01
  No Ewald or frozen-wf contrib.: the relaxation energy is the total one
 2DEtotal=   -0.5778201413E+02 Ha. Also 2DEtotal=   -0.157232856674E+04 eV
    (  non-var. 2DEtotal :   -5.7782014131E+01 Ha)

 CALCULATION OF EFFECTIVE MASSES
 NOTE : Additional infos (eff. mass eigenvalues, eigenvectors and, if degenerate, average mass) are available in stdout.

 COMMENTS:
 - At k-point ( 0.000, 0.000, 0.000), bands    42 through    43
   are DEGENERATE (effective mass tensor is therefore not defined).
   See Section IIIB Eqs. (67)-(70) and Appendix E of PRB 93 205147 (2016).
 - Angular average effective mass for Frohlich model is to be averaged over degenerate bands. See later.
 - Associated theta integrals calculated with ntheta=   1000 points.

 K-point ( 0.000, 0.000, 0.000) | band =    42
 Transport equivalent effective mass tensor:
             -0.2653503832             -0.0971204219              0.1776169569
             -0.0971204219             -0.3049011203              0.2174273836
              0.1776169569              0.2174273836             -0.5836506663
 Transport equivalent effective mass tensor eigenvalues:
             -0.7818772236             -0.1860124754             -0.1860124708
 Angular average effective mass 1/(<1/m>)=  -0.2444084712
 Angular average effective mass for Frohlich model (<m**0.5>)**2=  -0.2696377268
 Effective masses along directions: (cart. coord. / red. coord. -> eff. mass)
    1:   1.000000  0.000000  0.000000 /   0.980671 -0.195666  0.000000 ->  -0.2149685400
    2:   0.000000  1.000000  0.000000 /   0.000000  1.000000  0.000000 ->  -0.2352654443
    3:   0.000000  0.000000  1.000000 /  -0.485326 -0.485326  0.727266 ->  -0.3507061011
    4:   0.577350  0.577350  0.577350 /   0.076919 -0.085567  0.993359 ->  -0.1694671241
    5:   0.000000  0.707107  0.707107 /  -0.554334  0.051882  0.830675 ->  -0.1970110681
    6:   0.707107  0.000000  0.707107 /   0.059888 -0.631056  0.773422 ->  -0.2123956540
    7:   0.707107  0.707107  0.000000 /   0.788361  0.615213  0.000000 ->  -0.2286897983

 K-point ( 0.000, 0.000, 0.000) | band =    43
 Transport equivalent effective mass tensor:
             -3.2020113456              0.0469919126             -0.0859403022
              0.0469919126             -3.1828747333             -0.1052025680
             -0.0859403022             -0.1052025680             -3.0480013396
 Transport equivalent effective mass tensor eigenvalues:
             -3.2403991914             -3.2403991721             -2.9520890550
 Angular average effective mass 1/(<1/m>)=  -1.0546887309
 Angular average effective mass for Frohlich model (<m**0.5>)**2=  -1.1642886494
 Effective masses along directions: (cart. coord. / red. coord. -> eff. mass)
    1:   1.000000  0.000000  0.000000 /   0.980671 -0.195666  0.000000 ->  -0.9013213391
    2:   0.000000  1.000000  0.000000 /   0.000000  1.000000  0.000000 ->  -0.7864569942
    3:   0.000000  0.000000  1.000000 /  -0.485326 -0.485326  0.727266 ->  -1.0160377768
    4:   0.577350  0.577350  0.577350 /   0.076919 -0.085567  0.993359 ->  -2.9373984599
    5:   0.000000  0.707107  0.707107 /  -0.554334  0.051882  0.830675 ->  -1.0888436179
    6:   0.707107  0.000000  0.707107 /   0.059888 -0.631056  0.773422 ->  -0.8584752955
    7:   0.707107  0.707107  0.000000 /   0.788361  0.615213  0.000000 ->  -1.4676324842

 Angular average effective mass for Frohlich model, averaged over degenerate bands.
 Value of     (<<m**0.5>>)**2 =     6.386316E-01
 Absolute Value of <<m**0.5>> =     7.991443E-01

 K-point ( 0.000, 0.000, 0.000) | band =    44
 Effective mass tensor:
              0.1887025250              0.0026756502             -0.0048933150
              0.0026756502              0.1897921399             -0.0059900850
             -0.0048933150             -0.0059900850              0.1974716398
 Effective mass tensor eigenvalues:
              0.1865167793              0.1865167799              0.2029327456
 Angular average effective mass 1/(<1/m>)=   0.1916854912
 Angular average effective mass for Frohlich model (<m**0.5>)**2=   0.1917750767
 Effective masses along directions: (cart. coord. / red. coord. -> eff. mass)
    1:   1.000000  0.000000  0.000000 /   0.980671 -0.195666  0.000000 ->   0.1885475856
    2:   0.000000  1.000000  0.000000 /   0.000000  1.000000  0.000000 ->   0.1895765695
    3:   0.000000  0.000000  1.000000 /  -0.485326 -0.485326  0.727266 ->   0.1971600120
    4:   0.577350  0.577350  0.577350 /   0.076919 -0.085567  0.993359 ->   0.1865169225
    5:   0.000000  0.707107  0.707107 /  -0.554334  0.051882  0.830675 ->   0.1875565618
    6:   0.707107  0.000000  0.707107 /   0.059888 -0.631056  0.773422 ->   0.1880709531
    7:   0.707107  0.707107  0.000000 /   0.788361  0.615213  0.000000 ->   0.1916216509

 END OF EFFECTIVE MASSES SECTION

 ---- first-order wavefunction calculations are completed ----

 Total localisation tensor (bohr^2) in cartesian coordinates
  WARNING : still subject to testing - especially symmetries.
      direction              matrix element
   alpha     beta       real part   imaginary part
     1        1       2.3754693856    0.0000000000
     1        2      -0.4466498125    0.0000000000
     1        3      -1.6385782508    0.0000000000
     2        1      -0.4466498125    0.0000000000
     2        2       2.1935784075    0.0000000000
     2        3      -2.0058432670    0.0000000000
     3        1      -1.6385782508    0.0000000000
     3        2      -2.0058432670    0.0000000000
     3        3      10.4082249010    0.0000000000

 respfn : d/dk was computed, but no 2DTE, so no DDB output.

== END DATASET(S) ==============================================================

 -outvars: echo values of variables after computation  --------
            acell      1.0000000000E+00  1.0000000000E+00  1.0000000000E+00 Bohr
              amu      1.07868200E+02  2.00590000E+02  1.26904470E+02
             ecut      4.30000000E+01 Hartree
           etotal     -5.7782014132E+01
            fcart      0.0000000000E+00  0.0000000000E+00  0.0000000000E+00
                       0.0000000000E+00  0.0000000000E+00  0.0000000000E+00
                       0.0000000000E+00  0.0000000000E+00  0.0000000000E+00
                       0.0000000000E+00  0.0000000000E+00  0.0000000000E+00
                       0.0000000000E+00  0.0000000000E+00  0.0000000000E+00
                       0.0000000000E+00  0.0000000000E+00  0.0000000000E+00
                       0.0000000000E+00  0.0000000000E+00  0.0000000000E+00
-          fftalg         512
           irdden           1
           irdwfk           1
           istwfk        1
              ixc     -116133
           kptopt           0
P           mkmem           1
P          mkqmem           1
P          mk1mem           1
            natom           7
            nband          52
           nbdbuf           4
            ngfft          90      90      90
             nkpt           1
            nstep        2000
             nsym           4
           ntypat           3
              occ      2.000000  2.000000  2.000000  2.000000  2.000000  2.000000
                       2.000000  2.000000  2.000000  2.000000  2.000000  2.000000
                       2.000000  2.000000  2.000000  2.000000  2.000000  2.000000
                       2.000000  2.000000  2.000000  2.000000  2.000000  2.000000
                       2.000000  2.000000  2.000000  2.000000  2.000000  2.000000
                       2.000000  2.000000  2.000000  2.000000  2.000000  2.000000
                       2.000000  2.000000  2.000000  2.000000  2.000000  2.000000
                       2.000000  0.000000  0.000000  0.000000  0.000000  0.000000
                       0.000000  0.000000  0.000000  0.000000
        optdriver           1
            prtwf          -1
            rfdir           1       1       1
           rfelfd           2
            rprim      1.0882432106E+01  0.0000000000E+00 -9.7509858844E+00
                      -2.1712942824E+00  1.0663620852E+01 -9.7509858844E+00
                       0.0000000000E+00  0.0000000000E+00  1.4611949023E+01
          spgroup          82
           strten      0.0000000000E+00  0.0000000000E+00  0.0000000000E+00
                       0.0000000000E+00  0.0000000000E+00  0.0000000000E+00
           symrel      1  0  0   0  1  0   0  0  1       0  1  0   1  0  0  -1 -1 -1
                       0  0  1  -1 -1 -1   0  1  0      -1 -1 -1   0  0  1   1  0  0
           tolwfr      1.00000000E-20
            typat      1  1  2  3  3  3  3
           useylm           1
           xangst      5.7793417559E-01  4.2322088370E+00 -1.2938442932E+00
                       2.3048677986E+00  2.8214725580E+00 -5.1599994913E+00
                       0.0000000000E+00  0.0000000000E+00  0.0000000000E+00
                      -1.0991610388E-01  3.3678394330E+00  3.8691945187E+00
                       1.8982958987E+00  2.0798541391E+00 -9.1578465354E-02
                       3.4815550851E+00  7.5950655495E-01 -3.6851068183E+00
                       3.9495363143E+00  5.0786901050E+00 -5.2678864078E+00
            xcart      1.0921373147E+00  7.9977156391E+00 -2.4450113727E+00
                       4.3555689118E+00  5.3318104261E+00 -9.7509858844E+00
                       0.0000000000E+00  0.0000000000E+00  0.0000000000E+00
                      -2.0771133393E-01  6.3642941879E+00  7.3117179951E+00
                       3.5872593678E+00  3.9303547192E+00 -1.7305821919E-01
                       6.5791856275E+00  1.4352593850E+00 -6.9638426570E+00
                       7.4635419859E+00  9.5973334123E+00 -9.9548626099E+00
             xred      2.5000000000E-01  7.5000000000E-01  5.0000000000E-01
                       5.0000000000E-01  5.0000000000E-01  0.0000000000E+00
                       0.0000000000E+00  0.0000000000E+00  0.0000000000E+00
                       9.9993000000E-02  5.9682300000E-01  9.6539900000E-01
                       4.0317700000E-01  3.6857600000E-01  5.0317000000E-01
                       6.3142400000E-01  1.3459400000E-01  3.4601000000E-02
                       8.6540600000E-01  9.0000700000E-01  4.9683000000E-01
            znucl       47.00000   80.00000   53.00000

- Timing analysis has been suppressed with timopt=0

 Suggested references for the acknowledgment of ABINIT usage.

 Calculation completed.
.Delivered   6 WARNINGs and   5 COMMENTs to log file.