.Version 9.5.2 of ABINIT

 ABINIT is a project of the Universite Catholique de Louvain,
 Corning Inc. and other collaborators, see ~abinit/doc/developers/contributors.txt .
 acknowledgments of the ABINIT effort.

.Starting date : Mon 31 May 2021.
- ( at 22h41 )

- input  file    -> /scratch/users/j/a/jabreu/flow_simple_11atoms/flow/w378/t1/run.abi
- output file    -> /scratch/users/j/a/jabreu/flow_simple_11atoms/flow/w378/t1/run.abo
- root for input  files -> /scratch/users/j/a/jabreu/flow_simple_11atoms/flow/w378/t1/indata/in
- root for output files -> /scratch/users/j/a/jabreu/flow_simple_11atoms/flow/w378/t1/outdata/out

 Symmetries : space group C2 (#  5); Bravais mC (1-face-center monocl.)
     intxc =       0      iscf =       7    lmnmax =      18     lnmax =       6
     mgfft =      72  mpssoang =       3    mqgrid =    3310     natom =      11
  nloc_mem =       1    nspden =       1   nspinor =       1    nsppol =       1
      nsym =       2    n1xccc =    2501    ntypat =       4    occopt =       1
   xclevel =       2
-    mband =          46        mffmem =           1         mkmem =           2
-   mkqmem =           2        mk1mem =           2           mpw =       19269
      nfft =      373248          nkpt =           2
  Rough estimation (10% accuracy) of disk space for files :

------------- Echo of variables that govern the present computation ------------
-
- outvars: echo of selected default values
-   iomode0 =  0 , fftalg0 =512 , wfoptalg0 =  0
-
- outvars: echo of global parameters not present in the input file
-  max_nthreads =    0
-
 -outvars: echo values of preprocessed input variables --------
            acell      1.0000000000E+00  1.0000000000E+00  1.0000000000E+00 Bohr
              amu      3.90983000E+01  1.14820000E+02  3.09737620E+01
                       3.20660000E+01
             ecut      3.60000000E+01 Hartree
-          fftalg         512
           irdden           1
           irdwfk           1
           istwfk        1    0
              ixc     -116133
              kpt      0.00000000E+00  0.00000000E+00  0.00000000E+00
                       1.12328022E-01  1.12328022E-01  5.36379350E-01
           kptopt           0
P           mkmem           2
P          mkqmem           2
P          mk1mem           2
            natom          11
            nband          46
           nbdbuf           4
            ngfft          72      72      72
             nkpt           2
            nstep        2000
             nsym           2
           ntypat           4
              occ      2.000000  2.000000  2.000000  2.000000  2.000000  2.000000
                       2.000000  2.000000  2.000000  2.000000  2.000000  2.000000
                       2.000000  2.000000  2.000000  2.000000  2.000000  2.000000
                       2.000000  2.000000  2.000000  2.000000  2.000000  2.000000
                       2.000000  2.000000  2.000000  2.000000  2.000000  2.000000
                       2.000000  2.000000  2.000000  2.000000  2.000000  2.000000
                       2.000000  0.000000  0.000000  0.000000  0.000000  0.000000
                       0.000000  0.000000  0.000000  0.000000
        optdriver           1
            prtwf          -1
            rfdir           1       1       1
           rfelfd           2
            rprim      1.2379372075E+01  0.0000000000E+00  1.8120097835E+00
                      -1.7758192859E+00  1.2251339471E+01  1.8120097835E+00
                       0.0000000000E+00  0.0000000000E+00  1.2317614734E+01
          spgroup           5
           symrel      1  0  0   0  1  0   0  0  1       0 -1  0  -1  0  0   0  0 -1
           tolwfr      1.00000000E-20
            typat      1  2  3  3  4  4  4  4  4  4  4
           useylm           1
              wtk        0.50000    0.50000
           xangst     -8.4203062681E-01  6.3985766465E+00  4.2179747699E+00
                       2.7316919089E+00  3.3055144021E+00  9.5887427917E-01
                       5.5959874354E+00  4.1645161109E+00  2.0940863312E+00
                       2.2924571665E+00  3.4761892726E-01  6.3418632086E+00
                      -7.2738692261E-01  6.2993523476E+00  9.5887427917E-01
                       2.3311117483E+00  5.4889027965E+00  6.1274048312E+00
                       3.8753575325E+00  4.0983622562E+00  3.1604442301E+00
                       2.1111026987E+00  2.0599431233E+00  5.2755053098E+00
                       5.3269392670E+00  3.3905860290E+00  6.7683927277E+00
                       3.0197880181E+00  7.2490465567E-01  1.6675568121E+00
                       5.1342185238E-01  3.3887448202E+00  2.3085447086E+00
            xcart     -1.5912072802E+00  1.2091557502E+01  7.9708171506E+00
                       5.1621495872E+00  6.2465169483E+00  1.8120097835E+00
                       1.0574883696E+01  7.8697949256E+00  3.9572496647E+00
                       4.3321162160E+00  6.5690457112E-01  1.1984384637E+01
                      -1.3745620764E+00  1.1904050752E+01  1.8120097835E+00
                       4.4051627894E+00  1.0372523056E+01  1.1579117036E+01
                       7.3233644035E+00  7.7447822576E+00  5.9723740531E+00
                       3.9894059389E+00  3.8927283523E+00  9.9692602481E+00
                       1.0066456341E+01  6.4072790248E+00  1.2790408615E+01
                       5.7065723336E+00  1.3698712717E+00  3.1512256860E+00
                       9.7022669163E-01  6.4037996444E+00  4.3625172648E+00
             xred      1.3042000000E-02  9.8695800000E-01  5.0000000000E-01
                       4.9013600000E-01  5.0986400000E-01  2.0816681712E-17
                       9.4638100000E-01  6.4236200000E-01  8.7552000000E-02
                       3.5763800000E-01  5.3619000000E-02  9.1244800000E-01
                       2.8347000000E-02  9.7165300000E-01  4.1633363423E-17
                       4.7729800000E-01  8.4664400000E-01  7.4528400000E-01
                       6.8226100000E-01  6.3215800000E-01  2.9150400000E-01
                       3.6784200000E-01  3.1773900000E-01  7.0849600000E-01
                       8.8818600000E-01  5.2298600000E-01  8.3079000000E-01
                       4.7701400000E-01  1.1181400000E-01  1.6921000000E-01
                       1.5335600000E-01  5.2270200000E-01  2.5471600000E-01
            znucl       19.00000   49.00000   15.00000   16.00000

 chkinp: Checking input parameters for consistency.

== DATASET  1 ==================================================================
-   mpi_nproc: 1, omp_nthreads: -1 (-1 if OMP is not activated)

--- !DatasetInfo
iteration_state: {dtset: 1, }
dimensions: {natom: 11, nkpt: 2, mband: 46, nsppol: 1, nspinor: 1, nspden: 1, mpw: 19269, }
cutoff_energies: {ecut:  36.0, pawecutdg:  -1.0, }
electrons: {nelect:   7.40000000E+01, charge:   0.00000000E+00, occopt:   1.00000000E+00, tsmear:   1.00000000E-02, }
meta: {optdriver: 1, rfelfd: 2, }
...

 Real(R)+Recip(G) space primitive vectors, cartesian coordinates (Bohr,Bohr^-1):
 R(1)= 12.3793721  0.0000000  1.8120098  G(1)=  0.0807795  0.0117089  0.0000000
 R(2)= -1.7758193 12.2513395  1.8120098  G(2)=  0.0000000  0.0816237  0.0000000
 R(3)=  0.0000000  0.0000000 12.3176147  G(3)= -0.0118833 -0.0137299  0.0811845
 Unit cell volume ucvol=  1.8681374E+03 bohr^3
 Angles (23,13,12)=  8.16725627E+01  8.16725627E+01  9.68612365E+01 degrees

 getcut: wavevector=  0.0000  0.0000  0.0000  ngfft=  72  72  72
         ecut(hartree)=     36.000   => boxcut(ratio)=   2.13077

--- Pseudopotential description ------------------------------------------------
- pspini: atom type   1  psp file is /scratch/users/j/a/jabreu/pseudos/PBEsol/K.psp8
- pspatm: opening atomic psp file    /scratch/users/j/a/jabreu/pseudos/PBEsol/K.psp8
- K     ONCVPSP-3.3.0  r_core=   1.36296   1.46408   1.61068
- 19.00000   9.00000    180112                znucl, zion, pspdat
    8 -116133    2    4       400   0.00000   pspcod,pspxc,lmax,lloc,mmax,r2well
    3.99000000000000    5.00000000000000    0.00000000000000   rchrg,fchrg,qchrg
     nproj     2     2     2
     extension_switch     1
  pspatm : epsatm=    8.32487830
         --- l  ekb(1:nproj) -->
             0   10.921326    0.816676
             1    4.431000    0.560368
             2   -3.384038   -1.043186
 pspatm: atomic psp has been read  and splines computed

- pspini: atom type   2  psp file is /scratch/users/j/a/jabreu/pseudos/PBEsol/In.psp8
- pspatm: opening atomic psp file    /scratch/users/j/a/jabreu/pseudos/PBEsol/In.psp8
- In    ONCVPSP-3.3.0  r_core=   2.10853   2.37566   1.87143
- 49.00000  13.00000    180112                znucl, zion, pspdat
    8 -116133    2    4       600   0.00000   pspcod,pspxc,lmax,lloc,mmax,r2well
    5.99000000000000    5.00000000000000    0.00000000000000   rchrg,fchrg,qchrg
     nproj     2     2     2
     extension_switch     1
  pspatm : epsatm=   25.17984752
         --- l  ekb(1:nproj) -->
             0   12.999887    1.931740
             1    5.981707    1.012544
             2   -4.048011   -1.239028
 pspatm: atomic psp has been read  and splines computed

[...]

- pspini: atom type   4  psp file is /scratch/users/j/a/jabreu/pseudos/PBEsol/S.psp8
- pspatm: opening atomic psp file    /scratch/users/j/a/jabreu/pseudos/PBEsol/S.psp8
- S     ONCVPSP-3.3.0  r_core=   1.45376   1.45376   1.61851
- 16.00000   6.00000    180112                znucl, zion, pspdat
    8 -116133    2    4       600   0.00000   pspcod,pspxc,lmax,lloc,mmax,r2well
    5.99000000000000    6.00000000000000    0.00000000000000   rchrg,fchrg,qchrg
     nproj     2     2     2
     extension_switch     1
  pspatm : epsatm=    8.71840985
         --- l  ekb(1:nproj) -->
             0    6.834532    0.579453
             1    3.282851    0.896984
             2   -3.496974   -0.974265
 pspatm: atomic psp has been read  and splines computed

   8.07769322E+03                                ecore*ucvol(ha*bohr**3)

 ==>  initialize data related to q vector <==

 The list of irreducible perturbations for this q vector is:
    1)    idir= 1    ipert=  12
    2)    idir= 2    ipert=  12
    3)    idir= 3    ipert=  12

 Perturbation wavevector (in red.coord.)   0.000000  0.000000  0.000000
 Perturbation : derivative vs k along direction   1

 dfpt_looppert : COMMENT -
  In a d/dk calculation, iscf is set to -3 automatically.
 The set of symmetries contains only one element for this perturbation.
 symkpt : not enough symmetry to change the number of k points.

 Initialisation of the first-order wave-functions :
  ireadwf=   0

--- !BeginCycle
iteration_state: {dtset: 1, }
solver: {iscf: 7, nstep: 2000, nline: 4, wfoptalg: 0, }
tolerances: {tolwfr: 1.00E-20, }
...

     iter   2DEtotal(Ha)        deltaE(Ha) residm    vres2
-ETOT  1  -23.834237061735     -2.383E+01 7.767E-02 0.000E+00
 ETOT  2  -23.938458516635     -1.042E-01 6.513E-03 0.000E+00
 ETOT  3  -23.941042246240     -2.584E-03 8.607E-04 0.000E+00
 ETOT  4  -23.941208172993     -1.659E-04 1.719E-04 0.000E+00
 ETOT  5  -23.941221552593     -1.338E-05 4.117E-05 0.000E+00
 ETOT  6  -23.941222713763     -1.161E-06 9.066E-06 0.000E+00
[...]
 ETOT 26  -23.941222828276      7.105E-15 1.822E-17 0.000E+00
 ETOT 27  -23.941222828276      0.000E+00 2.841E-18 0.000E+00
 ETOT 28  -23.941222828276     -3.553E-15 1.386E-18 0.000E+00
 ETOT 29  -23.941222828276     -3.553E-15 2.167E-19 0.000E+00
 ETOT 30  -23.941222828276      0.000E+00 1.055E-19 0.000E+00
 ETOT 31  -23.941222828276      0.000E+00 1.654E-20 0.000E+00
 ETOT 32  -23.941222828276     -7.105E-15 9.990E-21 0.000E+00

 At SCF step   32   max residual=  9.99E-21 < tolwfr=  1.00E-20 =>converged.

 ----iterations are completed or convergence reached----

 dfpt_looppert: DFPT cycle converged with prtwf=-1. Will skip output of the 1st-order WFK file.
 dfpt_looppert : ek2=    3.8927301999E+01
          f-sum rule ratio=    1.0718704642E+00
 prteigrs : about to open file /scratch/users/j/a/jabreu/flow_simple_11atoms/flow/w378/t1/tmpdata/tmp_1WF1_EIG
 Expectation of eigenvalue derivatives (hartree) for nkpt=   2  k points:
  (in case of degenerate eigenvalues, averaged derivative)
 kpt#   1, nband= 46, wtk=  0.50000, kpt=  0.0000  0.0000  0.0000 (reduced coord)
  -0.00000    0.00000   -0.00000    0.00000    0.00000    0.00000    0.00000   -0.00000
  -0.00000   -0.00000   -0.00000   -0.00000   -0.00000    0.00000   -0.00000   -0.00000
  -0.00000    0.00000    0.00000   -0.00000   -0.00000   -0.00000    0.00000    0.00000
  -0.00000    0.00000   -0.00000   -0.00000    0.00000    0.00000    0.00000   -0.00000
   0.00000   -0.00000   -0.00000    0.00000    0.00000   -0.00000   -0.00000    0.00000
   0.00000    0.00000    0.00000   -0.00000    0.00000    0.05398
 prteigrs : prtvol=0 or 1, do not print more k-points.

 Eight components of 2nd-order total energy (hartree) are
 1,2,3: 0th-order hamiltonian combined with 1st-order wavefunctions
     kin0=   3.09136244E+01 eigvalue=   1.24237192E+00  local=  -1.85638735E+01
 4,5,6: 1st-order hamiltonian combined with 1st and 0th-order wfs
     kin1=  -4.17250253E+01  Hartree=   0.00000000E+00     xc=   0.00000000E+00
 7,8,9: eventually, occupation + non-local contributions
    edocc=   6.48443700E+00     enl0=   3.86466298E+00   enl1=  -6.15742039E+00
 1-9 gives the relaxation energy (to be shifted if some occ is /=2.0)
   erelax=  -2.39412228E+01
  No Ewald or frozen-wf contrib.: the relaxation energy is the total one
 2DEtotal=   -0.2394122283E+02 Ha. Also 2DEtotal=   -0.651473804458E+03 eV
    (  non-var. 2DEtotal :   -2.3941222828E+01 Ha)

 Perturbation wavevector (in red.coord.)   0.000000  0.000000  0.000000
 Perturbation : derivative vs k along direction   2
 The set of symmetries contains only one element for this perturbation.
 symkpt : not enough symmetry to change the number of k points.

[...]

 Perturbation wavevector (in red.coord.)   0.000000  0.000000  0.000000
 Perturbation : derivative vs k along direction   3
 The set of symmetries contains only one element for this perturbation.
 symkpt : not enough symmetry to change the number of k points.

 Initialisation of the first-order wave-functions :
  ireadwf=   0

--- !BeginCycle
iteration_state: {dtset: 1, }
solver: {iscf: 7, nstep: 2000, nline: 4, wfoptalg: 0, }
tolerances: {tolwfr: 1.00E-20, }
...

     iter   2DEtotal(Ha)        deltaE(Ha) residm    vres2
-ETOT  1  -23.678856101255     -2.368E+01 6.992E-02 0.000E+00
 ETOT  2  -23.787389527215     -1.085E-01 9.010E-03 0.000E+00
 ETOT  3  -23.790431567221     -3.042E-03 6.766E-04 0.000E+00
 ETOT  4  -23.790626986700     -1.954E-04 2.009E-04 0.000E+00
 ETOT  5  -23.790642419562     -1.543E-05 2.316E-05 0.000E+00
 ETOT  6  -23.790643729244     -1.310E-06 7.715E-06 0.000E+00
 ETOT  7  -23.790643843783     -1.145E-07 9.989E-07 0.000E+00
 ETOT  8  -23.790643854008     -1.022E-08 3.386E-07 0.000E+00
 ETOT  9  -23.790643854933     -9.255E-10 4.654E-08 0.000E+00
 ETOT 10  -23.790643855018     -8.482E-11 1.571E-08 0.000E+00
 ETOT 11  -23.790643855026     -7.859E-12 2.240E-09 0.000E+00
 ETOT 12  -23.790643855027     -7.425E-13 7.496E-10 0.000E+00
 ETOT 13  -23.790643855027     -6.040E-14 1.096E-10 0.000E+00
 ETOT 14  -23.790643855027      7.105E-15 3.716E-11 0.000E+00
 ETOT 15  -23.790643855027     -1.066E-14 5.431E-12 0.000E+00
 ETOT 16  -23.790643855027      1.421E-14 2.726E-12 0.000E+00
 ETOT 17  -23.790643855027     -1.776E-14 2.744E-13 0.000E+00
 ETOT 18  -23.790643855027     -1.421E-14 2.027E-13 0.000E+00
 ETOT 19  -23.790643855027      7.105E-15 2.082E-14 0.000E+00
 ETOT 20  -23.790643855027      1.066E-14 1.518E-14 0.000E+00
 ETOT 21  -23.790643855027     -3.553E-15 1.586E-15 0.000E+00
 ETOT 22  -23.790643855027     -7.105E-15 1.143E-15 0.000E+00
 ETOT 23  -23.790643855027      7.105E-15 1.211E-16 0.000E+00
 ETOT 24  -23.790643855027     -7.105E-15 8.642E-17 0.000E+00
 ETOT 25  -23.790643855027      7.105E-15 9.252E-18 0.000E+00
 ETOT 26  -23.790643855027     -7.105E-15 6.548E-18 0.000E+00
 ETOT 27  -23.790643855027      0.000E+00 7.072E-19 0.000E+00
 ETOT 28  -23.790643855027      7.105E-15 4.972E-19 0.000E+00
 ETOT 29  -23.790643855027     -7.105E-15 5.406E-20 0.000E+00
 ETOT 30  -23.790643855027      0.000E+00 3.780E-20 0.000E+00
 ETOT 31  -23.790643855027      0.000E+00 9.989E-21 0.000E+00

 At SCF step   31   max residual=  9.99E-21 < tolwfr=  1.00E-20 =>converged.

 ----iterations are completed or convergence reached----

 dfpt_looppert: DFPT cycle converged with prtwf=-1. Will skip output of the 1st-order WFK file.
 dfpt_looppert : ek2=    4.0436031273E+01
          f-sum rule ratio=    1.0157421123E+00
 prteigrs : about to open file /scratch/users/j/a/jabreu/flow_simple_11atoms/flow/w378/t1/tmpdata/tmp_1WF1_EIG
 Expectation of eigenvalue derivatives (hartree) for nkpt=   2  k points:
  (in case of degenerate eigenvalues, averaged derivative)
 kpt#   1, nband= 46, wtk=  0.50000, kpt=  0.0000  0.0000  0.0000 (reduced coord)
   0.00000   -0.00000   -0.00000    0.00000   -0.00000   -0.00000    0.00000    0.00000
   0.00000   -0.00000   -0.00000    0.00000   -0.00000    0.00000    0.00000    0.00000
   0.00000   -0.00000   -0.00000   -0.00000    0.00000    0.00000   -0.00000   -0.00000
   0.00000   -0.00000    0.00000   -0.00000    0.00000   -0.00000    0.00000   -0.00000
  -0.00000   -0.00000    0.00000   -0.00000   -0.00000    0.00000   -0.00000    0.00000
  -0.00000   -0.00000   -0.00000    0.00000   -0.00000   -0.01020
 prteigrs : prtvol=0 or 1, do not print more k-points.

 Eight components of 2nd-order total energy (hartree) are
 1,2,3: 0th-order hamiltonian combined with 1st-order wavefunctions
     kin0=   3.28798133E+01 eigvalue=   1.22354596E+00  local=  -2.04989731E+01
 4,5,6: 1st-order hamiltonian combined with 1st and 0th-order wfs
     kin1=  -4.10725798E+01  Hartree=   0.00000000E+00     xc=   0.00000000E+00
 7,8,9: eventually, occupation + non-local contributions
    edocc=   5.77121879E+00     enl0=   4.41503897E+00   enl1=  -6.50870789E+00
 1-9 gives the relaxation energy (to be shifted if some occ is /=2.0)
   erelax=  -2.37906439E+01
  No Ewald or frozen-wf contrib.: the relaxation energy is the total one
 2DEtotal=   -0.2379064386E+02 Ha. Also 2DEtotal=   -0.647376342216E+03 eV
    (  non-var. 2DEtotal :   -2.3790643855E+01 Ha)

 CALCULATION OF EFFECTIVE MASSES
 NOTE : Additional infos (eff. mass eigenvalues, eigenvectors and, if degenerate, average mass) are available in stdout.

 K-point ( 0.000, 0.000, 0.000) | band =    37
 Effective mass tensor:
             -1.8138465470             -1.4302650703             -3.8364390782
             -1.4302650703             -2.2286071562             -4.4328212384
             -3.8364390782             -4.4328212384            -12.2876873479
 Effective mass tensor eigenvalues:
            -15.2133975085             -0.5760054976             -0.5407380450
 Angular average effective mass 1/(<1/m>)=  -0.8216588470
 Angular average effective mass for Frohlich model (<m**0.5>)**2=  -1.1000815073
 Effective masses along directions: (cart. coord. / red. coord. -> eff. mass)
    1:   1.000000  0.000000  0.000000 /   0.989867 -0.141996  0.000000 ->  -0.6126411814
    2:   0.000000  1.000000  0.000000 /   0.000000  1.000000  0.000000 ->  -0.6259797294
    3:   0.000000  0.000000  1.000000 /   0.144023  0.144023  0.979038 ->  -2.3731676743
    4:   0.577350  0.577350  0.577350 /   0.632070  0.547275  0.548614 ->  -2.1415761696
    5:   0.000000  0.707107  0.707107 /   0.096473  0.748745  0.655800 ->  -2.1250052052
    6:   0.707107  0.000000  0.707107 /   0.755202  0.001926  0.655489 ->  -1.7842020005
    7:   0.707107  0.707107  0.000000 /   0.763366  0.645966  0.000000 ->  -0.6689266812

--- !WARNING
src_file: m_efmas.F90
src_line: 0
message: |

    Band(s)    38,
    are not band extrema, but saddle points;
    the transport equivalent formalism breaks down in these conditions.
    The associated tensor(s) will therefore not be printed.
...

 K-point ( 0.112, 0.112, 0.536) | band =    38
 Effective mass tensor:
     *** SADDLE POINT: TRANSPORT EQV. EFF. MASS NOT DEFINED (see WARNING above) ***
 Angular average effective mass 1/(<1/m>)=   1.7979133118
 Angular average effective mass for Frohlich model (<m**0.5>)**2=   4.3761212620
 Effective masses along directions: (cart. coord. / red. coord. -> eff. mass)
    1:   1.000000  0.000000  0.000000 /   0.989867 -0.141996  0.000000 ->   0.9765701564
    2:   0.000000  1.000000  0.000000 /   0.000000  1.000000  0.000000 ->   1.1996929027
    3:   0.000000  0.000000  1.000000 /   0.144023  0.144023  0.979038 ->  -5.2927529138
    4:   0.577350  0.577350  0.577350 /   0.632070  0.547275  0.548614 ->   4.1457310876
    5:   0.000000  0.707107  0.707107 /   0.096473  0.748745  0.655800 ->   2.3743494163
    6:   0.707107  0.000000  0.707107 /   0.755202  0.001926  0.655489 ->   1.9877102595
    7:   0.707107  0.707107  0.000000 /   0.763366  0.645966  0.000000 ->   3.6783767349

 END OF EFFECTIVE MASSES SECTION

 ---- first-order wavefunction calculations are completed ----

 Total localisation tensor (bohr^2) in cartesian coordinates
  WARNING : still subject to testing - especially symmetries.
      direction              matrix element
   alpha     beta       real part   imaginary part
     1        1       1.6226269188    0.0000000000
     1        2      -0.2257126553    0.0000000000
     1        3       0.1993368412    0.0000000000
     2        1      -0.2257126553    0.0000000000
     2        2       1.5571868070    0.0000000000
     2        3       0.2303125904    0.0000000000
     3        1       0.1993368412    0.0000000000
     3        2       0.2303125904    0.0000000000
     3        3       1.4735600709    0.0000000000

 respfn : d/dk was computed, but no 2DTE, so no DDB output.

== END DATASET(S) ==============================================================

 -outvars: echo values of variables after computation  --------
            acell      1.0000000000E+00  1.0000000000E+00  1.0000000000E+00 Bohr
              amu      3.90983000E+01  1.14820000E+02  3.09737620E+01
                       3.20660000E+01
             ecut      3.60000000E+01 Hartree
           etotal     -2.3790643855E+01
            fcart      0.0000000000E+00  0.0000000000E+00  0.0000000000E+00
                       0.0000000000E+00  0.0000000000E+00  0.0000000000E+00
                       0.0000000000E+00  0.0000000000E+00  0.0000000000E+00
                       0.0000000000E+00  0.0000000000E+00  0.0000000000E+00
                       0.0000000000E+00  0.0000000000E+00  0.0000000000E+00
                       0.0000000000E+00  0.0000000000E+00  0.0000000000E+00
                       0.0000000000E+00  0.0000000000E+00  0.0000000000E+00
                       0.0000000000E+00  0.0000000000E+00  0.0000000000E+00
                       0.0000000000E+00  0.0000000000E+00  0.0000000000E+00
                       0.0000000000E+00  0.0000000000E+00  0.0000000000E+00
                       0.0000000000E+00  0.0000000000E+00  0.0000000000E+00
-          fftalg         512
           irdden           1
           irdwfk           1
           istwfk        1    0
              ixc     -116133
              kpt      0.00000000E+00  0.00000000E+00  0.00000000E+00
                       1.12328022E-01  1.12328022E-01  5.36379350E-01
           kptopt           0
P           mkmem           2
P          mkqmem           2
P          mk1mem           2
            natom          11
            nband          46
           nbdbuf           4
            ngfft          72      72      72
             nkpt           2
            nstep        2000
             nsym           2
           ntypat           4
              occ      2.000000  2.000000  2.000000  2.000000  2.000000  2.000000
                       2.000000  2.000000  2.000000  2.000000  2.000000  2.000000
                       2.000000  2.000000  2.000000  2.000000  2.000000  2.000000
                       2.000000  2.000000  2.000000  2.000000  2.000000  2.000000
                       2.000000  2.000000  2.000000  2.000000  2.000000  2.000000
                       2.000000  2.000000  2.000000  2.000000  2.000000  2.000000
                       2.000000  0.000000  0.000000  0.000000  0.000000  0.000000
                       0.000000  0.000000  0.000000  0.000000
        optdriver           1
            prtwf          -1
            rfdir           1       1       1
           rfelfd           2
            rprim      1.2379372075E+01  0.0000000000E+00  1.8120097835E+00
                      -1.7758192859E+00  1.2251339471E+01  1.8120097835E+00
                       0.0000000000E+00  0.0000000000E+00  1.2317614734E+01
          spgroup           5
           strten      0.0000000000E+00  0.0000000000E+00  0.0000000000E+00
                       0.0000000000E+00  0.0000000000E+00  0.0000000000E+00
           symrel      1  0  0   0  1  0   0  0  1       0 -1  0  -1  0  0   0  0 -1
           tolwfr      1.00000000E-20
            typat      1  2  3  3  4  4  4  4  4  4  4
           useylm           1
              wtk        0.50000    0.50000
           xangst     -8.4203062681E-01  6.3985766465E+00  4.2179747699E+00
                       2.7316919089E+00  3.3055144021E+00  9.5887427917E-01
                       5.5959874354E+00  4.1645161109E+00  2.0940863312E+00
                       2.2924571665E+00  3.4761892726E-01  6.3418632086E+00
                      -7.2738692261E-01  6.2993523476E+00  9.5887427917E-01
                       2.3311117483E+00  5.4889027965E+00  6.1274048312E+00
                       3.8753575325E+00  4.0983622562E+00  3.1604442301E+00
                       2.1111026987E+00  2.0599431233E+00  5.2755053098E+00
                       5.3269392670E+00  3.3905860290E+00  6.7683927277E+00
                       3.0197880181E+00  7.2490465567E-01  1.6675568121E+00
                       5.1342185238E-01  3.3887448202E+00  2.3085447086E+00
            xcart     -1.5912072802E+00  1.2091557502E+01  7.9708171506E+00
                       5.1621495872E+00  6.2465169483E+00  1.8120097835E+00
                       1.0574883696E+01  7.8697949256E+00  3.9572496647E+00
                       4.3321162160E+00  6.5690457112E-01  1.1984384637E+01
                      -1.3745620764E+00  1.1904050752E+01  1.8120097835E+00
                       4.4051627894E+00  1.0372523056E+01  1.1579117036E+01
                       7.3233644035E+00  7.7447822576E+00  5.9723740531E+00
                       3.9894059389E+00  3.8927283523E+00  9.9692602481E+00
                       1.0066456341E+01  6.4072790248E+00  1.2790408615E+01
                       5.7065723336E+00  1.3698712717E+00  3.1512256860E+00
                       9.7022669163E-01  6.4037996444E+00  4.3625172648E+00
             xred      1.3042000000E-02  9.8695800000E-01  5.0000000000E-01
                       4.9013600000E-01  5.0986400000E-01  2.0816681712E-17
                       9.4638100000E-01  6.4236200000E-01  8.7552000000E-02
                       3.5763800000E-01  5.3619000000E-02  9.1244800000E-01
                       2.8347000000E-02  9.7165300000E-01  4.1633363423E-17
                       4.7729800000E-01  8.4664400000E-01  7.4528400000E-01
                       6.8226100000E-01  6.3215800000E-01  2.9150400000E-01
                       3.6784200000E-01  3.1773900000E-01  7.0849600000E-01
                       8.8818600000E-01  5.2298600000E-01  8.3079000000E-01
                       4.7701400000E-01  1.1181400000E-01  1.6921000000E-01
                       1.5335600000E-01  5.2270200000E-01  2.5471600000E-01
            znucl       19.00000   49.00000   15.00000   16.00000

- Timing analysis has been suppressed with timopt=0

 Suggested references for the acknowledgment of ABINIT usage.

 Calculation completed.
.Delivered   3 WARNINGs and   5 COMMENTs to log file.