.Version 9.5.1 of ABINIT

 ABINIT is a project of the Universite Catholique de Louvain,
 Corning Inc. and other collaborators, see ~abinit/doc/developers/contributors.txt .
 acknowledgments of the ABINIT effort.

.Starting date : Sun 25 Apr 2021.
- ( at 17h23 )

- input  file    -> /scratch/users/j/a/jabreu/flow_simple2/flow/w212/t1/run.abi
- output file    -> /scratch/users/j/a/jabreu/flow_simple2/flow/w212/t1/run.abo
- root for input  files -> /scratch/users/j/a/jabreu/flow_simple2/flow/w212/t1/indata/in
- root for output files -> /scratch/users/j/a/jabreu/flow_simple2/flow/w212/t1/outdata/out

 Symmetries : space group Fm -3 m (#225); Bravais cF (face-center cubic)
     intxc =       0      iscf =       7    lmnmax =      18     lnmax =       6
     mgfft =      45  mpssoang =       3    mqgrid =    3001     natom =       2
  nloc_mem =       1    nspden =       1   nspinor =       1    nsppol =       1
      nsym =      48    n1xccc =    2501    ntypat =       2    occopt =       1
   xclevel =       2
-    mband =          17        mffmem =           1         mkmem =           1
-   mkqmem =           1        mk1mem =           1           mpw =        3479
      nfft =       91125          nkpt =           1
  Rough estimation (10% accuracy) of disk space for files :

------------- Echo of variables that govern the present computation ------------
-
- outvars: echo of selected default values
-   iomode0 =  0 , fftalg0 =512 , wfoptalg0 =  0
-
- outvars: echo of global parameters not present in the input file
-  max_nthreads =    0
-
 -outvars: echo values of preprocessed input variables --------
            acell      1.0000000000E+00  1.0000000000E+00  1.0000000000E+00 Bohr
              amu      8.54678000E+01  7.99040000E+01
             ecut      2.60000000E+01 Hartree
-          fftalg         512
           irdden           1
           irdwfk           1
           istwfk        1
              ixc     -116133
           kptopt           0
P           mkmem           1
P          mkqmem           1
P          mk1mem           1
            natom           2
            nband          17
           nbdbuf           4
            ngfft          45      45      45
             nkpt           1
            nstep         100
             nsym          48
           ntypat           2
              occ      2.000000  2.000000  2.000000  2.000000  2.000000  2.000000
                       2.000000  2.000000  0.000000  0.000000  0.000000  0.000000
                       0.000000  0.000000  0.000000  0.000000  0.000000
        optdriver           1
            prtwf          -1
            rfdir           1       1       1
           rfelfd           2
            rprim      7.9204405664E+00  0.0000000000E+00  4.5728684931E+00
                       2.6401468555E+00  7.4674629793E+00  4.5728684931E+00
                       0.0000000000E+00  0.0000000000E+00  9.1457369862E+00
          spgroup         225
           symrel      1  0  0   0  1  0   0  0  1      -1  0  0   0 -1  0   0  0 -1
                       0 -1  1   0 -1  0   1 -1  0       0  1 -1   0  1  0  -1  1  0
                      -1  0  0  -1  0  1  -1  1  0       1  0  0   1  0 -1   1 -1  0
                       0  1 -1   1  0 -1   0  0 -1       0 -1  1  -1  0  1   0  0  1
                      -1  0  0  -1  1  0  -1  0  1       1  0  0   1 -1  0   1  0 -1
                       0 -1  1   1 -1  0   0 -1  0       0  1 -1  -1  1  0   0  1  0
                       1  0  0   0  0  1   0  1  0      -1  0  0   0  0 -1   0 -1  0
                       0  1 -1   0  0 -1   1  0 -1       0 -1  1   0  0  1  -1  0  1
                      -1  0  1  -1  1  0  -1  0  0       1  0 -1   1 -1  0   1  0  0
                       0 -1  0   1 -1  0   0 -1  1       0  1  0  -1  1  0   0  1 -1
                       1  0 -1   0  0 -1   0  1 -1      -1  0  1   0  0  1   0 -1  1
                       0  1  0   0  0  1   1  0  0       0 -1  0   0  0 -1  -1  0  0
                       1  0 -1   0  1 -1   0  0 -1      -1  0  1   0 -1  1   0  0  1
                       0 -1  0   0 -1  1   1 -1  0       0  1  0   0  1 -1  -1  1  0
                      -1  0  1  -1  0  0  -1  1  0       1  0 -1   1  0  0   1 -1  0
                       0  1  0   1  0  0   0  0  1       0 -1  0  -1  0  0   0  0 -1
                       0  0 -1   0  1 -1   1  0 -1       0  0  1   0 -1  1  -1  0  1
                       1 -1  0   0 -1  1   0 -1  0      -1  1  0   0  1 -1   0  1  0
                       0  0  1   1  0  0   0  1  0       0  0 -1  -1  0  0   0 -1  0
                      -1  1  0  -1  0  0  -1  0  1       1 -1  0   1  0  0   1  0 -1
                       0  0  1   0  1  0   1  0  0       0  0 -1   0 -1  0  -1  0  0
                       1 -1  0   0 -1  0   0 -1  1      -1  1  0   0  1  0   0  1 -1
                       0  0 -1   1  0 -1   0  1 -1       0  0  1  -1  0  1   0 -1  1
                      -1  1  0  -1  0  1  -1  0  0       1 -1  0   1  0 -1   1  0  0
           tolwfr      1.00000000E-20
            typat      1  2
           useylm           1
           xangst      0.0000000000E+00  0.0000000000E+00  0.0000000000E+00
                       2.7942110865E+00  1.9758056073E+00  4.8397155689E+00
            xcart      0.0000000000E+00  0.0000000000E+00  0.0000000000E+00
                       5.2802937109E+00  3.7337314896E+00  9.1457369862E+00
             xred      0.0000000000E+00  0.0000000000E+00  0.0000000000E+00
                       5.0000000000E-01  5.0000000000E-01  5.0000000000E-01
            znucl       37.00000   35.00000

 chkinp: Checking input parameters for consistency.

== DATASET  1 ==================================================================
-   mpi_nproc: 1, omp_nthreads: -1 (-1 if OMP is not activated)

--- !DatasetInfo
iteration_state: {dtset: 1, }
dimensions: {natom: 2, nkpt: 1, mband: 17, nsppol: 1, nspinor: 1, nspden: 1, mpw: 3479, }
cutoff_energies: {ecut:  26.0, pawecutdg:  -1.0, }
electrons: {nelect:   1.60000000E+01, charge:   0.00000000E+00, occopt:   1.00000000E+00, tsmear:   1.00000000E-02, }
meta: {optdriver: 1, rfelfd: 2, }
...

 Real(R)+Recip(G) space primitive vectors, cartesian coordinates (Bohr,Bohr^-1):
 R(1)=  7.9204406  0.0000000  4.5728685  G(1)=  0.1262556 -0.0446381  0.0000000
 R(2)=  2.6401469  7.4674630  4.5728685  G(2)=  0.0000000  0.1339143  0.0000000
 R(3)=  0.0000000  0.0000000  9.1457370  G(3)= -0.0631278 -0.0446381  0.1093406
 Unit cell volume ucvol=  5.4093007E+02 bohr^3
 Angles (23,13,12)=  6.00000000E+01  6.00000000E+01  6.00000000E+01 degrees

 getcut: wavevector=  0.0000  0.0000  0.0000  ngfft=  45  45  45
         ecut(hartree)=     26.000   => boxcut(ratio)=   2.09596

--- Pseudopotential description ------------------------------------------------
- pspini: atom type   1  psp file is /scratch/users/j/a/jabreu/pseudos/PBEsol/Rb.psp8
- pspatm: opening atomic psp file    /scratch/users/j/a/jabreu/pseudos/PBEsol/Rb.psp8
- Rb    ONCVPSP-3.3.0  r_core=   1.71227   1.75361   1.90633
- 37.00000   9.00000    180112                znucl, zion, pspdat
    8 -116133    2    4       600   0.00000   pspcod,pspxc,lmax,lloc,mmax,r2well
    5.99000000000000    7.00000000000000    0.00000000000000   rchrg,fchrg,qchrg
     nproj     2     2     2
     extension_switch     1
  pspatm : epsatm=   34.48400912
         --- l  ekb(1:nproj) -->
             0    8.196957   -0.477221
             1    3.231347   -0.378736
             2   -1.047201    0.996637
 pspatm: atomic psp has been read  and splines computed

- pspini: atom type   2  psp file is /scratch/users/j/a/jabreu/pseudos/PBEsol/Br.psp8
- pspatm: opening atomic psp file    /scratch/users/j/a/jabreu/pseudos/PBEsol/Br.psp8
- Br    ONCVPSP-3.3.0  r_core=   1.81012   1.51356   1.92136
- 35.00000   7.00000    180112                znucl, zion, pspdat
    8 -116133    2    4       600   0.00000   pspcod,pspxc,lmax,lloc,mmax,r2well
    5.99000000000000    8.00000000000000    0.00000000000000   rchrg,fchrg,qchrg
     nproj     2     2     2
     extension_switch     1
  pspatm : epsatm=   10.94933070
         --- l  ekb(1:nproj) -->
             0    8.508690    0.897946
             1    5.393311    0.892021
             2    2.527513    0.394763
 pspatm: atomic psp has been read  and splines computed

   7.26933437E+02                                ecore*ucvol(ha*bohr**3)

-inwffil : will read wavefunctions from disk file /scratch/users/j/a/jabreu/flow_simple2/flow/w212/t1/indata/in_WFK

 ==>  initialize data related to q vector <==

 The list of irreducible perturbations for this q vector is:
    1)    idir= 1    ipert=   3
    2)    idir= 2    ipert=   3
    3)    idir= 3    ipert=   3

 Perturbation wavevector (in red.coord.)   0.000000  0.000000  0.000000
 Perturbation : derivative vs k along direction   1

 dfpt_looppert : COMMENT -
  In a d/dk calculation, iscf is set to -3 automatically.
 The set of symmetries contains only one element for this perturbation.
 symkpt : not enough symmetry to change the number of k points.

[...]

 Initialisation of the first-order wave-functions :
  ireadwf=   0

--- !BeginCycle
iteration_state: {dtset: 1, }
solver: {iscf: 7, nstep: 100, nline: 4, wfoptalg: 0, }
tolerances: {tolwfr: 1.00E-20, }
...

     iter   2DEtotal(Ha)        deltaE(Ha) residm    vres2
-ETOT  1  -14.951978438733     -1.495E+01 2.447E-03 0.000E+00
 ETOT  2  -14.953283147541     -1.305E-03 1.729E-06 0.000E+00
 ETOT  3  -14.953283846006     -6.985E-07 1.481E-09 0.000E+00
 ETOT  4  -14.953283846494     -4.879E-10 1.214E-12 0.000E+00
 ETOT  5  -14.953283846494     -3.890E-13 4.768E-15 0.000E+00
 ETOT  6  -14.953283846494      3.553E-15 1.495E-17 0.000E+00
 ETOT  7  -14.953283846494      1.776E-14 1.564E-19 0.000E+00
 ETOT  8  -14.953283846494      7.105E-15 9.736E-21 0.000E+00

 At SCF step    8   max residual=  9.74E-21 < tolwfr=  1.00E-20 =>converged.

 ----iterations are completed or convergence reached----

 dfpt_looppert: DFPT cycle converged with prtwf=-1. Will skip output of the 1st-order WFK file.
 dfpt_looppert : ek2=    2.2654973504E+01
          f-sum rule ratio=    1.2795975990E+00
 prteigrs : about to open file /scratch/users/j/a/jabreu/flow_simple2/flow/w212/t1/tmpdata/tmp_1WF1_EIG
 Expectation of eigenvalue derivatives (hartree) for nkpt=   1  k points:
  (in case of degenerate eigenvalues, averaged derivative)
 kpt#   1, nband= 17, wtk=  1.00000, kpt=  0.0000  0.0000  0.0000 (reduced coord)
  -0.00000   -0.00000   -0.00000   -0.00000   -0.00000   -0.00000   -0.00000   -0.00000
   0.00000    0.00000    0.00000    0.00000    0.00000    0.00000   -0.00000    0.00265
  -0.00109

 Eight components of 2nd-order total energy (hartree) are
 1,2,3: 0th-order hamiltonian combined with 1st-order wavefunctions
     kin0=   5.06042716E+00 eigvalue=   6.06029677E-01  local=  -2.67298654E+00
 4,5,6: 1st-order hamiltonian combined with 1st and 0th-order wfs
     kin1=  -2.89892497E+01  Hartree=   0.00000000E+00     xc=   0.00000000E+00
 7,8,9: eventually, occupation + non-local contributions
    edocc=   1.14293862E+01     enl0=   5.30427342E-01   enl1=  -9.17317992E-01
 1-9 gives the relaxation energy (to be shifted if some occ is /=2.0)
   erelax=  -1.49532838E+01
  No Ewald or frozen-wf contrib.: the relaxation energy is the total one
 2DEtotal=   -0.1495328385E+02 Ha. Also 2DEtotal=   -0.406899546714E+03 eV
    (  non-var. 2DEtotal :   -1.4953283846E+01 Ha)

 Perturbation wavevector (in red.coord.)   0.000000  0.000000  0.000000
 Perturbation : derivative vs k along direction   2
 The set of symmetries contains only one element for this perturbation.
 symkpt : not enough symmetry to change the number of k points.

[...]

 Perturbation wavevector (in red.coord.)   0.000000  0.000000  0.000000
 Perturbation : derivative vs k along direction   3
 The set of symmetries contains only one element for this perturbation.
 symkpt : not enough symmetry to change the number of k points.

-inwffil : will read wavefunctions from disk file /scratch/users/j/a/jabreu/flow_simple2/flow/w212/t1/indata/in_WFK

 Initialisation of the first-order wave-functions :
  ireadwf=   0

--- !BeginCycle
iteration_state: {dtset: 1, }
solver: {iscf: 7, nstep: 100, nline: 4, wfoptalg: 0, }
tolerances: {tolwfr: 1.00E-20, }
...

     iter   2DEtotal(Ha)        deltaE(Ha) residm    vres2
-ETOT  1  -14.947623433216     -1.495E+01 2.228E-03 0.000E+00
 ETOT  2  -14.949081169498     -1.458E-03 2.427E-06 0.000E+00
 ETOT  3  -14.949081987232     -8.177E-07 1.385E-09 0.000E+00
 ETOT  4  -14.949081987859     -6.277E-10 1.075E-12 0.000E+00
 ETOT  5  -14.949081987860     -6.679E-13 4.091E-15 0.000E+00
 ETOT  6  -14.949081987860     -1.066E-14 1.358E-17 0.000E+00
 ETOT  7  -14.949081987860      4.263E-14 1.282E-19 0.000E+00
 ETOT  8  -14.949081987860     -1.776E-14 8.975E-21 0.000E+00

 At SCF step    8   max residual=  8.97E-21 < tolwfr=  1.00E-20 =>converged.

 ----iterations are completed or convergence reached----

 dfpt_looppert: DFPT cycle converged with prtwf=-1. Will skip output of the 1st-order WFK file.
 dfpt_looppert : ek2=    2.2654973504E+01
          f-sum rule ratio=    1.2792370024E+00
 prteigrs : about to open file /scratch/users/j/a/jabreu/flow_simple2/flow/w212/t1/tmpdata/tmp_1WF1_EIG
 Expectation of eigenvalue derivatives (hartree) for nkpt=   1  k points:
  (in case of degenerate eigenvalues, averaged derivative)
 kpt#   1, nband= 17, wtk=  1.00000, kpt=  0.0000  0.0000  0.0000 (reduced coord)
   0.00000    0.00000   -0.00000   -0.00000   -0.00000   -0.00000   -0.00000   -0.00000
  -0.00000   -0.00000   -0.00000   -0.00000   -0.00000   -0.00000   -0.00000   -0.02335
   0.23099

 Eight components of 2nd-order total energy (hartree) are
 1,2,3: 0th-order hamiltonian combined with 1st-order wavefunctions
     kin0=   5.66837511E+00 eigvalue=   6.74011186E-01  local=  -3.00482815E+00
 4,5,6: 1st-order hamiltonian combined with 1st and 0th-order wfs
     kin1=  -2.89810804E+01  Hartree=   0.00000000E+00     xc=   0.00000000E+00
 7,8,9: eventually, occupation + non-local contributions
    edocc=   1.10762801E+01     enl0=   5.35243753E-01   enl1=  -9.17083580E-01
 1-9 gives the relaxation energy (to be shifted if some occ is /=2.0)
   erelax=  -1.49490820E+01
  No Ewald or frozen-wf contrib.: the relaxation energy is the total one
 2DEtotal=   -0.1494908199E+02 Ha. Also 2DEtotal=   -0.406785208326E+03 eV
    (  non-var. 2DEtotal :   -1.4949081988E+01 Ha)

 CALCULATION OF EFFECTIVE MASSES
 NOTE : Additional infos (eff. mass eigenvalues, eigenvectors and, if degenerate, average mass) are available in stdout.

 COMMENTS:
 - At k-point ( 0.000, 0.000, 0.000), bands     6 through     8
   are DEGENERATE (effective mass tensor is therefore not defined).
   See Section IIIB Eqs. (67)-(70) and Appendix E of PRB 93 205147 (2016).
 - Angular average effective mass for Frohlich model is to be averaged over degenerate bands. See later.
 - Associated theta integrals calculated with ntheta=   1000 points.

 K-point ( 0.000, 0.000, 0.000) | band =     6
 Transport equivalent effective mass tensor:
             -0.6461923143             -0.0002612985              0.0003500793
             -0.0002612985             -0.6456324858              0.0002435905
              0.0003500793              0.0002435905             -0.6469920440
 Transport equivalent effective mass tensor eigenvalues:
             -0.6471903071             -0.6461047920             -0.6455217450
 Angular average effective mass 1/(<1/m>)=  -0.6119674117
 Angular average effective mass for Frohlich model (<m**0.5>)**2=  -0.6143025829
 Effective masses along directions: (cart. coord. / red. coord. -> eff. mass)
    1:   1.000000  0.000000  0.000000 /   0.948683  0.316228  0.000000 ->  -0.6345066416
    2:   0.000000  1.000000  0.000000 /   0.000000  1.000000  0.000000 ->  -0.6910812985
    3:   0.000000  0.000000  1.000000 /   0.408248  0.408248  0.816497 ->  -0.6437546249
    4:   0.577350  0.577350  0.577350 /   0.585539  0.688047  0.428644 ->  -0.6372250718
    5:   0.000000  0.707107  0.707107 /   0.289489  0.762222  0.578977 ->  -0.5834347113
    6:   0.707107  0.000000  0.707107 /   0.731423  0.422287  0.535439 ->  -0.6384754495
    7:   0.707107  0.707107  0.000000 /   0.616798  0.787122  0.000000 ->  -0.5392227036

[...]

 K-point ( 0.000, 0.000, 0.000) | band =     8
 Transport equivalent effective mass tensor:
             -7.4599210406             -0.0078073168              0.0069928342
             -0.0078073168             -7.4723404968              0.0040369614
              0.0069928342              0.0040369614             -7.4674829969
 Transport equivalent effective mass tensor eigenvalues:
             -7.4799476495             -7.4654958506             -7.4543010343
 Angular average effective mass 1/(<1/m>)=  -4.1343818417
 Angular average effective mass for Frohlich model (<m**0.5>)**2=  -4.2633836143
 Effective masses along directions: (cart. coord. / red. coord. -> eff. mass)
    1:   1.000000  0.000000  0.000000 /   0.948683  0.316228  0.000000 ->  -3.3134351766
    2:   0.000000  1.000000  0.000000 /   0.000000  1.000000  0.000000 ->  -2.4341745955
    3:   0.000000  0.000000  1.000000 /   0.408248  0.408248  0.816497 ->  -5.2098862640
    4:   0.577350  0.577350  0.577350 /   0.585539  0.688047  0.428644 ->  -3.6816377786
    5:   0.000000  0.707107  0.707107 /   0.289489  0.762222  0.578977 ->  -5.0235088260
    6:   0.707107  0.000000  0.707107 /   0.731423  0.422287  0.535439 ->  -4.3193768329
    7:   0.707107  0.707107  0.000000 /   0.616798  0.787122  0.000000 ->  -4.9706086904

 Angular average effective mass for Frohlich model, averaged over degenerate bands.
 Value of     (<<m**0.5>>)**2 =     2.234425E+00
 Absolute Value of <<m**0.5>> =     1.494799E+00

 K-point ( 0.000, 0.000, 0.000) | band =     9
 Effective mass tensor:
              0.3635999299              0.0000000872             -0.0000002090
              0.0000000872              0.3635996690             -0.0000001748
             -0.0000002090             -0.0000001748              0.3635996811
 Effective mass tensor eigenvalues:
              0.3635994796              0.3635996892              0.3636001112
 Angular average effective mass 1/(<1/m>)=   0.3635997600
 Angular average effective mass for Frohlich model (<m**0.5>)**2=   0.3635997600
 Effective masses along directions: (cart. coord. / red. coord. -> eff. mass)
    1:   1.000000  0.000000  0.000000 /   0.948683  0.316228  0.000000 ->   0.3635999299
    2:   0.000000  1.000000  0.000000 /   0.000000  1.000000  0.000000 ->   0.3635996690
    3:   0.000000  0.000000  1.000000 /   0.408248  0.408248  0.816497 ->   0.3635996811
    4:   0.577350  0.577350  0.577350 /   0.585539  0.688047  0.428644 ->   0.3635995623
    5:   0.000000  0.707107  0.707107 /   0.289489  0.762222  0.578977 ->   0.3635995003
    6:   0.707107  0.000000  0.707107 /   0.731423  0.422287  0.535439 ->   0.3635995966
    7:   0.707107  0.707107  0.000000 /   0.616798  0.787122  0.000000 ->   0.3635998867

 END OF EFFECTIVE MASSES SECTION

 ---- first-order wavefunction calculations are completed ----

 Total localisation tensor (bohr^2) in cartesian coordinates
  WARNING : still subject to testing - especially symmetries.
      direction              matrix element
   alpha     beta       real part   imaginary part
     1        1       2.2254777660    0.0000000000
     1        2       0.6294110901    0.0000000000
     1        3       1.5418361888    0.0000000000
     2        1       0.6294110901    0.0000000000
     2        2       1.7802433997    0.0000000000
     2        3       1.0901719868    0.0000000000
     3        1       1.5418361888    0.0000000000
     3        2       1.0901719868    0.0000000000
     3        3       4.0049986890    0.0000000000

 respfn : d/dk was computed, but no 2DTE, so no DDB output.

== END DATASET(S) ==============================================================

 -outvars: echo values of variables after computation  --------
            acell      1.0000000000E+00  1.0000000000E+00  1.0000000000E+00 Bohr
              amu      8.54678000E+01  7.99040000E+01
             ecut      2.60000000E+01 Hartree
           etotal     -1.4949081988E+01
            fcart      0.0000000000E+00  0.0000000000E+00  0.0000000000E+00
                       0.0000000000E+00  0.0000000000E+00  0.0000000000E+00
-          fftalg         512
           irdden           1
           irdwfk           1
           istwfk        1
              ixc     -116133
           kptopt           0
P           mkmem           1
P          mkqmem           1
P          mk1mem           1
            natom           2
            nband          17
           nbdbuf           4
            ngfft          45      45      45
             nkpt           1
            nstep         100
             nsym          48
           ntypat           2
              occ      2.000000  2.000000  2.000000  2.000000  2.000000  2.000000
                       2.000000  2.000000  0.000000  0.000000  0.000000  0.000000
                       0.000000  0.000000  0.000000  0.000000  0.000000
        optdriver           1
            prtwf          -1
            rfdir           1       1       1
           rfelfd           2
            rprim      7.9204405664E+00  0.0000000000E+00  4.5728684931E+00
                       2.6401468555E+00  7.4674629793E+00  4.5728684931E+00
                       0.0000000000E+00  0.0000000000E+00  9.1457369862E+00
          spgroup         225
           strten      0.0000000000E+00  0.0000000000E+00  0.0000000000E+00
                       0.0000000000E+00  0.0000000000E+00  0.0000000000E+00
           symrel      1  0  0   0  1  0   0  0  1      -1  0  0   0 -1  0   0  0 -1
                       0 -1  1   0 -1  0   1 -1  0       0  1 -1   0  1  0  -1  1  0
                      -1  0  0  -1  0  1  -1  1  0       1  0  0   1  0 -1   1 -1  0
                       0  1 -1   1  0 -1   0  0 -1       0 -1  1  -1  0  1   0  0  1
                      -1  0  0  -1  1  0  -1  0  1       1  0  0   1 -1  0   1  0 -1
                       0 -1  1   1 -1  0   0 -1  0       0  1 -1  -1  1  0   0  1  0
                       1  0  0   0  0  1   0  1  0      -1  0  0   0  0 -1   0 -1  0
                       0  1 -1   0  0 -1   1  0 -1       0 -1  1   0  0  1  -1  0  1
                      -1  0  1  -1  1  0  -1  0  0       1  0 -1   1 -1  0   1  0  0
                       0 -1  0   1 -1  0   0 -1  1       0  1  0  -1  1  0   0  1 -1
                       1  0 -1   0  0 -1   0  1 -1      -1  0  1   0  0  1   0 -1  1
                       0  1  0   0  0  1   1  0  0       0 -1  0   0  0 -1  -1  0  0
                       1  0 -1   0  1 -1   0  0 -1      -1  0  1   0 -1  1   0  0  1
                       0 -1  0   0 -1  1   1 -1  0       0  1  0   0  1 -1  -1  1  0
                      -1  0  1  -1  0  0  -1  1  0       1  0 -1   1  0  0   1 -1  0
                       0  1  0   1  0  0   0  0  1       0 -1  0  -1  0  0   0  0 -1
                       0  0 -1   0  1 -1   1  0 -1       0  0  1   0 -1  1  -1  0  1
                       1 -1  0   0 -1  1   0 -1  0      -1  1  0   0  1 -1   0  1  0
                       0  0  1   1  0  0   0  1  0       0  0 -1  -1  0  0   0 -1  0
                      -1  1  0  -1  0  0  -1  0  1       1 -1  0   1  0  0   1  0 -1
                       0  0  1   0  1  0   1  0  0       0  0 -1   0 -1  0  -1  0  0
                       1 -1  0   0 -1  0   0 -1  1      -1  1  0   0  1  0   0  1 -1
                       0  0 -1   1  0 -1   0  1 -1       0  0  1  -1  0  1   0 -1  1
                      -1  1  0  -1  0  1  -1  0  0       1 -1  0   1  0 -1   1  0  0
           tolwfr      1.00000000E-20
            typat      1  2
           useylm           1
           xangst      0.0000000000E+00  0.0000000000E+00  0.0000000000E+00
                       2.7942110865E+00  1.9758056073E+00  4.8397155689E+00
            xcart      0.0000000000E+00  0.0000000000E+00  0.0000000000E+00
                       5.2802937109E+00  3.7337314896E+00  9.1457369862E+00
             xred      0.0000000000E+00  0.0000000000E+00  0.0000000000E+00
                       5.0000000000E-01  5.0000000000E-01  5.0000000000E-01
            znucl       37.00000   35.00000

- Timing analysis has been suppressed with timopt=0

 Suggested references for the acknowledgment of ABINIT usage.

 Calculation completed.
.Delivered   6 WARNINGs and   5 COMMENTs to log file.