.Version 9.5.2 of ABINIT

 ABINIT is a project of the Universite Catholique de Louvain,
 Corning Inc. and other collaborators, see ~abinit/doc/developers/contributors.txt .
 acknowledgments of the ABINIT effort.

.Starting date : Mon 24 May 2021.
- ( at 20h56 )

- input  file    -> /scratch/users/j/a/jabreu/flow_simple_10atoms/flow/w424/t1/run.abi
- output file    -> /scratch/users/j/a/jabreu/flow_simple_10atoms/flow/w424/t1/run.abo
- root for input  files -> /scratch/users/j/a/jabreu/flow_simple_10atoms/flow/w424/t1/indata/in
- root for output files -> /scratch/users/j/a/jabreu/flow_simple_10atoms/flow/w424/t1/outdata/out

 Symmetries : space group P6_3/m m c (#194); Bravais hP (primitive hexag.)
     intxc =       0      iscf =       7    lmnmax =      32     lnmax =       8
     mgfft =      90  mpssoang =       4    mqgrid =    3880     natom =      10
  nloc_mem =       1    nspden =       1   nspinor =       1    nsppol =       1
      nsym =      24    n1xccc =    2501    ntypat =       3    occopt =       1
   xclevel =       2
-    mband =          49        mffmem =           1         mkmem =           2
-   mkqmem =           2        mk1mem =           2           mpw =       35007
      nfft =      648000          nkpt =           2
  Rough estimation (10% accuracy) of disk space for files :

------------- Echo of variables that govern the present computation ------------
-
- outvars: echo of selected default values
-   iomode0 =  0 , fftalg0 =512 , wfoptalg0 =  0
-
- outvars: echo of global parameters not present in the input file
-  max_nthreads =    0
-
 -outvars: echo values of preprocessed input variables --------
            acell      1.0000000000E+00  1.0000000000E+00  1.0000000000E+00 Bohr
              amu      1.32905430E+02  2.43050000E+01  1.26904470E+02
             ecut      4.20000000E+01 Hartree
-          fftalg         512
           irdden           1
           irdwfk           1
           istwfk        1    0
              ixc     -116133
              kpt      0.00000000E+00  0.00000000E+00  0.00000000E+00
                       0.00000000E+00  0.00000000E+00  2.85714286E-01
           kptopt           0
P           mkmem           2
P          mkqmem           2
P          mk1mem           2
            natom          10
            nband          49
           nbdbuf           4
            ngfft          90      90      80
             nkpt           2
            nstep        2000
             nsym          24
           ntypat           3
              occ      2.000000  2.000000  2.000000  2.000000  2.000000  2.000000
                       2.000000  2.000000  2.000000  2.000000  2.000000  2.000000
                       2.000000  2.000000  2.000000  2.000000  2.000000  2.000000
                       2.000000  2.000000  2.000000  2.000000  2.000000  2.000000
                       2.000000  2.000000  2.000000  2.000000  2.000000  2.000000
                       2.000000  2.000000  2.000000  2.000000  2.000000  2.000000
                       2.000000  2.000000  2.000000  2.000000  0.000000  0.000000
                       0.000000  0.000000  0.000000  0.000000  0.000000  0.000000
                       0.000000
        optdriver           1
            prtwf          -1
            rfdir           1       1       1
           rfelfd           2
            rprim      1.5356725049E+01  0.0000000000E+00  0.0000000000E+00
                      -7.6783625245E+00  1.3299314011E+01  0.0000000000E+00
                       0.0000000000E+00  0.0000000000E+00  1.3134298562E+01
          spgroup         194
           symrel      1  0  0   0  1  0   0  0  1      -1  0  0   0 -1  0   0  0 -1
                       0  1  0   1  0  0   0  0  1       0 -1  0  -1  0  0   0  0 -1
                       1  1  0  -1  0  0   0  0  1      -1 -1  0   1  0  0   0  0 -1
                      -1  0  0   1  1  0   0  0  1       1  0  0  -1 -1  0   0  0 -1
                       0  1  0  -1 -1  0   0  0  1       0 -1  0   1  1  0   0  0 -1
                      -1 -1  0   0  1  0   0  0  1       1  1  0   0 -1  0   0  0 -1
                      -1  0  0   0 -1  0   0  0  1       1  0  0   0  1  0   0  0 -1
                       0 -1  0  -1  0  0   0  0  1       0  1  0   1  0  0   0  0 -1
                      -1 -1  0   1  0  0   0  0  1       1  1  0  -1  0  0   0  0 -1
                       1  0  0  -1 -1  0   0  0  1      -1  0  0   1  1  0   0  0 -1
                       0 -1  0   1  1  0   0  0  1       0  1  0  -1 -1  0   0  0 -1
                       1  1  0   0 -1  0   0  0  1      -1 -1  0   0  1  0   0  0 -1
            tnons      0.0000000  0.0000000  0.0000000    -0.0000000 -0.0000000  0.0000000
                      -0.0000000  0.0000000  0.5000000    -0.0000000 -0.0000000  0.5000000
                      -0.0000000  0.0000000  0.5000000    -0.0000000 -0.0000000  0.5000000
                      -0.0000000  0.0000000  0.0000000    -0.0000000 -0.0000000  0.0000000
                      -0.0000000 -0.0000000  0.0000000    -0.0000000 -0.0000000  0.0000000
                      -0.0000000 -0.0000000  0.5000000     0.0000000 -0.0000000  0.5000000
                      -0.0000000 -0.0000000  0.5000000     0.0000000  0.0000000  0.5000000
                      -0.0000000 -0.0000000  0.0000000    -0.0000000  0.0000000  0.0000000
                      -0.0000000 -0.0000000  0.0000000    -0.0000000  0.0000000  0.0000000
                      -0.0000000 -0.0000000  0.5000000    -0.0000000  0.0000000  0.5000000
                      -0.0000000 -0.0000000  0.5000000    -0.0000000 -0.0000000  0.5000000
                       0.0000000 -0.0000000  0.0000000    -0.0000000 -0.0000000  0.0000000
           tolwfr      1.00000000E-20
            typat      1  1  2  2  3  3  3  3  3  3
           useylm           1
              wtk        0.50000    0.50000
           xangst     -1.7639711750E-11  4.6917959098E+00  1.7375928624E+00
                       4.0632144472E+00  2.3458979549E+00  5.2127785872E+00
                      -4.5110742333E-16 -7.8134097688E-16  0.0000000000E+00
                      -4.5110742333E-16 -7.8134097688E-16  3.4751857248E+00
                      -2.0477503746E+00  5.8740651398E+00  5.2127785872E+00
                       4.0632144472E+00  4.7104364149E+00  1.7375928624E+00
                       2.0154640726E+00  1.1636287249E+00  1.7375928624E+00
                       2.0477503746E+00  5.8740651398E+00  5.2127785872E+00
                      -8.7500603139E-12  2.3272574497E+00  5.2127785872E+00
                       6.1109648218E+00  1.1636287249E+00  1.7375928624E+00
            xcart     -3.3334224270E-11  8.8662093409E+00  3.2835746404E+00
                       7.6783625244E+00  4.4331046704E+00  9.8507239212E+00
                      -8.5246948660E-16 -1.4765204627E-15  0.0000000000E+00
                      -8.5246948660E-16 -1.4765204627E-15  6.5671492808E+00
                      -3.8696873966E+00  1.1100374401E+01  9.8507239212E+00
                       7.6783625244E+00  8.9014347906E+00  3.2835746404E+00
                       3.8086751279E+00  2.1989396104E+00  3.2835746404E+00
                       3.8696873965E+00  1.1100374401E+01  9.8507239212E+00
                      -1.6535217640E-11  4.3978792207E+00  9.8507239212E+00
                       1.1548049921E+01  2.1989396104E+00  3.2835746404E+00
             xred      3.3333333333E-01  6.6666666667E-01  2.5000000000E-01
                       6.6666666667E-01  3.3333333333E-01  7.5000000000E-01
                      -1.1102230246E-16 -1.1102230246E-16  0.0000000000E+00
                      -1.1102230246E-16 -1.1102230246E-16  5.0000000000E-01
                       1.6534233333E-01  8.3465766667E-01  7.5000000000E-01
                       8.3465766667E-01  6.6931533333E-01  2.5000000000E-01
                       3.3068466667E-01  1.6534233333E-01  2.5000000000E-01
                       6.6931533333E-01  8.3465766667E-01  7.5000000000E-01
                       1.6534233333E-01  3.3068466667E-01  7.5000000000E-01
                       8.3465766667E-01  1.6534233333E-01  2.5000000000E-01
            znucl       55.00000   12.00000   53.00000

 chkinp: Checking input parameters for consistency.

== DATASET  1 ==================================================================
-   mpi_nproc: 1, omp_nthreads: -1 (-1 if OMP is not activated)

--- !DatasetInfo
iteration_state: {dtset: 1, }
dimensions: {natom: 10, nkpt: 2, mband: 49, nsppol: 1, nspinor: 1, nspden: 1, mpw: 35007, }
cutoff_energies: {ecut:  42.0, pawecutdg:  -1.0, }
electrons: {nelect:   8.00000000E+01, charge:   0.00000000E+00, occopt:   1.00000000E+00, tsmear:   1.00000000E-02, }
meta: {optdriver: 1, rfelfd: 2, }
...

 Real(R)+Recip(G) space primitive vectors, cartesian coordinates (Bohr,Bohr^-1):
 R(1)= 15.3567250  0.0000000  0.0000000  G(1)=  0.0651181  0.0375959  0.0000000
 R(2)= -7.6783625 13.2993140  0.0000000  G(2)=  0.0000000  0.0751918  0.0000000
 R(3)=  0.0000000  0.0000000 13.1342986  G(3)=  0.0000000  0.0000000  0.0761365
 Unit cell volume ucvol=  2.6824691E+03 bohr^3
 Angles (23,13,12)=  9.00000000E+01  9.00000000E+01  1.20000000E+02 degrees

 getcut: wavevector=  0.0000  0.0000  0.0000  ngfft=  90  90  80
         ecut(hartree)=     42.000   => boxcut(ratio)=   2.00905

--- Pseudopotential description ------------------------------------------------
- pspini: atom type   1  psp file is /scratch/users/j/a/jabreu/pseudos/PBEsol/Cs.psp8
- pspatm: opening atomic psp file    /scratch/users/j/a/jabreu/pseudos/PBEsol/Cs.psp8
- Cs    ONCVPSP-3.3.0  r_core=   2.27353   1.85623   2.01788   1.90105
- 55.00000   9.00000    180112                znucl, zion, pspdat
    8 -116133    3    4       600   0.00000   pspcod,pspxc,lmax,lloc,mmax,r2well
    5.99000000000000    5.00000000000000    0.00000000000000   rchrg,fchrg,qchrg
     nproj     2     2     2     2
     extension_switch     1
  pspatm : epsatm=   22.12462445
         --- l  ekb(1:nproj) -->
             0    6.214110    0.767882
             1    6.311966    0.793598
             2    3.769790    0.913105
             3   -9.247129   -2.432478
 pspatm: atomic psp has been read  and splines computed

- pspini: atom type   2  psp file is /scratch/users/j/a/jabreu/pseudos/PBEsol/Mg.psp8
- pspatm: opening atomic psp file    /scratch/users/j/a/jabreu/pseudos/PBEsol/Mg.psp8
- Mg    ONCVPSP-3.3.0  r_core=   1.16056   1.56380
- 12.00000  10.00000    180112                znucl, zion, pspdat
    8 -116133    1    4       400   0.00000   pspcod,pspxc,lmax,lloc,mmax,r2well
    3.99000000000000    0.00000000000000    0.00000000000000   rchrg,fchrg,qchrg
     nproj     2     2
     extension_switch     1
  pspatm : epsatm=    9.18164846
         --- l  ekb(1:nproj) -->
             0    2.230603   -0.826587
             1   -6.503151   -2.501445
 pspatm: atomic psp has been read  and splines computed

- pspini: atom type   3  psp file is /scratch/users/j/a/jabreu/pseudos/PBEsol/I.psp8
- pspatm: opening atomic psp file    /scratch/users/j/a/jabreu/pseudos/PBEsol/I.psp8
- I     ONCVPSP-3.3.0  r_core=   2.02042   2.17032   2.27639
[...]
   0.00000    0.00000    0.00000    0.00000    0.00000    0.00000    0.00000    0.00000
   0.00000   -0.00000   -0.00000    0.00000    0.00000    0.00000    0.00000   -0.00000
   0.00000   -0.00000   -0.00000   -0.00000    0.00000    0.00000   -0.00000    0.00000
  -0.00006
 prteigrs : prtvol=0 or 1, do not print more k-points.

 Eight components of 2nd-order total energy (hartree) are
 1,2,3: 0th-order hamiltonian combined with 1st-order wavefunctions
     kin0=   2.64439784E+01 eigvalue=   1.61127904E+00  local=  -1.54981895E+01
 4,5,6: 1st-order hamiltonian combined with 1st and 0th-order wfs
     kin1=  -4.24808227E+01  Hartree=   0.00000000E+00     xc=   0.00000000E+00
 7,8,9: eventually, occupation + non-local contributions
    edocc=   7.83866433E+00     enl0=   4.26782351E+00   enl1=  -6.84628877E+00
 1-9 gives the relaxation energy (to be shifted if some occ is /=2.0)
   erelax=  -2.46635558E+01
  No Ewald or frozen-wf contrib.: the relaxation energy is the total one
 2DEtotal=   -0.2466355576E+02 Ha. Also 2DEtotal=   -0.671129483102E+03 eV
    (  non-var. 2DEtotal :   -2.4663555759E+01 Ha)

 Perturbation wavevector (in red.coord.)   0.000000  0.000000  0.000000
 Perturbation : derivative vs k along direction   2
 The set of symmetries contains only one element for this perturbation.
 symkpt : not enough symmetry to change the number of k points.

[...]

 Perturbation wavevector (in red.coord.)   0.000000  0.000000  0.000000
 Perturbation : derivative vs k along direction   3
 The set of symmetries contains only one element for this perturbation.
 symkpt : not enough symmetry to change the number of k points.

 Initialisation of the first-order wave-functions :
  ireadwf=   0

--- !BeginCycle
iteration_state: {dtset: 1, }
solver: {iscf: 7, nstep: 2000, nline: 4, wfoptalg: 0, }
tolerances: {tolwfr: 1.00E-20, }
...

     iter   2DEtotal(Ha)        deltaE(Ha) residm    vres2
-ETOT  1  -21.520980465967     -2.152E+01 1.569E-02 0.000E+00
 ETOT  2  -21.528715815997     -7.735E-03 9.085E-04 0.000E+00
 ETOT  3  -21.528973364792     -2.575E-04 3.432E-05 0.000E+00
 ETOT  4  -21.528992752097     -1.939E-05 1.044E-05 0.000E+00
 ETOT  5  -21.528994512121     -1.760E-06 6.245E-07 0.000E+00
 ETOT  6  -21.528994684600     -1.725E-07 1.970E-07 0.000E+00
 ETOT  7  -21.528994702283     -1.768E-08 1.497E-08 0.000E+00
 ETOT  8  -21.528994704124     -1.841E-09 4.527E-09 0.000E+00
 ETOT  9  -21.528994704331     -2.064E-10 4.096E-10 0.000E+00
 ETOT 10  -21.528994704355     -2.380E-11 1.166E-10 0.000E+00
 ETOT 11  -21.528994704358     -2.821E-12 1.159E-11 0.000E+00
 ETOT 12  -21.528994704358     -3.517E-13 3.159E-12 0.000E+00
 ETOT 13  -21.528994704358     -2.132E-14 3.268E-13 0.000E+00
 ETOT 14  -21.528994704358     -1.066E-14 8.686E-14 0.000E+00
 ETOT 15  -21.528994704358      1.066E-14 9.519E-15 0.000E+00
 ETOT 16  -21.528994704358      3.553E-15 2.397E-15 0.000E+00
 ETOT 17  -21.528994704358      3.553E-15 2.886E-16 0.000E+00
 ETOT 18  -21.528994704358     -1.776E-14 6.625E-17 0.000E+00
 ETOT 19  -21.528994704358      7.105E-15 8.792E-18 0.000E+00
 ETOT 20  -21.528994704358      1.066E-14 1.835E-18 0.000E+00
 ETOT 21  -21.528994704358      0.000E+00 2.689E-19 0.000E+00
 ETOT 22  -21.528994704358     -7.105E-15 6.785E-20 0.000E+00
 ETOT 23  -21.528994704358      0.000E+00 9.908E-21 0.000E+00

 At SCF step   23   max residual=  9.91E-21 < tolwfr=  1.00E-20 =>converged.

 ----iterations are completed or convergence reached----

 dfpt_looppert: DFPT cycle converged with prtwf=-1. Will skip output of the 1st-order WFK file.
 dfpt_looppert : ek2=    3.6615582791E+01
          f-sum rule ratio=    9.9582374254E-01
 prteigrs : about to open file /scratch/users/j/a/jabreu/flow_simple_10atoms/flow/w424/t1/tmpdata/tmp_1WF1_EIG
 Expectation of eigenvalue derivatives (hartree) for nkpt=   2  k points:
  (in case of degenerate eigenvalues, averaged derivative)
 kpt#   1, nband= 49, wtk=  0.50000, kpt=  0.0000  0.0000  0.0000 (reduced coord)
  -0.00000    0.00000   -0.00000   -0.00000    0.00000    0.00000   -0.00000   -0.00000
   0.00000    0.00000    0.00000   -0.00000    0.00000    0.00000    0.00000    0.00000
  -0.00000    0.00000    0.00000    0.00000   -0.00000   -0.00000    0.00000    0.00000
   0.00000   -0.00000   -0.00000    0.00000    0.00000   -0.00000   -0.00000    0.00000
   0.00000    0.00000    0.00000   -0.00000   -0.00000   -0.00000   -0.00000   -0.00000
   0.00000   -0.00000    0.00000   -0.00000    0.00000    0.00000    0.00000   -0.00036
   0.00111
 prteigrs : prtvol=0 or 1, do not print more k-points.

 Eight components of 2nd-order total energy (hartree) are
 1,2,3: 0th-order hamiltonian combined with 1st-order wavefunctions
     kin0=   2.75429804E+01 eigvalue=   1.98759459E+00  local=  -1.64839071E+01
 4,5,6: 1st-order hamiltonian combined with 1st and 0th-order wfs
     kin1=  -3.64626667E+01  Hartree=   0.00000000E+00     xc=   0.00000000E+00
 7,8,9: eventually, occupation + non-local contributions
    edocc=   3.96858664E+00     enl0=   4.51374015E+00   enl1=  -6.59532272E+00
 1-9 gives the relaxation energy (to be shifted if some occ is /=2.0)
   erelax=  -2.15289947E+01
  No Ewald or frozen-wf contrib.: the relaxation energy is the total one
 2DEtotal=   -0.2152899470E+02 Ha. Also 2DEtotal=   -0.585833739020E+03 eV
    (  non-var. 2DEtotal :   -2.1528994704E+01 Ha)

 CALCULATION OF EFFECTIVE MASSES
 NOTE : Additional infos (eff. mass eigenvalues, eigenvectors and, if degenerate, average mass) are available in stdout.

 K-point ( 0.000, 0.000, 0.000) | band =    40
 Effective mass tensor:
             -0.6969988260              0.0000004274             -0.0000007552
              0.0000004274             -0.6970001946             -0.0000006721
             -0.0000007552             -0.0000006721             -1.4662676968
 Effective mass tensor eigenvalues:
             -1.4662676968             -0.6970003171             -0.6969987035
 Angular average effective mass 1/(<1/m>)=  -0.8447263027
 Angular average effective mass for Frohlich model (<m**0.5>)**2=  -0.8717534246
 Effective masses along directions: (cart. coord. / red. coord. -> eff. mass)
    1:   1.000000  0.000000  0.000000 /   0.894427 -0.447214  0.000000 ->  -0.6969988260
    2:   0.000000  1.000000  0.000000 /   0.000000  1.000000  0.000000 ->  -0.6970001946
    3:   0.000000  0.000000  1.000000 /   0.000000  0.000000  1.000000 ->  -1.4662676968
    4:   0.577350  0.577350  0.577350 /   0.732158  0.267988  0.626200 ->  -0.8447265486
    5:   0.000000  0.707107  0.707107 /   0.000000  0.711507  0.702679 ->  -0.9448570925
    6:   0.707107  0.000000  0.707107 /   0.710399 -0.355200  0.607590 ->  -0.9448559075
    7:   0.707107  0.707107  0.000000 /   0.939071  0.343724  0.000000 ->  -0.6969990829

 K-point ( 0.000, 0.000, 0.286) | band =    41
 Effective mass tensor:
              0.5184436886             -0.0000000020             -0.0000008978
             -0.0000000020              0.5184436884              0.0000007434
             -0.0000008978              0.0000007434              0.4627254346
 Effective mass tensor eigenvalues:
              0.4627254345              0.5184436865              0.5184436905
 Angular average effective mass 1/(<1/m>)=   0.4984375344
 Angular average effective mass for Frohlich model (<m**0.5>)**2=   0.4988755779
 Effective masses along directions: (cart. coord. / red. coord. -> eff. mass)
    1:   1.000000  0.000000  0.000000 /   0.894427 -0.447214  0.000000 ->   0.5184436886
    2:   0.000000  1.000000  0.000000 /   0.000000  1.000000  0.000000 ->   0.5184436884
    3:   0.000000  0.000000  1.000000 /   0.000000  0.000000  1.000000 ->   0.4627254346
    4:   0.577350  0.577350  0.577350 /   0.732158  0.267988  0.626200 ->   0.4984374265
    5:   0.000000  0.707107  0.707107 /   0.000000  0.711507  0.702679 ->   0.4890032491
    6:   0.707107  0.000000  0.707107 /   0.710399 -0.355200  0.607590 ->   0.4890016133
    7:   0.707107  0.707107  0.000000 /   0.939071  0.343724  0.000000 ->   0.5184436865

 END OF EFFECTIVE MASSES SECTION

 ---- first-order wavefunction calculations are completed ----

 Total localisation tensor (bohr^2) in cartesian coordinates
  WARNING : still subject to testing - especially symmetries.
      direction              matrix element
   alpha     beta       real part   imaginary part
     1        1       3.2208136051    0.0000000000
     1        2      -1.1157223251    0.0000000000
     1        3       0.0000000000    0.0000000000
     2        1      -1.1157223251    0.0000000000
     2        2       1.9324877542    0.0000000000
     2        3       0.0000000000    0.0000000000
     3        1       0.0000000000    0.0000000000
     3        2       0.0000000000    0.0000000000
     3        3       1.3139445269    0.0000000000

 respfn : d/dk was computed, but no 2DTE, so no DDB output.

== END DATASET(S) ==============================================================

 -outvars: echo values of variables after computation  --------
            acell      1.0000000000E+00  1.0000000000E+00  1.0000000000E+00 Bohr
              amu      1.32905430E+02  2.43050000E+01  1.26904470E+02
             ecut      4.20000000E+01 Hartree
           etotal     -2.1528994704E+01
            fcart      0.0000000000E+00  0.0000000000E+00  0.0000000000E+00
                       0.0000000000E+00  0.0000000000E+00  0.0000000000E+00
                       0.0000000000E+00  0.0000000000E+00  0.0000000000E+00
                       0.0000000000E+00  0.0000000000E+00  0.0000000000E+00
                       0.0000000000E+00  0.0000000000E+00  0.0000000000E+00
                       0.0000000000E+00  0.0000000000E+00  0.0000000000E+00
                       0.0000000000E+00  0.0000000000E+00  0.0000000000E+00
                       0.0000000000E+00  0.0000000000E+00  0.0000000000E+00
                       0.0000000000E+00  0.0000000000E+00  0.0000000000E+00
                       0.0000000000E+00  0.0000000000E+00  0.0000000000E+00
-          fftalg         512
           irdden           1
           irdwfk           1
           istwfk        1    0
              ixc     -116133
              kpt      0.00000000E+00  0.00000000E+00  0.00000000E+00
                       0.00000000E+00  0.00000000E+00  2.85714286E-01
           kptopt           0
P           mkmem           2
P          mkqmem           2
P          mk1mem           2
            natom          10
            nband          49
           nbdbuf           4
            ngfft          90      90      80
             nkpt           2
            nstep        2000
             nsym          24
           ntypat           3
              occ      2.000000  2.000000  2.000000  2.000000  2.000000  2.000000
                       2.000000  2.000000  2.000000  2.000000  2.000000  2.000000
                       2.000000  2.000000  2.000000  2.000000  2.000000  2.000000
                       2.000000  2.000000  2.000000  2.000000  2.000000  2.000000
                       2.000000  2.000000  2.000000  2.000000  2.000000  2.000000
                       2.000000  2.000000  2.000000  2.000000  2.000000  2.000000
                       2.000000  2.000000  2.000000  2.000000  0.000000  0.000000
                       0.000000  0.000000  0.000000  0.000000  0.000000  0.000000
                       0.000000
        optdriver           1
            prtwf          -1
            rfdir           1       1       1
           rfelfd           2
            rprim      1.5356725049E+01  0.0000000000E+00  0.0000000000E+00
                      -7.6783625245E+00  1.3299314011E+01  0.0000000000E+00
                       0.0000000000E+00  0.0000000000E+00  1.3134298562E+01
          spgroup         194
           strten      0.0000000000E+00  0.0000000000E+00  0.0000000000E+00
                       0.0000000000E+00  0.0000000000E+00  0.0000000000E+00
           symrel      1  0  0   0  1  0   0  0  1      -1  0  0   0 -1  0   0  0 -1
                       0  1  0   1  0  0   0  0  1       0 -1  0  -1  0  0   0  0 -1
                       1  1  0  -1  0  0   0  0  1      -1 -1  0   1  0  0   0  0 -1
                      -1  0  0   1  1  0   0  0  1       1  0  0  -1 -1  0   0  0 -1
                       0  1  0  -1 -1  0   0  0  1       0 -1  0   1  1  0   0  0 -1
                      -1 -1  0   0  1  0   0  0  1       1  1  0   0 -1  0   0  0 -1
                      -1  0  0   0 -1  0   0  0  1       1  0  0   0  1  0   0  0 -1
                       0 -1  0  -1  0  0   0  0  1       0  1  0   1  0  0   0  0 -1
                      -1 -1  0   1  0  0   0  0  1       1  1  0  -1  0  0   0  0 -1
                       1  0  0  -1 -1  0   0  0  1      -1  0  0   1  1  0   0  0 -1
                       0 -1  0   1  1  0   0  0  1       0  1  0  -1 -1  0   0  0 -1
                       1  1  0   0 -1  0   0  0  1      -1 -1  0   0  1  0   0  0 -1
            tnons      0.0000000  0.0000000  0.0000000    -0.0000000 -0.0000000  0.0000000
                      -0.0000000  0.0000000  0.5000000    -0.0000000 -0.0000000  0.5000000
                      -0.0000000  0.0000000  0.5000000    -0.0000000 -0.0000000  0.5000000
                      -0.0000000  0.0000000  0.0000000    -0.0000000 -0.0000000  0.0000000
                      -0.0000000 -0.0000000  0.0000000    -0.0000000 -0.0000000  0.0000000
                      -0.0000000 -0.0000000  0.5000000     0.0000000 -0.0000000  0.5000000
                      -0.0000000 -0.0000000  0.5000000     0.0000000  0.0000000  0.5000000
                      -0.0000000 -0.0000000  0.0000000    -0.0000000  0.0000000  0.0000000
                      -0.0000000 -0.0000000  0.0000000    -0.0000000  0.0000000  0.0000000
                      -0.0000000 -0.0000000  0.5000000    -0.0000000  0.0000000  0.5000000
                      -0.0000000 -0.0000000  0.5000000    -0.0000000 -0.0000000  0.5000000
                       0.0000000 -0.0000000  0.0000000    -0.0000000 -0.0000000  0.0000000
           tolwfr      1.00000000E-20
            typat      1  1  2  2  3  3  3  3  3  3
           useylm           1
              wtk        0.50000    0.50000
           xangst     -1.7639711750E-11  4.6917959098E+00  1.7375928624E+00
                       4.0632144472E+00  2.3458979549E+00  5.2127785872E+00
                      -4.5110742333E-16 -7.8134097688E-16  0.0000000000E+00
                      -4.5110742333E-16 -7.8134097688E-16  3.4751857248E+00
                      -2.0477503746E+00  5.8740651398E+00  5.2127785872E+00
                       4.0632144472E+00  4.7104364149E+00  1.7375928624E+00
                       2.0154640726E+00  1.1636287249E+00  1.7375928624E+00
                       2.0477503746E+00  5.8740651398E+00  5.2127785872E+00
                      -8.7500603139E-12  2.3272574497E+00  5.2127785872E+00
                       6.1109648218E+00  1.1636287249E+00  1.7375928624E+00
            xcart     -3.3334224270E-11  8.8662093409E+00  3.2835746404E+00
                       7.6783625244E+00  4.4331046704E+00  9.8507239212E+00
                      -8.5246948660E-16 -1.4765204627E-15  0.0000000000E+00
                      -8.5246948660E-16 -1.4765204627E-15  6.5671492808E+00
                      -3.8696873966E+00  1.1100374401E+01  9.8507239212E+00
                       7.6783625244E+00  8.9014347906E+00  3.2835746404E+00
                       3.8086751279E+00  2.1989396104E+00  3.2835746404E+00
                       3.8696873965E+00  1.1100374401E+01  9.8507239212E+00
                      -1.6535217640E-11  4.3978792207E+00  9.8507239212E+00
                       1.1548049921E+01  2.1989396104E+00  3.2835746404E+00
             xred      3.3333333333E-01  6.6666666667E-01  2.5000000000E-01
                       6.6666666667E-01  3.3333333333E-01  7.5000000000E-01
                      -1.1102230246E-16 -1.1102230246E-16  0.0000000000E+00
                      -1.1102230246E-16 -1.1102230246E-16  5.0000000000E-01
                       1.6534233333E-01  8.3465766667E-01  7.5000000000E-01
                       8.3465766667E-01  6.6931533333E-01  2.5000000000E-01
                       3.3068466667E-01  1.6534233333E-01  2.5000000000E-01
                       6.6931533333E-01  8.3465766667E-01  7.5000000000E-01
                       1.6534233333E-01  3.3068466667E-01  7.5000000000E-01
                       8.3465766667E-01  1.6534233333E-01  2.5000000000E-01
            znucl       55.00000   12.00000   53.00000

- Timing analysis has been suppressed with timopt=0

 Suggested references for the acknowledgment of ABINIT usage.

 Calculation completed.
.Delivered   2 WARNINGs and   7 COMMENTs to log file.