.Version 9.5.1 of ABINIT

 ABINIT is a project of the Universite Catholique de Louvain,
 Corning Inc. and other collaborators, see ~abinit/doc/developers/contributors.txt .
 acknowledgments of the ABINIT effort.

.Starting date : Tue 11 May 2021.
- ( at 21h21 )

- input  file    -> /scratch/users/j/a/jabreu/flow_simple_8atoms/flow/w295/t1/run.abi
- output file    -> /scratch/users/j/a/jabreu/flow_simple_8atoms/flow/w295/t1/run.abo
- root for input  files -> /scratch/users/j/a/jabreu/flow_simple_8atoms/flow/w295/t1/indata/in
- root for output files -> /scratch/users/j/a/jabreu/flow_simple_8atoms/flow/w295/t1/outdata/out

 Symmetries : space group R-3 c (#167); Bravais hR (rhombohedral)
     intxc =       0      iscf =       7    lmnmax =      18     lnmax =       6
     mgfft =      60  mpssoang =       3    mqgrid =    3001     natom =       8
  nloc_mem =       1    nspden =       1   nspinor =       1    nsppol =       1
      nsym =      12    n1xccc =    2501    ntypat =       2    occopt =       1
   xclevel =       2
-    mband =          43        mffmem =           1         mkmem =           2
-   mkqmem =           2        mk1mem =           2           mpw =        8899
      nfft =      216000          nkpt =           2
  Rough estimation (10% accuracy) of disk space for files :

------------- Echo of variables that govern the present computation ------------
-
- outvars: echo of selected default values
-   iomode0 =  0 , fftalg0 =512 , wfoptalg0 =  0
-
- outvars: echo of global parameters not present in the input file
-  max_nthreads =    0
-
 -outvars: echo values of preprocessed input variables --------
            acell      1.0000000000E+00  1.0000000000E+00  1.0000000000E+00 Bohr
              amu      1.27600000E+02  1.59994000E+01
             ecut      4.40000000E+01 Hartree
-          fftalg         512
           irdden           1
           irdwfk           1
           istwfk        0    1
              ixc     -116133
              kpt      1.31755541E-01  0.00000000E+00 -1.31755541E-01
                       0.00000000E+00  0.00000000E+00  0.00000000E+00
           kptopt           0
P           mkmem           2
P          mkqmem           2
P          mk1mem           2
            natom           8
            nband          43
           nbdbuf           4
            ngfft          60      60      60
             nkpt           2
            nstep        2000
             nsym          12
           ntypat           2
              occ      2.000000  2.000000  2.000000  2.000000  2.000000  2.000000
                       2.000000  2.000000  2.000000  2.000000  2.000000  2.000000
                       2.000000  2.000000  2.000000  2.000000  2.000000  2.000000
                       2.000000  2.000000  2.000000  2.000000  2.000000  2.000000
                       2.000000  2.000000  2.000000  2.000000  2.000000  2.000000
                       2.000000  2.000000  2.000000  2.000000  0.000000  0.000000
                       0.000000  0.000000  0.000000  0.000000  0.000000  0.000000
                       0.000000
        optdriver           1
            prtwf          -1
            rfdir           1       1       1
           rfelfd           2
            rprim      8.2858463369E+00  0.0000000000E+00  5.4732815379E+00
                       2.9441588926E+00  7.7451389874E+00  5.4732815379E+00
                       0.0000000000E+00  0.0000000000E+00  9.9303605328E+00
          spgroup         167
           symrel      1  0  0   0  1  0   0  0  1      -1  0  0   0 -1  0   0  0 -1
                       0  1  0   1  0  0   0  0  1       0 -1  0  -1  0  0   0  0 -1
                       0  0  1   1  0  0   0  1  0       0  0 -1  -1  0  0   0 -1  0
                       1  0  0   0  0  1   0  1  0      -1  0  0   0  0 -1   0 -1  0
                       0  1  0   0  0  1   1  0  0       0 -1  0   0  0 -1  -1  0  0
                       0  0  1   0  1  0   1  0  0       0  0 -1   0 -1  0  -1  0  0
            tnons      0.0000000  0.0000000  0.0000000     0.0000000  0.0000000  0.0000000
                       0.5000000  0.5000000  0.5000000     0.5000000  0.5000000  0.5000000
                       0.0000000  0.0000000  0.0000000     0.0000000  0.0000000  0.0000000
                       0.5000000  0.5000000  0.5000000     0.5000000  0.5000000  0.5000000
                       0.0000000  0.0000000  0.0000000     0.0000000  0.0000000  0.0000000
                       0.5000000  0.5000000  0.5000000     0.5000000  0.5000000  0.5000000
           tolwfr      1.00000000E-20
            typat      1  1  2  2  2  2  2  2
           useylm           1
              wtk        0.50000    0.50000
           xangst      0.0000000000E+00  0.0000000000E+00  0.0000000000E+00
                       2.9713314099E+00  2.0492755147E+00  5.5237960796E+00
                       4.8661844450E+00  2.4806152222E+00  5.6582338858E+00
                       2.4901869243E+00  3.6672113220E+00  6.4961022038E+00
                       3.0432885653E+00  1.0246377574E+00  7.1789501889E+00
                       1.0764783748E+00  1.6179358073E+00  5.3893582733E+00
                       3.4524758955E+00  4.3133970745E-01  4.5514899554E+00
                       2.8993742545E+00  3.0739132721E+00  3.8686419702E+00
            xcart      0.0000000000E+00  0.0000000000E+00  0.0000000000E+00
                       5.6150026147E+00  3.8725694937E+00  1.0438461804E+01
                       9.1957559132E+00  4.6876834110E+00  1.0692512440E+01
                       4.7057713066E+00  6.9300250701E+00  1.2275854096E+01
                       5.7509819318E+00  1.9362847468E+00  1.3566249779E+01
                       2.0342493163E+00  3.0574555764E+00  1.0184411169E+01
                       6.5242339229E+00  8.1511391731E-01  8.6010695122E+00
                       5.4790232977E+00  5.8088542405E+00  7.3106738300E+00
             xred      0.0000000000E+00  0.0000000000E+00  0.0000000000E+00
                       5.0000000000E-01  5.0000000000E-01  5.0000000000E-01
                       8.9475800000E-01  6.0524200000E-01  2.5000000000E-01
                       2.5000000000E-01  8.9475800000E-01  6.0524200000E-01
                       6.0524200000E-01  2.5000000000E-01  8.9475800000E-01
                       1.0524200000E-01  3.9475800000E-01  7.5000000000E-01
                       7.5000000000E-01  1.0524200000E-01  3.9475800000E-01
                       3.9475800000E-01  7.5000000000E-01  1.0524200000E-01
            znucl       52.00000    8.00000

 chkinp: Checking input parameters for consistency.

== DATASET  1 ==================================================================
-   mpi_nproc: 1, omp_nthreads: -1 (-1 if OMP is not activated)

--- !DatasetInfo
iteration_state: {dtset: 1, }
dimensions: {natom: 8, nkpt: 2, mband: 43, nsppol: 1, nspinor: 1, nspden: 1, mpw: 8899, }
cutoff_energies: {ecut:  44.0, pawecutdg:  -1.0, }
electrons: {nelect:   6.80000000E+01, charge:   0.00000000E+00, occopt:   1.00000000E+00, tsmear:   1.00000000E-02, }
meta: {optdriver: 1, rfelfd: 2, }
...

 Real(R)+Recip(G) space primitive vectors, cartesian coordinates (Bohr,Bohr^-1):
 R(1)=  8.2858463  0.0000000  5.4732815  G(1)=  0.1206877 -0.0458770  0.0000000
 R(2)=  2.9441589  7.7451390  5.4732815  G(2)=  0.0000000  0.1291132  0.0000000
 R(3)=  0.0000000  0.0000000  9.9303605  G(3)= -0.0665190 -0.0458770  0.1007013
 Unit cell volume ucvol=  6.3728120E+02 bohr^3
 Angles (23,13,12)=  5.65529270E+01  5.65529270E+01  5.65529270E+01 degrees

 getcut: wavevector=  0.0000  0.0000  0.0000  ngfft=  60  60  60
         ecut(hartree)=     44.000   => boxcut(ratio)=   2.02398

--- Pseudopotential description ------------------------------------------------
- pspini: atom type   1  psp file is /scratch/users/j/a/jabreu/pseudos/PBEsol/Te.psp8
- pspatm: opening atomic psp file    /scratch/users/j/a/jabreu/pseudos/PBEsol/Te.psp8
- Te    ONCVPSP-3.3.0  r_core=   2.26547   1.91704   1.80604
- 52.00000  16.00000    180112                znucl, zion, pspdat
    8 -116133    2    4       600   0.00000   pspcod,pspxc,lmax,lloc,mmax,r2well
    5.99000000000000    5.00000000000000    0.00000000000000   rchrg,fchrg,qchrg
     nproj     2     2     2
     extension_switch     1
  pspatm : epsatm=   36.82679836
         --- l  ekb(1:nproj) -->
             0    6.345999    0.785432
             1    5.709019    1.070069
             2   -6.035173   -1.870937
 pspatm: atomic psp has been read  and splines computed

- pspini: atom type   2  psp file is /scratch/users/j/a/jabreu/pseudos/PBEsol/O.psp8
- pspatm: opening atomic psp file    /scratch/users/j/a/jabreu/pseudos/PBEsol/O.psp8
- O     ONCVPSP-3.3.0  r_core=   1.35509   1.45563   1.26150
-  8.00000   6.00000    180112                znucl, zion, pspdat
    8 -116133    2    4       600   0.00000   pspcod,pspxc,lmax,lloc,mmax,r2well
    5.99000000000000    4.00000000000000    0.00000000000000   rchrg,fchrg,qchrg
     nproj     2     2     1
     extension_switch     1
  pspatm : epsatm=    6.22910522
         --- l  ekb(1:nproj) -->
             0    6.050032    0.820363
             1   -4.739617   -1.153841
             2   -1.335834
 pspatm: atomic psp has been read  and splines computed

   7.54991950E+03                                ecore*ucvol(ha*bohr**3)

-inwffil : will read wavefunctions from disk file /scratch/users/j/a/jabreu/flow_simple_8atoms/flow/w295/t1/indata/in_WFK

 ==>  initialize data related to q vector <==

 The list of irreducible perturbations for this q vector is:
    1)    idir= 1    ipert=   9
    2)    idir= 2    ipert=   9
    3)    idir= 3    ipert=   9

 Perturbation wavevector (in red.coord.)   0.000000  0.000000  0.000000
 Perturbation : derivative vs k along direction   1

 dfpt_looppert : COMMENT -
  In a d/dk calculation, iscf is set to -3 automatically.
 The set of symmetries contains only one element for this perturbation.
 symkpt : not enough symmetry to change the number of k points.

[...]

 Initialisation of the first-order wave-functions :
  ireadwf=   0

--- !BeginCycle
iteration_state: {dtset: 1, }
solver: {iscf: 7, nstep: 2000, nline: 4, wfoptalg: 0, }
tolerances: {tolwfr: 1.00E-20, }
...

     iter   2DEtotal(Ha)        deltaE(Ha) residm    vres2
-ETOT  1  -75.389943296622     -7.539E+01 5.389E-02 0.000E+00
 ETOT  2  -75.423833916756     -3.389E-02 1.702E-03 0.000E+00
 ETOT  3  -75.423895132480     -6.122E-05 2.523E-05 0.000E+00
 ETOT  4  -75.423895428530     -2.961E-07 1.847E-06 0.000E+00
 ETOT  5  -75.423895430485     -1.955E-09 4.292E-08 0.000E+00
 ETOT  6  -75.423895430500     -1.484E-11 3.583E-09 0.000E+00
 ETOT  7  -75.423895430500     -9.948E-14 8.998E-11 0.000E+00
 ETOT  8  -75.423895430500     -1.421E-14 8.142E-12 0.000E+00
 ETOT  9  -75.423895430500      1.421E-14 2.081E-13 0.000E+00
 ETOT 10  -75.423895430500     -1.421E-14 1.997E-14 0.000E+00
 ETOT 11  -75.423895430500      0.000E+00 5.061E-16 0.000E+00
 ETOT 12  -75.423895430500      0.000E+00 5.080E-17 0.000E+00
 ETOT 13  -75.423895430500      1.421E-14 1.269E-18 0.000E+00
 ETOT 14  -75.423895430500      0.000E+00 1.315E-19 0.000E+00
 ETOT 15  -75.423895430500      0.000E+00 9.572E-21 0.000E+00

 At SCF step   15   max residual=  9.57E-21 < tolwfr=  1.00E-20 =>converged.

 ----iterations are completed or convergence reached----

 dfpt_looppert: DFPT cycle converged with prtwf=-1. Will skip output of the 1st-order WFK file.
 dfpt_looppert : ek2=    8.9503540242E+01
          f-sum rule ratio=    1.0398699291E+00
 prteigrs : about to open file /scratch/users/j/a/jabreu/flow_simple_8atoms/flow/w295/t1/tmpdata/tmp_1WF1_EIG
 Expectation of eigenvalue derivatives (hartree) for nkpt=   2  k points:
  (in case of degenerate eigenvalues, averaged derivative)
 kpt#   1, nband= 43, wtk=  0.50000, kpt=  0.1318  0.0000 -0.1318 (reduced coord)
   0.00076    0.00217   -0.00197   -0.00067    0.00027    0.00062   -0.00084   -0.00036
   0.00029   -0.00026    0.06382   -0.10903   -0.01650    0.05158   -0.06684   -0.03133
   0.17331   -0.16357    0.05527    0.09666   -0.05861    0.10960    0.01765   -0.10015
  -0.05920    0.10811    0.10036   -0.08915    0.02929   -0.07479   -0.05937   -0.00535
  -0.02191   -0.00055    0.09168   -0.19577    0.03809    0.18772    0.20409   -0.15733
  -0.15074    0.16688   -0.05184
 prteigrs : prtvol=0 or 1, do not print more k-points.

 Eight components of 2nd-order total energy (hartree) are
 1,2,3: 0th-order hamiltonian combined with 1st-order wavefunctions
     kin0=   8.79539563E+01 eigvalue=   9.63579676E+00  local=  -3.80073828E+01
 4,5,6: 1st-order hamiltonian combined with 1st and 0th-order wfs
     kin1=  -9.30720400E+01  Hartree=   0.00000000E+00     xc=   0.00000000E+00
 7,8,9: eventually, occupation + non-local contributions
    edocc=   1.24000898E+01     enl0=   3.44143536E+00   enl1=  -5.77757508E+01
 1-9 gives the relaxation energy (to be shifted if some occ is /=2.0)
   erelax=  -7.54238954E+01
  No Ewald or frozen-wf contrib.: the relaxation energy is the total one
 2DEtotal=   -0.7542389543E+02 Ha. Also 2DEtotal=   -0.205238857078E+04 eV
    (  non-var. 2DEtotal :   -7.5423895430E+01 Ha)

 Perturbation wavevector (in red.coord.)   0.000000  0.000000  0.000000
 Perturbation : derivative vs k along direction   2
 The set of symmetries contains only one element for this perturbation.
 symkpt : not enough symmetry to change the number of k points.

[...]

 Perturbation wavevector (in red.coord.)   0.000000  0.000000  0.000000
 Perturbation : derivative vs k along direction   3
 The set of symmetries contains only one element for this perturbation.
 symkpt : not enough symmetry to change the number of k points.

-inwffil : will read wavefunctions from disk file /scratch/users/j/a/jabreu/flow_simple_8atoms/flow/w295/t1/indata/in_WFK

 Initialisation of the first-order wave-functions :
  ireadwf=   0

--- !BeginCycle
iteration_state: {dtset: 1, }
solver: {iscf: 7, nstep: 2000, nline: 4, wfoptalg: 0, }
tolerances: {tolwfr: 1.00E-20, }
...

     iter   2DEtotal(Ha)        deltaE(Ha) residm    vres2
-ETOT  1  -75.389928334182     -7.539E+01 5.389E-02 0.000E+00
 ETOT  2  -75.423829185054     -3.390E-02 1.702E-03 0.000E+00
 ETOT  3  -75.423889947381     -6.076E-05 2.523E-05 0.000E+00
 ETOT  4  -75.423890241064     -2.937E-07 1.847E-06 0.000E+00
 ETOT  5  -75.423890243003     -1.938E-09 4.292E-08 0.000E+00
 ETOT  6  -75.423890243017     -1.465E-11 3.583E-09 0.000E+00
 ETOT  7  -75.423890243018     -1.421E-13 8.998E-11 0.000E+00
 ETOT  8  -75.423890243018      1.421E-14 8.142E-12 0.000E+00
 ETOT  9  -75.423890243018      0.000E+00 2.081E-13 0.000E+00
 ETOT 10  -75.423890243018     -1.421E-14 1.997E-14 0.000E+00
 ETOT 11  -75.423890243018     -1.421E-14 5.061E-16 0.000E+00
 ETOT 12  -75.423890243018      0.000E+00 5.080E-17 0.000E+00
 ETOT 13  -75.423890243018      0.000E+00 1.269E-18 0.000E+00
 ETOT 14  -75.423890243018      1.421E-14 1.315E-19 0.000E+00
 ETOT 15  -75.423890243018     -4.263E-14 9.634E-21 0.000E+00

 At SCF step   15   max residual=  9.63E-21 < tolwfr=  1.00E-20 =>converged.

 ----iterations are completed or convergence reached----

 dfpt_looppert: DFPT cycle converged with prtwf=-1. Will skip output of the 1st-order WFK file.
 dfpt_looppert : ek2=    8.9503540243E+01
          f-sum rule ratio=    1.0398698386E+00
 prteigrs : about to open file /scratch/users/j/a/jabreu/flow_simple_8atoms/flow/w295/t1/tmpdata/tmp_1WF1_EIG
 Expectation of eigenvalue derivatives (hartree) for nkpt=   2  k points:
  (in case of degenerate eigenvalues, averaged derivative)
 kpt#   1, nband= 43, wtk=  0.50000, kpt=  0.1318  0.0000 -0.1318 (reduced coord)
  -0.00076   -0.00217    0.00197    0.00067   -0.00027   -0.00062    0.00084    0.00036
  -0.00029    0.00026   -0.06382    0.10903    0.01650   -0.05158    0.06684    0.03133
  -0.17331    0.16357   -0.05527   -0.09666    0.05861   -0.10960   -0.01765    0.10015
   0.05920   -0.10811   -0.10036    0.08915   -0.02929    0.07479    0.05937    0.00535
   0.02191    0.00055   -0.09168    0.19577   -0.03809   -0.18772   -0.20409    0.15733
   0.15074   -0.16688    0.05185
 prteigrs : prtvol=0 or 1, do not print more k-points.

 Eight components of 2nd-order total energy (hartree) are
 1,2,3: 0th-order hamiltonian combined with 1st-order wavefunctions
     kin0=   8.79539701E+01 eigvalue=   9.63579588E+00  local=  -3.80073933E+01
 4,5,6: 1st-order hamiltonian combined with 1st and 0th-order wfs
     kin1=  -9.30720319E+01  Hartree=   0.00000000E+00     xc=   0.00000000E+00
 7,8,9: eventually, occupation + non-local contributions
    edocc=   1.24000659E+01     enl0=   3.44145166E+00   enl1=  -5.77757485E+01
 1-9 gives the relaxation energy (to be shifted if some occ is /=2.0)
   erelax=  -7.54238902E+01
  No Ewald or frozen-wf contrib.: the relaxation energy is the total one
 2DEtotal=   -0.7542389024E+02 Ha. Also 2DEtotal=   -0.205238842962E+04 eV
    (  non-var. 2DEtotal :   -7.5423890243E+01 Ha)

 CALCULATION OF EFFECTIVE MASSES
 NOTE : Additional infos (eff. mass eigenvalues, eigenvectors and, if degenerate, average mass) are available in stdout.

 K-point ( 0.132, 0.000,-0.132) | band =    34
 Effective mass tensor:
             -7.9675368930              0.8382925352             -8.5817318133
              0.8382925352             -1.3300137777              1.5584110980
             -8.5817318133              1.5584110980            -19.3049997523
 Effective mass tensor eigenvalues:
            -24.0590099858             -3.3512969111             -1.1922435261
 Angular average effective mass 1/(<1/m>)=  -2.5451526399
 Angular average effective mass for Frohlich model (<m**0.5>)**2=  -3.4359686540
 Effective masses along directions: (cart. coord. / red. coord. -> eff. mass)
    1:   1.000000  0.000000  0.000000 /   0.942284  0.334816  0.000000 ->  -4.1350775860
    2:   0.000000  1.000000  0.000000 /   0.000000  1.000000  0.000000 ->  -1.1991100469
    3:   0.000000  0.000000  1.000000 /   0.434708  0.434708  0.788706 ->  -9.7157195476
    4:   0.577350  0.577350  0.577350 /   0.587143  0.689705  0.423758 ->  -2.6419313417
    5:   0.000000  0.707107  0.707107 /   0.314279  0.759008  0.570206 ->  -1.9128914085
    6:   0.707107  0.000000  0.707107 /   0.726403  0.444392  0.524266 -> -14.8730527843
    7:   0.707107  0.707107  0.000000 /   0.612647  0.790356  0.000000 ->  -1.7633028550

 K-point ( 0.000, 0.000, 0.000) | band =    35
 Effective mass tensor:
              0.4643151068             -0.0172521510             -0.0465029727
             -0.0172521510              0.4774310548             -0.0320722399
             -0.0465029727             -0.0320722399              0.4028791297
 Effective mass tensor eigenvalues:
              0.3659660414              0.4893295359              0.4893297140
 Angular average effective mass 1/(<1/m>)=   0.4399008615
 Angular average effective mass for Frohlich model (<m**0.5>)**2=   0.4424994943
 Effective masses along directions: (cart. coord. / red. coord. -> eff. mass)
    1:   1.000000  0.000000  0.000000 /   0.942284  0.334816  0.000000 ->   0.4580228179
    2:   0.000000  1.000000  0.000000 /   0.000000  1.000000  0.000000 ->   0.4739211586
    3:   0.000000  0.000000  1.000000 /   0.434708  0.434708  0.788706 ->   0.3958255524
    4:   0.577350  0.577350  0.577350 /   0.587143  0.689705  0.423758 ->   0.3802306113
    5:   0.000000  0.707107  0.707107 /   0.314279  0.759008  0.570206 ->   0.4004313380
    6:   0.707107  0.000000  0.707107 /   0.726403  0.444392  0.524266 ->   0.3824806568
    7:   0.707107  0.707107  0.000000 /   0.612647  0.790356  0.000000 ->   0.4458284575

 END OF EFFECTIVE MASSES SECTION

 ---- first-order wavefunction calculations are completed ----

 Total localisation tensor (bohr^2) in cartesian coordinates
  WARNING : still subject to testing - especially symmetries.
      direction              matrix element
   alpha     beta       real part   imaginary part
     1        1       1.1806024544    0.0000000000
     1        2       0.3704001799    0.0000000000
     1        3       0.9486014915    0.0000000000
     2        1       0.3704001799    0.0000000000
     2        2       0.9744042286    0.0000000000
     2        3       0.6885852770    0.0000000000
     3        1       0.9486014915    0.0000000000
     3        2       0.6885852770    0.0000000000
     3        3       2.4338147089    0.0000000000

 respfn : d/dk was computed, but no 2DTE, so no DDB output.

== END DATASET(S) ==============================================================

 -outvars: echo values of variables after computation  --------
            acell      1.0000000000E+00  1.0000000000E+00  1.0000000000E+00 Bohr
              amu      1.27600000E+02  1.59994000E+01
             ecut      4.40000000E+01 Hartree
           etotal     -7.5423890243E+01
            fcart      0.0000000000E+00  0.0000000000E+00  0.0000000000E+00
                       0.0000000000E+00  0.0000000000E+00  0.0000000000E+00
                       0.0000000000E+00  0.0000000000E+00  0.0000000000E+00
                       0.0000000000E+00  0.0000000000E+00  0.0000000000E+00
                       0.0000000000E+00  0.0000000000E+00  0.0000000000E+00
                       0.0000000000E+00  0.0000000000E+00  0.0000000000E+00
                       0.0000000000E+00  0.0000000000E+00  0.0000000000E+00
                       0.0000000000E+00  0.0000000000E+00  0.0000000000E+00
-          fftalg         512
           irdden           1
           irdwfk           1
           istwfk        0    1
              ixc     -116133
              kpt      1.31755541E-01  0.00000000E+00 -1.31755541E-01
                       0.00000000E+00  0.00000000E+00  0.00000000E+00
           kptopt           0
P           mkmem           2
P          mkqmem           2
P          mk1mem           2
            natom           8
            nband          43
           nbdbuf           4
            ngfft          60      60      60
             nkpt           2
            nstep        2000
             nsym          12
           ntypat           2
              occ      2.000000  2.000000  2.000000  2.000000  2.000000  2.000000
                       2.000000  2.000000  2.000000  2.000000  2.000000  2.000000
                       2.000000  2.000000  2.000000  2.000000  2.000000  2.000000
                       2.000000  2.000000  2.000000  2.000000  2.000000  2.000000
                       2.000000  2.000000  2.000000  2.000000  2.000000  2.000000
                       2.000000  2.000000  2.000000  2.000000  0.000000  0.000000
                       0.000000  0.000000  0.000000  0.000000  0.000000  0.000000
                       0.000000
        optdriver           1
            prtwf          -1
            rfdir           1       1       1
           rfelfd           2
            rprim      8.2858463369E+00  0.0000000000E+00  5.4732815379E+00
                       2.9441588926E+00  7.7451389874E+00  5.4732815379E+00
                       0.0000000000E+00  0.0000000000E+00  9.9303605328E+00
          spgroup         167
           strten      0.0000000000E+00  0.0000000000E+00  0.0000000000E+00
                       0.0000000000E+00  0.0000000000E+00  0.0000000000E+00
           symrel      1  0  0   0  1  0   0  0  1      -1  0  0   0 -1  0   0  0 -1
                       0  1  0   1  0  0   0  0  1       0 -1  0  -1  0  0   0  0 -1
                       0  0  1   1  0  0   0  1  0       0  0 -1  -1  0  0   0 -1  0
                       1  0  0   0  0  1   0  1  0      -1  0  0   0  0 -1   0 -1  0
                       0  1  0   0  0  1   1  0  0       0 -1  0   0  0 -1  -1  0  0
                       0  0  1   0  1  0   1  0  0       0  0 -1   0 -1  0  -1  0  0
            tnons      0.0000000  0.0000000  0.0000000     0.0000000  0.0000000  0.0000000
                       0.5000000  0.5000000  0.5000000     0.5000000  0.5000000  0.5000000
                       0.0000000  0.0000000  0.0000000     0.0000000  0.0000000  0.0000000
                       0.5000000  0.5000000  0.5000000     0.5000000  0.5000000  0.5000000
                       0.0000000  0.0000000  0.0000000     0.0000000  0.0000000  0.0000000
                       0.5000000  0.5000000  0.5000000     0.5000000  0.5000000  0.5000000
           tolwfr      1.00000000E-20
            typat      1  1  2  2  2  2  2  2
           useylm           1
              wtk        0.50000    0.50000
           xangst      0.0000000000E+00  0.0000000000E+00  0.0000000000E+00
                       2.9713314099E+00  2.0492755147E+00  5.5237960796E+00
                       4.8661844450E+00  2.4806152222E+00  5.6582338858E+00
                       2.4901869243E+00  3.6672113220E+00  6.4961022038E+00
                       3.0432885653E+00  1.0246377574E+00  7.1789501889E+00
                       1.0764783748E+00  1.6179358073E+00  5.3893582733E+00
                       3.4524758955E+00  4.3133970745E-01  4.5514899554E+00
                       2.8993742545E+00  3.0739132721E+00  3.8686419702E+00
            xcart      0.0000000000E+00  0.0000000000E+00  0.0000000000E+00
                       5.6150026147E+00  3.8725694937E+00  1.0438461804E+01
                       9.1957559132E+00  4.6876834110E+00  1.0692512440E+01
                       4.7057713066E+00  6.9300250701E+00  1.2275854096E+01
                       5.7509819318E+00  1.9362847468E+00  1.3566249779E+01
                       2.0342493163E+00  3.0574555764E+00  1.0184411169E+01
                       6.5242339229E+00  8.1511391731E-01  8.6010695122E+00
                       5.4790232977E+00  5.8088542405E+00  7.3106738300E+00
             xred      0.0000000000E+00  0.0000000000E+00  0.0000000000E+00
                       5.0000000000E-01  5.0000000000E-01  5.0000000000E-01
                       8.9475800000E-01  6.0524200000E-01  2.5000000000E-01
                       2.5000000000E-01  8.9475800000E-01  6.0524200000E-01
                       6.0524200000E-01  2.5000000000E-01  8.9475800000E-01
                       1.0524200000E-01  3.9475800000E-01  7.5000000000E-01
                       7.5000000000E-01  1.0524200000E-01  3.9475800000E-01
                       3.9475800000E-01  7.5000000000E-01  1.0524200000E-01
            znucl       52.00000    8.00000

- Timing analysis has been suppressed with timopt=0

 Suggested references for the acknowledgment of ABINIT usage.

 Calculation completed.
.Delivered  14 WARNINGs and   9 COMMENTs to log file.