.Version 9.7.2 of ABINIT

 ABINIT is a project of the Universite Catholique de Louvain,
 Corning Inc. and other collaborators, see ~abinit/doc/developers/contributors.txt .
 acknowledgments of the ABINIT effort.

.Starting date : Wed  1 Dec 2021.
- ( at 21h22 )

- input  file    -> /scratch/users/j/a/jabreu/flow_simple_remain_atoms/flow/w189/t1/run.abi
- output file    -> /scratch/users/j/a/jabreu/flow_simple_remain_atoms/flow/w189/t1/run.abo
- root for input  files -> /scratch/users/j/a/jabreu/flow_simple_remain_atoms/flow/w189/t1/indata/in
- root for output files -> /scratch/users/j/a/jabreu/flow_simple_remain_atoms/flow/w189/t1/outdata/out

 Symmetries : space group Pn n m (# 58); Bravais oP (primitive ortho.)
     intxc =       0      iscf =       7    lmnmax =      18     lnmax =       6
     mgfft =      72  mpssoang =       3    mqgrid =    3443     natom =       6
  nloc_mem =       1    nspden =       1   nspinor =       1    nsppol =       1
      nsym =       8    n1xccc =    2501    ntypat =       2    occopt =       1
   xclevel =       2
-    mband =          55        mffmem =           1         mkmem =           2
-   mkqmem =           2        mk1mem =           2           mpw =        9115
      nfft =      165888          nkpt =           2
  Rough estimation (10% accuracy) of disk space for files :

------------- Echo of variables that govern the present computation ------------
-
- outvars: echo of selected default values
-   iomode0 =  0 , fftalg0 =512 , wfoptalg0 =  0
-
- outvars: echo of global parameters not present in the input file
-  max_nthreads =    0
-
 -outvars: echo values of preprocessed input variables --------
            acell      1.0000000000E+00  1.0000000000E+00  1.0000000000E+00 Bohr
              amu      5.58470000E+01  7.49215900E+01
             ecut      4.70000000E+01 Hartree
-          fftalg         512
           irdden           1
           irdwfk           1
           istwfk        1    0
              ixc     -116133
              kpt      5.00000000E-01  5.00000000E-01  5.00000000E-01
                       2.79411765E-01  0.00000000E+00  0.00000000E+00
           kptopt           0
P           mkmem           2
P          mkqmem           2
P          mk1mem           2
            natom           6
            nband          55
           nbdbuf           4
            ngfft          36      64      72
             nkpt           2
            nstep        2000
             nsym           8
           ntypat           2
              occ      2.000000  2.000000  2.000000  2.000000  2.000000  2.000000
                       2.000000  2.000000  2.000000  2.000000  2.000000  2.000000
                       2.000000  2.000000  2.000000  2.000000  2.000000  2.000000
                       2.000000  2.000000  2.000000  2.000000  2.000000  2.000000
                       2.000000  2.000000  2.000000  2.000000  2.000000  2.000000
                       2.000000  2.000000  2.000000  2.000000  2.000000  2.000000
                       2.000000  2.000000  2.000000  2.000000  2.000000  2.000000
                       2.000000  2.000000  2.000000  2.000000  0.000000  0.000000
                       0.000000  0.000000  0.000000  0.000000  0.000000  0.000000
                       0.000000
        optdriver           1
            prtwf          -1
            rfdir           1       1       1
           rfelfd           2
            rprim      5.3681525233E+00  0.0000000000E+00  0.0000000000E+00
                       0.0000000000E+00  9.9113464298E+00  0.0000000000E+00
                       0.0000000000E+00  0.0000000000E+00  1.1155607740E+01
          spgroup          58
           symrel      1  0  0   0  1  0   0  0  1      -1  0  0   0 -1  0   0  0 -1
                      -1  0  0   0  1  0   0  0 -1       1  0  0   0 -1  0   0  0  1
                      -1  0  0   0 -1  0   0  0  1       1  0  0   0  1  0   0  0 -1
                       1  0  0   0 -1  0   0  0 -1      -1  0  0   0  1  0   0  0  1
            tnons      0.0000000  0.0000000  0.0000000     0.0000000  0.0000000  0.0000000
                       0.5000000  0.5000000  0.5000000     0.5000000  0.5000000  0.5000000
                       0.5000000  0.5000000  0.5000000     0.5000000  0.5000000  0.5000000
                       0.0000000  0.0000000  0.0000000     0.0000000  0.0000000  0.0000000
           tolwfr      1.00000000E-20
            typat      1  1  2  2  2  2
           useylm           1
              wtk        0.50000    0.50000
           xangst      0.0000000000E+00  0.0000000000E+00  0.0000000000E+00
                       1.4203519838E+00  2.6224293185E+00  2.9516466821E+00
                       0.0000000000E+00  9.4060245826E-01  2.1267854036E+00
                       0.0000000000E+00  4.3042561788E+00  3.7765079606E+00
                       1.4203519838E+00  3.5630317768E+00  8.2486127848E-01
                       1.4203519838E+00  1.6818268603E+00  5.0784320857E+00
            xcart      0.0000000000E+00  0.0000000000E+00  0.0000000000E+00
                       2.6840762616E+00  4.9556732149E+00  5.5778038702E+00
                       0.0000000000E+00  1.7774810460E+00  4.0190419562E+00
                       0.0000000000E+00  8.1338653838E+00  7.1365657842E+00
                       2.6840762616E+00  6.7331542609E+00  1.5587619140E+00
                       2.6840762616E+00  3.1781921689E+00  9.5968458264E+00
             xred      0.0000000000E+00  0.0000000000E+00  0.0000000000E+00
                       5.0000000000E-01  5.0000000000E-01  5.0000000000E-01
                       0.0000000000E+00  1.7933800000E-01  3.6027100000E-01
                       0.0000000000E+00  8.2066200000E-01  6.3972900000E-01
                       5.0000000000E-01  6.7933800000E-01  1.3972900000E-01
                       5.0000000000E-01  3.2066200000E-01  8.6027100000E-01
            znucl       26.00000   33.00000

 chkinp: Checking input parameters for consistency.

== DATASET  1 ==================================================================
-   mpi_nproc: 1, omp_nthreads: -1 (-1 if OMP is not activated)

--- !DatasetInfo
iteration_state: {dtset: 1, }
dimensions: {natom: 6, nkpt: 2, mband: 55, nsppol: 1, nspinor: 1, nspden: 1, mpw: 9115, }
cutoff_energies: {ecut:  47.0, pawecutdg:  -1.0, }
electrons: {nelect:   9.20000000E+01, charge:   0.00000000E+00, occopt:   1.00000000E+00, tsmear:   1.00000000E-02, }
meta: {optdriver: 1, rfelfd: 2, }
...

 Real(R)+Recip(G) space primitive vectors, cartesian coordinates (Bohr,Bohr^-1):
 R(1)=  5.3681525  0.0000000  0.0000000  G(1)=  0.1862838  0.0000000  0.0000000
 R(2)=  0.0000000  9.9113464  0.0000000  G(2)=  0.0000000  0.1008945  0.0000000
 R(3)=  0.0000000  0.0000000 11.1556077  G(3)=  0.0000000  0.0000000  0.0896410
 Unit cell volume ucvol=  5.9354102E+02 bohr^3
 Angles (23,13,12)=  9.00000000E+01  9.00000000E+01  9.00000000E+01 degrees

 getcut: wavevector=  0.0000  0.0000  0.0000  ngfft=  36  64  72
         ecut(hartree)=     47.000   => boxcut(ratio)=   2.09134

--- Pseudopotential description ------------------------------------------------
- pspini: atom type   1  psp file is /scratch/users/j/a/jabreu/pseudos/PBEsol/Fe.psp8
- pspatm: opening atomic psp file    /scratch/users/j/a/jabreu/pseudos/PBEsol/Fe.psp8
- Fe    ONCVPSP-3.3.0  r_core=   1.26437   1.20546   1.56719
- 26.00000  16.00000    180112                znucl, zion, pspdat
    8 -116133    2    4       600   0.00000   pspcod,pspxc,lmax,lloc,mmax,r2well
    5.99000000000000    3.00000000000000    0.00000000000000   rchrg,fchrg,qchrg
     nproj     2     2     2
     extension_switch     1
  pspatm : epsatm=   15.04792780
         --- l  ekb(1:nproj) -->
             0   10.133364    1.456638
             1    1.580231   -0.508538
             2   -5.545701   -2.037616
 pspatm: atomic psp has been read  and splines computed

- pspini: atom type   2  psp file is /scratch/users/j/a/jabreu/pseudos/PBEsol/As.psp8
- pspatm: opening atomic psp file    /scratch/users/j/a/jabreu/pseudos/PBEsol/As.psp8
- As    ONCVPSP-3.3.0  r_core=   1.76603   1.70395   1.80867
- 33.00000  15.00000    180112                znucl, zion, pspdat
    8 -116133    2    4       600   0.00000   pspcod,pspxc,lmax,lloc,mmax,r2well
    5.99000000000000    5.00000000000000    0.00000000000000   rchrg,fchrg,qchrg
     nproj     2     2     2
     extension_switch     1
  pspatm : epsatm=   28.79155382
         --- l  ekb(1:nproj) -->
             0    8.270760    0.868950
             1    4.919053    0.756587
             2  -10.048665   -4.076802
 pspatm: atomic psp has been read  and splines computed

   1.33641105E+04                                ecore*ucvol(ha*bohr**3)

 ==>  initialize data related to q vector <==

 The list of irreducible perturbations for this q vector is:
    1)    idir= 1    ipert=   7
    2)    idir= 2    ipert=   7
    3)    idir= 3    ipert=   7

 Perturbation wavevector (in red.coord.)   0.000000  0.000000  0.000000
 Perturbation : derivative vs k along direction   1

 dfpt_looppert : COMMENT -
  In a d/dk calculation, iscf is set to -3 automatically.
 The set of symmetries contains only one element for this perturbation.
 symkpt : not enough symmetry to change the number of k points.

 Initialisation of the first-order wave-functions :
  ireadwf=   0

--- !BeginCycle
iteration_state: {dtset: 1, }
solver: {iscf: 7, nstep: 2000, nline: 4, wfoptalg: 0, }
tolerances: {tolwfr: 1.00E-20, }
...

     iter   2DEtotal(Ha)        deltaE(Ha) residm    vres2
-ETOT  1  -256.27833412707     -2.563E+02 4.666E-01 0.000E+00
 ETOT  2  -256.75336008608     -4.750E-01 3.329E-02 0.000E+00
 ETOT  3  -256.76251084426     -9.151E-03 2.713E-03 0.000E+00
 ETOT  4  -256.76286414455     -3.533E-04 5.693E-04 0.000E+00
 ETOT  5  -256.76288060703     -1.646E-05 4.381E-05 0.000E+00
 ETOT  6  -256.76288144238     -8.353E-07 9.748E-06 0.000E+00
 ETOT  7  -256.76288148796     -4.558E-08 7.171E-07 0.000E+00
 ETOT  8  -256.76288149059     -2.633E-09 1.685E-07 0.000E+00
 ETOT  9  -256.76288149075     -1.607E-10 1.235E-08 0.000E+00
 ETOT 10  -256.76288149076     -1.029E-11 3.074E-09 0.000E+00
 ETOT 11  -256.76288149076     -6.253E-13 2.266E-10 0.000E+00
 ETOT 12  -256.76288149076     -1.137E-13 5.873E-11 0.000E+00
 ETOT 13  -256.76288149076      0.000E+00 4.352E-12 0.000E+00
 ETOT 14  -256.76288149076     -5.684E-14 1.156E-12 0.000E+00
 ETOT 15  -256.76288149076      0.000E+00 8.598E-14 0.000E+00
 ETOT 16  -256.76288149076      0.000E+00 2.316E-14 0.000E+00
 ETOT 17  -256.76288149076      5.684E-14 1.727E-15 0.000E+00
 ETOT 18  -256.76288149076      5.684E-14 4.692E-16 0.000E+00
 ETOT 19  -256.76288149076     -1.137E-13 3.502E-17 0.000E+00
 ETOT 20  -256.76288149076     -5.684E-14 9.570E-18 0.000E+00
 ETOT 21  -256.76288149076      1.705E-13 7.149E-19 0.000E+00
 ETOT 22  -256.76288149076     -1.705E-13 1.961E-19 0.000E+00
 ETOT 23  -256.76288149076      0.000E+00 1.466E-20 0.000E+00
 ETOT 24  -256.76288149076      5.684E-14 9.546E-21 0.000E+00

 At SCF step   24   max residual=  9.55E-21 < tolwfr=  1.00E-20 =>converged.

 ----iterations are completed or convergence reached----

[...]
  (in case of degenerate eigenvalues, averaged derivative)
 kpt#   1, nband= 55, wtk=  0.50000, kpt=  0.5000  0.5000  0.5000 (reduced coord)
   0.00000    0.00000   -0.00000   -0.00000    0.00000    0.00000    0.00000    0.00000
  -0.00000   -0.00000    0.00000    0.00000    0.00000    0.00000    0.00000    0.00000
  -0.00000   -0.00000   -0.00000   -0.00000    0.00000    0.00000   -0.00000   -0.00000
  -0.00000   -0.00000   -0.00000   -0.00000    0.00000    0.00000    0.00000    0.00000
   0.00000    0.00000    0.00000    0.00000   -0.00000   -0.00000   -0.00000   -0.00000
   0.00000    0.00000   -0.00000   -0.00000   -0.00000   -0.00000    0.00000    0.00000
   0.00000    0.00000   -0.00000   -0.00000   -0.00000   -0.00000    0.00000
 prteigrs : prtvol=0 or 1, do not print more k-points.

 Eight components of 2nd-order total energy (hartree) are
 1,2,3: 0th-order hamiltonian combined with 1st-order wavefunctions
     kin0=   2.98209958E+02 eigvalue=   1.74292763E+01  local=  -1.10351018E+02
 4,5,6: 1st-order hamiltonian combined with 1st and 0th-order wfs
     kin1=  -2.58190931E+02  Hartree=   0.00000000E+00     xc=   0.00000000E+00
 7,8,9: eventually, occupation + non-local contributions
    edocc=   3.48903729E+01     enl0=   1.65842922E+01   enl1=  -2.55334832E+02
 1-9 gives the relaxation energy (to be shifted if some occ is /=2.0)
   erelax=  -2.56762881E+02
  No Ewald or frozen-wf contrib.: the relaxation energy is the total one
 2DEtotal=   -0.2567628815E+03 Ha. Also 2DEtotal=   -0.698687332924E+04 eV
    (  non-var. 2DEtotal :   -2.5676288149E+02 Ha)

 Perturbation wavevector (in red.coord.)   0.000000  0.000000  0.000000
 Perturbation : derivative vs k along direction   2
 The set of symmetries contains only one element for this perturbation.
 symkpt : not enough symmetry to change the number of k points.

[...]

 Perturbation wavevector (in red.coord.)   0.000000  0.000000  0.000000
 Perturbation : derivative vs k along direction   3
 The set of symmetries contains only one element for this perturbation.
 symkpt : not enough symmetry to change the number of k points.

 Initialisation of the first-order wave-functions :
  ireadwf=   0

--- !BeginCycle
iteration_state: {dtset: 1, }
solver: {iscf: 7, nstep: 2000, nline: 4, wfoptalg: 0, }
tolerances: {tolwfr: 1.00E-20, }
...

     iter   2DEtotal(Ha)        deltaE(Ha) residm    vres2
-ETOT  1  -60.533632525786     -6.053E+01 2.824E-01 0.000E+00
 ETOT  2  -60.662639684713     -1.290E-01 6.514E-03 0.000E+00
 ETOT  3  -60.665503164344     -2.863E-03 1.403E-03 0.000E+00
 ETOT  4  -60.665644118900     -1.410E-04 5.487E-05 0.000E+00
 ETOT  5  -60.665653304613     -9.186E-06 1.736E-05 0.000E+00
 ETOT  6  -60.665653983459     -6.788E-07 6.935E-07 0.000E+00
 ETOT  7  -60.665654038095     -5.464E-08 2.476E-07 0.000E+00
 ETOT  8  -60.665654042699     -4.604E-09 1.112E-08 0.000E+00
 ETOT  9  -60.665654043101     -4.023E-10 3.738E-09 0.000E+00
 ETOT 10  -60.665654043137     -3.598E-11 3.537E-10 0.000E+00
 ETOT 11  -60.665654043141     -3.261E-12 5.792E-11 0.000E+00
 ETOT 12  -60.665654043141     -3.624E-13 1.145E-11 0.000E+00
 ETOT 13  -60.665654043141     -1.421E-14 1.181E-12 0.000E+00
 ETOT 14  -60.665654043141     -1.421E-14 3.736E-13 0.000E+00
 ETOT 15  -60.665654043141      7.105E-15 3.810E-14 0.000E+00
 ETOT 16  -60.665654043141     -7.105E-15 1.224E-14 0.000E+00
 ETOT 17  -60.665654043141      2.132E-14 1.236E-15 0.000E+00
 ETOT 18  -60.665654043141     -1.421E-14 4.021E-16 0.000E+00
 ETOT 19  -60.665654043141      0.000E+00 4.026E-17 0.000E+00
 ETOT 20  -60.665654043141     -7.105E-15 1.325E-17 0.000E+00
 ETOT 21  -60.665654043141     -7.105E-15 1.317E-18 0.000E+00
 ETOT 22  -60.665654043141      2.842E-14 4.378E-19 0.000E+00
 ETOT 23  -60.665654043141     -1.421E-14 4.321E-20 0.000E+00
 ETOT 24  -60.665654043141      0.000E+00 1.450E-20 0.000E+00
 ETOT 25  -60.665654043141     -1.421E-14 9.883E-21 0.000E+00

 At SCF step   25   max residual=  9.88E-21 < tolwfr=  1.00E-20 =>converged.

 ----iterations are completed or convergence reached----

 dfpt_looppert: DFPT cycle converged with prtwf=-1. Will skip output of the 1st-order WFK file.
 dfpt_looppert : ek2=    5.8370187692E+01
          f-sum rule ratio=    1.0565857889E+00
 prteigrs : about to open file /scratch/users/j/a/jabreu/flow_simple_remain_atoms/flow/w189/t1/tmpdata/tmp_1WF1_EIG
 Expectation of eigenvalue derivatives (hartree) for nkpt=   2  k points:
  (in case of degenerate eigenvalues, averaged derivative)
 kpt#   1, nband= 55, wtk=  0.50000, kpt=  0.5000  0.5000  0.5000 (reduced coord)
   0.00000    0.00000    0.00000    0.00000   -0.00000   -0.00000    0.00000    0.00000
  -0.00000   -0.00000    0.00000    0.00000    0.00000    0.00000   -0.00000   -0.00000
   0.00000    0.00000    0.00000    0.00000   -0.00000   -0.00000    0.00000    0.00000
  -0.00000   -0.00000    0.00000    0.00000    0.00000    0.00000    0.00000    0.00000
  -0.00000   -0.00000   -0.00000   -0.00000    0.00000    0.00000    0.00000    0.00000
  -0.00000   -0.00000   -0.00000   -0.00000    0.00000    0.00000    0.00000    0.00000
   0.00000    0.00000    0.00000    0.00000    0.00000    0.00000   -0.00000
 prteigrs : prtvol=0 or 1, do not print more k-points.

 Eight components of 2nd-order total energy (hartree) are
 1,2,3: 0th-order hamiltonian combined with 1st-order wavefunctions
     kin0=   7.30717756E+01 eigvalue=   3.28032583E+00  local=  -2.73081050E+01
 4,5,6: 1st-order hamiltonian combined with 1st and 0th-order wfs
     kin1=  -6.16731108E+01  Hartree=   0.00000000E+00     xc=   0.00000000E+00
 7,8,9: eventually, occupation + non-local contributions
    edocc=   7.88219378E+00     enl0=   3.73946384E+00   enl1=  -5.96581973E+01
 1-9 gives the relaxation energy (to be shifted if some occ is /=2.0)
   erelax=  -6.06656540E+01
  No Ewald or frozen-wf contrib.: the relaxation energy is the total one
 2DEtotal=   -0.6066565404E+02 Ha. Also 2DEtotal=   -0.165079639929E+04 eV
    (  non-var. 2DEtotal :   -6.0665654043E+01 Ha)

 CALCULATION OF EFFECTIVE MASSES
 NOTE : Additional infos (eff. mass eigenvalues, eigenvectors and, if degenerate, average mass) are available in stdout.

 COMMENTS:
 - At k-point ( 0.500, 0.500, 0.500), bands    45 through    46
   are DEGENERATE (effective mass tensor is therefore not defined).
   See Section IIIB Eqs. (67)-(70) and Appendix E of PRB 93 205147 (2016).
 - Angular average effective mass for Frohlich model is to be averaged over degenerate bands. See later.
 - Associated theta integrals calculated with ntheta=   1000 points.

 K-point ( 0.500, 0.500, 0.500) | band =    45
 Transport equivalent effective mass tensor:
             -1.0627092976             -0.0000000115              0.0000000502
             -0.0000000115             -0.3830996121             -0.0000000006
              0.0000000502             -0.0000000006             -0.6317342890
 Transport equivalent effective mass tensor eigenvalues:
             -1.0627092976             -0.6317342890             -0.3830996121
 Angular average effective mass 1/(<1/m>)=  -0.5729223334
 Angular average effective mass for Frohlich model (<m**0.5>)**2=  -0.6012146834
 Effective masses along directions: (cart. coord. / red. coord. -> eff. mass)
    1:   1.000000  0.000000  0.000000 /   1.000000  0.000000  0.000000 ->  -1.0274251856
    2:   0.000000  1.000000  0.000000 /   0.000000  1.000000  0.000000 ->  -0.4232188993
    3:   0.000000  0.000000  1.000000 /   0.000000  0.000000  1.000000 ->  -0.6978917707
    4:   0.577350  0.577350  0.577350 /   0.338498  0.624977  0.703436 ->  -0.5451543982
    5:   0.000000  0.707107  0.707107 /   0.000000  0.664186  0.747567 ->  -0.4415282952
    6:   0.707107  0.000000  0.707107 /   0.433615  0.000000  0.901098 ->  -0.8311880637
    7:   0.707107  0.707107  0.000000 /   0.476249  0.879310  0.000000 ->  -0.5994933012

 K-point ( 0.500, 0.500, 0.500) | band =    46
 Transport equivalent effective mass tensor:
             -1.0772962453             -0.0000000140              0.0000000653
             -0.0000000140             -0.4987892260              0.0000000003
              0.0000000653              0.0000000003             -0.8225084460
 Transport equivalent effective mass tensor eigenvalues:
             -1.0772962453             -0.8225084460             -0.4987892260
 Angular average effective mass 1/(<1/m>)=  -0.6973885522
 Angular average effective mass for Frohlich model (<m**0.5>)**2=  -0.7224851078
 Effective masses along directions: (cart. coord. / red. coord. -> eff. mass)
    1:   1.000000  0.000000  0.000000 /   1.000000  0.000000  0.000000 ->  -1.0274252375
    2:   0.000000  1.000000  0.000000 /   0.000000  1.000000  0.000000 ->  -0.4232188993
    3:   0.000000  0.000000  1.000000 /   0.000000  0.000000  1.000000 ->  -0.6978917708
    4:   0.577350  0.577350  0.577350 /   0.338498  0.624977  0.703436 ->  -0.7434858553
    5:   0.000000  0.707107  0.707107 /   0.000000  0.664186  0.747567 ->  -0.6532233884
    6:   0.707107  0.000000  0.707107 /   0.433615  0.000000  0.901098 ->  -0.8311883262
    7:   0.707107  0.707107  0.000000 /   0.476249  0.879310  0.000000 ->  -0.5994934695

 Angular average effective mass for Frohlich model, averaged over degenerate bands.
 Value of     (<<m**0.5>>)**2 =     6.604582E-01
 Absolute Value of <<m**0.5>> =     8.126858E-01

 K-point ( 0.279, 0.000, 0.000) | band =    47
 Effective mass tensor:
              1.5140556185             -0.0000000000             -0.0000000000
             -0.0000000000              0.7896227950             -0.0000000000
             -0.0000000000             -0.0000000000              4.5495937091
 Effective mass tensor eigenvalues:
              0.7896227950              1.5140556185              4.5495937091
 Angular average effective mass 1/(<1/m>)=   1.3974905488
 Angular average effective mass for Frohlich model (<m**0.5>)**2=   1.5891346438
 Effective masses along directions: (cart. coord. / red. coord. -> eff. mass)
    1:   1.000000  0.000000  0.000000 /   1.000000  0.000000  0.000000 ->   1.5140556185
    2:   0.000000  1.000000  0.000000 /   0.000000  1.000000  0.000000 ->   0.7896227950
    3:   0.000000  0.000000  1.000000 /   0.000000  0.000000  1.000000 ->   4.5495937091
    4:   0.577350  0.577350  0.577350 /   0.338498  0.624977  0.703436 ->   1.3974905488
    5:   0.000000  0.707107  0.707107 /   0.000000  0.664186  0.747567 ->   1.3456891654
    6:   0.707107  0.000000  0.707107 /   0.433615  0.000000  0.901098 ->   2.2720106474
    7:   0.707107  0.707107  0.000000 /   0.476249  0.879310  0.000000 ->   1.0379337864

 END OF EFFECTIVE MASSES SECTION

 ---- first-order wavefunction calculations are completed ----

 Total localisation tensor (bohr^2) in cartesian coordinates
  WARNING : still subject to testing - especially symmetries.
      direction              matrix element
   alpha     beta       real part   imaginary part
     1        1       0.9621288439    0.0000000000
     1        2       0.0000000000    0.0000000000
     1        3       0.0000000000    0.0000000000
     2        1       0.0000000000    0.0000000000
     2        2       1.3294075430    0.0000000000
     2        3       0.0000000000    0.0000000000
     3        1       0.0000000000    0.0000000000
     3        2       0.0000000000    0.0000000000
     3        3       1.5906039393    0.0000000000

 respfn : d/dk was computed, but no 2DTE, so no DDB output.

== END DATASET(S) ==============================================================

 -outvars: echo values of variables after computation  --------
            acell      1.0000000000E+00  1.0000000000E+00  1.0000000000E+00 Bohr
              amu      5.58470000E+01  7.49215900E+01
             ecut      4.70000000E+01 Hartree
           etotal     -6.0665654043E+01
            fcart      0.0000000000E+00  0.0000000000E+00  0.0000000000E+00
                       0.0000000000E+00  0.0000000000E+00  0.0000000000E+00
                       0.0000000000E+00  0.0000000000E+00  0.0000000000E+00
                       0.0000000000E+00  0.0000000000E+00  0.0000000000E+00
                       0.0000000000E+00  0.0000000000E+00  0.0000000000E+00
                       0.0000000000E+00  0.0000000000E+00  0.0000000000E+00
-          fftalg         512
           irdden           1
           irdwfk           1
           istwfk        1    0
              ixc     -116133
              kpt      5.00000000E-01  5.00000000E-01  5.00000000E-01
                       2.79411765E-01  0.00000000E+00  0.00000000E+00
           kptopt           0
P           mkmem           2
P          mkqmem           2
P          mk1mem           2
            natom           6
            nband          55
           nbdbuf           4
            ngfft          36      64      72
             nkpt           2
            nstep        2000
             nsym           8
           ntypat           2
              occ      2.000000  2.000000  2.000000  2.000000  2.000000  2.000000
                       2.000000  2.000000  2.000000  2.000000  2.000000  2.000000
                       2.000000  2.000000  2.000000  2.000000  2.000000  2.000000
                       2.000000  2.000000  2.000000  2.000000  2.000000  2.000000
                       2.000000  2.000000  2.000000  2.000000  2.000000  2.000000
                       2.000000  2.000000  2.000000  2.000000  2.000000  2.000000
                       2.000000  2.000000  2.000000  2.000000  2.000000  2.000000
                       2.000000  2.000000  2.000000  2.000000  0.000000  0.000000
                       0.000000  0.000000  0.000000  0.000000  0.000000  0.000000
                       0.000000
        optdriver           1
            prtwf          -1
            rfdir           1       1       1
           rfelfd           2
            rprim      5.3681525233E+00  0.0000000000E+00  0.0000000000E+00
                       0.0000000000E+00  9.9113464298E+00  0.0000000000E+00
                       0.0000000000E+00  0.0000000000E+00  1.1155607740E+01
          spgroup          58
           strten      0.0000000000E+00  0.0000000000E+00  0.0000000000E+00
                       0.0000000000E+00  0.0000000000E+00  0.0000000000E+00
           symrel      1  0  0   0  1  0   0  0  1      -1  0  0   0 -1  0   0  0 -1
                      -1  0  0   0  1  0   0  0 -1       1  0  0   0 -1  0   0  0  1
                      -1  0  0   0 -1  0   0  0  1       1  0  0   0  1  0   0  0 -1
                       1  0  0   0 -1  0   0  0 -1      -1  0  0   0  1  0   0  0  1
            tnons      0.0000000  0.0000000  0.0000000     0.0000000  0.0000000  0.0000000
                       0.5000000  0.5000000  0.5000000     0.5000000  0.5000000  0.5000000
                       0.5000000  0.5000000  0.5000000     0.5000000  0.5000000  0.5000000
                       0.0000000  0.0000000  0.0000000     0.0000000  0.0000000  0.0000000
           tolwfr      1.00000000E-20
            typat      1  1  2  2  2  2
           useylm           1
              wtk        0.50000    0.50000
           xangst      0.0000000000E+00  0.0000000000E+00  0.0000000000E+00
                       1.4203519838E+00  2.6224293185E+00  2.9516466821E+00
                       0.0000000000E+00  9.4060245826E-01  2.1267854036E+00
                       0.0000000000E+00  4.3042561788E+00  3.7765079606E+00
                       1.4203519838E+00  3.5630317768E+00  8.2486127848E-01
                       1.4203519838E+00  1.6818268603E+00  5.0784320857E+00
            xcart      0.0000000000E+00  0.0000000000E+00  0.0000000000E+00
                       2.6840762616E+00  4.9556732149E+00  5.5778038702E+00
                       0.0000000000E+00  1.7774810460E+00  4.0190419562E+00
                       0.0000000000E+00  8.1338653838E+00  7.1365657842E+00
                       2.6840762616E+00  6.7331542609E+00  1.5587619140E+00
                       2.6840762616E+00  3.1781921689E+00  9.5968458264E+00
             xred      0.0000000000E+00  0.0000000000E+00  0.0000000000E+00
                       5.0000000000E-01  5.0000000000E-01  5.0000000000E-01
                       0.0000000000E+00  1.7933800000E-01  3.6027100000E-01
                       0.0000000000E+00  8.2066200000E-01  6.3972900000E-01
                       5.0000000000E-01  6.7933800000E-01  1.3972900000E-01
                       5.0000000000E-01  3.2066200000E-01  8.6027100000E-01
            znucl       26.00000   33.00000

- Timing analysis has been suppressed with timopt=0

 Suggested references for the acknowledgment of ABINIT usage.

 Calculation completed.
.Delivered   2 WARNINGs and   5 COMMENTs to log file.