.Version 9.5.1 of ABINIT

 ABINIT is a project of the Universite Catholique de Louvain,
 Corning Inc. and other collaborators, see ~abinit/doc/developers/contributors.txt .
 acknowledgments of the ABINIT effort.

.Starting date : Sun 25 Apr 2021.
- ( at 17h21 )

- input  file    -> /scratch/users/j/a/jabreu/flow_simple2/flow/w192/t1/run.abi
- output file    -> /scratch/users/j/a/jabreu/flow_simple2/flow/w192/t1/run.abo
- root for input  files -> /scratch/users/j/a/jabreu/flow_simple2/flow/w192/t1/indata/in
- root for output files -> /scratch/users/j/a/jabreu/flow_simple2/flow/w192/t1/outdata/out

 Symmetries : space group Fm -3 m (#225); Bravais cF (face-center cubic)
     intxc =       0      iscf =       7    lmnmax =      18     lnmax =       6
     mgfft =      54  mpssoang =       3    mqgrid =    3001     natom =       2
  nloc_mem =       1    nspden =       1   nspinor =       1    nsppol =       1
      nsym =      48    n1xccc =    2501    ntypat =       2    occopt =       1
   xclevel =       2
-    mband =          17        mffmem =           1         mkmem =           1
-   mkqmem =           1        mk1mem =           1           mpw =        5961
      nfft =      157464          nkpt =           1
  Rough estimation (10% accuracy) of disk space for files :

------------- Echo of variables that govern the present computation ------------
-
- outvars: echo of selected default values
-   iomode0 =  0 , fftalg0 =512 , wfoptalg0 =  0
-
- outvars: echo of global parameters not present in the input file
-  max_nthreads =    0
-
 -outvars: echo values of preprocessed input variables --------
            acell      1.0000000000E+00  1.0000000000E+00  1.0000000000E+00 Bohr
              amu      3.90983000E+01  1.26904470E+02
             ecut      3.60000000E+01 Hartree
-          fftalg         512
           irdden           1
           irdwfk           1
           istwfk        1
              ixc     -116133
           kptopt           0
P           mkmem           1
P          mkqmem           1
P          mk1mem           1
            natom           2
            nband          17
           nbdbuf           4
            ngfft          54      54      54
             nkpt           1
            nstep         100
             nsym          48
           ntypat           2
              occ      2.000000  2.000000  2.000000  2.000000  2.000000  2.000000
                       2.000000  2.000000  0.000000  0.000000  0.000000  0.000000
                       0.000000  0.000000  0.000000  0.000000  0.000000
        optdriver           1
            prtwf          -1
            rfdir           1       1       1
           rfelfd           2
            rprim      8.1080447869E+00  0.0000000000E+00  4.6811818403E+00
                       2.7026815956E+00  7.6443379347E+00  4.6811818403E+00
                       0.0000000000E+00  0.0000000000E+00  9.3623636807E+00
          spgroup         225
           symrel      1  0  0   0  1  0   0  0  1      -1  0  0   0 -1  0   0  0 -1
                       0 -1  1   0 -1  0   1 -1  0       0  1 -1   0  1  0  -1  1  0
                      -1  0  0  -1  0  1  -1  1  0       1  0  0   1  0 -1   1 -1  0
                       0  1 -1   1  0 -1   0  0 -1       0 -1  1  -1  0  1   0  0  1
                      -1  0  0  -1  1  0  -1  0  1       1  0  0   1 -1  0   1  0 -1
                       0 -1  1   1 -1  0   0 -1  0       0  1 -1  -1  1  0   0  1  0
                       1  0  0   0  0  1   0  1  0      -1  0  0   0  0 -1   0 -1  0
                       0  1 -1   0  0 -1   1  0 -1       0 -1  1   0  0  1  -1  0  1
                      -1  0  1  -1  1  0  -1  0  0       1  0 -1   1 -1  0   1  0  0
                       0 -1  0   1 -1  0   0 -1  1       0  1  0  -1  1  0   0  1 -1
                       1  0 -1   0  0 -1   0  1 -1      -1  0  1   0  0  1   0 -1  1
                       0  1  0   0  0  1   1  0  0       0 -1  0   0  0 -1  -1  0  0
                       1  0 -1   0  1 -1   0  0 -1      -1  0  1   0 -1  1   0  0  1
                       0 -1  0   0 -1  1   1 -1  0       0  1  0   0  1 -1  -1  1  0
                      -1  0  1  -1  0  0  -1  1  0       1  0 -1   1  0  0   1 -1  0
                       0  1  0   1  0  0   0  0  1       0 -1  0  -1  0  0   0  0 -1
                       0  0 -1   0  1 -1   1  0 -1       0  0  1   0 -1  1  -1  0  1
                       1 -1  0   0 -1  1   0 -1  0      -1  1  0   0  1 -1   0  1  0
                       0  0  1   1  0  0   0  1  0       0  0 -1  -1  0  0   0 -1  0
                      -1  1  0  -1  0  0  -1  0  1       1 -1  0   1  0  0   1  0 -1
                       0  0  1   0  1  0   1  0  0       0  0 -1   0 -1  0  -1  0  0
                       1 -1  0   0 -1  0   0 -1  1      -1  1  0   0  1  0   0  1 -1
                       0  0 -1   1  0 -1   0  1 -1       0  0  1  -1  0  1   0 -1  1
                      -1  1  0  -1  0  1  -1  0  0       1 -1  0   1  0 -1   1  0  0
           tolwfr      1.00000000E-20
            typat      1  2
           useylm           1
           xangst      0.0000000000E+00  0.0000000000E+00  0.0000000000E+00
                       2.8603950050E+00  2.0226047049E+00  4.9543494783E+00
            xcart      0.0000000000E+00  0.0000000000E+00  0.0000000000E+00
                       5.4053631913E+00  3.8221689674E+00  9.3623636806E+00
             xred      0.0000000000E+00  0.0000000000E+00  0.0000000000E+00
                       5.0000000000E-01  5.0000000000E-01  5.0000000000E-01
            znucl       19.00000   53.00000

 chkinp: Checking input parameters for consistency.

== DATASET  1 ==================================================================
-   mpi_nproc: 1, omp_nthreads: -1 (-1 if OMP is not activated)

--- !DatasetInfo
iteration_state: {dtset: 1, }
dimensions: {natom: 2, nkpt: 1, mband: 17, nsppol: 1, nspinor: 1, nspden: 1, mpw: 5961, }
cutoff_energies: {ecut:  36.0, pawecutdg:  -1.0, }
electrons: {nelect:   1.60000000E+01, charge:   0.00000000E+00, occopt:   1.00000000E+00, tsmear:   1.00000000E-02, }
meta: {optdriver: 1, rfelfd: 2, }
...

 Real(R)+Recip(G) space primitive vectors, cartesian coordinates (Bohr,Bohr^-1):
 R(1)=  8.1080448  0.0000000  4.6811818  G(1)=  0.1233343 -0.0436053  0.0000000
 R(2)=  2.7026816  7.6443379  4.6811818  G(2)=  0.0000000  0.1308158  0.0000000
 R(3)=  0.0000000  0.0000000  9.3623637  G(3)= -0.0616671 -0.0436053  0.1068106
 Unit cell volume ucvol=  5.8028524E+02 bohr^3
 Angles (23,13,12)=  6.00000000E+01  6.00000000E+01  6.00000000E+01 degrees

 getcut: wavevector=  0.0000  0.0000  0.0000  ngfft=  54  54  54
         ecut(hartree)=     36.000   => boxcut(ratio)=   2.13619

--- Pseudopotential description ------------------------------------------------
- pspini: atom type   1  psp file is /scratch/users/j/a/jabreu/pseudos/PBEsol/K.psp8
- pspatm: opening atomic psp file    /scratch/users/j/a/jabreu/pseudos/PBEsol/K.psp8
- K     ONCVPSP-3.3.0  r_core=   1.36296   1.46408   1.61068
- 19.00000   9.00000    180112                znucl, zion, pspdat
    8 -116133    2    4       400   0.00000   pspcod,pspxc,lmax,lloc,mmax,r2well
    3.99000000000000    5.00000000000000    0.00000000000000   rchrg,fchrg,qchrg
     nproj     2     2     2
     extension_switch     1
  pspatm : epsatm=    8.32487830
         --- l  ekb(1:nproj) -->
             0   10.921326    0.816676
             1    4.431000    0.560368
             2   -3.384038   -1.043186
 pspatm: atomic psp has been read  and splines computed

- pspini: atom type   2  psp file is /scratch/users/j/a/jabreu/pseudos/PBEsol/I.psp8
- pspatm: opening atomic psp file    /scratch/users/j/a/jabreu/pseudos/PBEsol/I.psp8
- I     ONCVPSP-3.3.0  r_core=   2.02042   2.17032   2.27639
- 53.00000   7.00000    180112                znucl, zion, pspdat
    8 -116133    2    4       600   0.00000   pspcod,pspxc,lmax,lloc,mmax,r2well
    5.99000000000000    4.00000000000000    0.00000000000000   rchrg,fchrg,qchrg
     nproj     2     2     2
     extension_switch     1
  pspatm : epsatm=   18.14229533
         --- l  ekb(1:nproj) -->
             0    6.015861    0.935228
             1    4.063749    0.754139
             2    4.149534    0.722940
 pspatm: atomic psp has been read  and splines computed

   4.23474778E+02                                ecore*ucvol(ha*bohr**3)

-inwffil : will read wavefunctions from disk file /scratch/users/j/a/jabreu/flow_simple2/flow/w192/t1/indata/in_WFK

 ==>  initialize data related to q vector <==

 The list of irreducible perturbations for this q vector is:
    1)    idir= 1    ipert=   3
    2)    idir= 2    ipert=   3
    3)    idir= 3    ipert=   3

 Perturbation wavevector (in red.coord.)   0.000000  0.000000  0.000000
 Perturbation : derivative vs k along direction   1

 dfpt_looppert : COMMENT -
  In a d/dk calculation, iscf is set to -3 automatically.
 The set of symmetries contains only one element for this perturbation.
 symkpt : not enough symmetry to change the number of k points.

[...]

 Initialisation of the first-order wave-functions :
  ireadwf=   0

--- !BeginCycle
iteration_state: {dtset: 1, }
solver: {iscf: 7, nstep: 100, nline: 4, wfoptalg: 0, }
tolerances: {tolwfr: 1.00E-20, }
...

     iter   2DEtotal(Ha)        deltaE(Ha) residm    vres2
-ETOT  1  -15.012363899566     -1.501E+01 1.912E-02 0.000E+00
 ETOT  2  -15.028806076228     -1.644E-02 1.395E-04 0.000E+00
 ETOT  3  -15.028901194609     -9.512E-05 1.747E-06 0.000E+00
 ETOT  4  -15.028901970425     -7.758E-07 6.130E-09 0.000E+00
 ETOT  5  -15.028901977413     -6.988E-09 2.184E-10 0.000E+00
 ETOT  6  -15.028901977480     -6.675E-11 8.359E-12 0.000E+00
 ETOT  7  -15.028901977481     -6.448E-13 4.133E-13 0.000E+00
 ETOT  8  -15.028901977481     -1.776E-14 1.657E-14 0.000E+00
 ETOT  9  -15.028901977481      1.243E-14 8.302E-16 0.000E+00
 ETOT 10  -15.028901977481      1.243E-14 3.326E-17 0.000E+00
 ETOT 11  -15.028901977481     -8.882E-15 1.742E-18 0.000E+00
 ETOT 12  -15.028901977481      0.000E+00 6.726E-20 0.000E+00
 ETOT 13  -15.028901977481      1.776E-15 9.105E-21 0.000E+00

 At SCF step   13   max residual=  9.11E-21 < tolwfr=  1.00E-20 =>converged.

 ----iterations are completed or convergence reached----

 dfpt_looppert: DFPT cycle converged with prtwf=-1. Will skip output of the 1st-order WFK file.
 dfpt_looppert : ek2=    2.1618719147E+01
          f-sum rule ratio=    1.3466324169E+00
 prteigrs : about to open file /scratch/users/j/a/jabreu/flow_simple2/flow/w192/t1/tmpdata/tmp_1WF1_EIG
 Expectation of eigenvalue derivatives (hartree) for nkpt=   1  k points:
  (in case of degenerate eigenvalues, averaged derivative)
 kpt#   1, nband= 17, wtk=  1.00000, kpt=  0.0000  0.0000  0.0000 (reduced coord)
   0.00000    0.00000    0.00000    0.00000   -0.00000   -0.00000   -0.00000   -0.00000
   0.00000    0.00000    0.00000    0.00000   -0.00000   -0.00000    0.00000    0.00585
  -0.01085

 Eight components of 2nd-order total energy (hartree) are
 1,2,3: 0th-order hamiltonian combined with 1st-order wavefunctions
     kin0=   9.43910917E+00 eigvalue=   8.85676251E-01  local=  -6.11868976E+00
 4,5,6: 1st-order hamiltonian combined with 1st and 0th-order wfs
     kin1=  -2.91124680E+01  Hartree=   0.00000000E+00     xc=   0.00000000E+00
 7,8,9: eventually, occupation + non-local contributions
    edocc=   9.95581036E+00     enl0=   8.66995959E-01   enl1=  -9.45335939E-01
 1-9 gives the relaxation energy (to be shifted if some occ is /=2.0)
   erelax=  -1.50289020E+01
  No Ewald or frozen-wf contrib.: the relaxation energy is the total one
 2DEtotal=   -0.1502890198E+02 Ha. Also 2DEtotal=   -0.408957220704E+03 eV
    (  non-var. 2DEtotal :   -1.5028901977E+01 Ha)

 Perturbation wavevector (in red.coord.)   0.000000  0.000000  0.000000
 Perturbation : derivative vs k along direction   2
 The set of symmetries contains only one element for this perturbation.
 symkpt : not enough symmetry to change the number of k points.

[...]

 Perturbation wavevector (in red.coord.)   0.000000  0.000000  0.000000
 Perturbation : derivative vs k along direction   3
 The set of symmetries contains only one element for this perturbation.
 symkpt : not enough symmetry to change the number of k points.

-inwffil : will read wavefunctions from disk file /scratch/users/j/a/jabreu/flow_simple2/flow/w192/t1/indata/in_WFK

 Initialisation of the first-order wave-functions :
  ireadwf=   0

--- !BeginCycle
iteration_state: {dtset: 1, }
solver: {iscf: 7, nstep: 100, nline: 4, wfoptalg: 0, }
tolerances: {tolwfr: 1.00E-20, }
...

     iter   2DEtotal(Ha)        deltaE(Ha) residm    vres2
-ETOT  1  -15.013060183665     -1.501E+01 1.765E-02 0.000E+00
 ETOT  2  -15.028800000928     -1.574E-02 1.094E-04 0.000E+00
 ETOT  3  -15.028894672168     -9.467E-05 1.588E-06 0.000E+00
 ETOT  4  -15.028895456180     -7.840E-07 5.797E-09 0.000E+00
 ETOT  5  -15.028895463235     -7.054E-09 2.174E-10 0.000E+00
 ETOT  6  -15.028895463302     -6.708E-11 5.636E-12 0.000E+00
 ETOT  7  -15.028895463303     -6.395E-13 3.818E-13 0.000E+00
 ETOT  8  -15.028895463303      3.553E-15 1.022E-14 0.000E+00
 ETOT  9  -15.028895463303     -1.954E-14 7.097E-16 0.000E+00
 ETOT 10  -15.028895463303     -1.599E-14 1.886E-17 0.000E+00
 ETOT 11  -15.028895463303      2.132E-14 1.368E-18 0.000E+00
 ETOT 12  -15.028895463303     -5.329E-15 3.521E-20 0.000E+00
 ETOT 13  -15.028895463303      5.329E-15 6.368E-21 0.000E+00

 At SCF step   13   max residual=  6.37E-21 < tolwfr=  1.00E-20 =>converged.

 ----iterations are completed or convergence reached----

 dfpt_looppert: DFPT cycle converged with prtwf=-1. Will skip output of the 1st-order WFK file.
 dfpt_looppert : ek2=    2.1618719146E+01
          f-sum rule ratio=    1.3466314360E+00
 prteigrs : about to open file /scratch/users/j/a/jabreu/flow_simple2/flow/w192/t1/tmpdata/tmp_1WF1_EIG
 Expectation of eigenvalue derivatives (hartree) for nkpt=   1  k points:
  (in case of degenerate eigenvalues, averaged derivative)
 kpt#   1, nband= 17, wtk=  1.00000, kpt=  0.0000  0.0000  0.0000 (reduced coord)
  -0.00000    0.00000    0.00000    0.00000   -0.00000   -0.00000   -0.00000   -0.00000
  -0.00000    0.00000    0.00000    0.00000    0.00000    0.00000   -0.00000   -0.00087
  -0.00203

 Eight components of 2nd-order total energy (hartree) are
 1,2,3: 0th-order hamiltonian combined with 1st-order wavefunctions
     kin0=   9.44849040E+00 eigvalue=   8.88710801E-01  local=  -6.13204717E+00
 4,5,6: 1st-order hamiltonian combined with 1st and 0th-order wfs
     kin1=  -2.91124468E+01  Hartree=   0.00000000E+00     xc=   0.00000000E+00
 7,8,9: eventually, occupation + non-local contributions
    edocc=   9.95129814E+00     enl0=   8.72443293E-01   enl1=  -9.45344118E-01
 1-9 gives the relaxation energy (to be shifted if some occ is /=2.0)
   erelax=  -1.50288955E+01
  No Ewald or frozen-wf contrib.: the relaxation energy is the total one
 2DEtotal=   -0.1502889546E+02 Ha. Also 2DEtotal=   -0.408957043444E+03 eV
    (  non-var. 2DEtotal :   -1.5028895463E+01 Ha)

 CALCULATION OF EFFECTIVE MASSES
 NOTE : Additional infos (eff. mass eigenvalues, eigenvectors and, if degenerate, average mass) are available in stdout.

 COMMENTS:
 - At k-point ( 0.000, 0.000, 0.000), bands     6 through     8
   are DEGENERATE (effective mass tensor is therefore not defined).
   See Section IIIB Eqs. (67)-(70) and Appendix E of PRB 93 205147 (2016).
 - Angular average effective mass for Frohlich model is to be averaged over degenerate bands. See later.
 - Associated theta integrals calculated with ntheta=   1000 points.

 K-point ( 0.000, 0.000, 0.000) | band =     6
 Transport equivalent effective mass tensor:
             -0.4447332449              0.0000000640             -0.0000003547
              0.0000000640             -0.4447329831             -0.0000010164
             -0.0000003547             -0.0000010164             -0.4447326110
 Transport equivalent effective mass tensor eigenvalues:
             -0.4447338838             -0.4447332556             -0.4447316995
 Angular average effective mass 1/(<1/m>)=  -0.4444705139
 Angular average effective mass for Frohlich model (<m**0.5>)**2=  -0.4444888454
 Effective masses along directions: (cart. coord. / red. coord. -> eff. mass)
    1:   1.000000  0.000000  0.000000 /   0.948683  0.316228  0.000000 ->  -0.4463463290
    2:   0.000000  1.000000  0.000000 /   0.000000  1.000000  0.000000 ->  -0.4495943017
    3:   0.000000  0.000000  1.000000 /   0.408248  0.408248  0.816497 ->  -0.4464013206
    4:   0.577350  0.577350  0.577350 /   0.585539  0.688047  0.428644 ->  -0.4464676290
    5:   0.000000  0.707107  0.707107 /   0.289489  0.762222  0.578977 ->  -0.4424130289
    6:   0.707107  0.000000  0.707107 /   0.731423  0.422287  0.535439 ->  -0.4463737672
    7:   0.707107  0.707107  0.000000 /   0.616798  0.787122  0.000000 ->  -0.4380907002

[...]

 K-point ( 0.000, 0.000, 0.000) | band =     8
 Transport equivalent effective mass tensor:
             -2.4444442162             -0.0000000561              0.0000026981
             -0.0000000561             -2.4444572856             -0.0000021391
              0.0000026981             -0.0000021391             -2.4444437820
 Transport equivalent effective mass tensor eigenvalues:
             -2.4444576263             -2.4444465294             -2.4444411282
 Angular average effective mass 1/(<1/m>)=  -2.4301936642
 Angular average effective mass for Frohlich model (<m**0.5>)**2=  -2.4308118922
 Effective masses along directions: (cart. coord. / red. coord. -> eff. mass)
    1:   1.000000  0.000000  0.000000 /   0.948683  0.316228  0.000000 ->  -2.3812232507
    2:   0.000000  1.000000  0.000000 /   0.000000  1.000000  0.000000 ->  -2.2943542531
    3:   0.000000  0.000000  1.000000 /   0.408248  0.408248  0.816497 ->  -2.4749526742
    4:   0.577350  0.577350  0.577350 /   0.585539  0.688047  0.428644 ->  -2.4034253392
    5:   0.000000  0.707107  0.707107 /   0.289489  0.762222  0.578977 ->  -2.4677721390
    6:   0.707107  0.000000  0.707107 /   0.731423  0.422287  0.535439 ->  -2.4385230358
    7:   0.707107  0.707107  0.000000 /   0.616798  0.787122  0.000000 ->  -2.4666236308

 Angular average effective mass for Frohlich model, averaged over degenerate bands.
 Value of     (<<m**0.5>>)**2 =     1.556850E+00
 Absolute Value of <<m**0.5>> =     1.247738E+00

 K-point ( 0.000, 0.000, 0.000) | band =     9
 Effective mass tensor:
              0.3179027583              0.0000000159             -0.0000000350
              0.0000000159              0.3179028367              0.0000000242
             -0.0000000350              0.0000000242              0.3179028332
 Effective mass tensor eigenvalues:
              0.3179027386              0.3179028285              0.3179028611
 Angular average effective mass 1/(<1/m>)=   0.3179028094
 Angular average effective mass for Frohlich model (<m**0.5>)**2=   0.3179028094
 Effective masses along directions: (cart. coord. / red. coord. -> eff. mass)
    1:   1.000000  0.000000  0.000000 /   0.948683  0.316228  0.000000 ->   0.3179027583
    2:   0.000000  1.000000  0.000000 /   0.000000  1.000000  0.000000 ->   0.3179028367
    3:   0.000000  0.000000  1.000000 /   0.408248  0.408248  0.816497 ->   0.3179028332
    4:   0.577350  0.577350  0.577350 /   0.585539  0.688047  0.428644 ->   0.3179028128
    5:   0.000000  0.707107  0.707107 /   0.289489  0.762222  0.578977 ->   0.3179028591
    6:   0.707107  0.000000  0.707107 /   0.731423  0.422287  0.535439 ->   0.3179027607
    7:   0.707107  0.707107  0.000000 /   0.616798  0.787122  0.000000 ->   0.3179028134

 END OF EFFECTIVE MASSES SECTION

 ---- first-order wavefunction calculations are completed ----

 Total localisation tensor (bohr^2) in cartesian coordinates
  WARNING : still subject to testing - especially symmetries.
      direction              matrix element
   alpha     beta       real part   imaginary part
     1        1       2.8066564494    0.0000000000
     1        2       0.7938416359    0.0000000000
     1        3       1.9445083473    0.0000000000
     2        1       0.7938416359    0.0000000000
     2        2       2.2453232158    0.0000000000
     2        3       1.3749740466    0.0000000000
     3        1       1.9445083473    0.0000000000
     3        2       1.3749740466    0.0000000000
     3        3       5.0519804705    0.0000000000

 respfn : d/dk was computed, but no 2DTE, so no DDB output.

== END DATASET(S) ==============================================================

 -outvars: echo values of variables after computation  --------
            acell      1.0000000000E+00  1.0000000000E+00  1.0000000000E+00 Bohr
              amu      3.90983000E+01  1.26904470E+02
             ecut      3.60000000E+01 Hartree
           etotal     -1.5028895463E+01
            fcart      0.0000000000E+00  0.0000000000E+00  0.0000000000E+00
                       0.0000000000E+00  0.0000000000E+00  0.0000000000E+00
-          fftalg         512
           irdden           1
           irdwfk           1
           istwfk        1
              ixc     -116133
           kptopt           0
P           mkmem           1
P          mkqmem           1
P          mk1mem           1
            natom           2
            nband          17
           nbdbuf           4
            ngfft          54      54      54
             nkpt           1
            nstep         100
             nsym          48
           ntypat           2
              occ      2.000000  2.000000  2.000000  2.000000  2.000000  2.000000
                       2.000000  2.000000  0.000000  0.000000  0.000000  0.000000
                       0.000000  0.000000  0.000000  0.000000  0.000000
        optdriver           1
            prtwf          -1
            rfdir           1       1       1
           rfelfd           2
            rprim      8.1080447869E+00  0.0000000000E+00  4.6811818403E+00
                       2.7026815956E+00  7.6443379347E+00  4.6811818403E+00
                       0.0000000000E+00  0.0000000000E+00  9.3623636807E+00
          spgroup         225
           strten      0.0000000000E+00  0.0000000000E+00  0.0000000000E+00
                       0.0000000000E+00  0.0000000000E+00  0.0000000000E+00
           symrel      1  0  0   0  1  0   0  0  1      -1  0  0   0 -1  0   0  0 -1
                       0 -1  1   0 -1  0   1 -1  0       0  1 -1   0  1  0  -1  1  0
                      -1  0  0  -1  0  1  -1  1  0       1  0  0   1  0 -1   1 -1  0
                       0  1 -1   1  0 -1   0  0 -1       0 -1  1  -1  0  1   0  0  1
                      -1  0  0  -1  1  0  -1  0  1       1  0  0   1 -1  0   1  0 -1
                       0 -1  1   1 -1  0   0 -1  0       0  1 -1  -1  1  0   0  1  0
                       1  0  0   0  0  1   0  1  0      -1  0  0   0  0 -1   0 -1  0
                       0  1 -1   0  0 -1   1  0 -1       0 -1  1   0  0  1  -1  0  1
                      -1  0  1  -1  1  0  -1  0  0       1  0 -1   1 -1  0   1  0  0
                       0 -1  0   1 -1  0   0 -1  1       0  1  0  -1  1  0   0  1 -1
                       1  0 -1   0  0 -1   0  1 -1      -1  0  1   0  0  1   0 -1  1
                       0  1  0   0  0  1   1  0  0       0 -1  0   0  0 -1  -1  0  0
                       1  0 -1   0  1 -1   0  0 -1      -1  0  1   0 -1  1   0  0  1
                       0 -1  0   0 -1  1   1 -1  0       0  1  0   0  1 -1  -1  1  0
                      -1  0  1  -1  0  0  -1  1  0       1  0 -1   1  0  0   1 -1  0
                       0  1  0   1  0  0   0  0  1       0 -1  0  -1  0  0   0  0 -1
                       0  0 -1   0  1 -1   1  0 -1       0  0  1   0 -1  1  -1  0  1
                       1 -1  0   0 -1  1   0 -1  0      -1  1  0   0  1 -1   0  1  0
                       0  0  1   1  0  0   0  1  0       0  0 -1  -1  0  0   0 -1  0
                      -1  1  0  -1  0  0  -1  0  1       1 -1  0   1  0  0   1  0 -1
                       0  0  1   0  1  0   1  0  0       0  0 -1   0 -1  0  -1  0  0
                       1 -1  0   0 -1  0   0 -1  1      -1  1  0   0  1  0   0  1 -1
                       0  0 -1   1  0 -1   0  1 -1       0  0  1  -1  0  1   0 -1  1
                      -1  1  0  -1  0  1  -1  0  0       1 -1  0   1  0 -1   1  0  0
           tolwfr      1.00000000E-20
            typat      1  2
           useylm           1
           xangst      0.0000000000E+00  0.0000000000E+00  0.0000000000E+00
                       2.8603950050E+00  2.0226047049E+00  4.9543494783E+00
            xcart      0.0000000000E+00  0.0000000000E+00  0.0000000000E+00
                       5.4053631913E+00  3.8221689674E+00  9.3623636806E+00
             xred      0.0000000000E+00  0.0000000000E+00  0.0000000000E+00
                       5.0000000000E-01  5.0000000000E-01  5.0000000000E-01
            znucl       19.00000   53.00000

- Timing analysis has been suppressed with timopt=0

 Suggested references for the acknowledgment of ABINIT usage.

 Calculation completed.
.Delivered   6 WARNINGs and   5 COMMENTs to log file.