.Version 9.5.1 of ABINIT

 ABINIT is a project of the Universite Catholique de Louvain,
 Corning Inc. and other collaborators, see ~abinit/doc/developers/contributors.txt .
 acknowledgments of the ABINIT effort.

.Starting date : Tue 11 May 2021.
- ( at 21h34 )

- input  file    -> /scratch/users/j/a/jabreu/flow_simple_8atoms/flow/w324/t1/run.abi
- output file    -> /scratch/users/j/a/jabreu/flow_simple_8atoms/flow/w324/t1/run.abo
- root for input  files -> /scratch/users/j/a/jabreu/flow_simple_8atoms/flow/w324/t1/indata/in
- root for output files -> /scratch/users/j/a/jabreu/flow_simple_8atoms/flow/w324/t1/outdata/out

 Symmetries : space group Fm -3 m (#225); Bravais cF (face-center cubic)
     intxc =       0      iscf =       7    lmnmax =      18     lnmax =       6
     mgfft =      72  mpssoang =       3    mqgrid =    3001     natom =       8
  nloc_mem =       1    nspden =       1   nspinor =       1    nsppol =       1
      nsym =      48    n1xccc =    2501    ntypat =       3    occopt =       1
   xclevel =       2
-    mband =          41        mffmem =           1         mkmem =           1
-   mkqmem =           1        mk1mem =           1           mpw =       12051
      nfft =      373248          nkpt =           1
  Rough estimation (10% accuracy) of disk space for files :

------------- Echo of variables that govern the present computation ------------
-
- outvars: echo of selected default values
-   iomode0 =  0 , fftalg0 =512 , wfoptalg0 =  0
-
- outvars: echo of global parameters not present in the input file
-  max_nthreads =    0
-
 -outvars: echo values of preprocessed input variables --------
            acell      1.0000000000E+00  1.0000000000E+00  1.0000000000E+00 Bohr
              amu      4.00780000E+01  4.78800000E+01  1.89984032E+01
             ecut      4.20000000E+01 Hartree
-          fftalg         512
           irdden           1
           irdwfk           1
           istwfk        1
              ixc     -116133
           kptopt           0
P           mkmem           1
P          mkqmem           1
P          mk1mem           1
            natom           8
            nband          41
           nbdbuf           4
            ngfft          72      72      72
             nkpt           1
            nstep        2000
             nsym          48
           ntypat           3
              occ      2.000000  2.000000  2.000000  2.000000  2.000000  2.000000
                       2.000000  2.000000  2.000000  2.000000  2.000000  2.000000
                       2.000000  2.000000  2.000000  2.000000  2.000000  2.000000
                       2.000000  2.000000  2.000000  2.000000  2.000000  2.000000
                       2.000000  2.000000  2.000000  2.000000  2.000000  2.000000
                       2.000000  2.000000  0.000000  0.000000  0.000000  0.000000
                       0.000000  0.000000  0.000000  0.000000  0.000000
        optdriver           1
            prtwf          -1
            rfdir           1       1       1
           rfelfd           2
            rprim      9.5103833780E+00  0.0000000000E+00  5.4908224034E+00
                       3.1701277927E+00  8.9664754377E+00  5.4908224034E+00
                       0.0000000000E+00  0.0000000000E+00  1.0981644807E+01
          spgroup         225
           symrel      1  0  0   0  1  0   0  0  1      -1  0  0   0 -1  0   0  0 -1
                       0 -1  1   0 -1  0   1 -1  0       0  1 -1   0  1  0  -1  1  0
                      -1  0  0  -1  0  1  -1  1  0       1  0  0   1  0 -1   1 -1  0
                       0  1 -1   1  0 -1   0  0 -1       0 -1  1  -1  0  1   0  0  1
                      -1  0  0  -1  1  0  -1  0  1       1  0  0   1 -1  0   1  0 -1
                       0 -1  1   1 -1  0   0 -1  0       0  1 -1  -1  1  0   0  1  0
                       1  0  0   0  0  1   0  1  0      -1  0  0   0  0 -1   0 -1  0
                       0  1 -1   0  0 -1   1  0 -1       0 -1  1   0  0  1  -1  0  1
                      -1  0  1  -1  1  0  -1  0  0       1  0 -1   1 -1  0   1  0  0
                       0 -1  0   1 -1  0   0 -1  1       0  1  0  -1  1  0   0  1 -1
                       1  0 -1   0  0 -1   0  1 -1      -1  0  1   0  0  1   0 -1  1
                       0  1  0   0  0  1   1  0  0       0 -1  0   0  0 -1  -1  0  0
                       1  0 -1   0  1 -1   0  0 -1      -1  0  1   0 -1  1   0  0  1
                       0 -1  0   0 -1  1   1 -1  0       0  1  0   0  1 -1  -1  1  0
                      -1  0  1  -1  0  0  -1  1  0       1  0 -1   1  0  0   1 -1  0
                       0  1  0   1  0  0   0  0  1       0 -1  0  -1  0  0   0  0 -1
                       0  0 -1   0  1 -1   1  0 -1       0  0  1   0 -1  1  -1  0  1
                       1 -1  0   0 -1  1   0 -1  0      -1  1  0   0  1 -1   0  1  0
                       0  0  1   1  0  0   0  1  0       0  0 -1  -1  0  0   0 -1  0
                      -1  1  0  -1  0  0  -1  0  1       1 -1  0   1  0  0   1  0 -1
                       0  0  1   0  1  0   1  0  0       0  0 -1   0 -1  0  -1  0  0
                       1 -1  0   0 -1  0   0 -1  1      -1  1  0   0  1  0   0  1 -1
                       0  0 -1   1  0 -1   0  1 -1       0  0  1  -1  0  1   0 -1  1
                      -1  1  0  -1  0  1  -1  0  0       1 -1  0   1  0 -1   1  0  0
           tolwfr      1.00000000E-20
            typat      1  2  3  3  3  3  3  3
           useylm           1
           xangst      3.3551187524E+00  2.3724272215E+00  5.8112361446E+00
                       0.0000000000E+00  0.0000000000E+00  0.0000000000E+00
                       2.4398725528E+00  3.6667808099E+00  4.2259832255E+00
                       5.1856111516E+00  3.6667808099E+00  5.8112361446E+00
                       1.5246263532E+00  1.0780736331E+00  5.8112361446E+00
                       4.2703649520E+00  1.0780736331E+00  7.3964890637E+00
                       4.2703649520E+00  1.0780736331E+00  4.2259832255E+00
                       2.4398725528E+00  3.6667808099E+00  7.3964890637E+00
            xcart      6.3402555854E+00  4.4832377188E+00  1.0981644807E+01
                       0.0000000000E+00  0.0000000000E+00  0.0000000000E+00
                       4.6106909240E+00  6.9292115200E+00  7.9859509383E+00
                       9.7993849081E+00  6.9292115200E+00  1.0981644807E+01
                       2.8811262626E+00  2.0372639177E+00  1.0981644807E+01
                       8.0698202467E+00  2.0372639177E+00  1.3977338675E+01
                       8.0698202467E+00  2.0372639177E+00  7.9859509383E+00
                       4.6106909240E+00  6.9292115200E+00  1.3977338675E+01
             xred      5.0000000000E-01  5.0000000000E-01  5.0000000000E-01
                       0.0000000000E+00  0.0000000000E+00  0.0000000000E+00
                       2.2720900000E-01  7.7279100000E-01  2.2720900000E-01
                       7.7279100000E-01  7.7279100000E-01  2.2720900000E-01
                       2.2720900000E-01  2.2720900000E-01  7.7279100000E-01
                       7.7279100000E-01  2.2720900000E-01  7.7279100000E-01
                       7.7279100000E-01  2.2720900000E-01  2.2720900000E-01
                       2.2720900000E-01  7.7279100000E-01  7.7279100000E-01
            znucl       20.00000   22.00000    9.00000

 chkinp: Checking input parameters for consistency.

== DATASET  1 ==================================================================
-   mpi_nproc: 1, omp_nthreads: -1 (-1 if OMP is not activated)

--- !DatasetInfo
iteration_state: {dtset: 1, }
dimensions: {natom: 8, nkpt: 1, mband: 41, nsppol: 1, nspinor: 1, nspden: 1, mpw: 12051, }
cutoff_energies: {ecut:  42.0, pawecutdg:  -1.0, }
electrons: {nelect:   6.40000000E+01, charge:   0.00000000E+00, occopt:   1.00000000E+00, tsmear:   1.00000000E-02, }
meta: {optdriver: 1, rfelfd: 2, }
...

 Real(R)+Recip(G) space primitive vectors, cartesian coordinates (Bohr,Bohr^-1):
 R(1)=  9.5103834  0.0000000  5.4908224  G(1)=  0.1051482 -0.0371755  0.0000000
 R(2)=  3.1701278  8.9664754  5.4908224  G(2)=  0.0000000  0.1115265  0.0000000
 R(3)=  0.0000000  0.0000000 10.9816448  G(3)= -0.0525741 -0.0371755  0.0910610
 Unit cell volume ucvol=  9.3645558E+02 bohr^3
 Angles (23,13,12)=  6.00000000E+01  6.00000000E+01  6.00000000E+01 degrees

 getcut: wavevector=  0.0000  0.0000  0.0000  ngfft=  72  72  72
         ecut(hartree)=     42.000   => boxcut(ratio)=   2.24737

 getcut : COMMENT -
  Note that boxcut > 2.2 ; recall that boxcut=Gcut(box)/Gcut(sphere) = 2
  is sufficient for exact treatment of convolution.
  Such a large boxcut is a waste : you could raise ecut
  e.g. ecut=   53.032239 Hartrees makes boxcut=2

--- Pseudopotential description ------------------------------------------------
- pspini: atom type   1  psp file is /scratch/users/j/a/jabreu/pseudos/PBEsol/Ca.psp8
- pspatm: opening atomic psp file    /scratch/users/j/a/jabreu/pseudos/PBEsol/Ca.psp8
- Ca    ONCVPSP-3.3.0  r_core=   1.45885   1.45885   1.85192
- 20.00000  10.00000    180112                znucl, zion, pspdat
    8 -116133    2    4       400   0.00000   pspcod,pspxc,lmax,lloc,mmax,r2well
    3.99000000000000    6.00000000000000    0.00000000000000   rchrg,fchrg,qchrg
     nproj     2     2     2
     extension_switch     1
  pspatm : epsatm=   12.46045226
         --- l  ekb(1:nproj) -->
             0   10.054847    0.973777
             1    2.998958    0.458102
             2   -3.447298   -1.091650
 pspatm: atomic psp has been read  and splines computed

- pspini: atom type   2  psp file is /scratch/users/j/a/jabreu/pseudos/PBEsol/Ti.psp8
- pspatm: opening atomic psp file    /scratch/users/j/a/jabreu/pseudos/PBEsol/Ti.psp8
- Ti    ONCVPSP-3.3.0  r_core=   1.35825   1.31050   1.66360
- 22.00000  12.00000    180112                znucl, zion, pspdat
    8 -116133    2    4       600   0.00000   pspcod,pspxc,lmax,lloc,mmax,r2well
    5.99000000000000    2.50000000000000    0.00000000000000   rchrg,fchrg,qchrg
     nproj     2     2     2
     extension_switch     1
  pspatm : epsatm=   14.76919902
         --- l  ekb(1:nproj) -->
             0   11.321950    1.254474
             1    1.946894   -0.084268
             2   -5.237105   -1.488377
 pspatm: atomic psp has been read  and splines computed

- pspini: atom type   3  psp file is /scratch/users/j/a/jabreu/pseudos/PBEsol/F.psp8
- pspatm: opening atomic psp file    /scratch/users/j/a/jabreu/pseudos/PBEsol/F.psp8
- F     ONCVPSP-3.3.0  r_core=   1.30942   1.45782   1.60379
-  9.00000   7.00000    180112                znucl, zion, pspdat
    8 -116133    2    4       600   0.00000   pspcod,pspxc,lmax,lloc,mmax,r2well
    5.99000000000000    2.50000000000000    0.00000000000000   rchrg,fchrg,qchrg
     nproj     2     2     1
     extension_switch     1
  pspatm : epsatm=    4.89824824
         --- l  ekb(1:nproj) -->
             0    6.506434    1.065875
             1   -3.978753   -1.295852
             2   -2.394754
 pspatm: atomic psp has been read  and splines computed

   3.62362501E+03                                ecore*ucvol(ha*bohr**3)

[...]
 Expectation of eigenvalue derivatives (hartree) for nkpt=   1  k points:
  (in case of degenerate eigenvalues, averaged derivative)
 kpt#   1, nband= 41, wtk=  1.00000, kpt=  0.0000  0.0000  0.0000 (reduced coord)
  -0.00000    0.00000   -0.00000   -0.00000   -0.00000    0.00000   -0.00000   -0.00000
  -0.00000   -0.00000   -0.00000   -0.00000   -0.00000   -0.00000    0.00000    0.00000
   0.00000   -0.00000   -0.00000   -0.00000   -0.00000   -0.00000   -0.00000   -0.00000
  -0.00000   -0.00000    0.00000    0.00000    0.00000    0.00000    0.00000    0.00000
  -0.00000   -0.00000   -0.00000   -0.00000   -0.00000    0.00000   -0.00000   -0.00000
  -0.00000

 Eight components of 2nd-order total energy (hartree) are
 1,2,3: 0th-order hamiltonian combined with 1st-order wavefunctions
     kin0=   4.17566273E+01 eigvalue=   3.72131248E+00  local=  -1.93817622E+01
 4,5,6: 1st-order hamiltonian combined with 1st and 0th-order wfs
     kin1=  -6.56359414E+01  Hartree=   0.00000000E+00     xc=   0.00000000E+00
 7,8,9: eventually, occupation + non-local contributions
    edocc=   6.47936646E+00     enl0=  -4.49837027E-02   enl1=   5.74820760E-01
 1-9 gives the relaxation energy (to be shifted if some occ is /=2.0)
   erelax=  -3.25305603E+01
  No Ewald or frozen-wf contrib.: the relaxation energy is the total one
 2DEtotal=   -0.3253056031E+02 Ha. Also 2DEtotal=   -0.885201563741E+03 eV
    (  non-var. 2DEtotal :   -3.2530560309E+01 Ha)

 Perturbation wavevector (in red.coord.)   0.000000  0.000000  0.000000
 Perturbation : derivative vs k along direction   2
 The set of symmetries contains only one element for this perturbation.
 symkpt : not enough symmetry to change the number of k points.

[...]

 Perturbation wavevector (in red.coord.)   0.000000  0.000000  0.000000
 Perturbation : derivative vs k along direction   3
 The set of symmetries contains only one element for this perturbation.
 symkpt : not enough symmetry to change the number of k points.

-inwffil : will read wavefunctions from disk file /scratch/users/j/a/jabreu/flow_simple_8atoms/flow/w324/t1/indata/in_WFK

 Initialisation of the first-order wave-functions :
  ireadwf=   0

--- !BeginCycle
iteration_state: {dtset: 1, }
solver: {iscf: 7, nstep: 2000, nline: 4, wfoptalg: 0, }
tolerances: {tolwfr: 1.00E-20, }
...

     iter   2DEtotal(Ha)        deltaE(Ha) residm    vres2
-ETOT  1  -32.502149729497     -3.250E+01 1.439E-02 0.000E+00
 ETOT  2  -32.530357471259     -2.821E-02 5.305E-04 0.000E+00
 ETOT  3  -32.530557878696     -2.004E-04 3.056E-06 0.000E+00
 ETOT  4  -32.530560269004     -2.390E-06 1.670E-07 0.000E+00
 ETOT  5  -32.530560307361     -3.836E-08 2.171E-09 0.000E+00
 ETOT  6  -32.530560308055     -6.936E-10 7.777E-11 0.000E+00
 ETOT  7  -32.530560308069     -1.418E-11 2.059E-12 0.000E+00
 ETOT  8  -32.530560308070     -3.553E-13 7.712E-14 0.000E+00
 ETOT  9  -32.530560308069      4.263E-14 4.341E-15 0.000E+00
 ETOT 10  -32.530560308069     -1.421E-14 1.328E-16 0.000E+00
 ETOT 11  -32.530560308069     -7.105E-15 6.291E-18 0.000E+00
 ETOT 12  -32.530560308070     -2.132E-14 2.760E-19 0.000E+00
 ETOT 13  -32.530560308069      2.132E-14 1.397E-20 0.000E+00
 ETOT 14  -32.530560308069     -7.105E-15 8.611E-21 0.000E+00

 At SCF step   14   max residual=  8.61E-21 < tolwfr=  1.00E-20 =>converged.

 ----iterations are completed or convergence reached----

 dfpt_looppert: DFPT cycle converged with prtwf=-1. Will skip output of the 1st-order WFK file.
 dfpt_looppert : ek2=    6.2853024388E+01
          f-sum rule ratio=    1.0442765804E+00
 prteigrs : about to open file /scratch/users/j/a/jabreu/flow_simple_8atoms/flow/w324/t1/tmpdata/tmp_1WF1_EIG
 Expectation of eigenvalue derivatives (hartree) for nkpt=   1  k points:
  (in case of degenerate eigenvalues, averaged derivative)
 kpt#   1, nband= 41, wtk=  1.00000, kpt=  0.0000  0.0000  0.0000 (reduced coord)
   0.00000   -0.00000    0.00000    0.00000    0.00000    0.00000    0.00000    0.00000
   0.00000    0.00000    0.00000    0.00000    0.00000    0.00000   -0.00000   -0.00000
   0.00000   -0.00000   -0.00000   -0.00000    0.00000    0.00000    0.00000    0.00000
   0.00000    0.00000   -0.00000   -0.00000   -0.00000   -0.00000   -0.00000   -0.00000
   0.00000    0.00000    0.00000   -0.00000   -0.00000   -0.00000    0.00000    0.00000
   0.00000

 Eight components of 2nd-order total energy (hartree) are
 1,2,3: 0th-order hamiltonian combined with 1st-order wavefunctions
     kin0=   4.17566274E+01 eigvalue=   3.72131250E+00  local=  -1.93817623E+01
 4,5,6: 1st-order hamiltonian combined with 1st and 0th-order wfs
     kin1=  -6.56359414E+01  Hartree=   0.00000000E+00     xc=   0.00000000E+00
 7,8,9: eventually, occupation + non-local contributions
    edocc=   6.47936643E+00     enl0=  -4.49837146E-02   enl1=   5.74820759E-01
 1-9 gives the relaxation energy (to be shifted if some occ is /=2.0)
   erelax=  -3.25305603E+01
  No Ewald or frozen-wf contrib.: the relaxation energy is the total one
 2DEtotal=   -0.3253056031E+02 Ha. Also 2DEtotal=   -0.885201563724E+03 eV
    (  non-var. 2DEtotal :   -3.2530560308E+01 Ha)

 CALCULATION OF EFFECTIVE MASSES
 NOTE : Additional infos (eff. mass eigenvalues, eigenvectors and, if degenerate, average mass) are available in stdout.

 COMMENTS:
 - At k-point ( 0.000, 0.000, 0.000), bands    30 through    32
   are DEGENERATE (effective mass tensor is therefore not defined).
   See Section IIIB Eqs. (67)-(70) and Appendix E of PRB 93 205147 (2016).
 - Angular average effective mass for Frohlich model is to be averaged over degenerate bands. See later.
 - Associated theta integrals calculated with ntheta=   1000 points.

 K-point ( 0.000, 0.000, 0.000) | band =    30
 Transport equivalent effective mass tensor:
             -3.4632899435             -0.0000012449              0.0000000013
             -0.0000012449             -3.4632886102              0.0000000009
              0.0000000013              0.0000000009             -3.4632823572
 Transport equivalent effective mass tensor eigenvalues:
             -3.4632906890             -3.4632878647             -3.4632823572
 Angular average effective mass 1/(<1/m>)=  -3.2217456016
 Angular average effective mass for Frohlich model (<m**0.5>)**2=  -3.2307421850
 Effective masses along directions: (cart. coord. / red. coord. -> eff. mass)
    1:   1.000000  0.000000  0.000000 /   0.948683  0.316228  0.000000 ->  -3.4692823157
    2:   0.000000  1.000000  0.000000 /   0.000000  1.000000  0.000000 ->  -4.0159449472
    3:   0.000000  0.000000  1.000000 /   0.408248  0.408248  0.816497 ->  -3.0536149656
    4:   0.577350  0.577350  0.577350 /   0.585539  0.688047  0.428644 ->  -3.3247684741
    5:   0.000000  0.707107  0.707107 /   0.289489  0.762222  0.578977 ->  -3.0761453742
    6:   0.707107  0.000000  0.707107 /   0.731423  0.422287  0.535439 ->  -3.1761188356
    7:   0.707107  0.707107  0.000000 /   0.616798  0.787122  0.000000 ->  -3.0853271481

[...]

 Angular average effective mass for Frohlich model, averaged over degenerate bands.
 Value of     (<<m**0.5>>)**2 =     6.824339E+00
 Absolute Value of <<m**0.5>> =     2.612344E+00

 COMMENTS:
 - At k-point ( 0.000, 0.000, 0.000), bands    33 through    35
   are DEGENERATE (effective mass tensor is therefore not defined).
   See Section IIIB Eqs. (67)-(70) and Appendix E of PRB 93 205147 (2016).
 - Angular average effective mass for Frohlich model is to be averaged over degenerate bands. See later.
 - Associated theta integrals calculated with ntheta=   1000 points.

[...]

 K-point ( 0.000, 0.000, 0.000) | band =    35
 Transport equivalent effective mass tensor:
              3.3911027220              0.0000014368             -0.0000000011
              0.0000014368              3.3911011963             -0.0000000008
             -0.0000000011             -0.0000000008              3.3910931149
 Transport equivalent effective mass tensor eigenvalues:
              3.3911035859              3.3911003324              3.3910931149
 Angular average effective mass 1/(<1/m>)=   3.0682124565
 Angular average effective mass for Frohlich model (<m**0.5>)**2=   3.0794951828
 Effective masses along directions: (cart. coord. / red. coord. -> eff. mass)
    1:   1.000000  0.000000  0.000000 /   0.948683  0.316228  0.000000 ->   3.3523395793
    2:   0.000000  1.000000  0.000000 /   0.000000  1.000000  0.000000 ->   3.9914503902
    3:   0.000000  0.000000  1.000000 /   0.408248  0.408248  0.816497 ->   2.8896491245
    4:   0.577350  0.577350  0.577350 /   0.585539  0.688047  0.428644 ->   3.1737786788
    5:   0.000000  0.707107  0.707107 /   0.289489  0.762222  0.578977 ->   2.9126830327
    6:   0.707107  0.000000  0.707107 /   0.731423  0.422287  0.535439 ->   3.0157841551
    7:   0.707107  0.707107  0.000000 /   0.616798  0.787122  0.000000 ->   2.9242732754

 Angular average effective mass for Frohlich model, averaged over degenerate bands.
 Value of     (<<m**0.5>>)**2 =     6.149424E+00
 Absolute Value of <<m**0.5>> =     2.479803E+00

 END OF EFFECTIVE MASSES SECTION

 ---- first-order wavefunction calculations are completed ----

 Total localisation tensor (bohr^2) in cartesian coordinates
  WARNING : still subject to testing - especially symmetries.
      direction              matrix element
   alpha     beta       real part   imaginary part
     1        1       0.6427817515    0.0000000000
     1        2       0.1818061341    0.0000000000
     1        3       0.4453322607    0.0000000000
     2        1       0.1818061341    0.0000000000
     2        2       0.5142254012    0.0000000000
     2        3       0.3148974614    0.0000000000
     3        1       0.4453322607    0.0000000000
     3        2       0.3148974614    0.0000000000
     3        3       1.1570071526    0.0000000000

 respfn : d/dk was computed, but no 2DTE, so no DDB output.

== END DATASET(S) ==============================================================

 -outvars: echo values of variables after computation  --------
            acell      1.0000000000E+00  1.0000000000E+00  1.0000000000E+00 Bohr
              amu      4.00780000E+01  4.78800000E+01  1.89984032E+01
             ecut      4.20000000E+01 Hartree
           etotal     -3.2530560308E+01
            fcart      0.0000000000E+00  0.0000000000E+00  0.0000000000E+00
                       0.0000000000E+00  0.0000000000E+00  0.0000000000E+00
                       0.0000000000E+00  0.0000000000E+00  0.0000000000E+00
                       0.0000000000E+00  0.0000000000E+00  0.0000000000E+00
                       0.0000000000E+00  0.0000000000E+00  0.0000000000E+00
                       0.0000000000E+00  0.0000000000E+00  0.0000000000E+00
                       0.0000000000E+00  0.0000000000E+00  0.0000000000E+00
                       0.0000000000E+00  0.0000000000E+00  0.0000000000E+00
-          fftalg         512
           irdden           1
           irdwfk           1
           istwfk        1
              ixc     -116133
           kptopt           0
P           mkmem           1
P          mkqmem           1
P          mk1mem           1
            natom           8
            nband          41
           nbdbuf           4
            ngfft          72      72      72
             nkpt           1
            nstep        2000
             nsym          48
           ntypat           3
              occ      2.000000  2.000000  2.000000  2.000000  2.000000  2.000000
                       2.000000  2.000000  2.000000  2.000000  2.000000  2.000000
                       2.000000  2.000000  2.000000  2.000000  2.000000  2.000000
                       2.000000  2.000000  2.000000  2.000000  2.000000  2.000000
                       2.000000  2.000000  2.000000  2.000000  2.000000  2.000000
                       2.000000  2.000000  0.000000  0.000000  0.000000  0.000000
                       0.000000  0.000000  0.000000  0.000000  0.000000
        optdriver           1
            prtwf          -1
            rfdir           1       1       1
           rfelfd           2
            rprim      9.5103833780E+00  0.0000000000E+00  5.4908224034E+00
                       3.1701277927E+00  8.9664754377E+00  5.4908224034E+00
                       0.0000000000E+00  0.0000000000E+00  1.0981644807E+01
          spgroup         225
           strten      0.0000000000E+00  0.0000000000E+00  0.0000000000E+00
                       0.0000000000E+00  0.0000000000E+00  0.0000000000E+00
           symrel      1  0  0   0  1  0   0  0  1      -1  0  0   0 -1  0   0  0 -1
                       0 -1  1   0 -1  0   1 -1  0       0  1 -1   0  1  0  -1  1  0
                      -1  0  0  -1  0  1  -1  1  0       1  0  0   1  0 -1   1 -1  0
                       0  1 -1   1  0 -1   0  0 -1       0 -1  1  -1  0  1   0  0  1
                      -1  0  0  -1  1  0  -1  0  1       1  0  0   1 -1  0   1  0 -1
                       0 -1  1   1 -1  0   0 -1  0       0  1 -1  -1  1  0   0  1  0
                       1  0  0   0  0  1   0  1  0      -1  0  0   0  0 -1   0 -1  0
                       0  1 -1   0  0 -1   1  0 -1       0 -1  1   0  0  1  -1  0  1
                      -1  0  1  -1  1  0  -1  0  0       1  0 -1   1 -1  0   1  0  0
                       0 -1  0   1 -1  0   0 -1  1       0  1  0  -1  1  0   0  1 -1
                       1  0 -1   0  0 -1   0  1 -1      -1  0  1   0  0  1   0 -1  1
                       0  1  0   0  0  1   1  0  0       0 -1  0   0  0 -1  -1  0  0
                       1  0 -1   0  1 -1   0  0 -1      -1  0  1   0 -1  1   0  0  1
                       0 -1  0   0 -1  1   1 -1  0       0  1  0   0  1 -1  -1  1  0
                      -1  0  1  -1  0  0  -1  1  0       1  0 -1   1  0  0   1 -1  0
                       0  1  0   1  0  0   0  0  1       0 -1  0  -1  0  0   0  0 -1
                       0  0 -1   0  1 -1   1  0 -1       0  0  1   0 -1  1  -1  0  1
                       1 -1  0   0 -1  1   0 -1  0      -1  1  0   0  1 -1   0  1  0
                       0  0  1   1  0  0   0  1  0       0  0 -1  -1  0  0   0 -1  0
                      -1  1  0  -1  0  0  -1  0  1       1 -1  0   1  0  0   1  0 -1
                       0  0  1   0  1  0   1  0  0       0  0 -1   0 -1  0  -1  0  0
                       1 -1  0   0 -1  0   0 -1  1      -1  1  0   0  1  0   0  1 -1
                       0  0 -1   1  0 -1   0  1 -1       0  0  1  -1  0  1   0 -1  1
                      -1  1  0  -1  0  1  -1  0  0       1 -1  0   1  0 -1   1  0  0
           tolwfr      1.00000000E-20
            typat      1  2  3  3  3  3  3  3
           useylm           1
           xangst      3.3551187524E+00  2.3724272215E+00  5.8112361446E+00
                       0.0000000000E+00  0.0000000000E+00  0.0000000000E+00
                       2.4398725528E+00  3.6667808099E+00  4.2259832255E+00
                       5.1856111516E+00  3.6667808099E+00  5.8112361446E+00
                       1.5246263532E+00  1.0780736331E+00  5.8112361446E+00
                       4.2703649520E+00  1.0780736331E+00  7.3964890637E+00
                       4.2703649520E+00  1.0780736331E+00  4.2259832255E+00
                       2.4398725528E+00  3.6667808099E+00  7.3964890637E+00
            xcart      6.3402555854E+00  4.4832377188E+00  1.0981644807E+01
                       0.0000000000E+00  0.0000000000E+00  0.0000000000E+00
                       4.6106909240E+00  6.9292115200E+00  7.9859509383E+00
                       9.7993849081E+00  6.9292115200E+00  1.0981644807E+01
                       2.8811262626E+00  2.0372639177E+00  1.0981644807E+01
                       8.0698202467E+00  2.0372639177E+00  1.3977338675E+01
                       8.0698202467E+00  2.0372639177E+00  7.9859509383E+00
                       4.6106909240E+00  6.9292115200E+00  1.3977338675E+01
             xred      5.0000000000E-01  5.0000000000E-01  5.0000000000E-01
                       0.0000000000E+00  0.0000000000E+00  0.0000000000E+00
                       2.2720900000E-01  7.7279100000E-01  2.2720900000E-01
                       7.7279100000E-01  7.7279100000E-01  2.2720900000E-01
                       2.2720900000E-01  2.2720900000E-01  7.7279100000E-01
                       7.7279100000E-01  2.2720900000E-01  7.7279100000E-01
                       7.7279100000E-01  2.2720900000E-01  2.2720900000E-01
                       2.2720900000E-01  7.7279100000E-01  7.7279100000E-01
            znucl       20.00000   22.00000    9.00000

- Timing analysis has been suppressed with timopt=0

 Suggested references for the acknowledgment of ABINIT usage.

 Calculation completed.
.Delivered   6 WARNINGs and  11 COMMENTs to log file.