.Version 9.5.1 of ABINIT

 ABINIT is a project of the Universite Catholique de Louvain,
 Corning Inc. and other collaborators, see ~abinit/doc/developers/contributors.txt .
 acknowledgments of the ABINIT effort.

.Starting date : Sun 25 Apr 2021.
- ( at 17h23 )

- input  file    -> /scratch/users/j/a/jabreu/flow_simple2/flow/w211/t1/run.abi
- output file    -> /scratch/users/j/a/jabreu/flow_simple2/flow/w211/t1/run.abo
- root for input  files -> /scratch/users/j/a/jabreu/flow_simple2/flow/w211/t1/indata/in
- root for output files -> /scratch/users/j/a/jabreu/flow_simple2/flow/w211/t1/outdata/out

 Symmetries : space group Fm -3 m (#225); Bravais cF (face-center cubic)
     intxc =       0      iscf =       7    lmnmax =      18     lnmax =       6
     mgfft =      48  mpssoang =       3    mqgrid =    3001     natom =       2
  nloc_mem =       1    nspden =       1   nspinor =       1    nsppol =       1
      nsym =      48    n1xccc =    2501    ntypat =       2    occopt =       1
   xclevel =       2
-    mband =          17        mffmem =           1         mkmem =           1
-   mkqmem =           1        mk1mem =           1           mpw =        4279
      nfft =      110592          nkpt =           1
  Rough estimation (10% accuracy) of disk space for files :

------------- Echo of variables that govern the present computation ------------
-
- outvars: echo of selected default values
-   iomode0 =  0 , fftalg0 =512 , wfoptalg0 =  0
-
- outvars: echo of global parameters not present in the input file
-  max_nthreads =    0
-
 -outvars: echo values of preprocessed input variables --------
            acell      1.0000000000E+00  1.0000000000E+00  1.0000000000E+00 Bohr
              amu      3.90983000E+01  3.54527000E+01
             ecut      3.60000000E+01 Hartree
-          fftalg         512
           irdden           1
           irdwfk           1
           istwfk        1
              ixc     -116133
           kptopt           0
P           mkmem           1
P          mkqmem           1
P          mk1mem           1
            natom           2
            nband          17
           nbdbuf           4
            ngfft          48      48      48
             nkpt           1
            nstep         100
             nsym          48
           ntypat           2
              occ      2.000000  2.000000  2.000000  2.000000  2.000000  2.000000
                       2.000000  2.000000  0.000000  0.000000  0.000000  0.000000
                       0.000000  0.000000  0.000000  0.000000  0.000000
        optdriver           1
            prtwf          -1
            rfdir           1       1       1
           rfelfd           2
            rprim      7.2236877896E+00  0.0000000000E+00  4.1705980899E+00
                       2.4078959299E+00  6.8105581616E+00  4.1705980899E+00
                       0.0000000000E+00  0.0000000000E+00  8.3411961798E+00
          spgroup         225
           symrel      1  0  0   0  1  0   0  0  1      -1  0  0   0 -1  0   0  0 -1
                       0 -1  1   0 -1  0   1 -1  0       0  1 -1   0  1  0  -1  1  0
                      -1  0  0  -1  0  1  -1  1  0       1  0  0   1  0 -1   1 -1  0
                       0  1 -1   1  0 -1   0  0 -1       0 -1  1  -1  0  1   0  0  1
                      -1  0  0  -1  1  0  -1  0  1       1  0  0   1 -1  0   1  0 -1
                       0 -1  1   1 -1  0   0 -1  0       0  1 -1  -1  1  0   0  1  0
                       1  0  0   0  0  1   0  1  0      -1  0  0   0  0 -1   0 -1  0
                       0  1 -1   0  0 -1   1  0 -1       0 -1  1   0  0  1  -1  0  1
                      -1  0  1  -1  1  0  -1  0  0       1  0 -1   1 -1  0   1  0  0
                       0 -1  0   1 -1  0   0 -1  1       0  1  0  -1  1  0   0  1 -1
                       1  0 -1   0  0 -1   0  1 -1      -1  0  1   0  0  1   0 -1  1
                       0  1  0   0  0  1   1  0  0       0 -1  0   0  0 -1  -1  0  0
                       1  0 -1   0  1 -1   0  0 -1      -1  0  1   0 -1  1   0  0  1
                       0 -1  0   0 -1  1   1 -1  0       0  1  0   0  1 -1  -1  1  0
                      -1  0  1  -1  0  0  -1  1  0       1  0 -1   1  0  0   1 -1  0
                       0  1  0   1  0  0   0  0  1       0 -1  0  -1  0  0   0  0 -1
                       0  0 -1   0  1 -1   1  0 -1       0  0  1   0 -1  1  -1  0  1
                       1 -1  0   0 -1  1   0 -1  0      -1  1  0   0  1 -1   0  1  0
                       0  0  1   1  0  0   0  1  0       0  0 -1  -1  0  0   0 -1  0
                      -1  1  0  -1  0  0  -1  0  1       1 -1  0   1  0  0   1  0 -1
                       0  0  1   0  1  0   1  0  0       0  0 -1   0 -1  0  -1  0  0
                       1 -1  0   0 -1  0   0 -1  1      -1  1  0   0  1  0   0  1 -1
                       0  0 -1   1  0 -1   0  1 -1       0  0  1  -1  0  1   0 -1  1
                      -1  1  0  -1  0  1  -1  0  0       1 -1  0   1  0 -1   1  0  0
           tolwfr      1.00000000E-20
            typat      1  2
           useylm           1
           xangst      0.0000000000E+00  0.0000000000E+00  0.0000000000E+00
                       2.5484072935E+00  1.8019960784E+00  4.4139709107E+00
            xcart      0.0000000000E+00  0.0000000000E+00  0.0000000000E+00
                       4.8157918598E+00  3.4052790808E+00  8.3411961798E+00
             xred      0.0000000000E+00  0.0000000000E+00  0.0000000000E+00
                       5.0000000000E-01  5.0000000000E-01  5.0000000000E-01
            znucl       19.00000   17.00000

 chkinp: Checking input parameters for consistency.

== DATASET  1 ==================================================================
-   mpi_nproc: 1, omp_nthreads: -1 (-1 if OMP is not activated)

--- !DatasetInfo
iteration_state: {dtset: 1, }
dimensions: {natom: 2, nkpt: 1, mband: 17, nsppol: 1, nspinor: 1, nspden: 1, mpw: 4279, }
cutoff_energies: {ecut:  36.0, pawecutdg:  -1.0, }
electrons: {nelect:   1.60000000E+01, charge:   0.00000000E+00, occopt:   1.00000000E+00, tsmear:   1.00000000E-02, }
meta: {optdriver: 1, rfelfd: 2, }
...

 Real(R)+Recip(G) space primitive vectors, cartesian coordinates (Bohr,Bohr^-1):
 R(1)=  7.2236878  0.0000000  4.1705981  G(1)=  0.1384334 -0.0489436  0.0000000
 R(2)=  2.4078959  6.8105582  4.1705981  G(2)=  0.0000000  0.1468308  0.0000000
 R(3)=  0.0000000  0.0000000  8.3411962  G(3)= -0.0692167 -0.0489436  0.1198869
 Unit cell volume ucvol=  4.1036471E+02 bohr^3
 Angles (23,13,12)=  6.00000000E+01  6.00000000E+01  6.00000000E+01 degrees

 getcut: wavevector=  0.0000  0.0000  0.0000  ngfft=  48  48  48
         ecut(hartree)=     36.000   => boxcut(ratio)=   2.13057

--- Pseudopotential description ------------------------------------------------
- pspini: atom type   1  psp file is /scratch/users/j/a/jabreu/pseudos/PBEsol/K.psp8
- pspatm: opening atomic psp file    /scratch/users/j/a/jabreu/pseudos/PBEsol/K.psp8
- K     ONCVPSP-3.3.0  r_core=   1.36296   1.46408   1.61068
- 19.00000   9.00000    180112                znucl, zion, pspdat
    8 -116133    2    4       400   0.00000   pspcod,pspxc,lmax,lloc,mmax,r2well
    3.99000000000000    5.00000000000000    0.00000000000000   rchrg,fchrg,qchrg
     nproj     2     2     2
     extension_switch     1
  pspatm : epsatm=    8.32487830
         --- l  ekb(1:nproj) -->
             0   10.921326    0.816676
             1    4.431000    0.560368
             2   -3.384038   -1.043186
 pspatm: atomic psp has been read  and splines computed

- pspini: atom type   2  psp file is /scratch/users/j/a/jabreu/pseudos/PBEsol/Cl.psp8
- pspatm: opening atomic psp file    /scratch/users/j/a/jabreu/pseudos/PBEsol/Cl.psp8
- Cl    ONCVPSP-3.3.0  r_core=   1.56009   1.35202   1.75774
- 17.00000   7.00000    180112                znucl, zion, pspdat
    8 -116133    2    4       600   0.00000   pspcod,pspxc,lmax,lloc,mmax,r2well
    5.99000000000000    8.00000000000000    0.00000000000000   rchrg,fchrg,qchrg
     nproj     2     2     2
     extension_switch     1
  pspatm : epsatm=    8.95520722
         --- l  ekb(1:nproj) -->
             0    8.193503    0.707970
             1    3.869736    1.114731
             2   -2.915303   -0.810552
 pspatm: atomic psp has been read  and splines computed

   2.76481368E+02                                ecore*ucvol(ha*bohr**3)

-inwffil : will read wavefunctions from disk file /scratch/users/j/a/jabreu/flow_simple2/flow/w211/t1/indata/in_WFK

 ==>  initialize data related to q vector <==

 The list of irreducible perturbations for this q vector is:
    1)    idir= 1    ipert=   3
    2)    idir= 2    ipert=   3
    3)    idir= 3    ipert=   3

 Perturbation wavevector (in red.coord.)   0.000000  0.000000  0.000000
 Perturbation : derivative vs k along direction   1

 dfpt_looppert : COMMENT -
  In a d/dk calculation, iscf is set to -3 automatically.
 The set of symmetries contains only one element for this perturbation.
 symkpt : not enough symmetry to change the number of k points.

[...]

 Initialisation of the first-order wave-functions :
  ireadwf=   0

--- !BeginCycle
iteration_state: {dtset: 1, }
solver: {iscf: 7, nstep: 100, nline: 4, wfoptalg: 0, }
tolerances: {tolwfr: 1.00E-20, }
...

     iter   2DEtotal(Ha)        deltaE(Ha) residm    vres2
-ETOT  1  -15.428110441756     -1.543E+01 1.187E-02 0.000E+00
 ETOT  2  -15.436386091971     -8.276E-03 6.277E-05 0.000E+00
 ETOT  3  -15.436427052083     -4.096E-05 4.091E-07 0.000E+00
 ETOT  4  -15.436427298122     -2.460E-07 2.112E-09 0.000E+00
 ETOT  5  -15.436427299731     -1.609E-09 1.726E-11 0.000E+00
 ETOT  6  -15.436427299742     -1.137E-11 9.452E-14 0.000E+00
 ETOT  7  -15.436427299742     -8.171E-14 1.094E-15 0.000E+00
 ETOT  8  -15.436427299742     -2.132E-14 6.265E-18 0.000E+00
 ETOT  9  -15.436427299742      1.776E-14 7.099E-20 0.000E+00
 ETOT 10  -15.436427299742      1.066E-14 9.321E-21 0.000E+00

 At SCF step   10   max residual=  9.32E-21 < tolwfr=  1.00E-20 =>converged.

 ----iterations are completed or convergence reached----

 dfpt_looppert: DFPT cycle converged with prtwf=-1. Will skip output of the 1st-order WFK file.
 dfpt_looppert : ek2=    2.7236061289E+01
          f-sum rule ratio=    1.2488313063E+00
 prteigrs : about to open file /scratch/users/j/a/jabreu/flow_simple2/flow/w211/t1/tmpdata/tmp_1WF1_EIG
 Expectation of eigenvalue derivatives (hartree) for nkpt=   1  k points:
  (in case of degenerate eigenvalues, averaged derivative)
 kpt#   1, nband= 17, wtk=  1.00000, kpt=  0.0000  0.0000  0.0000 (reduced coord)
   0.00000   -0.00000    0.00000    0.00000    0.00000    0.00000    0.00000    0.00000
  -0.00000    0.00000    0.00000    0.00000    0.00000    0.00000    0.00000    0.00000
   0.00000

 Eight components of 2nd-order total energy (hartree) are
 1,2,3: 0th-order hamiltonian combined with 1st-order wavefunctions
     kin0=   7.07179986E+00 eigvalue=   5.73378157E-01  local=  -4.18232271E+00
 4,5,6: 1st-order hamiltonian combined with 1st and 0th-order wfs
     kin1=  -3.40132460E+01  Hartree=   0.00000000E+00     xc=   0.00000000E+00
 7,8,9: eventually, occupation + non-local contributions
    edocc=   1.13984281E+01     enl0=   5.75143881E-01   enl1=   3.14039140E+00
 1-9 gives the relaxation energy (to be shifted if some occ is /=2.0)
   erelax=  -1.54364273E+01
  No Ewald or frozen-wf contrib.: the relaxation energy is the total one
 2DEtotal=   -0.1543642730E+02 Ha. Also 2DEtotal=   -0.420046548680E+03 eV
    (  non-var. 2DEtotal :   -1.5436427300E+01 Ha)

 Perturbation wavevector (in red.coord.)   0.000000  0.000000  0.000000
 Perturbation : derivative vs k along direction   2
 The set of symmetries contains only one element for this perturbation.
 symkpt : not enough symmetry to change the number of k points.

[...]

 Perturbation wavevector (in red.coord.)   0.000000  0.000000  0.000000
 Perturbation : derivative vs k along direction   3
 The set of symmetries contains only one element for this perturbation.
 symkpt : not enough symmetry to change the number of k points.

-inwffil : will read wavefunctions from disk file /scratch/users/j/a/jabreu/flow_simple2/flow/w211/t1/indata/in_WFK

 Initialisation of the first-order wave-functions :
  ireadwf=   0

--- !BeginCycle
iteration_state: {dtset: 1, }
solver: {iscf: 7, nstep: 100, nline: 4, wfoptalg: 0, }
tolerances: {tolwfr: 1.00E-20, }
...

     iter   2DEtotal(Ha)        deltaE(Ha) residm    vres2
-ETOT  1  -15.427352973152     -1.543E+01 1.623E-02 0.000E+00
 ETOT  2  -15.436380847461     -9.028E-03 7.496E-05 0.000E+00
 ETOT  3  -15.436426818740     -4.597E-05 6.047E-07 0.000E+00
 ETOT  4  -15.436427097720     -2.790E-07 2.707E-09 0.000E+00
 ETOT  5  -15.436427099550     -1.830E-09 2.534E-11 0.000E+00
 ETOT  6  -15.436427099563     -1.293E-11 1.169E-13 0.000E+00
 ETOT  7  -15.436427099563     -8.349E-14 1.319E-15 0.000E+00
 ETOT  8  -15.436427099563     -1.066E-14 7.611E-18 0.000E+00
 ETOT  9  -15.436427099563     -1.776E-14 9.174E-20 0.000E+00
 ETOT 10  -15.436427099563     -1.066E-14 9.764E-21 0.000E+00

 At SCF step   10   max residual=  9.76E-21 < tolwfr=  1.00E-20 =>converged.

 ----iterations are completed or convergence reached----

 dfpt_looppert: DFPT cycle converged with prtwf=-1. Will skip output of the 1st-order WFK file.
 dfpt_looppert : ek2=    2.7236061288E+01
          f-sum rule ratio=    1.2488312485E+00
 prteigrs : about to open file /scratch/users/j/a/jabreu/flow_simple2/flow/w211/t1/tmpdata/tmp_1WF1_EIG
 Expectation of eigenvalue derivatives (hartree) for nkpt=   1  k points:
  (in case of degenerate eigenvalues, averaged derivative)
 kpt#   1, nband= 17, wtk=  1.00000, kpt=  0.0000  0.0000  0.0000 (reduced coord)
  -0.00000   -0.00000   -0.00000   -0.00000   -0.00000   -0.00000   -0.00000   -0.00000
   0.00000    0.00000    0.00000    0.00000    0.00000    0.00000    0.00000   -0.00000
  -0.00000

 Eight components of 2nd-order total energy (hartree) are
 1,2,3: 0th-order hamiltonian combined with 1st-order wavefunctions
     kin0=   7.55276023E+00 eigvalue=   6.05841476E-01  local=  -4.46573657E+00
 4,5,6: 1st-order hamiltonian combined with 1st and 0th-order wfs
     kin1=  -3.40132444E+01  Hartree=   0.00000000E+00     xc=   0.00000000E+00
 7,8,9: eventually, occupation + non-local contributions
    edocc=   1.11806103E+01     enl0=   5.62951624E-01   enl1=   3.14039022E+00
 1-9 gives the relaxation energy (to be shifted if some occ is /=2.0)
   erelax=  -1.54364271E+01
  No Ewald or frozen-wf contrib.: the relaxation energy is the total one
 2DEtotal=   -0.1543642710E+02 Ha. Also 2DEtotal=   -0.420046543233E+03 eV
    (  non-var. 2DEtotal :   -1.5436427100E+01 Ha)

 CALCULATION OF EFFECTIVE MASSES
 NOTE : Additional infos (eff. mass eigenvalues, eigenvectors and, if degenerate, average mass) are available in stdout.

 COMMENTS:
 - At k-point ( 0.000, 0.000, 0.000), bands     6 through     8
   are DEGENERATE (effective mass tensor is therefore not defined).
   See Section IIIB Eqs. (67)-(70) and Appendix E of PRB 93 205147 (2016).
 - Angular average effective mass for Frohlich model is to be averaged over degenerate bands. See later.
 - Associated theta integrals calculated with ntheta=   1000 points.

 K-point ( 0.000, 0.000, 0.000) | band =     6
 Transport equivalent effective mass tensor:
             -0.7510677107              0.0000000558             -0.0000000135
              0.0000000558             -0.7510667427              0.0000000302
             -0.0000000135              0.0000000302             -0.7510676114
 Transport equivalent effective mass tensor eigenvalues:
             -0.7510677162             -0.7510676101             -0.7510667385
 Angular average effective mass 1/(<1/m>)=  -0.7333956204
 Angular average effective mass for Frohlich model (<m**0.5>)**2=  -0.7346195157
 Effective masses along directions: (cart. coord. / red. coord. -> eff. mass)
    1:   1.000000  0.000000  0.000000 /   0.948683  0.316228  0.000000 ->  -0.7520503180
    2:   0.000000  1.000000  0.000000 /   0.000000  1.000000  0.000000 ->  -0.7926987491
    3:   0.000000  0.000000  1.000000 /   0.408248  0.408248  0.816497 ->  -0.7562435176
    4:   0.577350  0.577350  0.577350 /   0.585539  0.688047  0.428644 ->  -0.7540263744
    5:   0.000000  0.707107  0.707107 /   0.289489  0.762222  0.578977 ->  -0.7111852031
    6:   0.707107  0.000000  0.707107 /   0.731423  0.422287  0.535439 ->  -0.7541269024
    7:   0.707107  0.707107  0.000000 /   0.616798  0.787122  0.000000 ->  -0.6724862919

[...]

 K-point ( 0.000, 0.000, 0.000) | band =     8
 Transport equivalent effective mass tensor:
             -5.3850641542              0.0000031084              0.0000011903
              0.0000031084             -5.3850515073             -0.0000008783
              0.0000011903             -0.0000008783             -5.3850634757
 Transport equivalent effective mass tensor eigenvalues:
             -5.3850657108             -5.3850626690             -5.3850507574
 Angular average effective mass 1/(<1/m>)=  -4.2941940510
 Angular average effective mass for Frohlich model (<m**0.5>)**2=  -4.3403846879
 Effective masses along directions: (cart. coord. / red. coord. -> eff. mass)
    1:   1.000000  0.000000  0.000000 /   0.948683  0.316228  0.000000 ->  -3.7647450085
    2:   0.000000  1.000000  0.000000 /   0.000000  1.000000  0.000000 ->  -3.0633883395
    3:   0.000000  0.000000  1.000000 /   0.408248  0.408248  0.816497 ->  -4.8825766931
    4:   0.577350  0.577350  0.577350 /   0.585539  0.688047  0.428644 ->  -4.0015571441
    5:   0.000000  0.707107  0.707107 /   0.289489  0.762222  0.578977 ->  -4.7819618284
    6:   0.707107  0.000000  0.707107 /   0.731423  0.422287  0.535439 ->  -4.4035680514
    7:   0.707107  0.707107  0.000000 /   0.616798  0.787122  0.000000 ->  -4.7612895977

 Angular average effective mass for Frohlich model, averaged over degenerate bands.
 Value of     (<<m**0.5>>)**2 =     2.487846E+00
 Absolute Value of <<m**0.5>> =     1.577291E+00

 K-point ( 0.000, 0.000, 0.000) | band =     9
 Effective mass tensor:
              0.4347526786             -0.0000000000             -0.0000000000
             -0.0000000000              0.4347526786             -0.0000000000
             -0.0000000000             -0.0000000000              0.4347526786
 Effective mass tensor eigenvalues:
              0.4347526786              0.4347526786              0.4347526787
 Angular average effective mass 1/(<1/m>)=   0.4347526786
 Angular average effective mass for Frohlich model (<m**0.5>)**2=   0.4347526786
 Effective masses along directions: (cart. coord. / red. coord. -> eff. mass)
    1:   1.000000  0.000000  0.000000 /   0.948683  0.316228  0.000000 ->   0.4347526786
    2:   0.000000  1.000000  0.000000 /   0.000000  1.000000  0.000000 ->   0.4347526786
    3:   0.000000  0.000000  1.000000 /   0.408248  0.408248  0.816497 ->   0.4347526786
    4:   0.577350  0.577350  0.577350 /   0.585539  0.688047  0.428644 ->   0.4347526786
    5:   0.000000  0.707107  0.707107 /   0.289489  0.762222  0.578977 ->   0.4347526786
    6:   0.707107  0.000000  0.707107 /   0.731423  0.422287  0.535439 ->   0.4347526786
    7:   0.707107  0.707107  0.000000 /   0.616798  0.787122  0.000000 ->   0.4347526786

 END OF EFFECTIVE MASSES SECTION

 ---- first-order wavefunction calculations are completed ----

 Total localisation tensor (bohr^2) in cartesian coordinates
  WARNING : still subject to testing - especially symmetries.
      direction              matrix element
   alpha     beta       real part   imaginary part
     1        1       1.6009181785    0.0000000000
     1        2       0.4528081392    0.0000000000
     1        3       1.1091486901    0.0000000000
     2        1       0.4528081392    0.0000000000
     2        2       1.2807348233    0.0000000000
     2        3       0.7842867032    0.0000000000
     3        1       1.1091486901    0.0000000000
     3        2       0.7842867032    0.0000000000
     3        3       2.8816527970    0.0000000000

 respfn : d/dk was computed, but no 2DTE, so no DDB output.

== END DATASET(S) ==============================================================

 -outvars: echo values of variables after computation  --------
            acell      1.0000000000E+00  1.0000000000E+00  1.0000000000E+00 Bohr
              amu      3.90983000E+01  3.54527000E+01
             ecut      3.60000000E+01 Hartree
           etotal     -1.5436427100E+01
            fcart      0.0000000000E+00  0.0000000000E+00  0.0000000000E+00
                       0.0000000000E+00  0.0000000000E+00  0.0000000000E+00
-          fftalg         512
           irdden           1
           irdwfk           1
           istwfk        1
              ixc     -116133
           kptopt           0
P           mkmem           1
P          mkqmem           1
P          mk1mem           1
            natom           2
            nband          17
           nbdbuf           4
            ngfft          48      48      48
             nkpt           1
            nstep         100
             nsym          48
           ntypat           2
              occ      2.000000  2.000000  2.000000  2.000000  2.000000  2.000000
                       2.000000  2.000000  0.000000  0.000000  0.000000  0.000000
                       0.000000  0.000000  0.000000  0.000000  0.000000
        optdriver           1
            prtwf          -1
            rfdir           1       1       1
           rfelfd           2
            rprim      7.2236877896E+00  0.0000000000E+00  4.1705980899E+00
                       2.4078959299E+00  6.8105581616E+00  4.1705980899E+00
                       0.0000000000E+00  0.0000000000E+00  8.3411961798E+00
          spgroup         225
           strten      0.0000000000E+00  0.0000000000E+00  0.0000000000E+00
                       0.0000000000E+00  0.0000000000E+00  0.0000000000E+00
           symrel      1  0  0   0  1  0   0  0  1      -1  0  0   0 -1  0   0  0 -1
                       0 -1  1   0 -1  0   1 -1  0       0  1 -1   0  1  0  -1  1  0
                      -1  0  0  -1  0  1  -1  1  0       1  0  0   1  0 -1   1 -1  0
                       0  1 -1   1  0 -1   0  0 -1       0 -1  1  -1  0  1   0  0  1
                      -1  0  0  -1  1  0  -1  0  1       1  0  0   1 -1  0   1  0 -1
                       0 -1  1   1 -1  0   0 -1  0       0  1 -1  -1  1  0   0  1  0
                       1  0  0   0  0  1   0  1  0      -1  0  0   0  0 -1   0 -1  0
                       0  1 -1   0  0 -1   1  0 -1       0 -1  1   0  0  1  -1  0  1
                      -1  0  1  -1  1  0  -1  0  0       1  0 -1   1 -1  0   1  0  0
                       0 -1  0   1 -1  0   0 -1  1       0  1  0  -1  1  0   0  1 -1
                       1  0 -1   0  0 -1   0  1 -1      -1  0  1   0  0  1   0 -1  1
                       0  1  0   0  0  1   1  0  0       0 -1  0   0  0 -1  -1  0  0
                       1  0 -1   0  1 -1   0  0 -1      -1  0  1   0 -1  1   0  0  1
                       0 -1  0   0 -1  1   1 -1  0       0  1  0   0  1 -1  -1  1  0
                      -1  0  1  -1  0  0  -1  1  0       1  0 -1   1  0  0   1 -1  0
                       0  1  0   1  0  0   0  0  1       0 -1  0  -1  0  0   0  0 -1
                       0  0 -1   0  1 -1   1  0 -1       0  0  1   0 -1  1  -1  0  1
                       1 -1  0   0 -1  1   0 -1  0      -1  1  0   0  1 -1   0  1  0
                       0  0  1   1  0  0   0  1  0       0  0 -1  -1  0  0   0 -1  0
                      -1  1  0  -1  0  0  -1  0  1       1 -1  0   1  0  0   1  0 -1
                       0  0  1   0  1  0   1  0  0       0  0 -1   0 -1  0  -1  0  0
                       1 -1  0   0 -1  0   0 -1  1      -1  1  0   0  1  0   0  1 -1
                       0  0 -1   1  0 -1   0  1 -1       0  0  1  -1  0  1   0 -1  1
                      -1  1  0  -1  0  1  -1  0  0       1 -1  0   1  0 -1   1  0  0
           tolwfr      1.00000000E-20
            typat      1  2
           useylm           1
           xangst      0.0000000000E+00  0.0000000000E+00  0.0000000000E+00
                       2.5484072935E+00  1.8019960784E+00  4.4139709107E+00
            xcart      0.0000000000E+00  0.0000000000E+00  0.0000000000E+00
                       4.8157918598E+00  3.4052790808E+00  8.3411961798E+00
             xred      0.0000000000E+00  0.0000000000E+00  0.0000000000E+00
                       5.0000000000E-01  5.0000000000E-01  5.0000000000E-01
            znucl       19.00000   17.00000

- Timing analysis has been suppressed with timopt=0

 Suggested references for the acknowledgment of ABINIT usage.

 Calculation completed.
.Delivered   6 WARNINGs and   5 COMMENTs to log file.