.Version 9.5.1 of ABINIT

 ABINIT is a project of the Universite Catholique de Louvain,
 Corning Inc. and other collaborators, see ~abinit/doc/developers/contributors.txt .
 acknowledgments of the ABINIT effort.

.Starting date : Wed 19 May 2021.
- ( at 01h35 )

- input  file    -> /scratch/users/j/a/jabreu/flow_simple_8atoms/flow/w445/t1/run.abi
- output file    -> /scratch/users/j/a/jabreu/flow_simple_8atoms/flow/w445/t1/run.abo
- root for input  files -> /scratch/users/j/a/jabreu/flow_simple_8atoms/flow/w445/t1/indata/in
- root for output files -> /scratch/users/j/a/jabreu/flow_simple_8atoms/flow/w445/t1/outdata/out

 Symmetries : space group R-3 (#148); Bravais hR (rhombohedral)
     intxc =       0      iscf =       7    lmnmax =      32     lnmax =       8
     mgfft =      60  mpssoang =       4    mqgrid =    3001     natom =       8
  nloc_mem =       1    nspden =       1   nspinor =       1    nsppol =       1
      nsym =       6    n1xccc =    2501    ntypat =       3    occopt =       1
   xclevel =       2
-    mband =          42        mffmem =           1         mkmem =           2
-   mkqmem =           2        mk1mem =           2           mpw =       13548
      nfft =      216000          nkpt =           2
  Rough estimation (10% accuracy) of disk space for files :

------------- Echo of variables that govern the present computation ------------
-
- outvars: echo of selected default values
-   iomode0 =  0 , fftalg0 =512 , wfoptalg0 =  0
-
- outvars: echo of global parameters not present in the input file
-  max_nthreads =    0
-
 -outvars: echo values of preprocessed input variables --------
            acell      1.0000000000E+00  1.0000000000E+00  1.0000000000E+00 Bohr
              amu      1.32905430E+02  2.08980370E+02  1.89984032E+01
             ecut      4.20000000E+01 Hartree
-          fftalg         512
           irdden           1
           irdwfk           1
           istwfk        1    1
              ixc     -116133
              kpt      5.00000000E-01  0.00000000E+00 -1.38777878E-17
                       0.00000000E+00  0.00000000E+00  0.00000000E+00
           kptopt           0
P           mkmem           2
P          mkqmem           2
P          mk1mem           2
            natom           8
            nband          42
           nbdbuf           4
            ngfft          60      60      60
             nkpt           2
            nstep        2000
             nsym           6
           ntypat           3
              occ      2.000000  2.000000  2.000000  2.000000  2.000000  2.000000
                       2.000000  2.000000  2.000000  2.000000  2.000000  2.000000
                       2.000000  2.000000  2.000000  2.000000  2.000000  2.000000
                       2.000000  2.000000  2.000000  2.000000  2.000000  2.000000
                       2.000000  2.000000  2.000000  2.000000  2.000000  2.000000
                       2.000000  2.000000  2.000000  0.000000  0.000000  0.000000
                       0.000000  0.000000  0.000000  0.000000  0.000000  0.000000
        optdriver           1
            prtwf          -1
            rfdir           1       1       1
           rfelfd           2
            rprim      1.0141853750E+01  0.0000000000E+00 -1.1617430288E+00
                      -1.3024170690E+00  1.0057877871E+01 -1.1617430288E+00
                       0.0000000000E+00  0.0000000000E+00  1.0208175369E+01
          spgroup         148
           symrel      1  0  0   0  1  0   0  0  1      -1  0  0   0 -1  0   0  0 -1
                       0  0  1   1  0  0   0  1  0       0  0 -1  -1  0  0   0 -1  0
                       0  1  0   0  0  1   1  0  0       0 -1  0   0  0 -1  -1  0  0
           tolwfr      1.00000000E-20
            typat      1  2  3  3  3  3  3  3
           useylm           1
              wtk        0.50000    0.50000
           xangst      2.3388142143E+00  2.6611998681E+00  2.0861989401E+00
                       0.0000000000E+00  0.0000000000E+00  0.0000000000E+00
                       3.6473945221E+00  4.1913365682E-01  3.8081424851E+00
                       3.7773997682E+00  3.6710187700E+00 -4.8577895235E-01
                       4.8011358930E+00  1.1048450268E+00  9.8208642376E-01
                       9.0022866028E-01  1.6513809661E+00  4.6581768326E+00
                       1.0302339064E+00  4.9032660793E+00  3.6425539510E-01
                      -1.2350746444E-01  4.2175547093E+00  3.1903114565E+00
            xcart      4.4197183406E+00  5.0289389355E+00  3.9423446555E+00
                       0.0000000000E+00  0.0000000000E+00  0.0000000000E+00
                       6.8925767454E+00  7.9204782447E-01  7.1963463719E+00
                       7.1382510564E+00  6.9372201040E+00 -9.1798918105E-01
                       9.0728319645E+00  2.0878545200E+00  1.8558743797E+00
                       1.7011856249E+00  3.1206577671E+00  8.8026784922E+00
                       1.9468599359E+00  9.2658300466E+00  6.8834293917E-01
                      -2.3339528317E-01  7.9700233511E+00  6.0288149314E+00
             xred      5.0000000000E-01  5.0000000000E-01  5.0000000000E-01
                       0.0000000000E+00  0.0000000000E+00  0.0000000000E+00
                       6.8973000000E-01  7.8749000000E-02  7.9241600000E-01
                       7.9241600000E-01  6.8973000000E-01  7.8749000000E-02
                       9.2125100000E-01  2.0758400000E-01  3.1027000000E-01
                       2.0758400000E-01  3.1027000000E-01  9.2125100000E-01
                       3.1027000000E-01  9.2125100000E-01  2.0758400000E-01
                       7.8749000000E-02  7.9241600000E-01  6.8973000000E-01
            znucl       55.00000   83.00000    9.00000

 chkinp: Checking input parameters for consistency.

== DATASET  1 ==================================================================
-   mpi_nproc: 1, omp_nthreads: -1 (-1 if OMP is not activated)

--- !DatasetInfo
iteration_state: {dtset: 1, }
dimensions: {natom: 8, nkpt: 2, mband: 42, nsppol: 1, nspinor: 1, nspden: 1, mpw: 13548, }
cutoff_energies: {ecut:  42.0, pawecutdg:  -1.0, }
electrons: {nelect:   6.60000000E+01, charge:   0.00000000E+00, occopt:   1.00000000E+00, tsmear:   1.00000000E-02, }
meta: {optdriver: 1, rfelfd: 2, }
...

 Real(R)+Recip(G) space primitive vectors, cartesian coordinates (Bohr,Bohr^-1):
 R(1)= 10.1418538  0.0000000 -1.1617430  G(1)=  0.0986013  0.0127681  0.0000000
 R(2)= -1.3024171 10.0578779 -1.1617430  G(2)=  0.0000000  0.0994246  0.0000000
 R(3)=  0.0000000  0.0000000 10.2081754  G(3)=  0.0112213  0.0127681  0.0979607
 Unit cell volume ucvol=  1.0412903E+03 bohr^3
 Angles (23,13,12)=  9.65347133E+01  9.65347133E+01  9.65347133E+01 degrees

 getcut: wavevector=  0.0000  0.0000  0.0000  ngfft=  60  60  60
         ecut(hartree)=     42.000   => boxcut(ratio)=   2.01516

--- Pseudopotential description ------------------------------------------------
- pspini: atom type   1  psp file is /scratch/users/j/a/jabreu/pseudos/PBEsol/Cs.psp8
- pspatm: opening atomic psp file    /scratch/users/j/a/jabreu/pseudos/PBEsol/Cs.psp8
- Cs    ONCVPSP-3.3.0  r_core=   2.27353   1.85623   2.01788   1.90105
- 55.00000   9.00000    180112                znucl, zion, pspdat
    8 -116133    3    4       600   0.00000   pspcod,pspxc,lmax,lloc,mmax,r2well
    5.99000000000000    5.00000000000000    0.00000000000000   rchrg,fchrg,qchrg
     nproj     2     2     2     2
     extension_switch     1
  pspatm : epsatm=   22.12462445
         --- l  ekb(1:nproj) -->
             0    6.214110    0.767882
             1    6.311966    0.793598
             2    3.769790    0.913105
             3   -9.247129   -2.432478
 pspatm: atomic psp has been read  and splines computed

- pspini: atom type   2  psp file is /scratch/users/j/a/jabreu/pseudos/PBEsol/Bi.psp8
- pspatm: opening atomic psp file    /scratch/users/j/a/jabreu/pseudos/PBEsol/Bi.psp8
- Bi    ONCVPSP-3.3.0  r_core=   2.42776   2.51622   2.10397
- 83.00000  15.00000    180112                znucl, zion, pspdat
    8 -116133    2    4       600   0.00000   pspcod,pspxc,lmax,lloc,mmax,r2well
    5.99000000000000    6.00000000000000    0.00000000000000   rchrg,fchrg,qchrg
     nproj     2     2     2
     extension_switch     1
  pspatm : epsatm=   42.90078186
         --- l  ekb(1:nproj) -->
             0    6.017688    0.961606
             1    4.379371    0.528498
             2   -3.458170   -0.753782
 pspatm: atomic psp has been read  and splines computed

- pspini: atom type   3  psp file is /scratch/users/j/a/jabreu/pseudos/PBEsol/F.psp8
- pspatm: opening atomic psp file    /scratch/users/j/a/jabreu/pseudos/PBEsol/F.psp8
- F     ONCVPSP-3.3.0  r_core=   1.30942   1.45782   1.60379
-  9.00000   7.00000    180112                znucl, zion, pspdat
    8 -116133    2    4       600   0.00000   pspcod,pspxc,lmax,lloc,mmax,r2well
    5.99000000000000    2.50000000000000    0.00000000000000   rchrg,fchrg,qchrg
     nproj     2     2     1
     extension_switch     1
  pspatm : epsatm=    4.89824824
         --- l  ekb(1:nproj) -->
             0    6.506434    1.065875
             1   -3.978753   -1.295852
             2   -2.394754
 pspatm: atomic psp has been read  and splines computed

   6.23138312E+03                                ecore*ucvol(ha*bohr**3)

-inwffil : will read wavefunctions from disk file /scratch/users/j/a/jabreu/flow_simple_8atoms/flow/w445/t1/indata/in_WFK

 ==>  initialize data related to q vector <==

 The list of irreducible perturbations for this q vector is:
    1)    idir= 1    ipert=   9
    2)    idir= 2    ipert=   9
    3)    idir= 3    ipert=   9

 Perturbation wavevector (in red.coord.)   0.000000  0.000000  0.000000
 Perturbation : derivative vs k along direction   1

 dfpt_looppert : COMMENT -
  In a d/dk calculation, iscf is set to -3 automatically.
 The set of symmetries contains only one element for this perturbation.
 symkpt : not enough symmetry to change the number of k points.

[...]

 Initialisation of the first-order wave-functions :
  ireadwf=   0

--- !BeginCycle
iteration_state: {dtset: 1, }
solver: {iscf: 7, nstep: 2000, nline: 4, wfoptalg: 0, }
tolerances: {tolwfr: 1.00E-20, }
...

     iter   2DEtotal(Ha)        deltaE(Ha) residm    vres2
-ETOT  1  -34.652247037058     -3.465E+01 5.342E-02 0.000E+00
 ETOT  2  -34.674218926299     -2.197E-02 5.770E-03 0.000E+00
 ETOT  3  -34.674358526547     -1.396E-04 3.565E-04 0.000E+00
 ETOT  4  -34.674361261446     -2.735E-06 5.185E-05 0.000E+00
 ETOT  5  -34.674361334041     -7.260E-08 1.688E-05 0.000E+00
 ETOT  6  -34.674361336495     -2.453E-09 2.308E-06 0.000E+00
 ETOT  7  -34.674361336585     -9.058E-11 7.845E-07 0.000E+00
 ETOT  8  -34.674361336589     -3.666E-12 1.067E-07 0.000E+00
 ETOT  9  -34.674361336589     -1.421E-13 3.707E-08 0.000E+00
 ETOT 10  -34.674361336589      0.000E+00 5.060E-09 0.000E+00
 ETOT 11  -34.674361336589      7.105E-15 1.775E-09 0.000E+00
 ETOT 12  -34.674361336589     -2.842E-14 2.433E-10 0.000E+00
 ETOT 13  -34.674361336589     -7.105E-15 8.577E-11 0.000E+00
 ETOT 14  -34.674361336589      1.421E-14 1.180E-11 0.000E+00
 ETOT 15  -34.674361336589      0.000E+00 4.168E-12 0.000E+00
 ETOT 16  -34.674361336589      1.421E-14 5.759E-13 0.000E+00
 ETOT 17  -34.674361336589      0.000E+00 2.035E-13 0.000E+00
 ETOT 18  -34.674361336589      1.421E-14 2.823E-14 0.000E+00
 ETOT 19  -34.674361336589     -2.842E-14 9.969E-15 0.000E+00
 ETOT 20  -34.674361336589      0.000E+00 1.388E-15 0.000E+00
 ETOT 21  -34.674361336589      0.000E+00 4.898E-16 0.000E+00
 ETOT 22  -34.674361336589      0.000E+00 6.844E-17 0.000E+00
 ETOT 23  -34.674361336589      0.000E+00 2.413E-17 0.000E+00
 ETOT 24  -34.674361336589      0.000E+00 3.382E-18 0.000E+00
 ETOT 25  -34.674361336589      0.000E+00 1.190E-18 0.000E+00
 ETOT 26  -34.674361336589     -7.105E-15 1.673E-19 0.000E+00
 ETOT 27  -34.674361336589      0.000E+00 5.877E-20 0.000E+00
 ETOT 28  -34.674361336589     -7.105E-15 9.889E-21 0.000E+00

 At SCF step   28   max residual=  9.89E-21 < tolwfr=  1.00E-20 =>converged.

 ----iterations are completed or convergence reached----

 dfpt_looppert: DFPT cycle converged with prtwf=-1. Will skip output of the 1st-order WFK file.
 dfpt_looppert : ek2=    5.1513487417E+01
          f-sum rule ratio=    1.0023729879E+00
 prteigrs : about to open file /scratch/users/j/a/jabreu/flow_simple_8atoms/flow/w445/t1/tmpdata/tmp_1WF1_EIG
 Expectation of eigenvalue derivatives (hartree) for nkpt=   2  k points:
  (in case of degenerate eigenvalues, averaged derivative)
 kpt#   1, nband= 42, wtk=  0.50000, kpt=  0.5000  0.0000  0.0000 (reduced coord)
  -0.00000    0.00000    0.00000   -0.00000    0.00000   -0.00000   -0.00000    0.00000
  -0.00000   -0.00000    0.00000   -0.00000   -0.00000   -0.00000   -0.00000   -0.00000
  -0.00000    0.00000   -0.00000    0.00000    0.00000   -0.00000   -0.00000   -0.00000
   0.00000    0.00000    0.00000    0.00000    0.00000   -0.00000    0.00000    0.00000
   0.00000   -0.00000    0.00000    0.00000    0.00000   -0.00000    0.00000    0.00000
   0.00000    0.00000
 prteigrs : prtvol=0 or 1, do not print more k-points.

 Eight components of 2nd-order total energy (hartree) are
 1,2,3: 0th-order hamiltonian combined with 1st-order wavefunctions
     kin0=   4.27644176E+01 eigvalue=   4.92785449E+00  local=  -2.07893395E+01
 4,5,6: 1st-order hamiltonian combined with 1st and 0th-order wfs
     kin1=  -5.16357283E+01  Hartree=   0.00000000E+00     xc=   0.00000000E+00
 7,8,9: eventually, occupation + non-local contributions
    edocc=   5.07011732E+00     enl0=   2.70131141E+00   enl1=  -1.77129944E+01
 1-9 gives the relaxation energy (to be shifted if some occ is /=2.0)
   erelax=  -3.46743613E+01
  No Ewald or frozen-wf contrib.: the relaxation energy is the total one
 2DEtotal=   -0.3467436134E+02 Ha. Also 2DEtotal=   -0.943537356430E+03 eV
    (  non-var. 2DEtotal :   -3.4674361337E+01 Ha)

 Perturbation wavevector (in red.coord.)   0.000000  0.000000  0.000000
 Perturbation : derivative vs k along direction   2
 The set of symmetries contains only one element for this perturbation.
 symkpt : not enough symmetry to change the number of k points.

[...]

 Perturbation wavevector (in red.coord.)   0.000000  0.000000  0.000000
 Perturbation : derivative vs k along direction   3
 The set of symmetries contains only one element for this perturbation.
 symkpt : not enough symmetry to change the number of k points.

-inwffil : will read wavefunctions from disk file /scratch/users/j/a/jabreu/flow_simple_8atoms/flow/w445/t1/indata/in_WFK

 Initialisation of the first-order wave-functions :
  ireadwf=   0

--- !BeginCycle
iteration_state: {dtset: 1, }
solver: {iscf: 7, nstep: 2000, nline: 4, wfoptalg: 0, }
tolerances: {tolwfr: 1.00E-20, }
...

     iter   2DEtotal(Ha)        deltaE(Ha) residm    vres2
-ETOT  1  -34.713886256759     -3.471E+01 6.818E-02 0.000E+00
 ETOT  2  -34.735680629932     -2.179E-02 9.254E-03 0.000E+00
 ETOT  3  -34.735813287161     -1.327E-04 9.784E-04 0.000E+00
 ETOT  4  -34.735816351214     -3.064E-06 3.336E-04 0.000E+00
 ETOT  5  -34.735816455166     -1.040E-07 4.197E-05 0.000E+00
 ETOT  6  -34.735816459739     -4.572E-09 1.469E-05 0.000E+00
 ETOT  7  -34.735816459955     -2.162E-10 1.863E-06 0.000E+00
 ETOT  8  -34.735816459966     -1.079E-11 6.671E-07 0.000E+00
 ETOT  9  -34.735816459966     -5.471E-13 8.437E-08 0.000E+00
 ETOT 10  -34.735816459966     -4.263E-14 3.063E-08 0.000E+00
 ETOT 11  -34.735816459966      7.105E-15 3.871E-09 0.000E+00
 ETOT 12  -34.735816459966     -7.105E-15 1.419E-09 0.000E+00
 ETOT 13  -34.735816459966     -7.105E-15 1.792E-10 0.000E+00
 ETOT 14  -34.735816459966      0.000E+00 6.619E-11 0.000E+00
 ETOT 15  -34.735816459966      0.000E+00 8.350E-12 0.000E+00
 ETOT 16  -34.735816459966     -1.421E-14 3.104E-12 0.000E+00
 ETOT 17  -34.735816459966      1.421E-14 3.910E-13 0.000E+00
 ETOT 18  -34.735816459966     -1.421E-14 1.461E-13 0.000E+00
 ETOT 19  -34.735816459966      7.105E-15 1.838E-14 0.000E+00
 ETOT 20  -34.735816459966      7.105E-15 6.903E-15 0.000E+00
 ETOT 21  -34.735816459966     -7.105E-15 8.671E-16 0.000E+00
 ETOT 22  -34.735816459966      7.105E-15 3.269E-16 0.000E+00
 ETOT 23  -34.735816459966      1.421E-14 4.102E-17 0.000E+00
 ETOT 24  -34.735816459966      0.000E+00 1.552E-17 0.000E+00
 ETOT 25  -34.735816459966     -1.421E-14 1.945E-18 0.000E+00
 ETOT 26  -34.735816459966      1.421E-14 7.382E-19 0.000E+00
 ETOT 27  -34.735816459966     -7.105E-15 9.247E-20 0.000E+00
 ETOT 28  -34.735816459966      7.105E-15 3.515E-20 0.000E+00
 ETOT 29  -34.735816459966      0.000E+00 9.850E-21 0.000E+00

 At SCF step   29   max residual=  9.85E-21 < tolwfr=  1.00E-20 =>converged.

 ----iterations are completed or convergence reached----

 dfpt_looppert: DFPT cycle converged with prtwf=-1. Will skip output of the 1st-order WFK file.
 dfpt_looppert : ek2=    5.1513487417E+01
          f-sum rule ratio=    1.0067269036E+00
 prteigrs : about to open file /scratch/users/j/a/jabreu/flow_simple_8atoms/flow/w445/t1/tmpdata/tmp_1WF1_EIG
 Expectation of eigenvalue derivatives (hartree) for nkpt=   2  k points:
  (in case of degenerate eigenvalues, averaged derivative)
 kpt#   1, nband= 42, wtk=  0.50000, kpt=  0.5000  0.0000  0.0000 (reduced coord)
  -0.00000   -0.00000    0.00000    0.00000    0.00000    0.00000    0.00000    0.00000
  -0.00000   -0.00000    0.00000   -0.00000    0.00000   -0.00000    0.00000   -0.00000
  -0.00000    0.00000    0.00000   -0.00000    0.00000    0.00000   -0.00000   -0.00000
   0.00000   -0.00000   -0.00000    0.00000   -0.00000   -0.00000    0.00000    0.00000
  -0.00000   -0.00000    0.00000    0.00000    0.00000   -0.00000    0.00000    0.00000
  -0.00000    0.00000
 prteigrs : prtvol=0 or 1, do not print more k-points.

 Eight components of 2nd-order total energy (hartree) are
 1,2,3: 0th-order hamiltonian combined with 1st-order wavefunctions
     kin0=   4.15026141E+01 eigvalue=   4.69935354E+00  local=  -1.97495467E+01
 4,5,6: 1st-order hamiltonian combined with 1st and 0th-order wfs
     kin1=  -5.18600137E+01  Hartree=   0.00000000E+00     xc=   0.00000000E+00
 7,8,9: eventually, occupation + non-local contributions
    edocc=   5.78168290E+00     enl0=   2.50171258E+00   enl1=  -1.76116192E+01
 1-9 gives the relaxation energy (to be shifted if some occ is /=2.0)
   erelax=  -3.47358165E+01
  No Ewald or frozen-wf contrib.: the relaxation energy is the total one
 2DEtotal=   -0.3473581646E+02 Ha. Also 2DEtotal=   -0.945209635383E+03 eV
    (  non-var. 2DEtotal :   -3.4735816460E+01 Ha)

 CALCULATION OF EFFECTIVE MASSES
 NOTE : Additional infos (eff. mass eigenvalues, eigenvectors and, if degenerate, average mass) are available in stdout.

 K-point ( 0.500, 0.000,-0.000) | band =    33
 Effective mass tensor:
            -43.3833644772             -7.8281035861              6.2562610170
             -7.8281035861            -10.4870454243             -0.5025749443
              6.2562610170             -0.5025749443             -9.5099675812
 Effective mass tensor eigenvalues:
            -46.1339703203            -10.4693616799             -6.7770454825
 Angular average effective mass 1/(<1/m>)= -11.3314561200
 Angular average effective mass for Frohlich model (<m**0.5>)**2= -13.0564396414
 Effective masses along directions: (cart. coord. / red. coord. -> eff. mass)
    1:   1.000000  0.000000  0.000000 /   0.991855 -0.127374  0.000000 -> -32.9041401782
    2:   0.000000  1.000000  0.000000 /   0.000000  1.000000  0.000000 ->  -8.7653257051
    3:   0.000000  0.000000  1.000000 /  -0.112359 -0.112359  0.987295 ->  -8.3144504910
    4:   0.577350  0.577350  0.577350 /   0.576652  0.487625  0.655511 -> -13.8511942855
    5:   0.000000  0.707107  0.707107 /  -0.085483  0.654592  0.751134 -> -10.4650511187
    6:   0.707107  0.000000  0.707107 /   0.649912 -0.178337  0.738790 -> -10.3543311065
    7:   0.707107  0.707107  0.000000 /   0.756949  0.653474  0.000000 -> -20.6038219485

 K-point ( 0.000, 0.000, 0.000) | band =    34
 Effective mass tensor:
              1.2111830060              0.1165390935              0.0913586949
              0.1165390935              1.2413648198              0.1039517225
              0.0913586949              0.1039517225              1.1902528355
 Effective mass tensor eigenvalues:
              1.1087617844              1.1087618051              1.4252770718
 Angular average effective mass 1/(<1/m>)=   1.1973983300
 Angular average effective mass for Frohlich model (<m**0.5>)**2=   1.2022096880
 Effective masses along directions: (cart. coord. / red. coord. -> eff. mass)
    1:   1.000000  0.000000  0.000000 /   0.991855 -0.127374  0.000000 ->   1.1946069209
    2:   0.000000  1.000000  0.000000 /   0.000000  1.000000  0.000000 ->   1.2224990268
    3:   0.000000  0.000000  1.000000 /  -0.112359 -0.112359  0.987295 ->   1.1760002898
    4:   0.577350  0.577350  0.577350 /   0.576652  0.487625  0.655511 ->   1.4212897976
    5:   0.000000  0.707107  0.707107 /  -0.085483  0.654592  0.751134 ->   1.3014255001
    6:   0.707107  0.000000  0.707107 /   0.649912 -0.178337  0.738790 ->   1.2724161002
    7:   0.707107  0.707107  0.000000 /   0.756949  0.653474  0.000000 ->   1.3266105247

 END OF EFFECTIVE MASSES SECTION

 ---- first-order wavefunction calculations are completed ----

 Total localisation tensor (bohr^2) in cartesian coordinates
  WARNING : still subject to testing - especially symmetries.
      direction              matrix element
   alpha     beta       real part   imaginary part
     1        1       0.6190970811    0.0000000000
     1        2      -0.0788396558    0.0000000000
     1        3      -0.0606413003    0.0000000000
     2        1      -0.0788396558    0.0000000000
     2        2       0.6088369449    0.0000000000
     2        3      -0.0703241862    0.0000000000
     3        1      -0.0606413003    0.0000000000
     3        2      -0.0703241862    0.0000000000
     3        3       0.6434570882    0.0000000000

 respfn : d/dk was computed, but no 2DTE, so no DDB output.

== END DATASET(S) ==============================================================

 -outvars: echo values of variables after computation  --------
            acell      1.0000000000E+00  1.0000000000E+00  1.0000000000E+00 Bohr
              amu      1.32905430E+02  2.08980370E+02  1.89984032E+01
             ecut      4.20000000E+01 Hartree
           etotal     -3.4735816460E+01
            fcart      0.0000000000E+00  0.0000000000E+00  0.0000000000E+00
                       0.0000000000E+00  0.0000000000E+00  0.0000000000E+00
                       0.0000000000E+00  0.0000000000E+00  0.0000000000E+00
                       0.0000000000E+00  0.0000000000E+00  0.0000000000E+00
                       0.0000000000E+00  0.0000000000E+00  0.0000000000E+00
                       0.0000000000E+00  0.0000000000E+00  0.0000000000E+00
                       0.0000000000E+00  0.0000000000E+00  0.0000000000E+00
                       0.0000000000E+00  0.0000000000E+00  0.0000000000E+00
-          fftalg         512
           irdden           1
           irdwfk           1
           istwfk        1    1
              ixc     -116133
              kpt      5.00000000E-01  0.00000000E+00 -1.38777878E-17
                       0.00000000E+00  0.00000000E+00  0.00000000E+00
           kptopt           0
P           mkmem           2
P          mkqmem           2
P          mk1mem           2
            natom           8
            nband          42
           nbdbuf           4
            ngfft          60      60      60
             nkpt           2
            nstep        2000
             nsym           6
           ntypat           3
              occ      2.000000  2.000000  2.000000  2.000000  2.000000  2.000000
                       2.000000  2.000000  2.000000  2.000000  2.000000  2.000000
                       2.000000  2.000000  2.000000  2.000000  2.000000  2.000000
                       2.000000  2.000000  2.000000  2.000000  2.000000  2.000000
                       2.000000  2.000000  2.000000  2.000000  2.000000  2.000000
                       2.000000  2.000000  2.000000  0.000000  0.000000  0.000000
                       0.000000  0.000000  0.000000  0.000000  0.000000  0.000000
        optdriver           1
            prtwf          -1
            rfdir           1       1       1
           rfelfd           2
            rprim      1.0141853750E+01  0.0000000000E+00 -1.1617430288E+00
                      -1.3024170690E+00  1.0057877871E+01 -1.1617430288E+00
                       0.0000000000E+00  0.0000000000E+00  1.0208175369E+01
          spgroup         148
           strten      0.0000000000E+00  0.0000000000E+00  0.0000000000E+00
                       0.0000000000E+00  0.0000000000E+00  0.0000000000E+00
           symrel      1  0  0   0  1  0   0  0  1      -1  0  0   0 -1  0   0  0 -1
                       0  0  1   1  0  0   0  1  0       0  0 -1  -1  0  0   0 -1  0
                       0  1  0   0  0  1   1  0  0       0 -1  0   0  0 -1  -1  0  0
           tolwfr      1.00000000E-20
            typat      1  2  3  3  3  3  3  3
           useylm           1
              wtk        0.50000    0.50000
           xangst      2.3388142143E+00  2.6611998681E+00  2.0861989401E+00
                       0.0000000000E+00  0.0000000000E+00  0.0000000000E+00
                       3.6473945221E+00  4.1913365682E-01  3.8081424851E+00
                       3.7773997682E+00  3.6710187700E+00 -4.8577895235E-01
                       4.8011358930E+00  1.1048450268E+00  9.8208642376E-01
                       9.0022866028E-01  1.6513809661E+00  4.6581768326E+00
                       1.0302339064E+00  4.9032660793E+00  3.6425539510E-01
                      -1.2350746444E-01  4.2175547093E+00  3.1903114565E+00
            xcart      4.4197183406E+00  5.0289389355E+00  3.9423446555E+00
                       0.0000000000E+00  0.0000000000E+00  0.0000000000E+00
                       6.8925767454E+00  7.9204782447E-01  7.1963463719E+00
                       7.1382510564E+00  6.9372201040E+00 -9.1798918105E-01
                       9.0728319645E+00  2.0878545200E+00  1.8558743797E+00
                       1.7011856249E+00  3.1206577671E+00  8.8026784922E+00
                       1.9468599359E+00  9.2658300466E+00  6.8834293917E-01
                      -2.3339528317E-01  7.9700233511E+00  6.0288149314E+00
             xred      5.0000000000E-01  5.0000000000E-01  5.0000000000E-01
                       0.0000000000E+00  0.0000000000E+00  0.0000000000E+00
                       6.8973000000E-01  7.8749000000E-02  7.9241600000E-01
                       7.9241600000E-01  6.8973000000E-01  7.8749000000E-02
                       9.2125100000E-01  2.0758400000E-01  3.1027000000E-01
                       2.0758400000E-01  3.1027000000E-01  9.2125100000E-01
                       3.1027000000E-01  9.2125100000E-01  2.0758400000E-01
                       7.8749000000E-02  7.9241600000E-01  6.8973000000E-01
            znucl       55.00000   83.00000    9.00000

- Timing analysis has been suppressed with timopt=0

 Suggested references for the acknowledgment of ABINIT usage.

 Calculation completed.
.Delivered  14 WARNINGs and   9 COMMENTs to log file.