.Version 9.5.1 of ABINIT

 ABINIT is a project of the Universite Catholique de Louvain,
 Corning Inc. and other collaborators, see ~abinit/doc/developers/contributors.txt .
 acknowledgments of the ABINIT effort.

.Starting date : Sun 25 Apr 2021.
- ( at 17h16 )

- input  file    -> /scratch/users/j/a/jabreu/flow_simple2/flow/w162/t1/run.abi
- output file    -> /scratch/users/j/a/jabreu/flow_simple2/flow/w162/t1/run.abo
- root for input  files -> /scratch/users/j/a/jabreu/flow_simple2/flow/w162/t1/indata/in
- root for output files -> /scratch/users/j/a/jabreu/flow_simple2/flow/w162/t1/outdata/out

 Symmetries : space group F-4 3 m (#216); Bravais cF (face-center cubic)
     intxc =       0      iscf =       7    lmnmax =      18     lnmax =       6
     mgfft =      45  mpssoang =       3    mqgrid =    3001     natom =       2
  nloc_mem =       1    nspden =       1   nspinor =       1    nsppol =       1
      nsym =      24    n1xccc =    2501    ntypat =       2    occopt =       1
   xclevel =       2
-    mband =          22        mffmem =           1         mkmem =           1
-   mkqmem =           1        mk1mem =           1           mpw =        3719
      nfft =       91125          nkpt =           1
  Rough estimation (10% accuracy) of disk space for files :

------------- Echo of variables that govern the present computation ------------
-
- outvars: echo of selected default values
-   iomode0 =  0 , fftalg0 =512 , wfoptalg0 =  0
-
- outvars: echo of global parameters not present in the input file
-  max_nthreads =    0
-
 -outvars: echo values of preprocessed input variables --------
            acell      1.0000000000E+00  1.0000000000E+00  1.0000000000E+00 Bohr
              amu      6.35460000E+01  3.54527000E+01
             ecut      4.60000000E+01 Hartree
-          fftalg         512
           irdden           1
           irdwfk           1
           istwfk        1
              ixc     -116133
           kptopt           0
P           mkmem           1
P          mkqmem           1
P          mk1mem           1
            natom           2
            nband          22
           nbdbuf           4
            ngfft          45      45      45
             nkpt           1
            nstep         100
             nsym          24
           ntypat           2
              occ      2.000000  2.000000  2.000000  2.000000  2.000000  2.000000
                       2.000000  2.000000  2.000000  2.000000  2.000000  2.000000
                       2.000000  0.000000  0.000000  0.000000  0.000000  0.000000
                       0.000000  0.000000  0.000000  0.000000
        optdriver           1
            prtwf          -1
            rfdir           1       1       1
           rfelfd           2
            rprim      6.1202843389E+00  0.0000000000E+00  3.5335478106E+00
                       2.0400947796E+00  5.7702594118E+00  3.5335478106E+00
                       0.0000000000E+00  0.0000000000E+00  7.0670956212E+00
          spgroup         216
           symrel      1  0  0   0  1  0   0  0  1       0 -1  1   0 -1  0   1 -1  0
                      -1  0  0  -1  0  1  -1  1  0       0  1 -1   1  0 -1   0  0 -1
                      -1  0  0  -1  1  0  -1  0  1       0 -1  1   1 -1  0   0 -1  0
                       1  0  0   0  0  1   0  1  0       0  1 -1   0  0 -1   1  0 -1
                      -1  0  1  -1  1  0  -1  0  0       0 -1  0   1 -1  0   0 -1  1
                       1  0 -1   0  0 -1   0  1 -1       0  1  0   0  0  1   1  0  0
                       1  0 -1   0  1 -1   0  0 -1       0 -1  0   0 -1  1   1 -1  0
                      -1  0  1  -1  0  0  -1  1  0       0  1  0   1  0  0   0  0  1
                       0  0 -1   0  1 -1   1  0 -1       1 -1  0   0 -1  1   0 -1  0
                       0  0  1   1  0  0   0  1  0      -1  1  0  -1  0  0  -1  0  1
                       0  0  1   0  1  0   1  0  0       1 -1  0   0 -1  0   0 -1  1
                       0  0 -1   1  0 -1   0  1 -1      -1  1  0  -1  0  1  -1  0  0
           tolwfr      1.00000000E-20
            typat      1  2
           useylm           1
           xangst      3.2387149822E+00  2.2901173263E+00  5.6096189005E+00
                       2.1591433215E+00  1.5267448842E+00  3.7397459337E+00
            xcart      6.1202843389E+00  4.3276945589E+00  1.0600643432E+01
                       4.0801895592E+00  2.8851297059E+00  7.0670956212E+00
             xred      7.5000000000E-01  7.5000000000E-01  7.5000000000E-01
                       5.0000000000E-01  5.0000000000E-01  5.0000000000E-01
            znucl       29.00000   17.00000

 chkinp: Checking input parameters for consistency.

== DATASET  1 ==================================================================
-   mpi_nproc: 1, omp_nthreads: -1 (-1 if OMP is not activated)

--- !DatasetInfo
iteration_state: {dtset: 1, }
dimensions: {natom: 2, nkpt: 1, mband: 22, nsppol: 1, nspinor: 1, nspden: 1, mpw: 3719, }
cutoff_energies: {ecut:  46.0, pawecutdg:  -1.0, }
electrons: {nelect:   2.60000000E+01, charge:   0.00000000E+00, occopt:   1.00000000E+00, tsmear:   1.00000000E-02, }
meta: {optdriver: 1, rfelfd: 2, }
...

 Real(R)+Recip(G) space primitive vectors, cartesian coordinates (Bohr,Bohr^-1):
 R(1)=  6.1202843  0.0000000  3.5335478  G(1)=  0.1633911 -0.0577675  0.0000000
 R(2)=  2.0400948  5.7702594  3.5335478  G(2)=  0.0000000  0.1733024  0.0000000
 R(3)=  0.0000000  0.0000000  7.0670956  G(3)= -0.0816956 -0.0577675  0.1415008
 Unit cell volume ucvol=  2.4957892E+02 bohr^3
 Angles (23,13,12)=  6.00000000E+01  6.00000000E+01  6.00000000E+01 degrees

 getcut: wavevector=  0.0000  0.0000  0.0000  ngfft=  45  45  45
         ecut(hartree)=     46.000   => boxcut(ratio)=   2.03924

--- Pseudopotential description ------------------------------------------------
- pspini: atom type   1  psp file is /scratch/users/j/a/jabreu/pseudos/PBEsol/Cu.psp8
- pspatm: opening atomic psp file    /scratch/users/j/a/jabreu/pseudos/PBEsol/Cu.psp8
- Cu    ONCVPSP-3.3.0  r_core=   1.26204   1.45626   1.76249
- 29.00000  19.00000    180112                znucl, zion, pspdat
    8 -116133    2    4       600   0.00000   pspcod,pspxc,lmax,lloc,mmax,r2well
    5.99000000000000    3.50000000000000    0.00000000000000   rchrg,fchrg,qchrg
     nproj     2     2     2
     extension_switch     1
  pspatm : epsatm=   21.63488701
         --- l  ekb(1:nproj) -->
             0    5.008230   -0.401634
             1   -3.496700   -0.765945
             2   -6.895851   -2.521180
 pspatm: atomic psp has been read  and splines computed

- pspini: atom type   2  psp file is /scratch/users/j/a/jabreu/pseudos/PBEsol/Cl.psp8
- pspatm: opening atomic psp file    /scratch/users/j/a/jabreu/pseudos/PBEsol/Cl.psp8
- Cl    ONCVPSP-3.3.0  r_core=   1.56009   1.35202   1.75774
- 17.00000   7.00000    180112                znucl, zion, pspdat
    8 -116133    2    4       600   0.00000   pspcod,pspxc,lmax,lloc,mmax,r2well
    5.99000000000000    8.00000000000000    0.00000000000000   rchrg,fchrg,qchrg
     nproj     2     2     2
     extension_switch     1
  pspatm : epsatm=    8.95520722
         --- l  ekb(1:nproj) -->
             0    8.193503    0.707970
             1    3.869736    1.114731
             2   -2.915303   -0.810552
 pspatm: atomic psp has been read  and splines computed

   7.95342450E+02                                ecore*ucvol(ha*bohr**3)

-inwffil : will read wavefunctions from disk file /scratch/users/j/a/jabreu/flow_simple2/flow/w162/t1/indata/in_WFK

 ==>  initialize data related to q vector <==

 The list of irreducible perturbations for this q vector is:
    1)    idir= 1    ipert=   3
    2)    idir= 2    ipert=   3
    3)    idir= 3    ipert=   3

 Perturbation wavevector (in red.coord.)   0.000000  0.000000  0.000000
 Perturbation : derivative vs k along direction   1

 dfpt_looppert : COMMENT -
  In a d/dk calculation, iscf is set to -3 automatically.
 The set of symmetries contains only one element for this perturbation.
 symkpt : not enough symmetry to change the number of k points.

[...]

 Initialisation of the first-order wave-functions :
  ireadwf=   0

--- !BeginCycle
iteration_state: {dtset: 1, }
solver: {iscf: 7, nstep: 100, nline: 4, wfoptalg: 0, }
tolerances: {tolwfr: 1.00E-20, }
...

     iter   2DEtotal(Ha)        deltaE(Ha) residm    vres2
-ETOT  1  -47.387140176419     -4.739E+01 5.255E-02 0.000E+00
 ETOT  2  -47.439389040438     -5.225E-02 6.180E-04 0.000E+00
 ETOT  3  -47.439700974061     -3.119E-04 1.169E-05 0.000E+00
 ETOT  4  -47.439704823402     -3.849E-06 7.658E-08 0.000E+00
 ETOT  5  -47.439704885607     -6.221E-08 9.602E-09 0.000E+00
 ETOT  6  -47.439704886719     -1.112E-09 3.631E-11 0.000E+00
 ETOT  7  -47.439704886740     -2.090E-11 1.153E-11 0.000E+00
 ETOT  8  -47.439704886740     -4.050E-13 5.297E-14 0.000E+00
 ETOT  9  -47.439704886740     -4.263E-14 1.503E-14 0.000E+00
 ETOT 10  -47.439704886740     -1.421E-14 1.192E-16 0.000E+00
 ETOT 11  -47.439704886740      7.105E-15 3.378E-17 0.000E+00
 ETOT 12  -47.439704886740      4.974E-14 2.808E-19 0.000E+00
 ETOT 13  -47.439704886740      1.421E-14 7.988E-20 0.000E+00
 ETOT 14  -47.439704886740      1.421E-14 9.976E-21 0.000E+00

 At SCF step   14   max residual=  9.98E-21 < tolwfr=  1.00E-20 =>converged.

 ----iterations are completed or convergence reached----

 dfpt_looppert: DFPT cycle converged with prtwf=-1. Will skip output of the 1st-order WFK file.
 dfpt_looppert : ek2=    6.1655582373E+01
          f-sum rule ratio=    1.5018224093E+00
 prteigrs : about to open file /scratch/users/j/a/jabreu/flow_simple2/flow/w162/t1/tmpdata/tmp_1WF1_EIG
 Expectation of eigenvalue derivatives (hartree) for nkpt=   1  k points:
  (in case of degenerate eigenvalues, averaged derivative)
 kpt#   1, nband= 22, wtk=  1.00000, kpt=  0.0000  0.0000  0.0000 (reduced coord)
   0.00000    0.00000    0.00000    0.00000   -0.00000   -0.00000   -0.00000   -0.00000
  -0.00000   -0.00000    0.00000    0.00000    0.00000    0.00000   -0.00000   -0.00000
  -0.00000    0.00000    0.00000   -0.00000   -0.00000   -0.00000

 Eight components of 2nd-order total energy (hartree) are
 1,2,3: 0th-order hamiltonian combined with 1st-order wavefunctions
     kin0=   4.04310161E+01 eigvalue=  -4.25617934E-01  local=  -1.48972804E+01
 4,5,6: 1st-order hamiltonian combined with 1st and 0th-order wfs
     kin1=  -9.25957353E+01  Hartree=   0.00000000E+00     xc=   0.00000000E+00
 7,8,9: eventually, occupation + non-local contributions
    edocc=   2.22110940E+01     enl0=   1.20493054E-01   enl1=  -2.28367451E+00
 1-9 gives the relaxation energy (to be shifted if some occ is /=2.0)
   erelax=  -4.74397049E+01
  No Ewald or frozen-wf contrib.: the relaxation energy is the total one
 2DEtotal=   -0.4743970489E+02 Ha. Also 2DEtotal=   -0.129090001988E+04 eV
    (  non-var. 2DEtotal :   -4.7439704887E+01 Ha)

 Perturbation wavevector (in red.coord.)   0.000000  0.000000  0.000000
 Perturbation : derivative vs k along direction   2
 The set of symmetries contains only one element for this perturbation.
 symkpt : not enough symmetry to change the number of k points.

[...]

 Perturbation wavevector (in red.coord.)   0.000000  0.000000  0.000000
 Perturbation : derivative vs k along direction   3
 The set of symmetries contains only one element for this perturbation.
 symkpt : not enough symmetry to change the number of k points.

-inwffil : will read wavefunctions from disk file /scratch/users/j/a/jabreu/flow_simple2/flow/w162/t1/indata/in_WFK

 Initialisation of the first-order wave-functions :
  ireadwf=   0

--- !BeginCycle
iteration_state: {dtset: 1, }
solver: {iscf: 7, nstep: 100, nline: 4, wfoptalg: 0, }
tolerances: {tolwfr: 1.00E-20, }
...

     iter   2DEtotal(Ha)        deltaE(Ha) residm    vres2
-ETOT  1  -47.400980979323     -4.740E+01 1.387E-01 0.000E+00
 ETOT  2  -47.439477853341     -3.850E-02 4.460E-04 0.000E+00
 ETOT  3  -47.439702170847     -2.243E-04 9.358E-06 0.000E+00
 ETOT  4  -47.439704831399     -2.661E-06 4.770E-08 0.000E+00
 ETOT  5  -47.439704872160     -4.076E-08 7.619E-09 0.000E+00
 ETOT  6  -47.439704872848     -6.876E-10 4.052E-11 0.000E+00
 ETOT  7  -47.439704872860     -1.218E-11 1.264E-11 0.000E+00
 ETOT  8  -47.439704872860     -2.132E-13 7.189E-14 0.000E+00
 ETOT  9  -47.439704872860     -2.132E-14 2.540E-14 0.000E+00
 ETOT 10  -47.439704872860      1.421E-14 1.969E-16 0.000E+00
 ETOT 11  -47.439704872860      7.105E-15 6.693E-17 0.000E+00
 ETOT 12  -47.439704872860      2.842E-14 5.342E-19 0.000E+00
 ETOT 13  -47.439704872860     -7.105E-15 1.779E-19 0.000E+00
 ETOT 14  -47.439704872860     -1.421E-14 8.867E-21 0.000E+00

 At SCF step   14   max residual=  8.87E-21 < tolwfr=  1.00E-20 =>converged.

 ----iterations are completed or convergence reached----

 dfpt_looppert: DFPT cycle converged with prtwf=-1. Will skip output of the 1st-order WFK file.
 dfpt_looppert : ek2=    6.1655582373E+01
          f-sum rule ratio=    1.5018224088E+00
 prteigrs : about to open file /scratch/users/j/a/jabreu/flow_simple2/flow/w162/t1/tmpdata/tmp_1WF1_EIG
 Expectation of eigenvalue derivatives (hartree) for nkpt=   1  k points:
  (in case of degenerate eigenvalues, averaged derivative)
 kpt#   1, nband= 22, wtk=  1.00000, kpt=  0.0000  0.0000  0.0000 (reduced coord)
   0.00000   -0.00000   -0.00000   -0.00000   -0.00000    0.00000    0.00000    0.00000
   0.00000    0.00000   -0.00000   -0.00000   -0.00000   -0.00000    0.00000    0.00000
   0.00000    0.00000    0.00000    0.00000   -0.00000   -0.00000

 Eight components of 2nd-order total energy (hartree) are
 1,2,3: 0th-order hamiltonian combined with 1st-order wavefunctions
     kin0=   4.01173563E+01 eigvalue=  -4.46325511E-01  local=  -1.46868014E+01
 4,5,6: 1st-order hamiltonian combined with 1st and 0th-order wfs
     kin1=  -9.25957352E+01  Hartree=   0.00000000E+00     xc=   0.00000000E+00
 7,8,9: eventually, occupation + non-local contributions
    edocc=   2.22454335E+01     enl0=   2.10042022E-01   enl1=  -2.28367451E+00
 1-9 gives the relaxation energy (to be shifted if some occ is /=2.0)
   erelax=  -4.74397049E+01
  No Ewald or frozen-wf contrib.: the relaxation energy is the total one
 2DEtotal=   -0.4743970487E+02 Ha. Also 2DEtotal=   -0.129090001950E+04 eV
    (  non-var. 2DEtotal :   -4.7439704873E+01 Ha)

 CALCULATION OF EFFECTIVE MASSES
 NOTE : Additional infos (eff. mass eigenvalues, eigenvectors and, if degenerate, average mass) are available in stdout.

 COMMENTS:
 - At k-point ( 0.000, 0.000, 0.000), bands    11 through    13
   are DEGENERATE (effective mass tensor is therefore not defined).
   See Section IIIB Eqs. (67)-(70) and Appendix E of PRB 93 205147 (2016).
 - Angular average effective mass for Frohlich model is to be averaged over degenerate bands. See later.
 - Associated theta integrals calculated with ntheta=   1000 points.

 K-point ( 0.000, 0.000, 0.000) | band =    11
 Transport equivalent effective mass tensor:
             -0.2989176997             -0.0000000002              0.0000000001
             -0.0000000002             -0.2989176998              0.0000000002
              0.0000000001              0.0000000002             -0.2989176998
 Transport equivalent effective mass tensor eigenvalues:
             -0.2989177001             -0.2989176997             -0.2989176995
 Angular average effective mass 1/(<1/m>)=  -0.2882017310
 Angular average effective mass for Frohlich model (<m**0.5>)**2=  -0.2889198308
 Effective masses along directions: (cart. coord. / red. coord. -> eff. mass)
    1:   1.000000  0.000000  0.000000 /   0.948683  0.316228  0.000000 ->  -0.2784443052
    2:   0.000000  1.000000  0.000000 /   0.000000  1.000000  0.000000 ->  -0.2658602386
    3:   0.000000  0.000000  1.000000 /   0.408248  0.408248  0.816497 ->  -0.2802478015
    4:   0.577350  0.577350  0.577350 /   0.585539  0.688047  0.428644 ->  -0.2782617800
    5:   0.000000  0.707107  0.707107 /   0.289489  0.762222  0.578977 ->  -0.2979355314
    6:   0.707107  0.000000  0.707107 /   0.731423  0.422287  0.535439 ->  -0.2793364398
    7:   0.707107  0.707107  0.000000 /   0.616798  0.787122  0.000000 ->  -0.3259198827

[...]

 K-point ( 0.000, 0.000, 0.000) | band =    13
 Transport equivalent effective mass tensor:
            -12.3876100208              0.0000142286              0.0000000046
              0.0000142286            -12.3876075606              0.0000000046
              0.0000000046              0.0000000046            -12.3875984923
 Transport equivalent effective mass tensor eigenvalues:
            -12.3876230723            -12.3875984923            -12.3875945090
 Angular average effective mass 1/(<1/m>)=  -2.7616604721
 Angular average effective mass for Frohlich model (<m**0.5>)**2=  -3.0816002495
 Effective masses along directions: (cart. coord. / red. coord. -> eff. mass)
    1:   1.000000  0.000000  0.000000 /   0.948683  0.316228  0.000000 ->  -2.9289253516
    2:   0.000000  1.000000  0.000000 /   0.000000  1.000000  0.000000 ->  -2.7432283324
    3:   0.000000  0.000000  1.000000 /   0.408248  0.408248  0.816497 ->  -5.8332901387
    4:   0.577350  0.577350  0.577350 /   0.585539  0.688047  0.428644 ->  -3.3796938759
    5:   0.000000  0.707107  0.707107 /   0.289489  0.762222  0.578977 ->  -2.5090223900
    6:   0.707107  0.000000  0.707107 /   0.731423  0.422287  0.535439 ->  -4.2188433414
    7:   0.707107  0.707107  0.000000 /   0.616798  0.787122  0.000000 ->  -1.4534303154

 Angular average effective mass for Frohlich model, averaged over degenerate bands.
 Value of     (<<m**0.5>>)**2 =     1.389401E+00
 Absolute Value of <<m**0.5>> =     1.178728E+00

 K-point ( 0.000, 0.000, 0.000) | band =    14
 Effective mass tensor:
              0.1996306735              0.0000000001             -0.0000000000
              0.0000000001              0.1996306736             -0.0000000001
             -0.0000000000             -0.0000000001              0.1996306736
 Effective mass tensor eigenvalues:
              0.1996306735              0.1996306736              0.1996306737
 Angular average effective mass 1/(<1/m>)=   0.1996306736
 Angular average effective mass for Frohlich model (<m**0.5>)**2=   0.1996306736
 Effective masses along directions: (cart. coord. / red. coord. -> eff. mass)
    1:   1.000000  0.000000  0.000000 /   0.948683  0.316228  0.000000 ->   0.1996306735
    2:   0.000000  1.000000  0.000000 /   0.000000  1.000000  0.000000 ->   0.1996306736
    3:   0.000000  0.000000  1.000000 /   0.408248  0.408248  0.816497 ->   0.1996306736
    4:   0.577350  0.577350  0.577350 /   0.585539  0.688047  0.428644 ->   0.1996306736
    5:   0.000000  0.707107  0.707107 /   0.289489  0.762222  0.578977 ->   0.1996306735
    6:   0.707107  0.000000  0.707107 /   0.731423  0.422287  0.535439 ->   0.1996306735
    7:   0.707107  0.707107  0.000000 /   0.616798  0.787122  0.000000 ->   0.1996306736

 END OF EFFECTIVE MASSES SECTION

 ---- first-order wavefunction calculations are completed ----

 Total localisation tensor (bohr^2) in cartesian coordinates
  WARNING : still subject to testing - especially symmetries.
      direction              matrix element
   alpha     beta       real part   imaginary part
     1        1       7.5097228570    0.0000000000
     1        2       2.1240703797    0.0000000000
     1        3       5.2028886144    0.0000000000
     2        1       2.1240703797    0.0000000000
     2        2       6.0077782768    0.0000000000
     2        3       3.6789978165    0.0000000000
     3        1       5.2028886144    0.0000000000
     3        2       3.6789978165    0.0000000000
     3        3      13.5175011078    0.0000000000

 respfn : d/dk was computed, but no 2DTE, so no DDB output.

== END DATASET(S) ==============================================================

 -outvars: echo values of variables after computation  --------
            acell      1.0000000000E+00  1.0000000000E+00  1.0000000000E+00 Bohr
              amu      6.35460000E+01  3.54527000E+01
             ecut      4.60000000E+01 Hartree
           etotal     -4.7439704873E+01
            fcart      0.0000000000E+00  0.0000000000E+00  0.0000000000E+00
                       0.0000000000E+00  0.0000000000E+00  0.0000000000E+00
-          fftalg         512
           irdden           1
           irdwfk           1
           istwfk        1
              ixc     -116133
           kptopt           0
P           mkmem           1
P          mkqmem           1
P          mk1mem           1
            natom           2
            nband          22
           nbdbuf           4
            ngfft          45      45      45
             nkpt           1
            nstep         100
             nsym          24
           ntypat           2
              occ      2.000000  2.000000  2.000000  2.000000  2.000000  2.000000
                       2.000000  2.000000  2.000000  2.000000  2.000000  2.000000
                       2.000000  0.000000  0.000000  0.000000  0.000000  0.000000
                       0.000000  0.000000  0.000000  0.000000
        optdriver           1
            prtwf          -1
            rfdir           1       1       1
           rfelfd           2
            rprim      6.1202843389E+00  0.0000000000E+00  3.5335478106E+00
                       2.0400947796E+00  5.7702594118E+00  3.5335478106E+00
                       0.0000000000E+00  0.0000000000E+00  7.0670956212E+00
          spgroup         216
           strten      0.0000000000E+00  0.0000000000E+00  0.0000000000E+00
                       0.0000000000E+00  0.0000000000E+00  0.0000000000E+00
           symrel      1  0  0   0  1  0   0  0  1       0 -1  1   0 -1  0   1 -1  0
                      -1  0  0  -1  0  1  -1  1  0       0  1 -1   1  0 -1   0  0 -1
                      -1  0  0  -1  1  0  -1  0  1       0 -1  1   1 -1  0   0 -1  0
                       1  0  0   0  0  1   0  1  0       0  1 -1   0  0 -1   1  0 -1
                      -1  0  1  -1  1  0  -1  0  0       0 -1  0   1 -1  0   0 -1  1
                       1  0 -1   0  0 -1   0  1 -1       0  1  0   0  0  1   1  0  0
                       1  0 -1   0  1 -1   0  0 -1       0 -1  0   0 -1  1   1 -1  0
                      -1  0  1  -1  0  0  -1  1  0       0  1  0   1  0  0   0  0  1
                       0  0 -1   0  1 -1   1  0 -1       1 -1  0   0 -1  1   0 -1  0
                       0  0  1   1  0  0   0  1  0      -1  1  0  -1  0  0  -1  0  1
                       0  0  1   0  1  0   1  0  0       1 -1  0   0 -1  0   0 -1  1
                       0  0 -1   1  0 -1   0  1 -1      -1  1  0  -1  0  1  -1  0  0
           tolwfr      1.00000000E-20
            typat      1  2
           useylm           1
           xangst      3.2387149822E+00  2.2901173263E+00  5.6096189005E+00
                       2.1591433215E+00  1.5267448842E+00  3.7397459337E+00
            xcart      6.1202843389E+00  4.3276945589E+00  1.0600643432E+01
                       4.0801895592E+00  2.8851297059E+00  7.0670956212E+00
             xred      7.5000000000E-01  7.5000000000E-01  7.5000000000E-01
                       5.0000000000E-01  5.0000000000E-01  5.0000000000E-01
            znucl       29.00000   17.00000

- Timing analysis has been suppressed with timopt=0

 Suggested references for the acknowledgment of ABINIT usage.

 Calculation completed.
.Delivered   6 WARNINGs and   5 COMMENTs to log file.