.Version 9.5.1 of ABINIT

 ABINIT is a project of the Universite Catholique de Louvain,
 Corning Inc. and other collaborators, see ~abinit/doc/developers/contributors.txt .
 acknowledgments of the ABINIT effort.

.Starting date : Wed 19 May 2021.
- ( at 01h35 )

- input  file    -> /scratch/users/j/a/jabreu/flow_simple_8atoms/flow/w443/t1/run.abi
- output file    -> /scratch/users/j/a/jabreu/flow_simple_8atoms/flow/w443/t1/run.abo
- root for input  files -> /scratch/users/j/a/jabreu/flow_simple_8atoms/flow/w443/t1/indata/in
- root for output files -> /scratch/users/j/a/jabreu/flow_simple_8atoms/flow/w443/t1/outdata/out

 Symmetries : space group Cm c a (# 64); Bravais oC (1-face-center ortho.)
     intxc =       0      iscf =       7    lmnmax =      18     lnmax =       6
     mgfft =      75  mpssoang =       3    mqgrid =    3622     natom =       8
  nloc_mem =       1    nspden =       1   nspinor =       1    nsppol =       1
      nsym =       8    n1xccc =    2501    ntypat =       2    occopt =       1
   xclevel =       2
-    mband =          39        mffmem =           1         mkmem =           2
-   mkqmem =           2        mk1mem =           2           mpw =       13875
      nfft =      270000          nkpt =           2
  Rough estimation (10% accuracy) of disk space for files :

------------- Echo of variables that govern the present computation ------------
-
- outvars: echo of selected default values
-   iomode0 =  0 , fftalg0 =512 , wfoptalg0 =  0
-
- outvars: echo of global parameters not present in the input file
-  max_nthreads =    0
-
 -outvars: echo values of preprocessed input variables --------
            acell      1.0000000000E+00  1.0000000000E+00  1.0000000000E+00 Bohr
              amu      3.90983000E+01  1.59994000E+01
             ecut      4.40000000E+01 Hartree
-          fftalg         512
           irdden           1
           irdwfk           1
              ixc     -116133
              kpt     -5.00000000E-01  5.00000000E-01  0.00000000E+00
                      -1.60714286E-01  1.60714286E-01  0.00000000E+00
           kptopt           0
P           mkmem           2
P          mkqmem           2
P          mk1mem           2
            natom           8
            nband          39
           nbdbuf           4
            ngfft          60      60      75
             nkpt           2
            nstep        2000
             nsym           8
           ntypat           2
              occ      2.000000  2.000000  2.000000  2.000000  2.000000  2.000000
                       2.000000  2.000000  2.000000  2.000000  2.000000  2.000000
                       2.000000  2.000000  2.000000  2.000000  2.000000  2.000000
                       2.000000  2.000000  2.000000  2.000000  2.000000  2.000000
                       2.000000  2.000000  2.000000  2.000000  2.000000  2.000000
                       0.000000  0.000000  0.000000  0.000000  0.000000  0.000000
                       0.000000  0.000000  0.000000
        optdriver           1
            prtwf          -1
            rfdir           1       1       1
           rfelfd           2
            rprim      9.0704227263E+00  0.0000000000E+00  0.0000000000E+00
                      -3.3213644100E-01  9.0643396791E+00  0.0000000000E+00
                       0.0000000000E+00  0.0000000000E+00  1.2127085857E+01
          spgroup          64
           symrel      1  0  0   0  1  0   0  0  1      -1  0  0   0 -1  0   0  0 -1
                       0 -1  0  -1  0  0   0  0 -1       0  1  0   1  0  0   0  0  1
                      -1  0  0   0 -1  0   0  0  1       1  0  0   0  1  0   0  0 -1
                       0  1  0   1  0  0   0  0 -1       0 -1  0  -1  0  0   0  0  1
            tnons      0.0000000  0.0000000  0.0000000    -0.0000000  0.0000000 -0.0000000
                       0.5000000  0.5000000  0.5000000     0.5000000  0.5000000  0.5000000
                       0.5000000  0.5000000  0.5000000     0.5000000  0.5000000  0.5000000
                       0.0000000  0.0000000 -0.0000000     0.0000000  0.0000000  0.0000000
           tolwfr      1.00000000E-20
            typat      1  1  1  1  2  2  2  2
           useylm           1
              wtk        0.50000    0.50000
           xangst      1.9493234142E+00  4.3439828665E-01  4.8130330814E+00
                       3.6272755795E-01  1.9639226979E+00  1.6043443605E+00
                       2.6747785301E+00  4.3622436825E+00  1.6043443605E+00
                       4.2613743864E+00  2.8327192712E+00  4.8130330814E+00
                       2.5674673498E-01  4.3796938659E+00  2.7656907388E+00
                       1.8795452025E+00  2.8152690877E+00  5.9743794597E+00
                       4.3673552093E+00  4.1694810316E-01  3.6516867032E+00
                       2.7445567419E+00  1.9813728814E+00  4.4299798219E-01
            xcart      3.6836873973E+00  8.2089379436E-01  9.0953143924E+00
                       6.8545574537E-01  3.7112760452E+00  3.0317714641E+00
                       5.0545988880E+00  8.2434458847E+00  3.0317714641E+00
                       8.0528305399E+00  5.3530636339E+00  9.0953143924E+00
                       4.8518101462E-01  8.2764219525E+00  5.2263980645E+00
                       3.5518256870E+00  5.3200875662E+00  1.1289940993E+01
                       8.2531052707E+00  7.8791772661E-01  6.9006877921E+00
                       5.1864605983E+00  3.7442521129E+00  8.3714486377E-01
             xred      4.0943700000E-01  9.0563000000E-02  7.5000000000E-01
                       9.0563000000E-02  4.0943700000E-01  2.5000000000E-01
                       5.9056300000E-01  9.0943700000E-01  2.5000000000E-01
                       9.0943700000E-01  5.9056300000E-01  7.5000000000E-01
                       8.6925000000E-02  9.1307500000E-01  4.3096900000E-01
                       4.1307500000E-01  5.8692500000E-01  9.3096900000E-01
                       9.1307500000E-01  8.6925000000E-02  5.6903100000E-01
                       5.8692500000E-01  4.1307500000E-01  6.9031000000E-02
            znucl       19.00000    8.00000

 chkinp: Checking input parameters for consistency.

== DATASET  1 ==================================================================
-   mpi_nproc: 1, omp_nthreads: -1 (-1 if OMP is not activated)

--- !DatasetInfo
iteration_state: {dtset: 1, }
dimensions: {natom: 8, nkpt: 2, mband: 39, nsppol: 1, nspinor: 1, nspden: 1, mpw: 13875, }
cutoff_energies: {ecut:  44.0, pawecutdg:  -1.0, }
electrons: {nelect:   6.00000000E+01, charge:   0.00000000E+00, occopt:   1.00000000E+00, tsmear:   1.00000000E-02, }
meta: {optdriver: 1, rfelfd: 2, }
...

 Real(R)+Recip(G) space primitive vectors, cartesian coordinates (Bohr,Bohr^-1):
 R(1)=  9.0704227  0.0000000  0.0000000  G(1)=  0.1102484  0.0040397  0.0000000
 R(2)= -0.3321364  9.0643397  0.0000000  G(2)=  0.0000000  0.1103224  0.0000000
 R(3)=  0.0000000  0.0000000 12.1270859  G(3)=  0.0000000  0.0000000  0.0824600
 Unit cell volume ucvol=  9.9705738E+02 bohr^3
 Angles (23,13,12)=  9.00000000E+01  9.00000000E+01  9.20984988E+01 degrees

 getcut: wavevector=  0.0000  0.0000  0.0000  ngfft=  60  60  75
         ecut(hartree)=     44.000   => boxcut(ratio)=   2.04354

--- Pseudopotential description ------------------------------------------------
- pspini: atom type   1  psp file is /scratch/users/j/a/jabreu/pseudos/PBEsol/K.psp8
- pspatm: opening atomic psp file    /scratch/users/j/a/jabreu/pseudos/PBEsol/K.psp8
- K     ONCVPSP-3.3.0  r_core=   1.36296   1.46408   1.61068
- 19.00000   9.00000    180112                znucl, zion, pspdat
    8 -116133    2    4       400   0.00000   pspcod,pspxc,lmax,lloc,mmax,r2well
    3.99000000000000    5.00000000000000    0.00000000000000   rchrg,fchrg,qchrg
     nproj     2     2     2
     extension_switch     1
  pspatm : epsatm=    8.32487830
         --- l  ekb(1:nproj) -->
             0   10.921326    0.816676
             1    4.431000    0.560368
             2   -3.384038   -1.043186
 pspatm: atomic psp has been read  and splines computed

- pspini: atom type   2  psp file is /scratch/users/j/a/jabreu/pseudos/PBEsol/O.psp8
- pspatm: opening atomic psp file    /scratch/users/j/a/jabreu/pseudos/PBEsol/O.psp8
- O     ONCVPSP-3.3.0  r_core=   1.35509   1.45563   1.26150
-  8.00000   6.00000    180112                znucl, zion, pspdat
    8 -116133    2    4       600   0.00000   pspcod,pspxc,lmax,lloc,mmax,r2well
    5.99000000000000    4.00000000000000    0.00000000000000   rchrg,fchrg,qchrg
     nproj     2     2     1
     extension_switch     1
  pspatm : epsatm=    6.22910522
         --- l  ekb(1:nproj) -->
             0    6.050032    0.820363
             1   -4.739617   -1.153841
             2   -1.335834
 pspatm: atomic psp has been read  and splines computed

   3.49295604E+03                                ecore*ucvol(ha*bohr**3)

-inwffil : will read wavefunctions from disk file /scratch/users/j/a/jabreu/flow_simple_8atoms/flow/w443/t1/indata/in_WFK

 ==>  initialize data related to q vector <==

 The list of irreducible perturbations for this q vector is:
    1)    idir= 1    ipert=   9
    2)    idir= 2    ipert=   9
    3)    idir= 3    ipert=   9

 Perturbation wavevector (in red.coord.)   0.000000  0.000000  0.000000
 Perturbation : derivative vs k along direction   1

 dfpt_looppert : COMMENT -
  In a d/dk calculation, iscf is set to -3 automatically.
 The set of symmetries contains only one element for this perturbation.
 symkpt : not enough symmetry to change the number of k points.

[...]

 Initialisation of the first-order wave-functions :
  ireadwf=   0

--- !BeginCycle
iteration_state: {dtset: 1, }
solver: {iscf: 7, nstep: 2000, nline: 4, wfoptalg: 0, }
tolerances: {tolwfr: 1.00E-20, }
...

     iter   2DEtotal(Ha)        deltaE(Ha) residm    vres2
-ETOT  1  -27.255099885763     -2.726E+01 8.959E-02 0.000E+00
 ETOT  2  -27.343586238316     -8.849E-02 6.501E-03 0.000E+00
 ETOT  3  -27.344483816592     -8.976E-04 3.461E-04 0.000E+00
 ETOT  4  -27.344499523634     -1.571E-05 6.773E-05 0.000E+00
 ETOT  5  -27.344499899561     -3.759E-07 4.936E-06 0.000E+00
 ETOT  6  -27.344499910057     -1.050E-08 1.059E-06 0.000E+00
 ETOT  7  -27.344499910373     -3.163E-10 8.158E-08 0.000E+00
 ETOT  8  -27.344499910383     -9.923E-12 1.859E-08 0.000E+00
 ETOT  9  -27.344499910383     -2.913E-13 1.497E-09 0.000E+00
 ETOT 10  -27.344499910383     -3.553E-14 3.597E-10 0.000E+00
 ETOT 11  -27.344499910383      2.132E-14 3.078E-11 0.000E+00
 ETOT 12  -27.344499910383      0.000E+00 7.828E-12 0.000E+00
 ETOT 13  -27.344499910383      1.066E-14 7.216E-13 0.000E+00
 ETOT 14  -27.344499910383     -3.553E-15 1.947E-13 0.000E+00
 ETOT 15  -27.344499910383      3.553E-15 1.919E-14 0.000E+00
 ETOT 16  -27.344499910383      0.000E+00 5.445E-15 0.000E+00
 ETOT 17  -27.344499910383     -3.553E-15 5.595E-16 0.000E+00
 ETOT 18  -27.344499910383      0.000E+00 1.645E-16 0.000E+00
 ETOT 19  -27.344499910383     -7.105E-15 1.722E-17 0.000E+00
 ETOT 20  -27.344499910383      0.000E+00 5.175E-18 0.000E+00
 ETOT 21  -27.344499910383      1.066E-14 5.454E-19 0.000E+00
 ETOT 22  -27.344499910383     -1.066E-14 1.662E-19 0.000E+00
 ETOT 23  -27.344499910383      7.105E-15 1.754E-20 0.000E+00
 ETOT 24  -27.344499910383      0.000E+00 9.923E-21 0.000E+00

 At SCF step   24   max residual=  9.92E-21 < tolwfr=  1.00E-20 =>converged.

 ----iterations are completed or convergence reached----

 dfpt_looppert: DFPT cycle converged with prtwf=-1. Will skip output of the 1st-order WFK file.
 dfpt_looppert : ek2=    5.7659203495E+01
          f-sum rule ratio=    1.0034331874E+00
 prteigrs : about to open file /scratch/users/j/a/jabreu/flow_simple_8atoms/flow/w443/t1/tmpdata/tmp_1WF1_EIG
 Expectation of eigenvalue derivatives (hartree) for nkpt=   2  k points:
  (in case of degenerate eigenvalues, averaged derivative)
 kpt#   1, nband= 39, wtk=  0.50000, kpt= -0.5000  0.5000  0.0000 (reduced coord)
  -0.00000    0.00000    0.00000   -0.00000   -0.00000   -0.00000    0.00000   -0.00000
   0.00000    0.00000    0.00000   -0.00000   -0.00000    0.00000   -0.00000   -0.00000
  -0.00000   -0.00000    0.00000   -0.00000    0.00000   -0.00000    0.00000   -0.00000
  -0.00000    0.00000    0.00000   -0.00000    0.00000   -0.00000    0.00000    0.00000
   0.00000    0.00000   -0.00000    0.00000   -0.00000    0.00000   -0.00000
 prteigrs : prtvol=0 or 1, do not print more k-points.

 Eight components of 2nd-order total energy (hartree) are
 1,2,3: 0th-order hamiltonian combined with 1st-order wavefunctions
     kin0=   4.17901360E+01 eigvalue=   2.68997433E+00  local=  -2.15339723E+01
 4,5,6: 1st-order hamiltonian combined with 1st and 0th-order wfs
     kin1=  -5.78571583E+01  Hartree=   0.00000000E+00     xc=   0.00000000E+00
 7,8,9: eventually, occupation + non-local contributions
    edocc=   5.04419902E+00     enl0=  -6.45837118E-01   enl1=   3.16815852E+00
 1-9 gives the relaxation energy (to be shifted if some occ is /=2.0)
   erelax=  -2.73444999E+01
  No Ewald or frozen-wf contrib.: the relaxation energy is the total one
 2DEtotal=   -0.2734449991E+02 Ha. Also 2DEtotal=   -0.744081683521E+03 eV
    (  non-var. 2DEtotal :   -2.7344499910E+01 Ha)

 Perturbation wavevector (in red.coord.)   0.000000  0.000000  0.000000
 Perturbation : derivative vs k along direction   2
 The set of symmetries contains only one element for this perturbation.
 symkpt : not enough symmetry to change the number of k points.

[...]

 Perturbation wavevector (in red.coord.)   0.000000  0.000000  0.000000
 Perturbation : derivative vs k along direction   3
 The set of symmetries contains only one element for this perturbation.
 symkpt : not enough symmetry to change the number of k points.

-inwffil : will read wavefunctions from disk file /scratch/users/j/a/jabreu/flow_simple_8atoms/flow/w443/t1/indata/in_WFK

 Initialisation of the first-order wave-functions :
  ireadwf=   0

--- !BeginCycle
iteration_state: {dtset: 1, }
solver: {iscf: 7, nstep: 2000, nline: 4, wfoptalg: 0, }
tolerances: {tolwfr: 1.00E-20, }
...

     iter   2DEtotal(Ha)        deltaE(Ha) residm    vres2
-ETOT  1  -15.125195428202     -1.513E+01 7.019E-02 0.000E+00
 ETOT  2  -15.167736626860     -4.254E-02 3.673E-03 0.000E+00
 ETOT  3  -15.168171165462     -4.345E-04 2.246E-04 0.000E+00
 ETOT  4  -15.168179417435     -8.252E-06 1.534E-05 0.000E+00
 ETOT  5  -15.168179630194     -2.128E-07 2.957E-06 0.000E+00
 ETOT  6  -15.168179636636     -6.442E-09 2.894E-07 0.000E+00
 ETOT  7  -15.168179636849     -2.135E-10 9.072E-08 0.000E+00
 ETOT  8  -15.168179636857     -7.528E-12 9.343E-09 0.000E+00
 ETOT  9  -15.168179636857     -2.576E-13 3.032E-09 0.000E+00
 ETOT 10  -15.168179636857     -1.066E-14 3.155E-10 0.000E+00
 ETOT 11  -15.168179636857      5.329E-15 1.041E-10 0.000E+00
 ETOT 12  -15.168179636857      0.000E+00 1.084E-11 0.000E+00
 ETOT 13  -15.168179636857      1.776E-15 3.620E-12 0.000E+00
 ETOT 14  -15.168179636857     -1.421E-14 3.757E-13 0.000E+00
 ETOT 15  -15.168179636857      5.329E-15 1.267E-13 0.000E+00
 ETOT 16  -15.168179636857     -5.329E-15 1.309E-14 0.000E+00
 ETOT 17  -15.168179636857      0.000E+00 4.454E-15 0.000E+00
 ETOT 18  -15.168179636857      7.105E-15 4.574E-16 0.000E+00
 ETOT 19  -15.168179636857      0.000E+00 1.569E-16 0.000E+00
 ETOT 20  -15.168179636857      1.776E-15 1.603E-17 0.000E+00
 ETOT 21  -15.168179636857      1.776E-15 5.536E-18 0.000E+00
 ETOT 22  -15.168179636857     -3.553E-15 5.628E-19 0.000E+00
 ETOT 23  -15.168179636857     -3.553E-15 1.956E-19 0.000E+00
 ETOT 24  -15.168179636857     -3.553E-15 1.980E-20 0.000E+00
 ETOT 25  -15.168179636857      7.105E-15 9.890E-21 0.000E+00

 At SCF step   25   max residual=  9.89E-21 < tolwfr=  1.00E-20 =>converged.

 ----iterations are completed or convergence reached----

 dfpt_looppert: DFPT cycle converged with prtwf=-1. Will skip output of the 1st-order WFK file.
 dfpt_looppert : ek2=    3.2212770481E+01
          f-sum rule ratio=    9.9794948034E-01
 prteigrs : about to open file /scratch/users/j/a/jabreu/flow_simple_8atoms/flow/w443/t1/tmpdata/tmp_1WF1_EIG
 Expectation of eigenvalue derivatives (hartree) for nkpt=   2  k points:
  (in case of degenerate eigenvalues, averaged derivative)
 kpt#   1, nband= 39, wtk=  0.50000, kpt= -0.5000  0.5000  0.0000 (reduced coord)
   0.00000   -0.00000    0.00000   -0.00000   -0.00000   -0.00000    0.00000    0.00000
  -0.00000   -0.00000   -0.00000    0.00000    0.00000   -0.00000    0.00000   -0.00000
   0.00000   -0.00000   -0.00000   -0.00000    0.00000   -0.00000    0.00000   -0.00000
   0.00000    0.00000    0.00000   -0.00000    0.00000   -0.00000    0.00000   -0.00000
  -0.00000    0.00000    0.00000    0.00000   -0.00000   -0.00000    0.00000
 prteigrs : prtvol=0 or 1, do not print more k-points.

 Eight components of 2nd-order total energy (hartree) are
 1,2,3: 0th-order hamiltonian combined with 1st-order wavefunctions
     kin0=   2.29461560E+01 eigvalue=   1.51379587E+00  local=  -1.17225065E+01
 4,5,6: 1st-order hamiltonian combined with 1st and 0th-order wfs
     kin1=  -3.21467176E+01  Hartree=   0.00000000E+00     xc=   0.00000000E+00
 7,8,9: eventually, occupation + non-local contributions
    edocc=   2.72787988E+00     enl0=  -2.97145566E-01   enl1=   1.81035829E+00
 1-9 gives the relaxation energy (to be shifted if some occ is /=2.0)
   erelax=  -1.51681796E+01
  No Ewald or frozen-wf contrib.: the relaxation energy is the total one
 2DEtotal=   -0.1516817964E+02 Ha. Also 2DEtotal=   -0.412747158556E+03 eV
    (  non-var. 2DEtotal :   -1.5168179637E+01 Ha)

 CALCULATION OF EFFECTIVE MASSES
 NOTE : Additional infos (eff. mass eigenvalues, eigenvectors and, if degenerate, average mass) are available in stdout.

 K-point (-0.500, 0.500, 0.000) | band =    30
 Effective mass tensor:
             -4.2396409160             -2.0030668965             -0.0000002856
             -2.0030668965             -4.3864339774              0.0000003452
             -0.0000002856              0.0000003452             -4.8035484239
 Effective mass tensor eigenvalues:
             -6.3174485928             -4.8035484239             -2.3086263006
 Angular average effective mass 1/(<1/m>)=  -3.7517388940
 Angular average effective mass for Frohlich model (<m**0.5>)**2=  -3.9757725196
 Effective masses along directions: (cart. coord. / red. coord. -> eff. mass)
    1:   1.000000  0.000000  0.000000 /   0.999330 -0.036593  0.000000 ->  -3.3249395862
    2:   0.000000  1.000000  0.000000 /   0.000000  1.000000  0.000000 ->  -3.4400620861
    3:   0.000000  0.000000  1.000000 /   0.000000  0.000000  1.000000 ->  -4.8035484239
    4:   0.577350  0.577350  0.577350 /   0.518869  0.499521  0.693724 ->  -5.7148596141
    5:   0.000000  0.707107  0.707107 /   0.000000  0.598690  0.800981 ->  -4.0090450336
    6:   0.707107  0.000000  0.707107 /   0.598804 -0.021927  0.800596 ->  -3.9297616066
    7:   0.707107  0.707107  0.000000 /   0.720411  0.693548  0.000000 ->  -6.3137722569

 K-point (-0.161, 0.161, 0.000) | band =    31
 Effective mass tensor:
              0.8428823453             -0.1370338054             -0.0000428937
             -0.1370338054              0.8328450947             -0.0000268525
             -0.0000428937             -0.0000268525              1.6159138347
 Effective mass tensor eigenvalues:
              0.7007380436              0.9749893936              1.6159138375
 Angular average effective mass 1/(<1/m>)=   0.9767011637
 Angular average effective mass for Frohlich model (<m**0.5>)**2=   1.0096240558
 Effective masses along directions: (cart. coord. / red. coord. -> eff. mass)
    1:   1.000000  0.000000  0.000000 /   0.999330 -0.036593  0.000000 ->   0.8203352173
    2:   0.000000  1.000000  0.000000 /   0.000000  1.000000  0.000000 ->   0.8105664641
    3:   0.000000  0.000000  1.000000 /   0.000000  0.000000  1.000000 ->   1.6159138311
    4:   0.577350  0.577350  0.577350 /   0.518869  0.499521  0.693724 ->   0.8638481492
    5:   0.000000  0.707107  0.707107 /   0.000000  0.598690  0.800981 ->   1.0795628925
    6:   0.707107  0.000000  0.707107 /   0.598804 -0.021927  0.800596 ->   1.0881806527
    7:   0.707107  0.707107  0.000000 /   0.720411  0.693548  0.000000 ->   0.7008040780

 END OF EFFECTIVE MASSES SECTION

 ---- first-order wavefunction calculations are completed ----

 Total localisation tensor (bohr^2) in cartesian coordinates
  WARNING : still subject to testing - especially symmetries.
      direction              matrix element
   alpha     beta       real part   imaginary part
     1        1       0.6048417561    0.0000000000
     1        2      -0.0221033337    0.0000000000
     1        3       0.0000000000    0.0000000000
     2        1      -0.0221033337    0.0000000000
     2        2       0.6032223512    0.0000000000
     2        3       0.0000000000    0.0000000000
     3        1       0.0000000000    0.0000000000
     3        2       0.0000000000    0.0000000000
     3        3       0.5861570249    0.0000000000

 respfn : d/dk was computed, but no 2DTE, so no DDB output.

== END DATASET(S) ==============================================================

 -outvars: echo values of variables after computation  --------
            acell      1.0000000000E+00  1.0000000000E+00  1.0000000000E+00 Bohr
              amu      3.90983000E+01  1.59994000E+01
             ecut      4.40000000E+01 Hartree
           etotal     -1.5168179637E+01
            fcart      0.0000000000E+00  0.0000000000E+00  0.0000000000E+00
                       0.0000000000E+00  0.0000000000E+00  0.0000000000E+00
                       0.0000000000E+00  0.0000000000E+00  0.0000000000E+00
                       0.0000000000E+00  0.0000000000E+00  0.0000000000E+00
                       0.0000000000E+00  0.0000000000E+00  0.0000000000E+00
                       0.0000000000E+00  0.0000000000E+00  0.0000000000E+00
                       0.0000000000E+00  0.0000000000E+00  0.0000000000E+00
                       0.0000000000E+00  0.0000000000E+00  0.0000000000E+00
-          fftalg         512
           irdden           1
           irdwfk           1
              ixc     -116133
              kpt     -5.00000000E-01  5.00000000E-01  0.00000000E+00
                      -1.60714286E-01  1.60714286E-01  0.00000000E+00
           kptopt           0
P           mkmem           2
P          mkqmem           2
P          mk1mem           2
            natom           8
            nband          39
           nbdbuf           4
            ngfft          60      60      75
             nkpt           2
            nstep        2000
             nsym           8
           ntypat           2
              occ      2.000000  2.000000  2.000000  2.000000  2.000000  2.000000
                       2.000000  2.000000  2.000000  2.000000  2.000000  2.000000
                       2.000000  2.000000  2.000000  2.000000  2.000000  2.000000
                       2.000000  2.000000  2.000000  2.000000  2.000000  2.000000
                       2.000000  2.000000  2.000000  2.000000  2.000000  2.000000
                       0.000000  0.000000  0.000000  0.000000  0.000000  0.000000
                       0.000000  0.000000  0.000000
        optdriver           1
            prtwf          -1
            rfdir           1       1       1
           rfelfd           2
            rprim      9.0704227263E+00  0.0000000000E+00  0.0000000000E+00
                      -3.3213644100E-01  9.0643396791E+00  0.0000000000E+00
                       0.0000000000E+00  0.0000000000E+00  1.2127085857E+01
          spgroup          64
           strten      0.0000000000E+00  0.0000000000E+00  0.0000000000E+00
                       0.0000000000E+00  0.0000000000E+00  0.0000000000E+00
           symrel      1  0  0   0  1  0   0  0  1      -1  0  0   0 -1  0   0  0 -1
                       0 -1  0  -1  0  0   0  0 -1       0  1  0   1  0  0   0  0  1
                      -1  0  0   0 -1  0   0  0  1       1  0  0   0  1  0   0  0 -1
                       0  1  0   1  0  0   0  0 -1       0 -1  0  -1  0  0   0  0  1
            tnons      0.0000000  0.0000000  0.0000000    -0.0000000  0.0000000 -0.0000000
                       0.5000000  0.5000000  0.5000000     0.5000000  0.5000000  0.5000000
                       0.5000000  0.5000000  0.5000000     0.5000000  0.5000000  0.5000000
                       0.0000000  0.0000000 -0.0000000     0.0000000  0.0000000  0.0000000
           tolwfr      1.00000000E-20
            typat      1  1  1  1  2  2  2  2
           useylm           1
              wtk        0.50000    0.50000
           xangst      1.9493234142E+00  4.3439828665E-01  4.8130330814E+00
                       3.6272755795E-01  1.9639226979E+00  1.6043443605E+00
                       2.6747785301E+00  4.3622436825E+00  1.6043443605E+00
                       4.2613743864E+00  2.8327192712E+00  4.8130330814E+00
                       2.5674673498E-01  4.3796938659E+00  2.7656907388E+00
                       1.8795452025E+00  2.8152690877E+00  5.9743794597E+00
                       4.3673552093E+00  4.1694810316E-01  3.6516867032E+00
                       2.7445567419E+00  1.9813728814E+00  4.4299798219E-01
            xcart      3.6836873973E+00  8.2089379436E-01  9.0953143924E+00
                       6.8545574537E-01  3.7112760452E+00  3.0317714641E+00
                       5.0545988880E+00  8.2434458847E+00  3.0317714641E+00
                       8.0528305399E+00  5.3530636339E+00  9.0953143924E+00
                       4.8518101462E-01  8.2764219525E+00  5.2263980645E+00
                       3.5518256870E+00  5.3200875662E+00  1.1289940993E+01
                       8.2531052707E+00  7.8791772661E-01  6.9006877921E+00
                       5.1864605983E+00  3.7442521129E+00  8.3714486377E-01
             xred      4.0943700000E-01  9.0563000000E-02  7.5000000000E-01
                       9.0563000000E-02  4.0943700000E-01  2.5000000000E-01
                       5.9056300000E-01  9.0943700000E-01  2.5000000000E-01
                       9.0943700000E-01  5.9056300000E-01  7.5000000000E-01
                       8.6925000000E-02  9.1307500000E-01  4.3096900000E-01
                       4.1307500000E-01  5.8692500000E-01  9.3096900000E-01
                       9.1307500000E-01  8.6925000000E-02  5.6903100000E-01
                       5.8692500000E-01  4.1307500000E-01  6.9031000000E-02
            znucl       19.00000    8.00000

- Timing analysis has been suppressed with timopt=0

 Suggested references for the acknowledgment of ABINIT usage.

 Calculation completed.
.Delivered  14 WARNINGs and   9 COMMENTs to log file.