.Version 9.5.2 of ABINIT

 ABINIT is a project of the Universite Catholique de Louvain,
 Corning Inc. and other collaborators, see ~abinit/doc/developers/contributors.txt .
 acknowledgments of the ABINIT effort.

.Starting date : Wed 26 May 2021.
- ( at 02h53 )

- input  file    -> /scratch/users/j/a/jabreu/flow_simple_11atoms/flow/w270/t1/run.abi
- output file    -> /scratch/users/j/a/jabreu/flow_simple_11atoms/flow/w270/t1/run.abo
- root for input  files -> /scratch/users/j/a/jabreu/flow_simple_11atoms/flow/w270/t1/indata/in
- root for output files -> /scratch/users/j/a/jabreu/flow_simple_11atoms/flow/w270/t1/outdata/out

 Symmetries : space group C2/c (# 15); Bravais mC (1-face-center monocl.)
     intxc =       0      iscf =       7    lmnmax =      18     lnmax =       6
     mgfft =      64  mpssoang =       3    mqgrid =    3001     natom =      12
  nloc_mem =       1    nspden =       1   nspinor =       1    nsppol =       1
      nsym =       4    n1xccc =    2501    ntypat =       3    occopt =       1
   xclevel =       2
-    mband =          47        mffmem =           1         mkmem =           2
-   mkqmem =           2        mk1mem =           2           mpw =       12158
      nfft =      262144          nkpt =           2
  Rough estimation (10% accuracy) of disk space for files :

------------- Echo of variables that govern the present computation ------------
-
- outvars: echo of selected default values
-   iomode0 =  0 , fftalg0 =512 , wfoptalg0 =  0
-
- outvars: echo of global parameters not present in the input file
-  max_nthreads =    0
-
 -outvars: echo values of preprocessed input variables --------
            acell      1.0000000000E+00  1.0000000000E+00  1.0000000000E+00 Bohr
              amu      6.94100000E+00  2.07200000E+02  1.59994000E+01
             ecut      4.40000000E+01 Hartree
-          fftalg         512
           irdden           1
           irdwfk           1
           istwfk        0    1
              ixc     -116133
              kpt      5.00000000E-01 -5.00000000E-01  0.00000000E+00
                       0.00000000E+00  0.00000000E+00  0.00000000E+00
           kptopt           0
P           mkmem           2
P          mkqmem           2
P          mk1mem           2
            natom          12
            nband          47
           nbdbuf           4
            ngfft          64      64      64
             nkpt           2
            nstep        2000
             nsym           4
           ntypat           3
              occ      2.000000  2.000000  2.000000  2.000000  2.000000  2.000000
                       2.000000  2.000000  2.000000  2.000000  2.000000  2.000000
                       2.000000  2.000000  2.000000  2.000000  2.000000  2.000000
                       2.000000  2.000000  2.000000  2.000000  2.000000  2.000000
                       2.000000  2.000000  2.000000  2.000000  2.000000  2.000000
                       2.000000  2.000000  2.000000  2.000000  2.000000  2.000000
                       2.000000  2.000000  0.000000  0.000000  0.000000  0.000000
                       0.000000  0.000000  0.000000  0.000000  0.000000
        optdriver           1
            prtwf          -1
            rfdir           1       1       1
           rfelfd           2
            rprim      1.0006891875E+01  0.0000000000E+00  1.7802538197E+00
                      -5.4447890324E+00  8.3959607779E+00  1.7802538197E+00
                       0.0000000000E+00  0.0000000000E+00  1.0343204407E+01
          spgroup          15
           symrel      1  0  0   0  1  0   0  0  1      -1  0  0   0 -1  0   0  0 -1
                       0 -1  0  -1  0  0   0  0 -1       0  1  0   1  0  0   0  0  1
            tnons      0.0000000  0.0000000  0.0000000    -0.0000000  0.0000000  0.0000000
                       0.0000000  0.0000000  0.5000000    -0.0000000  0.0000000  0.5000000
           tolwfr      1.00000000E-20
            typat      1  1  1  1  2  2  3  3  3  3  3  3
           useylm           1
              wtk        0.50000    0.50000
           xangst      3.1997203455E+00  1.1387372497E+00  2.3104167559E+00
                      -7.8555949813E-01  3.3042138382E+00  5.0471107739E+00
                       5.3706712661E-01  2.5855398420E+00  2.3104167559E+00
                       1.8770937208E+00  1.8574112459E+00  5.0471107739E+00
                       4.5688150277E+00  3.9481396252E-01  5.0471107739E+00
                      -2.1546541804E+00  4.0481371254E+00  2.3104167559E+00
                       2.6477095545E+00  0.0000000000E+00  4.7103487345E-01
                      -1.4406291308E+00  2.2214755439E+00  3.2077288915E+00
                       2.4784392671E+00  2.9998761316E+00  1.4719956398E+00
                       1.2457397685E+00  7.3125199070E-01  3.1488378720E+00
                      -6.4278419723E-02  1.4430749563E+00  5.8855318900E+00
                       1.1684210789E+00  3.7116990972E+00  4.2086896579E+00
            xcart      6.0465951548E+00  2.1519015393E+00  4.3660549215E+00
                      -1.4844923125E+00  6.2440592386E+00  9.5376571251E+00
                       1.0149097843E+00  4.8859622070E+00  4.3660549215E+00
                       3.5471930580E+00  3.5099985709E+00  9.5376571251E+00
                       8.6338091543E+00  7.4609026261E-01  9.5376571251E+00
                      -4.0717063120E+00  7.6498705153E+00  4.3660549215E+00
                       5.0034459374E+00  0.0000000000E+00  8.9012690985E-01
                      -2.7223945162E+00  4.1979803889E+00  6.0617291135E+00
                       4.6835714518E+00  5.6689443213E+00  2.7816686281E+00
                       2.3541069953E+00  1.3818659966E+00  5.9504412149E+00
                      -1.2146860953E-01  2.7270164566E+00  1.1122043419E+01
                       2.2079958470E+00  7.0140947813E+00  7.9532708317E+00
             xred      7.4369800000E-01  2.5630200000E-01  2.5000000000E-01
                       2.5630200000E-01  7.4369800000E-01  7.5000000000E-01
                       4.1805800000E-01  5.8194200000E-01  2.5000000000E-01
                       5.8194200000E-01  4.1805800000E-01  7.5000000000E-01
                       9.1113700000E-01  8.8863000000E-02  7.5000000000E-01
                       8.8863000000E-02  9.1113700000E-01  2.5000000000E-01
                       5.0000000000E-01  0.0000000000E+00  0.0000000000E+00
                       0.0000000000E+00  5.0000000000E-01  5.0000000000E-01
                       8.3541300000E-01  6.7519900000E-01  8.9330000000E-03
                       3.2480100000E-01  1.6458700000E-01  4.9106700000E-01
                       1.6458700000E-01  3.2480100000E-01  9.9106700000E-01
                       6.7519900000E-01  8.3541300000E-01  5.0893300000E-01
            znucl        3.00000   82.00000    8.00000

 chkinp: Checking input parameters for consistency.

== DATASET  1 ==================================================================
-   mpi_nproc: 1, omp_nthreads: -1 (-1 if OMP is not activated)

--- !DatasetInfo
iteration_state: {dtset: 1, }
dimensions: {natom: 12, nkpt: 2, mband: 47, nsppol: 1, nspinor: 1, nspden: 1, mpw: 12158, }
cutoff_energies: {ecut:  44.0, pawecutdg:  -1.0, }
electrons: {nelect:   7.60000000E+01, charge:   0.00000000E+00, occopt:   1.00000000E+00, tsmear:   1.00000000E-02, }
meta: {optdriver: 1, rfelfd: 2, }
...

 Real(R)+Recip(G) space primitive vectors, cartesian coordinates (Bohr,Bohr^-1):
 R(1)= 10.0068919  0.0000000  1.7802538  G(1)=  0.0999311  0.0648054  0.0000000
 R(2)= -5.4447890  8.3959608  1.7802538  G(2)=  0.0000000  0.1191049  0.0000000
 R(3)=  0.0000000  0.0000000 10.3432044  G(3)= -0.0172000 -0.0316543  0.0966818
 Unit cell volume ucvol=  8.6900988E+02 bohr^3
 Angles (23,13,12)=  7.99124598E+01  7.99124598E+01  1.19784105E+02 degrees

 getcut: wavevector=  0.0000  0.0000  0.0000  ngfft=  64  64  64
         ecut(hartree)=     44.000   => boxcut(ratio)=   2.07256

--- Pseudopotential description ------------------------------------------------
- pspini: atom type   1  psp file is /scratch/users/j/a/jabreu/pseudos/PBEsol/Li.psp8
- pspatm: opening atomic psp file    /scratch/users/j/a/jabreu/pseudos/PBEsol/Li.psp8
- Li    ONCVPSP-3.3.0  r_core=   1.40824   1.10935
-  3.00000   3.00000    180112                znucl, zion, pspdat
    8 -116133    1    4       400   0.00000   pspcod,pspxc,lmax,lloc,mmax,r2well
    3.99000000000000    0.00000000000000    0.00000000000000   rchrg,fchrg,qchrg
     nproj     2     2
     extension_switch     1
  pspatm : epsatm=    2.60859637
         --- l  ekb(1:nproj) -->
             0   -4.855856   -1.482423
             1   -2.171544   -0.427615
 pspatm: atomic psp has been read  and splines computed

- pspini: atom type   2  psp file is /scratch/users/j/a/jabreu/pseudos/PBEsol/Pb.psp8
- pspatm: opening atomic psp file    /scratch/users/j/a/jabreu/pseudos/PBEsol/Pb.psp8
- Pb    ONCVPSP-3.3.0  r_core=   2.42823   2.42823   2.10438
- 82.00000  14.00000    180112                znucl, zion, pspdat
    8 -116133    2    4       600   0.00000   pspcod,pspxc,lmax,lloc,mmax,r2well
    5.99000000000000    6.00000000000000    0.00000000000000   rchrg,fchrg,qchrg
     nproj     2     2     2
     extension_switch     1
  pspatm : epsatm=   44.32675151
         --- l  ekb(1:nproj) -->
             0    6.256780    1.206521
             1    4.272336    0.573876
             2   -3.251371   -0.847363
 pspatm: atomic psp has been read  and splines computed

- pspini: atom type   3  psp file is /scratch/users/j/a/jabreu/pseudos/PBEsol/O.psp8
- pspatm: opening atomic psp file    /scratch/users/j/a/jabreu/pseudos/PBEsol/O.psp8
- O     ONCVPSP-3.3.0  r_core=   1.35509   1.45563   1.26150
-  8.00000   6.00000    180112                znucl, zion, pspdat
    8 -116133    2    4       600   0.00000   pspcod,pspxc,lmax,lloc,mmax,r2well
    5.99000000000000    4.00000000000000    0.00000000000000   rchrg,fchrg,qchrg
     nproj     2     2     1
     extension_switch     1
  pspatm : epsatm=    6.22910522
         --- l  ekb(1:nproj) -->
             0    6.050032    0.820363
             1   -4.739617   -1.153841
             2   -1.335834
 pspatm: atomic psp has been read  and splines computed

   1.03711515E+04                                ecore*ucvol(ha*bohr**3)

 ==>  initialize data related to q vector <==

 The list of irreducible perturbations for this q vector is:
    1)    idir= 1    ipert=  13
    2)    idir= 2    ipert=  13
    3)    idir= 3    ipert=  13

 Perturbation wavevector (in red.coord.)   0.000000  0.000000  0.000000
 Perturbation : derivative vs k along direction   1

 dfpt_looppert : COMMENT -
  In a d/dk calculation, iscf is set to -3 automatically.
 The set of symmetries contains only one element for this perturbation.
 symkpt : not enough symmetry to change the number of k points.

 Initialisation of the first-order wave-functions :
  ireadwf=   0

--- !BeginCycle
iteration_state: {dtset: 1, }
solver: {iscf: 7, nstep: 2000, nline: 4, wfoptalg: 0, }
tolerances: {tolwfr: 1.00E-20, }
...

     iter   2DEtotal(Ha)        deltaE(Ha) residm    vres2
[...]
 ETOT 18  -67.056502205743      1.421E-14 1.699E-16 0.000E+00
 ETOT 19  -67.056502205743      0.000E+00 1.857E-17 0.000E+00
 ETOT 20  -67.056502205743     -1.421E-14 3.388E-18 0.000E+00
 ETOT 21  -67.056502205743      0.000E+00 3.678E-19 0.000E+00
 ETOT 22  -67.056502205743      1.421E-14 6.768E-20 0.000E+00
 ETOT 23  -67.056502205743      1.421E-14 9.992E-21 0.000E+00

 At SCF step   23   max residual=  9.99E-21 < tolwfr=  1.00E-20 =>converged.

 ----iterations are completed or convergence reached----

 dfpt_looppert: DFPT cycle converged with prtwf=-1. Will skip output of the 1st-order WFK file.
 dfpt_looppert : ek2=    8.5126057969E+01
          f-sum rule ratio=    1.0652682288E+00
 prteigrs : about to open file /scratch/users/j/a/jabreu/flow_simple_11atoms/flow/w270/t1/tmpdata/tmp_1WF1_EIG
 Expectation of eigenvalue derivatives (hartree) for nkpt=   2  k points:
  (in case of degenerate eigenvalues, averaged derivative)
 kpt#   1, nband= 47, wtk=  0.50000, kpt=  0.5000 -0.5000  0.0000 (reduced coord)
  -0.00000   -0.00000   -0.00000    0.00000   -0.00000   -0.00000   -0.00000   -0.00000
   0.00000   -0.00000   -0.00000    0.00000    0.00000    0.00000    0.00000   -0.00000
  -0.00000    0.00000   -0.00000   -0.00000   -0.00000    0.00000   -0.00000    0.00000
   0.00000    0.00000    0.00000   -0.00000   -0.00000    0.00000    0.00000    0.00000
  -0.00000   -0.00000   -0.00000    0.00000    0.00000   -0.00000   -0.00000    0.00000
   0.00000    0.00000   -0.00000   -0.00000    0.00000    0.00005   -0.06928
 prteigrs : prtvol=0 or 1, do not print more k-points.

 Eight components of 2nd-order total energy (hartree) are
 1,2,3: 0th-order hamiltonian combined with 1st-order wavefunctions
     kin0=   8.13911226E+01 eigvalue=   6.63789939E+00  local=  -3.52032676E+01
 4,5,6: 1st-order hamiltonian combined with 1st and 0th-order wfs
     kin1=  -9.06820850E+01  Hartree=   0.00000000E+00     xc=   0.00000000E+00
 7,8,9: eventually, occupation + non-local contributions
    edocc=   1.07501905E+01     enl0=   3.48055733E+00   enl1=  -4.34309194E+01
 1-9 gives the relaxation energy (to be shifted if some occ is /=2.0)
   erelax=  -6.70565022E+01
  No Ewald or frozen-wf contrib.: the relaxation energy is the total one
 2DEtotal=   -0.6705650221E+02 Ha. Also 2DEtotal=   -0.182470022183E+04 eV
    (  non-var. 2DEtotal :   -6.7056502206E+01 Ha)

 Perturbation wavevector (in red.coord.)   0.000000  0.000000  0.000000
 Perturbation : derivative vs k along direction   2
 The set of symmetries contains only one element for this perturbation.
 symkpt : not enough symmetry to change the number of k points.

[...]

 Perturbation wavevector (in red.coord.)   0.000000  0.000000  0.000000
 Perturbation : derivative vs k along direction   3
 The set of symmetries contains only one element for this perturbation.
 symkpt : not enough symmetry to change the number of k points.

 Initialisation of the first-order wave-functions :
  ireadwf=   0

--- !BeginCycle
iteration_state: {dtset: 1, }
solver: {iscf: 7, nstep: 2000, nline: 4, wfoptalg: 0, }
tolerances: {tolwfr: 1.00E-20, }
...

     iter   2DEtotal(Ha)        deltaE(Ha) residm    vres2
-ETOT  1  -50.365634170263     -5.037E+01 1.097E-01 0.000E+00
 ETOT  2  -50.403376511872     -3.774E-02 5.825E-03 0.000E+00
 ETOT  3  -50.403523138503     -1.466E-04 9.083E-04 0.000E+00
 ETOT  4  -50.403524758837     -1.620E-06 6.074E-05 0.000E+00
 ETOT  5  -50.403524782001     -2.316E-08 1.144E-05 0.000E+00
 ETOT  6  -50.403524782365     -3.635E-10 1.014E-06 0.000E+00
 ETOT  7  -50.403524782371     -5.961E-12 1.811E-07 0.000E+00
 ETOT  8  -50.403524782371     -1.279E-13 1.923E-08 0.000E+00
 ETOT  9  -50.403524782371     -7.105E-15 3.231E-09 0.000E+00
 ETOT 10  -50.403524782371      1.421E-14 3.880E-10 0.000E+00
 ETOT 11  -50.403524782371      3.553E-14 6.120E-11 0.000E+00
 ETOT 12  -50.403524782371      1.421E-14 9.039E-12 0.000E+00
 ETOT 13  -50.403524782371      0.000E+00 1.242E-12 0.000E+00
 ETOT 14  -50.403524782371     -1.421E-14 1.893E-13 0.000E+00
 ETOT 15  -50.403524782371      4.263E-14 2.581E-14 0.000E+00
 ETOT 16  -50.403524782371     -3.553E-14 3.977E-15 0.000E+00
 ETOT 17  -50.403524782371      0.000E+00 5.332E-16 0.000E+00
 ETOT 18  -50.403524782371      0.000E+00 8.366E-17 0.000E+00
 ETOT 19  -50.403524782371      2.842E-14 1.105E-17 0.000E+00
 ETOT 20  -50.403524782371     -2.132E-14 1.761E-18 0.000E+00
 ETOT 21  -50.403524782371     -7.105E-15 2.298E-19 0.000E+00
 ETOT 22  -50.403524782371     -7.105E-15 3.709E-20 0.000E+00
 ETOT 23  -50.403524782371     -1.421E-14 9.985E-21 0.000E+00

 At SCF step   23   max residual=  9.98E-21 < tolwfr=  1.00E-20 =>converged.

 ----iterations are completed or convergence reached----

 dfpt_looppert: DFPT cycle converged with prtwf=-1. Will skip output of the 1st-order WFK file.
 dfpt_looppert : ek2=    6.3878932038E+01
          f-sum rule ratio=    1.0692276190E+00
 prteigrs : about to open file /scratch/users/j/a/jabreu/flow_simple_11atoms/flow/w270/t1/tmpdata/tmp_1WF1_EIG
 Expectation of eigenvalue derivatives (hartree) for nkpt=   2  k points:
  (in case of degenerate eigenvalues, averaged derivative)
 kpt#   1, nband= 47, wtk=  0.50000, kpt=  0.5000 -0.5000  0.0000 (reduced coord)
  -0.00000    0.00000   -0.00000    0.00000   -0.00000   -0.00000    0.00000   -0.00000
  -0.00000    0.00000    0.00000    0.00000   -0.00000   -0.00000    0.00000   -0.00000
  -0.00000   -0.00000    0.00000   -0.00000   -0.00000    0.00000    0.00000   -0.00000
  -0.00000   -0.00000   -0.00000   -0.00000   -0.00000    0.00000   -0.00000    0.00000
  -0.00000   -0.00000    0.00000    0.00000   -0.00000   -0.00000    0.00000   -0.00000
  -0.00000    0.00000    0.00000    0.00000    0.00000    0.00000   -0.04612
 prteigrs : prtvol=0 or 1, do not print more k-points.

 Eight components of 2nd-order total energy (hartree) are
 1,2,3: 0th-order hamiltonian combined with 1st-order wavefunctions
     kin0=   6.03765560E+01 eigvalue=   5.03901791E+00  local=  -2.62270631E+01
 4,5,6: 1st-order hamiltonian combined with 1st and 0th-order wfs
     kin1=  -6.83011184E+01  Hartree=   0.00000000E+00     xc=   0.00000000E+00
 7,8,9: eventually, occupation + non-local contributions
    edocc=   8.51334872E+00     enl0=   2.70166523E+00   enl1=  -3.25059312E+01
 1-9 gives the relaxation energy (to be shifted if some occ is /=2.0)
   erelax=  -5.04035248E+01
  No Ewald or frozen-wf contrib.: the relaxation energy is the total one
 2DEtotal=   -0.5040352478E+02 Ha. Also 2DEtotal=   -0.137154966075E+04 eV
    (  non-var. 2DEtotal :   -5.0403524782E+01 Ha)

 CALCULATION OF EFFECTIVE MASSES
 NOTE : Additional infos (eff. mass eigenvalues, eigenvectors and, if degenerate, average mass) are available in stdout.

 K-point ( 0.500,-0.500, 0.000) | band =    38
 Effective mass tensor:
             -3.0800420594             -1.0259765488             -3.2230057967
             -1.0259765488             -4.4102319867             -5.9308632275
             -3.2230057967             -5.9308632275            -10.7222575027
 Effective mass tensor eigenvalues:
            -15.1827045437             -2.5224436140             -0.5073833911
 Angular average effective mass 1/(<1/m>)=  -1.2329434624
 Angular average effective mass for Frohlich model (<m**0.5>)**2=  -1.8783740479
 Effective masses along directions: (cart. coord. / red. coord. -> eff. mass)
    1:   1.000000  0.000000  0.000000 /   0.878394 -0.477938  0.000000 ->  -1.6042531737
    2:   0.000000  1.000000  0.000000 /   0.000000  1.000000  0.000000 ->  -0.8583875756
    3:   0.000000  0.000000  1.000000 /   0.167235  0.167235  0.971630 ->  -1.5506672850
    4:   0.577350  0.577350  0.577350 /   0.719605  0.288853  0.631452 ->  -3.3638059013
    5:   0.000000  0.707107  0.707107 /   0.121779  0.696109  0.707532 ->  -7.4065055787
    6:   0.707107  0.000000  0.707107 /   0.731927 -0.227551  0.642265 ->  -4.6348169114
    7:   0.707107  0.707107  0.000000 /   0.959158  0.282869  0.000000 ->  -0.7623406308

 K-point ( 0.000, 0.000, 0.000) | band =    39
 Effective mass tensor:
              0.3375999777             -0.0209818034              0.0062796734
             -0.0209818034              0.3103865379              0.0115569308
              0.0062796734              0.0115569308              0.3639427564
 Effective mass tensor eigenvalues:
              0.2964234943              0.3490008347              0.3665049430
 Angular average effective mass 1/(<1/m>)=   0.3345469739
 Angular average effective mass for Frohlich model (<m**0.5>)**2=   0.3353948534
 Effective masses along directions: (cart. coord. / red. coord. -> eff. mass)
    1:   1.000000  0.000000  0.000000 /   0.878394 -0.477938  0.000000 ->   0.3360444779
    2:   0.000000  1.000000  0.000000 /   0.000000  1.000000  0.000000 ->   0.3086902019
    3:   0.000000  0.000000  1.000000 /   0.167235  0.167235  0.971630 ->   0.3633641436
    4:   0.577350  0.577350  0.577350 /   0.719605  0.288853  0.631452 ->   0.3316523412
    5:   0.000000  0.707107  0.707107 /   0.121779  0.696109  0.707532 ->   0.3460926808
    6:   0.707107  0.000000  0.707107 /   0.731927 -0.227551  0.642265 ->   0.3563631665
    7:   0.707107  0.707107  0.000000 /   0.959158  0.282869  0.000000 ->   0.3020273789

 END OF EFFECTIVE MASSES SECTION

 ---- first-order wavefunction calculations are completed ----

 Total localisation tensor (bohr^2) in cartesian coordinates
  WARNING : still subject to testing - especially symmetries.
      direction              matrix element
   alpha     beta       real part   imaginary part
     1        1       2.0407935000    0.0000000000
     1        2      -0.7188328274    0.0000000000
     1        3       0.1277118766    0.0000000000
     2        1      -0.7188328274    0.0000000000
     2        2       1.1084529059    0.0000000000
     2        3       0.2350329607    0.0000000000
     3        1       0.1277118766    0.0000000000
     3        2       0.2350329607    0.0000000000
     3        3       1.3619436981    0.0000000000

 respfn : d/dk was computed, but no 2DTE, so no DDB output.

== END DATASET(S) ==============================================================

 -outvars: echo values of variables after computation  --------
            acell      1.0000000000E+00  1.0000000000E+00  1.0000000000E+00 Bohr
              amu      6.94100000E+00  2.07200000E+02  1.59994000E+01
             ecut      4.40000000E+01 Hartree
           etotal     -5.0403524782E+01
            fcart      0.0000000000E+00  0.0000000000E+00  0.0000000000E+00
                       0.0000000000E+00  0.0000000000E+00  0.0000000000E+00
                       0.0000000000E+00  0.0000000000E+00  0.0000000000E+00
                       0.0000000000E+00  0.0000000000E+00  0.0000000000E+00
                       0.0000000000E+00  0.0000000000E+00  0.0000000000E+00
                       0.0000000000E+00  0.0000000000E+00  0.0000000000E+00
                       0.0000000000E+00  0.0000000000E+00  0.0000000000E+00
                       0.0000000000E+00  0.0000000000E+00  0.0000000000E+00
                       0.0000000000E+00  0.0000000000E+00  0.0000000000E+00
                       0.0000000000E+00  0.0000000000E+00  0.0000000000E+00
                       0.0000000000E+00  0.0000000000E+00  0.0000000000E+00
                       0.0000000000E+00  0.0000000000E+00  0.0000000000E+00
-          fftalg         512
           irdden           1
           irdwfk           1
           istwfk        0    1
              ixc     -116133
              kpt      5.00000000E-01 -5.00000000E-01  0.00000000E+00
                       0.00000000E+00  0.00000000E+00  0.00000000E+00
           kptopt           0
P           mkmem           2
P          mkqmem           2
P          mk1mem           2
            natom          12
            nband          47
           nbdbuf           4
            ngfft          64      64      64
             nkpt           2
            nstep        2000
             nsym           4
           ntypat           3
              occ      2.000000  2.000000  2.000000  2.000000  2.000000  2.000000
                       2.000000  2.000000  2.000000  2.000000  2.000000  2.000000
                       2.000000  2.000000  2.000000  2.000000  2.000000  2.000000
                       2.000000  2.000000  2.000000  2.000000  2.000000  2.000000
                       2.000000  2.000000  2.000000  2.000000  2.000000  2.000000
                       2.000000  2.000000  2.000000  2.000000  2.000000  2.000000
                       2.000000  2.000000  0.000000  0.000000  0.000000  0.000000
                       0.000000  0.000000  0.000000  0.000000  0.000000
        optdriver           1
            prtwf          -1
            rfdir           1       1       1
           rfelfd           2
            rprim      1.0006891875E+01  0.0000000000E+00  1.7802538197E+00
                      -5.4447890324E+00  8.3959607779E+00  1.7802538197E+00
                       0.0000000000E+00  0.0000000000E+00  1.0343204407E+01
          spgroup          15
           strten      0.0000000000E+00  0.0000000000E+00  0.0000000000E+00
                       0.0000000000E+00  0.0000000000E+00  0.0000000000E+00
           symrel      1  0  0   0  1  0   0  0  1      -1  0  0   0 -1  0   0  0 -1
                       0 -1  0  -1  0  0   0  0 -1       0  1  0   1  0  0   0  0  1
            tnons      0.0000000  0.0000000  0.0000000    -0.0000000  0.0000000  0.0000000
                       0.0000000  0.0000000  0.5000000    -0.0000000  0.0000000  0.5000000
           tolwfr      1.00000000E-20
            typat      1  1  1  1  2  2  3  3  3  3  3  3
           useylm           1
              wtk        0.50000    0.50000
           xangst      3.1997203455E+00  1.1387372497E+00  2.3104167559E+00
                      -7.8555949813E-01  3.3042138382E+00  5.0471107739E+00
                       5.3706712661E-01  2.5855398420E+00  2.3104167559E+00
                       1.8770937208E+00  1.8574112459E+00  5.0471107739E+00
                       4.5688150277E+00  3.9481396252E-01  5.0471107739E+00
                      -2.1546541804E+00  4.0481371254E+00  2.3104167559E+00
                       2.6477095545E+00  0.0000000000E+00  4.7103487345E-01
                      -1.4406291308E+00  2.2214755439E+00  3.2077288915E+00
                       2.4784392671E+00  2.9998761316E+00  1.4719956398E+00
                       1.2457397685E+00  7.3125199070E-01  3.1488378720E+00
                      -6.4278419723E-02  1.4430749563E+00  5.8855318900E+00
                       1.1684210789E+00  3.7116990972E+00  4.2086896579E+00
            xcart      6.0465951548E+00  2.1519015393E+00  4.3660549215E+00
                      -1.4844923125E+00  6.2440592386E+00  9.5376571251E+00
                       1.0149097843E+00  4.8859622070E+00  4.3660549215E+00
                       3.5471930580E+00  3.5099985709E+00  9.5376571251E+00
                       8.6338091543E+00  7.4609026261E-01  9.5376571251E+00
                      -4.0717063120E+00  7.6498705153E+00  4.3660549215E+00
                       5.0034459374E+00  0.0000000000E+00  8.9012690985E-01
                      -2.7223945162E+00  4.1979803889E+00  6.0617291135E+00
                       4.6835714518E+00  5.6689443213E+00  2.7816686281E+00
                       2.3541069953E+00  1.3818659966E+00  5.9504412149E+00
                      -1.2146860953E-01  2.7270164566E+00  1.1122043419E+01
                       2.2079958470E+00  7.0140947813E+00  7.9532708317E+00
             xred      7.4369800000E-01  2.5630200000E-01  2.5000000000E-01
                       2.5630200000E-01  7.4369800000E-01  7.5000000000E-01
                       4.1805800000E-01  5.8194200000E-01  2.5000000000E-01
                       5.8194200000E-01  4.1805800000E-01  7.5000000000E-01
                       9.1113700000E-01  8.8863000000E-02  7.5000000000E-01
                       8.8863000000E-02  9.1113700000E-01  2.5000000000E-01
                       5.0000000000E-01  0.0000000000E+00  0.0000000000E+00
                       0.0000000000E+00  5.0000000000E-01  5.0000000000E-01
                       8.3541300000E-01  6.7519900000E-01  8.9330000000E-03
                       3.2480100000E-01  1.6458700000E-01  4.9106700000E-01
                       1.6458700000E-01  3.2480100000E-01  9.9106700000E-01
                       6.7519900000E-01  8.3541300000E-01  5.0893300000E-01
            znucl        3.00000   82.00000    8.00000

- Timing analysis has been suppressed with timopt=0

 Suggested references for the acknowledgment of ABINIT usage.

 Calculation completed.
.Delivered   2 WARNINGs and   5 COMMENTs to log file.