.Version 9.5.1 of ABINIT

 ABINIT is a project of the Universite Catholique de Louvain,
 Corning Inc. and other collaborators, see ~abinit/doc/developers/contributors.txt .
 acknowledgments of the ABINIT effort.

.Starting date : Tue 27 Apr 2021.
- ( at 18h42 )

- input  file    -> /scratch/users/j/a/jabreu/flow_simple_4atoms/flow/w209/t1/run.abi
- output file    -> /scratch/users/j/a/jabreu/flow_simple_4atoms/flow/w209/t1/run.abo
- root for input  files -> /scratch/users/j/a/jabreu/flow_simple_4atoms/flow/w209/t1/indata/in
- root for output files -> /scratch/users/j/a/jabreu/flow_simple_4atoms/flow/w209/t1/outdata/out

 Symmetries : space group R-3 m (#166); Bravais hR (rhombohedral)
     intxc =       0      iscf =       7    lmnmax =      32     lnmax =       8
     mgfft =      75  mpssoang =       4    mqgrid =    3001     natom =       4
  nloc_mem =       1    nspden =       1   nspinor =       1    nsppol =       1
      nsym =      12    n1xccc =    2501    ntypat =       3    occopt =       1
   xclevel =       2
-    mband =          30        mffmem =           1         mkmem =           2
-   mkqmem =           2        mk1mem =           2           mpw =        8546
      nfft =      421875          nkpt =           2
  Rough estimation (10% accuracy) of disk space for files :

------------- Echo of variables that govern the present computation ------------
-
- outvars: echo of selected default values
-   iomode0 =  0 , fftalg0 =512 , wfoptalg0 =  0
-
- outvars: echo of global parameters not present in the input file
-  max_nthreads =    0
-
 -outvars: echo values of preprocessed input variables --------
            acell      1.0000000000E+00  1.0000000000E+00  1.0000000000E+00 Bohr
              amu      1.38905500E+02  6.35460000E+01  1.59994000E+01
             ecut      5.20000000E+01 Hartree
-          fftalg         512
           irdden           1
           irdwfk           1
           istwfk        1    1
              ixc     -116133
              kpt      5.00000000E-01  5.00000000E-01  5.00000000E-01
                       5.00000000E-01  0.00000000E+00  2.77555756E-17
           kptopt           0
P           mkmem           2
P          mkqmem           2
P          mk1mem           2
            natom           4
            nband          30
           nbdbuf           4
            ngfft          75      75      75
             nkpt           2
            nstep         100
             nsym          12
           ntypat           3
              occ      2.000000  2.000000  2.000000  2.000000  2.000000  2.000000
                       2.000000  2.000000  2.000000  2.000000  2.000000  2.000000
                       2.000000  2.000000  2.000000  2.000000  2.000000  2.000000
                       2.000000  2.000000  2.000000  0.000000  0.000000  0.000000
                       0.000000  0.000000  0.000000  0.000000  0.000000  0.000000
        optdriver           1
            prtwf          -1
            rfdir           1       1       1
           rfelfd           2
            rprim      6.8450711335E+00  0.0000000000E+00  9.0417521829E+00
                       3.0365269138E+00  6.1346966612E+00  9.0417521829E+00
                       0.0000000000E+00  0.0000000000E+00  1.1340559129E+01
          spgroup         166
           symrel      1  0  0   0  1  0   0  0  1      -1  0  0   0 -1  0   0  0 -1
                       0  1  0   1  0  0   0  0  1       0 -1  0  -1  0  0   0  0 -1
                       0  0  1   1  0  0   0  1  0       0  0 -1  -1  0  0   0 -1  0
                       1  0  0   0  0  1   0  1  0      -1  0  0   0  0 -1   0 -1  0
                       0  1  0   0  0  1   1  0  0       0 -1  0   0  0 -1  -1  0  0
                       0  0  1   0  1  0   1  0  0       0  0 -1   0 -1  0  -1  0  0
           tolwfr      1.00000000E-20
            typat      1  2  3  3
           useylm           1
              wtk        0.50000    0.50000
           xangst      2.6145582355E+00  1.6231708274E+00  7.7852718928E+00
                       0.0000000000E+00  0.0000000000E+00  0.0000000000E+00
                       4.6706886649E+00  2.8996583367E+00  1.3907734274E+01
                       5.5842780618E-01  3.4668331799E-01  1.6628095120E+00
            xcart      4.9407990236E+00  3.0673483306E+00  1.4712031747E+01
                       0.0000000000E+00  0.0000000000E+00  0.0000000000E+00
                       8.8263224286E+00  5.4795601354E+00  2.6281808906E+01
                       1.0552756187E+00  6.5513652584E-01  3.1422545887E+00
             xred      5.0000000000E-01  5.0000000000E-01  5.0000000000E-01
                       0.0000000000E+00  0.0000000000E+00  0.0000000000E+00
                       8.9320800000E-01  8.9320800000E-01  8.9320800000E-01
                       1.0679200000E-01  1.0679200000E-01  1.0679200000E-01
            znucl       57.00000   29.00000    8.00000

 chkinp: Checking input parameters for consistency.

== DATASET  1 ==================================================================
-   mpi_nproc: 1, omp_nthreads: -1 (-1 if OMP is not activated)

--- !DatasetInfo
iteration_state: {dtset: 1, }
dimensions: {natom: 4, nkpt: 2, mband: 30, nsppol: 1, nspinor: 1, nspden: 1, mpw: 8546, }
cutoff_energies: {ecut:  52.0, pawecutdg:  -1.0, }
electrons: {nelect:   4.20000000E+01, charge:   0.00000000E+00, occopt:   1.00000000E+00, tsmear:   1.00000000E-02, }
meta: {optdriver: 1, rfelfd: 2, }
...

 Real(R)+Recip(G) space primitive vectors, cartesian coordinates (Bohr,Bohr^-1):
 R(1)=  6.8450711  0.0000000  9.0417522  G(1)=  0.1460905 -0.0723113  0.0000000
 R(2)=  3.0365269  6.1346967  9.0417522  G(2)=  0.0000000  0.1630072  0.0000000
 R(3)=  0.0000000  0.0000000 11.3405591  G(3)= -0.1164770 -0.0723113  0.0881791
 Unit cell volume ucvol=  4.7621769E+02 bohr^3
 Angles (23,13,12)=  3.71275935E+01  3.71275935E+01  3.71275935E+01 degrees

 getcut: wavevector=  0.0000  0.0000  0.0000  ngfft=  75  75  75
         ecut(hartree)=     52.000   => boxcut(ratio)=   2.01086

--- Pseudopotential description ------------------------------------------------
- pspini: atom type   1  psp file is /scratch/users/j/a/jabreu/pseudos/PBEsol/La.psp8
- pspatm: opening atomic psp file    /scratch/users/j/a/jabreu/pseudos/PBEsol/La.psp8
- La    ONCVPSP-3.3.0  r_core=   2.11664   1.60878   1.85636   1.66739
- 57.00000  11.00000    180112                znucl, zion, pspdat
    8 -116133    3    4       600   0.00000   pspcod,pspxc,lmax,lloc,mmax,r2well
    5.99000000000000    5.00000000000000    0.00000000000000   rchrg,fchrg,qchrg
     nproj     2     2     2     2
     extension_switch     1
  pspatm : epsatm=   29.08531775
         --- l  ekb(1:nproj) -->
             0    6.695600    0.639047
             1    6.383649    1.151322
             2    3.612966    0.847811
             3  -13.718437   -4.858923
 pspatm: atomic psp has been read  and splines computed

- pspini: atom type   2  psp file is /scratch/users/j/a/jabreu/pseudos/PBEsol/Cu.psp8
- pspatm: opening atomic psp file    /scratch/users/j/a/jabreu/pseudos/PBEsol/Cu.psp8
- Cu    ONCVPSP-3.3.0  r_core=   1.26204   1.45626   1.76249
- 29.00000  19.00000    180112                znucl, zion, pspdat
    8 -116133    2    4       600   0.00000   pspcod,pspxc,lmax,lloc,mmax,r2well
    5.99000000000000    3.50000000000000    0.00000000000000   rchrg,fchrg,qchrg
     nproj     2     2     2
     extension_switch     1
  pspatm : epsatm=   21.63488701
         --- l  ekb(1:nproj) -->
             0    5.008230   -0.401634
             1   -3.496700   -0.765945
             2   -6.895851   -2.521180
 pspatm: atomic psp has been read  and splines computed

- pspini: atom type   3  psp file is /scratch/users/j/a/jabreu/pseudos/PBEsol/O.psp8
- pspatm: opening atomic psp file    /scratch/users/j/a/jabreu/pseudos/PBEsol/O.psp8
- O     ONCVPSP-3.3.0  r_core=   1.35509   1.45563   1.26150
-  8.00000   6.00000    180112                znucl, zion, pspdat
    8 -116133    2    4       600   0.00000   pspcod,pspxc,lmax,lloc,mmax,r2well
    5.99000000000000    4.00000000000000    0.00000000000000   rchrg,fchrg,qchrg
     nproj     2     2     1
     extension_switch     1
  pspatm : epsatm=    6.22910522
         --- l  ekb(1:nproj) -->
             0    6.050032    0.820363
             1   -4.739617   -1.153841
             2   -1.335834
 pspatm: atomic psp has been read  and splines computed

   2.65349344E+03                                ecore*ucvol(ha*bohr**3)

-inwffil : will read wavefunctions from disk file /scratch/users/j/a/jabreu/flow_simple_4atoms/flow/w209/t1/indata/in_WFK

 ==>  initialize data related to q vector <==

 The list of irreducible perturbations for this q vector is:
    1)    idir= 1    ipert=   5
    2)    idir= 2    ipert=   5
    3)    idir= 3    ipert=   5

 Perturbation wavevector (in red.coord.)   0.000000  0.000000  0.000000
 Perturbation : derivative vs k along direction   1

 dfpt_looppert : COMMENT -
  In a d/dk calculation, iscf is set to -3 automatically.
 The set of symmetries contains only one element for this perturbation.
 symkpt : not enough symmetry to change the number of k points.

[...]

 Initialisation of the first-order wave-functions :
  ireadwf=   0

--- !BeginCycle
iteration_state: {dtset: 1, }
solver: {iscf: 7, nstep: 100, nline: 4, wfoptalg: 0, }
tolerances: {tolwfr: 1.00E-20, }
...

     iter   2DEtotal(Ha)        deltaE(Ha) residm    vres2
-ETOT  1  -50.948627844367     -5.095E+01 2.075E-01 0.000E+00
 ETOT  2  -51.293180814208     -3.446E-01 2.738E-02 0.000E+00
 ETOT  3  -51.308206104902     -1.503E-02 1.088E-02 0.000E+00
 ETOT  4  -51.309422306116     -1.216E-03 4.968E-03 0.000E+00
 ETOT  5  -51.309549972157     -1.277E-04 2.460E-03 0.000E+00
 ETOT  6  -51.309566705065     -1.673E-05 1.917E-03 0.000E+00
 ETOT  7  -51.309569433028     -2.728E-06 1.119E-03 0.000E+00
 ETOT  8  -51.309570037567     -6.045E-07 1.205E-03 0.000E+00
 ETOT  9  -51.309570197253     -1.597E-07 7.119E-04 0.000E+00
 ETOT 10  -51.309570244099     -4.685E-08 7.685E-04 0.000E+00
 ETOT 11  -51.309570258451     -1.435E-08 4.574E-04 0.000E+00
 ETOT 12  -51.309570262921     -4.470E-09 4.942E-04 0.000E+00
 ETOT 13  -51.309570264327     -1.406E-09 2.955E-04 0.000E+00
 ETOT 14  -51.309570264771     -4.444E-10 3.194E-04 0.000E+00
 ETOT 15  -51.309570264912     -1.412E-10 1.917E-04 0.000E+00
 ETOT 16  -51.309570264957     -4.492E-11 2.071E-04 0.000E+00
 ETOT 17  -51.309570264972     -1.437E-11 1.246E-04 0.000E+00
 ETOT 18  -51.309570264976     -4.604E-12 1.345E-04 0.000E+00
 ETOT 19  -51.309570264978     -1.428E-12 8.110E-05 0.000E+00
 ETOT 20  -51.309570264978     -5.613E-13 8.752E-05 0.000E+00
 ETOT 21  -51.309570264978     -1.421E-13 5.286E-05 0.000E+00
 ETOT 22  -51.309570264978      0.000E+00 5.700E-05 0.000E+00
 ETOT 23  -51.309570264978     -6.395E-14 3.448E-05 0.000E+00
 ETOT 24  -51.309570264978      2.132E-14 3.715E-05 0.000E+00
 ETOT 25  -51.309570264978      5.684E-14 2.250E-05 0.000E+00
 ETOT 26  -51.309570264978     -4.974E-14 2.423E-05 0.000E+00
 ETOT 27  -51.309570264978      7.105E-15 1.509E-05 0.000E+00
[...]

 Perturbation wavevector (in red.coord.)   0.000000  0.000000  0.000000
 Perturbation : derivative vs k along direction   3
 The set of symmetries contains only one element for this perturbation.
 symkpt : not enough symmetry to change the number of k points.

-inwffil : will read wavefunctions from disk file /scratch/users/j/a/jabreu/flow_simple_4atoms/flow/w209/t1/indata/in_WFK

 Initialisation of the first-order wave-functions :
  ireadwf=   0

--- !BeginCycle
iteration_state: {dtset: 1, }
solver: {iscf: 7, nstep: 100, nline: 4, wfoptalg: 0, }
tolerances: {tolwfr: 1.00E-20, }
...

     iter   2DEtotal(Ha)        deltaE(Ha) residm    vres2
-ETOT  1  -47.951436182704     -4.795E+01 1.106E-01 0.000E+00
 ETOT  2  -48.264188878779     -3.128E-01 6.136E-02 0.000E+00
 ETOT  3  -48.276899708525     -1.271E-02 8.217E-03 0.000E+00
 ETOT  4  -48.277873547682     -9.738E-04 5.632E-03 0.000E+00
 ETOT  5  -48.277972245573     -9.870E-05 2.765E-03 0.000E+00
 ETOT  6  -48.277986414168     -1.417E-05 2.597E-03 0.000E+00
 ETOT  7  -48.277989090716     -2.677E-06 1.738E-03 0.000E+00
 ETOT  8  -48.277989717700     -6.270E-07 1.650E-03 0.000E+00
 ETOT  9  -48.277989886089     -1.684E-07 1.117E-03 0.000E+00
 ETOT 10  -48.277989934908     -4.882E-08 1.063E-03 0.000E+00
 ETOT 11  -48.277989949690     -1.478E-08 7.243E-04 0.000E+00
 ETOT 12  -48.277989954258     -4.569E-09 6.906E-04 0.000E+00
 ETOT 13  -48.277989955687     -1.428E-09 4.726E-04 0.000E+00
 ETOT 14  -48.277989956135     -4.487E-10 4.507E-04 0.000E+00
 ETOT 15  -48.277989956277     -1.415E-10 3.095E-04 0.000E+00
 ETOT 16  -48.277989956322     -4.481E-11 2.951E-04 0.000E+00
 ETOT 17  -48.277989956336     -1.420E-11 2.031E-04 0.000E+00
 ETOT 18  -48.277989956340     -4.519E-12 1.936E-04 0.000E+00
 ETOT 19  -48.277989956342     -1.457E-12 1.336E-04 0.000E+00
 ETOT 20  -48.277989956342     -4.334E-13 1.272E-04 0.000E+00
 ETOT 21  -48.277989956342     -1.918E-13 8.790E-05 0.000E+00
 ETOT 22  -48.277989956342     -1.421E-14 8.362E-05 0.000E+00
 ETOT 23  -48.277989956342      0.000E+00 5.790E-05 0.000E+00
 ETOT 24  -48.277989956343     -4.263E-14 5.503E-05 0.000E+00
 ETOT 25  -48.277989956342      4.263E-14 3.817E-05 0.000E+00
 ETOT 26  -48.277989956342     -2.132E-14 3.623E-05 0.000E+00
 ETOT 27  -48.277989956342      2.132E-14 2.517E-05 0.000E+00
 ETOT 28  -48.277989956342      0.000E+00 2.387E-05 0.000E+00
 ETOT 29  -48.277989956342     -2.842E-14 1.660E-05 0.000E+00
 ETOT 30  -48.277989956342      1.421E-14 1.573E-05 0.000E+00
 ETOT 31  -48.277989956342      7.105E-15 1.096E-05 0.000E+00
 ETOT 32  -48.277989956343     -3.553E-14 1.037E-05 0.000E+00
 ETOT 33  -48.277989956342      7.105E-15 7.232E-06 0.000E+00
 ETOT 34  -48.277989956342      1.421E-14 6.838E-06 0.000E+00
 ETOT 35  -48.277989956343     -2.842E-14 4.775E-06 0.000E+00
 ETOT 36  -48.277989956343      0.000E+00 4.510E-06 0.000E+00
 ETOT 37  -48.277989956342      1.421E-14 3.153E-06 0.000E+00
 ETOT 38  -48.277989956343     -2.842E-14 2.976E-06 0.000E+00
 ETOT 39  -48.277989956343      1.421E-14 2.083E-06 0.000E+00
 ETOT 40  -48.277989956343     -1.421E-14 1.964E-06 0.000E+00
 ETOT 41  -48.277989956343      0.000E+00 1.376E-06 0.000E+00
 ETOT 42  -48.277989956343      1.421E-14 1.296E-06 0.000E+00
 ETOT 43  -48.277989956343      0.000E+00 9.093E-07 0.000E+00
 ETOT 44  -48.277989956343      0.000E+00 8.556E-07 0.000E+00
 ETOT 45  -48.277989956343      0.000E+00 6.009E-07 0.000E+00
 ETOT 46  -48.277989956343      0.000E+00 5.650E-07 0.000E+00
 ETOT 47  -48.277989956343     -1.421E-14 3.972E-07 0.000E+00
 ETOT 48  -48.277989956342      2.842E-14 3.731E-07 0.000E+00
 ETOT 49  -48.277989956343     -1.421E-14 2.626E-07 0.000E+00
 ETOT 50  -48.277989956343      7.105E-15 2.464E-07 0.000E+00
 ETOT 51  -48.277989956343      0.000E+00 1.736E-07 0.000E+00
 ETOT 52  -48.277989956343      0.000E+00 1.628E-07 0.000E+00
 ETOT 53  -48.277989956343     -1.421E-14 1.148E-07 0.000E+00
 ETOT 54  -48.277989956342      2.132E-14 1.076E-07 0.000E+00
 ETOT 55  -48.277989956342      0.000E+00 7.592E-08 0.000E+00
 ETOT 56  -48.277989956343     -7.105E-15 7.110E-08 0.000E+00
 ETOT 57  -48.277989956343      0.000E+00 5.022E-08 0.000E+00
 ETOT 58  -48.277989956343     -7.105E-15 4.699E-08 0.000E+00
 ETOT 59  -48.277989956343      7.105E-15 3.322E-08 0.000E+00
 ETOT 60  -48.277989956342      7.105E-15 3.107E-08 0.000E+00
 ETOT 61  -48.277989956343     -7.105E-15 2.198E-08 0.000E+00
[...]
 ETOT 86  -48.277989956342      2.842E-14 1.461E-10 0.000E+00
 ETOT 87  -48.277989956342      0.000E+00 1.046E-10 0.000E+00
 ETOT 88  -48.277989956342     -7.105E-15 9.698E-11 0.000E+00
 ETOT 89  -48.277989956343     -3.553E-14 6.947E-11 0.000E+00
 ETOT 90  -48.277989956343      0.000E+00 6.441E-11 0.000E+00
 ETOT 91  -48.277989956343      0.000E+00 4.618E-11 0.000E+00
 ETOT 92  -48.277989956343      2.132E-14 4.280E-11 0.000E+00
 ETOT 93  -48.277989956343     -2.842E-14 3.072E-11 0.000E+00
 ETOT 94  -48.277989956343     -7.105E-15 2.846E-11 0.000E+00
 ETOT 95  -48.277989956343      2.132E-14 2.071E-11 0.000E+00
 ETOT 96  -48.277989956343      7.105E-15 1.894E-11 0.000E+00
 ETOT 97  -48.277989956343     -2.132E-14 1.402E-11 0.000E+00
 ETOT 98  -48.277989956343     -7.105E-15 1.261E-11 0.000E+00
 ETOT 99  -48.277989956342      4.263E-14 9.490E-12 0.000E+00
 ETOT  100  -48.277989956343     -2.842E-14 8.408E-12 0.000E+00

 scprqt:  WARNING -
  nstep=  100 was not enough SCF cycles to converge;
  maximum residual=  8.408E-12 exceeds tolwfr=  1.000E-20

 ----iterations are completed or convergence reached----

 Mean square residual over all n,k,spin=   29.023E-14; max=  84.085E-13
 dfpt_looppert : ek2=    8.8115606781E+01
          f-sum rule ratio=    9.8231051416E-01
 prteigrs : about to open file /scratch/users/j/a/jabreu/flow_simple_4atoms/flow/w209/t1/tmpdata/tmp_1WF1_EIG
 Expectation of eigenvalue derivatives (hartree) for nkpt=   2  k points:
  (in case of degenerate eigenvalues, averaged derivative)
 kpt#   1, nband= 30, wtk=  0.50000, kpt=  0.5000  0.5000  0.5000 (reduced coord)
  -0.00000    0.00000   -0.00000   -0.00000   -0.00000   -0.00000    0.00000    0.00000
   0.00000    0.00000   -0.00000   -0.00000    0.00000    0.00000    0.00000    0.00000
  -0.00000    0.00000    0.00000    0.00000    0.00000   -0.00000    0.00000   -0.00000
  -0.00000   -0.00000   -0.00000    0.00043   -0.02241   -0.00031
 prteigrs : prtvol=0 or 1, do not print more k-points.

 Eight components of 2nd-order total energy (hartree) are
 1,2,3: 0th-order hamiltonian combined with 1st-order wavefunctions
     kin0=   8.63447079E+01 eigvalue=  -7.28725445E-03  local=  -4.08224073E+01
 4,5,6: 1st-order hamiltonian combined with 1st and 0th-order wfs
     kin1=  -8.65568870E+01  Hartree=   0.00000000E+00     xc=   0.00000000E+00
 7,8,9: eventually, occupation + non-local contributions
    edocc=   5.06137940E+00     enl0=  -2.29840272E+00   enl1=  -9.99909291E+00
 1-9 gives the relaxation energy (to be shifted if some occ is /=2.0)
   erelax=  -4.82779900E+01
  No Ewald or frozen-wf contrib.: the relaxation energy is the total one
 2DEtotal=   -0.4827798996E+02 Ha. Also 2DEtotal=   -0.131371091669E+04 eV
    (  non-var. 2DEtotal :   -4.8277989956E+01 Ha)

 CALCULATION OF EFFECTIVE MASSES
 NOTE : Additional infos (eff. mass eigenvalues, eigenvectors and, if degenerate, average mass) are available in stdout.

 COMMENTS:
 - At k-point ( 0.500, 0.500, 0.500), bands    20 through    21
   are DEGENERATE (effective mass tensor is therefore not defined).
   See Section IIIB Eqs. (67)-(70) and Appendix E of PRB 93 205147 (2016).
 - Angular average effective mass for Frohlich model is to be averaged over degenerate bands. See later.
 - Associated theta integrals calculated with ntheta=   1000 points.

 K-point ( 0.500, 0.500, 0.500) | band =    20
 Transport equivalent effective mass tensor:
             -2.8215815320              0.1258669309              0.6041304626
              0.1258669309             -2.9462770526              0.3750673279
              0.6041304626              0.3750673279             -1.2256595371
 Transport equivalent effective mass tensor eigenvalues:
             -3.0245656445             -3.0243815452             -0.9445709319
 Angular average effective mass 1/(<1/m>)=  -1.5364916000
 Angular average effective mass for Frohlich model (<m**0.5>)**2=  -1.7170676701
 Effective masses along directions: (cart. coord. / red. coord. -> eff. mass)
    1:   1.000000  0.000000  0.000000 /   0.914095  0.405500  0.000000 ->  -2.2309867873
    2:   0.000000  1.000000  0.000000 /   0.000000  1.000000  0.000000 ->  -2.9495410335
    3:   0.000000  0.000000  1.000000 /   0.529024  0.529024  0.663526 ->  -0.9507019710
    4:   0.577350  0.577350  0.577350 /   0.595086  0.682219  0.424793 ->  -1.0192275867
    5:   0.000000  0.707107  0.707107 /   0.430713  0.722945  0.540219 ->  -1.1152576286
    6:   0.707107  0.000000  0.707107 /   0.692117  0.526196  0.494057 ->  -1.0160037882
    7:   0.707107  0.707107  0.000000 /   0.598133  0.801396  0.000000 ->  -1.8481202954

 K-point ( 0.500, 0.500, 0.500) | band =    21
 Transport equivalent effective mass tensor:
            -23.3972570891              1.3957807476              6.6331872768
              1.3957807476            -24.7952756478              4.1245444071
              6.6331872768              4.1245444071             -5.8763619217
 Transport equivalent effective mass tensor eigenvalues:
            -25.6595121804            -25.6224488838             -2.7869335943
 Angular average effective mass 1/(<1/m>)=  -2.6995192706
 Angular average effective mass for Frohlich model (<m**0.5>)**2=  -4.5429137656
 Effective masses along directions: (cart. coord. / red. coord. -> eff. mass)
    1:   1.000000  0.000000  0.000000 /   0.914095  0.405500  0.000000 ->  -6.1258933595
    2:   0.000000  1.000000  0.000000 /   0.000000  1.000000  0.000000 ->  -5.9451990175
    3:   0.000000  0.000000  1.000000 /   0.529024  0.529024  0.663526 ->  -1.1195170191
    4:   0.577350  0.577350  0.577350 /   0.595086  0.682219  0.424793 ->  -1.5237743893
    5:   0.000000  0.707107  0.707107 /   0.430713  0.722945  0.540219 ->  -1.5545975827
    6:   0.707107  0.000000  0.707107 /   0.692117  0.526196  0.494057 ->  -1.2514207213
    7:   0.707107  0.707107  0.000000 /   0.598133  0.801396  0.000000 ->  -8.0862012857

 Angular average effective mass for Frohlich model, averaged over degenerate bands.
 Value of     (<<m**0.5>>)**2 =     2.961463E+00
 Absolute Value of <<m**0.5>> =     1.720890E+00

 K-point ( 0.500, 0.000, 0.000) | band =    22
 Effective mass tensor:
              0.5973602681              0.4514839537             -0.0401355026
              0.4514839537              1.2860905100             -0.0808971274
             -0.0401355026             -0.0808971274              1.2709769629
 Effective mass tensor eigenvalues:
              0.3739004985              1.2406491125              1.5398781300
 Angular average effective mass 1/(<1/m>)=   0.7264027959
 Angular average effective mass for Frohlich model (<m**0.5>)**2=   0.8269787341
 Effective masses along directions: (cart. coord. / red. coord. -> eff. mass)
    1:   1.000000  0.000000  0.000000 /   0.914095  0.405500  0.000000 ->   0.4387573539
    2:   0.000000  1.000000  0.000000 /   0.000000  1.000000  0.000000 ->   0.9428438499
    3:   0.000000  0.000000  1.000000 /   0.529024  0.529024  0.663526 ->   1.2655745418
    4:   0.577350  0.577350  0.577350 /   0.595086  0.682219  0.424793 ->   1.1281502460
    5:   0.000000  0.707107  0.707107 /   0.430713  0.722945  0.540219 ->   1.0334080469
    6:   0.707107  0.000000  0.707107 /   0.692117  0.526196  0.494057 ->   0.6427601200
    7:   0.707107  0.707107  0.000000 /   0.598133  0.801396  0.000000 ->   1.1479503322

 END OF EFFECTIVE MASSES SECTION

 ---- first-order wavefunction calculations are completed ----

 Total localisation tensor (bohr^2) in cartesian coordinates
  WARNING : still subject to testing - especially symmetries.
      direction              matrix element
   alpha     beta       real part   imaginary part
     1        1       1.2323080561    0.0000000000
     1        2       0.3078434497    0.0000000000
     1        3       1.8802204473    0.0000000000
     2        1       0.3078434497    0.0000000000
     2        2       0.6219362569    0.0000000000
     2        3       0.9166538818    0.0000000000
     3        1       1.8802204473    0.0000000000
     3        2       0.9166538818    0.0000000000
     3        3       5.3603052360    0.0000000000

 respfn : d/dk was computed, but no 2DTE, so no DDB output.

== END DATASET(S) ==============================================================

 -outvars: echo values of variables after computation  --------
            acell      1.0000000000E+00  1.0000000000E+00  1.0000000000E+00 Bohr
              amu      1.38905500E+02  6.35460000E+01  1.59994000E+01
             ecut      5.20000000E+01 Hartree
           etotal     -4.8277989956E+01
            fcart      0.0000000000E+00  0.0000000000E+00  0.0000000000E+00
                       0.0000000000E+00  0.0000000000E+00  0.0000000000E+00
                       0.0000000000E+00  0.0000000000E+00  0.0000000000E+00
                       0.0000000000E+00  0.0000000000E+00  0.0000000000E+00
-          fftalg         512
           irdden           1
           irdwfk           1
           istwfk        1    1
              ixc     -116133
              kpt      5.00000000E-01  5.00000000E-01  5.00000000E-01
                       5.00000000E-01  0.00000000E+00  2.77555756E-17
           kptopt           0
P           mkmem           2
P          mkqmem           2
P          mk1mem           2
            natom           4
            nband          30
           nbdbuf           4
            ngfft          75      75      75
             nkpt           2
            nstep         100
             nsym          12
           ntypat           3
              occ      2.000000  2.000000  2.000000  2.000000  2.000000  2.000000
                       2.000000  2.000000  2.000000  2.000000  2.000000  2.000000
                       2.000000  2.000000  2.000000  2.000000  2.000000  2.000000
                       2.000000  2.000000  2.000000  0.000000  0.000000  0.000000
                       0.000000  0.000000  0.000000  0.000000  0.000000  0.000000
        optdriver           1
            prtwf          -1
            rfdir           1       1       1
           rfelfd           2
            rprim      6.8450711335E+00  0.0000000000E+00  9.0417521829E+00
                       3.0365269138E+00  6.1346966612E+00  9.0417521829E+00
                       0.0000000000E+00  0.0000000000E+00  1.1340559129E+01
          spgroup         166
           strten      0.0000000000E+00  0.0000000000E+00  0.0000000000E+00
                       0.0000000000E+00  0.0000000000E+00  0.0000000000E+00
           symrel      1  0  0   0  1  0   0  0  1      -1  0  0   0 -1  0   0  0 -1
                       0  1  0   1  0  0   0  0  1       0 -1  0  -1  0  0   0  0 -1
                       0  0  1   1  0  0   0  1  0       0  0 -1  -1  0  0   0 -1  0
                       1  0  0   0  0  1   0  1  0      -1  0  0   0  0 -1   0 -1  0
                       0  1  0   0  0  1   1  0  0       0 -1  0   0  0 -1  -1  0  0
                       0  0  1   0  1  0   1  0  0       0  0 -1   0 -1  0  -1  0  0
           tolwfr      1.00000000E-20
            typat      1  2  3  3
           useylm           1
              wtk        0.50000    0.50000
           xangst      2.6145582355E+00  1.6231708274E+00  7.7852718928E+00
                       0.0000000000E+00  0.0000000000E+00  0.0000000000E+00
                       4.6706886649E+00  2.8996583367E+00  1.3907734274E+01
                       5.5842780618E-01  3.4668331799E-01  1.6628095120E+00
            xcart      4.9407990236E+00  3.0673483306E+00  1.4712031747E+01
                       0.0000000000E+00  0.0000000000E+00  0.0000000000E+00
                       8.8263224286E+00  5.4795601354E+00  2.6281808906E+01
                       1.0552756187E+00  6.5513652584E-01  3.1422545887E+00
             xred      5.0000000000E-01  5.0000000000E-01  5.0000000000E-01
                       0.0000000000E+00  0.0000000000E+00  0.0000000000E+00
                       8.9320800000E-01  8.9320800000E-01  8.9320800000E-01
                       1.0679200000E-01  1.0679200000E-01  1.0679200000E-01
            znucl       57.00000   29.00000    8.00000

- Timing analysis has been suppressed with timopt=0

 Suggested references for the acknowledgment of ABINIT usage.

 Calculation completed.
.Delivered  17 WARNINGs and   9 COMMENTs to log file.