.Version 9.5.1 of ABINIT

 ABINIT is a project of the Universite Catholique de Louvain,
 Corning Inc. and other collaborators, see ~abinit/doc/developers/contributors.txt .
 acknowledgments of the ABINIT effort.

.Starting date : Wed  5 May 2021.
- ( at 20h11 )

- input  file    -> /scratch/users/j/a/jabreu/flow_simple_7atoms/flow/w200/t1/run.abi
- output file    -> /scratch/users/j/a/jabreu/flow_simple_7atoms/flow/w200/t1/run.abo
- root for input  files -> /scratch/users/j/a/jabreu/flow_simple_7atoms/flow/w200/t1/indata/in
- root for output files -> /scratch/users/j/a/jabreu/flow_simple_7atoms/flow/w200/t1/outdata/out

 Symmetries : space group P4/m m m (#123); Bravais tP (primitive tetrag.)
     intxc =       0      iscf =       7    lmnmax =      18     lnmax =       6
     mgfft =      80  mpssoang =       3    mqgrid =    3809     natom =       7
  nloc_mem =       1    nspden =       1   nspinor =       1    nsppol =       1
      nsym =      16    n1xccc =    2501    ntypat =       3    occopt =       1
   xclevel =       2
-    mband =          41        mffmem =           1         mkmem =           2
-   mkqmem =           2        mk1mem =           2           mpw =       16908
      nfft =      307200          nkpt =           2
  Rough estimation (10% accuracy) of disk space for files :

------------- Echo of variables that govern the present computation ------------
-
- outvars: echo of selected default values
-   iomode0 =  0 , fftalg0 =512 , wfoptalg0 =  0
-
- outvars: echo of global parameters not present in the input file
-  max_nthreads =    0
-
 -outvars: echo values of preprocessed input variables --------
            acell      1.0000000000E+00  1.0000000000E+00  1.0000000000E+00 Bohr
              amu      3.90983000E+01  1.06420000E+02  3.54527000E+01
             ecut      4.10000000E+01 Hartree
-          fftalg         512
           irdden           1
           irdwfk           1
           istwfk        1    1
              ixc     -116133
              kpt      5.00000000E-01  5.00000000E-01  5.00000000E-01
                       5.00000000E-01  5.00000000E-01  0.00000000E+00
           kptopt           0
P           mkmem           2
P          mkqmem           2
P          mk1mem           2
            natom           7
            nband          41
           nbdbuf           4
            ngfft          80      80      48
             nkpt           2
            nstep        2000
             nsym          16
           ntypat           3
              occ      2.000000  2.000000  2.000000  2.000000  2.000000  2.000000
                       2.000000  2.000000  2.000000  2.000000  2.000000  2.000000
                       2.000000  2.000000  2.000000  2.000000  2.000000  2.000000
                       2.000000  2.000000  2.000000  2.000000  2.000000  2.000000
                       2.000000  2.000000  2.000000  2.000000  2.000000  2.000000
                       2.000000  2.000000  0.000000  0.000000  0.000000  0.000000
                       0.000000  0.000000  0.000000  0.000000  0.000000
        optdriver           1
            prtwf          -1
            rfdir           1       1       1
           rfelfd           2
            rprim      1.3214117740E+01  0.0000000000E+00  0.0000000000E+00
                       0.0000000000E+00  1.3214117740E+01  0.0000000000E+00
                       0.0000000000E+00  0.0000000000E+00  7.7235134012E+00
          spgroup         123
           symrel      1  0  0   0  1  0   0  0  1      -1  0  0   0 -1  0   0  0 -1
                      -1  0  0   0  1  0   0  0 -1       1  0  0   0 -1  0   0  0  1
                      -1  0  0   0 -1  0   0  0  1       1  0  0   0  1  0   0  0 -1
                       1  0  0   0 -1  0   0  0 -1      -1  0  0   0  1  0   0  0  1
                       0  1  0   1  0  0   0  0  1       0 -1  0  -1  0  0   0  0 -1
                       0 -1  0   1  0  0   0  0 -1       0  1  0  -1  0  0   0  0  1
                       0 -1  0  -1  0  0   0  0  1       0  1  0   1  0  0   0  0 -1
                       0  1  0  -1  0  0   0  0 -1       0 -1  0   1  0  0   0  0  1
           tolwfr      1.00000000E-20
            typat      1  1  2  3  3  3  3
           useylm           1
              wtk        0.50000    0.50000
           xangst      3.4963049697E+00  0.0000000000E+00  2.0435536311E+00
                       0.0000000000E+00  3.4963049697E+00  2.0435536311E+00
                       0.0000000000E+00  0.0000000000E+00  0.0000000000E+00
                       1.6225092695E+00  5.3701006700E+00  0.0000000000E+00
                       1.6225092695E+00  1.6225092695E+00  0.0000000000E+00
                       5.3701006700E+00  5.3701006700E+00  0.0000000000E+00
                       5.3701006700E+00  1.6225092695E+00  0.0000000000E+00
            xcart      6.6070588698E+00  0.0000000000E+00  3.8617567006E+00
                       0.0000000000E+00  6.6070588698E+00  3.8617567006E+00
                       0.0000000000E+00  0.0000000000E+00  0.0000000000E+00
                       3.0660981674E+00  1.0148019572E+01  0.0000000000E+00
                       3.0660981674E+00  3.0660981674E+00  0.0000000000E+00
                       1.0148019572E+01  1.0148019572E+01  0.0000000000E+00
                       1.0148019572E+01  3.0660981674E+00  0.0000000000E+00
             xred      5.0000000000E-01  0.0000000000E+00  5.0000000000E-01
                       0.0000000000E+00  5.0000000000E-01  5.0000000000E-01
                       0.0000000000E+00  0.0000000000E+00  0.0000000000E+00
                       2.3203200000E-01  7.6796800000E-01  0.0000000000E+00
                       2.3203200000E-01  2.3203200000E-01  0.0000000000E+00
                       7.6796800000E-01  7.6796800000E-01  0.0000000000E+00
                       7.6796800000E-01  2.3203200000E-01  0.0000000000E+00
            znucl       19.00000   46.00000   17.00000

 chkinp: Checking input parameters for consistency.

== DATASET  1 ==================================================================
-   mpi_nproc: 1, omp_nthreads: -1 (-1 if OMP is not activated)

--- !DatasetInfo
iteration_state: {dtset: 1, }
dimensions: {natom: 7, nkpt: 2, mband: 41, nsppol: 1, nspinor: 1, nspden: 1, mpw: 16908, }
cutoff_energies: {ecut:  41.0, pawecutdg:  -1.0, }
electrons: {nelect:   6.40000000E+01, charge:   0.00000000E+00, occopt:   1.00000000E+00, tsmear:   1.00000000E-02, }
meta: {optdriver: 1, rfelfd: 2, }
...

 Real(R)+Recip(G) space primitive vectors, cartesian coordinates (Bohr,Bohr^-1):
 R(1)= 13.2141177  0.0000000  0.0000000  G(1)=  0.0756766  0.0000000  0.0000000
 R(2)=  0.0000000 13.2141177  0.0000000  G(2)=  0.0000000  0.0756766  0.0000000
 R(3)=  0.0000000  0.0000000  7.7235134  G(3)=  0.0000000  0.0000000  0.1294748
 Unit cell volume ucvol=  1.3486251E+03 bohr^3
 Angles (23,13,12)=  9.00000000E+01  9.00000000E+01  9.00000000E+01 degrees

 getcut: wavevector=  0.0000  0.0000  0.0000  ngfft=  80  80  48
         ecut(hartree)=     41.000   => boxcut(ratio)=   2.10036

--- Pseudopotential description ------------------------------------------------
- pspini: atom type   1  psp file is /scratch/users/j/a/jabreu/pseudos/PBEsol/K.psp8
- pspatm: opening atomic psp file    /scratch/users/j/a/jabreu/pseudos/PBEsol/K.psp8
- K     ONCVPSP-3.3.0  r_core=   1.36296   1.46408   1.61068
- 19.00000   9.00000    180112                znucl, zion, pspdat
    8 -116133    2    4       400   0.00000   pspcod,pspxc,lmax,lloc,mmax,r2well
    3.99000000000000    5.00000000000000    0.00000000000000   rchrg,fchrg,qchrg
     nproj     2     2     2
     extension_switch     1
  pspatm : epsatm=    8.32487830
         --- l  ekb(1:nproj) -->
             0   10.921326    0.816676
             1    4.431000    0.560368
             2   -3.384038   -1.043186
 pspatm: atomic psp has been read  and splines computed

- pspini: atom type   2  psp file is /scratch/users/j/a/jabreu/pseudos/PBEsol/Pd.psp8
- pspatm: opening atomic psp file    /scratch/users/j/a/jabreu/pseudos/PBEsol/Pd.psp8
- Pd    ONCVPSP-3.3.0  r_core=   1.41052   1.46191   1.55175
- 46.00000  18.00000    180112                znucl, zion, pspdat
    8 -116133    2    4       600   0.00000   pspcod,pspxc,lmax,lloc,mmax,r2well
    5.99000000000000    7.00000000000000    0.00000000000000   rchrg,fchrg,qchrg
     nproj     2     2     2
     extension_switch     1
  pspatm : epsatm=   26.17262427
         --- l  ekb(1:nproj) -->
             0    7.952303   -2.096627
             1    3.304793   -0.572651
             2   -1.185452   -0.410427
 pspatm: atomic psp has been read  and splines computed

- pspini: atom type   3  psp file is /scratch/users/j/a/jabreu/pseudos/PBEsol/Cl.psp8
- pspatm: opening atomic psp file    /scratch/users/j/a/jabreu/pseudos/PBEsol/Cl.psp8
- Cl    ONCVPSP-3.3.0  r_core=   1.56009   1.35202   1.75774
- 17.00000   7.00000    180112                znucl, zion, pspdat
    8 -116133    2    4       600   0.00000   pspcod,pspxc,lmax,lloc,mmax,r2well
    5.99000000000000    8.00000000000000    0.00000000000000   rchrg,fchrg,qchrg
     nproj     2     2     2
     extension_switch     1
  pspatm : epsatm=    8.95520722
         --- l  ekb(1:nproj) -->
             0    8.193503    0.707970
             1    3.869736    1.114731
             2   -2.915303   -0.810552
 pspatm: atomic psp has been read  and splines computed

   5.03316542E+03                                ecore*ucvol(ha*bohr**3)

-inwffil : will read wavefunctions from disk file /scratch/users/j/a/jabreu/flow_simple_7atoms/flow/w200/t1/indata/in_WFK

 ==>  initialize data related to q vector <==

 The list of irreducible perturbations for this q vector is:
    1)    idir= 1    ipert=   8
    2)    idir= 2    ipert=   8
    3)    idir= 3    ipert=   8

 Perturbation wavevector (in red.coord.)   0.000000  0.000000  0.000000
 Perturbation : derivative vs k along direction   1

 dfpt_looppert : COMMENT -
  In a d/dk calculation, iscf is set to -3 automatically.
 The set of symmetries contains only one element for this perturbation.
 symkpt : not enough symmetry to change the number of k points.

[...]

 Initialisation of the first-order wave-functions :
  ireadwf=   0

--- !BeginCycle
iteration_state: {dtset: 1, }
solver: {iscf: 7, nstep: 2000, nline: 4, wfoptalg: 0, }
tolerances: {tolwfr: 1.00E-20, }
...

     iter   2DEtotal(Ha)        deltaE(Ha) residm    vres2
-ETOT  1  -13.428553688518     -1.343E+01 4.466E-02 0.000E+00
 ETOT  2  -13.451702377771     -2.315E-02 3.120E-03 0.000E+00
 ETOT  3  -13.451845724288     -1.433E-04 1.291E-04 0.000E+00
 ETOT  4  -13.451847364809     -1.641E-06 1.807E-05 0.000E+00
 ETOT  5  -13.451847391842     -2.703E-08 1.243E-06 0.000E+00
 ETOT  6  -13.451847392402     -5.596E-10 3.096E-07 0.000E+00
 ETOT  7  -13.451847392415     -1.310E-11 3.078E-08 0.000E+00
 ETOT  8  -13.451847392415     -3.570E-13 9.793E-09 0.000E+00
 ETOT  9  -13.451847392415      3.553E-15 1.093E-09 0.000E+00
 ETOT 10  -13.451847392415     -1.243E-14 3.471E-10 0.000E+00
 ETOT 11  -13.451847392415     -3.553E-15 4.111E-11 0.000E+00
 ETOT 12  -13.451847392415     -8.882E-15 1.240E-11 0.000E+00
 ETOT 13  -13.451847392415      7.105E-15 1.556E-12 0.000E+00
 ETOT 14  -13.451847392415     -5.329E-15 4.489E-13 0.000E+00
 ETOT 15  -13.451847392415      1.776E-15 5.850E-14 0.000E+00
 ETOT 16  -13.451847392415      3.553E-15 1.677E-14 0.000E+00
 ETOT 17  -13.451847392415      3.553E-15 2.233E-15 0.000E+00
 ETOT 18  -13.451847392415      0.000E+00 6.585E-16 0.000E+00
 ETOT 19  -13.451847392415     -3.553E-15 8.874E-17 0.000E+00
 ETOT 20  -13.451847392415      0.000E+00 2.705E-17 0.000E+00
 ETOT 21  -13.451847392415      0.000E+00 3.667E-18 0.000E+00
 ETOT 22  -13.451847392415     -1.066E-14 1.141E-18 0.000E+00
 ETOT 23  -13.451847392415      5.329E-15 1.551E-19 0.000E+00
 ETOT 24  -13.451847392415     -1.776E-15 4.874E-20 0.000E+00
 ETOT 25  -13.451847392415      0.000E+00 9.785E-21 0.000E+00

 At SCF step   25   max residual=  9.78E-21 < tolwfr=  1.00E-20 =>converged.

 ----iterations are completed or convergence reached----

 dfpt_looppert: DFPT cycle converged with prtwf=-1. Will skip output of the 1st-order WFK file.
 dfpt_looppert : ek2=    2.8939655847E+01
          f-sum rule ratio=    9.9070946416E-01
 prteigrs : about to open file /scratch/users/j/a/jabreu/flow_simple_7atoms/flow/w200/t1/tmpdata/tmp_1WF1_EIG
 Expectation of eigenvalue derivatives (hartree) for nkpt=   2  k points:
  (in case of degenerate eigenvalues, averaged derivative)
 kpt#   1, nband= 41, wtk=  0.50000, kpt=  0.5000  0.5000  0.5000 (reduced coord)
   0.00000   -0.00000   -0.00000   -0.00000   -0.00000   -0.00000    0.00000   -0.00000
  -0.00000   -0.00000   -0.00000   -0.00000   -0.00000   -0.00000   -0.00000   -0.00000
   0.00000   -0.00000   -0.00000    0.00000    0.00000    0.00000    0.00000   -0.00000
   0.00000   -0.00000   -0.00000    0.00000    0.00000    0.00000   -0.00000    0.00000
  -0.00000    0.00000    0.00000   -0.00000   -0.00000    0.00000    0.00000   -0.00000
   0.00019
 prteigrs : prtvol=0 or 1, do not print more k-points.

 Eight components of 2nd-order total energy (hartree) are
 1,2,3: 0th-order hamiltonian combined with 1st-order wavefunctions
     kin0=   1.97854480E+01 eigvalue=   1.23526472E+00  local=  -1.17954073E+01
 4,5,6: 1st-order hamiltonian combined with 1st and 0th-order wfs
     kin1=  -2.86707909E+01  Hartree=   0.00000000E+00     xc=   0.00000000E+00
 7,8,9: eventually, occupation + non-local contributions
    edocc=   3.26478816E+00     enl0=   9.61753805E-01   enl1=   1.76709615E+00
 1-9 gives the relaxation energy (to be shifted if some occ is /=2.0)
   erelax=  -1.34518474E+01
  No Ewald or frozen-wf contrib.: the relaxation energy is the total one
 2DEtotal=   -0.1345184739E+02 Ha. Also 2DEtotal=   -0.366043383021E+03 eV
    (  non-var. 2DEtotal :   -1.3451847392E+01 Ha)

 Perturbation wavevector (in red.coord.)   0.000000  0.000000  0.000000
 Perturbation : derivative vs k along direction   2
 The set of symmetries contains only one element for this perturbation.
 symkpt : not enough symmetry to change the number of k points.

[...]

 Perturbation wavevector (in red.coord.)   0.000000  0.000000  0.000000
 Perturbation : derivative vs k along direction   3
 The set of symmetries contains only one element for this perturbation.
 symkpt : not enough symmetry to change the number of k points.

-inwffil : will read wavefunctions from disk file /scratch/users/j/a/jabreu/flow_simple_7atoms/flow/w200/t1/indata/in_WFK

 Initialisation of the first-order wave-functions :
  ireadwf=   0

--- !BeginCycle
iteration_state: {dtset: 1, }
solver: {iscf: 7, nstep: 2000, nline: 4, wfoptalg: 0, }
tolerances: {tolwfr: 1.00E-20, }
...

     iter   2DEtotal(Ha)        deltaE(Ha) residm    vres2
-ETOT  1  -40.522386173524     -4.052E+01 9.766E-02 0.000E+00
 ETOT  2  -40.586882942216     -6.450E-02 4.030E-03 0.000E+00
 ETOT  3  -40.587246173479     -3.632E-04 6.781E-05 0.000E+00
 ETOT  4  -40.587250429431     -4.256E-06 9.002E-06 0.000E+00
 ETOT  5  -40.587250503987     -7.456E-08 1.030E-06 0.000E+00
 ETOT  6  -40.587250505656     -1.668E-09 9.596E-08 0.000E+00
 ETOT  7  -40.587250505700     -4.394E-11 1.714E-08 0.000E+00
 ETOT  8  -40.587250505701     -1.329E-12 1.274E-09 0.000E+00
 ETOT  9  -40.587250505701     -7.816E-14 3.414E-10 0.000E+00
 ETOT 10  -40.587250505701      1.421E-14 2.098E-11 0.000E+00
 ETOT 11  -40.587250505701      7.105E-15 9.323E-12 0.000E+00
 ETOT 12  -40.587250505701     -7.105E-15 4.837E-13 0.000E+00
 ETOT 13  -40.587250505701      7.105E-15 2.275E-13 0.000E+00
 ETOT 14  -40.587250505701     -1.421E-14 1.008E-14 0.000E+00
 ETOT 15  -40.587250505701      0.000E+00 5.155E-15 0.000E+00
 ETOT 16  -40.587250505701      0.000E+00 2.132E-16 0.000E+00
 ETOT 17  -40.587250505701      7.105E-15 1.181E-16 0.000E+00
 ETOT 18  -40.587250505701     -7.105E-15 6.013E-18 0.000E+00
 ETOT 19  -40.587250505701     -1.421E-14 2.728E-18 0.000E+00
 ETOT 20  -40.587250505701     -7.105E-15 5.175E-19 0.000E+00
 ETOT 21  -40.587250505701      7.105E-15 6.329E-20 0.000E+00
 ETOT 22  -40.587250505701      0.000E+00 4.466E-20 0.000E+00
 ETOT 23  -40.587250505701      2.132E-14 9.948E-21 0.000E+00

 At SCF step   23   max residual=  9.95E-21 < tolwfr=  1.00E-20 =>converged.

 ----iterations are completed or convergence reached----

 dfpt_looppert: DFPT cycle converged with prtwf=-1. Will skip output of the 1st-order WFK file.
 dfpt_looppert : ek2=    8.4711017349E+01
          f-sum rule ratio=    1.0197958760E+00
 prteigrs : about to open file /scratch/users/j/a/jabreu/flow_simple_7atoms/flow/w200/t1/tmpdata/tmp_1WF1_EIG
 Expectation of eigenvalue derivatives (hartree) for nkpt=   2  k points:
  (in case of degenerate eigenvalues, averaged derivative)
 kpt#   1, nband= 41, wtk=  0.50000, kpt=  0.5000  0.5000  0.5000 (reduced coord)
  -0.00000   -0.00000   -0.00000    0.00000    0.00000    0.00000    0.00000   -0.00000
  -0.00000    0.00000    0.00000    0.00000   -0.00000   -0.00000    0.00000    0.00000
   0.00000   -0.00000    0.00000   -0.00000   -0.00000    0.00000    0.00000   -0.00000
   0.00000   -0.00000   -0.00000   -0.00000    0.00000    0.00000    0.00000   -0.00000
  -0.00000   -0.00000    0.00000   -0.00000   -0.00000   -0.00000   -0.00000   -0.00000
  -0.00004
 prteigrs : prtvol=0 or 1, do not print more k-points.

 Eight components of 2nd-order total energy (hartree) are
 1,2,3: 0th-order hamiltonian combined with 1st-order wavefunctions
     kin0=   5.96443338E+01 eigvalue=   4.14765467E+00  local=  -3.43668681E+01
 4,5,6: 1st-order hamiltonian combined with 1st and 0th-order wfs
     kin1=  -8.63879461E+01  Hartree=   0.00000000E+00     xc=   0.00000000E+00
 7,8,9: eventually, occupation + non-local contributions
    edocc=   8.77646205E+00     enl0=   2.38566816E+00   enl1=   5.21344513E+00
 1-9 gives the relaxation energy (to be shifted if some occ is /=2.0)
   erelax=  -4.05872505E+01
  No Ewald or frozen-wf contrib.: the relaxation energy is the total one
 2DEtotal=   -0.4058725051E+02 Ha. Also 2DEtotal=   -0.110443525333E+04 eV
    (  non-var. 2DEtotal :   -4.0587250506E+01 Ha)

 CALCULATION OF EFFECTIVE MASSES
 NOTE : Additional infos (eff. mass eigenvalues, eigenvectors and, if degenerate, average mass) are available in stdout.

 K-point ( 0.500, 0.500, 0.500) | band =    32
 Effective mass tensor:
            -14.3167269005              0.0000133392              0.0000004610
              0.0000133392            -14.3167363854              0.0000002125
              0.0000004610              0.0000002125             -0.9980059570
 Effective mass tensor eigenvalues:
            -14.3167458001            -14.3167174858             -0.9980059570
 Angular average effective mass 1/(<1/m>)=  -2.6276726686
 Angular average effective mass for Frohlich model (<m**0.5>)**2=  -4.3210675137
 Effective masses along directions: (cart. coord. / red. coord. -> eff. mass)
    1:   1.000000  0.000000  0.000000 /   1.000000  0.000000  0.000000 -> -14.3167269005
    2:   0.000000  1.000000  0.000000 /   0.000000  1.000000  0.000000 -> -14.3167363854
    3:   0.000000  0.000000  1.000000 /   0.000000  0.000000  1.000000 ->  -0.9980059570
    4:   0.577350  0.577350  0.577350 /   0.653493  0.653493  0.381960 ->  -2.6276721520
    5:   0.000000  0.707107  0.707107 /   0.000000  0.863344  0.504616 ->  -1.8659390386
    6:   0.707107  0.000000  0.707107 /   0.863344  0.000000  0.504616 ->  -1.8659388974
    7:   0.707107  0.707107  0.000000 /   0.707107  0.707107  0.000000 -> -14.3167183037

 K-point ( 0.500, 0.500, 0.000) | band =    33
 Effective mass tensor:
              0.6943962748              0.0000004097              0.0000038883
              0.0000004097              0.6943971185              0.0000002518
              0.0000038883              0.0000002518              7.0707257049
 Effective mass tensor eigenvalues:
              0.6943961085              0.6943972847              7.0707257049
 Angular average effective mass 1/(<1/m>)=   0.9928428501
 Angular average effective mass for Frohlich model (<m**0.5>)**2=   1.2070944604
 Effective masses along directions: (cart. coord. / red. coord. -> eff. mass)
    1:   1.000000  0.000000  0.000000 /   1.000000  0.000000  0.000000 ->   0.6943962748
    2:   0.000000  1.000000  0.000000 /   0.000000  1.000000  0.000000 ->   0.6943971185
    3:   0.000000  0.000000  1.000000 /   0.000000  0.000000  1.000000 ->   7.0707257049
    4:   0.577350  0.577350  0.577350 /   0.653493  0.653493  0.381960 ->   0.9928439626
    5:   0.000000  0.707107  0.707107 /   0.000000  0.863344  0.504616 ->   1.2646012137
    6:   0.707107  0.000000  0.707107 /   0.863344  0.000000  0.504616 ->   1.2646009990
    7:   0.707107  0.707107  0.000000 /   0.707107  0.707107  0.000000 ->   0.6943971064

 END OF EFFECTIVE MASSES SECTION

 ---- first-order wavefunction calculations are completed ----

 Total localisation tensor (bohr^2) in cartesian coordinates
  WARNING : still subject to testing - especially symmetries.
      direction              matrix element
   alpha     beta       real part   imaginary part
     1        1       0.8219812619    0.0000000000
     1        2       0.0000000000    0.0000000000
     1        3       0.0000000000    0.0000000000
     2        1       0.0000000000    0.0000000000
     2        2       0.8219909576    0.0000000000
     2        3       0.0000000000    0.0000000000
     3        1       0.0000000000    0.0000000000
     3        2       0.0000000000    0.0000000000
     3        3       0.7595180065    0.0000000000

 respfn : d/dk was computed, but no 2DTE, so no DDB output.

== END DATASET(S) ==============================================================

 -outvars: echo values of variables after computation  --------
            acell      1.0000000000E+00  1.0000000000E+00  1.0000000000E+00 Bohr
              amu      3.90983000E+01  1.06420000E+02  3.54527000E+01
             ecut      4.10000000E+01 Hartree
           etotal     -4.0587250506E+01
            fcart      0.0000000000E+00  0.0000000000E+00  0.0000000000E+00
                       0.0000000000E+00  0.0000000000E+00  0.0000000000E+00
                       0.0000000000E+00  0.0000000000E+00  0.0000000000E+00
                       0.0000000000E+00  0.0000000000E+00  0.0000000000E+00
                       0.0000000000E+00  0.0000000000E+00  0.0000000000E+00
                       0.0000000000E+00  0.0000000000E+00  0.0000000000E+00
                       0.0000000000E+00  0.0000000000E+00  0.0000000000E+00
-          fftalg         512
           irdden           1
           irdwfk           1
           istwfk        1    1
              ixc     -116133
              kpt      5.00000000E-01  5.00000000E-01  5.00000000E-01
                       5.00000000E-01  5.00000000E-01  0.00000000E+00
           kptopt           0
P           mkmem           2
P          mkqmem           2
P          mk1mem           2
            natom           7
            nband          41
           nbdbuf           4
            ngfft          80      80      48
             nkpt           2
            nstep        2000
             nsym          16
           ntypat           3
              occ      2.000000  2.000000  2.000000  2.000000  2.000000  2.000000
                       2.000000  2.000000  2.000000  2.000000  2.000000  2.000000
                       2.000000  2.000000  2.000000  2.000000  2.000000  2.000000
                       2.000000  2.000000  2.000000  2.000000  2.000000  2.000000
                       2.000000  2.000000  2.000000  2.000000  2.000000  2.000000
                       2.000000  2.000000  0.000000  0.000000  0.000000  0.000000
                       0.000000  0.000000  0.000000  0.000000  0.000000
        optdriver           1
            prtwf          -1
            rfdir           1       1       1
           rfelfd           2
            rprim      1.3214117740E+01  0.0000000000E+00  0.0000000000E+00
                       0.0000000000E+00  1.3214117740E+01  0.0000000000E+00
                       0.0000000000E+00  0.0000000000E+00  7.7235134012E+00
          spgroup         123
           strten      0.0000000000E+00  0.0000000000E+00  0.0000000000E+00
                       0.0000000000E+00  0.0000000000E+00  0.0000000000E+00
           symrel      1  0  0   0  1  0   0  0  1      -1  0  0   0 -1  0   0  0 -1
                      -1  0  0   0  1  0   0  0 -1       1  0  0   0 -1  0   0  0  1
                      -1  0  0   0 -1  0   0  0  1       1  0  0   0  1  0   0  0 -1
                       1  0  0   0 -1  0   0  0 -1      -1  0  0   0  1  0   0  0  1
                       0  1  0   1  0  0   0  0  1       0 -1  0  -1  0  0   0  0 -1
                       0 -1  0   1  0  0   0  0 -1       0  1  0  -1  0  0   0  0  1
                       0 -1  0  -1  0  0   0  0  1       0  1  0   1  0  0   0  0 -1
                       0  1  0  -1  0  0   0  0 -1       0 -1  0   1  0  0   0  0  1
           tolwfr      1.00000000E-20
            typat      1  1  2  3  3  3  3
           useylm           1
              wtk        0.50000    0.50000
           xangst      3.4963049697E+00  0.0000000000E+00  2.0435536311E+00
                       0.0000000000E+00  3.4963049697E+00  2.0435536311E+00
                       0.0000000000E+00  0.0000000000E+00  0.0000000000E+00
                       1.6225092695E+00  5.3701006700E+00  0.0000000000E+00
                       1.6225092695E+00  1.6225092695E+00  0.0000000000E+00
                       5.3701006700E+00  5.3701006700E+00  0.0000000000E+00
                       5.3701006700E+00  1.6225092695E+00  0.0000000000E+00
            xcart      6.6070588698E+00  0.0000000000E+00  3.8617567006E+00
                       0.0000000000E+00  6.6070588698E+00  3.8617567006E+00
                       0.0000000000E+00  0.0000000000E+00  0.0000000000E+00
                       3.0660981674E+00  1.0148019572E+01  0.0000000000E+00
                       3.0660981674E+00  3.0660981674E+00  0.0000000000E+00
                       1.0148019572E+01  1.0148019572E+01  0.0000000000E+00
                       1.0148019572E+01  3.0660981674E+00  0.0000000000E+00
             xred      5.0000000000E-01  0.0000000000E+00  5.0000000000E-01
                       0.0000000000E+00  5.0000000000E-01  5.0000000000E-01
                       0.0000000000E+00  0.0000000000E+00  0.0000000000E+00
                       2.3203200000E-01  7.6796800000E-01  0.0000000000E+00
                       2.3203200000E-01  2.3203200000E-01  0.0000000000E+00
                       7.6796800000E-01  7.6796800000E-01  0.0000000000E+00
                       7.6796800000E-01  2.3203200000E-01  0.0000000000E+00
            znucl       19.00000   46.00000   17.00000

- Timing analysis has been suppressed with timopt=0

 Suggested references for the acknowledgment of ABINIT usage.

 Calculation completed.
.Delivered  14 WARNINGs and   9 COMMENTs to log file.