.Version 9.5.2 of ABINIT

 ABINIT is a project of the Universite Catholique de Louvain,
 Corning Inc. and other collaborators, see ~abinit/doc/developers/contributors.txt .
 acknowledgments of the ABINIT effort.

.Starting date : Mon 24 May 2021.
- ( at 11h06 )

- input  file    -> /scratch/users/j/a/jabreu/flow_simple_10atoms/flow/w287/t1/run.abi
- output file    -> /scratch/users/j/a/jabreu/flow_simple_10atoms/flow/w287/t1/run.abo
- root for input  files -> /scratch/users/j/a/jabreu/flow_simple_10atoms/flow/w287/t1/indata/in
- root for output files -> /scratch/users/j/a/jabreu/flow_simple_10atoms/flow/w287/t1/outdata/out

 Symmetries : space group C2/m (# 12); Bravais mC (1-face-center monocl.)
     intxc =       0      iscf =       7    lmnmax =      18     lnmax =       6
     mgfft =      72  mpssoang =       3    mqgrid =    3001     natom =      10
  nloc_mem =       1    nspden =       1   nspinor =       1    nsppol =       1
      nsym =       4    n1xccc =    2501    ntypat =       4    occopt =       1
   xclevel =       2
-    mband =          52        mffmem =           1         mkmem =           2
-   mkqmem =           2        mk1mem =           2           mpw =       14698
      nfft =      373248          nkpt =           2
  Rough estimation (10% accuracy) of disk space for files :

------------- Echo of variables that govern the present computation ------------
-
- outvars: echo of selected default values
-   iomode0 =  0 , fftalg0 =512 , wfoptalg0 =  0
-
- outvars: echo of global parameters not present in the input file
-  max_nthreads =    0
-
 -outvars: echo values of preprocessed input variables --------
            acell      1.0000000000E+00  1.0000000000E+00  1.0000000000E+00 Bohr
              amu      1.37327000E+02  2.08980370E+02  1.21753000E+02
                       1.59994000E+01
             ecut      4.40000000E+01 Hartree
-          fftalg         512
           irdden           1
           irdwfk           1
           istwfk        1    1
              ixc     -116133
              kpt      5.00000000E-01  0.00000000E+00  5.00000000E-01
                       0.00000000E+00  0.00000000E+00  5.00000000E-01
           kptopt           0
P           mkmem           2
P          mkqmem           2
P          mk1mem           2
            natom          10
            nband          52
           nbdbuf           4
            ngfft          72      72      72
             nkpt           2
            nstep        2000
             nsym           4
           ntypat           4
              occ      2.000000  2.000000  2.000000  2.000000  2.000000  2.000000
                       2.000000  2.000000  2.000000  2.000000  2.000000  2.000000
                       2.000000  2.000000  2.000000  2.000000  2.000000  2.000000
                       2.000000  2.000000  2.000000  2.000000  2.000000  2.000000
                       2.000000  2.000000  2.000000  2.000000  2.000000  2.000000
                       2.000000  2.000000  2.000000  2.000000  2.000000  2.000000
                       2.000000  2.000000  2.000000  2.000000  2.000000  2.000000
                       2.000000  0.000000  0.000000  0.000000  0.000000  0.000000
                       0.000000  0.000000  0.000000  0.000000
        optdriver           1
            prtwf          -1
            rfdir           1       1       1
           rfelfd           2
            rprim      9.8581590795E+00  0.0000000000E+00  5.6899479764E+00
                       3.2861926223E+00  9.2943121577E+00  5.6899479764E+00
                       0.0000000000E+00  0.0000000000E+00  1.1519979327E+01
          spgroup          12
           symrel      1  0  0   0  1  0   0  0  1      -1  0  0   0 -1  0   0  0 -1
                       0 -1  0  -1  0  0   0  0 -1       0  1  0   1  0  0   0  0  1
           tolwfr      1.00000000E-20
            typat      1  1  2  3  4  4  4  4  4  4
           useylm           1
              wtk        0.50000    0.50000
           xangst      5.2274872271E+00  3.6963327816E+00  9.0582729825E+00
                       1.7282041152E+00  1.2220053817E+00  3.0598190952E+00
                       0.0000000000E+00  0.0000000000E+00  0.0000000000E+00
                       3.4778456711E+00  2.4591690817E+00  6.0590460388E+00
                       4.0486575549E+00  1.1280995512E+00  4.6599104971E+00
                       4.5425046845E+00  1.4772966424E+00  7.4581815806E+00
                       2.9070337874E+00  3.7902386122E+00  7.4581815806E+00
                       2.4131866578E+00  3.4410415209E+00  4.6599104971E+00
                       1.8678048405E+00  1.3207164287E+00  6.4709217951E+00
                       5.0878865018E+00  3.5976217347E+00  5.6471702825E+00
            xcart      9.8785192223E+00  6.9850566533E+00  1.7117655174E+01
                       3.2658324795E+00  2.3092555044E+00  5.7822201061E+00
                       0.0000000000E+00  0.0000000000E+00  0.0000000000E+00
                       6.5721758509E+00  4.6471560789E+00  1.1449937640E+01
                       7.6508539846E+00  2.1317992024E+00  8.8059546433E+00
                       8.5840898111E+00  2.7916860712E+00  1.4093920637E+01
                       5.4934977172E+00  7.1625129553E+00  1.4093920637E+01
                       4.5602618907E+00  6.5026260865E+00  8.8059546433E+00
                       3.5296396181E+00  2.4957923494E+00  1.2228270020E+01
                       9.6147120837E+00  6.7985198083E+00  1.0671605260E+01
             xred      7.5154100000E-01  7.5154100000E-01  7.4350800000E-01
                       2.4845900000E-01  2.4845900000E-01  2.5649200000E-01
                       0.0000000000E+00  0.0000000000E+00  0.0000000000E+00
                       5.0000000000E-01  5.0000000000E-01  5.0000000000E-01
                       6.9963500000E-01  2.2936600000E-01  3.0555500000E-01
                       7.7063400000E-01  3.0036500000E-01  6.9444500000E-01
                       3.0036500000E-01  7.7063400000E-01  6.9444500000E-01
                       2.2936600000E-01  6.9963500000E-01  3.0555500000E-01
                       2.6852900000E-01  2.6852900000E-01  7.9622000000E-01
                       7.3147100000E-01  7.3147100000E-01  2.0378000000E-01
            znucl       56.00000   83.00000   51.00000    8.00000

 chkinp: Checking input parameters for consistency.

== DATASET  1 ==================================================================
-   mpi_nproc: 1, omp_nthreads: -1 (-1 if OMP is not activated)

--- !DatasetInfo
iteration_state: {dtset: 1, }
dimensions: {natom: 10, nkpt: 2, mband: 52, nsppol: 1, nspinor: 1, nspden: 1, mpw: 14698, }
cutoff_energies: {ecut:  44.0, pawecutdg:  -1.0, }
electrons: {nelect:   8.60000000E+01, charge:   0.00000000E+00, occopt:   1.00000000E+00, tsmear:   1.00000000E-02, }
meta: {optdriver: 1, rfelfd: 2, }
...

 Real(R)+Recip(G) space primitive vectors, cartesian coordinates (Bohr,Bohr^-1):
 R(1)=  9.8581591  0.0000000  5.6899480  G(1)=  0.1014388 -0.0358658  0.0000000
 R(2)=  3.2861926  9.2943122  5.6899480  G(2)=  0.0000000  0.1075927  0.0000000
 R(3)=  0.0000000  0.0000000 11.5199793  G(3)= -0.0501027 -0.0354274  0.0868057
 Unit cell volume ucvol=  1.0555159E+03 bohr^3
 Angles (23,13,12)=  6.00072488E+01  6.00072488E+01  6.00041293E+01 degrees

 getcut: wavevector=  0.0000  0.0000  0.0000  ngfft=  72  72  72
         ecut(hartree)=     44.000   => boxcut(ratio)=   2.09318

--- Pseudopotential description ------------------------------------------------
- pspini: atom type   1  psp file is /scratch/users/j/a/jabreu/pseudos/PBEsol/Ba.psp8
- pspatm: opening atomic psp file    /scratch/users/j/a/jabreu/pseudos/PBEsol/Ba.psp8
- Ba    ONCVPSP-3.3.0  r_core=   2.15444   1.91218   2.15444
- 56.00000  10.00000    180112                znucl, zion, pspdat
    8 -116133    2    4       600   0.00000   pspcod,pspxc,lmax,lloc,mmax,r2well
    5.99000000000000    5.00000000000000    0.00000000000000   rchrg,fchrg,qchrg
     nproj     2     2     2
     extension_switch     1
  pspatm : epsatm=   26.37418029
         --- l  ekb(1:nproj) -->
             0    6.652372    0.677024
             1    5.027722    0.408462
             2    2.543237    0.416854
 pspatm: atomic psp has been read  and splines computed

- pspini: atom type   2  psp file is /scratch/users/j/a/jabreu/pseudos/PBEsol/Bi.psp8
- pspatm: opening atomic psp file    /scratch/users/j/a/jabreu/pseudos/PBEsol/Bi.psp8
- Bi    ONCVPSP-3.3.0  r_core=   2.42776   2.51622   2.10397
- 83.00000  15.00000    180112                znucl, zion, pspdat
    8 -116133    2    4       600   0.00000   pspcod,pspxc,lmax,lloc,mmax,r2well
    5.99000000000000    6.00000000000000    0.00000000000000   rchrg,fchrg,qchrg
     nproj     2     2     2
     extension_switch     1
  pspatm : epsatm=   42.90078186
         --- l  ekb(1:nproj) -->
             0    6.017688    0.961606
             1    4.379371    0.528498
             2   -3.458170   -0.753782
 pspatm: atomic psp has been read  and splines computed

[...]

- pspini: atom type   4  psp file is /scratch/users/j/a/jabreu/pseudos/PBEsol/O.psp8
- pspatm: opening atomic psp file    /scratch/users/j/a/jabreu/pseudos/PBEsol/O.psp8
- O     ONCVPSP-3.3.0  r_core=   1.35509   1.45563   1.26150
-  8.00000   6.00000    180112                znucl, zion, pspdat
    8 -116133    2    4       600   0.00000   pspcod,pspxc,lmax,lloc,mmax,r2well
    5.99000000000000    4.00000000000000    0.00000000000000   rchrg,fchrg,qchrg
     nproj     2     2     1
     extension_switch     1
  pspatm : epsatm=    6.22910522
         --- l  ekb(1:nproj) -->
             0    6.050032    0.820363
             1   -4.739617   -1.153841
             2   -1.335834
 pspatm: atomic psp has been read  and splines computed

   1.37066960E+04                                ecore*ucvol(ha*bohr**3)

 ==>  initialize data related to q vector <==

 The list of irreducible perturbations for this q vector is:
    1)    idir= 1    ipert=  11
    2)    idir= 2    ipert=  11
    3)    idir= 3    ipert=  11

 Perturbation wavevector (in red.coord.)   0.000000  0.000000  0.000000
 Perturbation : derivative vs k along direction   1

 dfpt_looppert : COMMENT -
  In a d/dk calculation, iscf is set to -3 automatically.
 The set of symmetries contains only one element for this perturbation.
 symkpt : not enough symmetry to change the number of k points.

 Initialisation of the first-order wave-functions :
  ireadwf=   0

--- !BeginCycle
iteration_state: {dtset: 1, }
solver: {iscf: 7, nstep: 2000, nline: 4, wfoptalg: 0, }
tolerances: {tolwfr: 1.00E-20, }
...

     iter   2DEtotal(Ha)        deltaE(Ha) residm    vres2
-ETOT  1  -58.291994267761     -5.829E+01 8.438E-02 0.000E+00
 ETOT  2  -58.391357023440     -9.936E-02 4.640E-02 0.000E+00
 ETOT  3  -58.392517441215     -1.160E-03 6.408E-03 0.000E+00
 ETOT  4  -58.392552880632     -3.544E-05 7.485E-03 0.000E+00
 ETOT  5  -58.392554377215     -1.497E-06 1.438E-03 0.000E+00
 ETOT  6  -58.392554447997     -7.078E-08 1.662E-03 0.000E+00
 ETOT  7  -58.392554451628     -3.632E-09 3.098E-04 0.000E+00
[...]
   0.00000   -0.00000   -0.00000    0.00000    0.00000    0.00000    0.00000   -0.00000
   0.00000   -0.00000   -0.00000    0.00000   -0.00000   -0.00000   -0.00000    0.00000
  -0.00000   -0.00000    0.00000    0.00000   -0.00000    0.00000   -0.00000   -0.00000
   0.00000    0.00000   -0.00000   -0.00000    0.00000   -0.00000   -0.00000    0.00000
  -0.00000    0.00000   -0.00000    0.00000
 prteigrs : prtvol=0 or 1, do not print more k-points.

 Eight components of 2nd-order total energy (hartree) are
 1,2,3: 0th-order hamiltonian combined with 1st-order wavefunctions
     kin0=   7.62661103E+01 eigvalue=   3.38541899E+00  local=  -3.82694755E+01
 4,5,6: 1st-order hamiltonian combined with 1st and 0th-order wfs
     kin1=  -8.01069966E+01  Hartree=   0.00000000E+00     xc=   0.00000000E+00
 7,8,9: eventually, occupation + non-local contributions
    edocc=   1.09280837E+01     enl0=   6.08241694E+00   enl1=  -3.66781123E+01
 1-9 gives the relaxation energy (to be shifted if some occ is /=2.0)
   erelax=  -5.83925545E+01
  No Ewald or frozen-wf contrib.: the relaxation energy is the total one
 2DEtotal=   -0.5839255445E+02 Ha. Also 2DEtotal=   -0.158894221375E+04 eV
    (  non-var. 2DEtotal :   -5.8392554451E+01 Ha)

 Perturbation wavevector (in red.coord.)   0.000000  0.000000  0.000000
 Perturbation : derivative vs k along direction   2
 The set of symmetries contains only one element for this perturbation.
 symkpt : not enough symmetry to change the number of k points.

[...]

 Perturbation wavevector (in red.coord.)   0.000000  0.000000  0.000000
 Perturbation : derivative vs k along direction   3
 The set of symmetries contains only one element for this perturbation.
 symkpt : not enough symmetry to change the number of k points.

 Initialisation of the first-order wave-functions :
  ireadwf=   0

--- !BeginCycle
iteration_state: {dtset: 1, }
solver: {iscf: 7, nstep: 2000, nline: 4, wfoptalg: 0, }
tolerances: {tolwfr: 1.00E-20, }
...

     iter   2DEtotal(Ha)        deltaE(Ha) residm    vres2
-ETOT  1  -54.759775150989     -5.476E+01 2.766E-01 0.000E+00
 ETOT  2  -54.841864041377     -8.209E-02 3.950E-02 0.000E+00
 ETOT  3  -54.842865371043     -1.001E-03 4.558E-03 0.000E+00
 ETOT  4  -54.842897128988     -3.176E-05 4.139E-03 0.000E+00
 ETOT  5  -54.842898699846     -1.571E-06 4.877E-04 0.000E+00
 ETOT  6  -54.842898791993     -9.215E-08 5.378E-04 0.000E+00
 ETOT  7  -54.842898797936     -5.943E-09 6.599E-05 0.000E+00
 ETOT  8  -54.842898798339     -4.029E-10 6.507E-05 0.000E+00
 ETOT  9  -54.842898798367     -2.818E-11 1.062E-05 0.000E+00
 ETOT 10  -54.842898798369     -1.975E-12 1.052E-05 0.000E+00
 ETOT 11  -54.842898798369     -1.705E-13 1.725E-06 0.000E+00
 ETOT 12  -54.842898798369      1.421E-14 1.720E-06 0.000E+00
 ETOT 13  -54.842898798369     -4.263E-14 2.807E-07 0.000E+00
 ETOT 14  -54.842898798369     -1.421E-14 2.836E-07 0.000E+00
 ETOT 15  -54.842898798369      3.553E-14 4.579E-08 0.000E+00
 ETOT 16  -54.842898798369     -1.421E-14 4.817E-08 0.000E+00
 ETOT 17  -54.842898798369      0.000E+00 7.505E-09 0.000E+00
 ETOT 18  -54.842898798369      7.105E-15 9.422E-09 0.000E+00
 ETOT 19  -54.842898798369     -1.421E-14 1.313E-09 0.000E+00
 ETOT 20  -54.842898798369     -1.421E-14 1.842E-09 0.000E+00
 ETOT 21  -54.842898798369      3.553E-14 2.572E-10 0.000E+00
 ETOT 22  -54.842898798369     -1.421E-14 3.600E-10 0.000E+00
 ETOT 23  -54.842898798369     -2.132E-14 5.050E-11 0.000E+00
 ETOT 24  -54.842898798369      7.105E-15 7.040E-11 0.000E+00
 ETOT 25  -54.842898798369      7.105E-15 9.939E-12 0.000E+00
 ETOT 26  -54.842898798369      0.000E+00 1.378E-11 0.000E+00
 ETOT 27  -54.842898798369      1.421E-14 1.962E-12 0.000E+00
 ETOT 28  -54.842898798369     -1.421E-14 2.701E-12 0.000E+00
 ETOT 29  -54.842898798369      0.000E+00 3.882E-13 0.000E+00
 ETOT 30  -54.842898798369      0.000E+00 5.305E-13 0.000E+00
 ETOT 31  -54.842898798369      0.000E+00 7.703E-14 0.000E+00
 ETOT 32  -54.842898798369      0.000E+00 1.044E-13 0.000E+00
 ETOT 33  -54.842898798369      1.421E-14 1.532E-14 0.000E+00
 ETOT 34  -54.842898798369     -1.421E-14 2.059E-14 0.000E+00
 ETOT 35  -54.842898798369      0.000E+00 3.055E-15 0.000E+00
 ETOT 36  -54.842898798369      0.000E+00 4.071E-15 0.000E+00
 ETOT 37  -54.842898798369      0.000E+00 6.101E-16 0.000E+00
 ETOT 38  -54.842898798369      0.000E+00 8.065E-16 0.000E+00
 ETOT 39  -54.842898798369      0.000E+00 1.221E-16 0.000E+00
 ETOT 40  -54.842898798369      0.000E+00 1.601E-16 0.000E+00
 ETOT 41  -54.842898798369     -1.421E-14 2.446E-17 0.000E+00
 ETOT 42  -54.842898798369      1.421E-14 3.185E-17 0.000E+00
 ETOT 43  -54.842898798369     -1.421E-14 4.907E-18 0.000E+00
 ETOT 44  -54.842898798369      2.132E-14 6.348E-18 0.000E+00
 ETOT 45  -54.842898798369     -7.105E-15 9.857E-19 0.000E+00
 ETOT 46  -54.842898798369     -2.132E-14 1.267E-18 0.000E+00
 ETOT 47  -54.842898798369      3.553E-14 1.982E-19 0.000E+00
 ETOT 48  -54.842898798369     -2.842E-14 2.534E-19 0.000E+00
 ETOT 49  -54.842898798369      0.000E+00 3.989E-20 0.000E+00
 ETOT 50  -54.842898798369      1.421E-14 5.073E-20 0.000E+00
 ETOT 51  -54.842898798369      0.000E+00 9.912E-21 0.000E+00

 At SCF step   51   max residual=  9.91E-21 < tolwfr=  1.00E-20 =>converged.

 ----iterations are completed or convergence reached----

 dfpt_looppert: DFPT cycle converged with prtwf=-1. Will skip output of the 1st-order WFK file.
 dfpt_looppert : ek2=    7.6734368525E+01
          f-sum rule ratio=    9.5846752801E-01
 prteigrs : about to open file /scratch/users/j/a/jabreu/flow_simple_10atoms/flow/w287/t1/tmpdata/tmp_1WF1_EIG
 Expectation of eigenvalue derivatives (hartree) for nkpt=   2  k points:
  (in case of degenerate eigenvalues, averaged derivative)
 kpt#   1, nband= 52, wtk=  0.50000, kpt=  0.5000  0.0000  0.5000 (reduced coord)
   0.00000   -0.00000    0.00000   -0.00000   -0.00000   -0.00000   -0.00000   -0.00000
  -0.00000    0.00000   -0.00000   -0.00000   -0.00000    0.00000   -0.00000    0.00000
  -0.00000    0.00000   -0.00000    0.00000    0.00000    0.00000    0.00000   -0.00000
  -0.00000   -0.00000   -0.00000    0.00000    0.00000    0.00000   -0.00000    0.00000
   0.00000   -0.00000   -0.00000    0.00000   -0.00000   -0.00000   -0.00000   -0.00000
  -0.00000   -0.00000    0.00000   -0.00000    0.00000    0.00000   -0.00000   -0.00000
  -0.00000   -0.00000   -0.00000   -0.00000
 prteigrs : prtvol=0 or 1, do not print more k-points.

 Eight components of 2nd-order total energy (hartree) are
 1,2,3: 0th-order hamiltonian combined with 1st-order wavefunctions
     kin0=   7.44648086E+01 eigvalue=   3.78139140E+00  local=  -3.76123689E+01
 4,5,6: 1st-order hamiltonian combined with 1st and 0th-order wfs
     kin1=  -7.35474005E+01  Hartree=   0.00000000E+00     xc=   0.00000000E+00
 7,8,9: eventually, occupation + non-local contributions
    edocc=   8.04265150E+00     enl0=   6.16641618E+00   enl1=  -3.61383971E+01
 1-9 gives the relaxation energy (to be shifted if some occ is /=2.0)
   erelax=  -5.48428988E+01
  No Ewald or frozen-wf contrib.: the relaxation energy is the total one
 2DEtotal=   -0.5484289880E+02 Ha. Also 2DEtotal=   -0.149235117120E+04 eV
    (  non-var. 2DEtotal :   -5.4842898798E+01 Ha)

 CALCULATION OF EFFECTIVE MASSES
 NOTE : Additional infos (eff. mass eigenvalues, eigenvectors and, if degenerate, average mass) are available in stdout.

 K-point ( 0.500, 0.000, 0.500) | band =    43
 Effective mass tensor:
             -3.1959815147             -0.7096856374              0.8160811552
             -0.7096856374             -1.8448604596             -0.9534667469
              0.8160811552             -0.9534667469             -1.5937297439
 Effective mass tensor eigenvalues:
             -3.6065479179             -2.6809764431             -0.3470473572
 Angular average effective mass 1/(<1/m>)=  -0.8494437384
 Angular average effective mass for Frohlich model (<m**0.5>)**2=  -1.2076571310
 Effective masses along directions: (cart. coord. / red. coord. -> eff. mass)
    1:   1.000000  0.000000  0.000000 /   0.948679  0.316240  0.000000 ->  -1.6521138416
    2:   0.000000  1.000000  0.000000 /   0.000000  1.000000  0.000000 ->  -0.7578979327
    3:   0.000000  0.000000  1.000000 /   0.404919  0.404919  0.819806 ->  -0.6222779355
    4:   0.577350  0.577350  0.577350 /   0.584225  0.686518  0.432867 ->  -1.9568531004
    5:   0.000000  0.707107  0.707107 /   0.288265  0.759134  0.583626 ->  -2.6142477612
    6:   0.707107  0.000000  0.707107 /   0.728887  0.420797  0.540050 ->  -0.5693274952
    7:   0.707107  0.707107  0.000000 /   0.616795  0.787124  0.000000 ->  -2.5418073667

 K-point ( 0.000, 0.000, 0.500) | band =    44
 Effective mass tensor:
              0.3608061489              0.0086125126             -0.0071063129
              0.0086125126              0.3547164954             -0.0050255929
             -0.0071063129             -0.0050255929              0.3335443354
 Effective mass tensor eigenvalues:
              0.3314095541              0.3486264252              0.3690310004
 Angular average effective mass 1/(<1/m>)=   0.3490152130
 Angular average effective mass for Frohlich model (<m**0.5>)**2=   0.3492168592
 Effective masses along directions: (cart. coord. / red. coord. -> eff. mass)
    1:   1.000000  0.000000  0.000000 /   0.948679  0.316240  0.000000 ->   0.3604507576
    2:   0.000000  1.000000  0.000000 /   0.000000  1.000000  0.000000 ->   0.3544401869
    3:   0.000000  0.000000  1.000000 /   0.404919  0.404919  0.819806 ->   0.3333378567
    4:   0.577350  0.577350  0.577350 /   0.584225  0.686518  0.432867 ->   0.3463829066
    5:   0.000000  0.707107  0.707107 /   0.288265  0.759134  0.583626 ->   0.3387823920
    6:   0.707107  0.000000  0.707107 /   0.728887  0.420797  0.540050 ->   0.3395312556
    7:   0.707107  0.707107  0.000000 /   0.616795  0.787124  0.000000 ->   0.3661273020

 END OF EFFECTIVE MASSES SECTION

 ---- first-order wavefunction calculations are completed ----

 Total localisation tensor (bohr^2) in cartesian coordinates
  WARNING : still subject to testing - especially symmetries.
      direction              matrix element
   alpha     beta       real part   imaginary part
     1        1       1.1226884459    0.0000000000
     1        2       0.3208276443    0.0000000000
     1        3       0.7789320933    0.0000000000
     2        1       0.3208276443    0.0000000000
     2        2       0.9073942456    0.0000000000
     2        3       0.5555038354    0.0000000000
     3        1       0.7789320933    0.0000000000
     3        2       0.5555038354    0.0000000000
     3        3       1.9588308151    0.0000000000

 respfn : d/dk was computed, but no 2DTE, so no DDB output.

== END DATASET(S) ==============================================================

 -outvars: echo values of variables after computation  --------
            acell      1.0000000000E+00  1.0000000000E+00  1.0000000000E+00 Bohr
              amu      1.37327000E+02  2.08980370E+02  1.21753000E+02
                       1.59994000E+01
             ecut      4.40000000E+01 Hartree
           etotal     -5.4842898798E+01
            fcart      0.0000000000E+00  0.0000000000E+00  0.0000000000E+00
                       0.0000000000E+00  0.0000000000E+00  0.0000000000E+00
                       0.0000000000E+00  0.0000000000E+00  0.0000000000E+00
                       0.0000000000E+00  0.0000000000E+00  0.0000000000E+00
                       0.0000000000E+00  0.0000000000E+00  0.0000000000E+00
                       0.0000000000E+00  0.0000000000E+00  0.0000000000E+00
                       0.0000000000E+00  0.0000000000E+00  0.0000000000E+00
                       0.0000000000E+00  0.0000000000E+00  0.0000000000E+00
                       0.0000000000E+00  0.0000000000E+00  0.0000000000E+00
                       0.0000000000E+00  0.0000000000E+00  0.0000000000E+00
-          fftalg         512
           irdden           1
           irdwfk           1
           istwfk        1    1
              ixc     -116133
              kpt      5.00000000E-01  0.00000000E+00  5.00000000E-01
                       0.00000000E+00  0.00000000E+00  5.00000000E-01
           kptopt           0
P           mkmem           2
P          mkqmem           2
P          mk1mem           2
            natom          10
            nband          52
           nbdbuf           4
            ngfft          72      72      72
             nkpt           2
            nstep        2000
             nsym           4
           ntypat           4
              occ      2.000000  2.000000  2.000000  2.000000  2.000000  2.000000
                       2.000000  2.000000  2.000000  2.000000  2.000000  2.000000
                       2.000000  2.000000  2.000000  2.000000  2.000000  2.000000
                       2.000000  2.000000  2.000000  2.000000  2.000000  2.000000
                       2.000000  2.000000  2.000000  2.000000  2.000000  2.000000
                       2.000000  2.000000  2.000000  2.000000  2.000000  2.000000
                       2.000000  2.000000  2.000000  2.000000  2.000000  2.000000
                       2.000000  0.000000  0.000000  0.000000  0.000000  0.000000
                       0.000000  0.000000  0.000000  0.000000
        optdriver           1
            prtwf          -1
            rfdir           1       1       1
           rfelfd           2
            rprim      9.8581590795E+00  0.0000000000E+00  5.6899479764E+00
                       3.2861926223E+00  9.2943121577E+00  5.6899479764E+00
                       0.0000000000E+00  0.0000000000E+00  1.1519979327E+01
          spgroup          12
           strten      0.0000000000E+00  0.0000000000E+00  0.0000000000E+00
                       0.0000000000E+00  0.0000000000E+00  0.0000000000E+00
           symrel      1  0  0   0  1  0   0  0  1      -1  0  0   0 -1  0   0  0 -1
                       0 -1  0  -1  0  0   0  0 -1       0  1  0   1  0  0   0  0  1
           tolwfr      1.00000000E-20
            typat      1  1  2  3  4  4  4  4  4  4
           useylm           1
              wtk        0.50000    0.50000
           xangst      5.2274872271E+00  3.6963327816E+00  9.0582729825E+00
                       1.7282041152E+00  1.2220053817E+00  3.0598190952E+00
                       0.0000000000E+00  0.0000000000E+00  0.0000000000E+00
                       3.4778456711E+00  2.4591690817E+00  6.0590460388E+00
                       4.0486575549E+00  1.1280995512E+00  4.6599104971E+00
                       4.5425046845E+00  1.4772966424E+00  7.4581815806E+00
                       2.9070337874E+00  3.7902386122E+00  7.4581815806E+00
                       2.4131866578E+00  3.4410415209E+00  4.6599104971E+00
                       1.8678048405E+00  1.3207164287E+00  6.4709217951E+00
                       5.0878865018E+00  3.5976217347E+00  5.6471702825E+00
            xcart      9.8785192223E+00  6.9850566533E+00  1.7117655174E+01
                       3.2658324795E+00  2.3092555044E+00  5.7822201061E+00
                       0.0000000000E+00  0.0000000000E+00  0.0000000000E+00
                       6.5721758509E+00  4.6471560789E+00  1.1449937640E+01
                       7.6508539846E+00  2.1317992024E+00  8.8059546433E+00
                       8.5840898111E+00  2.7916860712E+00  1.4093920637E+01
                       5.4934977172E+00  7.1625129553E+00  1.4093920637E+01
                       4.5602618907E+00  6.5026260865E+00  8.8059546433E+00
                       3.5296396181E+00  2.4957923494E+00  1.2228270020E+01
                       9.6147120837E+00  6.7985198083E+00  1.0671605260E+01
             xred      7.5154100000E-01  7.5154100000E-01  7.4350800000E-01
                       2.4845900000E-01  2.4845900000E-01  2.5649200000E-01
                       0.0000000000E+00  0.0000000000E+00  0.0000000000E+00
                       5.0000000000E-01  5.0000000000E-01  5.0000000000E-01
                       6.9963500000E-01  2.2936600000E-01  3.0555500000E-01
                       7.7063400000E-01  3.0036500000E-01  6.9444500000E-01
                       3.0036500000E-01  7.7063400000E-01  6.9444500000E-01
                       2.2936600000E-01  6.9963500000E-01  3.0555500000E-01
                       2.6852900000E-01  2.6852900000E-01  7.9622000000E-01
                       7.3147100000E-01  7.3147100000E-01  2.0378000000E-01
            znucl       56.00000   83.00000   51.00000    8.00000

- Timing analysis has been suppressed with timopt=0

 Suggested references for the acknowledgment of ABINIT usage.

 Calculation completed.
.Delivered   2 WARNINGs and   5 COMMENTs to log file.