.Version 9.5.2 of ABINIT

 ABINIT is a project of the Universite Catholique de Louvain,
 Corning Inc. and other collaborators, see ~abinit/doc/developers/contributors.txt .
 acknowledgments of the ABINIT effort.

.Starting date : Mon 24 May 2021.
- ( at 22h48 )

- input  file    -> /scratch/users/j/a/jabreu/flow_simple_10atoms/flow/w432/t1/run.abi
- output file    -> /scratch/users/j/a/jabreu/flow_simple_10atoms/flow/w432/t1/run.abo
- root for input  files -> /scratch/users/j/a/jabreu/flow_simple_10atoms/flow/w432/t1/indata/in
- root for output files -> /scratch/users/j/a/jabreu/flow_simple_10atoms/flow/w432/t1/outdata/out

 Symmetries : space group R-3 (#148); Bravais hR (rhombohedral)
     intxc =       0      iscf =       7    lmnmax =      18     lnmax =       6
     mgfft =      72  mpssoang =       3    mqgrid =    3001     natom =      10
  nloc_mem =       1    nspden =       1   nspinor =       1    nsppol =       1
      nsym =       6    n1xccc =    2501    ntypat =       3    occopt =       1
   xclevel =       2
-    mband =          51        mffmem =           1         mkmem =           2
-   mkqmem =           2        mk1mem =           2           mpw =       13759
      nfft =      373248          nkpt =           2
  Rough estimation (10% accuracy) of disk space for files :

------------- Echo of variables that govern the present computation ------------
-
- outvars: echo of selected default values
-   iomode0 =  0 , fftalg0 =512 , wfoptalg0 =  0
-
- outvars: echo of global parameters not present in the input file
-  max_nthreads =    0
-
 -outvars: echo values of preprocessed input variables --------
            acell      1.0000000000E+00  1.0000000000E+00  1.0000000000E+00 Bohr
              amu      2.29897680E+01  2.08980370E+02  1.59994000E+01
             ecut      4.40000000E+01 Hartree
-          fftalg         512
           irdden           1
           irdwfk           1
           istwfk        0    1
              ixc     -116133
              kpt      6.08757498E-01  3.91242502E-01  0.00000000E+00
                       0.00000000E+00  0.00000000E+00  0.00000000E+00
           kptopt           0
P           mkmem           2
P          mkqmem           2
P          mk1mem           2
            natom          10
            nband          51
           nbdbuf           4
            ngfft          72      72      72
             nkpt           2
            nstep        2000
             nsym           6
           ntypat           3
              occ      2.000000  2.000000  2.000000  2.000000  2.000000  2.000000
                       2.000000  2.000000  2.000000  2.000000  2.000000  2.000000
                       2.000000  2.000000  2.000000  2.000000  2.000000  2.000000
                       2.000000  2.000000  2.000000  2.000000  2.000000  2.000000
                       2.000000  2.000000  2.000000  2.000000  2.000000  2.000000
                       2.000000  2.000000  2.000000  2.000000  2.000000  2.000000
                       2.000000  2.000000  2.000000  2.000000  2.000000  2.000000
                       0.000000  0.000000  0.000000  0.000000  0.000000  0.000000
                       0.000000  0.000000  0.000000
        optdriver           1
            prtwf          -1
            rfdir           1       1       1
           rfelfd           2
            rprim      9.4794590792E+00  0.0000000000E+00  7.0355914311E+00
                       3.5398756719E+00  8.7937150660E+00  7.0355914311E+00
                       0.0000000000E+00  0.0000000000E+00  1.1805070572E+01
          spgroup         148
           symrel      1  0  0   0  1  0   0  0  1      -1  0  0   0 -1  0   0  0 -1
                       0  0  1   1  0  0   0  1  0       0  0 -1  -1  0  0   0 -1  0
                       0  1  0   0  0  1   1  0  0       0 -1  0   0  0 -1  -1  0  0
           tolwfr      1.00000000E-20
            typat      1  1  2  2  3  3  3  3  3  3
           useylm           1
              wtk        0.50000    0.50000
           xangst      5.9394200875E+00  4.0116925254E+00  1.1804745970E+01
                       9.5011513376E-01  6.4174106634E-01  1.8883775910E+00
                       4.5255014427E+00  3.0566823097E+00  8.9945473012E+00
                       2.3640337786E+00  1.5967512821E+00  4.6985762601E+00
                       3.2484128544E+00  4.3849863147E+00  7.9636342189E+00
                       3.2475254428E+00  1.3759551650E+00  8.9866616108E+00
                       5.7328075926E+00  2.4987821564E+00  7.3546424703E+00
                       3.6411223668E+00  2.6844727704E-01  5.7294893424E+00
                       1.1567276286E+00  2.1546514354E+00  6.3384810910E+00
                       3.6420097785E+00  3.2774784267E+00  4.7064619504E+00
            xcart      1.1223877354E+01  7.5810002024E+00  2.2307736952E+01
                       1.7954573975E+00  1.2127148636E+00  3.5685164824E+00
                       8.5519583406E+00  5.7762924405E+00  1.6997231089E+01
                       4.4673764105E+00  3.0174226255E+00  8.8790223460E+00
                       6.1386106614E+00  8.2864232313E+00  1.5049087696E+01
                       6.1369336964E+00  2.6001784330E+00  1.6982329293E+01
                       1.0833436323E+01  4.7220139413E+00  1.3898260074E+01
                       6.8807240897E+00  5.0729183473E-01  1.0827165738E+01
                       2.1858984285E+00  4.0717011247E+00  1.1977993360E+01
                       6.8824010547E+00  6.1935366330E+00  8.8939241412E+00
             xred      8.6209300000E-01  8.6209300000E-01  8.6209300000E-01
                       1.3790700000E-01  1.3790700000E-01  1.3790700000E-01
                       6.5686600000E-01  6.5686600000E-01  6.5686600000E-01
                       3.4313400000E-01  3.4313400000E-01  3.4313400000E-01
                       2.9568600000E-01  9.4231200000E-01  5.3697600000E-01
                       5.3697600000E-01  2.9568600000E-01  9.4231200000E-01
                       9.4231200000E-01  5.3697600000E-01  2.9568600000E-01
                       7.0431400000E-01  5.7688000000E-02  4.6302400000E-01
                       5.7688000000E-02  4.6302400000E-01  7.0431400000E-01
                       4.6302400000E-01  7.0431400000E-01  5.7688000000E-02
            znucl       11.00000   83.00000    8.00000

 chkinp: Checking input parameters for consistency.

== DATASET  1 ==================================================================
-   mpi_nproc: 1, omp_nthreads: -1 (-1 if OMP is not activated)

--- !DatasetInfo
iteration_state: {dtset: 1, }
dimensions: {natom: 10, nkpt: 2, mband: 51, nsppol: 1, nspinor: 1, nspden: 1, mpw: 13759, }
cutoff_energies: {ecut:  44.0, pawecutdg:  -1.0, }
electrons: {nelect:   8.40000000E+01, charge:   0.00000000E+00, occopt:   1.00000000E+00, tsmear:   1.00000000E-02, }
meta: {optdriver: 1, rfelfd: 2, }
...

 Real(R)+Recip(G) space primitive vectors, cartesian coordinates (Bohr,Bohr^-1):
 R(1)=  9.4794591  0.0000000  7.0355914  G(1)=  0.1054913 -0.0424651  0.0000000
 R(2)=  3.5398757  8.7937151  7.0355914  G(2)=  0.0000000  0.1137176  0.0000000
 R(3)=  0.0000000  0.0000000 11.8050706  G(3)= -0.0628707 -0.0424651  0.0847094
 Unit cell volume ucvol=  9.8406669E+02 bohr^3
 Angles (23,13,12)=  5.34174413E+01  5.34174413E+01  5.34174413E+01 degrees

 getcut: wavevector=  0.0000  0.0000  0.0000  ngfft=  72  72  72
         ecut(hartree)=     44.000   => boxcut(ratio)=   2.04292

--- Pseudopotential description ------------------------------------------------
- pspini: atom type   1  psp file is /scratch/users/j/a/jabreu/pseudos/PBEsol/Na.psp8
- pspatm: opening atomic psp file    /scratch/users/j/a/jabreu/pseudos/PBEsol/Na.psp8
- Na    ONCVPSP-3.3.0  r_core=   1.20708   1.55069
- 11.00000   9.00000    180112                znucl, zion, pspdat
    8 -116133    1    4       400   0.00000   pspcod,pspxc,lmax,lloc,mmax,r2well
    3.99000000000000    0.00000000000000    0.00000000000000   rchrg,fchrg,qchrg
     nproj     2     2
     extension_switch     1
  pspatm : epsatm=    9.32878306
         --- l  ekb(1:nproj) -->
             0    2.657905   -0.678300
             1   -6.761319   -2.404728
 pspatm: atomic psp has been read  and splines computed

- pspini: atom type   2  psp file is /scratch/users/j/a/jabreu/pseudos/PBEsol/Bi.psp8
- pspatm: opening atomic psp file    /scratch/users/j/a/jabreu/pseudos/PBEsol/Bi.psp8
- Bi    ONCVPSP-3.3.0  r_core=   2.42776   2.51622   2.10397
- 83.00000  15.00000    180112                znucl, zion, pspdat
    8 -116133    2    4       600   0.00000   pspcod,pspxc,lmax,lloc,mmax,r2well
    5.99000000000000    6.00000000000000    0.00000000000000   rchrg,fchrg,qchrg
     nproj     2     2     2
     extension_switch     1
  pspatm : epsatm=   42.90078186
         --- l  ekb(1:nproj) -->
             0    6.017688    0.961606
             1    4.379371    0.528498
             2   -3.458170   -0.753782
 pspatm: atomic psp has been read  and splines computed

- pspini: atom type   3  psp file is /scratch/users/j/a/jabreu/pseudos/PBEsol/O.psp8
- pspatm: opening atomic psp file    /scratch/users/j/a/jabreu/pseudos/PBEsol/O.psp8
- O     ONCVPSP-3.3.0  r_core=   1.35509   1.45563   1.26150
-  8.00000   6.00000    180112                znucl, zion, pspdat
    8 -116133    2    4       600   0.00000   pspcod,pspxc,lmax,lloc,mmax,r2well
    5.99000000000000    4.00000000000000    0.00000000000000   rchrg,fchrg,qchrg
     nproj     2     2     1
     extension_switch     1
  pspatm : epsatm=    6.22910522
         --- l  ekb(1:nproj) -->
             0    6.050032    0.820363
             1   -4.739617   -1.153841
             2   -1.335834
 pspatm: atomic psp has been read  and splines computed

   1.19140359E+04                                ecore*ucvol(ha*bohr**3)

 ==>  initialize data related to q vector <==

 The list of irreducible perturbations for this q vector is:
    1)    idir= 1    ipert=  11
    2)    idir= 2    ipert=  11
    3)    idir= 3    ipert=  11

 Perturbation wavevector (in red.coord.)   0.000000  0.000000  0.000000
 Perturbation : derivative vs k along direction   1

 dfpt_looppert : COMMENT -
  In a d/dk calculation, iscf is set to -3 automatically.
 The set of symmetries contains only one element for this perturbation.
 symkpt : not enough symmetry to change the number of k points.

 Initialisation of the first-order wave-functions :
  ireadwf=   0

--- !BeginCycle
iteration_state: {dtset: 1, }
solver: {iscf: 7, nstep: 2000, nline: 4, wfoptalg: 0, }
tolerances: {tolwfr: 1.00E-20, }
...

     iter   2DEtotal(Ha)        deltaE(Ha) residm    vres2
-ETOT  1  -65.585016349199     -6.559E+01 1.421E-01 0.000E+00
 ETOT  2  -65.633240302232     -4.822E-02 2.164E-03 0.000E+00
 ETOT  3  -65.633374054400     -1.338E-04 1.101E-04 0.000E+00
 ETOT  4  -65.633375057480     -1.003E-06 8.787E-06 0.000E+00
 ETOT  5  -65.633375067582     -1.010E-08 5.426E-07 0.000E+00
 ETOT  6  -65.633375067699     -1.171E-10 7.896E-08 0.000E+00
 ETOT  7  -65.633375067701     -1.378E-12 5.384E-09 0.000E+00
 ETOT  8  -65.633375067701      0.000E+00 8.082E-10 0.000E+00
 ETOT  9  -65.633375067701      1.421E-14 5.615E-11 0.000E+00
 ETOT 10  -65.633375067701      0.000E+00 8.646E-12 0.000E+00
 ETOT 11  -65.633375067701     -4.263E-14 5.995E-13 0.000E+00
 ETOT 12  -65.633375067701      0.000E+00 9.425E-14 0.000E+00
 ETOT 13  -65.633375067701      2.842E-14 6.491E-15 0.000E+00
 ETOT 14  -65.633375067701     -1.421E-14 1.037E-15 0.000E+00
 ETOT 15  -65.633375067701     -1.421E-14 7.092E-17 0.000E+00
 ETOT 16  -65.633375067701      2.842E-14 1.148E-17 0.000E+00
 ETOT 17  -65.633375067701      1.421E-14 7.802E-19 0.000E+00
 ETOT 18  -65.633375067701     -4.263E-14 1.276E-19 0.000E+00
 ETOT 19  -65.633375067701      4.263E-14 9.764E-21 0.000E+00

 At SCF step   19   max residual=  9.76E-21 < tolwfr=  1.00E-20 =>converged.

 ----iterations are completed or convergence reached----

 dfpt_looppert: DFPT cycle converged with prtwf=-1. Will skip output of the 1st-order WFK file.
 dfpt_looppert : ek2=    8.5767793910E+01
          f-sum rule ratio=    1.0361917222E+00
 prteigrs : about to open file /scratch/users/j/a/jabreu/flow_simple_10atoms/flow/w432/t1/tmpdata/tmp_1WF1_EIG
 Expectation of eigenvalue derivatives (hartree) for nkpt=   2  k points:
  (in case of degenerate eigenvalues, averaged derivative)
 kpt#   1, nband= 51, wtk=  0.50000, kpt=  0.6088  0.3912  0.0000 (reduced coord)
   0.00010   -0.00010   -0.00587    0.01980   -0.02233   -0.00173    0.01414    0.00132
  -0.00666    0.00073   -0.00194    0.00260    0.00002    0.00059   -0.00037    0.00160
  -0.00106    0.00000    0.04157   -0.04330   -0.00952    0.03607   -0.04669    0.01685
   0.07383   -0.07187    0.02115   -0.05655    0.00177    0.09629    0.01039   -0.09942
  -0.02968    0.01551   -0.00024    0.02382    0.02390    0.01227    0.00951   -0.00040
  -0.00696   -0.00317    0.01306   -0.01423    0.00996   -0.05116   -0.00342    0.00485
   0.04597   -0.00559    0.00599
 prteigrs : prtvol=0 or 1, do not print more k-points.

 Eight components of 2nd-order total energy (hartree) are
 1,2,3: 0th-order hamiltonian combined with 1st-order wavefunctions
     kin0=   8.07244061E+01 eigvalue=   8.89201797E+00  local=  -3.65998542E+01
 4,5,6: 1st-order hamiltonian combined with 1st and 0th-order wfs
     kin1=  -8.88718781E+01  Hartree=   0.00000000E+00     xc=   0.00000000E+00
 7,8,9: eventually, occupation + non-local contributions
    edocc=   9.80147928E+00     enl0=   2.81532590E+00   enl1=  -4.23948721E+01
 1-9 gives the relaxation energy (to be shifted if some occ is /=2.0)
   erelax=  -6.56333751E+01
  No Ewald or frozen-wf contrib.: the relaxation energy is the total one
 2DEtotal=   -0.6563337507E+02 Ha. Also 2DEtotal=   -0.178597496299E+04 eV
    (  non-var. 2DEtotal :   -6.5633375067E+01 Ha)

 Perturbation wavevector (in red.coord.)   0.000000  0.000000  0.000000
 Perturbation : derivative vs k along direction   2
 The set of symmetries contains only one element for this perturbation.
 symkpt : not enough symmetry to change the number of k points.

[...]

 Perturbation wavevector (in red.coord.)   0.000000  0.000000  0.000000
 Perturbation : derivative vs k along direction   3
 The set of symmetries contains only one element for this perturbation.
 symkpt : not enough symmetry to change the number of k points.

 Initialisation of the first-order wave-functions :
  ireadwf=   0

--- !BeginCycle
iteration_state: {dtset: 1, }
solver: {iscf: 7, nstep: 2000, nline: 4, wfoptalg: 0, }
tolerances: {tolwfr: 1.00E-20, }
...

     iter   2DEtotal(Ha)        deltaE(Ha) residm    vres2
-ETOT  1  -65.749960626660     -6.575E+01 7.039E-02 0.000E+00
 ETOT  2  -65.797834410623     -4.787E-02 2.794E-03 0.000E+00
 ETOT  3  -65.797976979002     -1.426E-04 1.125E-04 0.000E+00
 ETOT  4  -65.797978169693     -1.191E-06 8.816E-06 0.000E+00
 ETOT  5  -65.797978183032     -1.334E-08 7.712E-07 0.000E+00
 ETOT  6  -65.797978183206     -1.737E-10 6.926E-08 0.000E+00
 ETOT  7  -65.797978183208     -2.487E-12 6.472E-09 0.000E+00
 ETOT  8  -65.797978183208      1.421E-14 6.222E-10 0.000E+00
 ETOT  9  -65.797978183208     -2.842E-14 5.909E-11 0.000E+00
 ETOT 10  -65.797978183208      1.421E-14 5.806E-12 0.000E+00
 ETOT 11  -65.797978183208      1.421E-14 5.587E-13 0.000E+00
 ETOT 12  -65.797978183208      1.421E-14 5.526E-14 0.000E+00
 ETOT 13  -65.797978183208     -1.421E-14 5.381E-15 0.000E+00
 ETOT 14  -65.797978183208      1.421E-14 5.332E-16 0.000E+00
 ETOT 15  -65.797978183208     -1.421E-14 5.241E-17 0.000E+00
 ETOT 16  -65.797978183208      0.000E+00 5.198E-18 0.000E+00
 ETOT 17  -65.797978183208      0.000E+00 5.146E-19 0.000E+00
 ETOT 18  -65.797978183208     -2.842E-14 5.106E-20 0.000E+00
 ETOT 19  -65.797978183208      2.842E-14 9.959E-21 0.000E+00

 At SCF step   19   max residual=  9.96E-21 < tolwfr=  1.00E-20 =>converged.

 ----iterations are completed or convergence reached----

 dfpt_looppert: DFPT cycle converged with prtwf=-1. Will skip output of the 1st-order WFK file.
 dfpt_looppert : ek2=    8.5767793910E+01
          f-sum rule ratio=    1.0406421819E+00
 prteigrs : about to open file /scratch/users/j/a/jabreu/flow_simple_10atoms/flow/w432/t1/tmpdata/tmp_1WF1_EIG
 Expectation of eigenvalue derivatives (hartree) for nkpt=   2  k points:
  (in case of degenerate eigenvalues, averaged derivative)
 kpt#   1, nband= 51, wtk=  0.50000, kpt=  0.6088  0.3912  0.0000 (reduced coord)
   0.00000   -0.00000   -0.00004   -0.00001    0.00015   -0.00026   -0.00239    0.00379
  -0.00123    0.00049   -0.00052    0.00003   -0.00058    0.00118   -0.00104    0.00057
  -0.00024    0.00015   -0.00324    0.00360    0.00152   -0.00126   -0.00146    0.00072
  -0.00260    0.00329    0.00671    0.02125   -0.03265   -0.06780    0.04981    0.03749
  -0.02846    0.03279   -0.01298   -0.00708    0.00534   -0.02426    0.01893    0.00229
   0.00018   -0.00160    0.01232   -0.01302   -0.03134    0.00579   -0.00067    0.12695
  -0.12284    0.01036   -0.01398
 prteigrs : prtvol=0 or 1, do not print more k-points.

 Eight components of 2nd-order total energy (hartree) are
 1,2,3: 0th-order hamiltonian combined with 1st-order wavefunctions
     kin0=   8.07620673E+01 eigvalue=   8.87693363E+00  local=  -3.66407067E+01
 4,5,6: 1st-order hamiltonian combined with 1st and 0th-order wfs
     kin1=  -8.92535842E+01  Hartree=   0.00000000E+00     xc=   0.00000000E+00
 7,8,9: eventually, occupation + non-local contributions
    edocc=   9.95542065E+00     enl0=   2.84426330E+00   enl1=  -4.23423722E+01
 1-9 gives the relaxation energy (to be shifted if some occ is /=2.0)
   erelax=  -6.57979782E+01
  No Ewald or frozen-wf contrib.: the relaxation energy is the total one
 2DEtotal=   -0.6579797818E+02 Ha. Also 2DEtotal=   -0.179045404156E+04 eV
    (  non-var. 2DEtotal :   -6.5797978183E+01 Ha)

 CALCULATION OF EFFECTIVE MASSES
 NOTE : Additional infos (eff. mass eigenvalues, eigenvectors and, if degenerate, average mass) are available in stdout.

 K-point ( 0.609, 0.391, 0.000) | band =    42
 Effective mass tensor:
            -19.5539971192              6.2541780420            -14.0172542162
              6.2541780420             -8.9114557232              5.7538711698
            -14.0172542162              5.7538711698            -16.7839262284
 Effective mass tensor eigenvalues:
            -35.0204914637             -6.1472838806             -4.0816037265
 Angular average effective mass 1/(<1/m>)=  -6.8771074226
 Angular average effective mass for Frohlich model (<m**0.5>)**2=  -8.1324572992
 Effective masses along directions: (cart. coord. / red. coord. -> eff. mass)
    1:   1.000000  0.000000  0.000000 /   0.936813  0.349830  0.000000 ->  -7.5448640874
    2:   0.000000  1.000000  0.000000 /   0.000000  1.000000  0.000000 ->  -6.6714383233
    3:   0.000000  0.000000  1.000000 /   0.455706  0.455706  0.764633 ->  -6.5020896646
    4:   0.577350  0.577350  0.577350 /   0.588596  0.690318  0.420733 ->  -8.6776739786
    5:   0.000000  0.707107  0.707107 /   0.335628  0.755125  0.563152 ->  -5.5518709280
    6:   0.707107  0.000000  0.707107 /   0.721500  0.462015  0.515733 -> -23.8304661556
    7:   0.707107  0.707107  0.000000 /   0.609391  0.792870  0.000000 ->  -5.9210210927

 K-point ( 0.000, 0.000, 0.000) | band =    43
 Effective mass tensor:
              0.3435763674              0.0137450033              0.0404458395
              0.0137450033              0.3325103727              0.0273185378
              0.0404458395              0.0273185378              0.4036136334
 Effective mass tensor eigenvalues:
              0.3232265156              0.3232265157              0.4332473422
 Angular average effective mass 1/(<1/m>)=   0.3531172568
 Angular average effective mass for Frohlich model (<m**0.5>)**2=   0.3550332328
 Effective masses along directions: (cart. coord. / red. coord. -> eff. mass)
    1:   1.000000  0.000000  0.000000 /   0.936813  0.349830  0.000000 ->   0.3391568902
    2:   0.000000  1.000000  0.000000 /   0.000000  1.000000  0.000000 ->   0.3303044572
    3:   0.000000  0.000000  1.000000 /   0.455706  0.455706  0.764633 ->   0.3968626077
    4:   0.577350  0.577350  0.577350 /   0.588596  0.690318  0.420733 ->   0.4091848530
    5:   0.000000  0.707107  0.707107 /   0.335628  0.755125  0.563152 ->   0.3878139590
    6:   0.707107  0.000000  0.707107 /   0.721500  0.462015  0.515733 ->   0.4089472145
    7:   0.707107  0.707107  0.000000 /   0.609391  0.792870  0.000000 ->   0.3460391692

 END OF EFFECTIVE MASSES SECTION

 ---- first-order wavefunction calculations are completed ----

 Total localisation tensor (bohr^2) in cartesian coordinates
  WARNING : still subject to testing - especially symmetries.
      direction              matrix element
   alpha     beta       real part   imaginary part
     1        1       1.2321163533    0.0000000000
     1        2       0.3746474920    0.0000000000
     1        3       1.1022806181    0.0000000000
     2        1       0.3746474920    0.0000000000
     2        2       0.9306946346    0.0000000000
     2        3       0.7446212604    0.0000000000
     3        1       1.1022806181    0.0000000000
     3        2       0.7446212604    0.0000000000
     3        3       2.8775680908    0.0000000000

 respfn : d/dk was computed, but no 2DTE, so no DDB output.

== END DATASET(S) ==============================================================

 -outvars: echo values of variables after computation  --------
            acell      1.0000000000E+00  1.0000000000E+00  1.0000000000E+00 Bohr
              amu      2.29897680E+01  2.08980370E+02  1.59994000E+01
             ecut      4.40000000E+01 Hartree
           etotal     -6.5797978183E+01
            fcart      0.0000000000E+00  0.0000000000E+00  0.0000000000E+00
                       0.0000000000E+00  0.0000000000E+00  0.0000000000E+00
                       0.0000000000E+00  0.0000000000E+00  0.0000000000E+00
                       0.0000000000E+00  0.0000000000E+00  0.0000000000E+00
                       0.0000000000E+00  0.0000000000E+00  0.0000000000E+00
                       0.0000000000E+00  0.0000000000E+00  0.0000000000E+00
                       0.0000000000E+00  0.0000000000E+00  0.0000000000E+00
                       0.0000000000E+00  0.0000000000E+00  0.0000000000E+00
                       0.0000000000E+00  0.0000000000E+00  0.0000000000E+00
                       0.0000000000E+00  0.0000000000E+00  0.0000000000E+00
-          fftalg         512
           irdden           1
           irdwfk           1
           istwfk        0    1
              ixc     -116133
              kpt      6.08757498E-01  3.91242502E-01  0.00000000E+00
                       0.00000000E+00  0.00000000E+00  0.00000000E+00
           kptopt           0
P           mkmem           2
P          mkqmem           2
P          mk1mem           2
            natom          10
            nband          51
           nbdbuf           4
            ngfft          72      72      72
             nkpt           2
            nstep        2000
             nsym           6
           ntypat           3
              occ      2.000000  2.000000  2.000000  2.000000  2.000000  2.000000
                       2.000000  2.000000  2.000000  2.000000  2.000000  2.000000
                       2.000000  2.000000  2.000000  2.000000  2.000000  2.000000
                       2.000000  2.000000  2.000000  2.000000  2.000000  2.000000
                       2.000000  2.000000  2.000000  2.000000  2.000000  2.000000
                       2.000000  2.000000  2.000000  2.000000  2.000000  2.000000
                       2.000000  2.000000  2.000000  2.000000  2.000000  2.000000
                       0.000000  0.000000  0.000000  0.000000  0.000000  0.000000
                       0.000000  0.000000  0.000000
        optdriver           1
            prtwf          -1
            rfdir           1       1       1
           rfelfd           2
            rprim      9.4794590792E+00  0.0000000000E+00  7.0355914311E+00
                       3.5398756719E+00  8.7937150660E+00  7.0355914311E+00
                       0.0000000000E+00  0.0000000000E+00  1.1805070572E+01
          spgroup         148
           strten      0.0000000000E+00  0.0000000000E+00  0.0000000000E+00
                       0.0000000000E+00  0.0000000000E+00  0.0000000000E+00
           symrel      1  0  0   0  1  0   0  0  1      -1  0  0   0 -1  0   0  0 -1
                       0  0  1   1  0  0   0  1  0       0  0 -1  -1  0  0   0 -1  0
                       0  1  0   0  0  1   1  0  0       0 -1  0   0  0 -1  -1  0  0
           tolwfr      1.00000000E-20
            typat      1  1  2  2  3  3  3  3  3  3
           useylm           1
              wtk        0.50000    0.50000
           xangst      5.9394200875E+00  4.0116925254E+00  1.1804745970E+01
                       9.5011513376E-01  6.4174106634E-01  1.8883775910E+00
                       4.5255014427E+00  3.0566823097E+00  8.9945473012E+00
                       2.3640337786E+00  1.5967512821E+00  4.6985762601E+00
                       3.2484128544E+00  4.3849863147E+00  7.9636342189E+00
                       3.2475254428E+00  1.3759551650E+00  8.9866616108E+00
                       5.7328075926E+00  2.4987821564E+00  7.3546424703E+00
                       3.6411223668E+00  2.6844727704E-01  5.7294893424E+00
                       1.1567276286E+00  2.1546514354E+00  6.3384810910E+00
                       3.6420097785E+00  3.2774784267E+00  4.7064619504E+00
            xcart      1.1223877354E+01  7.5810002024E+00  2.2307736952E+01
                       1.7954573975E+00  1.2127148636E+00  3.5685164824E+00
                       8.5519583406E+00  5.7762924405E+00  1.6997231089E+01
                       4.4673764105E+00  3.0174226255E+00  8.8790223460E+00
                       6.1386106614E+00  8.2864232313E+00  1.5049087696E+01
                       6.1369336964E+00  2.6001784330E+00  1.6982329293E+01
                       1.0833436323E+01  4.7220139413E+00  1.3898260074E+01
                       6.8807240897E+00  5.0729183473E-01  1.0827165738E+01
                       2.1858984285E+00  4.0717011247E+00  1.1977993360E+01
                       6.8824010547E+00  6.1935366330E+00  8.8939241412E+00
             xred      8.6209300000E-01  8.6209300000E-01  8.6209300000E-01
                       1.3790700000E-01  1.3790700000E-01  1.3790700000E-01
                       6.5686600000E-01  6.5686600000E-01  6.5686600000E-01
                       3.4313400000E-01  3.4313400000E-01  3.4313400000E-01
                       2.9568600000E-01  9.4231200000E-01  5.3697600000E-01
                       5.3697600000E-01  2.9568600000E-01  9.4231200000E-01
                       9.4231200000E-01  5.3697600000E-01  2.9568600000E-01
                       7.0431400000E-01  5.7688000000E-02  4.6302400000E-01
                       5.7688000000E-02  4.6302400000E-01  7.0431400000E-01
                       4.6302400000E-01  7.0431400000E-01  5.7688000000E-02
            znucl       11.00000   83.00000    8.00000

- Timing analysis has been suppressed with timopt=0

 Suggested references for the acknowledgment of ABINIT usage.

 Calculation completed.
.Delivered   2 WARNINGs and   5 COMMENTs to log file.