.Version 9.5.2 of ABINIT

 ABINIT is a project of the Universite Catholique de Louvain,
 Corning Inc. and other collaborators, see ~abinit/doc/developers/contributors.txt .
 acknowledgments of the ABINIT effort.

.Starting date : Mon 24 May 2021.
- ( at 22h49 )

- input  file    -> /scratch/users/j/a/jabreu/flow_simple_10atoms/flow/w445/t1/run.abi
- output file    -> /scratch/users/j/a/jabreu/flow_simple_10atoms/flow/w445/t1/run.abo
- root for input  files -> /scratch/users/j/a/jabreu/flow_simple_10atoms/flow/w445/t1/indata/in
- root for output files -> /scratch/users/j/a/jabreu/flow_simple_10atoms/flow/w445/t1/outdata/out

 Symmetries : space group P2_1/m (# 11); Bravais mP (primitive monocl.)
     intxc =       0      iscf =       7    lmnmax =      32     lnmax =       8
     mgfft =      90  mpssoang =       4    mqgrid =    4072     natom =      10
  nloc_mem =       1    nspden =       1   nspinor =       1    nsppol =       1
      nsym =       4    n1xccc =    2501    ntypat =       3    occopt =       1
   xclevel =       2
-    mband =          25        mffmem =           1         mkmem =           2
-   mkqmem =           2        mk1mem =           2           mpw =       19717
      nfft =      388800          nkpt =           2
  Rough estimation (10% accuracy) of disk space for files :

------------- Echo of variables that govern the present computation ------------
-
- outvars: echo of selected default values
-   iomode0 =  0 , fftalg0 =512 , wfoptalg0 =  0
-
- outvars: echo of global parameters not present in the input file
-  max_nthreads =    0
-
 -outvars: echo values of preprocessed input variables --------
            acell      1.0000000000E+00  1.0000000000E+00  1.0000000000E+00 Bohr
              amu      1.32905430E+02  9.01218200E+00  1.00794000E+00
             ecut      4.40000000E+01 Hartree
-          fftalg         512
           irdden           1
           irdwfk           1
           istwfk        1    1
              ixc     -116133
              kpt      0.00000000E+00  0.00000000E+00  0.00000000E+00
                       0.00000000E+00  5.00000000E-01  5.00000000E-01
           kptopt           0
P           mkmem           2
P          mkqmem           2
P          mk1mem           2
            natom          10
            nband          25
           nbdbuf           4
            ngfft          72      60      90
             nkpt           2
            nstep        2000
             nsym           4
           ntypat           3
              occ      2.000000  2.000000  2.000000  2.000000  2.000000  2.000000
                       2.000000  2.000000  2.000000  2.000000  2.000000  2.000000
                       2.000000  2.000000  2.000000  2.000000  0.000000  0.000000
                       0.000000  0.000000  0.000000  0.000000  0.000000  0.000000
                       0.000000
        optdriver           1
            prtwf          -1
            rfdir           1       1       1
           rfelfd           2
            rprim      1.0872150844E+01  0.0000000000E+00  0.0000000000E+00
                       0.0000000000E+00  9.0560893263E+00  2.9724464776E+00
                       0.0000000000E+00  0.0000000000E+00  1.4352114176E+01
          spgroup          11
           symrel      1  0  0   0  1  0   0  0  1      -1  0  0   0 -1  0   0  0 -1
                       1  0  0   0 -1  0   0  0 -1      -1  0  0   0  1  0   0  0  1
            tnons      0.0000000  0.0000000  0.0000000     0.0000000 -0.0000000 -0.0000000
                       0.5000000 -0.0000000 -0.0000000     0.5000000  0.0000000  0.0000000
           tolwfr      1.00000000E-20
            typat      1  1  2  2  3  3  3  3  3  3
           useylm           1
              wtk        0.50000    0.50000
           xangst      1.4383236087E+00  9.7505086612E-01  5.8921000428E+00
                       4.3149708261E+00  3.8172252043E+00  3.2756626037E+00
                       4.3149708261E+00  3.8046406874E+00  6.7634062124E+00
                       1.4383236087E+00  9.8763538308E-01  2.4043564341E+00
                       2.1552416282E-01  1.3434475045E+00  3.0069530481E+00
                       3.0921713802E+00  3.4488285660E+00  6.1608095984E+00
                       5.5377702720E+00  3.4488285660E+00  6.1608095984E+00
                       2.6611230546E+00  1.3434475045E+00  3.0069530481E+00
                       1.4383236087E+00  2.1628500361E-01  1.2205487176E+00
                       4.3149708261E+00  4.5759910668E+00  7.9472139289E+00
            xcart      2.7180377109E+00  1.8425791026E+00  1.1134455429E+01
                       8.1541131328E+00  7.2135102237E+00  6.1901052247E+00
                       8.1541131328E+00  7.1897289331E+00  1.2780985467E+01
                       2.7180377109E+00  1.8663603932E+00  4.5435751864E+00
                       4.0728164276E-01  2.5387478574E+00  5.6823177553E+00
                       5.8433570646E+00  6.5173414689E+00  1.1642242898E+01
                       1.0464869201E+01  6.5173414689E+00  1.1642242898E+01
                       5.0287937791E+00  2.5387478574E+00  5.6823177553E+00
                       2.7180377109E+00  4.0871942347E-01  2.3065028082E+00
                       8.1541131328E+00  8.6473699028E+00  1.5018057845E+01
             xred      2.5000000000E-01  2.0346300000E-01  7.3366700000E-01
                       7.5000000000E-01  7.9653700000E-01  2.6633300000E-01
                       7.5000000000E-01  7.9391100000E-01  7.2610400000E-01
                       2.5000000000E-01  2.0608900000E-01  2.7389600000E-01
                       3.7461000000E-02  2.8033600000E-01  3.3786200000E-01
                       5.3746100000E-01  7.1966400000E-01  6.6213800000E-01
                       9.6253900000E-01  7.1966400000E-01  6.6213800000E-01
                       4.6253900000E-01  2.8033600000E-01  3.3786200000E-01
                       2.5000000000E-01  4.5132000000E-02  1.5136100000E-01
                       7.5000000000E-01  9.5486800000E-01  8.4863900000E-01
            znucl       55.00000    4.00000    1.00000

 chkinp: Checking input parameters for consistency.

== DATASET  1 ==================================================================
-   mpi_nproc: 1, omp_nthreads: -1 (-1 if OMP is not activated)

--- !DatasetInfo
iteration_state: {dtset: 1, }
dimensions: {natom: 10, nkpt: 2, mband: 25, nsppol: 1, nspinor: 1, nspden: 1, mpw: 19717, }
cutoff_energies: {ecut:  44.0, pawecutdg:  -1.0, }
electrons: {nelect:   3.20000000E+01, charge:   0.00000000E+00, occopt:   1.00000000E+00, tsmear:   1.00000000E-02, }
meta: {optdriver: 1, rfelfd: 2, }
...

 Real(R)+Recip(G) space primitive vectors, cartesian coordinates (Bohr,Bohr^-1):
 R(1)= 10.8721508  0.0000000  0.0000000  G(1)=  0.0919781  0.0000000  0.0000000
 R(2)=  0.0000000  9.0560893  2.9724465  G(2)=  0.0000000  0.1104229  0.0000000
 R(3)=  0.0000000  0.0000000 14.3521142  G(3)=  0.0000000 -0.0228695  0.0696761
 Unit cell volume ucvol=  1.4130972E+03 bohr^3
 Angles (23,13,12)=  7.18288049E+01  9.00000000E+01  9.00000000E+01 degrees

 getcut: wavevector=  0.0000  0.0000  0.0000  ngfft=  72  60  90
         ecut(hartree)=     44.000   => boxcut(ratio)=   2.10021

--- Pseudopotential description ------------------------------------------------
- pspini: atom type   1  psp file is /scratch/users/j/a/jabreu/pseudos/PBEsol/Cs.psp8
- pspatm: opening atomic psp file    /scratch/users/j/a/jabreu/pseudos/PBEsol/Cs.psp8
- Cs    ONCVPSP-3.3.0  r_core=   2.27353   1.85623   2.01788   1.90105
- 55.00000   9.00000    180112                znucl, zion, pspdat
    8 -116133    3    4       600   0.00000   pspcod,pspxc,lmax,lloc,mmax,r2well
    5.99000000000000    5.00000000000000    0.00000000000000   rchrg,fchrg,qchrg
     nproj     2     2     2     2
     extension_switch     1
  pspatm : epsatm=   22.12462445
         --- l  ekb(1:nproj) -->
             0    6.214110    0.767882
             1    6.311966    0.793598
             2    3.769790    0.913105
             3   -9.247129   -2.432478
 pspatm: atomic psp has been read  and splines computed

- pspini: atom type   2  psp file is /scratch/users/j/a/jabreu/pseudos/PBEsol/Be.psp8
- pspatm: opening atomic psp file    /scratch/users/j/a/jabreu/pseudos/PBEsol/Be.psp8
- Be    ONCVPSP-3.3.0  r_core=   1.35684   1.10780
-  4.00000   4.00000    180112                znucl, zion, pspdat
    8 -116133    1    4       400   0.00000   pspcod,pspxc,lmax,lloc,mmax,r2well
    3.99000000000000    0.00000000000000    0.00000000000000   rchrg,fchrg,qchrg
     nproj     2     2
     extension_switch     1
  pspatm : epsatm=    3.86293307
         --- l  ekb(1:nproj) -->
             0   -7.966826   -2.672546
             1   -3.431835   -0.651830
 pspatm: atomic psp has been read  and splines computed

- pspini: atom type   3  psp file is /scratch/users/j/a/jabreu/pseudos/PBEsol/H.psp8
- pspatm: opening atomic psp file    /scratch/users/j/a/jabreu/pseudos/PBEsol/H.psp8
- H     ONCVPSP-3.3.0  r_core=   1.00957   0.70586
-  1.00000   1.00000    180112                znucl, zion, pspdat
    8 -116133    1    4       300   0.00000   pspcod,pspxc,lmax,lloc,mmax,r2well
    2.99000000000000    0.00000000000000    0.00000000000000   rchrg,fchrg,qchrg
     nproj     2     1
     extension_switch     1
  pspatm : epsatm=    0.35627032
         --- l  ekb(1:nproj) -->
             0   -1.674911   -0.523609
             1   -0.494138
 pspatm: atomic psp has been read  and splines computed

   1.73160758E+03                                ecore*ucvol(ha*bohr**3)

 ==>  initialize data related to q vector <==

 The list of irreducible perturbations for this q vector is:
    1)    idir= 1    ipert=  11
    2)    idir= 2    ipert=  11
    3)    idir= 3    ipert=  11

 Perturbation wavevector (in red.coord.)   0.000000  0.000000  0.000000
 Perturbation : derivative vs k along direction   1

 dfpt_looppert : COMMENT -
  In a d/dk calculation, iscf is set to -3 automatically.
 The set of symmetries contains only one element for this perturbation.
 symkpt : not enough symmetry to change the number of k points.

 Initialisation of the first-order wave-functions :
  ireadwf=   0

--- !BeginCycle
iteration_state: {dtset: 1, }
solver: {iscf: 7, nstep: 2000, nline: 4, wfoptalg: 0, }
tolerances: {tolwfr: 1.00E-20, }
...

     iter   2DEtotal(Ha)        deltaE(Ha) residm    vres2
-ETOT  1  -11.974281175998     -1.197E+01 3.876E-02 0.000E+00
 ETOT  2  -11.979887209071     -5.606E-03 3.550E-04 0.000E+00
 ETOT  3  -11.980000167124     -1.130E-04 6.692E-05 0.000E+00
 ETOT  4  -11.980004555394     -4.388E-06 4.195E-06 0.000E+00
 ETOT  5  -11.980004772534     -2.171E-07 6.432E-07 0.000E+00
 ETOT  6  -11.980004784749     -1.221E-08 6.512E-08 0.000E+00
 ETOT  7  -11.980004785490     -7.413E-10 1.030E-08 0.000E+00
 ETOT  8  -11.980004785537     -4.748E-11 1.081E-09 0.000E+00
 ETOT  9  -11.980004785540     -3.181E-12 1.686E-10 0.000E+00
 ETOT 10  -11.980004785541     -2.203E-13 1.789E-11 0.000E+00
 ETOT 11  -11.980004785541     -1.421E-14 2.780E-12 0.000E+00
 ETOT 12  -11.980004785541     -3.553E-15 3.001E-13 0.000E+00
 ETOT 13  -11.980004785541     -3.553E-15 4.632E-14 0.000E+00
 ETOT 14  -11.980004785541     -3.553E-15 5.118E-15 0.000E+00
 ETOT 15  -11.980004785541      8.882E-15 7.807E-16 0.000E+00
 ETOT 16  -11.980004785541      8.882E-15 8.862E-17 0.000E+00
 ETOT 17  -11.980004785541     -3.553E-15 1.330E-17 0.000E+00
 ETOT 18  -11.980004785541      0.000E+00 1.555E-18 0.000E+00
 ETOT 19  -11.980004785541      0.000E+00 2.286E-19 0.000E+00
 ETOT 20  -11.980004785541      0.000E+00 2.758E-20 0.000E+00
 ETOT 21  -11.980004785541      1.776E-15 9.508E-21 0.000E+00

 At SCF step   21   max residual=  9.51E-21 < tolwfr=  1.00E-20 =>converged.

 ----iterations are completed or convergence reached----

 dfpt_looppert: DFPT cycle converged with prtwf=-1. Will skip output of the 1st-order WFK file.
 dfpt_looppert : ek2=    2.1375130363E+01
          f-sum rule ratio=    1.0039944845E+00
 prteigrs : about to open file /scratch/users/j/a/jabreu/flow_simple_10atoms/flow/w445/t1/tmpdata/tmp_1WF1_EIG
 Expectation of eigenvalue derivatives (hartree) for nkpt=   2  k points:
  (in case of degenerate eigenvalues, averaged derivative)
 kpt#   1, nband= 25, wtk=  0.50000, kpt=  0.0000  0.0000  0.0000 (reduced coord)
  -0.00000   -0.00000   -0.00000    0.00000    0.00000    0.00000   -0.00000    0.00000
  -0.00000   -0.00000   -0.00000   -0.00000    0.00000   -0.00000   -0.00000   -0.00000
  -0.00000    0.00000   -0.00000   -0.00000    0.00000    0.00000    0.00000    0.00064
  -0.00006
 prteigrs : prtvol=0 or 1, do not print more k-points.

 Eight components of 2nd-order total energy (hartree) are
 1,2,3: 0th-order hamiltonian combined with 1st-order wavefunctions
     kin0=   1.15329169E+01 eigvalue=   2.71848254E+00  local=  -7.57802289E+00
 4,5,6: 1st-order hamiltonian combined with 1st and 0th-order wfs
     kin1=  -2.14605130E+01  Hartree=   0.00000000E+00     xc=   0.00000000E+00
 7,8,9: eventually, occupation + non-local contributions
    edocc=   4.09032635E+00     enl0=   1.21630186E+00   enl1=  -2.49949658E+00
 1-9 gives the relaxation energy (to be shifted if some occ is /=2.0)
   erelax=  -1.19800048E+01
  No Ewald or frozen-wf contrib.: the relaxation energy is the total one
 2DEtotal=   -0.1198000479E+02 Ha. Also 2DEtotal=   -0.325992508864E+03 eV
    (  non-var. 2DEtotal :   -1.1980004786E+01 Ha)

 Perturbation wavevector (in red.coord.)   0.000000  0.000000  0.000000
 Perturbation : derivative vs k along direction   2
 The set of symmetries contains only one element for this perturbation.
 symkpt : not enough symmetry to change the number of k points.

[...]

 Perturbation wavevector (in red.coord.)   0.000000  0.000000  0.000000
 Perturbation : derivative vs k along direction   3
 The set of symmetries contains only one element for this perturbation.
 symkpt : not enough symmetry to change the number of k points.

 Initialisation of the first-order wave-functions :
  ireadwf=   0

--- !BeginCycle
iteration_state: {dtset: 1, }
solver: {iscf: 7, nstep: 2000, nline: 4, wfoptalg: 0, }
tolerances: {tolwfr: 1.00E-20, }
...

     iter   2DEtotal(Ha)        deltaE(Ha) residm    vres2
-ETOT  1  -7.6370116152368     -7.637E+00 1.446E-02 0.000E+00
 ETOT  2  -7.6407599726566     -3.748E-03 3.391E-04 0.000E+00
 ETOT  3  -7.6408716164846     -1.116E-04 3.775E-05 0.000E+00
 ETOT  4  -7.6408774597582     -5.843E-06 2.461E-06 0.000E+00
 ETOT  5  -7.6408778159493     -3.562E-07 4.710E-07 0.000E+00
 ETOT  6  -7.6408778388952     -2.295E-08 2.796E-08 0.000E+00
 ETOT  7  -7.6408778404225     -1.527E-09 6.647E-09 0.000E+00
 ETOT  8  -7.6408778405265     -1.039E-10 3.175E-10 0.000E+00
 ETOT  9  -7.6408778405337     -7.196E-12 9.118E-11 0.000E+00
 ETOT 10  -7.6408778405342     -5.045E-13 4.426E-12 0.000E+00
 ETOT 11  -7.6408778405342     -4.263E-14 1.214E-12 0.000E+00
 ETOT 12  -7.6408778405342      2.665E-15 6.278E-14 0.000E+00
 ETOT 13  -7.6408778405342     -6.217E-15 1.600E-14 0.000E+00
 ETOT 14  -7.6408778405342      7.994E-15 9.050E-16 0.000E+00
 ETOT 15  -7.6408778405342      1.776E-15 2.107E-16 0.000E+00
 ETOT 16  -7.6408778405342     -8.882E-16 1.322E-17 0.000E+00
 ETOT 17  -7.6408778405342     -8.882E-16 2.831E-18 0.000E+00
 ETOT 18  -7.6408778405342      4.441E-15 1.952E-19 0.000E+00
 ETOT 19  -7.6408778405342      0.000E+00 4.166E-20 0.000E+00
 ETOT 20  -7.6408778405342     -1.776E-15 9.963E-21 0.000E+00

 At SCF step   20   max residual=  9.96E-21 < tolwfr=  1.00E-20 =>converged.

 ----iterations are completed or convergence reached----

 dfpt_looppert: DFPT cycle converged with prtwf=-1. Will skip output of the 1st-order WFK file.
 dfpt_looppert : ek2=    1.3587602792E+01
          f-sum rule ratio=    1.0056106289E+00
 prteigrs : about to open file /scratch/users/j/a/jabreu/flow_simple_10atoms/flow/w445/t1/tmpdata/tmp_1WF1_EIG
 Expectation of eigenvalue derivatives (hartree) for nkpt=   2  k points:
  (in case of degenerate eigenvalues, averaged derivative)
 kpt#   1, nband= 25, wtk=  0.50000, kpt=  0.0000  0.0000  0.0000 (reduced coord)
   0.00000    0.00000    0.00000   -0.00000    0.00000    0.00000    0.00000   -0.00000
   0.00000   -0.00000    0.00000   -0.00000   -0.00000   -0.00000   -0.00000    0.00000
  -0.00000    0.00000   -0.00000    0.00000   -0.00000   -0.00000    0.00000    0.00079
   0.00005
 prteigrs : prtvol=0 or 1, do not print more k-points.

 Eight components of 2nd-order total energy (hartree) are
 1,2,3: 0th-order hamiltonian combined with 1st-order wavefunctions
     kin0=   7.50710476E+00 eigvalue=   1.74716291E+00  local=  -4.78340994E+00
 4,5,6: 1st-order hamiltonian combined with 1st and 0th-order wfs
     kin1=  -1.36638378E+01  Hartree=   0.00000000E+00     xc=   0.00000000E+00
 7,8,9: eventually, occupation + non-local contributions
    edocc=   2.39912306E+00     enl0=   7.70897052E-01   enl1=  -1.61791789E+00
 1-9 gives the relaxation energy (to be shifted if some occ is /=2.0)
   erelax=  -7.64087784E+00
  No Ewald or frozen-wf contrib.: the relaxation energy is the total one
 2DEtotal=   -0.7640877841E+01 Ha. Also 2DEtotal=   -0.207918859946E+03 eV
    (  non-var. 2DEtotal :   -7.6408778405E+00 Ha)

 CALCULATION OF EFFECTIVE MASSES
 NOTE : Additional infos (eff. mass eigenvalues, eigenvectors and, if degenerate, average mass) are available in stdout.

 K-point ( 0.000, 0.000, 0.000) | band =    16
 Effective mass tensor:
             -0.9535784599             -0.0000244098              0.0000129621
             -0.0000244098             -1.8169815886              1.3991000456
              0.0000129621              1.3991000456             -7.4519830645
 Effective mass tensor eigenvalues:
             -7.7802400010             -1.4887246530             -0.9535784591
 Angular average effective mass 1/(<1/m>)=  -1.6225618017
 Angular average effective mass for Frohlich model (<m**0.5>)**2=  -1.9086688847
 Effective masses along directions: (cart. coord. / red. coord. -> eff. mass)
    1:   1.000000  0.000000  0.000000 /   1.000000  0.000000  0.000000 ->  -0.9535784596
    2:   0.000000  1.000000  0.000000 /   0.000000  1.000000  0.000000 ->  -1.5543023897
    3:   0.000000  0.000000  1.000000 /   0.000000  0.202805  0.979219 ->  -6.3746573779
    4:   0.577350  0.577350  0.577350 /   0.502098  0.555502  0.662809 ->  -1.4350755651
    5:   0.000000  0.707107  0.707107 /   0.000000  0.642339  0.766421 ->  -1.9196945317
    6:   0.707107  0.000000  0.707107 /   0.595770  0.162884  0.786465 ->  -1.6589929079
    7:   0.707107  0.707107  0.000000 /   0.768362  0.640016  0.000000 ->  -1.1820140938

 K-point ( 0.000, 0.500, 0.500) | band =    17
 Effective mass tensor:
              0.8239197157              0.0000014006              0.0000013929
              0.0000014006              0.6512918913              0.1257697171
              0.0000013929              0.1257697171              0.6646530841
 Effective mass tensor eigenvalues:
              0.5320254667              0.7839195087              0.8239197158
 Angular average effective mass 1/(<1/m>)=   0.6866621258
 Angular average effective mass for Frohlich model (<m**0.5>)**2=   0.6950674633
 Effective masses along directions: (cart. coord. / red. coord. -> eff. mass)
    1:   1.000000  0.000000  0.000000 /   1.000000  0.000000  0.000000 ->   0.8239197157
    2:   0.000000  1.000000  0.000000 /   0.000000  1.000000  0.000000 ->   0.6274929771
    3:   0.000000  0.000000  1.000000 /   0.000000  0.202805  0.979219 ->   0.6403659374
    4:   0.577350  0.577350  0.577350 /   0.502098  0.555502  0.662809 ->   0.7966361937
    5:   0.000000  0.707107  0.707107 /   0.000000  0.642339  0.766421 ->   0.7836583452
    6:   0.707107  0.000000  0.707107 /   0.595770  0.162884  0.786465 ->   0.7206393491
    7:   0.707107  0.707107  0.000000 /   0.768362  0.640016  0.000000 ->   0.7124157696

 END OF EFFECTIVE MASSES SECTION

 ---- first-order wavefunction calculations are completed ----

 Total localisation tensor (bohr^2) in cartesian coordinates
  WARNING : still subject to testing - especially symmetries.
      direction              matrix element
   alpha     beta       real part   imaginary part
     1        1       1.1122904610    0.0000000000
     1        2       0.0000000000    0.0000000000
     1        3       0.0000000000    0.0000000000
     2        1       0.0000000000    0.0000000000
     2        2       1.0586282103    0.0000000000
     2        3       0.3474695955    0.0000000000
     3        1       0.0000000000    0.0000000000
     3        2       0.3474695955    0.0000000000
     3        3       1.2985690016    0.0000000000

 respfn : d/dk was computed, but no 2DTE, so no DDB output.

== END DATASET(S) ==============================================================

 -outvars: echo values of variables after computation  --------
            acell      1.0000000000E+00  1.0000000000E+00  1.0000000000E+00 Bohr
              amu      1.32905430E+02  9.01218200E+00  1.00794000E+00
             ecut      4.40000000E+01 Hartree
           etotal     -7.6408778405E+00
            fcart      0.0000000000E+00  0.0000000000E+00  0.0000000000E+00
                       0.0000000000E+00  0.0000000000E+00  0.0000000000E+00
                       0.0000000000E+00  0.0000000000E+00  0.0000000000E+00
                       0.0000000000E+00  0.0000000000E+00  0.0000000000E+00
                       0.0000000000E+00  0.0000000000E+00  0.0000000000E+00
                       0.0000000000E+00  0.0000000000E+00  0.0000000000E+00
                       0.0000000000E+00  0.0000000000E+00  0.0000000000E+00
                       0.0000000000E+00  0.0000000000E+00  0.0000000000E+00
                       0.0000000000E+00  0.0000000000E+00  0.0000000000E+00
                       0.0000000000E+00  0.0000000000E+00  0.0000000000E+00
-          fftalg         512
           irdden           1
           irdwfk           1
           istwfk        1    1
              ixc     -116133
              kpt      0.00000000E+00  0.00000000E+00  0.00000000E+00
                       0.00000000E+00  5.00000000E-01  5.00000000E-01
           kptopt           0
P           mkmem           2
P          mkqmem           2
P          mk1mem           2
            natom          10
            nband          25
           nbdbuf           4
            ngfft          72      60      90
             nkpt           2
            nstep        2000
             nsym           4
           ntypat           3
              occ      2.000000  2.000000  2.000000  2.000000  2.000000  2.000000
                       2.000000  2.000000  2.000000  2.000000  2.000000  2.000000
                       2.000000  2.000000  2.000000  2.000000  0.000000  0.000000
                       0.000000  0.000000  0.000000  0.000000  0.000000  0.000000
                       0.000000
        optdriver           1
            prtwf          -1
            rfdir           1       1       1
           rfelfd           2
            rprim      1.0872150844E+01  0.0000000000E+00  0.0000000000E+00
                       0.0000000000E+00  9.0560893263E+00  2.9724464776E+00
                       0.0000000000E+00  0.0000000000E+00  1.4352114176E+01
          spgroup          11
           strten      0.0000000000E+00  0.0000000000E+00  0.0000000000E+00
                       0.0000000000E+00  0.0000000000E+00  0.0000000000E+00
           symrel      1  0  0   0  1  0   0  0  1      -1  0  0   0 -1  0   0  0 -1
                       1  0  0   0 -1  0   0  0 -1      -1  0  0   0  1  0   0  0  1
            tnons      0.0000000  0.0000000  0.0000000     0.0000000 -0.0000000 -0.0000000
                       0.5000000 -0.0000000 -0.0000000     0.5000000  0.0000000  0.0000000
           tolwfr      1.00000000E-20
            typat      1  1  2  2  3  3  3  3  3  3
           useylm           1
              wtk        0.50000    0.50000
           xangst      1.4383236087E+00  9.7505086612E-01  5.8921000428E+00
                       4.3149708261E+00  3.8172252043E+00  3.2756626037E+00
                       4.3149708261E+00  3.8046406874E+00  6.7634062124E+00
                       1.4383236087E+00  9.8763538308E-01  2.4043564341E+00
                       2.1552416282E-01  1.3434475045E+00  3.0069530481E+00
                       3.0921713802E+00  3.4488285660E+00  6.1608095984E+00
                       5.5377702720E+00  3.4488285660E+00  6.1608095984E+00
                       2.6611230546E+00  1.3434475045E+00  3.0069530481E+00
                       1.4383236087E+00  2.1628500361E-01  1.2205487176E+00
                       4.3149708261E+00  4.5759910668E+00  7.9472139289E+00
            xcart      2.7180377109E+00  1.8425791026E+00  1.1134455429E+01
                       8.1541131328E+00  7.2135102237E+00  6.1901052247E+00
                       8.1541131328E+00  7.1897289331E+00  1.2780985467E+01
                       2.7180377109E+00  1.8663603932E+00  4.5435751864E+00
                       4.0728164276E-01  2.5387478574E+00  5.6823177553E+00
                       5.8433570646E+00  6.5173414689E+00  1.1642242898E+01
                       1.0464869201E+01  6.5173414689E+00  1.1642242898E+01
                       5.0287937791E+00  2.5387478574E+00  5.6823177553E+00
                       2.7180377109E+00  4.0871942347E-01  2.3065028082E+00
                       8.1541131328E+00  8.6473699028E+00  1.5018057845E+01
             xred      2.5000000000E-01  2.0346300000E-01  7.3366700000E-01
                       7.5000000000E-01  7.9653700000E-01  2.6633300000E-01
                       7.5000000000E-01  7.9391100000E-01  7.2610400000E-01
                       2.5000000000E-01  2.0608900000E-01  2.7389600000E-01
                       3.7461000000E-02  2.8033600000E-01  3.3786200000E-01
                       5.3746100000E-01  7.1966400000E-01  6.6213800000E-01
                       9.6253900000E-01  7.1966400000E-01  6.6213800000E-01
                       4.6253900000E-01  2.8033600000E-01  3.3786200000E-01
                       2.5000000000E-01  4.5132000000E-02  1.5136100000E-01
                       7.5000000000E-01  9.5486800000E-01  8.4863900000E-01
            znucl       55.00000    4.00000    1.00000

- Timing analysis has been suppressed with timopt=0

 Suggested references for the acknowledgment of ABINIT usage.

 Calculation completed.
.Delivered   2 WARNINGs and   5 COMMENTs to log file.