.Version 9.5.1 of ABINIT

 ABINIT is a project of the Universite Catholique de Louvain,
 Corning Inc. and other collaborators, see ~abinit/doc/developers/contributors.txt .
 acknowledgments of the ABINIT effort.

.Starting date : Tue  4 May 2021.
- ( at 19h17 )

- input  file    -> /scratch/users/j/a/jabreu/flow_simple_6atoms/flow/w185/t1/run.abi
- output file    -> /scratch/users/j/a/jabreu/flow_simple_6atoms/flow/w185/t1/run.abo
- root for input  files -> /scratch/users/j/a/jabreu/flow_simple_6atoms/flow/w185/t1/indata/in
- root for output files -> /scratch/users/j/a/jabreu/flow_simple_6atoms/flow/w185/t1/outdata/out

 Symmetries : space group Pn n m (# 58); Bravais oP (primitive ortho.)
     intxc =       0      iscf =       7    lmnmax =      32     lnmax =       8
     mgfft =      64  mpssoang =       4    mqgrid =    3047     natom =       6
  nloc_mem =       1    nspden =       1   nspinor =       1    nsppol =       1
      nsym =       8    n1xccc =    2501    ntypat =       2    occopt =       1
   xclevel =       2
-    mband =          35        mffmem =           1         mkmem =           2
-   mkqmem =           2        mk1mem =           2           mpw =        6355
      nfft =      110592          nkpt =           2
  Rough estimation (10% accuracy) of disk space for files :

------------- Echo of variables that govern the present computation ------------
-
- outvars: echo of selected default values
-   iomode0 =  0 , fftalg0 =512 , wfoptalg0 =  0
-
- outvars: echo of global parameters not present in the input file
-  max_nthreads =    0
-
 -outvars: echo values of preprocessed input variables --------
            acell      1.0000000000E+00  1.0000000000E+00  1.0000000000E+00 Bohr
              amu      3.09737620E+01  1.90200000E+02
             ecut      3.70000000E+01 Hartree
-          fftalg         512
           irdden           1
           irdwfk           1
           istwfk        1    0
              ixc     -116133
              kpt      0.00000000E+00  0.00000000E+00  0.00000000E+00
                       1.66666667E-01  6.16297582E-33  0.00000000E+00
           kptopt           0
P           mkmem           2
P          mkqmem           2
P          mk1mem           2
            natom           6
            nband          35
           nbdbuf           4
            ngfft          32      54      64
             nkpt           2
            nstep        1000
             nsym           8
           ntypat           2
              occ      2.000000  2.000000  2.000000  2.000000  2.000000  2.000000
                       2.000000  2.000000  2.000000  2.000000  2.000000  2.000000
                       2.000000  2.000000  2.000000  2.000000  2.000000  2.000000
                       2.000000  2.000000  2.000000  2.000000  2.000000  2.000000
                       2.000000  2.000000  0.000000  0.000000  0.000000  0.000000
                       0.000000  0.000000  0.000000  0.000000  0.000000
        optdriver           1
            prtwf          -1
            rfdir           1       1       1
           rfelfd           2
            rprim      5.5001341328E+00  0.0000000000E+00  0.0000000000E+00
                       0.0000000000E+00  9.6255560426E+00  0.0000000000E+00
                       0.0000000000E+00  0.0000000000E+00  1.1125895520E+01
          spgroup          58
           symrel      1  0  0   0  1  0   0  0  1      -1  0  0   0 -1  0   0  0 -1
                      -1  0  0   0  1  0   0  0 -1       1  0  0   0 -1  0   0  0  1
                      -1  0  0   0 -1  0   0  0  1       1  0  0   0  1  0   0  0 -1
                       1  0  0   0 -1  0   0  0 -1      -1  0  0   0  1  0   0  0  1
            tnons      0.0000000  0.0000000  0.0000000     0.0000000  0.0000000  0.0000000
                       0.5000000  0.5000000  0.5000000     0.5000000  0.5000000  0.5000000
                       0.5000000  0.5000000  0.5000000     0.5000000  0.5000000  0.5000000
                       0.0000000  0.0000000  0.0000000     0.0000000  0.0000000  0.0000000
           tolwfr      1.00000000E-20
            typat      1  1  1  1  2  2
           useylm           1
              wtk        0.50000    0.50000
           xangst      1.4552728136E+00  1.7191238644E+00  5.1309645582E+00
                       1.4552728136E+00  3.3745010134E+00  7.5660577609E-01
                       0.0000000000E+00  8.2768857451E-01  2.1871793911E+00
                       0.0000000000E+00  4.2659363032E+00  3.7003909432E+00
                       1.4552728136E+00  2.5468124389E+00  2.9437851671E+00
                       0.0000000000E+00  0.0000000000E+00  0.0000000000E+00
            xcart      2.7500670664E+00  3.2486732922E+00  9.6961178125E+00
                       2.7500670664E+00  6.3768827504E+00  1.4297777074E+00
                       0.0000000000E+00  1.5641047291E+00  4.1331700526E+00
                       0.0000000000E+00  8.0614513135E+00  6.9927254673E+00
                       2.7500670664E+00  4.8127780213E+00  5.5629477600E+00
                       0.0000000000E+00  0.0000000000E+00  0.0000000000E+00
             xred      5.0000000000E-01  3.3750500000E-01  8.7149100000E-01
                       5.0000000000E-01  6.6249500000E-01  1.2850900000E-01
                       0.0000000000E+00  1.6249500000E-01  3.7149100000E-01
                       0.0000000000E+00  8.3750500000E-01  6.2850900000E-01
                       5.0000000000E-01  5.0000000000E-01  5.0000000000E-01
                       0.0000000000E+00  0.0000000000E+00  0.0000000000E+00
            znucl       15.00000   76.00000

 chkinp: Checking input parameters for consistency.

== DATASET  1 ==================================================================
-   mpi_nproc: 1, omp_nthreads: -1 (-1 if OMP is not activated)

--- !DatasetInfo
iteration_state: {dtset: 1, }
dimensions: {natom: 6, nkpt: 2, mband: 35, nsppol: 1, nspinor: 1, nspden: 1, mpw: 6355, }
cutoff_energies: {ecut:  37.0, pawecutdg:  -1.0, }
electrons: {nelect:   5.20000000E+01, charge:   0.00000000E+00, occopt:   1.00000000E+00, tsmear:   1.00000000E-02, }
meta: {optdriver: 1, rfelfd: 2, }
...

 Real(R)+Recip(G) space primitive vectors, cartesian coordinates (Bohr,Bohr^-1):
 R(1)=  5.5001341  0.0000000  0.0000000  G(1)=  0.1818137  0.0000000  0.0000000
 R(2)=  0.0000000  9.6255560  0.0000000  G(2)=  0.0000000  0.1038901  0.0000000
 R(3)=  0.0000000  0.0000000 11.1258955  G(3)=  0.0000000  0.0000000  0.0898804
 Unit cell volume ucvol=  5.8902548E+02 bohr^3
 Angles (23,13,12)=  9.00000000E+01  9.00000000E+01  9.00000000E+01 degrees

 getcut: wavevector=  0.0000  0.0000  0.0000  ngfft=  32  54  64
         ecut(hartree)=     37.000   => boxcut(ratio)=   2.04881

--- Pseudopotential description ------------------------------------------------
- pspini: atom type   1  psp file is /scratch/users/j/a/jabreu/pseudos/PBEsol/P.psp8
- pspatm: opening atomic psp file    /scratch/users/j/a/jabreu/pseudos/PBEsol/P.psp8
- P     ONCVPSP-3.3.0  r_core=   1.46089   1.55067   1.70594
- 15.00000   5.00000    180112                znucl, zion, pspdat
    8 -116133    2    4       600   0.00000   pspcod,pspxc,lmax,lloc,mmax,r2well
    5.99000000000000    5.00000000000000    0.00000000000000   rchrg,fchrg,qchrg
     nproj     2     2     2
     extension_switch     1
  pspatm : epsatm=    7.31221086
         --- l  ekb(1:nproj) -->
             0    6.742364    1.063650
             1    3.449117    0.910422
             2   -3.077645   -0.799176
 pspatm: atomic psp has been read  and splines computed

- pspini: atom type   2  psp file is /scratch/users/j/a/jabreu/pseudos/PBEsol/Os.psp8
- pspatm: opening atomic psp file    /scratch/users/j/a/jabreu/pseudos/PBEsol/Os.psp8
- Os    ONCVPSP-3.3.0  r_core=   1.51352   1.55006   1.55006   2.27051
- 76.00000  16.00000    180112                znucl, zion, pspdat
    8 -116133    3    4       600   0.00000   pspcod,pspxc,lmax,lloc,mmax,r2well
    5.99000000000000    5.00000000000000    0.00000000000000   rchrg,fchrg,qchrg
     nproj     2     2     2     2
     extension_switch     1
  pspatm : epsatm=   26.11825460
         --- l  ekb(1:nproj) -->
             0    7.994989   -1.246074
             1    8.240861    1.154929
             2    2.240487    0.219183
             3    0.647575    0.186609
 pspatm: atomic psp has been read  and splines computed

   4.23723834E+03                                ecore*ucvol(ha*bohr**3)

-inwffil : will read wavefunctions from disk file /scratch/users/j/a/jabreu/flow_simple_6atoms/flow/w185/t1/indata/in_WFK

 ==>  initialize data related to q vector <==

 The list of irreducible perturbations for this q vector is:
    1)    idir= 1    ipert=   7
    2)    idir= 2    ipert=   7
    3)    idir= 3    ipert=   7

 Perturbation wavevector (in red.coord.)   0.000000  0.000000  0.000000
 Perturbation : derivative vs k along direction   1

 dfpt_looppert : COMMENT -
  In a d/dk calculation, iscf is set to -3 automatically.
 The set of symmetries contains only one element for this perturbation.
 symkpt : not enough symmetry to change the number of k points.

[...]

 Initialisation of the first-order wave-functions :
  ireadwf=   0

--- !BeginCycle
iteration_state: {dtset: 1, }
solver: {iscf: 7, nstep: 1000, nline: 4, wfoptalg: 0, }
tolerances: {tolwfr: 1.00E-20, }
...

     iter   2DEtotal(Ha)        deltaE(Ha) residm    vres2
-ETOT  1  -70.349667655905     -7.035E+01 2.777E-01 0.000E+00
 ETOT  2  -70.393096159404     -4.343E-02 4.010E-03 0.000E+00
 ETOT  3  -70.393201599273     -1.054E-04 4.339E-05 0.000E+00
 ETOT  4  -70.393202178525     -5.793E-07 2.669E-06 0.000E+00
 ETOT  5  -70.393202183192     -4.667E-09 4.728E-08 0.000E+00
 ETOT  6  -70.393202183239     -4.638E-11 3.064E-09 0.000E+00
 ETOT  7  -70.393202183239     -4.263E-13 6.045E-11 0.000E+00
 ETOT  8  -70.393202183239     -7.105E-14 4.000E-12 0.000E+00
 ETOT  9  -70.393202183239      8.527E-14 8.442E-14 0.000E+00
 ETOT 10  -70.393202183239     -1.421E-14 5.622E-15 0.000E+00
 ETOT 11  -70.393202183239      0.000E+00 1.239E-16 0.000E+00
 ETOT 12  -70.393202183239      0.000E+00 8.275E-18 0.000E+00
 ETOT 13  -70.393202183239      0.000E+00 1.873E-19 0.000E+00
 ETOT 14  -70.393202183239     -1.421E-14 1.255E-20 0.000E+00
 ETOT 15  -70.393202183239     -2.842E-14 9.945E-21 0.000E+00

 At SCF step   15   max residual=  9.95E-21 < tolwfr=  1.00E-20 =>converged.

 ----iterations are completed or convergence reached----

 dfpt_looppert: DFPT cycle converged with prtwf=-1. Will skip output of the 1st-order WFK file.
 dfpt_looppert : ek2=    1.3572083232E+02
          f-sum rule ratio=    1.0168332228E+00
 prteigrs : about to open file /scratch/users/j/a/jabreu/flow_simple_6atoms/flow/w185/t1/tmpdata/tmp_1WF1_EIG
 Expectation of eigenvalue derivatives (hartree) for nkpt=   2  k points:
  (in case of degenerate eigenvalues, averaged derivative)
 kpt#   1, nband= 35, wtk=  0.50000, kpt=  0.0000  0.0000  0.0000 (reduced coord)
   0.00000   -0.00000    0.00000    0.00000    0.00000    0.00000   -0.00000   -0.00000
   0.00000   -0.00000   -0.00000   -0.00000    0.00000   -0.00000   -0.00000   -0.00000
  -0.00000   -0.00000   -0.00000    0.00000    0.00000   -0.00000    0.00000   -0.00000
   0.00000   -0.00000   -0.00000    0.00000    0.00000    0.00000   -0.00000    0.00000
   0.00000   -0.00001    0.00040
 prteigrs : prtvol=0 or 1, do not print more k-points.

 Eight components of 2nd-order total energy (hartree) are
 1,2,3: 0th-order hamiltonian combined with 1st-order wavefunctions
     kin0=   8.76412230E+01 eigvalue=  -1.48912620E+01  local=  -3.65858262E+01
 4,5,6: 1st-order hamiltonian combined with 1st and 0th-order wfs
     kin1=  -1.38005451E+02  Hartree=   0.00000000E+00     xc=   0.00000000E+00
 7,8,9: eventually, occupation + non-local contributions
    edocc=   2.72313171E+01     enl0=   6.99775019E+00   enl1=  -2.78095304E+00
 1-9 gives the relaxation energy (to be shifted if some occ is /=2.0)
   erelax=  -7.03932022E+01
  No Ewald or frozen-wf contrib.: the relaxation energy is the total one
 2DEtotal=   -0.7039320218E+02 Ha. Also 2DEtotal=   -0.191549644574E+04 eV
    (  non-var. 2DEtotal :   -7.0393202183E+01 Ha)

 Perturbation wavevector (in red.coord.)   0.000000  0.000000  0.000000
 Perturbation : derivative vs k along direction   2
 The set of symmetries contains only one element for this perturbation.
 symkpt : not enough symmetry to change the number of k points.

[...]

 Perturbation wavevector (in red.coord.)   0.000000  0.000000  0.000000
 Perturbation : derivative vs k along direction   3
 The set of symmetries contains only one element for this perturbation.
 symkpt : not enough symmetry to change the number of k points.

-inwffil : will read wavefunctions from disk file /scratch/users/j/a/jabreu/flow_simple_6atoms/flow/w185/t1/indata/in_WFK

 Initialisation of the first-order wave-functions :
  ireadwf=   0

--- !BeginCycle
iteration_state: {dtset: 1, }
solver: {iscf: 7, nstep: 1000, nline: 4, wfoptalg: 0, }
tolerances: {tolwfr: 1.00E-20, }
...

     iter   2DEtotal(Ha)        deltaE(Ha) residm    vres2
-ETOT  1  -15.677145429083     -1.568E+01 1.729E-01 0.000E+00
 ETOT  2  -15.685320454233     -8.175E-03 9.300E-04 0.000E+00
 ETOT  3  -15.685336726233     -1.627E-05 2.836E-05 0.000E+00
 ETOT  4  -15.685336819332     -9.310E-08 7.255E-07 0.000E+00
 ETOT  5  -15.685336820123     -7.911E-10 2.117E-08 0.000E+00
 ETOT  6  -15.685336820131     -8.031E-12 7.239E-10 0.000E+00
 ETOT  7  -15.685336820131     -7.816E-14 2.718E-11 0.000E+00
 ETOT  8  -15.685336820131      1.066E-14 1.040E-12 0.000E+00
 ETOT  9  -15.685336820131      1.776E-15 4.283E-14 0.000E+00
 ETOT 10  -15.685336820131     -1.776E-15 1.661E-15 0.000E+00
 ETOT 11  -15.685336820131     -7.105E-15 7.191E-17 0.000E+00
 ETOT 12  -15.685336820131      7.105E-15 2.827E-18 0.000E+00
 ETOT 13  -15.685336820131     -1.776E-15 1.243E-19 0.000E+00
 ETOT 14  -15.685336820131     -5.329E-15 9.669E-21 0.000E+00

 At SCF step   14   max residual=  9.67E-21 < tolwfr=  1.00E-20 =>converged.

 ----iterations are completed or convergence reached----

 dfpt_looppert: DFPT cycle converged with prtwf=-1. Will skip output of the 1st-order WFK file.
 dfpt_looppert : ek2=    3.3168293017E+01
          f-sum rule ratio=    9.1354527959E-01
 prteigrs : about to open file /scratch/users/j/a/jabreu/flow_simple_6atoms/flow/w185/t1/tmpdata/tmp_1WF1_EIG
 Expectation of eigenvalue derivatives (hartree) for nkpt=   2  k points:
  (in case of degenerate eigenvalues, averaged derivative)
 kpt#   1, nband= 35, wtk=  0.50000, kpt=  0.0000  0.0000  0.0000 (reduced coord)
  -0.00000   -0.00000   -0.00000   -0.00000   -0.00000    0.00000    0.00000    0.00000
   0.00000    0.00000   -0.00000    0.00000    0.00000   -0.00000    0.00000   -0.00000
   0.00000   -0.00000    0.00000    0.00000    0.00000   -0.00000   -0.00000   -0.00000
   0.00000   -0.00000    0.00000   -0.00000   -0.00000   -0.00000    0.00000   -0.00000
  -0.00000    0.00000    0.00021
 prteigrs : prtvol=0 or 1, do not print more k-points.

 Eight components of 2nd-order total energy (hartree) are
 1,2,3: 0th-order hamiltonian combined with 1st-order wavefunctions
     kin0=   1.67782146E+01 eigvalue=  -2.04099453E+00  local=  -7.73686151E+00
 4,5,6: 1st-order hamiltonian combined with 1st and 0th-order wfs
     kin1=  -3.03007375E+01  Hartree=   0.00000000E+00     xc=   0.00000000E+00
 7,8,9: eventually, occupation + non-local contributions
    edocc=   7.08537073E+00     enl0=   1.59960756E+00   enl1=  -1.06993612E+00
 1-9 gives the relaxation energy (to be shifted if some occ is /=2.0)
   erelax=  -1.56853368E+01
  No Ewald or frozen-wf contrib.: the relaxation energy is the total one
 2DEtotal=   -0.1568533682E+02 Ha. Also 2DEtotal=   -0.426819721186E+03 eV
    (  non-var. 2DEtotal :   -1.5685336820E+01 Ha)

 CALCULATION OF EFFECTIVE MASSES
 NOTE : Additional infos (eff. mass eigenvalues, eigenvectors and, if degenerate, average mass) are available in stdout.

 K-point ( 0.000, 0.000, 0.000) | band =    26
 Effective mass tensor:
             -0.6874186771             -0.0000000161              0.0000001115
             -0.0000000161             -2.3925900365             -0.0000000015
              0.0000001115             -0.0000000015             -0.4900900630
 Effective mass tensor eigenvalues:
             -2.3925900365             -0.6874186771             -0.4900900630
 Angular average effective mass 1/(<1/m>)=  -0.7666524733
 Angular average effective mass for Frohlich model (<m**0.5>)**2=  -0.8508729155
 Effective masses along directions: (cart. coord. / red. coord. -> eff. mass)
    1:   1.000000  0.000000  0.000000 /   1.000000  0.000000  0.000000 ->  -0.6874186771
    2:   0.000000  1.000000  0.000000 /   0.000000  1.000000  0.000000 ->  -2.3925900365
    3:   0.000000  0.000000  1.000000 /   0.000000  0.000000  1.000000 ->  -0.4900900630
    4:   0.577350  0.577350  0.577350 /   0.350186  0.612846  0.708371 ->  -0.7666523479
    5:   0.000000  0.707107  0.707107 /   0.000000  0.654275  0.756257 ->  -0.8135377929
    6:   0.707107  0.000000  0.707107 /   0.443160  0.000000  0.896442 ->  -0.5722199547
    7:   0.707107  0.707107  0.000000 /   0.496126  0.868250  0.000000 ->  -1.0679911960

 K-point ( 0.167, 0.000, 0.000) | band =    27
 Effective mass tensor:
              0.8485530189              0.0000000024             -0.0000000000
              0.0000000024              0.4833985971              0.0000001507
             -0.0000000000              0.0000001507              1.2326970361
 Effective mass tensor eigenvalues:
              0.4833985971              0.8485530189              1.2326970361
 Angular average effective mass 1/(<1/m>)=   0.7392089777
 Angular average effective mass for Frohlich model (<m**0.5>)**2=   0.7734616381
 Effective masses along directions: (cart. coord. / red. coord. -> eff. mass)
    1:   1.000000  0.000000  0.000000 /   1.000000  0.000000  0.000000 ->   0.8485530189
    2:   0.000000  1.000000  0.000000 /   0.000000  1.000000  0.000000 ->   0.4833985971
    3:   0.000000  0.000000  1.000000 /   0.000000  0.000000  1.000000 ->   1.2326970361
    4:   0.577350  0.577350  0.577350 /   0.350186  0.612846  0.708371 ->   0.7392090720
    5:   0.000000  0.707107  0.707107 /   0.000000  0.654275  0.756257 ->   0.6944649366
    6:   0.707107  0.000000  0.707107 /   0.443160  0.000000  0.896442 ->   1.0051735868
    7:   0.707107  0.707107  0.000000 /   0.496126  0.868250  0.000000 ->   0.6159222835

 END OF EFFECTIVE MASSES SECTION

 ---- first-order wavefunction calculations are completed ----

 Total localisation tensor (bohr^2) in cartesian coordinates
  WARNING : still subject to testing - especially symmetries.
      direction              matrix element
   alpha     beta       real part   imaginary part
     1        1       1.5403527284    0.0000000000
     1        2       0.0000000000    0.0000000000
     1        3       0.0000000000    0.0000000000
     2        1       0.0000000000    0.0000000000
     2        2       1.8006424067    0.0000000000
     2        3       0.0000000000    0.0000000000
     3        1       0.0000000000    0.0000000000
     3        2       0.0000000000    0.0000000000
     3        3       1.6794589546    0.0000000000

 respfn : d/dk was computed, but no 2DTE, so no DDB output.

== END DATASET(S) ==============================================================

 -outvars: echo values of variables after computation  --------
            acell      1.0000000000E+00  1.0000000000E+00  1.0000000000E+00 Bohr
              amu      3.09737620E+01  1.90200000E+02
             ecut      3.70000000E+01 Hartree
           etotal     -1.5685336820E+01
            fcart      0.0000000000E+00  0.0000000000E+00  0.0000000000E+00
                       0.0000000000E+00  0.0000000000E+00  0.0000000000E+00
                       0.0000000000E+00  0.0000000000E+00  0.0000000000E+00
                       0.0000000000E+00  0.0000000000E+00  0.0000000000E+00
                       0.0000000000E+00  0.0000000000E+00  0.0000000000E+00
                       0.0000000000E+00  0.0000000000E+00  0.0000000000E+00
-          fftalg         512
           irdden           1
           irdwfk           1
           istwfk        1    0
              ixc     -116133
              kpt      0.00000000E+00  0.00000000E+00  0.00000000E+00
                       1.66666667E-01  6.16297582E-33  0.00000000E+00
           kptopt           0
P           mkmem           2
P          mkqmem           2
P          mk1mem           2
            natom           6
            nband          35
           nbdbuf           4
            ngfft          32      54      64
             nkpt           2
            nstep        1000
             nsym           8
           ntypat           2
              occ      2.000000  2.000000  2.000000  2.000000  2.000000  2.000000
                       2.000000  2.000000  2.000000  2.000000  2.000000  2.000000
                       2.000000  2.000000  2.000000  2.000000  2.000000  2.000000
                       2.000000  2.000000  2.000000  2.000000  2.000000  2.000000
                       2.000000  2.000000  0.000000  0.000000  0.000000  0.000000
                       0.000000  0.000000  0.000000  0.000000  0.000000
        optdriver           1
            prtwf          -1
            rfdir           1       1       1
           rfelfd           2
            rprim      5.5001341328E+00  0.0000000000E+00  0.0000000000E+00
                       0.0000000000E+00  9.6255560426E+00  0.0000000000E+00
                       0.0000000000E+00  0.0000000000E+00  1.1125895520E+01
          spgroup          58
           strten      0.0000000000E+00  0.0000000000E+00  0.0000000000E+00
                       0.0000000000E+00  0.0000000000E+00  0.0000000000E+00
           symrel      1  0  0   0  1  0   0  0  1      -1  0  0   0 -1  0   0  0 -1
                      -1  0  0   0  1  0   0  0 -1       1  0  0   0 -1  0   0  0  1
                      -1  0  0   0 -1  0   0  0  1       1  0  0   0  1  0   0  0 -1
                       1  0  0   0 -1  0   0  0 -1      -1  0  0   0  1  0   0  0  1
            tnons      0.0000000  0.0000000  0.0000000     0.0000000  0.0000000  0.0000000
                       0.5000000  0.5000000  0.5000000     0.5000000  0.5000000  0.5000000
                       0.5000000  0.5000000  0.5000000     0.5000000  0.5000000  0.5000000
                       0.0000000  0.0000000  0.0000000     0.0000000  0.0000000  0.0000000
           tolwfr      1.00000000E-20
            typat      1  1  1  1  2  2
           useylm           1
              wtk        0.50000    0.50000
           xangst      1.4552728136E+00  1.7191238644E+00  5.1309645582E+00
                       1.4552728136E+00  3.3745010134E+00  7.5660577609E-01
                       0.0000000000E+00  8.2768857451E-01  2.1871793911E+00
                       0.0000000000E+00  4.2659363032E+00  3.7003909432E+00
                       1.4552728136E+00  2.5468124389E+00  2.9437851671E+00
                       0.0000000000E+00  0.0000000000E+00  0.0000000000E+00
            xcart      2.7500670664E+00  3.2486732922E+00  9.6961178125E+00
                       2.7500670664E+00  6.3768827504E+00  1.4297777074E+00
                       0.0000000000E+00  1.5641047291E+00  4.1331700526E+00
                       0.0000000000E+00  8.0614513135E+00  6.9927254673E+00
                       2.7500670664E+00  4.8127780213E+00  5.5629477600E+00
                       0.0000000000E+00  0.0000000000E+00  0.0000000000E+00
             xred      5.0000000000E-01  3.3750500000E-01  8.7149100000E-01
                       5.0000000000E-01  6.6249500000E-01  1.2850900000E-01
                       0.0000000000E+00  1.6249500000E-01  3.7149100000E-01
                       0.0000000000E+00  8.3750500000E-01  6.2850900000E-01
                       5.0000000000E-01  5.0000000000E-01  5.0000000000E-01
                       0.0000000000E+00  0.0000000000E+00  0.0000000000E+00
            znucl       15.00000   76.00000

- Timing analysis has been suppressed with timopt=0

 Suggested references for the acknowledgment of ABINIT usage.

 Calculation completed.
.Delivered  14 WARNINGs and   9 COMMENTs to log file.