.Version 9.5.1 of ABINIT

 ABINIT is a project of the Universite Catholique de Louvain,
 Corning Inc. and other collaborators, see ~abinit/doc/developers/contributors.txt .
 acknowledgments of the ABINIT effort.

.Starting date : Sat  1 May 2021.
- ( at 05h04 )

- input  file    -> /scratch/users/j/a/jabreu/flow_simple_6atoms/flow/w144/t1/run.abi
- output file    -> /scratch/users/j/a/jabreu/flow_simple_6atoms/flow/w144/t1/run.abo
- root for input  files -> /scratch/users/j/a/jabreu/flow_simple_6atoms/flow/w144/t1/indata/in
- root for output files -> /scratch/users/j/a/jabreu/flow_simple_6atoms/flow/w144/t1/outdata/out

 Symmetries : space group C2/m (# 12); Bravais mC (1-face-center monocl.)
     intxc =       0      iscf =       7    lmnmax =      18     lnmax =       6
     mgfft =      80  mpssoang =       3    mqgrid =    3367     natom =       6
  nloc_mem =       1    nspden =       1   nspinor =       1    nsppol =       1
      nsym =       4    n1xccc =    2501    ntypat =       3    occopt =       1
   xclevel =       2
-    mband =          37        mffmem =           1         mkmem =           2
-   mkqmem =           2        mk1mem =           2           mpw =       13002
      nfft =      460800          nkpt =           2
  Rough estimation (10% accuracy) of disk space for files :

------------- Echo of variables that govern the present computation ------------
-
- outvars: echo of selected default values
-   iomode0 =  0 , fftalg0 =512 , wfoptalg0 =  0
-
- outvars: echo of global parameters not present in the input file
-  max_nthreads =    0
-
 -outvars: echo values of preprocessed input variables --------
            acell      1.0000000000E+00  1.0000000000E+00  1.0000000000E+00 Bohr
              amu      3.90983000E+01  2.04383300E+02  1.59994000E+01
             ecut      4.40000000E+01 Hartree
-          fftalg         512
           irdden           1
           irdwfk           1
              ixc     -116133
              kpt      1.87299233E-01 -1.87299233E-01 -1.05046700E-18
                       5.98626490E-01  5.98626490E-01  3.25758348E-01
           kptopt           0
P           mkmem           2
P          mkqmem           2
P          mk1mem           2
            natom           6
            nband          37
           nbdbuf           4
            ngfft          80      80      72
             nkpt           2
            nstep        1000
             nsym           4
           ntypat           3
              occ      2.000000  2.000000  2.000000  2.000000  2.000000  2.000000
                       2.000000  2.000000  2.000000  2.000000  2.000000  2.000000
                       2.000000  2.000000  2.000000  2.000000  2.000000  2.000000
                       2.000000  2.000000  2.000000  2.000000  2.000000  2.000000
                       2.000000  2.000000  2.000000  2.000000  0.000000  0.000000
                       0.000000  0.000000  0.000000  0.000000  0.000000  0.000000
                       0.000000
        optdriver           1
            prtwf          -1
            rfdir           1       1       1
           rfelfd           2
            rprim      1.2093151104E+01  0.0000000000E+00  3.5712699350E+00
                       1.0170966196E+01  6.5418460893E+00  3.5712699350E+00
                       0.0000000000E+00  0.0000000000E+00  1.1795725404E+01
          spgroup          12
           symrel      1  0  0   0  1  0   0  0  1      -1  0  0   0 -1  0   0  0 -1
                       0 -1  0  -1  0  0   0  0 -1       0  1  0   1  0  0   0  0  1
           tolwfr      1.00000000E-20
            typat      1  1  2  2  3  3
           useylm           1
              wtk        0.50000    0.50000
           xangst      1.0248880812E+01  3.0114196739E+00  5.4435978748E+00
                       1.5327826325E+00  4.5037617862E-01  4.5781004786E+00
                       4.2798424079E+00  1.2575423468E+00  6.6622285323E+00
                       7.5018210368E+00  2.2042535058E+00  3.3594698211E+00
                       2.9398431344E+00  8.6381153370E-01  2.3175431929E+00
                       8.8418203104E+00  2.5979843189E+00  7.7041551605E+00
            xcart      1.9367577904E+01  5.6907584549E+00  1.0286909161E+01
                       2.8965393967E+00  8.5108763437E-01  8.6513561134E+00
                       8.0877300429E+00  2.3764106359E+00  1.2589787361E+01
                       1.4176387258E+01  4.1654354534E+00  6.3484779135E+00
                       5.5554983976E+00  1.6323672291E+00  4.3795219357E+00
                       1.6708618903E+01  4.9094788602E+00  1.4558743339E+01
             xred      8.6990100000E-01  8.6990100000E-01  3.4534600000E-01
                       1.3009900000E-01  1.3009900000E-01  6.5465400000E-01
                       3.6326300000E-01  3.6326300000E-01  8.4735500000E-01
                       6.3673700000E-01  6.3673700000E-01  1.5264500000E-01
                       2.4952700000E-01  2.4952700000E-01  2.2018700000E-01
                       7.5047300000E-01  7.5047300000E-01  7.7981300000E-01
            znucl       19.00000   81.00000    8.00000

 chkinp: Checking input parameters for consistency.

== DATASET  1 ==================================================================
-   mpi_nproc: 1, omp_nthreads: -1 (-1 if OMP is not activated)

--- !DatasetInfo
iteration_state: {dtset: 1, }
dimensions: {natom: 6, nkpt: 2, mband: 37, nsppol: 1, nspinor: 1, nspden: 1, mpw: 13002, }
cutoff_energies: {ecut:  44.0, pawecutdg:  -1.0, }
electrons: {nelect:   5.60000000E+01, charge:   0.00000000E+00, occopt:   1.00000000E+00, tsmear:   1.00000000E-02, }
meta: {optdriver: 1, rfelfd: 2, }
...

 Real(R)+Recip(G) space primitive vectors, cartesian coordinates (Bohr,Bohr^-1):
 R(1)= 12.0931511  0.0000000  3.5712699  G(1)=  0.0826914 -0.1285649  0.0000000
 R(2)= 10.1709662  6.5418461  3.5712699  G(2)=  0.0000000  0.1528620  0.0000000
 R(3)=  0.0000000  0.0000000 11.7957254  G(3)= -0.0250356 -0.0073562  0.0847765
 Unit cell volume ucvol=  9.3317792E+02 bohr^3
 Angles (23,13,12)=  7.35474216E+01  7.35474216E+01  3.13723940E+01 degrees

 getcut: wavevector=  0.0000  0.0000  0.0000  ngfft=  80  80  72
         ecut(hartree)=     44.000   => boxcut(ratio)=   2.04418

--- Pseudopotential description ------------------------------------------------
- pspini: atom type   1  psp file is /scratch/users/j/a/jabreu/pseudos/PBEsol/K.psp8
- pspatm: opening atomic psp file    /scratch/users/j/a/jabreu/pseudos/PBEsol/K.psp8
- K     ONCVPSP-3.3.0  r_core=   1.36296   1.46408   1.61068
- 19.00000   9.00000    180112                znucl, zion, pspdat
    8 -116133    2    4       400   0.00000   pspcod,pspxc,lmax,lloc,mmax,r2well
    3.99000000000000    5.00000000000000    0.00000000000000   rchrg,fchrg,qchrg
     nproj     2     2     2
     extension_switch     1
  pspatm : epsatm=    8.32487830
         --- l  ekb(1:nproj) -->
             0   10.921326    0.816676
             1    4.431000    0.560368
             2   -3.384038   -1.043186
 pspatm: atomic psp has been read  and splines computed

- pspini: atom type   2  psp file is /scratch/users/j/a/jabreu/pseudos/PBEsol/Tl.psp8
- pspatm: opening atomic psp file    /scratch/users/j/a/jabreu/pseudos/PBEsol/Tl.psp8
- Tl    ONCVPSP-3.3.0  r_core=   2.10510   2.60929   2.00701
- 81.00000  13.00000    180112                znucl, zion, pspdat
    8 -116133    2    4       600   0.00000   pspcod,pspxc,lmax,lloc,mmax,r2well
    5.99000000000000    7.00000000000000    0.00000000000000   rchrg,fchrg,qchrg
     nproj     2     2     2
     extension_switch     1
  pspatm : epsatm=   37.24354552
         --- l  ekb(1:nproj) -->
             0    6.297242    0.908324
             1    4.393460    0.899003
             2   -2.697741   -0.589563
 pspatm: atomic psp has been read  and splines computed

- pspini: atom type   3  psp file is /scratch/users/j/a/jabreu/pseudos/PBEsol/O.psp8
- pspatm: opening atomic psp file    /scratch/users/j/a/jabreu/pseudos/PBEsol/O.psp8
- O     ONCVPSP-3.3.0  r_core=   1.35509   1.45563   1.26150
-  8.00000   6.00000    180112                znucl, zion, pspdat
    8 -116133    2    4       600   0.00000   pspcod,pspxc,lmax,lloc,mmax,r2well
    5.99000000000000    4.00000000000000    0.00000000000000   rchrg,fchrg,qchrg
     nproj     2     2     1
     extension_switch     1
  pspatm : epsatm=    6.22910522
         --- l  ekb(1:nproj) -->
             0    6.050032    0.820363
             1   -4.739617   -1.153841
             2   -1.335834
 pspatm: atomic psp has been read  and splines computed

   5.80132325E+03                                ecore*ucvol(ha*bohr**3)

-inwffil : will read wavefunctions from disk file /scratch/users/j/a/jabreu/flow_simple_6atoms/flow/w144/t1/indata/in_WFK

 ==>  initialize data related to q vector <==

 The list of irreducible perturbations for this q vector is:
    1)    idir= 1    ipert=   7
    2)    idir= 2    ipert=   7
    3)    idir= 3    ipert=   7

 Perturbation wavevector (in red.coord.)   0.000000  0.000000  0.000000
 Perturbation : derivative vs k along direction   1

 dfpt_looppert : COMMENT -
  In a d/dk calculation, iscf is set to -3 automatically.
 The set of symmetries contains only one element for this perturbation.
 symkpt : not enough symmetry to change the number of k points.

[...]

 Initialisation of the first-order wave-functions :
  ireadwf=   0

--- !BeginCycle
iteration_state: {dtset: 1, }
solver: {iscf: 7, nstep: 1000, nline: 4, wfoptalg: 0, }
tolerances: {tolwfr: 1.00E-20, }
...

     iter   2DEtotal(Ha)        deltaE(Ha) residm    vres2
-ETOT  1  -81.472751612772     -8.147E+01 1.595E-01 0.000E+00
 ETOT  2  -81.626189297148     -1.534E-01 2.055E-02 0.000E+00
 ETOT  3  -81.628660671559     -2.471E-03 3.179E-03 0.000E+00
 ETOT  4  -81.628730962749     -7.029E-05 4.571E-04 0.000E+00
 ETOT  5  -81.628733544297     -2.582E-06 1.201E-04 0.000E+00
 ETOT  6  -81.628733652740     -1.084E-07 2.156E-05 0.000E+00
 ETOT  7  -81.628733657707     -4.968E-09 6.273E-06 0.000E+00
 ETOT  8  -81.628733657948     -2.404E-10 1.396E-06 0.000E+00
 ETOT  9  -81.628733657960     -1.214E-11 3.841E-07 0.000E+00
 ETOT 10  -81.628733657961     -7.105E-13 1.021E-07 0.000E+00
 ETOT 11  -81.628733657961      7.105E-14 2.699E-08 0.000E+00
 ETOT 12  -81.628733657961     -1.421E-14 7.797E-09 0.000E+00
 ETOT 13  -81.628733657961      2.842E-14 1.991E-09 0.000E+00
 ETOT 14  -81.628733657961      0.000E+00 6.026E-10 0.000E+00
 ETOT 15  -81.628733657961      1.421E-14 1.506E-10 0.000E+00
 ETOT 16  -81.628733657961     -1.421E-14 4.664E-11 0.000E+00
 ETOT 17  -81.628733657961      2.842E-14 1.152E-11 0.000E+00
 ETOT 18  -81.628733657961      0.000E+00 3.610E-12 0.000E+00
 ETOT 19  -81.628733657961      1.421E-14 8.875E-13 0.000E+00
 ETOT 20  -81.628733657961     -1.421E-14 2.795E-13 0.000E+00
 ETOT 21  -81.628733657961      0.000E+00 6.863E-14 0.000E+00
 ETOT 22  -81.628733657961     -2.842E-14 2.166E-14 0.000E+00
 ETOT 23  -81.628733657961      2.842E-14 5.321E-15 0.000E+00
 ETOT 24  -81.628733657961      0.000E+00 1.680E-15 0.000E+00
 ETOT 25  -81.628733657961      0.000E+00 4.134E-16 0.000E+00
 ETOT 26  -81.628733657961      0.000E+00 1.304E-16 0.000E+00
 ETOT 27  -81.628733657961      1.421E-14 3.217E-17 0.000E+00
 ETOT 28  -81.628733657961     -1.421E-14 1.013E-17 0.000E+00
 ETOT 29  -81.628733657961      0.000E+00 2.507E-18 0.000E+00
 ETOT 30  -81.628733657961      0.000E+00 7.882E-19 0.000E+00
 ETOT 31  -81.628733657961      0.000E+00 1.955E-19 0.000E+00
 ETOT 32  -81.628733657961      0.000E+00 6.138E-20 0.000E+00
 ETOT 33  -81.628733657961      0.000E+00 1.526E-20 0.000E+00
 ETOT 34  -81.628733657961      0.000E+00 9.813E-21 0.000E+00

 At SCF step   34   max residual=  9.81E-21 < tolwfr=  1.00E-20 =>converged.

 ----iterations are completed or convergence reached----

 dfpt_looppert: DFPT cycle converged with prtwf=-1. Will skip output of the 1st-order WFK file.
 dfpt_looppert : ek2=    1.0331826747E+02
          f-sum rule ratio=    1.0350974471E+00
 prteigrs : about to open file /scratch/users/j/a/jabreu/flow_simple_6atoms/flow/w144/t1/tmpdata/tmp_1WF1_EIG
 Expectation of eigenvalue derivatives (hartree) for nkpt=   2  k points:
  (in case of degenerate eigenvalues, averaged derivative)
 kpt#   1, nband= 37, wtk=  0.50000, kpt=  0.1873 -0.1873  0.0000 (reduced coord)
   0.00566    0.00111    0.01741   -0.00494   -0.01524   -0.03346    0.00530    0.01322
  -0.01215   -0.01560    0.00233   -0.00369   -0.00349   -0.00425    0.01044    0.00668
   0.02415    0.03550    0.00192   -0.00560    0.04476    0.03286   -0.01752   -0.03756
  -0.02218   -0.06733    0.11244   -0.00394   -0.22831   -0.29428    0.01511    0.14830
   0.12878    0.03377   -0.05998   -0.12902    0.01228
 prteigrs : prtvol=0 or 1, do not print more k-points.

 Eight components of 2nd-order total energy (hartree) are
 1,2,3: 0th-order hamiltonian combined with 1st-order wavefunctions
     kin0=   9.96355364E+01 eigvalue=   7.15910253E+00  local=  -5.19106217E+01
 4,5,6: 1st-order hamiltonian combined with 1st and 0th-order wfs
     kin1=  -1.06944475E+02  Hartree=   0.00000000E+00     xc=   0.00000000E+00
 7,8,9: eventually, occupation + non-local contributions
    edocc=   1.57201558E+01     enl0=   1.10245606E+01   enl1=  -5.63129924E+01
 1-9 gives the relaxation energy (to be shifted if some occ is /=2.0)
   erelax=  -8.16287337E+01
  No Ewald or frozen-wf contrib.: the relaxation energy is the total one
 2DEtotal=   -0.8162873366E+02 Ha. Also 2DEtotal=   -0.222123080557E+04 eV
    (  non-var. 2DEtotal :   -8.1628733658E+01 Ha)

 Perturbation wavevector (in red.coord.)   0.000000  0.000000  0.000000
 Perturbation : derivative vs k along direction   2
 The set of symmetries contains only one element for this perturbation.
 symkpt : not enough symmetry to change the number of k points.

[...]

 Perturbation wavevector (in red.coord.)   0.000000  0.000000  0.000000
 Perturbation : derivative vs k along direction   3
 The set of symmetries contains only one element for this perturbation.
 symkpt : not enough symmetry to change the number of k points.

-inwffil : will read wavefunctions from disk file /scratch/users/j/a/jabreu/flow_simple_6atoms/flow/w144/t1/indata/in_WFK

 Initialisation of the first-order wave-functions :
  ireadwf=   0

--- !BeginCycle
iteration_state: {dtset: 1, }
solver: {iscf: 7, nstep: 1000, nline: 4, wfoptalg: 0, }
tolerances: {tolwfr: 1.00E-20, }
...

     iter   2DEtotal(Ha)        deltaE(Ha) residm    vres2
-ETOT  1  -27.002690681259     -2.700E+01 5.895E-02 0.000E+00
 ETOT  2  -27.060538800497     -5.785E-02 1.111E-02 0.000E+00
 ETOT  3  -27.061542982932     -1.004E-03 7.250E-04 0.000E+00
 ETOT  4  -27.061573090837     -3.011E-05 3.079E-04 0.000E+00
 ETOT  5  -27.061574240750     -1.150E-06 2.918E-05 0.000E+00
 ETOT  6  -27.061574290019     -4.927E-08 1.444E-05 0.000E+00
 ETOT  7  -27.061574292283     -2.265E-09 1.410E-06 0.000E+00
 ETOT  8  -27.061574292392     -1.088E-10 7.444E-07 0.000E+00
 ETOT  9  -27.061574292398     -5.411E-12 7.609E-08 0.000E+00
 ETOT 10  -27.061574292398     -3.020E-13 4.150E-08 0.000E+00
 ETOT 11  -27.061574292398      1.776E-14 4.460E-09 0.000E+00
 ETOT 12  -27.061574292398     -2.842E-14 2.475E-09 0.000E+00
 ETOT 13  -27.061574292398     -1.066E-14 2.799E-10 0.000E+00
 ETOT 14  -27.061574292398      1.066E-14 1.562E-10 0.000E+00
 ETOT 15  -27.061574292398     -3.553E-15 1.843E-11 0.000E+00
 ETOT 16  -27.061574292398      0.000E+00 1.027E-11 0.000E+00
 ETOT 17  -27.061574292398     -7.105E-15 1.252E-12 0.000E+00
 ETOT 18  -27.061574292398      0.000E+00 6.941E-13 0.000E+00
 ETOT 19  -27.061574292398      1.066E-14 8.667E-14 0.000E+00
 ETOT 20  -27.061574292398     -7.105E-15 4.771E-14 0.000E+00
 ETOT 21  -27.061574292398      0.000E+00 6.067E-15 0.000E+00
 ETOT 22  -27.061574292398      0.000E+00 3.314E-15 0.000E+00
 ETOT 23  -27.061574292398      0.000E+00 4.274E-16 0.000E+00
 ETOT 24  -27.061574292398     -3.553E-15 2.318E-16 0.000E+00
 ETOT 25  -27.061574292398     -3.553E-15 3.023E-17 0.000E+00
 ETOT 26  -27.061574292398      0.000E+00 1.627E-17 0.000E+00
 ETOT 27  -27.061574292398      0.000E+00 2.143E-18 0.000E+00
 ETOT 28  -27.061574292398      0.000E+00 1.146E-18 0.000E+00
 ETOT 29  -27.061574292398      7.105E-15 1.522E-19 0.000E+00
 ETOT 30  -27.061574292398     -3.553E-15 8.083E-20 0.000E+00
 ETOT 31  -27.061574292398      7.105E-15 1.082E-20 0.000E+00
 ETOT 32  -27.061574292398     -7.105E-15 9.687E-21 0.000E+00

 At SCF step   32   max residual=  9.69E-21 < tolwfr=  1.00E-20 =>converged.

 ----iterations are completed or convergence reached----

 dfpt_looppert: DFPT cycle converged with prtwf=-1. Will skip output of the 1st-order WFK file.
 dfpt_looppert : ek2=    3.4788778450E+01
          f-sum rule ratio=    1.0084239065E+00
 prteigrs : about to open file /scratch/users/j/a/jabreu/flow_simple_6atoms/flow/w144/t1/tmpdata/tmp_1WF1_EIG
 Expectation of eigenvalue derivatives (hartree) for nkpt=   2  k points:
  (in case of degenerate eigenvalues, averaged derivative)
 kpt#   1, nband= 37, wtk=  0.50000, kpt=  0.1873 -0.1873  0.0000 (reduced coord)
  -0.00000    0.00000   -0.00000    0.00000   -0.00000    0.00000   -0.00000   -0.00000
  -0.00000    0.00000   -0.00000    0.00000    0.00000   -0.00000    0.00000    0.00000
   0.00000   -0.00000    0.00000   -0.00000   -0.00000    0.00000    0.00000   -0.00000
   0.00000    0.00000   -0.00000    0.00000    0.00000   -0.00000    0.00000   -0.00000
   0.00000   -0.00000    0.00000   -0.00000   -0.00004
 prteigrs : prtvol=0 or 1, do not print more k-points.

 Eight components of 2nd-order total energy (hartree) are
 1,2,3: 0th-order hamiltonian combined with 1st-order wavefunctions
     kin0=   3.46881482E+01 eigvalue=   2.50630803E+00  local=  -1.82561046E+01
 4,5,6: 1st-order hamiltonian combined with 1st and 0th-order wfs
     kin1=  -3.50818359E+01  Hartree=   0.00000000E+00     xc=   0.00000000E+00
 7,8,9: eventually, occupation + non-local contributions
    edocc=   4.34689264E+00     enl0=   3.77632998E+00   enl1=  -1.90413127E+01
 1-9 gives the relaxation energy (to be shifted if some occ is /=2.0)
   erelax=  -2.70615743E+01
  No Ewald or frozen-wf contrib.: the relaxation energy is the total one
 2DEtotal=   -0.2706157429E+02 Ha. Also 2DEtotal=   -0.736382885926E+03 eV
    (  non-var. 2DEtotal :   -2.7061574292E+01 Ha)

 CALCULATION OF EFFECTIVE MASSES
 NOTE : Additional infos (eff. mass eigenvalues, eigenvectors and, if degenerate, average mass) are available in stdout.

 K-point ( 0.187,-0.187,-0.000) | band =    28
 Effective mass tensor:
             -1.6377250447              0.0382801128             -0.9366630638
              0.0382801128             -1.7566797251             -0.2751922314
             -0.9366630638             -0.2751922314             -2.2692518163
 Effective mass tensor eigenvalues:
             -2.9756553057             -1.7679337108             -0.9200675696
 Angular average effective mass 1/(<1/m>)=  -1.5086223858
 Angular average effective mass for Frohlich model (<m**0.5>)**2=  -1.6157562200
 Effective masses along directions: (cart. coord. / red. coord. -> eff. mass)
    1:   1.000000  0.000000  0.000000 /   0.765308  0.643664  0.000000 ->  -1.2377215113
    2:   0.000000  1.000000  0.000000 /   0.000000  1.000000  0.000000 ->  -1.7048720358
    3:   0.000000  0.000000  1.000000 /   0.278321  0.278321  0.919280 ->  -1.6832786113
    4:   0.577350  0.577350  0.577350 /   0.555226  0.718970  0.418100 ->  -2.4083069252
    5:   0.000000  0.707107  0.707107 /   0.224007  0.634343  0.739885 ->  -2.0416661751
    6:   0.707107  0.000000  0.707107 /   0.654184  0.573909  0.492618 ->  -2.7863937608
    7:   0.707107  0.707107  0.000000 /   0.586216  0.810155  0.000000 ->  -1.3013277184

 K-point ( 0.599, 0.599, 0.326) | band =    29
 Effective mass tensor:
              0.3454108027             -0.0385238919             -0.0420376167
             -0.0385238919              0.4651988552             -0.0123499200
             -0.0420376167             -0.0123499200              0.3914055498
 Effective mass tensor eigenvalues:
              0.3103946023              0.4151021216              0.4765184838
 Angular average effective mass 1/(<1/m>)=   0.3881331781
 Angular average effective mass for Frohlich model (<m**0.5>)**2=   0.3919863855
 Effective masses along directions: (cart. coord. / red. coord. -> eff. mass)
    1:   1.000000  0.000000  0.000000 /   0.765308  0.643664  0.000000 ->   0.3374793371
    2:   0.000000  1.000000  0.000000 /   0.000000  1.000000  0.000000 ->   0.4601507328
    3:   0.000000  0.000000  1.000000 /   0.278321  0.278321  0.919280 ->   0.3856595681
    4:   0.577350  0.577350  0.577350 /   0.555226  0.718970  0.418100 ->   0.3303371721
    5:   0.000000  0.707107  0.707107 /   0.224007  0.634343  0.739885 ->   0.4033988880
    6:   0.707107  0.000000  0.707107 /   0.654184  0.573909  0.492618 ->   0.3221322672
    7:   0.707107  0.707107  0.000000 /   0.586216  0.810155  0.000000 ->   0.3543313562

 END OF EFFECTIVE MASSES SECTION

 ---- first-order wavefunction calculations are completed ----

 Total localisation tensor (bohr^2) in cartesian coordinates
  WARNING : still subject to testing - especially symmetries.
      direction              matrix element
   alpha     beta       real part   imaginary part
     1        1       6.4099032449    0.0000000000
     1        2       1.7080778415    0.0000000000
     1        3       2.0411433099    0.0000000000
     2        1       1.7080778415    0.0000000000
     2        2       1.0986156213    0.0000000000
     2        3       0.5997470569    0.0000000000
     3        1       2.0411433099    0.0000000000
     3        2       0.5997470569    0.0000000000
     3        3       1.7938890376    0.0000000000

 respfn : d/dk was computed, but no 2DTE, so no DDB output.

== END DATASET(S) ==============================================================

 -outvars: echo values of variables after computation  --------
            acell      1.0000000000E+00  1.0000000000E+00  1.0000000000E+00 Bohr
              amu      3.90983000E+01  2.04383300E+02  1.59994000E+01
             ecut      4.40000000E+01 Hartree
           etotal     -2.7061574292E+01
            fcart      0.0000000000E+00  0.0000000000E+00  0.0000000000E+00
                       0.0000000000E+00  0.0000000000E+00  0.0000000000E+00
                       0.0000000000E+00  0.0000000000E+00  0.0000000000E+00
                       0.0000000000E+00  0.0000000000E+00  0.0000000000E+00
                       0.0000000000E+00  0.0000000000E+00  0.0000000000E+00
                       0.0000000000E+00  0.0000000000E+00  0.0000000000E+00
-          fftalg         512
           irdden           1
           irdwfk           1
              ixc     -116133
              kpt      1.87299233E-01 -1.87299233E-01 -1.05046700E-18
                       5.98626490E-01  5.98626490E-01  3.25758348E-01
           kptopt           0
P           mkmem           2
P          mkqmem           2
P          mk1mem           2
            natom           6
            nband          37
           nbdbuf           4
            ngfft          80      80      72
             nkpt           2
            nstep        1000
             nsym           4
           ntypat           3
              occ      2.000000  2.000000  2.000000  2.000000  2.000000  2.000000
                       2.000000  2.000000  2.000000  2.000000  2.000000  2.000000
                       2.000000  2.000000  2.000000  2.000000  2.000000  2.000000
                       2.000000  2.000000  2.000000  2.000000  2.000000  2.000000
                       2.000000  2.000000  2.000000  2.000000  0.000000  0.000000
                       0.000000  0.000000  0.000000  0.000000  0.000000  0.000000
                       0.000000
        optdriver           1
            prtwf          -1
            rfdir           1       1       1
           rfelfd           2
            rprim      1.2093151104E+01  0.0000000000E+00  3.5712699350E+00
                       1.0170966196E+01  6.5418460893E+00  3.5712699350E+00
                       0.0000000000E+00  0.0000000000E+00  1.1795725404E+01
          spgroup          12
           strten      0.0000000000E+00  0.0000000000E+00  0.0000000000E+00
                       0.0000000000E+00  0.0000000000E+00  0.0000000000E+00
           symrel      1  0  0   0  1  0   0  0  1      -1  0  0   0 -1  0   0  0 -1
                       0 -1  0  -1  0  0   0  0 -1       0  1  0   1  0  0   0  0  1
           tolwfr      1.00000000E-20
            typat      1  1  2  2  3  3
           useylm           1
              wtk        0.50000    0.50000
           xangst      1.0248880812E+01  3.0114196739E+00  5.4435978748E+00
                       1.5327826325E+00  4.5037617862E-01  4.5781004786E+00
                       4.2798424079E+00  1.2575423468E+00  6.6622285323E+00
                       7.5018210368E+00  2.2042535058E+00  3.3594698211E+00
                       2.9398431344E+00  8.6381153370E-01  2.3175431929E+00
                       8.8418203104E+00  2.5979843189E+00  7.7041551605E+00
            xcart      1.9367577904E+01  5.6907584549E+00  1.0286909161E+01
                       2.8965393967E+00  8.5108763437E-01  8.6513561134E+00
                       8.0877300429E+00  2.3764106359E+00  1.2589787361E+01
                       1.4176387258E+01  4.1654354534E+00  6.3484779135E+00
                       5.5554983976E+00  1.6323672291E+00  4.3795219357E+00
                       1.6708618903E+01  4.9094788602E+00  1.4558743339E+01
             xred      8.6990100000E-01  8.6990100000E-01  3.4534600000E-01
                       1.3009900000E-01  1.3009900000E-01  6.5465400000E-01
                       3.6326300000E-01  3.6326300000E-01  8.4735500000E-01
                       6.3673700000E-01  6.3673700000E-01  1.5264500000E-01
                       2.4952700000E-01  2.4952700000E-01  2.2018700000E-01
                       7.5047300000E-01  7.5047300000E-01  7.7981300000E-01
            znucl       19.00000   81.00000    8.00000

- Timing analysis has been suppressed with timopt=0

 Suggested references for the acknowledgment of ABINIT usage.

 Calculation completed.
.Delivered  14 WARNINGs and   9 COMMENTs to log file.