.Version 9.5.1 of ABINIT

 ABINIT is a project of the Universite Catholique de Louvain,
 Corning Inc. and other collaborators, see ~abinit/doc/developers/contributors.txt .
 acknowledgments of the ABINIT effort.

.Starting date : Wed 19 May 2021.
- ( at 12h05 )

- input  file    -> /scratch/users/j/a/jabreu/flow_simple_9atoms/flow/w133/t1/run.abi
- output file    -> /scratch/users/j/a/jabreu/flow_simple_9atoms/flow/w133/t1/run.abo
- root for input  files -> /scratch/users/j/a/jabreu/flow_simple_9atoms/flow/w133/t1/indata/in
- root for output files -> /scratch/users/j/a/jabreu/flow_simple_9atoms/flow/w133/t1/outdata/out

 Symmetries : space group Fm -3 m (#225); Bravais cF (face-center cubic)
     intxc =       0      iscf =       7    lmnmax =      18     lnmax =       6
     mgfft =      72  mpssoang =       3    mqgrid =    3001     natom =       9
  nloc_mem =       1    nspden =       1   nspinor =       1    nsppol =       1
      nsym =      48    n1xccc =    2501    ntypat =       3    occopt =       1
   xclevel =       2
-    mband =          46        mffmem =           1         mkmem =           1
-   mkqmem =           1        mk1mem =           1           mpw =       12675
      nfft =      373248          nkpt =           1
  Rough estimation (10% accuracy) of disk space for files :

------------- Echo of variables that govern the present computation ------------
-
- outvars: echo of selected default values
-   iomode0 =  0 , fftalg0 =512 , wfoptalg0 =  0
-
- outvars: echo of global parameters not present in the input file
-  max_nthreads =    0
-
 -outvars: echo values of preprocessed input variables --------
            acell      1.0000000000E+00  1.0000000000E+00  1.0000000000E+00 Bohr
              amu      8.54678000E+01  2.07200000E+02  3.54527000E+01
             ecut      2.80000000E+01 Hartree
-          fftalg         512
           irdden           1
           irdwfk           1
           istwfk        1
              ixc     -116133
           kptopt           0
P           mkmem           1
P          mkqmem           1
P          mk1mem           1
            natom           9
            nband          46
           nbdbuf           4
            ngfft          72      72      72
             nkpt           1
            nstep        2000
             nsym          48
           ntypat           3
              occ      2.000000  2.000000  2.000000  2.000000  2.000000  2.000000
                       2.000000  2.000000  2.000000  2.000000  2.000000  2.000000
                       2.000000  2.000000  2.000000  2.000000  2.000000  2.000000
                       2.000000  2.000000  2.000000  2.000000  2.000000  2.000000
                       2.000000  2.000000  2.000000  2.000000  2.000000  2.000000
                       2.000000  2.000000  2.000000  2.000000  2.000000  2.000000
                       2.000000  0.000000  0.000000  0.000000  0.000000  0.000000
                       0.000000  0.000000  0.000000  0.000000
        optdriver           1
            prtwf          -1
            rfdir           1       1       1
           rfelfd           2
            rprim      1.1816509538E+01  0.0000000000E+00  6.8222649627E+00
                       3.9388365127E+00  1.1140712032E+01  6.8222649627E+00
                       0.0000000000E+00  0.0000000000E+00  1.3644529925E+01
          spgroup         225
           symrel      1  0  0   0  1  0   0  0  1      -1  0  0   0 -1  0   0  0 -1
                       0 -1  1   0 -1  0   1 -1  0       0  1 -1   0  1  0  -1  1  0
                      -1  0  0  -1  0  1  -1  1  0       1  0  0   1  0 -1   1 -1  0
                       0  1 -1   1  0 -1   0  0 -1       0 -1  1  -1  0  1   0  0  1
                      -1  0  0  -1  1  0  -1  0  1       1  0  0   1 -1  0   1  0 -1
                       0 -1  1   1 -1  0   0 -1  0       0  1 -1  -1  1  0   0  1  0
                       1  0  0   0  0  1   0  1  0      -1  0  0   0  0 -1   0 -1  0
                       0  1 -1   0  0 -1   1  0 -1       0 -1  1   0  0  1  -1  0  1
                      -1  0  1  -1  1  0  -1  0  0       1  0 -1   1 -1  0   1  0  0
                       0 -1  0   1 -1  0   0 -1  1       0  1  0  -1  1  0   0  1 -1
                       1  0 -1   0  0 -1   0  1 -1      -1  0  1   0  0  1   0 -1  1
                       0  1  0   0  0  1   1  0  0       0 -1  0   0  0 -1  -1  0  0
                       1  0 -1   0  1 -1   0  0 -1      -1  0  1   0 -1  1   0  0  1
                       0 -1  0   0 -1  1   1 -1  0       0  1  0   0  1 -1  -1  1  0
                      -1  0  1  -1  0  0  -1  1  0       1  0 -1   1  0  0   1 -1  0
                       0  1  0   1  0  0   0  0  1       0 -1  0  -1  0  0   0  0 -1
                       0  0 -1   0  1 -1   1  0 -1       0  0  1   0 -1  1  -1  0  1
                       1 -1  0   0 -1  1   0 -1  0      -1  1  0   0  1 -1   0  1  0
                       0  0  1   1  0  0   0  1  0       0  0 -1  -1  0  0   0 -1  0
                      -1  1  0  -1  0  0  -1  0  1       1 -1  0   1  0  0   1  0 -1
                       0  0  1   0  1  0   1  0  0       0  0 -1   0 -1  0  -1  0  0
                       1 -1  0   0 -1  0   0 -1  1      -1  1  0   0  1  0   0  1 -1
                       0  0 -1   1  0 -1   0  1 -1       0  0  1  -1  0  1   0 -1  1
                      -1  1  0  -1  0  1  -1  0  0       1 -1  0   1  0 -1   1  0  0
           tolwfr      1.00000000E-20
            typat      1  1  2  3  3  3  3  3  3
           useylm           1
           xangst      6.2530275326E+00  4.4215581713E+00  1.0830561388E+01
                       2.0843425109E+00  1.4738527238E+00  3.6101871292E+00
                       0.0000000000E+00  0.0000000000E+00  0.0000000000E+00
                       6.2643913680E+00  4.4295936163E+00  7.2203742584E+00
                       3.1208318486E+00  4.4295936163E+00  5.4054393237E+00
                       5.2165381949E+00  1.4658172787E+00  9.0353091932E+00
                       2.0729786755E+00  1.4658172787E+00  7.2203742584E+00
                       5.2165381949E+00  1.4658172787E+00  5.4054393237E+00
                       3.1208318486E+00  4.4295936163E+00  9.0353091932E+00
            xcart      1.1816509538E+01  8.3555340243E+00  2.0466794888E+01
                       3.9388365127E+00  2.7851780081E+00  6.8222649627E+00
                       0.0000000000E+00  0.0000000000E+00  0.0000000000E+00
                       1.1837984075E+01  8.3707188148E+00  1.3644529925E+01
                       5.8975175007E+00  8.3707188148E+00  1.0214799950E+01
                       9.8578285501E+00  2.7699932176E+00  1.7074259901E+01
                       3.9173619760E+00  2.7699932176E+00  1.3644529925E+01
                       9.8578285501E+00  2.7699932176E+00  1.0214799950E+01
                       5.8975175007E+00  8.3707188148E+00  1.7074259901E+01
             xred      7.5000000000E-01  7.5000000000E-01  7.5000000000E-01
                       2.5000000000E-01  2.5000000000E-01  2.5000000000E-01
                       0.0000000000E+00  0.0000000000E+00  0.0000000000E+00
                       7.5136300000E-01  7.5136300000E-01  2.4863700000E-01
                       2.4863700000E-01  7.5136300000E-01  2.4863700000E-01
                       7.5136300000E-01  2.4863700000E-01  7.5136300000E-01
                       2.4863700000E-01  2.4863700000E-01  7.5136300000E-01
                       7.5136300000E-01  2.4863700000E-01  2.4863700000E-01
                       2.4863700000E-01  7.5136300000E-01  7.5136300000E-01
            znucl       37.00000   82.00000   17.00000

 chkinp: Checking input parameters for consistency.

== DATASET  1 ==================================================================
-   mpi_nproc: 1, omp_nthreads: -1 (-1 if OMP is not activated)

--- !DatasetInfo
iteration_state: {dtset: 1, }
dimensions: {natom: 9, nkpt: 1, mband: 46, nsppol: 1, nspinor: 1, nspden: 1, mpw: 12675, }
cutoff_energies: {ecut:  28.0, pawecutdg:  -1.0, }
electrons: {nelect:   7.40000000E+01, charge:   0.00000000E+00, occopt:   1.00000000E+00, tsmear:   1.00000000E-02, }
meta: {optdriver: 1, rfelfd: 2, }
...

 Real(R)+Recip(G) space primitive vectors, cartesian coordinates (Bohr,Bohr^-1):
 R(1)= 11.8165095  0.0000000  6.8222650  G(1)=  0.0846274 -0.0299203  0.0000000
 R(2)=  3.9388365 11.1407120  6.8222650  G(2)=  0.0000000  0.0897609  0.0000000
 R(3)=  0.0000000  0.0000000 13.6445299  G(3)= -0.0423137 -0.0299203  0.0732894
 Unit cell volume ucvol=  1.7962250E+03 bohr^3
 Angles (23,13,12)=  6.00000000E+01  6.00000000E+01  6.00000000E+01 degrees

 getcut: wavevector=  0.0000  0.0000  0.0000  ngfft=  72  72  72
         ecut(hartree)=     28.000   => boxcut(ratio)=   2.21529

 getcut : COMMENT -
  Note that boxcut > 2.2 ; recall that boxcut=Gcut(box)/Gcut(sphere) = 2
  is sufficient for exact treatment of convolution.
  Such a large boxcut is a waste : you could raise ecut
  e.g. ecut=   34.352440 Hartrees makes boxcut=2

--- Pseudopotential description ------------------------------------------------
- pspini: atom type   1  psp file is /scratch/users/j/a/jabreu/pseudos/PBEsol/Rb.psp8
- pspatm: opening atomic psp file    /scratch/users/j/a/jabreu/pseudos/PBEsol/Rb.psp8
- Rb    ONCVPSP-3.3.0  r_core=   1.71227   1.75361   1.90633
- 37.00000   9.00000    180112                znucl, zion, pspdat
    8 -116133    2    4       600   0.00000   pspcod,pspxc,lmax,lloc,mmax,r2well
    5.99000000000000    7.00000000000000    0.00000000000000   rchrg,fchrg,qchrg
     nproj     2     2     2
     extension_switch     1
  pspatm : epsatm=   34.48400912
         --- l  ekb(1:nproj) -->
             0    8.196957   -0.477221
             1    3.231347   -0.378736
             2   -1.047201    0.996637
 pspatm: atomic psp has been read  and splines computed

- pspini: atom type   2  psp file is /scratch/users/j/a/jabreu/pseudos/PBEsol/Pb.psp8
- pspatm: opening atomic psp file    /scratch/users/j/a/jabreu/pseudos/PBEsol/Pb.psp8
- Pb    ONCVPSP-3.3.0  r_core=   2.42823   2.42823   2.10438
- 82.00000  14.00000    180112                znucl, zion, pspdat
    8 -116133    2    4       600   0.00000   pspcod,pspxc,lmax,lloc,mmax,r2well
    5.99000000000000    6.00000000000000    0.00000000000000   rchrg,fchrg,qchrg
     nproj     2     2     2
     extension_switch     1
  pspatm : epsatm=   44.32675151
         --- l  ekb(1:nproj) -->
             0    6.256780    1.206521
             1    4.272336    0.573876
             2   -3.251371   -0.847363
 pspatm: atomic psp has been read  and splines computed

- pspini: atom type   3  psp file is /scratch/users/j/a/jabreu/pseudos/PBEsol/Cl.psp8
- pspatm: opening atomic psp file    /scratch/users/j/a/jabreu/pseudos/PBEsol/Cl.psp8
- Cl    ONCVPSP-3.3.0  r_core=   1.56009   1.35202   1.75774
- 17.00000   7.00000    180112                znucl, zion, pspdat
    8 -116133    2    4       600   0.00000   pspcod,pspxc,lmax,lloc,mmax,r2well
    5.99000000000000    8.00000000000000    0.00000000000000   rchrg,fchrg,qchrg
     nproj     2     2     2
     extension_switch     1
  pspatm : epsatm=    8.95520722
[...]
 Perturbation : derivative vs k along direction   2
 The set of symmetries contains only one element for this perturbation.
 symkpt : not enough symmetry to change the number of k points.

[...]

 Perturbation wavevector (in red.coord.)   0.000000  0.000000  0.000000
 Perturbation : derivative vs k along direction   3
 The set of symmetries contains only one element for this perturbation.
 symkpt : not enough symmetry to change the number of k points.

-inwffil : will read wavefunctions from disk file /scratch/users/j/a/jabreu/flow_simple_9atoms/flow/w133/t1/indata/in_WFK

 Initialisation of the first-order wave-functions :
  ireadwf=   0

--- !BeginCycle
iteration_state: {dtset: 1, }
solver: {iscf: 7, nstep: 2000, nline: 4, wfoptalg: 0, }
tolerances: {tolwfr: 1.00E-20, }
...

     iter   2DEtotal(Ha)        deltaE(Ha) residm    vres2
-ETOT  1  -32.176444434719     -3.218E+01 2.551E-02 0.000E+00
 ETOT  2  -32.221889684436     -4.545E-02 9.160E-04 0.000E+00
 ETOT  3  -32.222168898913     -2.792E-04 5.248E-05 0.000E+00
 ETOT  4  -32.222171782204     -2.883E-06 4.084E-06 0.000E+00
 ETOT  5  -32.222171820384     -3.818E-08 6.220E-07 0.000E+00
 ETOT  6  -32.222171820944     -5.607E-10 6.074E-08 0.000E+00
 ETOT  7  -32.222171820953     -8.775E-12 1.027E-08 0.000E+00
 ETOT  8  -32.222171820953     -1.421E-13 9.369E-10 0.000E+00
 ETOT  9  -32.222171820953      0.000E+00 1.743E-10 0.000E+00
 ETOT 10  -32.222171820953      7.105E-15 1.648E-11 0.000E+00
 ETOT 11  -32.222171820953      0.000E+00 3.016E-12 0.000E+00
 ETOT 12  -32.222171820953     -1.421E-14 2.931E-13 0.000E+00
 ETOT 13  -32.222171820953      0.000E+00 5.325E-14 0.000E+00
 ETOT 14  -32.222171820953      0.000E+00 5.263E-15 0.000E+00
 ETOT 15  -32.222171820953      0.000E+00 9.579E-16 0.000E+00
 ETOT 16  -32.222171820953      7.105E-15 9.514E-17 0.000E+00
 ETOT 17  -32.222171820953     -7.105E-15 1.734E-17 0.000E+00
 ETOT 18  -32.222171820953      0.000E+00 1.729E-18 0.000E+00
 ETOT 19  -32.222171820953      0.000E+00 3.153E-19 0.000E+00
 ETOT 20  -32.222171820953      0.000E+00 3.157E-20 0.000E+00
 ETOT 21  -32.222171820953     -7.105E-15 9.892E-21 0.000E+00

 At SCF step   21   max residual=  9.89E-21 < tolwfr=  1.00E-20 =>converged.

 ----iterations are completed or convergence reached----

 dfpt_looppert: DFPT cycle converged with prtwf=-1. Will skip output of the 1st-order WFK file.
 dfpt_looppert : ek2=    4.7075566488E+01
          f-sum rule ratio=    1.1602875231E+00
 prteigrs : about to open file /scratch/users/j/a/jabreu/flow_simple_9atoms/flow/w133/t1/tmpdata/tmp_1WF1_EIG
 Expectation of eigenvalue derivatives (hartree) for nkpt=   1  k points:
  (in case of degenerate eigenvalues, averaged derivative)
 kpt#   1, nband= 46, wtk=  1.00000, kpt=  0.0000  0.0000  0.0000 (reduced coord)
   0.00000   -0.00000   -0.00000   -0.00000    0.00000    0.00000    0.00000    0.00000
  -0.00000   -0.00000   -0.00000    0.00000    0.00000   -0.00000   -0.00000   -0.00000
  -0.00000   -0.00000   -0.00000    0.00000   -0.00000   -0.00000   -0.00000   -0.00000
  -0.00000   -0.00000   -0.00000   -0.00000   -0.00000   -0.00000   -0.00000   -0.00000
  -0.00000   -0.00000    0.00000    0.00000    0.00000   -0.00000   -0.00000   -0.00000
  -0.00000   -0.00000    0.00000    0.00000    0.00000    0.00000

 Eight components of 2nd-order total energy (hartree) are
 1,2,3: 0th-order hamiltonian combined with 1st-order wavefunctions
     kin0=   3.76407009E+01 eigvalue=   4.31292847E+00  local=  -2.07763328E+01
 4,5,6: 1st-order hamiltonian combined with 1st and 0th-order wfs
     kin1=  -5.46211924E+01  Hartree=   0.00000000E+00     xc=   0.00000000E+00
 7,8,9: eventually, occupation + non-local contributions
    edocc=   8.72488723E+00     enl0=   2.31998808E+00   enl1=  -9.82315120E+00
 1-9 gives the relaxation energy (to be shifted if some occ is /=2.0)
   erelax=  -3.22221718E+01
  No Ewald or frozen-wf contrib.: the relaxation energy is the total one
 2DEtotal=   -0.3222217182E+02 Ha. Also 2DEtotal=   -0.876809886223E+03 eV
    (  non-var. 2DEtotal :   -3.2222171821E+01 Ha)

 CALCULATION OF EFFECTIVE MASSES
 NOTE : Additional infos (eff. mass eigenvalues, eigenvectors and, if degenerate, average mass) are available in stdout.

 COMMENTS:
 - At k-point ( 0.000, 0.000, 0.000), bands    35 through    37
   are DEGENERATE (effective mass tensor is therefore not defined).
   See Section IIIB Eqs. (67)-(70) and Appendix E of PRB 93 205147 (2016).
 - Angular average effective mass for Frohlich model is to be averaged over degenerate bands. See later.
 - Associated theta integrals calculated with ntheta=   1000 points.

 K-point ( 0.000, 0.000, 0.000) | band =    35
 Transport equivalent effective mass tensor:
             -1.0620617451             -0.0000002995              0.0000000001
             -0.0000002995             -1.0620614590              0.0000000000
              0.0000000001              0.0000000000             -1.0620601540
 Transport equivalent effective mass tensor eigenvalues:
             -1.0620619340             -1.0620612702             -1.0620601540
 Angular average effective mass 1/(<1/m>)=  -1.0167732223
 Angular average effective mass for Frohlich model (<m**0.5>)**2=  -1.0185480531
 Effective masses along directions: (cart. coord. / red. coord. -> eff. mass)
    1:   1.000000  0.000000  0.000000 /   0.948683  0.316228  0.000000 ->  -1.0761031857
    2:   0.000000  1.000000  0.000000 /   0.000000  1.000000  0.000000 ->  -1.2029649112
    3:   0.000000  0.000000  1.000000 /   0.408248  0.408248  0.816497 ->  -0.9734459653
    4:   0.577350  0.577350  0.577350 /   0.585539  0.688047  0.428644 ->  -1.0438524862
    5:   0.000000  0.707107  0.707107 /   0.289489  0.762222  0.578977 ->  -0.9795047966
    6:   0.707107  0.000000  0.707107 /   0.731423  0.422287  0.535439 ->  -1.0060253001
    7:   0.707107  0.707107  0.000000 /   0.616798  0.787122  0.000000 ->  -0.9814781714

[...]

 K-point ( 0.000, 0.000, 0.000) | band =    37
 Transport equivalent effective mass tensor:
            -62.4462890281             -0.0000000054             -0.0000000002
             -0.0000000054            -62.4462890325             -0.0000000003
             -0.0000000002             -0.0000000003            -62.4462890449
 Transport equivalent effective mass tensor eigenvalues:
            -62.4462890449            -62.4462890361            -62.4462890245
 Angular average effective mass 1/(<1/m>)=  -4.0643331223
 Angular average effective mass for Frohlich model (<m**0.5>)**2=  -5.1442583683
 Effective masses along directions: (cart. coord. / red. coord. -> eff. mass)
    1:   1.000000  0.000000  0.000000 /   0.948683  0.316228  0.000000 ->  -3.4476120584
    2:   0.000000  1.000000  0.000000 /   0.000000  1.000000  0.000000 ->  -2.3610248856
    3:   0.000000  0.000000  1.000000 /   0.408248  0.408248  0.816497 ->  -3.0717681124
    4:   0.577350  0.577350  0.577350 /   0.585539  0.688047  0.428644 ->  -3.3403763326
    5:   0.000000  0.707107  0.707107 /   0.289489  0.762222  0.578977 ->  -5.8436898619
    6:   0.707107  0.000000  0.707107 /   0.731423  0.422287  0.535439 ->  -3.2606900323
    7:   0.707107  0.707107  0.000000 /   0.616798  0.787122  0.000000 -> -18.1258599356

 Angular average effective mass for Frohlich model, averaged over degenerate bands.
 Value of     (<<m**0.5>>)**2 =     2.113540E+00
 Absolute Value of <<m**0.5>> =     1.453802E+00

 K-point ( 0.000, 0.000, 0.000) | band =    38
 Effective mass tensor:
              0.3792712769              0.0000000000              0.0000000000
              0.0000000000              0.3792712769              0.0000000000
              0.0000000000              0.0000000000              0.3792712770
 Effective mass tensor eigenvalues:
              0.3792712769              0.3792712769              0.3792712770
 Angular average effective mass 1/(<1/m>)=   0.3792712769
 Angular average effective mass for Frohlich model (<m**0.5>)**2=   0.3792712769
 Effective masses along directions: (cart. coord. / red. coord. -> eff. mass)
    1:   1.000000  0.000000  0.000000 /   0.948683  0.316228  0.000000 ->   0.3792712769
    2:   0.000000  1.000000  0.000000 /   0.000000  1.000000  0.000000 ->   0.3792712769
    3:   0.000000  0.000000  1.000000 /   0.408248  0.408248  0.816497 ->   0.3792712770
    4:   0.577350  0.577350  0.577350 /   0.585539  0.688047  0.428644 ->   0.3792712770
    5:   0.000000  0.707107  0.707107 /   0.289489  0.762222  0.578977 ->   0.3792712770
    6:   0.707107  0.000000  0.707107 /   0.731423  0.422287  0.535439 ->   0.3792712770
    7:   0.707107  0.707107  0.000000 /   0.616798  0.787122  0.000000 ->   0.3792712769

 END OF EFFECTIVE MASSES SECTION

 ---- first-order wavefunction calculations are completed ----

 Total localisation tensor (bohr^2) in cartesian coordinates
  WARNING : still subject to testing - especially symmetries.
      direction              matrix element
   alpha     beta       real part   imaginary part
     1        1       1.9771016164    0.0000000000
     1        2       0.5592087839    0.0000000000
     1        3       1.3697761805    0.0000000000
     2        1       0.5592087839    0.0000000000
     2        2       1.5816812927    0.0000000000
     2        3       0.9685780257    0.0000000000
     3        1       1.3697761805    0.0000000000
     3        2       0.9685780257    0.0000000000
     3        3       3.5587829094    0.0000000000

 respfn : d/dk was computed, but no 2DTE, so no DDB output.

== END DATASET(S) ==============================================================

 -outvars: echo values of variables after computation  --------
            acell      1.0000000000E+00  1.0000000000E+00  1.0000000000E+00 Bohr
              amu      8.54678000E+01  2.07200000E+02  3.54527000E+01
             ecut      2.80000000E+01 Hartree
           etotal     -3.2222171821E+01
            fcart      0.0000000000E+00  0.0000000000E+00  0.0000000000E+00
                       0.0000000000E+00  0.0000000000E+00  0.0000000000E+00
                       0.0000000000E+00  0.0000000000E+00  0.0000000000E+00
                       0.0000000000E+00  0.0000000000E+00  0.0000000000E+00
                       0.0000000000E+00  0.0000000000E+00  0.0000000000E+00
                       0.0000000000E+00  0.0000000000E+00  0.0000000000E+00
                       0.0000000000E+00  0.0000000000E+00  0.0000000000E+00
                       0.0000000000E+00  0.0000000000E+00  0.0000000000E+00
                       0.0000000000E+00  0.0000000000E+00  0.0000000000E+00
-          fftalg         512
           irdden           1
           irdwfk           1
           istwfk        1
              ixc     -116133
           kptopt           0
P           mkmem           1
P          mkqmem           1
P          mk1mem           1
            natom           9
            nband          46
           nbdbuf           4
            ngfft          72      72      72
             nkpt           1
            nstep        2000
             nsym          48
           ntypat           3
              occ      2.000000  2.000000  2.000000  2.000000  2.000000  2.000000
                       2.000000  2.000000  2.000000  2.000000  2.000000  2.000000
                       2.000000  2.000000  2.000000  2.000000  2.000000  2.000000
                       2.000000  2.000000  2.000000  2.000000  2.000000  2.000000
                       2.000000  2.000000  2.000000  2.000000  2.000000  2.000000
                       2.000000  2.000000  2.000000  2.000000  2.000000  2.000000
                       2.000000  0.000000  0.000000  0.000000  0.000000  0.000000
                       0.000000  0.000000  0.000000  0.000000
        optdriver           1
            prtwf          -1
            rfdir           1       1       1
           rfelfd           2
            rprim      1.1816509538E+01  0.0000000000E+00  6.8222649627E+00
                       3.9388365127E+00  1.1140712032E+01  6.8222649627E+00
                       0.0000000000E+00  0.0000000000E+00  1.3644529925E+01
          spgroup         225
           strten      0.0000000000E+00  0.0000000000E+00  0.0000000000E+00
                       0.0000000000E+00  0.0000000000E+00  0.0000000000E+00
           symrel      1  0  0   0  1  0   0  0  1      -1  0  0   0 -1  0   0  0 -1
                       0 -1  1   0 -1  0   1 -1  0       0  1 -1   0  1  0  -1  1  0
                      -1  0  0  -1  0  1  -1  1  0       1  0  0   1  0 -1   1 -1  0
                       0  1 -1   1  0 -1   0  0 -1       0 -1  1  -1  0  1   0  0  1
                      -1  0  0  -1  1  0  -1  0  1       1  0  0   1 -1  0   1  0 -1
                       0 -1  1   1 -1  0   0 -1  0       0  1 -1  -1  1  0   0  1  0
                       1  0  0   0  0  1   0  1  0      -1  0  0   0  0 -1   0 -1  0
                       0  1 -1   0  0 -1   1  0 -1       0 -1  1   0  0  1  -1  0  1
                      -1  0  1  -1  1  0  -1  0  0       1  0 -1   1 -1  0   1  0  0
                       0 -1  0   1 -1  0   0 -1  1       0  1  0  -1  1  0   0  1 -1
                       1  0 -1   0  0 -1   0  1 -1      -1  0  1   0  0  1   0 -1  1
                       0  1  0   0  0  1   1  0  0       0 -1  0   0  0 -1  -1  0  0
                       1  0 -1   0  1 -1   0  0 -1      -1  0  1   0 -1  1   0  0  1
                       0 -1  0   0 -1  1   1 -1  0       0  1  0   0  1 -1  -1  1  0
                      -1  0  1  -1  0  0  -1  1  0       1  0 -1   1  0  0   1 -1  0
                       0  1  0   1  0  0   0  0  1       0 -1  0  -1  0  0   0  0 -1
                       0  0 -1   0  1 -1   1  0 -1       0  0  1   0 -1  1  -1  0  1
                       1 -1  0   0 -1  1   0 -1  0      -1  1  0   0  1 -1   0  1  0
                       0  0  1   1  0  0   0  1  0       0  0 -1  -1  0  0   0 -1  0
                      -1  1  0  -1  0  0  -1  0  1       1 -1  0   1  0  0   1  0 -1
                       0  0  1   0  1  0   1  0  0       0  0 -1   0 -1  0  -1  0  0
                       1 -1  0   0 -1  0   0 -1  1      -1  1  0   0  1  0   0  1 -1
                       0  0 -1   1  0 -1   0  1 -1       0  0  1  -1  0  1   0 -1  1
                      -1  1  0  -1  0  1  -1  0  0       1 -1  0   1  0 -1   1  0  0
           tolwfr      1.00000000E-20
            typat      1  1  2  3  3  3  3  3  3
           useylm           1
           xangst      6.2530275326E+00  4.4215581713E+00  1.0830561388E+01
                       2.0843425109E+00  1.4738527238E+00  3.6101871292E+00
                       0.0000000000E+00  0.0000000000E+00  0.0000000000E+00
                       6.2643913680E+00  4.4295936163E+00  7.2203742584E+00
                       3.1208318486E+00  4.4295936163E+00  5.4054393237E+00
                       5.2165381949E+00  1.4658172787E+00  9.0353091932E+00
                       2.0729786755E+00  1.4658172787E+00  7.2203742584E+00
                       5.2165381949E+00  1.4658172787E+00  5.4054393237E+00
                       3.1208318486E+00  4.4295936163E+00  9.0353091932E+00
            xcart      1.1816509538E+01  8.3555340243E+00  2.0466794888E+01
                       3.9388365127E+00  2.7851780081E+00  6.8222649627E+00
                       0.0000000000E+00  0.0000000000E+00  0.0000000000E+00
                       1.1837984075E+01  8.3707188148E+00  1.3644529925E+01
                       5.8975175007E+00  8.3707188148E+00  1.0214799950E+01
                       9.8578285501E+00  2.7699932176E+00  1.7074259901E+01
                       3.9173619760E+00  2.7699932176E+00  1.3644529925E+01
                       9.8578285501E+00  2.7699932176E+00  1.0214799950E+01
                       5.8975175007E+00  8.3707188148E+00  1.7074259901E+01
             xred      7.5000000000E-01  7.5000000000E-01  7.5000000000E-01
                       2.5000000000E-01  2.5000000000E-01  2.5000000000E-01
                       0.0000000000E+00  0.0000000000E+00  0.0000000000E+00
                       7.5136300000E-01  7.5136300000E-01  2.4863700000E-01
                       2.4863700000E-01  7.5136300000E-01  2.4863700000E-01
                       7.5136300000E-01  2.4863700000E-01  7.5136300000E-01
                       2.4863700000E-01  2.4863700000E-01  7.5136300000E-01
                       7.5136300000E-01  2.4863700000E-01  2.4863700000E-01
                       2.4863700000E-01  7.5136300000E-01  7.5136300000E-01
            znucl       37.00000   82.00000   17.00000

- Timing analysis has been suppressed with timopt=0

 Suggested references for the acknowledgment of ABINIT usage.

 Calculation completed.
.Delivered   6 WARNINGs and  11 COMMENTs to log file.