.Version 9.5.1 of ABINIT

 ABINIT is a project of the Universite Catholique de Louvain,
 Corning Inc. and other collaborators, see ~abinit/doc/developers/contributors.txt .
 acknowledgments of the ABINIT effort.

.Starting date : Wed 19 May 2021.
- ( at 01h45 )

- input  file    -> /scratch/users/j/a/jabreu/flow_simple_8atoms/flow/w473/t1/run.abi
- output file    -> /scratch/users/j/a/jabreu/flow_simple_8atoms/flow/w473/t1/run.abo
- root for input  files -> /scratch/users/j/a/jabreu/flow_simple_8atoms/flow/w473/t1/indata/in
- root for output files -> /scratch/users/j/a/jabreu/flow_simple_8atoms/flow/w473/t1/outdata/out

 Symmetries : space group P2_1/m (# 11); Bravais mP (primitive monocl.)
     intxc =       0      iscf =       7    lmnmax =      18     lnmax =       6
     mgfft =      72  mpssoang =       3    mqgrid =    3360     natom =       8
  nloc_mem =       1    nspden =       1   nspinor =       1    nsppol =       1
      nsym =       4    n1xccc =    2501    ntypat =       3    occopt =       1
   xclevel =       2
-    mband =          25        mffmem =           1         mkmem =           2
-   mkqmem =           2        mk1mem =           2           mpw =        8999
      nfft =      174960          nkpt =           2
  Rough estimation (10% accuracy) of disk space for files :

------------- Echo of variables that govern the present computation ------------
-
- outvars: echo of selected default values
-   iomode0 =  0 , fftalg0 =512 , wfoptalg0 =  0
-
- outvars: echo of global parameters not present in the input file
-  max_nthreads =    0
-
 -outvars: echo values of preprocessed input variables --------
            acell      1.0000000000E+00  1.0000000000E+00  1.0000000000E+00 Bohr
              amu      3.90983000E+01  1.00794000E+00  1.40067400E+01
             ecut      4.20000000E+01 Hartree
-          fftalg         512
           irdden           1
           irdwfk           1
           istwfk        1    1
              ixc     -116133
              kpt      0.00000000E+00  0.00000000E+00  5.00000000E-01
                       0.00000000E+00  0.00000000E+00  0.00000000E+00
           kptopt           0
P           mkmem           2
P          mkqmem           2
P          mk1mem           2
            natom           8
            nband          25
           nbdbuf           4
            ngfft          45      54      72
             nkpt           2
            nstep        2000
             nsym           4
           ntypat           3
              occ      2.000000  2.000000  2.000000  2.000000  2.000000  2.000000
                       2.000000  2.000000  2.000000  2.000000  2.000000  2.000000
                       2.000000  2.000000  2.000000  2.000000  0.000000  0.000000
                       0.000000  0.000000  0.000000  0.000000  0.000000  0.000000
                       0.000000
        optdriver           1
            prtwf          -1
            rfdir           1       1       1
           rfelfd           2
            rprim      7.0111824424E+00  0.0000000000E+00  0.0000000000E+00
                       0.0000000000E+00  8.5008302429E+00  1.1227245207E+00
                       0.0000000000E+00  0.0000000000E+00  1.1614485721E+01
          spgroup          11
           symrel      1  0  0   0  1  0   0  0  1      -1  0  0   0 -1  0   0  0 -1
                       1  0  0   0 -1  0   0  0 -1      -1  0  0   0  1  0   0  0  1
            tnons      0.0000000  0.0000000  0.0000000     0.0000000  0.0000000  0.0000000
                       0.5000000  0.0000000  0.0000000     0.5000000  0.0000000  0.0000000
           tolwfr      1.00000000E-20
            typat      1  1  2  2  2  2  3  3
           useylm           1
              wtk        0.50000    0.50000
           xangst      2.7826184653E+00  3.2128933251E+00  1.5845867868E+00
                       9.2753948845E-01  1.2855522936E+00  5.1556545742E+00
                       1.7224668012E+00  8.1135764556E-01  2.3971104432E+00
                       3.5775457780E+00  3.6870879731E+00  4.3431309179E+00
                       1.3261217574E-01  8.1135764556E-01  2.3971104432E+00
                       1.9876911526E+00  3.6870879731E+00  4.3431309179E+00
                       9.2753948845E-01  9.5643251676E-01  1.7518874183E+00
                       2.7826184653E+00  3.5420131019E+00  4.9883539428E+00
            xcart      5.2583868318E+00  6.0714884786E+00  2.9944350608E+00
                       1.7527956106E+00  2.4293417643E+00  9.7427751811E+00
                       3.2549905272E+00  1.5332437459E+00  4.5298822479E+00
                       6.7605817484E+00  6.9675864970E+00  8.2073279940E+00
                       2.5060069404E-01  1.5332437459E+00  4.5298822479E+00
                       3.7561919152E+00  6.9675864970E+00  8.2073279940E+00
                       1.7527956106E+00  1.8073955213E+00  3.3105874362E+00
                       5.2583868318E+00  6.6934347216E+00  9.4266228057E+00
             xred      7.5000000000E-01  7.1422300000E-01  1.8877800000E-01
                       2.5000000000E-01  2.8577700000E-01  8.1122200000E-01
                       4.6425700000E-01  1.8036400000E-01  3.7258500000E-01
                       9.6425700000E-01  8.1963600000E-01  6.2741500000E-01
                       3.5743000000E-02  1.8036400000E-01  3.7258500000E-01
                       5.3574300000E-01  8.1963600000E-01  6.2741500000E-01
                       2.5000000000E-01  2.1261400000E-01  2.6448700000E-01
                       7.5000000000E-01  7.8738600000E-01  7.3551300000E-01
            znucl       19.00000    1.00000    7.00000

 chkinp: Checking input parameters for consistency.

== DATASET  1 ==================================================================
-   mpi_nproc: 1, omp_nthreads: -1 (-1 if OMP is not activated)

--- !DatasetInfo
iteration_state: {dtset: 1, }
dimensions: {natom: 8, nkpt: 2, mband: 25, nsppol: 1, nspinor: 1, nspden: 1, mpw: 8999, }
cutoff_energies: {ecut:  42.0, pawecutdg:  -1.0, }
electrons: {nelect:   3.20000000E+01, charge:   0.00000000E+00, occopt:   1.00000000E+00, tsmear:   1.00000000E-02, }
meta: {optdriver: 1, rfelfd: 2, }
...

 Real(R)+Recip(G) space primitive vectors, cartesian coordinates (Bohr,Bohr^-1):
 R(1)=  7.0111824  0.0000000  0.0000000  G(1)=  0.1426293  0.0000000  0.0000000
 R(2)=  0.0000000  8.5008302  1.1227245  G(2)=  0.0000000  0.1176356  0.0000000
 R(3)=  0.0000000  0.0000000 11.6144857  G(3)=  0.0000000 -0.0113713  0.0860994
 Unit cell volume ucvol=  6.9223347E+02 bohr^3
 Angles (23,13,12)=  8.24763561E+01  9.00000000E+01  9.00000000E+01 degrees

 getcut: wavevector=  0.0000  0.0000  0.0000  ngfft=  45  54  72
         ecut(hartree)=     42.000   => boxcut(ratio)=   2.12527

--- Pseudopotential description ------------------------------------------------
- pspini: atom type   1  psp file is /scratch/users/j/a/jabreu/pseudos/PBEsol/K.psp8
- pspatm: opening atomic psp file    /scratch/users/j/a/jabreu/pseudos/PBEsol/K.psp8
- K     ONCVPSP-3.3.0  r_core=   1.36296   1.46408   1.61068
- 19.00000   9.00000    180112                znucl, zion, pspdat
    8 -116133    2    4       400   0.00000   pspcod,pspxc,lmax,lloc,mmax,r2well
    3.99000000000000    5.00000000000000    0.00000000000000   rchrg,fchrg,qchrg
     nproj     2     2     2
     extension_switch     1
  pspatm : epsatm=    8.32487830
         --- l  ekb(1:nproj) -->
             0   10.921326    0.816676
             1    4.431000    0.560368
             2   -3.384038   -1.043186
 pspatm: atomic psp has been read  and splines computed

- pspini: atom type   2  psp file is /scratch/users/j/a/jabreu/pseudos/PBEsol/H.psp8
- pspatm: opening atomic psp file    /scratch/users/j/a/jabreu/pseudos/PBEsol/H.psp8
- H     ONCVPSP-3.3.0  r_core=   1.00957   0.70586
-  1.00000   1.00000    180112                znucl, zion, pspdat
    8 -116133    1    4       300   0.00000   pspcod,pspxc,lmax,lloc,mmax,r2well
    2.99000000000000    0.00000000000000    0.00000000000000   rchrg,fchrg,qchrg
     nproj     2     1
     extension_switch     1
  pspatm : epsatm=    0.35627032
         --- l  ekb(1:nproj) -->
             0   -1.674911   -0.523609
             1   -0.494138
 pspatm: atomic psp has been read  and splines computed

- pspini: atom type   3  psp file is /scratch/users/j/a/jabreu/pseudos/PBEsol/N.psp8
- pspatm: opening atomic psp file    /scratch/users/j/a/jabreu/pseudos/PBEsol/N.psp8
- N     ONCVPSP-3.3.0  r_core=   1.20551   1.35824
-  7.00000   5.00000    180112                znucl, zion, pspdat
    8 -116133    1    4       600   0.00000   pspcod,pspxc,lmax,lloc,mmax,r2well
    5.99000000000000    4.00000000000000    0.00000000000000   rchrg,fchrg,qchrg
     nproj     2     2
     extension_switch     1
  pspatm : epsatm=    5.26508895
         --- l  ekb(1:nproj) -->
             0    7.464189    0.625868
             1   -4.309714   -1.012941
 pspatm: atomic psp has been read  and splines computed

   9.15360505E+02                                ecore*ucvol(ha*bohr**3)

-inwffil : will read wavefunctions from disk file /scratch/users/j/a/jabreu/flow_simple_8atoms/flow/w473/t1/indata/in_WFK

 ==>  initialize data related to q vector <==

 The list of irreducible perturbations for this q vector is:
    1)    idir= 1    ipert=   9
    2)    idir= 2    ipert=   9
    3)    idir= 3    ipert=   9

 Perturbation wavevector (in red.coord.)   0.000000  0.000000  0.000000
 Perturbation : derivative vs k along direction   1

 dfpt_looppert : COMMENT -
  In a d/dk calculation, iscf is set to -3 automatically.
 The set of symmetries contains only one element for this perturbation.
 symkpt : not enough symmetry to change the number of k points.

[...]

 Initialisation of the first-order wave-functions :
  ireadwf=   0

--- !BeginCycle
iteration_state: {dtset: 1, }
solver: {iscf: 7, nstep: 2000, nline: 4, wfoptalg: 0, }
tolerances: {tolwfr: 1.00E-20, }
...

     iter   2DEtotal(Ha)        deltaE(Ha) residm    vres2
-ETOT  1  -28.006642050677     -2.801E+01 9.848E-02 0.000E+00
 ETOT  2  -28.031291319992     -2.465E-02 2.551E-03 0.000E+00
 ETOT  3  -28.031439434026     -1.481E-04 6.463E-04 0.000E+00
 ETOT  4  -28.031441080248     -1.646E-06 1.052E-05 0.000E+00
 ETOT  5  -28.031441104777     -2.453E-08 7.380E-06 0.000E+00
 ETOT  6  -28.031441105197     -4.205E-10 1.723E-07 0.000E+00
 ETOT  7  -28.031441105205     -7.745E-12 1.203E-07 0.000E+00
 ETOT  8  -28.031441105205     -8.882E-14 3.623E-09 0.000E+00
 ETOT  9  -28.031441105205     -1.421E-14 2.298E-09 0.000E+00
 ETOT 10  -28.031441105205     -1.066E-14 7.684E-11 0.000E+00
 ETOT 11  -28.031441105205      2.842E-14 4.550E-11 0.000E+00
 ETOT 12  -28.031441105205     -1.776E-14 1.714E-12 0.000E+00
 ETOT 13  -28.031441105205      0.000E+00 9.658E-13 0.000E+00
 ETOT 14  -28.031441105205     -7.105E-15 3.948E-14 0.000E+00
 ETOT 15  -28.031441105205      3.553E-15 2.143E-14 0.000E+00
 ETOT 16  -28.031441105205     -7.105E-15 9.197E-16 0.000E+00
 ETOT 17  -28.031441105205      7.105E-15 4.877E-16 0.000E+00
 ETOT 18  -28.031441105205      3.553E-15 2.156E-17 0.000E+00
 ETOT 19  -28.031441105205      0.000E+00 1.127E-17 0.000E+00
 ETOT 20  -28.031441105205      0.000E+00 5.074E-19 0.000E+00
 ETOT 21  -28.031441105205     -3.553E-15 2.628E-19 0.000E+00
 ETOT 22  -28.031441105205      0.000E+00 1.197E-20 0.000E+00
 ETOT 23  -28.031441105205      7.105E-15 9.921E-21 0.000E+00

 At SCF step   23   max residual=  9.92E-21 < tolwfr=  1.00E-20 =>converged.

 ----iterations are completed or convergence reached----

 dfpt_looppert: DFPT cycle converged with prtwf=-1. Will skip output of the 1st-order WFK file.
 dfpt_looppert : ek2=    5.1399296407E+01
          f-sum rule ratio=    1.1586655838E+00
 prteigrs : about to open file /scratch/users/j/a/jabreu/flow_simple_8atoms/flow/w473/t1/tmpdata/tmp_1WF1_EIG
 Expectation of eigenvalue derivatives (hartree) for nkpt=   2  k points:
  (in case of degenerate eigenvalues, averaged derivative)
 kpt#   1, nband= 25, wtk=  0.50000, kpt=  0.0000  0.0000  0.5000 (reduced coord)
  -0.00000    0.00000    0.00000   -0.00000   -0.00000   -0.00000    0.00000    0.00000
  -0.00000   -0.00000    0.00000    0.00000    0.00000    0.00000    0.00000    0.00000
   0.00000    0.00000   -0.00000    0.00000   -0.00000    0.00000   -0.00140   -0.01462
  -0.00010
 prteigrs : prtvol=0 or 1, do not print more k-points.

 Eight components of 2nd-order total energy (hartree) are
 1,2,3: 0th-order hamiltonian combined with 1st-order wavefunctions
     kin0=   2.70225600E+01 eigvalue=   2.24622188E+00  local=  -1.42585757E+01
 4,5,6: 1st-order hamiltonian combined with 1st and 0th-order wfs
     kin1=  -5.95545958E+01  Hartree=   0.00000000E+00     xc=   0.00000000E+00
 7,8,9: eventually, occupation + non-local contributions
    edocc=   1.35353044E+01     enl0=  -5.14069511E-01   enl1=   3.49171357E+00
 1-9 gives the relaxation energy (to be shifted if some occ is /=2.0)
   erelax=  -2.80314411E+01
  No Ewald or frozen-wf contrib.: the relaxation energy is the total one
 2DEtotal=   -0.2803144111E+02 Ha. Also 2DEtotal=   -0.762774304063E+03 eV
    (  non-var. 2DEtotal :   -2.8031441105E+01 Ha)

 Perturbation wavevector (in red.coord.)   0.000000  0.000000  0.000000
 Perturbation : derivative vs k along direction   2
 The set of symmetries contains only one element for this perturbation.
 symkpt : not enough symmetry to change the number of k points.

[...]

 Perturbation wavevector (in red.coord.)   0.000000  0.000000  0.000000
 Perturbation : derivative vs k along direction   3
 The set of symmetries contains only one element for this perturbation.
 symkpt : not enough symmetry to change the number of k points.

-inwffil : will read wavefunctions from disk file /scratch/users/j/a/jabreu/flow_simple_8atoms/flow/w473/t1/indata/in_WFK

 Initialisation of the first-order wave-functions :
  ireadwf=   0

--- !BeginCycle
iteration_state: {dtset: 1, }
solver: {iscf: 7, nstep: 2000, nline: 4, wfoptalg: 0, }
tolerances: {tolwfr: 1.00E-20, }
...

     iter   2DEtotal(Ha)        deltaE(Ha) residm    vres2
-ETOT  1  -9.1121867725487     -9.112E+00 6.781E-02 0.000E+00
 ETOT  2  -9.1259399589233     -1.375E-02 6.757E-03 0.000E+00
 ETOT  3  -9.1260235643037     -8.361E-05 4.219E-04 0.000E+00
 ETOT  4  -9.1260243788627     -8.146E-07 1.022E-04 0.000E+00
 ETOT  5  -9.1260243896433     -1.078E-08 7.838E-06 0.000E+00
 ETOT  6  -9.1260243898114     -1.681E-10 2.083E-06 0.000E+00
 ETOT  7  -9.1260243898142     -2.874E-12 1.729E-07 0.000E+00
 ETOT  8  -9.1260243898143     -5.862E-14 4.684E-08 0.000E+00
 ETOT  9  -9.1260243898143      5.329E-15 4.142E-09 0.000E+00
 ETOT 10  -9.1260243898143     -1.066E-14 1.123E-09 0.000E+00
 ETOT 11  -9.1260243898143      1.066E-14 1.045E-10 0.000E+00
 ETOT 12  -9.1260243898143     -1.776E-15 2.817E-11 0.000E+00
 ETOT 13  -9.1260243898143     -1.776E-15 2.724E-12 0.000E+00
 ETOT 14  -9.1260243898143      1.776E-15 7.285E-13 0.000E+00
 ETOT 15  -9.1260243898143     -1.776E-15 7.232E-14 0.000E+00
 ETOT 16  -9.1260243898143     -1.776E-15 1.919E-14 0.000E+00
 ETOT 17  -9.1260243898143      0.000E+00 1.940E-15 0.000E+00
 ETOT 18  -9.1260243898143      0.000E+00 5.110E-16 0.000E+00
 ETOT 19  -9.1260243898143      0.000E+00 5.231E-17 0.000E+00
 ETOT 20  -9.1260243898143      0.000E+00 1.369E-17 0.000E+00
 ETOT 21  -9.1260243898143      0.000E+00 1.415E-18 0.000E+00
 ETOT 22  -9.1260243898143      0.000E+00 3.683E-19 0.000E+00
 ETOT 23  -9.1260243898143      3.553E-15 3.835E-20 0.000E+00
 ETOT 24  -9.1260243898143     -1.776E-15 9.938E-21 0.000E+00

 At SCF step   24   max residual=  9.94E-21 < tolwfr=  1.00E-20 =>converged.

 ----iterations are completed or convergence reached----

 dfpt_looppert: DFPT cycle converged with prtwf=-1. Will skip output of the 1st-order WFK file.
 dfpt_looppert : ek2=    1.9056795510E+01
          f-sum rule ratio=    1.0092310721E+00
 prteigrs : about to open file /scratch/users/j/a/jabreu/flow_simple_8atoms/flow/w473/t1/tmpdata/tmp_1WF1_EIG
 Expectation of eigenvalue derivatives (hartree) for nkpt=   2  k points:
  (in case of degenerate eigenvalues, averaged derivative)
 kpt#   1, nband= 25, wtk=  0.50000, kpt=  0.0000  0.0000  0.5000 (reduced coord)
  -0.00000    0.00000    0.00000   -0.00000    0.00000   -0.00000   -0.00000    0.00000
  -0.00000   -0.00000    0.00000   -0.00000    0.00000    0.00000    0.00000    0.00000
  -0.00000   -0.00000   -0.00000   -0.00000    0.00000    0.00000    0.00034   -0.01259
   0.00041
 prteigrs : prtvol=0 or 1, do not print more k-points.

 Eight components of 2nd-order total energy (hartree) are
 1,2,3: 0th-order hamiltonian combined with 1st-order wavefunctions
     kin0=   1.20153429E+01 eigvalue=   1.15374970E+00  local=  -6.54670848E+00
 4,5,6: 1st-order hamiltonian combined with 1st and 0th-order wfs
     kin1=  -1.92327102E+01  Hartree=   0.00000000E+00     xc=   0.00000000E+00
 7,8,9: eventually, occupation + non-local contributions
    edocc=   2.58541164E+00     enl0=  -8.17713209E-02   enl1=   9.80661384E-01
 1-9 gives the relaxation energy (to be shifted if some occ is /=2.0)
   erelax=  -9.12602439E+00
  No Ewald or frozen-wf contrib.: the relaxation energy is the total one
 2DEtotal=   -0.9126024390E+01 Ha. Also 2DEtotal=   -0.248331752787E+03 eV
    (  non-var. 2DEtotal :   -9.1260243897E+00 Ha)

 CALCULATION OF EFFECTIVE MASSES
 NOTE : Additional infos (eff. mass eigenvalues, eigenvectors and, if degenerate, average mass) are available in stdout.

 K-point ( 0.000, 0.000, 0.500) | band =    16
 Effective mass tensor:
             -3.5724154066              0.0001629612             -0.0001058799
              0.0001629612             -1.4467502655              4.0673595625
             -0.0001058799              4.0673595625            -26.8693242366
 Effective mass tensor eigenvalues:
            -27.5042063889             -3.5724154135             -0.8118681062
 Angular average effective mass 1/(<1/m>)=  -1.9379746160
 Angular average effective mass for Frohlich model (<m**0.5>)**2=  -2.9355925660
 Effective masses along directions: (cart. coord. / red. coord. -> eff. mass)
    1:   1.000000  0.000000  0.000000 /   1.000000  0.000000  0.000000 ->  -3.5724153802
    2:   0.000000  1.000000  0.000000 /   0.000000  1.000000  0.000000 ->  -0.8310513433
    3:   0.000000  0.000000  1.000000 /   0.000000  0.096217  0.995360 -> -15.4344454912
    4:   0.577350  0.577350  0.577350 /   0.421516  0.578573  0.698268 ->  -1.5686941865
    5:   0.000000  0.707107  0.707107 /   0.000000  0.638023  0.770018 ->  -1.2252017467
    6:   0.707107  0.000000  0.707107 /   0.515036  0.082475  0.853191 ->  -5.8017162420
    7:   0.707107  0.707107  0.000000 /   0.636275  0.771462  0.000000 ->  -1.3483297011

 K-point ( 0.000, 0.000, 0.000) | band =    17
 Effective mass tensor:
              0.5108912548              0.0000000024             -0.0000000061
              0.0000000024              0.3596049779             -0.0064858957
             -0.0000000061             -0.0064858957              0.4531793974
 Effective mass tensor eigenvalues:
              0.3591575622              0.4536268131              0.5108912548
 Angular average effective mass 1/(<1/m>)=   0.4318962740
 Angular average effective mass for Frohlich model (<m**0.5>)**2=   0.4347500594
 Effective masses along directions: (cart. coord. / red. coord. -> eff. mass)
    1:   1.000000  0.000000  0.000000 /   1.000000  0.000000  0.000000 ->   0.5108912548
    2:   0.000000  1.000000  0.000000 /   0.000000  1.000000  0.000000 ->   0.3595121519
    3:   0.000000  0.000000  1.000000 /   0.000000  0.096217  0.995360 ->   0.4530624167
    4:   0.577350  0.577350  0.577350 /   0.421516  0.578573  0.698268 ->   0.4270018194
    5:   0.000000  0.707107  0.707107 /   0.000000  0.638023  0.770018 ->   0.3946043806
    6:   0.707107  0.000000  0.707107 /   0.515036  0.082475  0.853191 ->   0.4802422160
    7:   0.707107  0.707107  0.000000 /   0.636275  0.771462  0.000000 ->   0.4220379055

 END OF EFFECTIVE MASSES SECTION

 ---- first-order wavefunction calculations are completed ----

 Total localisation tensor (bohr^2) in cartesian coordinates
  WARNING : still subject to testing - especially symmetries.
      direction              matrix element
   alpha     beta       real part   imaginary part
     1        1       0.8969904757    0.0000000000
     1        2       0.0000000000    0.0000000000
     1        3       0.0000000000    0.0000000000
     2        1       0.0000000000    0.0000000000
     2        2       1.3098785329    0.0000000000
     2        3       0.1729987197    0.0000000000
     3        1       0.0000000000    0.0000000000
     3        2       0.1729987197    0.0000000000
     3        3       0.7847590758    0.0000000000

 respfn : d/dk was computed, but no 2DTE, so no DDB output.

== END DATASET(S) ==============================================================

 -outvars: echo values of variables after computation  --------
            acell      1.0000000000E+00  1.0000000000E+00  1.0000000000E+00 Bohr
              amu      3.90983000E+01  1.00794000E+00  1.40067400E+01
             ecut      4.20000000E+01 Hartree
           etotal     -9.1260243898E+00
            fcart      0.0000000000E+00  0.0000000000E+00  0.0000000000E+00
                       0.0000000000E+00  0.0000000000E+00  0.0000000000E+00
                       0.0000000000E+00  0.0000000000E+00  0.0000000000E+00
                       0.0000000000E+00  0.0000000000E+00  0.0000000000E+00
                       0.0000000000E+00  0.0000000000E+00  0.0000000000E+00
                       0.0000000000E+00  0.0000000000E+00  0.0000000000E+00
                       0.0000000000E+00  0.0000000000E+00  0.0000000000E+00
                       0.0000000000E+00  0.0000000000E+00  0.0000000000E+00
-          fftalg         512
           irdden           1
           irdwfk           1
           istwfk        1    1
              ixc     -116133
              kpt      0.00000000E+00  0.00000000E+00  5.00000000E-01
                       0.00000000E+00  0.00000000E+00  0.00000000E+00
           kptopt           0
P           mkmem           2
P          mkqmem           2
P          mk1mem           2
            natom           8
            nband          25
           nbdbuf           4
            ngfft          45      54      72
             nkpt           2
            nstep        2000
             nsym           4
           ntypat           3
              occ      2.000000  2.000000  2.000000  2.000000  2.000000  2.000000
                       2.000000  2.000000  2.000000  2.000000  2.000000  2.000000
                       2.000000  2.000000  2.000000  2.000000  0.000000  0.000000
                       0.000000  0.000000  0.000000  0.000000  0.000000  0.000000
                       0.000000
        optdriver           1
            prtwf          -1
            rfdir           1       1       1
           rfelfd           2
            rprim      7.0111824424E+00  0.0000000000E+00  0.0000000000E+00
                       0.0000000000E+00  8.5008302429E+00  1.1227245207E+00
                       0.0000000000E+00  0.0000000000E+00  1.1614485721E+01
          spgroup          11
           strten      0.0000000000E+00  0.0000000000E+00  0.0000000000E+00
                       0.0000000000E+00  0.0000000000E+00  0.0000000000E+00
           symrel      1  0  0   0  1  0   0  0  1      -1  0  0   0 -1  0   0  0 -1
                       1  0  0   0 -1  0   0  0 -1      -1  0  0   0  1  0   0  0  1
            tnons      0.0000000  0.0000000  0.0000000     0.0000000  0.0000000  0.0000000
                       0.5000000  0.0000000  0.0000000     0.5000000  0.0000000  0.0000000
           tolwfr      1.00000000E-20
            typat      1  1  2  2  2  2  3  3
           useylm           1
              wtk        0.50000    0.50000
           xangst      2.7826184653E+00  3.2128933251E+00  1.5845867868E+00
                       9.2753948845E-01  1.2855522936E+00  5.1556545742E+00
                       1.7224668012E+00  8.1135764556E-01  2.3971104432E+00
                       3.5775457780E+00  3.6870879731E+00  4.3431309179E+00
                       1.3261217574E-01  8.1135764556E-01  2.3971104432E+00
                       1.9876911526E+00  3.6870879731E+00  4.3431309179E+00
                       9.2753948845E-01  9.5643251676E-01  1.7518874183E+00
                       2.7826184653E+00  3.5420131019E+00  4.9883539428E+00
            xcart      5.2583868318E+00  6.0714884786E+00  2.9944350608E+00
                       1.7527956106E+00  2.4293417643E+00  9.7427751811E+00
                       3.2549905272E+00  1.5332437459E+00  4.5298822479E+00
                       6.7605817484E+00  6.9675864970E+00  8.2073279940E+00
                       2.5060069404E-01  1.5332437459E+00  4.5298822479E+00
                       3.7561919152E+00  6.9675864970E+00  8.2073279940E+00
                       1.7527956106E+00  1.8073955213E+00  3.3105874362E+00
                       5.2583868318E+00  6.6934347216E+00  9.4266228057E+00
             xred      7.5000000000E-01  7.1422300000E-01  1.8877800000E-01
                       2.5000000000E-01  2.8577700000E-01  8.1122200000E-01
                       4.6425700000E-01  1.8036400000E-01  3.7258500000E-01
                       9.6425700000E-01  8.1963600000E-01  6.2741500000E-01
                       3.5743000000E-02  1.8036400000E-01  3.7258500000E-01
                       5.3574300000E-01  8.1963600000E-01  6.2741500000E-01
                       2.5000000000E-01  2.1261400000E-01  2.6448700000E-01
                       7.5000000000E-01  7.8738600000E-01  7.3551300000E-01
            znucl       19.00000    1.00000    7.00000

- Timing analysis has been suppressed with timopt=0

 Suggested references for the acknowledgment of ABINIT usage.

 Calculation completed.
.Delivered  14 WARNINGs and   9 COMMENTs to log file.