.Version 9.5.1 of ABINIT

 ABINIT is a project of the Universite Catholique de Louvain,
 Corning Inc. and other collaborators, see ~abinit/doc/developers/contributors.txt .
 acknowledgments of the ABINIT effort.

.Starting date : Tue 11 May 2021.
- ( at 21h38 )

- input  file    -> /scratch/users/j/a/jabreu/flow_simple_8atoms/flow/w334/t1/run.abi
- output file    -> /scratch/users/j/a/jabreu/flow_simple_8atoms/flow/w334/t1/run.abo
- root for input  files -> /scratch/users/j/a/jabreu/flow_simple_8atoms/flow/w334/t1/indata/in
- root for output files -> /scratch/users/j/a/jabreu/flow_simple_8atoms/flow/w334/t1/outdata/out

 Symmetries : space group I-4 2 d (#122); Bravais tI (body-center tetrag.)
     intxc =       0      iscf =       7    lmnmax =      18     lnmax =       6
     mgfft =      90  mpssoang =       3    mqgrid =    3001     natom =       8
  nloc_mem =       1    nspden =       1   nspinor =       1    nsppol =       1
      nsym =       8    n1xccc =    2501    ntypat =       3    occopt =       1
   xclevel =       2
-    mband =          57        mffmem =           1         mkmem =           1
-   mkqmem =           1        mk1mem =           1           mpw =       18813
      nfft =      729000          nkpt =           1
  Rough estimation (10% accuracy) of disk space for files :

------------- Echo of variables that govern the present computation ------------
-
- outvars: echo of selected default values
-   iomode0 =  0 , fftalg0 =512 , wfoptalg0 =  0
-
- outvars: echo of global parameters not present in the input file
-  max_nthreads =    0
-
 -outvars: echo values of preprocessed input variables --------
            acell      1.0000000000E+00  1.0000000000E+00  1.0000000000E+00 Bohr
              amu      6.94100000E+00  1.14820000E+02  7.89600000E+01
             ecut      4.30000000E+01 Hartree
-          fftalg         512
           irdden           1
           irdwfk           1
           istwfk        1
              ixc     -116133
           kptopt           0
P           mkmem           1
P          mkqmem           1
P          mk1mem           1
            natom           8
            nband          57
           nbdbuf           4
            ngfft          90      90      90
             nkpt           1
            nstep        2000
             nsym           8
           ntypat           3
              occ      2.000000  2.000000  2.000000  2.000000  2.000000  2.000000
                       2.000000  2.000000  2.000000  2.000000  2.000000  2.000000
                       2.000000  2.000000  2.000000  2.000000  2.000000  2.000000
                       2.000000  2.000000  2.000000  2.000000  2.000000  2.000000
                       2.000000  2.000000  2.000000  2.000000  2.000000  2.000000
                       2.000000  2.000000  2.000000  2.000000  2.000000  2.000000
                       2.000000  2.000000  2.000000  2.000000  2.000000  2.000000
                       2.000000  2.000000  2.000000  2.000000  2.000000  2.000000
                       0.000000  0.000000  0.000000  0.000000  0.000000  0.000000
                       0.000000  0.000000  0.000000
        optdriver           1
            prtwf          -1
            rfdir           1       1       1
           rfelfd           2
            rprim      1.0234838061E+01  0.0000000000E+00 -8.9646533987E+00
                      -2.1045710613E+00  1.0016121544E+01 -8.9646533987E+00
                       0.0000000000E+00  0.0000000000E+00  1.3605767920E+01
          spgroup         122
           symrel      1  0  0   0  1  0   0  0  1       0  0  1  -1 -1 -1   1  0  0
                       0  1  0   1  0  0  -1 -1 -1      -1 -1 -1   0  0  1   0  1  0
                       0  1  0   1  0  0   0  0  1       0  0  1  -1 -1 -1   0  1  0
                       1  0  0   0  1  0  -1 -1 -1      -1 -1 -1   0  0  1   1  0  0
            tnons      0.0000000  0.0000000  0.0000000    -0.2500000  0.2500000  0.5000000
                       0.0000000 -0.0000000 -0.0000000    -0.2500000  0.2500000  0.5000000
                      -0.2500000  0.2500000  0.5000000    -0.0000000 -0.0000000 -0.0000000
                      -0.2500000  0.2500000  0.5000000     0.0000000 -0.0000000  0.0000000
           tolwfr      1.00000000E-20
            typat      1  1  2  2  3  3  3  3
           useylm           1
           xangst      5.1874247921E-01  3.9752274295E+00 -1.1439591172E+00
                       2.1511759979E+00  2.6501516197E+00 -4.7438902615E+00
                       0.0000000000E+00  0.0000000000E+00  0.0000000000E+00
                       3.7836095166E+00  1.3250758098E+00 -1.1439591172E+00
                       5.8986383722E-01  6.6253790492E-01  2.4375702940E+00
                       4.3106964904E+00  2.0385708301E+00 -5.9062511118E+00
                       2.6369001597E+00  3.3126895246E+00 -2.3535433977E+00
                       1.0672435043E+00  4.5868082191E+00  1.2463877466E+00
            xcart      9.8028121920E-01  7.5120911578E+00 -2.1617694388E+00
                       4.0651334997E+00  5.0080607718E+00 -8.9646533987E+00
                       0.0000000000E+00  0.0000000000E+00  0.0000000000E+00
                       7.1499857802E+00  2.5040303859E+00 -2.1617694388E+00
                       1.1146811080E+00  1.2520151930E+00  4.6063402852E+00
                       8.1460358089E+00  3.8523405714E+00 -1.1161197073E+01
                       4.9830191415E+00  6.2600759648E+00 -4.4475524635E+00
                       2.0167979403E+00  8.6678113582E+00  2.3553314964E+00
             xred      2.5000000000E-01  7.5000000000E-01  5.0000000000E-01
                       5.0000000000E-01  5.0000000000E-01  0.0000000000E+00
                       0.0000000000E+00  0.0000000000E+00  0.0000000000E+00
                       7.5000000000E-01  2.5000000000E-01  5.0000000000E-01
                       1.3461400000E-01  1.2500000000E-01  5.0961400000E-01
                       8.7500000000E-01  3.8461400000E-01  9.6140000000E-03
                       6.1538600000E-01  6.2500000000E-01  4.9038600000E-01
                       3.7500000000E-01  8.6538600000E-01  9.9038600000E-01
            znucl        3.00000   49.00000   34.00000

 chkinp: Checking input parameters for consistency.

== DATASET  1 ==================================================================
-   mpi_nproc: 1, omp_nthreads: -1 (-1 if OMP is not activated)

--- !DatasetInfo
iteration_state: {dtset: 1, }
dimensions: {natom: 8, nkpt: 1, mband: 57, nsppol: 1, nspinor: 1, nspden: 1, mpw: 18813, }
cutoff_energies: {ecut:  43.0, pawecutdg:  -1.0, }
electrons: {nelect:   9.60000000E+01, charge:   0.00000000E+00, occopt:   1.00000000E+00, tsmear:   1.00000000E-02, }
meta: {optdriver: 1, rfelfd: 2, }
...

 Real(R)+Recip(G) space primitive vectors, cartesian coordinates (Bohr,Bohr^-1):
 R(1)= 10.2348381  0.0000000 -8.9646534  G(1)=  0.0977055  0.0205297  0.0000000
 R(2)= -2.1045711 10.0161215 -8.9646534  G(2)=  0.0000000  0.0998390  0.0000000
 R(3)=  0.0000000  0.0000000 13.6057679  G(3)=  0.0643768  0.0793093  0.0734982
 Unit cell volume ucvol=  1.3947733E+03 bohr^3
 Angles (23,13,12)=  1.31214987E+02  1.31214987E+02  7.14717315E+01 degrees

 getcut: wavevector=  0.0000  0.0000  0.0000  ngfft=  90  90  90
         ecut(hartree)=     43.000   => boxcut(ratio)=   2.24119

 getcut : COMMENT -
  Note that boxcut > 2.2 ; recall that boxcut=Gcut(box)/Gcut(sphere) = 2
  is sufficient for exact treatment of convolution.
  Such a large boxcut is a waste : you could raise ecut
  e.g. ecut=   53.996501 Hartrees makes boxcut=2

--- Pseudopotential description ------------------------------------------------
- pspini: atom type   1  psp file is /scratch/users/j/a/jabreu/pseudos/PBEsol/Li.psp8
- pspatm: opening atomic psp file    /scratch/users/j/a/jabreu/pseudos/PBEsol/Li.psp8
- Li    ONCVPSP-3.3.0  r_core=   1.40824   1.10935
-  3.00000   3.00000    180112                znucl, zion, pspdat
    8 -116133    1    4       400   0.00000   pspcod,pspxc,lmax,lloc,mmax,r2well
    3.99000000000000    0.00000000000000    0.00000000000000   rchrg,fchrg,qchrg
     nproj     2     2
     extension_switch     1
  pspatm : epsatm=    2.60859637
         --- l  ekb(1:nproj) -->
             0   -4.855856   -1.482423
             1   -2.171544   -0.427615
 pspatm: atomic psp has been read  and splines computed

- pspini: atom type   2  psp file is /scratch/users/j/a/jabreu/pseudos/PBEsol/In.psp8
- pspatm: opening atomic psp file    /scratch/users/j/a/jabreu/pseudos/PBEsol/In.psp8
- In    ONCVPSP-3.3.0  r_core=   2.10853   2.37566   1.87143
- 49.00000  13.00000    180112                znucl, zion, pspdat
    8 -116133    2    4       600   0.00000   pspcod,pspxc,lmax,lloc,mmax,r2well
    5.99000000000000    5.00000000000000    0.00000000000000   rchrg,fchrg,qchrg
     nproj     2     2     2
     extension_switch     1
  pspatm : epsatm=   25.17984752
         --- l  ekb(1:nproj) -->
             0   12.999887    1.931740
             1    5.981707    1.012544
             2   -4.048011   -1.239028
 pspatm: atomic psp has been read  and splines computed

- pspini: atom type   3  psp file is /scratch/users/j/a/jabreu/pseudos/PBEsol/Se.psp8
- pspatm: opening atomic psp file    /scratch/users/j/a/jabreu/pseudos/PBEsol/Se.psp8
- Se    ONCVPSP-3.3.0  r_core=   1.81943   1.50330   1.90835
- 34.00000  16.00000    180112                znucl, zion, pspdat
    8 -116133    2    4       600   0.00000   pspcod,pspxc,lmax,lloc,mmax,r2well
    5.99000000000000    5.00000000000000    0.00000000000000   rchrg,fchrg,qchrg
     nproj     2     2     2
     extension_switch     1
  pspatm : epsatm=   29.17862020
         --- l  ekb(1:nproj) -->
             0    8.973804    1.019550
             1    6.849857    1.297308
             2   -9.203962   -3.731027
 pspatm: atomic psp has been read  and splines computed

   1.65399714E+04                                ecore*ucvol(ha*bohr**3)

-inwffil : will read wavefunctions from disk file /scratch/users/j/a/jabreu/flow_simple_8atoms/flow/w334/t1/indata/in_WFK

 ==>  initialize data related to q vector <==

 The list of irreducible perturbations for this q vector is:
    1)    idir= 1    ipert=   9
    2)    idir= 2    ipert=   9
    3)    idir= 3    ipert=   9

 Perturbation wavevector (in red.coord.)   0.000000  0.000000  0.000000
 Perturbation : derivative vs k along direction   1

 dfpt_looppert : COMMENT -
  In a d/dk calculation, iscf is set to -3 automatically.
 The set of symmetries contains only one element for this perturbation.
 symkpt : not enough symmetry to change the number of k points.

[...]

 Initialisation of the first-order wave-functions :
  ireadwf=   0

--- !BeginCycle
iteration_state: {dtset: 1, }
solver: {iscf: 7, nstep: 2000, nline: 4, wfoptalg: 0, }
tolerances: {tolwfr: 1.00E-20, }
...

     iter   2DEtotal(Ha)        deltaE(Ha) residm    vres2
-ETOT  1  -93.824328625085     -9.382E+01 2.017E-01 0.000E+00
 ETOT  2  -93.912781425696     -8.845E-02 1.243E-02 0.000E+00
 ETOT  3  -93.913452257920     -6.708E-04 1.318E-03 0.000E+00
 ETOT  4  -93.913466580148     -1.432E-05 9.808E-05 0.000E+00
 ETOT  5  -93.913467030886     -4.507E-07 1.576E-05 0.000E+00
 ETOT  6  -93.913467056322     -2.544E-08 1.233E-06 0.000E+00
 ETOT  7  -93.913467058397     -2.075E-09 2.057E-07 0.000E+00
 ETOT  8  -93.913467058592     -1.949E-10 1.677E-08 0.000E+00
 ETOT  9  -93.913467058611     -1.882E-11 2.832E-09 0.000E+00
 ETOT 10  -93.913467058613     -1.862E-12 2.399E-10 0.000E+00
 ETOT 11  -93.913467058613     -1.279E-13 4.094E-11 0.000E+00
 ETOT 12  -93.913467058613      0.000E+00 3.617E-12 0.000E+00
 ETOT 13  -93.913467058613      1.421E-14 6.251E-13 0.000E+00
 ETOT 14  -93.913467058613     -4.263E-14 5.779E-14 0.000E+00
 ETOT 15  -93.913467058613     -1.421E-14 1.012E-14 0.000E+00
 ETOT 16  -93.913467058613      2.842E-14 9.794E-16 0.000E+00
 ETOT 17  -93.913467058613     -2.842E-14 1.736E-16 0.000E+00
 ETOT 18  -93.913467058613      4.263E-14 1.746E-17 0.000E+00
 ETOT 19  -93.913467058613     -2.842E-14 3.119E-18 0.000E+00
 ETOT 20  -93.913467058613      0.000E+00 3.228E-19 0.000E+00
 ETOT 21  -93.913467058613     -1.421E-14 5.791E-20 0.000E+00
 ETOT 22  -93.913467058613     -1.421E-14 9.984E-21 0.000E+00

 At SCF step   22   max residual=  9.98E-21 < tolwfr=  1.00E-20 =>converged.

 ----iterations are completed or convergence reached----

 dfpt_looppert: DFPT cycle converged with prtwf=-1. Will skip output of the 1st-order WFK file.
 dfpt_looppert : ek2=    7.5554753579E+01
          f-sum rule ratio=    1.0893282361E+00
 prteigrs : about to open file /scratch/users/j/a/jabreu/flow_simple_8atoms/flow/w334/t1/tmpdata/tmp_1WF1_EIG
 Expectation of eigenvalue derivatives (hartree) for nkpt=   1  k points:
  (in case of degenerate eigenvalues, averaged derivative)
 kpt#   1, nband= 57, wtk=  1.00000, kpt=  0.0000  0.0000  0.0000 (reduced coord)
   0.00000   -0.00000   -0.00000   -0.00000    0.00000    0.00000    0.00000    0.00000
   0.00000   -0.00000   -0.00000   -0.00000   -0.00000    0.00000    0.00000    0.00000
   0.00000    0.00000    0.00000    0.00000   -0.00000   -0.00000   -0.00000    0.00000
   0.00000    0.00000   -0.00000   -0.00000    0.00000    0.00000    0.00000    0.00000
  -0.00000    0.00000    0.00000    0.00000    0.00000    0.00000   -0.00000   -0.00000
   0.00000   -0.00000   -0.00000    0.00000    0.00000   -0.00000   -0.00000    0.00000
   0.00000   -0.00000   -0.00000   -0.00000   -0.00000   -0.00000   -0.00000   -0.00000
  -0.00000

 Eight components of 2nd-order total energy (hartree) are
 1,2,3: 0th-order hamiltonian combined with 1st-order wavefunctions
     kin0=   9.86127687E+01 eigvalue=   1.63042834E+01  local=  -4.46085001E+01
 4,5,6: 1st-order hamiltonian combined with 1st and 0th-order wfs
     kin1=  -8.23039264E+01  Hartree=   0.00000000E+00     xc=   0.00000000E+00
 7,8,9: eventually, occupation + non-local contributions
    edocc=   1.18966360E+01     enl0=   1.17082791E+01   enl1=  -1.05523008E+02
 1-9 gives the relaxation energy (to be shifted if some occ is /=2.0)
   erelax=  -9.39134671E+01
  No Ewald or frozen-wf contrib.: the relaxation energy is the total one
 2DEtotal=   -0.9391346706E+02 Ha. Also 2DEtotal=   -0.255551540176E+04 eV
    (  non-var. 2DEtotal :   -9.3913467058E+01 Ha)

 Perturbation wavevector (in red.coord.)   0.000000  0.000000  0.000000
 Perturbation : derivative vs k along direction   2
 The set of symmetries contains only one element for this perturbation.
 symkpt : not enough symmetry to change the number of k points.

[...]

 Perturbation wavevector (in red.coord.)   0.000000  0.000000  0.000000
 Perturbation : derivative vs k along direction   3
 The set of symmetries contains only one element for this perturbation.
 symkpt : not enough symmetry to change the number of k points.

-inwffil : will read wavefunctions from disk file /scratch/users/j/a/jabreu/flow_simple_8atoms/flow/w334/t1/indata/in_WFK

 Initialisation of the first-order wave-functions :
  ireadwf=   0

--- !BeginCycle
iteration_state: {dtset: 1, }
solver: {iscf: 7, nstep: 2000, nline: 4, wfoptalg: 0, }
tolerances: {tolwfr: 1.00E-20, }
...

     iter   2DEtotal(Ha)        deltaE(Ha) residm    vres2
-ETOT  1  -149.73939188017     -1.497E+02 1.179E-01 0.000E+00
 ETOT  2  -149.86711299758     -1.277E-01 1.186E-02 0.000E+00
 ETOT  3  -149.86773619859     -6.232E-04 2.889E-04 0.000E+00
 ETOT  4  -149.86774758277     -1.138E-05 5.172E-05 0.000E+00
 ETOT  5  -149.86774801837     -4.356E-07 1.386E-06 0.000E+00
 ETOT  6  -149.86774805215     -3.379E-08 2.971E-07 0.000E+00
 ETOT  7  -149.86774805526     -3.105E-09 9.066E-09 0.000E+00
 ETOT  8  -149.86774805556     -2.957E-10 1.999E-09 0.000E+00
 ETOT  9  -149.86774805558     -2.871E-11 6.789E-11 0.000E+00
 ETOT 10  -149.86774805559     -2.842E-12 1.509E-11 0.000E+00
 ETOT 11  -149.86774805559     -1.990E-13 5.573E-13 0.000E+00
 ETOT 12  -149.86774805559      2.842E-14 1.248E-13 0.000E+00
 ETOT 13  -149.86774805559      2.842E-14 4.900E-15 0.000E+00
 ETOT 14  -149.86774805559     -5.684E-14 1.101E-15 0.000E+00
 ETOT 15  -149.86774805559     -5.684E-14 4.504E-17 0.000E+00
 ETOT 16  -149.86774805559      0.000E+00 1.015E-17 0.000E+00
 ETOT 17  -149.86774805559      5.684E-14 4.259E-19 0.000E+00
 ETOT 18  -149.86774805559     -1.137E-13 9.645E-20 0.000E+00
 ETOT 19  -149.86774805559      0.000E+00 9.820E-21 0.000E+00

 At SCF step   19   max residual=  9.82E-21 < tolwfr=  1.00E-20 =>converged.

 ----iterations are completed or convergence reached----

 dfpt_looppert: DFPT cycle converged with prtwf=-1. Will skip output of the 1st-order WFK file.
 dfpt_looppert : ek2=    1.2003713513E+02
          f-sum rule ratio=    1.0997156940E+00
 prteigrs : about to open file /scratch/users/j/a/jabreu/flow_simple_8atoms/flow/w334/t1/tmpdata/tmp_1WF1_EIG
 Expectation of eigenvalue derivatives (hartree) for nkpt=   1  k points:
  (in case of degenerate eigenvalues, averaged derivative)
 kpt#   1, nband= 57, wtk=  1.00000, kpt=  0.0000  0.0000  0.0000 (reduced coord)
   0.00000   -0.00000   -0.00000   -0.00000   -0.00000    0.00000    0.00000    0.00000
   0.00000   -0.00000   -0.00000   -0.00000   -0.00000    0.00000    0.00000    0.00000
   0.00000    0.00000    0.00000    0.00000   -0.00000   -0.00000   -0.00000    0.00000
   0.00000    0.00000    0.00000    0.00000    0.00000    0.00000    0.00000    0.00000
   0.00000    0.00000    0.00000   -0.00000    0.00000   -0.00000    0.00000    0.00000
  -0.00000    0.00000   -0.00000    0.00000    0.00000   -0.00000   -0.00000    0.00000
   0.00000   -0.00000    0.00000    0.00000    0.00000   -0.00000   -0.00000   -0.00000
  -0.00000

 Eight components of 2nd-order total energy (hartree) are
 1,2,3: 0th-order hamiltonian combined with 1st-order wavefunctions
     kin0=   1.55894961E+02 eigvalue=   2.59320539E+01  local=  -7.04889650E+01
 4,5,6: 1st-order hamiltonian combined with 1st and 0th-order wfs
     kin1=  -1.32006721E+02  Hartree=   0.00000000E+00     xc=   0.00000000E+00
 7,8,9: eventually, occupation + non-local contributions
    edocc=   1.99095566E+01     enl0=   1.86201416E+01   enl1=  -1.67728775E+02
 1-9 gives the relaxation energy (to be shifted if some occ is /=2.0)
   erelax=  -1.49867748E+02
  No Ewald or frozen-wf contrib.: the relaxation energy is the total one
 2DEtotal=   -0.1498677481E+03 Ha. Also 2DEtotal=   -0.407810882057E+04 eV
    (  non-var. 2DEtotal :   -1.4986774806E+02 Ha)

 CALCULATION OF EFFECTIVE MASSES
 NOTE : Additional infos (eff. mass eigenvalues, eigenvectors and, if degenerate, average mass) are available in stdout.

 K-point ( 0.000, 0.000, 0.000) | band =    48
 Effective mass tensor:
             -0.7201310064              0.0974763874             -0.1744875210
              0.0974763874             -0.6791684526             -0.2149600894
             -0.1744875210             -0.2149600894             -0.4144654826
 Effective mass tensor eigenvalues:
             -0.7992545955             -0.7992545928             -0.2152557533
 Angular average effective mass 1/(<1/m>)=  -0.4196996883
 Angular average effective mass for Frohlich model (<m**0.5>)**2=  -0.4779292580
 Effective masses along directions: (cart. coord. / red. coord. -> eff. mass)
    1:   1.000000  0.000000  0.000000 /   0.979506 -0.201414  0.000000 ->  -0.5844301076
    2:   0.000000  1.000000  0.000000 /   0.000000  1.000000  0.000000 ->  -0.5130410258
    3:   0.000000  0.000000  1.000000 /  -0.482049 -0.482049  0.731612 ->  -0.2867188101
    4:   0.577350  0.577350  0.577350 /   0.092677 -0.076838  0.992727 ->  -0.7991847979
    5:   0.000000  0.707107  0.707107 /  -0.549052  0.064399  0.833303 ->  -0.6807340221
    6:   0.707107  0.000000  0.707107 /   0.072228 -0.629443  0.773682 ->  -0.6308347725
    7:   0.707107  0.707107  0.000000 /   0.791180  0.611584  0.000000 ->  -0.4172415943

 K-point ( 0.000, 0.000, 0.000) | band =    49
 Effective mass tensor:
              0.2010674393              0.0020230828             -0.0036214089
              0.0020230828              0.2019176129             -0.0044614121
             -0.0036214089             -0.0044614121              0.2074113942
 Effective mass tensor eigenvalues:
              0.1994252664              0.1994252664              0.2115459136
 Angular average effective mass 1/(<1/m>)=   0.2033081530
 Angular average effective mass for Frohlich model (<m**0.5>)**2=   0.2033548508
 Effective masses along directions: (cart. coord. / red. coord. -> eff. mass)
    1:   1.000000  0.000000  0.000000 /   0.979506 -0.201414  0.000000 ->   0.2009854614
    2:   0.000000  1.000000  0.000000 /   0.000000  1.000000  0.000000 ->   0.2018028239
    3:   0.000000  0.000000  1.000000 /  -0.482049 -0.482049  0.731612 ->   0.2072491873
    4:   0.577350  0.577350  0.577350 /   0.092677 -0.076838  0.992727 ->   0.1994256343
    5:   0.000000  0.707107  0.707107 /  -0.549052  0.064399  0.833303 ->   0.2001612315
    6:   0.707107  0.000000  0.707107 /   0.072228 -0.629443  0.773682 ->   0.2005560446
    7:   0.707107  0.707107  0.000000 /   0.791180  0.611584  0.000000 ->   0.2033572776

 END OF EFFECTIVE MASSES SECTION

 ---- first-order wavefunction calculations are completed ----

 Total localisation tensor (bohr^2) in cartesian coordinates
  WARNING : still subject to testing - especially symmetries.
      direction              matrix element
   alpha     beta       real part   imaginary part
     1        1       1.7700624028    0.0000000000
     1        2      -0.3417463578    0.0000000000
     1        3      -1.1816242450    0.0000000000
     2        1      -0.3417463578    0.0000000000
     2        2       1.6264468895    0.0000000000
     2        3      -1.4557064401    0.0000000000
     3        1      -1.1816242450    0.0000000000
     3        2      -1.4557064401    0.0000000000
     3        3       7.4557745351    0.0000000000

 respfn : d/dk was computed, but no 2DTE, so no DDB output.

== END DATASET(S) ==============================================================

 -outvars: echo values of variables after computation  --------
            acell      1.0000000000E+00  1.0000000000E+00  1.0000000000E+00 Bohr
              amu      6.94100000E+00  1.14820000E+02  7.89600000E+01
             ecut      4.30000000E+01 Hartree
           etotal     -1.4986774806E+02
            fcart      0.0000000000E+00  0.0000000000E+00  0.0000000000E+00
                       0.0000000000E+00  0.0000000000E+00  0.0000000000E+00
                       0.0000000000E+00  0.0000000000E+00  0.0000000000E+00
                       0.0000000000E+00  0.0000000000E+00  0.0000000000E+00
                       0.0000000000E+00  0.0000000000E+00  0.0000000000E+00
                       0.0000000000E+00  0.0000000000E+00  0.0000000000E+00
                       0.0000000000E+00  0.0000000000E+00  0.0000000000E+00
                       0.0000000000E+00  0.0000000000E+00  0.0000000000E+00
-          fftalg         512
           irdden           1
           irdwfk           1
           istwfk        1
              ixc     -116133
           kptopt           0
P           mkmem           1
P          mkqmem           1
P          mk1mem           1
            natom           8
            nband          57
           nbdbuf           4
            ngfft          90      90      90
             nkpt           1
            nstep        2000
             nsym           8
           ntypat           3
              occ      2.000000  2.000000  2.000000  2.000000  2.000000  2.000000
                       2.000000  2.000000  2.000000  2.000000  2.000000  2.000000
                       2.000000  2.000000  2.000000  2.000000  2.000000  2.000000
                       2.000000  2.000000  2.000000  2.000000  2.000000  2.000000
                       2.000000  2.000000  2.000000  2.000000  2.000000  2.000000
                       2.000000  2.000000  2.000000  2.000000  2.000000  2.000000
                       2.000000  2.000000  2.000000  2.000000  2.000000  2.000000
                       2.000000  2.000000  2.000000  2.000000  2.000000  2.000000
                       0.000000  0.000000  0.000000  0.000000  0.000000  0.000000
                       0.000000  0.000000  0.000000
        optdriver           1
            prtwf          -1
            rfdir           1       1       1
           rfelfd           2
            rprim      1.0234838061E+01  0.0000000000E+00 -8.9646533987E+00
                      -2.1045710613E+00  1.0016121544E+01 -8.9646533987E+00
                       0.0000000000E+00  0.0000000000E+00  1.3605767920E+01
          spgroup         122
           strten      0.0000000000E+00  0.0000000000E+00  0.0000000000E+00
                       0.0000000000E+00  0.0000000000E+00  0.0000000000E+00
           symrel      1  0  0   0  1  0   0  0  1       0  0  1  -1 -1 -1   1  0  0
                       0  1  0   1  0  0  -1 -1 -1      -1 -1 -1   0  0  1   0  1  0
                       0  1  0   1  0  0   0  0  1       0  0  1  -1 -1 -1   0  1  0
                       1  0  0   0  1  0  -1 -1 -1      -1 -1 -1   0  0  1   1  0  0
            tnons      0.0000000  0.0000000  0.0000000    -0.2500000  0.2500000  0.5000000
                       0.0000000 -0.0000000 -0.0000000    -0.2500000  0.2500000  0.5000000
                      -0.2500000  0.2500000  0.5000000    -0.0000000 -0.0000000 -0.0000000
                      -0.2500000  0.2500000  0.5000000     0.0000000 -0.0000000  0.0000000
           tolwfr      1.00000000E-20
            typat      1  1  2  2  3  3  3  3
           useylm           1
           xangst      5.1874247921E-01  3.9752274295E+00 -1.1439591172E+00
                       2.1511759979E+00  2.6501516197E+00 -4.7438902615E+00
                       0.0000000000E+00  0.0000000000E+00  0.0000000000E+00
                       3.7836095166E+00  1.3250758098E+00 -1.1439591172E+00
                       5.8986383722E-01  6.6253790492E-01  2.4375702940E+00
                       4.3106964904E+00  2.0385708301E+00 -5.9062511118E+00
                       2.6369001597E+00  3.3126895246E+00 -2.3535433977E+00
                       1.0672435043E+00  4.5868082191E+00  1.2463877466E+00
            xcart      9.8028121920E-01  7.5120911578E+00 -2.1617694388E+00
                       4.0651334997E+00  5.0080607718E+00 -8.9646533987E+00
                       0.0000000000E+00  0.0000000000E+00  0.0000000000E+00
                       7.1499857802E+00  2.5040303859E+00 -2.1617694388E+00
                       1.1146811080E+00  1.2520151930E+00  4.6063402852E+00
                       8.1460358089E+00  3.8523405714E+00 -1.1161197073E+01
                       4.9830191415E+00  6.2600759648E+00 -4.4475524635E+00
                       2.0167979403E+00  8.6678113582E+00  2.3553314964E+00
             xred      2.5000000000E-01  7.5000000000E-01  5.0000000000E-01
                       5.0000000000E-01  5.0000000000E-01  0.0000000000E+00
                       0.0000000000E+00  0.0000000000E+00  0.0000000000E+00
                       7.5000000000E-01  2.5000000000E-01  5.0000000000E-01
                       1.3461400000E-01  1.2500000000E-01  5.0961400000E-01
                       8.7500000000E-01  3.8461400000E-01  9.6140000000E-03
                       6.1538600000E-01  6.2500000000E-01  4.9038600000E-01
                       3.7500000000E-01  8.6538600000E-01  9.9038600000E-01
            znucl        3.00000   49.00000   34.00000

- Timing analysis has been suppressed with timopt=0

 Suggested references for the acknowledgment of ABINIT usage.

 Calculation completed.
.Delivered   6 WARNINGs and  11 COMMENTs to log file.