.Version 9.5.1 of ABINIT

 ABINIT is a project of the Universite Catholique de Louvain,
 Corning Inc. and other collaborators, see ~abinit/doc/developers/contributors.txt .
 acknowledgments of the ABINIT effort.

.Starting date : Wed 19 May 2021.
- ( at 03h13 )

- input  file    -> /scratch/users/j/a/jabreu/flow_simple_8atoms/flow/w476/t1/run.abi
- output file    -> /scratch/users/j/a/jabreu/flow_simple_8atoms/flow/w476/t1/run.abo
- root for input  files -> /scratch/users/j/a/jabreu/flow_simple_8atoms/flow/w476/t1/indata/in
- root for output files -> /scratch/users/j/a/jabreu/flow_simple_8atoms/flow/w476/t1/outdata/out

 Symmetries : space group P4/m b m (#127); Bravais tP (primitive tetrag.)
     intxc =       0      iscf =       7    lmnmax =      25     lnmax =       7
     mgfft =      90  mpssoang =       4    mqgrid =    4270     natom =       8
  nloc_mem =       1    nspden =       1   nspinor =       1    nsppol =       1
      nsym =      16    n1xccc =    2501    ntypat =       3    occopt =       1
   xclevel =       2
-    mband =          69        mffmem =           1         mkmem =           2
-   mkqmem =           2        mk1mem =           2           mpw =       19701
      nfft =      364500          nkpt =           2
  Rough estimation (10% accuracy) of disk space for files :

------------- Echo of variables that govern the present computation ------------
-
- outvars: echo of selected default values
-   iomode0 =  0 , fftalg0 =512 , wfoptalg0 =  0
-
- outvars: echo of global parameters not present in the input file
-  max_nthreads =    0
-
 -outvars: echo values of preprocessed input variables --------
            acell      1.0000000000E+00  1.0000000000E+00  1.0000000000E+00 Bohr
              amu      3.90983000E+01  1.96966540E+02  7.89600000E+01
             ecut      4.30000000E+01 Hartree
-          fftalg         512
           irdden           1
           irdwfk           1
           istwfk        1    0
              ixc     -116133
              kpt      0.00000000E+00  0.00000000E+00  0.00000000E+00
                       5.00000000E-01  5.00000000E-01  2.11538461E-01
           kptopt           0
P           mkmem           2
P          mkqmem           2
P          mk1mem           2
            natom           8
            nband          69
           nbdbuf           4
            ngfft          90      90      45
             nkpt           2
            nstep        2000
             nsym          16
           ntypat           3
              occ      2.000000  2.000000  2.000000  2.000000  2.000000  2.000000
                       2.000000  2.000000  2.000000  2.000000  2.000000  2.000000
                       2.000000  2.000000  2.000000  2.000000  2.000000  2.000000
                       2.000000  2.000000  2.000000  2.000000  2.000000  2.000000
                       2.000000  2.000000  2.000000  2.000000  2.000000  2.000000
                       2.000000  2.000000  2.000000  2.000000  2.000000  2.000000
                       2.000000  2.000000  2.000000  2.000000  2.000000  2.000000
                       2.000000  2.000000  2.000000  2.000000  2.000000  2.000000
                       2.000000  2.000000  2.000000  2.000000  2.000000  2.000000
                       2.000000  2.000000  2.000000  2.000000  2.000000  2.000000
                       0.000000  0.000000  0.000000  0.000000  0.000000  0.000000
                       0.000000  0.000000  0.000000
        optdriver           1
            prtwf          -1
            rfdir           1       1       1
           rfelfd           2
            rprim      1.4462518212E+01  0.0000000000E+00  0.0000000000E+00
                       0.0000000000E+00  1.4462518212E+01  0.0000000000E+00
                       0.0000000000E+00  0.0000000000E+00  6.9792194258E+00
          spgroup         127
           symrel      1  0  0   0  1  0   0  0  1      -1  0  0   0 -1  0   0  0 -1
                      -1  0  0   0  1  0   0  0 -1       1  0  0   0 -1  0   0  0  1
                      -1  0  0   0 -1  0   0  0  1       1  0  0   0  1  0   0  0 -1
                       1  0  0   0 -1  0   0  0 -1      -1  0  0   0  1  0   0  0  1
                       0  1  0   1  0  0   0  0  1       0 -1  0  -1  0  0   0  0 -1
                       0 -1  0   1  0  0   0  0 -1       0  1  0  -1  0  0   0  0  1
                       0 -1  0  -1  0  0   0  0  1       0  1  0   1  0  0   0  0 -1
                       0  1  0  -1  0  0   0  0 -1       0 -1  0   1  0  0   0  0  1
            tnons      0.0000000  0.0000000  0.0000000     0.0000000  0.0000000  0.0000000
                       0.5000000  0.5000000  0.0000000     0.5000000  0.5000000  0.0000000
                       0.0000000  0.0000000  0.0000000     0.0000000  0.0000000  0.0000000
                       0.5000000  0.5000000  0.0000000     0.5000000  0.5000000  0.0000000
                       0.5000000  0.5000000  0.0000000     0.5000000  0.5000000  0.0000000
                       0.0000000  0.0000000  0.0000000     0.0000000  0.0000000  0.0000000
                       0.5000000  0.5000000  0.0000000     0.5000000  0.5000000  0.0000000
                       0.0000000  0.0000000  0.0000000     0.0000000  0.0000000  0.0000000
           tolwfr      1.00000000E-20
            typat      1  1  2  2  3  3  3  3
           useylm           1
              wtk        0.50000    0.50000
           xangst      3.8266175083E+00  3.8266175083E+00  0.0000000000E+00
                       0.0000000000E+00  0.0000000000E+00  0.0000000000E+00
                       0.0000000000E+00  3.8266175083E+00  0.0000000000E+00
                       3.8266175083E+00  0.0000000000E+00  0.0000000000E+00
                       2.6557031637E+00  1.1709143446E+00  1.8466219269E+00
                       6.4823206720E+00  2.6557031637E+00  1.8466219269E+00
                       1.1709143446E+00  4.9975318529E+00  1.8466219269E+00
                       4.9975318529E+00  6.4823206720E+00  1.8466219269E+00
            xcart      7.2312591060E+00  7.2312591060E+00  0.0000000000E+00
                       0.0000000000E+00  0.0000000000E+00  0.0000000000E+00
                       0.0000000000E+00  7.2312591060E+00  0.0000000000E+00
                       7.2312591060E+00  0.0000000000E+00  0.0000000000E+00
                       5.0185516696E+00  2.2127074363E+00  3.4896097129E+00
                       1.2249810776E+01  5.0185516696E+00  3.4896097129E+00
                       2.2127074363E+00  9.4439665423E+00  3.4896097129E+00
                       9.4439665423E+00  1.2249810776E+01  3.4896097129E+00
             xred      5.0000000000E-01  5.0000000000E-01  0.0000000000E+00
                       0.0000000000E+00  0.0000000000E+00  0.0000000000E+00
                       0.0000000000E+00  5.0000000000E-01  0.0000000000E+00
                       5.0000000000E-01  0.0000000000E+00  0.0000000000E+00
                       3.4700400000E-01  1.5299600000E-01  5.0000000000E-01
                       8.4700400000E-01  3.4700400000E-01  5.0000000000E-01
                       1.5299600000E-01  6.5299600000E-01  5.0000000000E-01
                       6.5299600000E-01  8.4700400000E-01  5.0000000000E-01
            znucl       19.00000   79.00000   34.00000

 chkinp: Checking input parameters for consistency.

== DATASET  1 ==================================================================
-   mpi_nproc: 1, omp_nthreads: -1 (-1 if OMP is not activated)

--- !DatasetInfo
iteration_state: {dtset: 1, }
dimensions: {natom: 8, nkpt: 2, mband: 69, nsppol: 1, nspinor: 1, nspden: 1, mpw: 19701, }
cutoff_energies: {ecut:  43.0, pawecutdg:  -1.0, }
electrons: {nelect:   1.20000000E+02, charge:   0.00000000E+00, occopt:   1.00000000E+00, tsmear:   1.00000000E-02, }
meta: {optdriver: 1, rfelfd: 2, }
...

 Real(R)+Recip(G) space primitive vectors, cartesian coordinates (Bohr,Bohr^-1):
 R(1)= 14.4625182  0.0000000  0.0000000  G(1)=  0.0691443  0.0000000  0.0000000
 R(2)=  0.0000000 14.4625182  0.0000000  G(2)=  0.0000000  0.0691443  0.0000000
 R(3)=  0.0000000  0.0000000  6.9792194  G(3)=  0.0000000  0.0000000  0.1432825
 Unit cell volume ucvol=  1.4598045E+03 bohr^3
 Angles (23,13,12)=  9.00000000E+01  9.00000000E+01  9.00000000E+01 degrees

 getcut: wavevector=  0.0000  0.0000  0.0000  ngfft=  90  90  45
         ecut(hartree)=     43.000   => boxcut(ratio)=   2.10814

--- Pseudopotential description ------------------------------------------------
- pspini: atom type   1  psp file is /scratch/users/j/a/jabreu/pseudos/PBEsol/K.psp8
- pspatm: opening atomic psp file    /scratch/users/j/a/jabreu/pseudos/PBEsol/K.psp8
- K     ONCVPSP-3.3.0  r_core=   1.36296   1.46408   1.61068
- 19.00000   9.00000    180112                znucl, zion, pspdat
    8 -116133    2    4       400   0.00000   pspcod,pspxc,lmax,lloc,mmax,r2well
    3.99000000000000    5.00000000000000    0.00000000000000   rchrg,fchrg,qchrg
     nproj     2     2     2
     extension_switch     1
  pspatm : epsatm=    8.32487830
         --- l  ekb(1:nproj) -->
             0   10.921326    0.816676
             1    4.431000    0.560368
             2   -3.384038   -1.043186
 pspatm: atomic psp has been read  and splines computed

- pspini: atom type   2  psp file is /scratch/users/j/a/jabreu/pseudos/PBEsol/Au.psp8
- pspatm: opening atomic psp file    /scratch/users/j/a/jabreu/pseudos/PBEsol/Au.psp8
- Au    ONCVPSP-3.3.0  r_core=   1.45604   1.56407   1.56407   1.60183
- 79.00000  19.00000    180112                znucl, zion, pspdat
    8 -116133    3    4       500   0.00000   pspcod,pspxc,lmax,lloc,mmax,r2well
    4.99000000000000    5.00000000000000    0.00000000000000   rchrg,fchrg,qchrg
     nproj     2     2     2     1
     extension_switch     1
  pspatm : epsatm=   32.21965837
         --- l  ekb(1:nproj) -->
             0    9.413866   -0.196587
             1    2.474292   -1.517497
             2    1.503483    0.298081
             3    1.177996
 pspatm: atomic psp has been read  and splines computed

- pspini: atom type   3  psp file is /scratch/users/j/a/jabreu/pseudos/PBEsol/Se.psp8
- pspatm: opening atomic psp file    /scratch/users/j/a/jabreu/pseudos/PBEsol/Se.psp8
- Se    ONCVPSP-3.3.0  r_core=   1.81943   1.50330   1.90835
- 34.00000  16.00000    180112                znucl, zion, pspdat
    8 -116133    2    4       600   0.00000   pspcod,pspxc,lmax,lloc,mmax,r2well
    5.99000000000000    5.00000000000000    0.00000000000000   rchrg,fchrg,qchrg
     nproj     2     2     2
     extension_switch     1
  pspatm : epsatm=   29.17862020
         --- l  ekb(1:nproj) -->
             0    8.973804    1.019550
             1    6.849857    1.297308
             2   -9.203962   -3.731027
 pspatm: atomic psp has been read  and splines computed

   2.37364265E+04                                ecore*ucvol(ha*bohr**3)

-inwffil : will read wavefunctions from disk file /scratch/users/j/a/jabreu/flow_simple_8atoms/flow/w476/t1/indata/in_WFK

 ==>  initialize data related to q vector <==

 The list of irreducible perturbations for this q vector is:
    1)    idir= 1    ipert=   9
[...]
 symkpt : not enough symmetry to change the number of k points.

[...]

 Perturbation wavevector (in red.coord.)   0.000000  0.000000  0.000000
 Perturbation : derivative vs k along direction   3
 The set of symmetries contains only one element for this perturbation.
 symkpt : not enough symmetry to change the number of k points.

-inwffil : will read wavefunctions from disk file /scratch/users/j/a/jabreu/flow_simple_8atoms/flow/w476/t1/indata/in_WFK

 Initialisation of the first-order wave-functions :
  ireadwf=   0

--- !BeginCycle
iteration_state: {dtset: 1, }
solver: {iscf: 7, nstep: 2000, nline: 4, wfoptalg: 0, }
tolerances: {tolwfr: 1.00E-20, }
...

     iter   2DEtotal(Ha)        deltaE(Ha) residm    vres2
-ETOT  1  -184.64926510021     -1.846E+02 5.365E-01 0.000E+00
 ETOT  2  -184.84200679462     -1.927E-01 3.623E-02 0.000E+00
 ETOT  3  -184.84346216451     -1.455E-03 1.776E-03 0.000E+00
 ETOT  4  -184.84348828865     -2.612E-05 2.128E-04 0.000E+00
 ETOT  5  -184.84348887883     -5.902E-07 1.548E-05 0.000E+00
 ETOT  6  -184.84348889402     -1.519E-08 4.167E-06 0.000E+00
 ETOT  7  -184.84348889447     -4.469E-10 3.394E-07 0.000E+00
 ETOT  8  -184.84348889448     -1.464E-11 1.013E-07 0.000E+00
 ETOT  9  -184.84348889448     -5.400E-13 8.826E-09 0.000E+00
 ETOT 10  -184.84348889448     -2.842E-14 2.532E-09 0.000E+00
 ETOT 11  -184.84348889448     -1.137E-13 2.213E-10 0.000E+00
 ETOT 12  -184.84348889448      1.990E-13 6.428E-11 0.000E+00
 ETOT 13  -184.84348889448     -8.527E-14 5.622E-12 0.000E+00
 ETOT 14  -184.84348889448      1.705E-13 1.649E-12 0.000E+00
 ETOT 15  -184.84348889448      2.842E-14 1.449E-13 0.000E+00
 ETOT 16  -184.84348889448     -8.527E-14 4.249E-14 0.000E+00
 ETOT 17  -184.84348889448      2.842E-14 3.773E-15 0.000E+00
 ETOT 18  -184.84348889448      0.000E+00 1.099E-15 0.000E+00
 ETOT 19  -184.84348889448     -8.527E-14 9.916E-17 0.000E+00
 ETOT 20  -184.84348889448      1.137E-13 2.875E-17 0.000E+00
 ETOT 21  -184.84348889448     -1.705E-13 2.626E-18 0.000E+00
 ETOT 22  -184.84348889448      8.527E-14 7.616E-19 0.000E+00
 ETOT 23  -184.84348889448      2.842E-14 7.004E-20 0.000E+00
 ETOT 24  -184.84348889448     -2.842E-14 2.036E-20 0.000E+00
 ETOT 25  -184.84348889448      2.842E-14 9.872E-21 0.000E+00

 At SCF step   25   max residual=  9.87E-21 < tolwfr=  1.00E-20 =>converged.

 ----iterations are completed or convergence reached----

 dfpt_looppert: DFPT cycle converged with prtwf=-1. Will skip output of the 1st-order WFK file.
 dfpt_looppert : ek2=    1.9451687016E+02
          f-sum rule ratio=    1.0568198892E+00
 prteigrs : about to open file /scratch/users/j/a/jabreu/flow_simple_8atoms/flow/w476/t1/tmpdata/tmp_1WF1_EIG
 Expectation of eigenvalue derivatives (hartree) for nkpt=   2  k points:
  (in case of degenerate eigenvalues, averaged derivative)
 kpt#   1, nband= 69, wtk=  0.50000, kpt=  0.0000  0.0000  0.0000 (reduced coord)
  -0.00000   -0.00000   -0.00000    0.00000    0.00000    0.00000   -0.00000   -0.00000
   0.00000    0.00000   -0.00000   -0.00000   -0.00000   -0.00000    0.00000    0.00000
  -0.00000   -0.00000    0.00000   -0.00000   -0.00000   -0.00000    0.00000   -0.00000
   0.00000   -0.00000   -0.00000   -0.00000    0.00000   -0.00000    0.00000    0.00000
   0.00000   -0.00000   -0.00000   -0.00000   -0.00000   -0.00000    0.00000    0.00000
   0.00000    0.00000   -0.00000   -0.00000   -0.00000   -0.00000   -0.00000   -0.00000
  -0.00000    0.00000    0.00000   -0.00000   -0.00000    0.00000    0.00000   -0.00000
  -0.00000    0.00000    0.00000    0.00000   -0.00000   -0.00000   -0.00000    0.00000
   0.00000    0.00000    0.00000   -0.00000    0.00000
 prteigrs : prtvol=0 or 1, do not print more k-points.

 Eight components of 2nd-order total energy (hartree) are
 1,2,3: 0th-order hamiltonian combined with 1st-order wavefunctions
     kin0=   2.12248387E+02 eigvalue=   2.71838164E+01  local=  -9.73951620E+01
 4,5,6: 1st-order hamiltonian combined with 1st and 0th-order wfs
     kin1=  -2.05569297E+02  Hartree=   0.00000000E+00     xc=   0.00000000E+00
 7,8,9: eventually, occupation + non-local contributions
    edocc=   2.77217467E+01     enl0=   1.50847011E+01   enl1=  -1.64117681E+02
 1-9 gives the relaxation energy (to be shifted if some occ is /=2.0)
   erelax=  -1.84843489E+02
  No Ewald or frozen-wf contrib.: the relaxation energy is the total one
 2DEtotal=   -0.1848434889E+03 Ha. Also 2DEtotal=   -0.502984713033E+04 eV
    (  non-var. 2DEtotal :   -1.8484348889E+02 Ha)

 CALCULATION OF EFFECTIVE MASSES
 NOTE : Additional infos (eff. mass eigenvalues, eigenvectors and, if degenerate, average mass) are available in stdout.

 K-point ( 0.000, 0.000, 0.000) | band =    60
 Effective mass tensor:
             -1.1795146020              0.0002219960             -0.0002907835
              0.0002219960             -1.1795935672              0.0003326696
             -0.0002907835              0.0003326696             -5.1883079245
 Effective mass tensor eigenvalues:
             -5.1883079732             -1.1797795156             -1.1793286049
 Angular average effective mass 1/(<1/m>)=  -1.5887329966
 Angular average effective mass for Frohlich model (<m**0.5>)**2=  -1.7601897944
 Effective masses along directions: (cart. coord. / red. coord. -> eff. mass)
    1:   1.000000  0.000000  0.000000 /   1.000000  0.000000  0.000000 ->  -1.1795145439
    2:   0.000000  1.000000  0.000000 /   0.000000  1.000000  0.000000 ->  -1.1795935041
    3:   0.000000  0.000000  1.000000 /   0.000000  0.000000  1.000000 ->  -5.1883077590
    4:   0.577350  0.577350  0.577350 /   0.669218  0.669218  0.322946 ->  -1.5884530702
    5:   0.000000  0.707107  0.707107 /   0.000000  0.900617  0.434613 ->  -1.9219691391
    6:   0.707107  0.000000  0.707107 /   0.900617  0.000000  0.434613 ->  -1.9222406042
    7:   0.707107  0.707107  0.000000 /   0.707107  0.707107  0.000000 ->  -1.1793320871

 COMMENTS:
 - At k-point ( 0.500, 0.500, 0.212), bands    61 through    62
   are DEGENERATE (effective mass tensor is therefore not defined).
   See Section IIIB Eqs. (67)-(70) and Appendix E of PRB 93 205147 (2016).
 - Angular average effective mass for Frohlich model is to be averaged over degenerate bands. See later.
 - Associated theta integrals calculated with ntheta=   1000 points.

 K-point ( 0.500, 0.500, 0.212) | band =    61
 Transport equivalent effective mass tensor:
              3.4694218681             -0.0000197193              0.0000023709
             -0.0000197193              3.4694548441             -0.0000017640
              0.0000023709             -0.0000017640              0.2345581423
 Transport equivalent effective mass tensor eigenvalues:
              3.4694640603              3.4694126519              0.2345581423
 Angular average effective mass 1/(<1/m>)=   0.5871861904
 Angular average effective mass for Frohlich model (<m**0.5>)**2=   0.9835259279
 Effective masses along directions: (cart. coord. / red. coord. -> eff. mass)
    1:   1.000000  0.000000  0.000000 /   1.000000  0.000000  0.000000 ->   2.8903427975
    2:   0.000000  1.000000  0.000000 /   0.000000  1.000000  0.000000 ->   2.8903476368
    3:   0.000000  0.000000  1.000000 /   0.000000  0.000000  1.000000 ->   0.2216023366
    4:   0.577350  0.577350  0.577350 /   0.669218  0.669218  0.322946 ->   0.5935152993
    5:   0.000000  0.707107  0.707107 /   0.000000  0.900617  0.434613 ->   0.4116443162
    6:   0.707107  0.000000  0.707107 /   0.900617  0.000000  0.434613 ->   0.4116443477
    7:   0.707107  0.707107  0.000000 /   0.707107  0.707107  0.000000 ->   3.6897224546

 K-point ( 0.500, 0.500, 0.212) | band =    62
 Transport equivalent effective mass tensor:
              2.5995579531             -0.0000001684              0.0000015335
             -0.0000001684              2.5995755864             -0.0000006635
              0.0000015335             -0.0000006635              0.2304850721
 Transport equivalent effective mass tensor eigenvalues:
              2.5995755880              2.5995579515              0.2304850721
 Angular average effective mass 1/(<1/m>)=   0.5660370118
 Angular average effective mass for Frohlich model (<m**0.5>)**2=   0.8680785720
 Effective masses along directions: (cart. coord. / red. coord. -> eff. mass)
    1:   1.000000  0.000000  0.000000 /   1.000000  0.000000  0.000000 ->   2.8902204538
    2:   0.000000  1.000000  0.000000 /   0.000000  1.000000  0.000000 ->   2.8902576697
    3:   0.000000  0.000000  1.000000 /   0.000000  0.000000  1.000000 ->   0.2216023358
    4:   0.577350  0.577350  0.577350 /   0.669218  0.669218  0.322946 ->   0.5602776702
    5:   0.000000  0.707107  0.707107 /   0.000000  0.900617  0.434613 ->   0.4116421879
    6:   0.707107  0.000000  0.707107 /   0.900617  0.000000  0.434613 ->   0.4116433243
    7:   0.707107  0.707107  0.000000 /   0.707107  0.707107  0.000000 ->   2.3755788033

 Angular average effective mass for Frohlich model, averaged over degenerate bands.
 Value of     (<<m**0.5>>)**2 =     9.249016E-01
 Absolute Value of <<m**0.5>> =     9.617180E-01

 END OF EFFECTIVE MASSES SECTION

 ---- first-order wavefunction calculations are completed ----

 Total localisation tensor (bohr^2) in cartesian coordinates
  WARNING : still subject to testing - especially symmetries.
      direction              matrix element
   alpha     beta       real part   imaginary part
     1        1       0.8429468666    0.0000000000
     1        2       0.0000000000    0.0000000000
     1        3       0.0000000000    0.0000000000
     2        1       0.0000000000    0.0000000000
     2        2       0.8429431885    0.0000000000
     2        3       0.0000000000    0.0000000000
     3        1       0.0000000000    0.0000000000
     3        2       0.0000000000    0.0000000000
     3        3       1.3459830001    0.0000000000

 respfn : d/dk was computed, but no 2DTE, so no DDB output.

== END DATASET(S) ==============================================================

 -outvars: echo values of variables after computation  --------
            acell      1.0000000000E+00  1.0000000000E+00  1.0000000000E+00 Bohr
              amu      3.90983000E+01  1.96966540E+02  7.89600000E+01
             ecut      4.30000000E+01 Hartree
           etotal     -1.8484348889E+02
            fcart      0.0000000000E+00  0.0000000000E+00  0.0000000000E+00
                       0.0000000000E+00  0.0000000000E+00  0.0000000000E+00
                       0.0000000000E+00  0.0000000000E+00  0.0000000000E+00
                       0.0000000000E+00  0.0000000000E+00  0.0000000000E+00
                       0.0000000000E+00  0.0000000000E+00  0.0000000000E+00
                       0.0000000000E+00  0.0000000000E+00  0.0000000000E+00
                       0.0000000000E+00  0.0000000000E+00  0.0000000000E+00
                       0.0000000000E+00  0.0000000000E+00  0.0000000000E+00
-          fftalg         512
           irdden           1
           irdwfk           1
           istwfk        1    0
              ixc     -116133
              kpt      0.00000000E+00  0.00000000E+00  0.00000000E+00
                       5.00000000E-01  5.00000000E-01  2.11538461E-01
           kptopt           0
P           mkmem           2
P          mkqmem           2
P          mk1mem           2
            natom           8
            nband          69
           nbdbuf           4
            ngfft          90      90      45
             nkpt           2
            nstep        2000
             nsym          16
           ntypat           3
              occ      2.000000  2.000000  2.000000  2.000000  2.000000  2.000000
                       2.000000  2.000000  2.000000  2.000000  2.000000  2.000000
                       2.000000  2.000000  2.000000  2.000000  2.000000  2.000000
                       2.000000  2.000000  2.000000  2.000000  2.000000  2.000000
                       2.000000  2.000000  2.000000  2.000000  2.000000  2.000000
                       2.000000  2.000000  2.000000  2.000000  2.000000  2.000000
                       2.000000  2.000000  2.000000  2.000000  2.000000  2.000000
                       2.000000  2.000000  2.000000  2.000000  2.000000  2.000000
                       2.000000  2.000000  2.000000  2.000000  2.000000  2.000000
                       2.000000  2.000000  2.000000  2.000000  2.000000  2.000000
                       0.000000  0.000000  0.000000  0.000000  0.000000  0.000000
                       0.000000  0.000000  0.000000
        optdriver           1
            prtwf          -1
            rfdir           1       1       1
           rfelfd           2
            rprim      1.4462518212E+01  0.0000000000E+00  0.0000000000E+00
                       0.0000000000E+00  1.4462518212E+01  0.0000000000E+00
                       0.0000000000E+00  0.0000000000E+00  6.9792194258E+00
          spgroup         127
           strten      0.0000000000E+00  0.0000000000E+00  0.0000000000E+00
                       0.0000000000E+00  0.0000000000E+00  0.0000000000E+00
           symrel      1  0  0   0  1  0   0  0  1      -1  0  0   0 -1  0   0  0 -1
                      -1  0  0   0  1  0   0  0 -1       1  0  0   0 -1  0   0  0  1
                      -1  0  0   0 -1  0   0  0  1       1  0  0   0  1  0   0  0 -1
                       1  0  0   0 -1  0   0  0 -1      -1  0  0   0  1  0   0  0  1
                       0  1  0   1  0  0   0  0  1       0 -1  0  -1  0  0   0  0 -1
                       0 -1  0   1  0  0   0  0 -1       0  1  0  -1  0  0   0  0  1
                       0 -1  0  -1  0  0   0  0  1       0  1  0   1  0  0   0  0 -1
                       0  1  0  -1  0  0   0  0 -1       0 -1  0   1  0  0   0  0  1
            tnons      0.0000000  0.0000000  0.0000000     0.0000000  0.0000000  0.0000000
                       0.5000000  0.5000000  0.0000000     0.5000000  0.5000000  0.0000000
                       0.0000000  0.0000000  0.0000000     0.0000000  0.0000000  0.0000000
                       0.5000000  0.5000000  0.0000000     0.5000000  0.5000000  0.0000000
                       0.5000000  0.5000000  0.0000000     0.5000000  0.5000000  0.0000000
                       0.0000000  0.0000000  0.0000000     0.0000000  0.0000000  0.0000000
                       0.5000000  0.5000000  0.0000000     0.5000000  0.5000000  0.0000000
                       0.0000000  0.0000000  0.0000000     0.0000000  0.0000000  0.0000000
           tolwfr      1.00000000E-20
            typat      1  1  2  2  3  3  3  3
           useylm           1
              wtk        0.50000    0.50000
           xangst      3.8266175083E+00  3.8266175083E+00  0.0000000000E+00
                       0.0000000000E+00  0.0000000000E+00  0.0000000000E+00
                       0.0000000000E+00  3.8266175083E+00  0.0000000000E+00
                       3.8266175083E+00  0.0000000000E+00  0.0000000000E+00
                       2.6557031637E+00  1.1709143446E+00  1.8466219269E+00
                       6.4823206720E+00  2.6557031637E+00  1.8466219269E+00
                       1.1709143446E+00  4.9975318529E+00  1.8466219269E+00
                       4.9975318529E+00  6.4823206720E+00  1.8466219269E+00
            xcart      7.2312591060E+00  7.2312591060E+00  0.0000000000E+00
                       0.0000000000E+00  0.0000000000E+00  0.0000000000E+00
                       0.0000000000E+00  7.2312591060E+00  0.0000000000E+00
                       7.2312591060E+00  0.0000000000E+00  0.0000000000E+00
                       5.0185516696E+00  2.2127074363E+00  3.4896097129E+00
                       1.2249810776E+01  5.0185516696E+00  3.4896097129E+00
                       2.2127074363E+00  9.4439665423E+00  3.4896097129E+00
                       9.4439665423E+00  1.2249810776E+01  3.4896097129E+00
             xred      5.0000000000E-01  5.0000000000E-01  0.0000000000E+00
                       0.0000000000E+00  0.0000000000E+00  0.0000000000E+00
                       0.0000000000E+00  5.0000000000E-01  0.0000000000E+00
                       5.0000000000E-01  0.0000000000E+00  0.0000000000E+00
                       3.4700400000E-01  1.5299600000E-01  5.0000000000E-01
                       8.4700400000E-01  3.4700400000E-01  5.0000000000E-01
                       1.5299600000E-01  6.5299600000E-01  5.0000000000E-01
                       6.5299600000E-01  8.4700400000E-01  5.0000000000E-01
            znucl       19.00000   79.00000   34.00000

- Timing analysis has been suppressed with timopt=0

 Suggested references for the acknowledgment of ABINIT usage.

 Calculation completed.
.Delivered  14 WARNINGs and  11 COMMENTs to log file.