.Version 9.5.2 of ABINIT

 ABINIT is a project of the Universite Catholique de Louvain,
 Corning Inc. and other collaborators, see ~abinit/doc/developers/contributors.txt .
 acknowledgments of the ABINIT effort.

.Starting date : Wed 26 May 2021.
- ( at 02h25 )

- input  file    -> /scratch/users/j/a/jabreu/flow_simple_11atoms/flow/w234/t1/run.abi
- output file    -> /scratch/users/j/a/jabreu/flow_simple_11atoms/flow/w234/t1/run.abo
- root for input  files -> /scratch/users/j/a/jabreu/flow_simple_11atoms/flow/w234/t1/indata/in
- root for output files -> /scratch/users/j/a/jabreu/flow_simple_11atoms/flow/w234/t1/outdata/out

 Symmetries : space group P-6 2 m (#189); Bravais hP (primitive hexag.)
     intxc =       0      iscf =       7    lmnmax =      13     lnmax =       5
     mgfft =      72  mpssoang =       3    mqgrid =    3029     natom =      12
  nloc_mem =       1    nspden =       1   nspinor =       1    nsppol =       1
      nsym =      12    n1xccc =    2501    ntypat =       2    occopt =       1
   xclevel =       2
-    mband =          54        mffmem =           1         mkmem =           2
-   mkqmem =           2        mk1mem =           2           mpw =       13891
      nfft =      279936          nkpt =           2
  Rough estimation (10% accuracy) of disk space for files :

------------- Echo of variables that govern the present computation ------------
-
- outvars: echo of selected default values
-   iomode0 =  0 , fftalg0 =512 , wfoptalg0 =  0
-
- outvars: echo of global parameters not present in the input file
-  max_nthreads =    0
-
 -outvars: echo values of preprocessed input variables --------
            acell      1.0000000000E+00  1.0000000000E+00  1.0000000000E+00 Bohr
              amu      2.29897680E+01  1.59994000E+01
             ecut      4.40000000E+01 Hartree
-          fftalg         512
           irdden           1
           irdwfk           1
           istwfk        1    1
              ixc     -116133
              kpt      0.00000000E+00  0.00000000E+00  0.00000000E+00
                       0.00000000E+00  0.00000000E+00  5.00000000E-01
           kptopt           0
P           mkmem           2
P          mkqmem           2
P          mk1mem           2
            natom          12
            nband          54
           nbdbuf           4
            ngfft          72      72      54
             nkpt           2
            nstep        2000
             nsym          12
           ntypat           2
              occ      2.000000  2.000000  2.000000  2.000000  2.000000  2.000000
                       2.000000  2.000000  2.000000  2.000000  2.000000  2.000000
                       2.000000  2.000000  2.000000  2.000000  2.000000  2.000000
                       2.000000  2.000000  2.000000  2.000000  2.000000  2.000000
                       2.000000  2.000000  2.000000  2.000000  2.000000  2.000000
                       2.000000  2.000000  2.000000  2.000000  2.000000  2.000000
                       2.000000  2.000000  2.000000  2.000000  2.000000  2.000000
                       2.000000  2.000000  2.000000  0.000000  0.000000  0.000000
                       0.000000  0.000000  0.000000  0.000000  0.000000  0.000000
        optdriver           1
            prtwf          -1
            rfdir           1       1       1
           rfelfd           2
            rprim      1.1712692841E+01  0.0000000000E+00  0.0000000000E+00
                      -5.8563464207E+00  1.0143489547E+01  0.0000000000E+00
                       0.0000000000E+00  0.0000000000E+00  8.3761202272E+00
          spgroup         189
           symrel      1  0  0   0  1  0   0  0  1       0  1  0   1  0  0   0  0  1
                      -1 -1  0   1  0  0   0  0 -1       1  0  0  -1 -1  0   0  0 -1
                       0  1  0  -1 -1  0   0  0  1      -1 -1  0   0  1  0   0  0  1
                       1  0  0   0  1  0   0  0 -1       0  1  0   1  0  0   0  0 -1
                      -1 -1  0   1  0  0   0  0  1       1  0  0  -1 -1  0   0  0  1
                       0  1  0  -1 -1  0   0  0 -1      -1 -1  0   0  1  0   0  0 -1
           tolwfr      1.00000000E-20
            typat      1  1  1  1  1  1  2  2  2  2  2  2
           useylm           1
              wtk        0.50000    0.50000
           xangst     -2.1702891409E+00  3.7590510592E+00  2.2162259603E+00
                       9.2875591051E-01  1.6086524248E+00  2.2162259603E+00
                       4.3405782819E+00 -3.9728986649E-16  2.2162259603E+00
                      -1.1340118624E+00  1.9641661620E+00  0.0000000000E+00
                       1.9650331891E+00  3.4035373221E+00  0.0000000000E+00
                       2.2680237247E+00 -3.9728986649E-16  0.0000000000E+00
                       3.0990450514E+00  1.7892344947E+00  1.4536802293E+00
                       3.0990450514E+00  1.7892344947E+00  2.9787716914E+00
                      -4.7000377687E-16  3.5784689894E+00  2.9787716914E+00
                      -4.7000377687E-16  3.5784689894E+00  1.4536802293E+00
                      -1.1468770568E-16 -3.9728986649E-16  3.6780441713E+00
                      -1.1468770568E-16 -3.9728986649E-16  7.5440774935E-01
            xcart     -4.1012521055E+00  7.1035770215E+00  4.1880601136E+00
                       1.7550943152E+00  3.0399125259E+00  4.1880601136E+00
                       8.2025042111E+00 -7.5076904304E-16  4.1880601136E+00
                      -2.1429718513E+00  3.7117361257E+00  0.0000000000E+00
                       3.7133745694E+00  6.4317534217E+00  0.0000000000E+00
                       4.2859437026E+00 -7.5076904304E-16  0.0000000000E+00
                       5.8563464207E+00  3.3811631825E+00  2.7470575181E+00
                       5.8563464207E+00  3.3811631825E+00  5.6290627091E+00
                      -8.8817841970E-16  6.7623263649E+00  5.6290627091E+00
                      -8.8817841970E-16  6.7623263649E+00  2.7470575181E+00
                      -2.1672835455E-16 -7.5076904304E-16  6.9504961884E+00
                      -2.1672835455E-16 -7.5076904304E-16  1.4256240388E+00
             xred     -5.5511151231E-17  7.0030900000E-01  5.0000000000E-01
                       2.9969100000E-01  2.9969100000E-01  5.0000000000E-01
                       7.0030900000E-01 -7.4014868308E-17  5.0000000000E-01
                      -5.5511151231E-17  3.6592300000E-01  0.0000000000E+00
                       6.3407700000E-01  6.3407700000E-01  0.0000000000E+00
                       3.6592300000E-01 -7.4014868308E-17  0.0000000000E+00
                       6.6666666667E-01  3.3333333333E-01  3.2796300000E-01
                       6.6666666667E-01  3.3333333333E-01  6.7203700000E-01
                       3.3333333333E-01  6.6666666667E-01  6.7203700000E-01
                       3.3333333333E-01  6.6666666667E-01  3.2796300000E-01
                      -5.5511151231E-17 -7.4014868308E-17  8.2979900000E-01
                      -5.5511151231E-17 -7.4014868308E-17  1.7020100000E-01
            znucl       11.00000    8.00000

 chkinp: Checking input parameters for consistency.

== DATASET  1 ==================================================================
-   mpi_nproc: 1, omp_nthreads: -1 (-1 if OMP is not activated)

--- !DatasetInfo
iteration_state: {dtset: 1, }
dimensions: {natom: 12, nkpt: 2, mband: 54, nsppol: 1, nspinor: 1, nspden: 1, mpw: 13891, }
cutoff_energies: {ecut:  44.0, pawecutdg:  -1.0, }
electrons: {nelect:   9.00000000E+01, charge:   0.00000000E+00, occopt:   1.00000000E+00, tsmear:   1.00000000E-02, }
meta: {optdriver: 1, rfelfd: 2, }
...

 Real(R)+Recip(G) space primitive vectors, cartesian coordinates (Bohr,Bohr^-1):
 R(1)= 11.7126928  0.0000000  0.0000000  G(1)=  0.0853775  0.0492927  0.0000000
 R(2)= -5.8563464 10.1434895  0.0000000  G(2)=  0.0000000  0.0985854  0.0000000
 R(3)=  0.0000000  0.0000000  8.3761202  G(3)=  0.0000000  0.0000000  0.1193870
 Unit cell volume ucvol=  9.9514655E+02 bohr^3
 Angles (23,13,12)=  9.00000000E+01  9.00000000E+01  1.20000000E+02 degrees

 getcut: wavevector=  0.0000  0.0000  0.0000  ngfft=  72  72  54
         ecut(hartree)=     44.000   => boxcut(ratio)=   2.05866

--- Pseudopotential description ------------------------------------------------
- pspini: atom type   1  psp file is /scratch/users/j/a/jabreu/pseudos/PBEsol/Na.psp8
- pspatm: opening atomic psp file    /scratch/users/j/a/jabreu/pseudos/PBEsol/Na.psp8
- Na    ONCVPSP-3.3.0  r_core=   1.20708   1.55069
- 11.00000   9.00000    180112                znucl, zion, pspdat
    8 -116133    1    4       400   0.00000   pspcod,pspxc,lmax,lloc,mmax,r2well
    3.99000000000000    0.00000000000000    0.00000000000000   rchrg,fchrg,qchrg
     nproj     2     2
     extension_switch     1
  pspatm : epsatm=    9.32878306
         --- l  ekb(1:nproj) -->
             0    2.657905   -0.678300
             1   -6.761319   -2.404728
 pspatm: atomic psp has been read  and splines computed

- pspini: atom type   2  psp file is /scratch/users/j/a/jabreu/pseudos/PBEsol/O.psp8
- pspatm: opening atomic psp file    /scratch/users/j/a/jabreu/pseudos/PBEsol/O.psp8
- O     ONCVPSP-3.3.0  r_core=   1.35509   1.45563   1.26150
-  8.00000   6.00000    180112                znucl, zion, pspdat
    8 -116133    2    4       600   0.00000   pspcod,pspxc,lmax,lloc,mmax,r2well
    5.99000000000000    4.00000000000000    0.00000000000000   rchrg,fchrg,qchrg
     nproj     2     2     1
     extension_switch     1
  pspatm : epsatm=    6.22910522
         --- l  ekb(1:nproj) -->
             0    6.050032    0.820363
             1   -4.739617   -1.153841
             2   -1.335834
 pspatm: atomic psp has been read  and splines computed

   8.40125967E+03                                ecore*ucvol(ha*bohr**3)

 ==>  initialize data related to q vector <==

 The list of irreducible perturbations for this q vector is:
    1)    idir= 1    ipert=  13
    2)    idir= 2    ipert=  13
    3)    idir= 3    ipert=  13

 Perturbation wavevector (in red.coord.)   0.000000  0.000000  0.000000
 Perturbation : derivative vs k along direction   1

 dfpt_looppert : COMMENT -
  In a d/dk calculation, iscf is set to -3 automatically.
 The set of symmetries contains only one element for this perturbation.
 symkpt : not enough symmetry to change the number of k points.

 Initialisation of the first-order wave-functions :
  ireadwf=   0

--- !BeginCycle
iteration_state: {dtset: 1, }
solver: {iscf: 7, nstep: 2000, nline: 4, wfoptalg: 0, }
tolerances: {tolwfr: 1.00E-20, }
...

     iter   2DEtotal(Ha)        deltaE(Ha) residm    vres2
-ETOT  1  -39.209451770183     -3.921E+01 1.175E-02 0.000E+00
 ETOT  2  -39.230999763221     -2.155E-02 3.079E-04 0.000E+00
 ETOT  3  -39.231026261465     -2.650E-05 2.104E-06 0.000E+00
 ETOT  4  -39.231026368331     -1.069E-07 1.015E-07 0.000E+00
 ETOT  5  -39.231026368857     -5.255E-10 7.508E-10 0.000E+00
 ETOT  6  -39.231026368859     -2.714E-12 4.027E-11 0.000E+00
 ETOT  7  -39.231026368859      0.000E+00 3.186E-13 0.000E+00
 ETOT  8  -39.231026368859      0.000E+00 1.739E-14 0.000E+00
[...]
 4,5,6: 1st-order hamiltonian combined with 1st and 0th-order wfs
     kin1=  -6.98880046E+01  Hartree=   0.00000000E+00     xc=   0.00000000E+00
 7,8,9: eventually, occupation + non-local contributions
    edocc=   2.56013929E+00     enl0=  -2.66296758E+00   enl1=  -8.57404810E+00
 1-9 gives the relaxation energy (to be shifted if some occ is /=2.0)
   erelax=  -3.92310264E+01
  No Ewald or frozen-wf contrib.: the relaxation energy is the total one
 2DEtotal=   -0.3923102637E+02 Ha. Also 2DEtotal=   -0.106753051774E+04 eV
    (  non-var. 2DEtotal :   -3.9231026369E+01 Ha)

 Perturbation wavevector (in red.coord.)   0.000000  0.000000  0.000000
 Perturbation : derivative vs k along direction   2
 The set of symmetries contains only one element for this perturbation.
 symkpt : not enough symmetry to change the number of k points.

[...]

 Perturbation wavevector (in red.coord.)   0.000000  0.000000  0.000000
 Perturbation : derivative vs k along direction   3
 The set of symmetries contains only one element for this perturbation.
 symkpt : not enough symmetry to change the number of k points.

 Initialisation of the first-order wave-functions :
  ireadwf=   0

--- !BeginCycle
iteration_state: {dtset: 1, }
solver: {iscf: 7, nstep: 2000, nline: 4, wfoptalg: 0, }
tolerances: {tolwfr: 1.00E-20, }
...

     iter   2DEtotal(Ha)        deltaE(Ha) residm    vres2
-ETOT  1  -57.393660223931     -5.739E+01 2.118E-01 0.000E+00
 ETOT  2  -57.417895076978     -2.423E-02 3.935E-03 0.000E+00
 ETOT  3  -57.417907686254     -1.261E-05 8.167E-05 0.000E+00
 ETOT  4  -57.417907709852     -2.360E-08 3.980E-06 0.000E+00
 ETOT  5  -57.417907709917     -6.442E-11 9.606E-08 0.000E+00
 ETOT  6  -57.417907709917     -9.948E-14 5.533E-09 0.000E+00
 ETOT  7  -57.417907709917      0.000E+00 1.438E-10 0.000E+00
 ETOT  8  -57.417907709917     -6.395E-14 8.032E-12 0.000E+00
 ETOT  9  -57.417907709917     -1.421E-14 2.183E-13 0.000E+00
 ETOT 10  -57.417907709917      1.421E-14 1.186E-14 0.000E+00
 ETOT 11  -57.417907709917      0.000E+00 3.331E-16 0.000E+00
 ETOT 12  -57.417907709917      7.105E-15 1.770E-17 0.000E+00
 ETOT 13  -57.417907709917     -7.105E-15 5.097E-19 0.000E+00
 ETOT 14  -57.417907709917      0.000E+00 2.662E-20 0.000E+00
 ETOT 15  -57.417907709917      0.000E+00 9.968E-21 0.000E+00

 At SCF step   15   max residual=  9.97E-21 < tolwfr=  1.00E-20 =>converged.

 ----iterations are completed or convergence reached----

 dfpt_looppert: DFPT cycle converged with prtwf=-1. Will skip output of the 1st-order WFK file.
 dfpt_looppert : ek2=    1.0128530426E+02
          f-sum rule ratio=    1.0189345584E+00
 prteigrs : about to open file /scratch/users/j/a/jabreu/flow_simple_11atoms/flow/w234/t1/tmpdata/tmp_1WF1_EIG
 Expectation of eigenvalue derivatives (hartree) for nkpt=   2  k points:
  (in case of degenerate eigenvalues, averaged derivative)
 kpt#   1, nband= 54, wtk=  0.50000, kpt=  0.0000  0.0000  0.0000 (reduced coord)
   0.00000    0.00000    0.00000    0.00000   -0.00000   -0.00000    0.00000   -0.00000
   0.00000   -0.00000   -0.00000   -0.00000   -0.00000    0.00000    0.00000   -0.00000
   0.00000   -0.00000   -0.00000    0.00000    0.00000    0.00000   -0.00000   -0.00000
   0.00000   -0.00000    0.00000   -0.00000    0.00000    0.00000   -0.00000    0.00000
   0.00000    0.00000    0.00000    0.00000    0.00000   -0.00000   -0.00000   -0.00000
  -0.00000   -0.00000   -0.00000   -0.00000   -0.00000    0.00000    0.00000   -0.00000
  -0.00000   -0.00000   -0.00000    0.00000    0.00000   -0.00000
 prteigrs : prtvol=0 or 1, do not print more k-points.

 Eight components of 2nd-order total energy (hartree) are
 1,2,3: 0th-order hamiltonian combined with 1st-order wavefunctions
     kin0=   7.32880221E+01 eigvalue=   7.11099207E+00  local=  -2.60679192E+01
 4,5,6: 1st-order hamiltonian combined with 1st and 0th-order wfs
     kin1=  -1.03203097E+02  Hartree=   0.00000000E+00     xc=   0.00000000E+00
 7,8,9: eventually, occupation + non-local contributions
    edocc=   7.59301906E+00     enl0=  -4.50620639E+00   enl1=  -1.16327186E+01
 1-9 gives the relaxation energy (to be shifted if some occ is /=2.0)
   erelax=  -5.74179077E+01
  No Ewald or frozen-wf contrib.: the relaxation energy is the total one
 2DEtotal=   -0.5741790771E+02 Ha. Also 2DEtotal=   -0.156242072713E+04 eV
    (  non-var. 2DEtotal :   -5.7417907710E+01 Ha)

 CALCULATION OF EFFECTIVE MASSES
 NOTE : Additional infos (eff. mass eigenvalues, eigenvectors and, if degenerate, average mass) are available in stdout.

 COMMENTS:
 - At k-point ( 0.000, 0.000, 0.000), bands    44 through    45
   are DEGENERATE (effective mass tensor is therefore not defined).
   See Section IIIB Eqs. (67)-(70) and Appendix E of PRB 93 205147 (2016).
 - Angular average effective mass for Frohlich model is to be averaged over degenerate bands. See later.
 - Associated theta integrals calculated with ntheta=   1000 points.

 K-point ( 0.000, 0.000, 0.000) | band =    44
 Transport equivalent effective mass tensor:
             -1.9931116623             -0.0000000000              0.0000000000
             -0.0000000000             -1.9931116625             -0.0000000000
              0.0000000000             -0.0000000000             -1.9111482770
 Transport equivalent effective mass tensor eigenvalues:
             -1.9931116625             -1.9931116623             -1.9111482770
 Angular average effective mass 1/(<1/m>)=  -1.9650203964
 Angular average effective mass for Frohlich model (<m**0.5>)**2=  -1.9652530945
 Effective masses along directions: (cart. coord. / red. coord. -> eff. mass)
    1:   1.000000  0.000000  0.000000 /   0.894427 -0.447214  0.000000 ->  -1.9931116623
    2:   0.000000  1.000000  0.000000 /   0.000000  1.000000  0.000000 ->  -1.9931116626
    3:   0.000000  0.000000  1.000000 /   0.000000  0.000000  1.000000 ->  -1.9111482769
    4:   0.577350  0.577350  0.577350 /   0.779589  0.285349  0.557509 ->  -1.9650203964
    5:   0.000000  0.707107  0.707107 /   0.000000  0.771084  0.636733 ->  -1.9512696279
    6:   0.707107  0.000000  0.707107 /   0.753476 -0.376738  0.538835 ->  -1.9512696278
    7:   0.707107  0.707107  0.000000 /   0.939071  0.343724  0.000000 ->  -1.9931116625

 K-point ( 0.000, 0.000, 0.000) | band =    45
 Transport equivalent effective mass tensor:
             -7.2648666613             -0.0000000001             -0.0000000000
             -0.0000000001             -7.2648666609             -0.0000000000
             -0.0000000000             -0.0000000000             -1.9111482770
 Transport equivalent effective mass tensor eigenvalues:
             -7.2648666613             -7.2648666608             -1.9111482770
 Angular average effective mass 1/(<1/m>)=  -3.7568412584
 Angular average effective mass for Frohlich model (<m**0.5>)**2=  -4.2983652027
 Effective masses along directions: (cart. coord. / red. coord. -> eff. mass)
    1:   1.000000  0.000000  0.000000 /   0.894427 -0.447214  0.000000 ->  -7.2648666612
    2:   0.000000  1.000000  0.000000 /   0.000000  1.000000  0.000000 ->  -7.2648666608
    3:   0.000000  0.000000  1.000000 /   0.000000  0.000000  1.000000 ->  -1.9111482770
    4:   0.577350  0.577350  0.577350 /   0.779589  0.285349  0.557509 ->  -3.7568412584
    5:   0.000000  0.707107  0.707107 /   0.000000  0.771084  0.636733 ->  -3.0262020049
    6:   0.707107  0.000000  0.707107 /   0.753476 -0.376738  0.538835 ->  -3.0262020051
    7:   0.707107  0.707107  0.000000 /   0.939071  0.343724  0.000000 ->  -7.2648666605

 Angular average effective mass for Frohlich model, averaged over degenerate bands.
 Value of     (<<m**0.5>>)**2 =     3.019123E+00
 Absolute Value of <<m**0.5>> =     1.737562E+00

 K-point ( 0.000, 0.000, 0.500) | band =    46
 Effective mass tensor:
              1.0948045143              0.0000000000             -0.0000000000
              0.0000000000              1.0948045145             -0.0000000000
             -0.0000000000             -0.0000000000              0.4259201720
 Effective mass tensor eigenvalues:
              0.4259201720              1.0948045143              1.0948045145
 Angular average effective mass 1/(<1/m>)=   0.7186200273
 Angular average effective mass for Frohlich model (<m**0.5>)**2=   0.7679627476
 Effective masses along directions: (cart. coord. / red. coord. -> eff. mass)
    1:   1.000000  0.000000  0.000000 /   0.894427 -0.447214  0.000000 ->   1.0948045143
    2:   0.000000  1.000000  0.000000 /   0.000000  1.000000  0.000000 ->   1.0948045145
    3:   0.000000  0.000000  1.000000 /   0.000000  0.000000  1.000000 ->   0.4259201720
    4:   0.577350  0.577350  0.577350 /   0.779589  0.285349  0.557509 ->   0.7186200272
    5:   0.000000  0.707107  0.707107 /   0.000000  0.771084  0.636733 ->   0.6132593641
    6:   0.707107  0.000000  0.707107 /   0.753476 -0.376738  0.538835 ->   0.6132593641
    7:   0.707107  0.707107  0.000000 /   0.939071  0.343724  0.000000 ->   1.0948045144

 END OF EFFECTIVE MASSES SECTION

 ---- first-order wavefunction calculations are completed ----

 Total localisation tensor (bohr^2) in cartesian coordinates
  WARNING : still subject to testing - especially symmetries.
      direction              matrix element
   alpha     beta       real part   imaginary part
     1        1       0.6862576562    0.0000000000
     1        2      -0.2377266255    0.0000000000
     1        3       0.0000000000    0.0000000000
     2        1      -0.2377266255    0.0000000000
     2        2       0.4117545937    0.0000000000
     2        3       0.0000000000    0.0000000000
     3        1       0.0000000000    0.0000000000
     3        2       0.0000000000    0.0000000000
     3        3       0.4926368161    0.0000000000

 respfn : d/dk was computed, but no 2DTE, so no DDB output.

== END DATASET(S) ==============================================================

 -outvars: echo values of variables after computation  --------
            acell      1.0000000000E+00  1.0000000000E+00  1.0000000000E+00 Bohr
              amu      2.29897680E+01  1.59994000E+01
             ecut      4.40000000E+01 Hartree
           etotal     -5.7417907710E+01
            fcart      0.0000000000E+00  0.0000000000E+00  0.0000000000E+00
                       0.0000000000E+00  0.0000000000E+00  0.0000000000E+00
                       0.0000000000E+00  0.0000000000E+00  0.0000000000E+00
                       0.0000000000E+00  0.0000000000E+00  0.0000000000E+00
                       0.0000000000E+00  0.0000000000E+00  0.0000000000E+00
                       0.0000000000E+00  0.0000000000E+00  0.0000000000E+00
                       0.0000000000E+00  0.0000000000E+00  0.0000000000E+00
                       0.0000000000E+00  0.0000000000E+00  0.0000000000E+00
                       0.0000000000E+00  0.0000000000E+00  0.0000000000E+00
                       0.0000000000E+00  0.0000000000E+00  0.0000000000E+00
                       0.0000000000E+00  0.0000000000E+00  0.0000000000E+00
                       0.0000000000E+00  0.0000000000E+00  0.0000000000E+00
-          fftalg         512
           irdden           1
           irdwfk           1
           istwfk        1    1
              ixc     -116133
              kpt      0.00000000E+00  0.00000000E+00  0.00000000E+00
                       0.00000000E+00  0.00000000E+00  5.00000000E-01
           kptopt           0
P           mkmem           2
P          mkqmem           2
P          mk1mem           2
            natom          12
            nband          54
           nbdbuf           4
            ngfft          72      72      54
             nkpt           2
            nstep        2000
             nsym          12
           ntypat           2
              occ      2.000000  2.000000  2.000000  2.000000  2.000000  2.000000
                       2.000000  2.000000  2.000000  2.000000  2.000000  2.000000
                       2.000000  2.000000  2.000000  2.000000  2.000000  2.000000
                       2.000000  2.000000  2.000000  2.000000  2.000000  2.000000
                       2.000000  2.000000  2.000000  2.000000  2.000000  2.000000
                       2.000000  2.000000  2.000000  2.000000  2.000000  2.000000
                       2.000000  2.000000  2.000000  2.000000  2.000000  2.000000
                       2.000000  2.000000  2.000000  0.000000  0.000000  0.000000
                       0.000000  0.000000  0.000000  0.000000  0.000000  0.000000
        optdriver           1
            prtwf          -1
            rfdir           1       1       1
           rfelfd           2
            rprim      1.1712692841E+01  0.0000000000E+00  0.0000000000E+00
                      -5.8563464207E+00  1.0143489547E+01  0.0000000000E+00
                       0.0000000000E+00  0.0000000000E+00  8.3761202272E+00
          spgroup         189
           strten      0.0000000000E+00  0.0000000000E+00  0.0000000000E+00
                       0.0000000000E+00  0.0000000000E+00  0.0000000000E+00
           symrel      1  0  0   0  1  0   0  0  1       0  1  0   1  0  0   0  0  1
                      -1 -1  0   1  0  0   0  0 -1       1  0  0  -1 -1  0   0  0 -1
                       0  1  0  -1 -1  0   0  0  1      -1 -1  0   0  1  0   0  0  1
                       1  0  0   0  1  0   0  0 -1       0  1  0   1  0  0   0  0 -1
                      -1 -1  0   1  0  0   0  0  1       1  0  0  -1 -1  0   0  0  1
                       0  1  0  -1 -1  0   0  0 -1      -1 -1  0   0  1  0   0  0 -1
           tolwfr      1.00000000E-20
            typat      1  1  1  1  1  1  2  2  2  2  2  2
           useylm           1
              wtk        0.50000    0.50000
           xangst     -2.1702891409E+00  3.7590510592E+00  2.2162259603E+00
                       9.2875591051E-01  1.6086524248E+00  2.2162259603E+00
                       4.3405782819E+00 -3.9728986649E-16  2.2162259603E+00
                      -1.1340118624E+00  1.9641661620E+00  0.0000000000E+00
                       1.9650331891E+00  3.4035373221E+00  0.0000000000E+00
                       2.2680237247E+00 -3.9728986649E-16  0.0000000000E+00
                       3.0990450514E+00  1.7892344947E+00  1.4536802293E+00
                       3.0990450514E+00  1.7892344947E+00  2.9787716914E+00
                      -4.7000377687E-16  3.5784689894E+00  2.9787716914E+00
                      -4.7000377687E-16  3.5784689894E+00  1.4536802293E+00
                      -1.1468770568E-16 -3.9728986649E-16  3.6780441713E+00
                      -1.1468770568E-16 -3.9728986649E-16  7.5440774935E-01
            xcart     -4.1012521055E+00  7.1035770215E+00  4.1880601136E+00
                       1.7550943152E+00  3.0399125259E+00  4.1880601136E+00
                       8.2025042111E+00 -7.5076904304E-16  4.1880601136E+00
                      -2.1429718513E+00  3.7117361257E+00  0.0000000000E+00
                       3.7133745694E+00  6.4317534217E+00  0.0000000000E+00
                       4.2859437026E+00 -7.5076904304E-16  0.0000000000E+00
                       5.8563464207E+00  3.3811631825E+00  2.7470575181E+00
                       5.8563464207E+00  3.3811631825E+00  5.6290627091E+00
                      -8.8817841970E-16  6.7623263649E+00  5.6290627091E+00
                      -8.8817841970E-16  6.7623263649E+00  2.7470575181E+00
                      -2.1672835455E-16 -7.5076904304E-16  6.9504961884E+00
                      -2.1672835455E-16 -7.5076904304E-16  1.4256240388E+00
             xred     -5.5511151231E-17  7.0030900000E-01  5.0000000000E-01
                       2.9969100000E-01  2.9969100000E-01  5.0000000000E-01
                       7.0030900000E-01 -7.4014868308E-17  5.0000000000E-01
                      -5.5511151231E-17  3.6592300000E-01  0.0000000000E+00
                       6.3407700000E-01  6.3407700000E-01  0.0000000000E+00
                       3.6592300000E-01 -7.4014868308E-17  0.0000000000E+00
                       6.6666666667E-01  3.3333333333E-01  3.2796300000E-01
                       6.6666666667E-01  3.3333333333E-01  6.7203700000E-01
                       3.3333333333E-01  6.6666666667E-01  6.7203700000E-01
                       3.3333333333E-01  6.6666666667E-01  3.2796300000E-01
                      -5.5511151231E-17 -7.4014868308E-17  8.2979900000E-01
                      -5.5511151231E-17 -7.4014868308E-17  1.7020100000E-01
            znucl       11.00000    8.00000

- Timing analysis has been suppressed with timopt=0

 Suggested references for the acknowledgment of ABINIT usage.

 Calculation completed.
.Delivered   2 WARNINGs and   5 COMMENTs to log file.