.Version 9.7.2 of ABINIT

 ABINIT is a project of the Universite Catholique de Louvain,
 Corning Inc. and other collaborators, see ~abinit/doc/developers/contributors.txt .
 acknowledgments of the ABINIT effort.

.Starting date : Wed  1 Dec 2021.
- ( at 21h35 )

- input  file    -> /scratch/users/j/a/jabreu/flow_simple_remain_atoms/flow/w221/t1/run.abi
- output file    -> /scratch/users/j/a/jabreu/flow_simple_remain_atoms/flow/w221/t1/run.abo
- root for input  files -> /scratch/users/j/a/jabreu/flow_simple_remain_atoms/flow/w221/t1/indata/in
- root for output files -> /scratch/users/j/a/jabreu/flow_simple_remain_atoms/flow/w221/t1/outdata/out

 Symmetries : space group Pm -3 m (#221); Bravais cP (primitive cubic)
     intxc =       0      iscf =       7    lmnmax =      18     lnmax =       6
     mgfft =      45  mpssoang =       3    mqgrid =    3001     natom =       2
  nloc_mem =       1    nspden =       1   nspinor =       1    nsppol =       1
      nsym =      48    n1xccc =    2501    ntypat =       2    occopt =       1
   xclevel =       2
-    mband =          19        mffmem =           1         mkmem =           2
-   mkqmem =           2        mk1mem =           2           mpw =        4752
      nfft =       91125          nkpt =           2
  Rough estimation (10% accuracy) of disk space for files :

------------- Echo of variables that govern the present computation ------------
-
- outvars: echo of selected default values
-   iomode0 =  0 , fftalg0 =512 , wfoptalg0 =  0
-
- outvars: echo of global parameters not present in the input file
-  max_nthreads =    0
-
 -outvars: echo values of preprocessed input variables --------
            acell      1.0000000000E+00  1.0000000000E+00  1.0000000000E+00 Bohr
              amu      2.04383300E+02  1.26904470E+02
             ecut      3.50000000E+01 Hartree
-          fftalg         512
           irdden           1
           irdwfk           1
           istwfk        0    1
              ixc     -116133
              kpt      1.75000000E-01  1.75000000E-01  1.75000000E-01
                       5.00000000E-01  5.00000000E-01  5.00000000E-01
           kptopt           0
P           mkmem           2
P          mkqmem           2
P          mk1mem           2
            natom           2
            nband          19
           nbdbuf           4
            ngfft          45      45      45
             nkpt           2
            nstep        2000
             nsym          48
           ntypat           2
              occ      2.000000  2.000000  2.000000  2.000000  2.000000  2.000000
                       2.000000  2.000000  2.000000  2.000000  0.000000  0.000000
                       0.000000  0.000000  0.000000  0.000000  0.000000  0.000000
                       0.000000
        optdriver           1
            prtwf          -1
            rfdir           1       1       1
           rfelfd           2
            rprim      7.8170438650E+00  0.0000000000E+00  0.0000000000E+00
                       0.0000000000E+00  7.8170438650E+00  0.0000000000E+00
                       0.0000000000E+00  0.0000000000E+00  7.8170438650E+00
          spgroup         221
           symrel      1  0  0   0  1  0   0  0  1      -1  0  0   0 -1  0   0  0 -1
                      -1  0  0   0  1  0   0  0 -1       1  0  0   0 -1  0   0  0  1
                      -1  0  0   0 -1  0   0  0  1       1  0  0   0  1  0   0  0 -1
                       1  0  0   0 -1  0   0  0 -1      -1  0  0   0  1  0   0  0  1
                       0  1  0   1  0  0   0  0  1       0 -1  0  -1  0  0   0  0 -1
                       0 -1  0   1  0  0   0  0 -1       0  1  0  -1  0  0   0  0  1
                       0 -1  0  -1  0  0   0  0  1       0  1  0   1  0  0   0  0 -1
                       0  1  0  -1  0  0   0  0 -1       0 -1  0   1  0  0   0  0  1
                       0  0  1   1  0  0   0  1  0       0  0 -1  -1  0  0   0 -1  0
                       0  0 -1   1  0  0   0 -1  0       0  0  1  -1  0  0   0  1  0
                       0  0 -1  -1  0  0   0  1  0       0  0  1   1  0  0   0 -1  0
                       0  0  1  -1  0  0   0 -1  0       0  0 -1   1  0  0   0  1  0
                       1  0  0   0  0  1   0  1  0      -1  0  0   0  0 -1   0 -1  0
                      -1  0  0   0  0  1   0 -1  0       1  0  0   0  0 -1   0  1  0
                      -1  0  0   0  0 -1   0  1  0       1  0  0   0  0  1   0 -1  0
                       1  0  0   0  0 -1   0 -1  0      -1  0  0   0  0  1   0  1  0
                       0  1  0   0  0  1   1  0  0       0 -1  0   0  0 -1  -1  0  0
                       0 -1  0   0  0  1  -1  0  0       0  1  0   0  0 -1   1  0  0
                       0 -1  0   0  0 -1   1  0  0       0  1  0   0  0  1  -1  0  0
                       0  1  0   0  0 -1  -1  0  0       0 -1  0   0  0  1   1  0  0
                       0  0  1   0  1  0   1  0  0       0  0 -1   0 -1  0  -1  0  0
                       0  0 -1   0  1  0  -1  0  0       0  0  1   0 -1  0   1  0  0
                       0  0 -1   0 -1  0   1  0  0       0  0  1   0  1  0  -1  0  0
                       0  0  1   0 -1  0  -1  0  0       0  0 -1   0  1  0   1  0  0
           tolwfr      1.00000000E-20
            typat      1  2
           useylm           1
              wtk        0.50000    0.50000
           xangst      0.0000000000E+00  0.0000000000E+00  0.0000000000E+00
                       2.0683007260E+00  2.0683007260E+00  2.0683007260E+00
            xcart      0.0000000000E+00  0.0000000000E+00  0.0000000000E+00
                       3.9085219325E+00  3.9085219325E+00  3.9085219325E+00
             xred      0.0000000000E+00  0.0000000000E+00  0.0000000000E+00
                       5.0000000000E-01  5.0000000000E-01  5.0000000000E-01
            znucl       81.00000   53.00000

 chkinp: Checking input parameters for consistency.

== DATASET  1 ==================================================================
-   mpi_nproc: 1, omp_nthreads: -1 (-1 if OMP is not activated)

--- !DatasetInfo
iteration_state: {dtset: 1, }
dimensions: {natom: 2, nkpt: 2, mband: 19, nsppol: 1, nspinor: 1, nspden: 1, mpw: 4752, }
cutoff_energies: {ecut:  35.0, pawecutdg:  -1.0, }
electrons: {nelect:   2.00000000E+01, charge:   0.00000000E+00, occopt:   1.00000000E+00, tsmear:   1.00000000E-02, }
meta: {optdriver: 1, rfelfd: 2, }
...

 Real(R)+Recip(G) space primitive vectors, cartesian coordinates (Bohr,Bohr^-1):
 R(1)=  7.8170439  0.0000000  0.0000000  G(1)=  0.1279256  0.0000000  0.0000000
 R(2)=  0.0000000  7.8170439  0.0000000  G(2)=  0.0000000  0.1279256  0.0000000
 R(3)=  0.0000000  0.0000000  7.8170439  G(3)=  0.0000000  0.0000000  0.1279256
 Unit cell volume ucvol=  4.7766965E+02 bohr^3
 Angles (23,13,12)=  9.00000000E+01  9.00000000E+01  9.00000000E+01 degrees

 getcut: wavevector=  0.0000  0.0000  0.0000  ngfft=  45  45  45
         ecut(hartree)=     35.000   => boxcut(ratio)=   2.11354

--- Pseudopotential description ------------------------------------------------
- pspini: atom type   1  psp file is /scratch/users/j/a/jabreu/pseudos/PBEsol/Tl.psp8
- pspatm: opening atomic psp file    /scratch/users/j/a/jabreu/pseudos/PBEsol/Tl.psp8
- Tl    ONCVPSP-3.3.0  r_core=   2.10510   2.60929   2.00701
- 81.00000  13.00000    180112                znucl, zion, pspdat
    8 -116133    2    4       600   0.00000   pspcod,pspxc,lmax,lloc,mmax,r2well
    5.99000000000000    7.00000000000000    0.00000000000000   rchrg,fchrg,qchrg
     nproj     2     2     2
     extension_switch     1
  pspatm : epsatm=   37.24354552
         --- l  ekb(1:nproj) -->
             0    6.297242    0.908324
             1    4.393460    0.899003
             2   -2.697741   -0.589563
 pspatm: atomic psp has been read  and splines computed

- pspini: atom type   2  psp file is /scratch/users/j/a/jabreu/pseudos/PBEsol/I.psp8
- pspatm: opening atomic psp file    /scratch/users/j/a/jabreu/pseudos/PBEsol/I.psp8
- I     ONCVPSP-3.3.0  r_core=   2.02042   2.17032   2.27639
- 53.00000   7.00000    180112                znucl, zion, pspdat
    8 -116133    2    4       600   0.00000   pspcod,pspxc,lmax,lloc,mmax,r2well
    5.99000000000000    4.00000000000000    0.00000000000000   rchrg,fchrg,qchrg
     nproj     2     2     2
     extension_switch     1
  pspatm : epsatm=   18.14229533
         --- l  ekb(1:nproj) -->
             0    6.015861    0.935228
             1    4.063749    0.754139
             2    4.149534    0.722940
 pspatm: atomic psp has been read  and splines computed

   1.10771682E+03                                ecore*ucvol(ha*bohr**3)

 ==>  initialize data related to q vector <==

 The list of irreducible perturbations for this q vector is:
    1)    idir= 1    ipert=   3
    2)    idir= 2    ipert=   3
    3)    idir= 3    ipert=   3

 Perturbation wavevector (in red.coord.)   0.000000  0.000000  0.000000
 Perturbation : derivative vs k along direction   1

 dfpt_looppert : COMMENT -
  In a d/dk calculation, iscf is set to -3 automatically.
 The set of symmetries contains only one element for this perturbation.
 symkpt : not enough symmetry to change the number of k points.

 Initialisation of the first-order wave-functions :
  ireadwf=   0

--- !BeginCycle
iteration_state: {dtset: 1, }
solver: {iscf: 7, nstep: 2000, nline: 4, wfoptalg: 0, }
tolerances: {tolwfr: 1.00E-20, }
...

     iter   2DEtotal(Ha)        deltaE(Ha) residm    vres2
-ETOT  1  -27.244457384900     -2.724E+01 8.539E-02 0.000E+00
 ETOT  2  -27.251355622713     -6.898E-03 7.170E-05 0.000E+00
 ETOT  3  -27.251359846892     -4.224E-06 6.137E-06 0.000E+00
 ETOT  4  -27.251359852799     -5.908E-09 9.190E-09 0.000E+00
 ETOT  5  -27.251359852834     -3.496E-11 7.820E-10 0.000E+00
 ETOT  6  -27.251359852834     -2.416E-13 9.328E-12 0.000E+00
 ETOT  7  -27.251359852834     -7.105E-15 9.998E-13 0.000E+00
 ETOT  8  -27.251359852834      7.105E-15 1.456E-14 0.000E+00
 ETOT  9  -27.251359852834     -3.553E-15 2.255E-15 0.000E+00
 ETOT 10  -27.251359852834      0.000E+00 3.345E-17 0.000E+00
 ETOT 11  -27.251359852834      0.000E+00 5.363E-18 0.000E+00
 ETOT 12  -27.251359852834      0.000E+00 7.811E-20 0.000E+00
 ETOT 13  -27.251359852834      3.553E-15 1.275E-20 0.000E+00
 ETOT 14  -27.251359852834     -3.553E-15 9.369E-21 0.000E+00

 At SCF step   14   max residual=  9.37E-21 < tolwfr=  1.00E-20 =>converged.

 ----iterations are completed or convergence reached----

 dfpt_looppert: DFPT cycle converged with prtwf=-1. Will skip output of the 1st-order WFK file.
 dfpt_looppert : ek2=    2.5842506255E+01
          f-sum rule ratio=    1.1783012441E+00
 prteigrs : about to open file /scratch/users/j/a/jabreu/flow_simple_remain_atoms/flow/w221/t1/tmpdata/tmp_1WF1_EIG
 Expectation of eigenvalue derivatives (hartree) for nkpt=   2  k points:
  (in case of degenerate eigenvalues, averaged derivative)
 kpt#   1, nband= 19, wtk=  0.50000, kpt=  0.1750  0.1750  0.1750 (reduced coord)
   0.02945    0.00574    0.00574   -0.00317   -0.00317    0.00468   -0.01687   -0.04767
  -0.04767   -0.00581   -0.02327   -0.15055   -0.15055    0.15943    0.15943    0.08839
   0.08839   -0.09608   -0.25700
 prteigrs : prtvol=0 or 1, do not print more k-points.

 Eight components of 2nd-order total energy (hartree) are
 1,2,3: 0th-order hamiltonian combined with 1st-order wavefunctions
     kin0=   2.23057141E+01 eigvalue=   1.94476009E+00  local=  -1.15165860E+01
 4,5,6: 1st-order hamiltonian combined with 1st and 0th-order wfs
     kin1=  -3.04502573E+01  Hartree=   0.00000000E+00     xc=   0.00000000E+00
 7,8,9: eventually, occupation + non-local contributions
    edocc=   1.07579588E+01     enl0=   3.75951283E+00   enl1=  -2.40524624E+01
 1-9 gives the relaxation energy (to be shifted if some occ is /=2.0)
   erelax=  -2.72513599E+01
  No Ewald or frozen-wf contrib.: the relaxation energy is the total one
 2DEtotal=   -0.2725135985E+02 Ha. Also 2DEtotal=   -0.741547213662E+03 eV
    (  non-var. 2DEtotal :   -2.7251359853E+01 Ha)

 Perturbation wavevector (in red.coord.)   0.000000  0.000000  0.000000
 Perturbation : derivative vs k along direction   2
 The set of symmetries contains only one element for this perturbation.
 symkpt : not enough symmetry to change the number of k points.

[...]

 Perturbation wavevector (in red.coord.)   0.000000  0.000000  0.000000
 Perturbation : derivative vs k along direction   3
 The set of symmetries contains only one element for this perturbation.
 symkpt : not enough symmetry to change the number of k points.

 Initialisation of the first-order wave-functions :
  ireadwf=   0

--- !BeginCycle
iteration_state: {dtset: 1, }
solver: {iscf: 7, nstep: 2000, nline: 4, wfoptalg: 0, }
tolerances: {tolwfr: 1.00E-20, }
...

     iter   2DEtotal(Ha)        deltaE(Ha) residm    vres2
-ETOT  1  -27.246081447708     -2.725E+01 8.956E-02 0.000E+00
 ETOT  2  -27.251400468156     -5.319E-03 5.159E-05 0.000E+00
 ETOT  3  -27.251402532292     -2.064E-06 7.394E-06 0.000E+00
 ETOT  4  -27.251402538092     -5.799E-09 4.279E-08 0.000E+00
 ETOT  5  -27.251402538126     -3.470E-11 4.781E-09 0.000E+00
 ETOT  6  -27.251402538127     -2.487E-13 4.861E-11 0.000E+00
 ETOT  7  -27.251402538127     -3.553E-15 4.634E-12 0.000E+00
 ETOT  8  -27.251402538127      0.000E+00 5.026E-14 0.000E+00
 ETOT  9  -27.251402538127     -7.105E-15 7.145E-15 0.000E+00
 ETOT 10  -27.251402538127      0.000E+00 1.069E-16 0.000E+00
 ETOT 11  -27.251402538127      7.105E-15 1.935E-17 0.000E+00
 ETOT 12  -27.251402538127     -7.105E-15 3.460E-19 0.000E+00
 ETOT 13  -27.251402538127      7.105E-15 7.480E-20 0.000E+00
 ETOT 14  -27.251402538127     -3.553E-15 9.206E-21 0.000E+00

 At SCF step   14   max residual=  9.21E-21 < tolwfr=  1.00E-20 =>converged.

 ----iterations are completed or convergence reached----

 dfpt_looppert: DFPT cycle converged with prtwf=-1. Will skip output of the 1st-order WFK file.
 dfpt_looppert : ek2=    2.5842506255E+01
          f-sum rule ratio=    1.1783051522E+00
 prteigrs : about to open file /scratch/users/j/a/jabreu/flow_simple_remain_atoms/flow/w221/t1/tmpdata/tmp_1WF1_EIG
 Expectation of eigenvalue derivatives (hartree) for nkpt=   2  k points:
  (in case of degenerate eigenvalues, averaged derivative)
 kpt#   1, nband= 19, wtk=  0.50000, kpt=  0.1750  0.1750  0.1750 (reduced coord)
   0.02945    0.00574    0.00574   -0.00317   -0.00317    0.00468   -0.01687   -0.04767
  -0.04767   -0.00581   -0.02327   -0.15055   -0.15055    0.15943    0.15943    0.08839
   0.08839   -0.09608   -0.25870
 prteigrs : prtvol=0 or 1, do not print more k-points.

 Eight components of 2nd-order total energy (hartree) are
 1,2,3: 0th-order hamiltonian combined with 1st-order wavefunctions
     kin0=   2.23132341E+01 eigvalue=   1.99568794E+00  local=  -1.16200049E+01
 4,5,6: 1st-order hamiltonian combined with 1st and 0th-order wfs
     kin1=  -3.04503583E+01  Hartree=   0.00000000E+00     xc=   0.00000000E+00
 7,8,9: eventually, occupation + non-local contributions
    edocc=   1.06962384E+01     enl0=   3.86624704E+00   enl1=  -2.40524468E+01
 1-9 gives the relaxation energy (to be shifted if some occ is /=2.0)
   erelax=  -2.72514025E+01
  No Ewald or frozen-wf contrib.: the relaxation energy is the total one
 2DEtotal=   -0.2725140254E+02 Ha. Also 2DEtotal=   -0.741548375188E+03 eV
    (  non-var. 2DEtotal :   -2.7251402538E+01 Ha)

 CALCULATION OF EFFECTIVE MASSES
 NOTE : Additional infos (eff. mass eigenvalues, eigenvectors and, if degenerate, average mass) are available in stdout.

--- !WARNING
src_file: m_efmas.F90
src_line: 0
message: |
    Effective masses calculations require given k-point(s) to be band extrema for given bands, but max abs gradient of band(s) was found to be greater than 1e-5. Abinit will continue anyway.
...

[...]

--- !WARNING
src_file: m_efmas.F90
src_line: 0
message: |
    Effective masses calculations require given k-point(s) to be band extrema for given bands, but max abs gradient of band(s) was found to be greater than 1e-5. Abinit will continue anyway.
...

 K-point ( 0.175, 0.175, 0.175) | band =    10
 Effective mass tensor:
             -1.0011823859              0.3900338683              0.3900381090
              0.3900338683             -1.0011730467              0.3900428879
              0.3900381090              0.3900428879             -1.0011643537
 Effective mass tensor eigenvalues:
             -1.3912116222             -1.3912114789             -0.2210966852
 Angular average effective mass 1/(<1/m>)=  -0.5033131395
 Angular average effective mass for Frohlich model (<m**0.5>)**2=  -0.6483531228
 Effective masses along directions: (cart. coord. / red. coord. -> eff. mass)
    1:   1.000000  0.000000  0.000000 /   1.000000  0.000000  0.000000 ->  -0.5033206710
    2:   0.000000  1.000000  0.000000 /   0.000000  1.000000  0.000000 ->  -0.5033129290
    3:   0.000000  0.000000  1.000000 /   0.000000  0.000000  1.000000 ->  -0.5033058186
    4:   0.577350  0.577350  0.577350 /   0.577350  0.577350  0.577350 ->  -0.2210966852
    5:   0.000000  0.707107  0.707107 /   0.000000  0.707107  0.707107 ->  -0.3072289907
    6:   0.707107  0.000000  0.707107 /   0.707107  0.000000  0.707107 ->  -0.3072318807
    7:   0.707107  0.707107  0.000000 /   0.707107  0.707107  0.000000 ->  -0.3072345250

 COMMENTS:
 - At k-point ( 0.500, 0.500, 0.500), bands    11 through    13
   are DEGENERATE (effective mass tensor is therefore not defined).
   See Section IIIB Eqs. (67)-(70) and Appendix E of PRB 93 205147 (2016).
 - Angular average effective mass for Frohlich model is to be averaged over degenerate bands. See later.
 - Associated theta integrals calculated with ntheta=   1000 points.

 K-point ( 0.500, 0.500, 0.500) | band =    11
 Transport equivalent effective mass tensor:
              1.1811638529              0.0000000003             -0.0000000002
              0.0000000003              1.1811619171              0.0000000003
             -0.0000000002              0.0000000003              1.1811683947
 Transport equivalent effective mass tensor eigenvalues:
              1.1811683947              1.1811638529              1.1811619171
 Angular average effective mass 1/(<1/m>)=   0.5697703166
 Angular average effective mass for Frohlich model (<m**0.5>)**2=   0.5966513219
 Effective masses along directions: (cart. coord. / red. coord. -> eff. mass)
    1:   1.000000  0.000000  0.000000 /   1.000000  0.000000  0.000000 ->   0.2770554149
    2:   0.000000  1.000000  0.000000 /   0.000000  1.000000  0.000000 ->   0.2770554149
    3:   0.000000  0.000000  1.000000 /   0.000000  0.000000  1.000000 ->   0.2770554149
    4:   0.577350  0.577350  0.577350 /   0.577350  0.577350  0.577350 ->   0.5073067639
    5:   0.000000  0.707107  0.707107 /   0.000000  0.707107  0.707107 ->   0.8679819113
    6:   0.707107  0.000000  0.707107 /   0.707107  0.000000  0.707107 ->   0.8679819074
    7:   0.707107  0.707107  0.000000 /   0.707107  0.707107  0.000000 ->   0.8679819118

[...]

 K-point ( 0.500, 0.500, 0.500) | band =    13
 Transport equivalent effective mass tensor:
              0.2019607185              0.0000000000             -0.0000000000
              0.0000000000              0.2019607182             -0.0000000000
             -0.0000000000             -0.0000000000              0.2019607183
 Transport equivalent effective mass tensor eigenvalues:
              0.2019607185              0.2019607183              0.2019607182
 Angular average effective mass 1/(<1/m>)=   0.1666993758
 Angular average effective mass for Frohlich model (<m**0.5>)**2=   0.1685615968
 Effective masses along directions: (cart. coord. / red. coord. -> eff. mass)
    1:   1.000000  0.000000  0.000000 /   1.000000  0.000000  0.000000 ->   0.2676794918
    2:   0.000000  1.000000  0.000000 /   0.000000  1.000000  0.000000 ->   0.2676794913
    3:   0.000000  0.000000  1.000000 /   0.000000  0.000000  1.000000 ->   0.2676794911
    4:   0.577350  0.577350  0.577350 /   0.577350  0.577350  0.577350 ->   0.1426086840
    5:   0.000000  0.707107  0.707107 /   0.000000  0.707107  0.707107 ->   0.1614700352
    6:   0.707107  0.000000  0.707107 /   0.707107  0.000000  0.707107 ->   0.1614700354
    7:   0.707107  0.707107  0.000000 /   0.707107  0.707107  0.000000 ->   0.1614700353

 Angular average effective mass for Frohlich model, averaged over degenerate bands.
 Value of     (<<m**0.5>>)**2 =     3.385958E-01
 Absolute Value of <<m**0.5>> =     5.818899E-01

 END OF EFFECTIVE MASSES SECTION

 ---- first-order wavefunction calculations are completed ----

 Total localisation tensor (bohr^2) in cartesian coordinates
  WARNING : still subject to testing - especially symmetries.
      direction              matrix element
   alpha     beta       real part   imaginary part
     1        1       2.5853069154    0.0000000000
     1        2       0.0000000000    0.0000000000
     1        3       0.0000000000    0.0000000000
     2        1       0.0000000000    0.0000000000
     2        2       2.5852917200    0.0000000000
     2        3       0.0000000000    0.0000000000
     3        1       0.0000000000    0.0000000000
     3        2       0.0000000000    0.0000000000
     3        3       2.5853113015    0.0000000000

 respfn : d/dk was computed, but no 2DTE, so no DDB output.

== END DATASET(S) ==============================================================

 -outvars: echo values of variables after computation  --------
            acell      1.0000000000E+00  1.0000000000E+00  1.0000000000E+00 Bohr
              amu      2.04383300E+02  1.26904470E+02
             ecut      3.50000000E+01 Hartree
           etotal     -2.7251402538E+01
            fcart      0.0000000000E+00  0.0000000000E+00  0.0000000000E+00
                       0.0000000000E+00  0.0000000000E+00  0.0000000000E+00
-          fftalg         512
           irdden           1
           irdwfk           1
           istwfk        0    1
              ixc     -116133
              kpt      1.75000000E-01  1.75000000E-01  1.75000000E-01
                       5.00000000E-01  5.00000000E-01  5.00000000E-01
           kptopt           0
P           mkmem           2
P          mkqmem           2
P          mk1mem           2
            natom           2
            nband          19
           nbdbuf           4
            ngfft          45      45      45
             nkpt           2
            nstep        2000
             nsym          48
           ntypat           2
              occ      2.000000  2.000000  2.000000  2.000000  2.000000  2.000000
                       2.000000  2.000000  2.000000  2.000000  0.000000  0.000000
                       0.000000  0.000000  0.000000  0.000000  0.000000  0.000000
                       0.000000
        optdriver           1
            prtwf          -1
            rfdir           1       1       1
           rfelfd           2
            rprim      7.8170438650E+00  0.0000000000E+00  0.0000000000E+00
                       0.0000000000E+00  7.8170438650E+00  0.0000000000E+00
                       0.0000000000E+00  0.0000000000E+00  7.8170438650E+00
          spgroup         221
           strten      0.0000000000E+00  0.0000000000E+00  0.0000000000E+00
                       0.0000000000E+00  0.0000000000E+00  0.0000000000E+00
           symrel      1  0  0   0  1  0   0  0  1      -1  0  0   0 -1  0   0  0 -1
                      -1  0  0   0  1  0   0  0 -1       1  0  0   0 -1  0   0  0  1
                      -1  0  0   0 -1  0   0  0  1       1  0  0   0  1  0   0  0 -1
                       1  0  0   0 -1  0   0  0 -1      -1  0  0   0  1  0   0  0  1
                       0  1  0   1  0  0   0  0  1       0 -1  0  -1  0  0   0  0 -1
                       0 -1  0   1  0  0   0  0 -1       0  1  0  -1  0  0   0  0  1
                       0 -1  0  -1  0  0   0  0  1       0  1  0   1  0  0   0  0 -1
                       0  1  0  -1  0  0   0  0 -1       0 -1  0   1  0  0   0  0  1
                       0  0  1   1  0  0   0  1  0       0  0 -1  -1  0  0   0 -1  0
                       0  0 -1   1  0  0   0 -1  0       0  0  1  -1  0  0   0  1  0
                       0  0 -1  -1  0  0   0  1  0       0  0  1   1  0  0   0 -1  0
                       0  0  1  -1  0  0   0 -1  0       0  0 -1   1  0  0   0  1  0
                       1  0  0   0  0  1   0  1  0      -1  0  0   0  0 -1   0 -1  0
                      -1  0  0   0  0  1   0 -1  0       1  0  0   0  0 -1   0  1  0
                      -1  0  0   0  0 -1   0  1  0       1  0  0   0  0  1   0 -1  0
                       1  0  0   0  0 -1   0 -1  0      -1  0  0   0  0  1   0  1  0
                       0  1  0   0  0  1   1  0  0       0 -1  0   0  0 -1  -1  0  0
                       0 -1  0   0  0  1  -1  0  0       0  1  0   0  0 -1   1  0  0
                       0 -1  0   0  0 -1   1  0  0       0  1  0   0  0  1  -1  0  0
                       0  1  0   0  0 -1  -1  0  0       0 -1  0   0  0  1   1  0  0
                       0  0  1   0  1  0   1  0  0       0  0 -1   0 -1  0  -1  0  0
                       0  0 -1   0  1  0  -1  0  0       0  0  1   0 -1  0   1  0  0
                       0  0 -1   0 -1  0   1  0  0       0  0  1   0  1  0  -1  0  0
                       0  0  1   0 -1  0  -1  0  0       0  0 -1   0  1  0   1  0  0
           tolwfr      1.00000000E-20
            typat      1  2
           useylm           1
              wtk        0.50000    0.50000
           xangst      0.0000000000E+00  0.0000000000E+00  0.0000000000E+00
                       2.0683007260E+00  2.0683007260E+00  2.0683007260E+00
            xcart      0.0000000000E+00  0.0000000000E+00  0.0000000000E+00
                       3.9085219325E+00  3.9085219325E+00  3.9085219325E+00
             xred      0.0000000000E+00  0.0000000000E+00  0.0000000000E+00
                       5.0000000000E-01  5.0000000000E-01  5.0000000000E-01
            znucl       81.00000   53.00000

- Timing analysis has been suppressed with timopt=0

 Suggested references for the acknowledgment of ABINIT usage.

 Calculation completed.
.Delivered   8 WARNINGs and   5 COMMENTs to log file.