.Version 9.5.1 of ABINIT

 ABINIT is a project of the Universite Catholique de Louvain,
 Corning Inc. and other collaborators, see ~abinit/doc/developers/contributors.txt .
 acknowledgments of the ABINIT effort.

.Starting date : Tue 18 May 2021.
- ( at 13h19 )

- input  file    -> /scratch/users/j/a/jabreu/flow_simple_8atoms/flow/w320/t1/run.abi
- output file    -> /scratch/users/j/a/jabreu/flow_simple_8atoms/flow/w320/t1/run.abo
- root for input  files -> /scratch/users/j/a/jabreu/flow_simple_8atoms/flow/w320/t1/indata/in
- root for output files -> /scratch/users/j/a/jabreu/flow_simple_8atoms/flow/w320/t1/outdata/out

 Symmetries : space group I-4 2 d (#122); Bravais tI (body-center tetrag.)
     intxc =       0      iscf =       7    lmnmax =      18     lnmax =       6
     mgfft =      90  mpssoang =       3    mqgrid =    3193     natom =       8
  nloc_mem =       1    nspden =       1   nspinor =       1    nsppol =       1
      nsym =       8    n1xccc =    2501    ntypat =       3    occopt =       1
   xclevel =       2
-    mband =          73        mffmem =           1         mkmem =           1
-   mkqmem =           1        mk1mem =           1           mpw =       23819
      nfft =      729000          nkpt =           1
  Rough estimation (10% accuracy) of disk space for files :

------------- Echo of variables that govern the present computation ------------
-
- outvars: echo of selected default values
-   iomode0 =  0 , fftalg0 =512 , wfoptalg0 =  0
-
- outvars: echo of global parameters not present in the input file
-  max_nthreads =    0
-
 -outvars: echo values of preprocessed input variables --------
            acell      1.0000000000E+00  1.0000000000E+00  1.0000000000E+00 Bohr
              amu      1.14820000E+02  6.35460000E+01  1.27600000E+02
             ecut      4.60000000E+01 Hartree
-          fftalg         512
           irdden           1
           irdwfk           1
           istwfk        1
              ixc     -116133
           kptopt           0
P           mkmem           1
P          mkqmem           1
P          mk1mem           1
            natom           8
            nband          73
           nbdbuf           4
            ngfft          90      90      90
             nkpt           1
            nstep        2000
             nsym           8
           ntypat           3
              occ      2.000000  2.000000  2.000000  2.000000  2.000000  2.000000
                       2.000000  2.000000  2.000000  2.000000  2.000000  2.000000
                       2.000000  2.000000  2.000000  2.000000  2.000000  2.000000
                       2.000000  2.000000  2.000000  2.000000  2.000000  2.000000
                       2.000000  2.000000  2.000000  2.000000  2.000000  2.000000
                       2.000000  2.000000  2.000000  2.000000  2.000000  2.000000
                       2.000000  2.000000  2.000000  2.000000  2.000000  2.000000
                       2.000000  2.000000  2.000000  2.000000  2.000000  2.000000
                       2.000000  2.000000  2.000000  2.000000  2.000000  2.000000
                       2.000000  2.000000  2.000000  2.000000  2.000000  2.000000
                       2.000000  2.000000  2.000000  2.000000  0.000000  0.000000
                       0.000000  0.000000  0.000000  0.000000  0.000000  0.000000
                       0.000000
        optdriver           1
            prtwf          -1
            rfdir           1       1       1
           rfelfd           2
            rprim      1.0671927779E+01  0.0000000000E+00 -9.5701101642E+00
                      -2.1269944889E+00  1.0457817027E+01 -9.5701101642E+00
                       0.0000000000E+00  0.0000000000E+00  1.4334470729E+01
          spgroup         122
           symrel      1  0  0   0  1  0   0  0  1       0  0  1  -1 -1 -1   1  0  0
                       0  1  0   1  0  0  -1 -1 -1      -1 -1 -1   0  0  1   0  1  0
                       0  1  0   1  0  0   0  0  1       0  0  1  -1 -1 -1   0  1  0
                       1  0  0   0  1  0  -1 -1 -1      -1 -1 -1   0  0  1   1  0  0
            tnons      0.0000000  0.0000000  0.0000000    -0.2500000  0.2500000  0.5000000
                       0.0000000  0.0000000  0.0000000    -0.2500000  0.2500000  0.5000000
                      -0.2500000  0.2500000  0.5000000     0.0000000 -0.0000000  0.0000000
                      -0.2500000  0.2500000  0.5000000    -0.0000000  0.0000000  0.0000000
           tolwfr      1.00000000E-20
            typat      1  1  2  2  3  3  3  3
           useylm           1
           xangst      5.6766748334E-01  4.1505288166E+00 -1.2715465792E+00
                       2.2608919730E+00  2.7670192110E+00 -5.0642841826E+00
                       3.9541164627E+00  1.3835096055E+00 -1.2715465792E+00
                       0.0000000000E+00  0.0000000000E+00  0.0000000000E+00
                       3.5494425289E-01  6.9175480276E-01  2.4327900100E+00
                       4.5612495710E+00  1.8692044876E+00  1.1612434308E+00
                       1.0909803615E+00  5.0483435400E+00 -6.2364786805E+00
                       3.0363937066E+00  3.4587740138E+00 -2.4437410770E+00
            xcart      1.0727360781E+00  7.8433627700E+00 -2.4028747998E+00
                       4.2724666450E+00  5.2289085133E+00 -9.5701101642E+00
                       7.4721972120E+00  2.6144542567E+00 -2.4028747999E+00
                       0.0000000000E+00  0.0000000000E+00  0.0000000000E+00
                       6.7074743040E-01  1.3072271283E+00  4.5973068577E+00
                       8.6195125130E+00  3.5322845680E+00  2.1944320578E+00
                       2.0616540995E+00  9.5399867153E+00 -1.1785236740E+01
                       5.7379525371E+00  6.5361356416E+00 -4.6180013753E+00
             xred      2.5000000000E-01  7.5000000000E-01  5.0000000000E-01
                       5.0000000000E-01  5.0000000000E-01  5.5511151231E-17
                       7.5000000000E-01  2.5000000000E-01  5.0000000000E-01
                       0.0000000000E+00  0.0000000000E+00  0.0000000000E+00
                       8.7765000000E-02  1.2500000000E-01  4.6276500000E-01
                       8.7500000000E-01  3.3776500000E-01  9.6276500000E-01
                       3.7500000000E-01  9.1223500000E-01  3.7235000000E-02
                       6.6223500000E-01  6.2500000000E-01  5.3723500000E-01
            znucl       49.00000   29.00000   52.00000

 chkinp: Checking input parameters for consistency.

== DATASET  1 ==================================================================
-   mpi_nproc: 1, omp_nthreads: -1 (-1 if OMP is not activated)

--- !DatasetInfo
iteration_state: {dtset: 1, }
dimensions: {natom: 8, nkpt: 1, mband: 73, nsppol: 1, nspinor: 1, nspden: 1, mpw: 23819, }
cutoff_energies: {ecut:  46.0, pawecutdg:  -1.0, }
electrons: {nelect:   1.28000000E+02, charge:   0.00000000E+00, occopt:   1.00000000E+00, tsmear:   1.00000000E-02, }
meta: {optdriver: 1, rfelfd: 2, }
...

 Real(R)+Recip(G) space primitive vectors, cartesian coordinates (Bohr,Bohr^-1):
 R(1)= 10.6719278  0.0000000 -9.5701102  G(1)=  0.0937038  0.0190582  0.0000000
 R(2)= -2.1269945 10.4578170 -9.5701102  G(2)=  0.0000000  0.0956223  0.0000000
 R(3)=  0.0000000  0.0000000 14.3344707  G(3)=  0.0625594  0.0765640  0.0697619
 Unit cell volume ucvol=  1.5997996E+03 bohr^3
 Angles (23,13,12)=  1.31884342E+02  1.31884342E+02  7.04117571E+01 degrees

 getcut: wavevector=  0.0000  0.0000  0.0000  ngfft=  90  90  90
         ecut(hartree)=     46.000   => boxcut(ratio)=   2.05645

--- Pseudopotential description ------------------------------------------------
- pspini: atom type   1  psp file is /scratch/users/j/a/jabreu/pseudos/PBEsol/In.psp8
- pspatm: opening atomic psp file    /scratch/users/j/a/jabreu/pseudos/PBEsol/In.psp8
- In    ONCVPSP-3.3.0  r_core=   2.10853   2.37566   1.87143
- 49.00000  13.00000    180112                znucl, zion, pspdat
    8 -116133    2    4       600   0.00000   pspcod,pspxc,lmax,lloc,mmax,r2well
    5.99000000000000    5.00000000000000    0.00000000000000   rchrg,fchrg,qchrg
     nproj     2     2     2
     extension_switch     1
  pspatm : epsatm=   25.17984752
         --- l  ekb(1:nproj) -->
             0   12.999887    1.931740
             1    5.981707    1.012544
             2   -4.048011   -1.239028
 pspatm: atomic psp has been read  and splines computed

- pspini: atom type   2  psp file is /scratch/users/j/a/jabreu/pseudos/PBEsol/Cu.psp8
- pspatm: opening atomic psp file    /scratch/users/j/a/jabreu/pseudos/PBEsol/Cu.psp8
- Cu    ONCVPSP-3.3.0  r_core=   1.26204   1.45626   1.76249
- 29.00000  19.00000    180112                znucl, zion, pspdat
    8 -116133    2    4       600   0.00000   pspcod,pspxc,lmax,lloc,mmax,r2well
    5.99000000000000    3.50000000000000    0.00000000000000   rchrg,fchrg,qchrg
     nproj     2     2     2
     extension_switch     1
  pspatm : epsatm=   21.63488701
         --- l  ekb(1:nproj) -->
             0    5.008230   -0.401634
             1   -3.496700   -0.765945
             2   -6.895851   -2.521180
 pspatm: atomic psp has been read  and splines computed

- pspini: atom type   3  psp file is /scratch/users/j/a/jabreu/pseudos/PBEsol/Te.psp8
- pspatm: opening atomic psp file    /scratch/users/j/a/jabreu/pseudos/PBEsol/Te.psp8
- Te    ONCVPSP-3.3.0  r_core=   2.26547   1.91704   1.80604
- 52.00000  16.00000    180112                znucl, zion, pspdat
    8 -116133    2    4       600   0.00000   pspcod,pspxc,lmax,lloc,mmax,r2well
    5.99000000000000    5.00000000000000    0.00000000000000   rchrg,fchrg,qchrg
     nproj     2     2     2
     extension_switch     1
  pspatm : epsatm=   36.82679836
         --- l  ekb(1:nproj) -->
             0    6.345999    0.785432
             1    5.709019    1.070069
             2   -6.035173   -1.870937
 pspatm: atomic psp has been read  and splines computed

   3.08398928E+04                                ecore*ucvol(ha*bohr**3)

-inwffil : will read wavefunctions from disk file /scratch/users/j/a/jabreu/flow_simple_8atoms/flow/w320/t1/indata/in_WFK

 ==>  initialize data related to q vector <==

 The list of irreducible perturbations for this q vector is:
    1)    idir= 1    ipert=   9
    2)    idir= 2    ipert=   9
    3)    idir= 3    ipert=   9

 Perturbation wavevector (in red.coord.)   0.000000  0.000000  0.000000
 Perturbation : derivative vs k along direction   1

 dfpt_looppert : COMMENT -
  In a d/dk calculation, iscf is set to -3 automatically.
 The set of symmetries contains only one element for this perturbation.
 symkpt : not enough symmetry to change the number of k points.

[...]

 Initialisation of the first-order wave-functions :
  ireadwf=   0

--- !BeginCycle
iteration_state: {dtset: 1, }
solver: {iscf: 7, nstep: 2000, nline: 4, wfoptalg: 0, }
tolerances: {tolwfr: 1.00E-20, }
...

     iter   2DEtotal(Ha)        deltaE(Ha) residm    vres2
-ETOT  1  -1197.5808257499     -1.198E+03 1.626E-01 0.000E+00
 ETOT  2  -1197.9120217088     -3.312E-01 2.027E-02 0.000E+00
 ETOT  3  -1197.9318010008     -1.978E-02 1.533E-03 0.000E+00
[...]
 1-9 gives the relaxation energy (to be shifted if some occ is /=2.0)
   erelax=  -1.19793406E+03
  No Ewald or frozen-wf contrib.: the relaxation energy is the total one
 2DEtotal=   -0.1197934062E+04 Ha. Also 2DEtotal=   -0.325974435956E+05 eV
    (  non-var. 2DEtotal :   -1.1979340618E+03 Ha)

 Perturbation wavevector (in red.coord.)   0.000000  0.000000  0.000000
 Perturbation : derivative vs k along direction   2
 The set of symmetries contains only one element for this perturbation.
 symkpt : not enough symmetry to change the number of k points.

[...]

 Perturbation wavevector (in red.coord.)   0.000000  0.000000  0.000000
 Perturbation : derivative vs k along direction   3
 The set of symmetries contains only one element for this perturbation.
 symkpt : not enough symmetry to change the number of k points.

-inwffil : will read wavefunctions from disk file /scratch/users/j/a/jabreu/flow_simple_8atoms/flow/w320/t1/indata/in_WFK

 Initialisation of the first-order wave-functions :
  ireadwf=   0

--- !BeginCycle
iteration_state: {dtset: 1, }
solver: {iscf: 7, nstep: 2000, nline: 4, wfoptalg: 0, }
tolerances: {tolwfr: 1.00E-20, }
...

     iter   2DEtotal(Ha)        deltaE(Ha) residm    vres2
-ETOT  1  -2295.8577208502     -2.296E+03 2.199E-01 0.000E+00
 ETOT  2  -2296.2515135584     -3.938E-01 2.056E-02 0.000E+00
 ETOT  3  -2296.2680704619     -1.656E-02 3.203E-03 0.000E+00
 ETOT  4  -2296.2695282391     -1.458E-03 6.401E-04 0.000E+00
 ETOT  5  -2296.2696844769     -1.562E-04 1.467E-04 0.000E+00
 ETOT  6  -2296.2697023720     -1.790E-05 2.785E-05 0.000E+00
 ETOT  7  -2296.2697045102     -2.138E-06 7.328E-06 0.000E+00
 ETOT  8  -2296.2697047719     -2.617E-07 1.357E-06 0.000E+00
 ETOT  9  -2296.2697048046     -3.270E-08 3.725E-07 0.000E+00
 ETOT 10  -2296.2697048088     -4.162E-09 6.844E-08 0.000E+00
 ETOT 11  -2296.2697048094     -5.543E-10 1.901E-08 0.000E+00
 ETOT 12  -2296.2697048094     -6.503E-11 3.480E-09 0.000E+00
 ETOT 13  -2296.2697048094     -4.093E-12 9.726E-10 0.000E+00
 ETOT 14  -2296.2697048094      1.000E-11 1.775E-10 0.000E+00
 ETOT 15  -2296.2697048094      2.092E-11 4.980E-11 0.000E+00
 ETOT 16  -2296.2697048094     -3.229E-11 9.074E-12 0.000E+00
 ETOT 17  -2296.2697048094      1.910E-11 2.551E-12 0.000E+00
 ETOT 18  -2296.2697048094     -5.457E-12 4.644E-13 0.000E+00
 ETOT 19  -2296.2697048094     -7.731E-12 1.308E-13 0.000E+00
 ETOT 20  -2296.2697048094      5.457E-12 2.379E-14 0.000E+00
 ETOT 21  -2296.2697048094     -4.093E-12 6.703E-15 0.000E+00
 ETOT 22  -2296.2697048094      3.183E-12 1.220E-15 0.000E+00
 ETOT 23  -2296.2697048094     -4.547E-12 3.438E-16 0.000E+00
 ETOT 24  -2296.2697048094      0.000E+00 6.255E-17 0.000E+00
 ETOT 25  -2296.2697048094      0.000E+00 1.763E-17 0.000E+00
 ETOT 26  -2296.2697048094     -4.547E-13 3.210E-18 0.000E+00
 ETOT 27  -2296.2697048094      4.547E-13 9.047E-19 0.000E+00
 ETOT 28  -2296.2697048094      0.000E+00 1.648E-19 0.000E+00
 ETOT 29  -2296.2697048094      4.547E-13 4.643E-20 0.000E+00
 ETOT 30  -2296.2697048094      0.000E+00 9.948E-21 0.000E+00

 At SCF step   30   max residual=  9.95E-21 < tolwfr=  1.00E-20 =>converged.

 ----iterations are completed or convergence reached----

 dfpt_looppert: DFPT cycle converged with prtwf=-1. Will skip output of the 1st-order WFK file.
 dfpt_looppert : ek2=    1.4798354220E+02
          f-sum rule ratio=    2.7069670428E+01
 prteigrs : about to open file /scratch/users/j/a/jabreu/flow_simple_8atoms/flow/w320/t1/tmpdata/tmp_1WF1_EIG
 Expectation of eigenvalue derivatives (hartree) for nkpt=   1  k points:
  (in case of degenerate eigenvalues, averaged derivative)
 kpt#   1, nband= 73, wtk=  1.00000, kpt=  0.0000  0.0000  0.0000 (reduced coord)
  -0.00000    0.00000   -0.00000    0.00000   -0.00000   -0.00000    0.00000    0.00000
  -0.00000    0.00000    0.00000    0.00000   -0.00000    0.00000    0.00000    0.00000
  -0.00000   -0.00000   -0.00000   -0.00000   -0.00000   -0.00000    0.00000    0.00000
  -0.00000   -0.00000   -0.00000   -0.00000    0.00000    0.00000    0.00000   -0.00000
   0.00000    0.00000   -0.00000   -0.00000   -0.00000   -0.00000    0.00000   -0.00000
  -0.00000   -0.00000    0.00000   -0.00000   -0.00000    0.00000    0.00000    0.00000
   0.00000    0.00000    0.00000   -0.00000   -0.00000   -0.00000    0.00000   -0.00000
   0.00000    0.00000    0.00000    0.00000    0.00000    0.00000   -0.00000   -0.00000
  -0.00000   -0.00000   -0.00000   -0.00000   -0.00000    0.00000    0.00000   -0.00165
   0.00048

 Eight components of 2nd-order total energy (hartree) are
 1,2,3: 0th-order hamiltonian combined with 1st-order wavefunctions
     kin0=   1.81651910E+02 eigvalue=   2.10245148E+01  local=  -9.09727407E+01
 4,5,6: 1st-order hamiltonian combined with 1st and 0th-order wfs
     kin1=  -4.00586572E+03  Hartree=   0.00000000E+00     xc=   0.00000000E+00
 7,8,9: eventually, occupation + non-local contributions
    edocc=   2.16506765E+03     enl0=   1.94983662E+01   enl1=  -5.86673693E+02
 1-9 gives the relaxation energy (to be shifted if some occ is /=2.0)
   erelax=  -2.29626970E+03
  No Ewald or frozen-wf contrib.: the relaxation energy is the total one
 2DEtotal=   -0.2296269705E+04 Ha. Also 2DEtotal=   -0.624846763837E+05 eV
    (  non-var. 2DEtotal :   -2.2962697048E+03 Ha)

 CALCULATION OF EFFECTIVE MASSES
 NOTE : Additional infos (eff. mass eigenvalues, eigenvectors and, if degenerate, average mass) are available in stdout.

 COMMENTS:
 - At k-point ( 0.000, 0.000, 0.000), bands    63 through    64
   are DEGENERATE (effective mass tensor is therefore not defined).
   See Section IIIB Eqs. (67)-(70) and Appendix E of PRB 93 205147 (2016).
 - Angular average effective mass for Frohlich model is to be averaged over degenerate bands. See later.
 - Associated theta integrals calculated with ntheta=   1000 points.

 K-point ( 0.000, 0.000, 0.000) | band =    63
 Transport equivalent effective mass tensor:
             -0.0552044516             -0.0669039285              0.1224496501
             -0.0669039285             -0.0824193713              0.1498614518
              0.1224496501              0.1498614518             -0.2748192918
 Transport equivalent effective mass tensor eigenvalues:
             -0.4113667007             -0.0005382079             -0.0005382062
 Angular average effective mass 1/(<1/m>)=  -0.0008067823
 Angular average effective mass for Frohlich model (<m**0.5>)**2=  -0.0012691647
 Effective masses along directions: (cart. coord. / red. coord. -> eff. mass)
    1:   1.000000  0.000000  0.000000 /   0.980711 -0.195463  0.000000 ->  -0.0006209181
    2:   0.000000  1.000000  0.000000 /   0.000000  1.000000  0.000000 ->  -0.0006723079
    3:   0.000000  0.000000  1.000000 /  -0.485442 -0.485442  0.727113 ->  -0.0016142125
    4:   0.577350  0.577350  0.577350 /   0.076356 -0.085882  0.993375 ->  -0.0005379475
    5:   0.000000  0.707107  0.707107 /  -0.554519  0.051436  0.830580 ->  -0.0005779521
    6:   0.707107  0.000000  0.707107 /   0.059448 -0.631112  0.773410 ->  -0.0005996877
    7:   0.707107  0.707107  0.000000 /   0.788262  0.615340  0.000000 ->  -0.0008012578

 K-point ( 0.000, 0.000, 0.000) | band =    64
 Transport equivalent effective mass tensor:
             -2.9080390256             -0.0279069050              0.0510671814
             -0.0279069050             -2.9193744464              0.0624822799
              0.0510671814              0.0624822799             -2.9996267377
 Transport equivalent effective mass tensor eigenvalues:
             -3.0565603342             -2.8852497754             -2.8852301001
 Angular average effective mass 1/(<1/m>)=  -0.5841064124
 Angular average effective mass for Frohlich model (<m**0.5>)**2=  -0.6720619878
 Effective masses along directions: (cart. coord. / red. coord. -> eff. mass)
    1:   1.000000  0.000000  0.000000 /   0.980711 -0.195463  0.000000 ->  -0.4787959917
    2:   0.000000  1.000000  0.000000 /   0.000000  1.000000  0.000000 ->  -0.4268396084
    3:   0.000000  0.000000  1.000000 /  -0.485442 -0.485442  0.727113 ->  -0.5711536130
    4:   0.577350  0.577350  0.577350 /   0.076356 -0.085882  0.993375 ->  -2.2925455553
    5:   0.000000  0.707107  0.707107 /  -0.554519  0.051436  0.830580 ->  -0.5740807238
    6:   0.707107  0.000000  0.707107 /   0.059448 -0.631112  0.773410 ->  -0.4672151009
    7:   0.707107  0.707107  0.000000 /   0.788262  0.615340  0.000000 ->  -0.8814642837

 Angular average effective mass for Frohlich model, averaged over degenerate bands.
 Value of     (<<m**0.5>>)**2 =     1.829355E-01
 Absolute Value of <<m**0.5>> =     4.277096E-01

 K-point ( 0.000, 0.000, 0.000) | band =    65
 Effective mass tensor:
              0.0010695155              0.0006501744             -0.0011899696
              0.0006501744              0.0013339908             -0.0014563583
             -0.0011899696             -0.0014563583              0.0032037393
 Effective mass tensor eigenvalues:
              0.0005382671              0.0005382672              0.0045307113
 Angular average effective mass 1/(<1/m>)=   0.0007621287
 Angular average effective mass for Frohlich model (<m**0.5>)**2=   0.0009075293
 Effective masses along directions: (cart. coord. / red. coord. -> eff. mass)
    1:   1.000000  0.000000  0.000000 /   0.980711 -0.195463  0.000000 ->   0.0006097652
    2:   0.000000  1.000000  0.000000 /   0.000000  1.000000  0.000000 ->   0.0006529427
    3:   0.000000  0.000000  1.000000 /  -0.485442 -0.485442  0.727113 ->   0.0013074639
    4:   0.577350  0.577350  0.577350 /   0.076356 -0.085882  0.993375 ->   0.0005382725
    5:   0.000000  0.707107  0.707107 /  -0.554519  0.051436  0.830580 ->   0.0005729470
    6:   0.707107  0.000000  0.707107 /   0.059448 -0.631112  0.773410 ->   0.0005915923
    7:   0.707107  0.707107  0.000000 /   0.788262  0.615340  0.000000 ->   0.0007580647

 END OF EFFECTIVE MASSES SECTION

 ---- first-order wavefunction calculations are completed ----

 Total localisation tensor (bohr^2) in cartesian coordinates
  WARNING : still subject to testing - especially symmetries.
      direction              matrix element
   alpha     beta       real part   imaginary part
     1        1   71577.5929567192    0.0000000000
     1        2   ****************    0.0000000000
     1        3   ****************    0.0000000000
     2        1   ****************    0.0000000000
     2        2   66108.2359108532    0.0000000000
     2        3   ****************    0.0000000000
     3        1   ****************    0.0000000000
     3        2   ****************    0.0000000000
     3        3   ****************    0.0000000000

 respfn : d/dk was computed, but no 2DTE, so no DDB output.

== END DATASET(S) ==============================================================

 -outvars: echo values of variables after computation  --------
            acell      1.0000000000E+00  1.0000000000E+00  1.0000000000E+00 Bohr
              amu      1.14820000E+02  6.35460000E+01  1.27600000E+02
             ecut      4.60000000E+01 Hartree
           etotal     -2.2962697048E+03
            fcart      0.0000000000E+00  0.0000000000E+00  0.0000000000E+00
                       0.0000000000E+00  0.0000000000E+00  0.0000000000E+00
                       0.0000000000E+00  0.0000000000E+00  0.0000000000E+00
                       0.0000000000E+00  0.0000000000E+00  0.0000000000E+00
                       0.0000000000E+00  0.0000000000E+00  0.0000000000E+00
                       0.0000000000E+00  0.0000000000E+00  0.0000000000E+00
                       0.0000000000E+00  0.0000000000E+00  0.0000000000E+00
                       0.0000000000E+00  0.0000000000E+00  0.0000000000E+00
-          fftalg         512
           irdden           1
           irdwfk           1
           istwfk        1
              ixc     -116133
           kptopt           0
P           mkmem           1
P          mkqmem           1
P          mk1mem           1
            natom           8
            nband          73
           nbdbuf           4
            ngfft          90      90      90
             nkpt           1
            nstep        2000
             nsym           8
           ntypat           3
              occ      2.000000  2.000000  2.000000  2.000000  2.000000  2.000000
                       2.000000  2.000000  2.000000  2.000000  2.000000  2.000000
                       2.000000  2.000000  2.000000  2.000000  2.000000  2.000000
                       2.000000  2.000000  2.000000  2.000000  2.000000  2.000000
                       2.000000  2.000000  2.000000  2.000000  2.000000  2.000000
                       2.000000  2.000000  2.000000  2.000000  2.000000  2.000000
                       2.000000  2.000000  2.000000  2.000000  2.000000  2.000000
                       2.000000  2.000000  2.000000  2.000000  2.000000  2.000000
                       2.000000  2.000000  2.000000  2.000000  2.000000  2.000000
                       2.000000  2.000000  2.000000  2.000000  2.000000  2.000000
                       2.000000  2.000000  2.000000  2.000000  0.000000  0.000000
                       0.000000  0.000000  0.000000  0.000000  0.000000  0.000000
                       0.000000
        optdriver           1
            prtwf          -1
            rfdir           1       1       1
           rfelfd           2
            rprim      1.0671927779E+01  0.0000000000E+00 -9.5701101642E+00
                      -2.1269944889E+00  1.0457817027E+01 -9.5701101642E+00
                       0.0000000000E+00  0.0000000000E+00  1.4334470729E+01
          spgroup         122
           strten      0.0000000000E+00  0.0000000000E+00  0.0000000000E+00
                       0.0000000000E+00  0.0000000000E+00  0.0000000000E+00
           symrel      1  0  0   0  1  0   0  0  1       0  0  1  -1 -1 -1   1  0  0
                       0  1  0   1  0  0  -1 -1 -1      -1 -1 -1   0  0  1   0  1  0
                       0  1  0   1  0  0   0  0  1       0  0  1  -1 -1 -1   0  1  0
                       1  0  0   0  1  0  -1 -1 -1      -1 -1 -1   0  0  1   1  0  0
            tnons      0.0000000  0.0000000  0.0000000    -0.2500000  0.2500000  0.5000000
                       0.0000000  0.0000000  0.0000000    -0.2500000  0.2500000  0.5000000
                      -0.2500000  0.2500000  0.5000000     0.0000000 -0.0000000  0.0000000
                      -0.2500000  0.2500000  0.5000000    -0.0000000  0.0000000  0.0000000
           tolwfr      1.00000000E-20
            typat      1  1  2  2  3  3  3  3
           useylm           1
           xangst      5.6766748334E-01  4.1505288166E+00 -1.2715465792E+00
                       2.2608919730E+00  2.7670192110E+00 -5.0642841826E+00
                       3.9541164627E+00  1.3835096055E+00 -1.2715465792E+00
                       0.0000000000E+00  0.0000000000E+00  0.0000000000E+00
                       3.5494425289E-01  6.9175480276E-01  2.4327900100E+00
                       4.5612495710E+00  1.8692044876E+00  1.1612434308E+00
                       1.0909803615E+00  5.0483435400E+00 -6.2364786805E+00
                       3.0363937066E+00  3.4587740138E+00 -2.4437410770E+00
            xcart      1.0727360781E+00  7.8433627700E+00 -2.4028747998E+00
                       4.2724666450E+00  5.2289085133E+00 -9.5701101642E+00
                       7.4721972120E+00  2.6144542567E+00 -2.4028747999E+00
                       0.0000000000E+00  0.0000000000E+00  0.0000000000E+00
                       6.7074743040E-01  1.3072271283E+00  4.5973068577E+00
                       8.6195125130E+00  3.5322845680E+00  2.1944320578E+00
                       2.0616540995E+00  9.5399867153E+00 -1.1785236740E+01
                       5.7379525371E+00  6.5361356416E+00 -4.6180013753E+00
             xred      2.5000000000E-01  7.5000000000E-01  5.0000000000E-01
                       5.0000000000E-01  5.0000000000E-01  5.5511151231E-17
                       7.5000000000E-01  2.5000000000E-01  5.0000000000E-01
                       0.0000000000E+00  0.0000000000E+00  0.0000000000E+00
                       8.7765000000E-02  1.2500000000E-01  4.6276500000E-01
                       8.7500000000E-01  3.3776500000E-01  9.6276500000E-01
                       3.7500000000E-01  9.1223500000E-01  3.7235000000E-02
                       6.6223500000E-01  6.2500000000E-01  5.3723500000E-01
            znucl       49.00000   29.00000   52.00000

- Timing analysis has been suppressed with timopt=0

 Suggested references for the acknowledgment of ABINIT usage.

 Calculation completed.
.Delivered   6 WARNINGs and   7 COMMENTs to log file.