.Version 9.5.1 of ABINIT

 ABINIT is a project of the Universite Catholique de Louvain,
 Corning Inc. and other collaborators, see ~abinit/doc/developers/contributors.txt .
 acknowledgments of the ABINIT effort.

.Starting date : Sun 25 Apr 2021.
- ( at 17h13 )

- input  file    -> /scratch/users/j/a/jabreu/flow_simple2/flow/w153/t1/run.abi
- output file    -> /scratch/users/j/a/jabreu/flow_simple2/flow/w153/t1/run.abo
- root for input  files -> /scratch/users/j/a/jabreu/flow_simple2/flow/w153/t1/indata/in
- root for output files -> /scratch/users/j/a/jabreu/flow_simple2/flow/w153/t1/outdata/out

 Symmetries : space group Fm -3 m (#225); Bravais cF (face-center cubic)
     intxc =       0      iscf =       7    lmnmax =      18     lnmax =       6
     mgfft =      48  mpssoang =       3    mqgrid =    3001     natom =       2
  nloc_mem =       1    nspden =       1   nspinor =       1    nsppol =       1
      nsym =      48    n1xccc =    2501    ntypat =       2    occopt =       1
   xclevel =       2
-    mband =          22        mffmem =           1         mkmem =           2
-   mkqmem =           2        mk1mem =           2           mpw =        4910
      nfft =      110592          nkpt =           2
  Rough estimation (10% accuracy) of disk space for files :

------------- Echo of variables that govern the present computation ------------
-
- outvars: echo of selected default values
-   iomode0 =  0 , fftalg0 =512 , wfoptalg0 =  0
-
- outvars: echo of global parameters not present in the input file
-  max_nthreads =    0
-
 -outvars: echo values of preprocessed input variables --------
            acell      1.0000000000E+00  1.0000000000E+00  1.0000000000E+00 Bohr
              amu      1.07868200E+02  1.26904470E+02
             ecut      4.30000000E+01 Hartree
-          fftalg         512
           irdden           1
           irdwfk           1
           istwfk        1    1
              ixc     -116133
              kpt      5.00000000E-01  5.00000000E-01  5.00000000E-01
                       5.00000000E-01  3.08148791E-32  5.00000000E-01
           kptopt           0
P           mkmem           2
P          mkqmem           2
P          mk1mem           2
            natom           2
            nband          22
           nbdbuf           4
            ngfft          48      48      48
             nkpt           2
            nstep         100
             nsym          48
           ntypat           2
              occ      2.000000  2.000000  2.000000  2.000000  2.000000  2.000000
                       2.000000  2.000000  2.000000  2.000000  2.000000  2.000000
                       2.000000  0.000000  0.000000  0.000000  0.000000  0.000000
                       0.000000  0.000000  0.000000  0.000000
        optdriver           1
            prtwf          -1
            rfdir           1       1       1
           rfelfd           2
            rprim      6.9346739931E+00  0.0000000000E+00  4.0037358967E+00
                       2.3115579977E+00  6.5380733412E+00  4.0037358967E+00
                       0.0000000000E+00  0.0000000000E+00  8.0074717934E+00
          spgroup         225
           symrel      1  0  0   0  1  0   0  0  1      -1  0  0   0 -1  0   0  0 -1
                       0 -1  1   0 -1  0   1 -1  0       0  1 -1   0  1  0  -1  1  0
                      -1  0  0  -1  0  1  -1  1  0       1  0  0   1  0 -1   1 -1  0
                       0  1 -1   1  0 -1   0  0 -1       0 -1  1  -1  0  1   0  0  1
                      -1  0  0  -1  1  0  -1  0  1       1  0  0   1 -1  0   1  0 -1
                       0 -1  1   1 -1  0   0 -1  0       0  1 -1  -1  1  0   0  1  0
                       1  0  0   0  0  1   0  1  0      -1  0  0   0  0 -1   0 -1  0
                       0  1 -1   0  0 -1   1  0 -1       0 -1  1   0  0  1  -1  0  1
                      -1  0  1  -1  1  0  -1  0  0       1  0 -1   1 -1  0   1  0  0
                       0 -1  0   1 -1  0   0 -1  1       0  1  0  -1  1  0   0  1 -1
                       1  0 -1   0  0 -1   0  1 -1      -1  0  1   0  0  1   0 -1  1
                       0  1  0   0  0  1   1  0  0       0 -1  0   0  0 -1  -1  0  0
                       1  0 -1   0  1 -1   0  0 -1      -1  0  1   0 -1  1   0  0  1
                       0 -1  0   0 -1  1   1 -1  0       0  1  0   0  1 -1  -1  1  0
                      -1  0  1  -1  0  0  -1  1  0       1  0 -1   1  0  0   1 -1  0
                       0  1  0   1  0  0   0  0  1       0 -1  0  -1  0  0   0  0 -1
                       0  0 -1   0  1 -1   1  0 -1       0  0  1   0 -1  1  -1  0  1
                       1 -1  0   0 -1  1   0 -1  0      -1  1  0   0  1 -1   0  1  0
                       0  0  1   1  0  0   0  1  0       0  0 -1  -1  0  0   0 -1  0
                      -1  1  0  -1  0  0  -1  0  1       1 -1  0   1  0  0   1  0 -1
                       0  0  1   0  1  0   1  0  0       0  0 -1   0 -1  0  -1  0  0
                       1 -1  0   0 -1  0   0 -1  1      -1  1  0   0  1  0   0  1 -1
                       0  0 -1   1  0 -1   0  1 -1       0  0  1  -1  0  1   0 -1  1
                      -1  1  0  -1  0  1  -1  0  0       1 -1  0   1  0 -1   1  0  0
           tolwfr      1.00000000E-20
            typat      1  2
           useylm           1
              wtk        0.50000    0.50000
           xangst      0.0000000000E+00  0.0000000000E+00  0.0000000000E+00
                       2.4464476174E+00  1.7298997001E+00  4.2373715715E+00
            xcart      0.0000000000E+00  0.0000000000E+00  0.0000000000E+00
                       4.6231159954E+00  3.2690366706E+00  8.0074717934E+00
             xred      0.0000000000E+00  0.0000000000E+00  0.0000000000E+00
                       5.0000000000E-01  5.0000000000E-01  5.0000000000E-01
            znucl       47.00000   53.00000

 chkinp: Checking input parameters for consistency.

== DATASET  1 ==================================================================
-   mpi_nproc: 1, omp_nthreads: -1 (-1 if OMP is not activated)

--- !DatasetInfo
iteration_state: {dtset: 1, }
dimensions: {natom: 2, nkpt: 2, mband: 22, nsppol: 1, nspinor: 1, nspden: 1, mpw: 4910, }
cutoff_energies: {ecut:  43.0, pawecutdg:  -1.0, }
electrons: {nelect:   2.60000000E+01, charge:   0.00000000E+00, occopt:   1.00000000E+00, tsmear:   1.00000000E-02, }
meta: {optdriver: 1, rfelfd: 2, }
...

 Real(R)+Recip(G) space primitive vectors, cartesian coordinates (Bohr,Bohr^-1):
 R(1)=  6.9346740  0.0000000  4.0037359  G(1)=  0.1442029 -0.0509834  0.0000000
 R(2)=  2.3115580  6.5380733  4.0037359  G(2)=  0.0000000  0.1529503  0.0000000
 R(3)=  0.0000000  0.0000000  8.0074718  G(3)= -0.0721014 -0.0509834  0.1248834
 Unit cell volume ucvol=  3.6305402E+02 bohr^3
 Angles (23,13,12)=  6.00000000E+01  6.00000000E+01  6.00000000E+01 degrees

 getcut: wavevector=  0.0000  0.0000  0.0000  ngfft=  48  48  48
         ecut(hartree)=     43.000   => boxcut(ratio)=   2.03070

--- Pseudopotential description ------------------------------------------------
- pspini: atom type   1  psp file is /scratch/users/j/a/jabreu/pseudos/PBEsol/Ag.psp8
- pspatm: opening atomic psp file    /scratch/users/j/a/jabreu/pseudos/PBEsol/Ag.psp8
- Ag    ONCVPSP-3.3.0  r_core=   1.41384   1.46535   1.61207
- 47.00000  19.00000    180112                znucl, zion, pspdat
    8 -116133    2    4       600   0.00000   pspcod,pspxc,lmax,lloc,mmax,r2well
    5.99000000000000    7.00000000000000    0.00000000000000   rchrg,fchrg,qchrg
     nproj     2     2     2
     extension_switch     1
  pspatm : epsatm=   27.64581383
         --- l  ekb(1:nproj) -->
             0    9.559407   -0.398585
             1    3.418858   -0.136622
             2   -1.644397   -0.401551
 pspatm: atomic psp has been read  and splines computed

- pspini: atom type   2  psp file is /scratch/users/j/a/jabreu/pseudos/PBEsol/I.psp8
- pspatm: opening atomic psp file    /scratch/users/j/a/jabreu/pseudos/PBEsol/I.psp8
- I     ONCVPSP-3.3.0  r_core=   2.02042   2.17032   2.27639
- 53.00000   7.00000    180112                znucl, zion, pspdat
    8 -116133    2    4       600   0.00000   pspcod,pspxc,lmax,lloc,mmax,r2well
    5.99000000000000    4.00000000000000    0.00000000000000   rchrg,fchrg,qchrg
     nproj     2     2     2
     extension_switch     1
  pspatm : epsatm=   18.14229533
         --- l  ekb(1:nproj) -->
             0    6.015861    0.935228
             1    4.063749    0.754139
             2    4.149534    0.722940
 pspatm: atomic psp has been read  and splines computed

   1.19049084E+03                                ecore*ucvol(ha*bohr**3)

-inwffil : will read wavefunctions from disk file /scratch/users/j/a/jabreu/flow_simple2/flow/w153/t1/indata/in_WFK

 ==>  initialize data related to q vector <==

 The list of irreducible perturbations for this q vector is:
    1)    idir= 1    ipert=   3
    2)    idir= 2    ipert=   3
    3)    idir= 3    ipert=   3

 Perturbation wavevector (in red.coord.)   0.000000  0.000000  0.000000
 Perturbation : derivative vs k along direction   1

 dfpt_looppert : COMMENT -
  In a d/dk calculation, iscf is set to -3 automatically.
 The set of symmetries contains only one element for this perturbation.
 symkpt : not enough symmetry to change the number of k points.

[...]

 Initialisation of the first-order wave-functions :
  ireadwf=   0

--- !BeginCycle
iteration_state: {dtset: 1, }
solver: {iscf: 7, nstep: 100, nline: 4, wfoptalg: 0, }
tolerances: {tolwfr: 1.00E-20, }
...

     iter   2DEtotal(Ha)        deltaE(Ha) residm    vres2
-ETOT  1  -31.274072166291     -3.127E+01 3.879E-02 0.000E+00
 ETOT  2  -31.285822312029     -1.175E-02 2.266E-05 0.000E+00
 ETOT  3  -31.285827709399     -5.397E-06 1.482E-07 0.000E+00
 ETOT  4  -31.285827714460     -5.062E-09 1.771E-10 0.000E+00
 ETOT  5  -31.285827714470     -9.582E-12 4.979E-13 0.000E+00
 ETOT  6  -31.285827714470     -3.908E-14 1.949E-15 0.000E+00
 ETOT  7  -31.285827714470      3.553E-14 6.325E-18 0.000E+00
 ETOT  8  -31.285827714470     -7.105E-15 2.548E-20 0.000E+00
 ETOT  9  -31.285827714470      0.000E+00 9.861E-21 0.000E+00

 At SCF step    9   max residual=  9.86E-21 < tolwfr=  1.00E-20 =>converged.

 ----iterations are completed or convergence reached----

 dfpt_looppert: DFPT cycle converged with prtwf=-1. Will skip output of the 1st-order WFK file.
 dfpt_looppert : ek2=    4.8024572144E+01
          f-sum rule ratio=    1.2132389362E+00
 prteigrs : about to open file /scratch/users/j/a/jabreu/flow_simple2/flow/w153/t1/tmpdata/tmp_1WF1_EIG
 Expectation of eigenvalue derivatives (hartree) for nkpt=   2  k points:
  (in case of degenerate eigenvalues, averaged derivative)
 kpt#   1, nband= 22, wtk=  0.50000, kpt=  0.5000  0.5000  0.5000 (reduced coord)
   0.00000    0.00000   -0.00000   -0.00000    0.00000    0.00000   -0.00000   -0.00000
  -0.00000   -0.00000   -0.00000    0.00000    0.00000    0.00000    0.00000    0.00000
   0.00000   -0.00000    0.00000    0.00000    0.00004   -0.00000
 prteigrs : prtvol=0 or 1, do not print more k-points.

 Eight components of 2nd-order total energy (hartree) are
 1,2,3: 0th-order hamiltonian combined with 1st-order wavefunctions
     kin0=   2.85659811E+01 eigvalue=  -2.52142418E-01  local=  -1.35317418E+01
 4,5,6: 1st-order hamiltonian combined with 1st and 0th-order wfs
     kin1=  -5.82652808E+01  Hartree=   0.00000000E+00     xc=   0.00000000E+00
 7,8,9: eventually, occupation + non-local contributions
    edocc=   1.51701924E+01     enl0=   1.33353846E+00   enl1=  -4.30637461E+00
 1-9 gives the relaxation energy (to be shifted if some occ is /=2.0)
   erelax=  -3.12858277E+01
  No Ewald or frozen-wf contrib.: the relaxation energy is the total one
 2DEtotal=   -0.3128582771E+02 Ha. Also 2DEtotal=   -0.851330667316E+03 eV
    (  non-var. 2DEtotal :   -3.1285827714E+01 Ha)

 Perturbation wavevector (in red.coord.)   0.000000  0.000000  0.000000
 Perturbation : derivative vs k along direction   2
 The set of symmetries contains only one element for this perturbation.
 symkpt : not enough symmetry to change the number of k points.

[...]

 Perturbation wavevector (in red.coord.)   0.000000  0.000000  0.000000
 Perturbation : derivative vs k along direction   3
 The set of symmetries contains only one element for this perturbation.
 symkpt : not enough symmetry to change the number of k points.

-inwffil : will read wavefunctions from disk file /scratch/users/j/a/jabreu/flow_simple2/flow/w153/t1/indata/in_WFK

 Initialisation of the first-order wave-functions :
  ireadwf=   0

--- !BeginCycle
iteration_state: {dtset: 1, }
solver: {iscf: 7, nstep: 100, nline: 4, wfoptalg: 0, }
tolerances: {tolwfr: 1.00E-20, }
...

     iter   2DEtotal(Ha)        deltaE(Ha) residm    vres2
-ETOT  1  -31.274120313795     -3.127E+01 3.879E-02 0.000E+00
 ETOT  2  -31.285821997173     -1.170E-02 2.266E-05 0.000E+00
 ETOT  3  -31.285827382714     -5.386E-06 1.482E-07 0.000E+00
 ETOT  4  -31.285827387773     -5.059E-09 1.771E-10 0.000E+00
 ETOT  5  -31.285827387783     -9.624E-12 4.979E-13 0.000E+00
 ETOT  6  -31.285827387783     -7.105E-15 1.949E-15 0.000E+00
 ETOT  7  -31.285827387783      2.487E-14 6.325E-18 0.000E+00
 ETOT  8  -31.285827387783     -7.105E-15 2.548E-20 0.000E+00
 ETOT  9  -31.285827387783      3.553E-15 9.856E-21 0.000E+00

 At SCF step    9   max residual=  9.86E-21 < tolwfr=  1.00E-20 =>converged.

 ----iterations are completed or convergence reached----

 dfpt_looppert: DFPT cycle converged with prtwf=-1. Will skip output of the 1st-order WFK file.
 dfpt_looppert : ek2=    4.8024572143E+01
          f-sum rule ratio=    1.2132389261E+00
 prteigrs : about to open file /scratch/users/j/a/jabreu/flow_simple2/flow/w153/t1/tmpdata/tmp_1WF1_EIG
 Expectation of eigenvalue derivatives (hartree) for nkpt=   2  k points:
  (in case of degenerate eigenvalues, averaged derivative)
 kpt#   1, nband= 22, wtk=  0.50000, kpt=  0.5000  0.5000  0.5000 (reduced coord)
  -0.00000   -0.00000    0.00000    0.00000    0.00000    0.00000   -0.00000   -0.00000
   0.00000    0.00000    0.00000   -0.00000   -0.00000   -0.00000    0.00000    0.00000
   0.00000    0.00000    0.00000    0.00000   -0.00004    0.00000
 prteigrs : prtvol=0 or 1, do not print more k-points.

 Eight components of 2nd-order total energy (hartree) are
 1,2,3: 0th-order hamiltonian combined with 1st-order wavefunctions
     kin0=   2.85642743E+01 eigvalue=  -2.56126802E-01  local=  -1.35314393E+01
 4,5,6: 1st-order hamiltonian combined with 1st and 0th-order wfs
     kin1=  -5.82652803E+01  Hartree=   0.00000000E+00     xc=   0.00000000E+00
 7,8,9: eventually, occupation + non-local contributions
    edocc=   1.51757630E+01     enl0=   1.33335628E+00   enl1=  -4.30637444E+00
 1-9 gives the relaxation energy (to be shifted if some occ is /=2.0)
   erelax=  -3.12858274E+01
  No Ewald or frozen-wf contrib.: the relaxation energy is the total one
 2DEtotal=   -0.3128582739E+02 Ha. Also 2DEtotal=   -0.851330658427E+03 eV
    (  non-var. 2DEtotal :   -3.1285827388E+01 Ha)

 CALCULATION OF EFFECTIVE MASSES
 NOTE : Additional infos (eff. mass eigenvalues, eigenvectors and, if degenerate, average mass) are available in stdout.

 COMMENTS:
 - At k-point ( 0.500, 0.500, 0.500), bands    12 through    13
   are DEGENERATE (effective mass tensor is therefore not defined).
   See Section IIIB Eqs. (67)-(70) and Appendix E of PRB 93 205147 (2016).
 - Angular average effective mass for Frohlich model is to be averaged over degenerate bands. See later.
 - Associated theta integrals calculated with ntheta=   1000 points.

 K-point ( 0.500, 0.500, 0.500) | band =    12
 Transport equivalent effective mass tensor:
             -0.3413054761             -0.0852633319             -0.2088509042
             -0.0852633319             -0.2810147654             -0.1476791772
             -0.2088509042             -0.1476791772             -0.5824596668
 Transport equivalent effective mass tensor eigenvalues:
             -0.7633315120             -0.2207246613             -0.2207237350
 Angular average effective mass 1/(<1/m>)=  -0.2346680917
 Angular average effective mass for Frohlich model (<m**0.5>)**2=  -0.2535655851
 Effective masses along directions: (cart. coord. / red. coord. -> eff. mass)
    1:   1.000000  0.000000  0.000000 /   0.948683  0.316228  0.000000 ->  -0.2344737602
    2:   0.000000  1.000000  0.000000 /   0.000000  1.000000  0.000000 ->  -0.2403481583
    3:   0.000000  0.000000  1.000000 /   0.408248  0.408248  0.816497 ->  -0.4003341825
    4:   0.577350  0.577350  0.577350 /   0.585539  0.688047  0.428644 ->  -0.4268534243
    5:   0.000000  0.707107  0.707107 /   0.289489  0.762222  0.578977 ->  -0.2878822903
    6:   0.707107  0.000000  0.707107 /   0.731423  0.422287  0.535439 ->  -0.4204091765
    7:   0.707107  0.707107  0.000000 /   0.616798  0.787122  0.000000 ->  -0.1972203115

 K-point ( 0.500, 0.500, 0.500) | band =    13
 Transport equivalent effective mass tensor:
            -10.4264745478             -2.4069006583             -5.8956909557
             -2.4069006583             -8.7245376170             -4.1688844941
             -5.8956909557             -4.1688844941            -17.2342426992
 Transport equivalent effective mass tensor eigenvalues:
            -22.3400567505             -7.0226024175             -7.0225956960
 Angular average effective mass 1/(<1/m>)=  -0.7902391069
 Angular average effective mass for Frohlich model (<m**0.5>)**2=  -1.0626803701
 Effective masses along directions: (cart. coord. / red. coord. -> eff. mass)
    1:   1.000000  0.000000  0.000000 /   0.948683  0.316228  0.000000 ->  -0.5520129289
    2:   0.000000  1.000000  0.000000 /   0.000000  1.000000  0.000000 ->  -0.4056081405
    3:   0.000000  0.000000  1.000000 /   0.408248  0.408248  0.816497 ->  -0.7246726416
    4:   0.577350  0.577350  0.577350 /   0.585539  0.688047  0.428644 ->  -2.0042801306
    5:   0.000000  0.707107  0.707107 /   0.289489  0.762222  0.578977 ->  -2.3149910973
    6:   0.707107  0.000000  0.707107 /   0.731423  0.422287  0.535439 ->  -1.4399309245
    7:   0.707107  0.707107  0.000000 /   0.616798  0.787122  0.000000 ->  -1.9862629749

 Angular average effective mass for Frohlich model, averaged over degenerate bands.
 Value of     (<<m**0.5>>)**2 =     5.886088E-01
 Absolute Value of <<m**0.5>> =     7.672084E-01

 K-point ( 0.500, 0.000, 0.500) | band =    14
 Effective mass tensor:
              0.2496713043             -0.0542405159              0.0664307936
             -0.0542405159              0.2880251409             -0.0939473293
              0.0664307936             -0.0939473293              0.3263789775
 Effective mass tensor eigenvalues:
              0.2113174677              0.2113174677              0.4414404873
 Angular average effective mass 1/(<1/m>)=   0.2557600586
 Angular average effective mass for Frohlich model (<m**0.5>)**2=   0.2638012222
 Effective masses along directions: (cart. coord. / red. coord. -> eff. mass)
    1:   1.000000  0.000000  0.000000 /   0.948683  0.316228  0.000000 ->   0.2314243991
    2:   0.000000  1.000000  0.000000 /   0.000000  1.000000  0.000000 ->   0.2557600586
    3:   0.000000  0.000000  1.000000 /   0.408248  0.408248  0.816497 ->   0.2858152404
    4:   0.577350  0.577350  0.577350 /   0.585539  0.688047  0.428644 ->   0.2225089181
    5:   0.000000  0.707107  0.707107 /   0.289489  0.762222  0.578977 ->   0.2122489224
    6:   0.707107  0.000000  0.707107 /   0.731423  0.422287  0.535439 ->   0.3127169094
    7:   0.707107  0.707107  0.000000 /   0.616798  0.787122  0.000000 ->   0.2129043320

 END OF EFFECTIVE MASSES SECTION

 ---- first-order wavefunction calculations are completed ----

 Total localisation tensor (bohr^2) in cartesian coordinates
  WARNING : still subject to testing - especially symmetries.
      direction              matrix element
   alpha     beta       real part   imaginary part
     1        1       2.3949241356    0.0000000000
     1        2       0.6773868266    0.0000000000
     1        3       1.6592521083    0.0000000000
     2        1       0.6773868266    0.0000000000
     2        2       1.9159392745    0.0000000000
     2        3       1.1732684001    0.0000000000
     3        1       1.6592521083    0.0000000000
     3        2       1.1732684001    0.0000000000
     3        3       4.3108634132    0.0000000000

 respfn : d/dk was computed, but no 2DTE, so no DDB output.

== END DATASET(S) ==============================================================

 -outvars: echo values of variables after computation  --------
            acell      1.0000000000E+00  1.0000000000E+00  1.0000000000E+00 Bohr
              amu      1.07868200E+02  1.26904470E+02
             ecut      4.30000000E+01 Hartree
           etotal     -3.1285827388E+01
            fcart      0.0000000000E+00  0.0000000000E+00  0.0000000000E+00
                       0.0000000000E+00  0.0000000000E+00  0.0000000000E+00
-          fftalg         512
           irdden           1
           irdwfk           1
           istwfk        1    1
              ixc     -116133
              kpt      5.00000000E-01  5.00000000E-01  5.00000000E-01
                       5.00000000E-01  3.08148791E-32  5.00000000E-01
           kptopt           0
P           mkmem           2
P          mkqmem           2
P          mk1mem           2
            natom           2
            nband          22
           nbdbuf           4
            ngfft          48      48      48
             nkpt           2
            nstep         100
             nsym          48
           ntypat           2
              occ      2.000000  2.000000  2.000000  2.000000  2.000000  2.000000
                       2.000000  2.000000  2.000000  2.000000  2.000000  2.000000
                       2.000000  0.000000  0.000000  0.000000  0.000000  0.000000
                       0.000000  0.000000  0.000000  0.000000
        optdriver           1
            prtwf          -1
            rfdir           1       1       1
           rfelfd           2
            rprim      6.9346739931E+00  0.0000000000E+00  4.0037358967E+00
                       2.3115579977E+00  6.5380733412E+00  4.0037358967E+00
                       0.0000000000E+00  0.0000000000E+00  8.0074717934E+00
          spgroup         225
           strten      0.0000000000E+00  0.0000000000E+00  0.0000000000E+00
                       0.0000000000E+00  0.0000000000E+00  0.0000000000E+00
           symrel      1  0  0   0  1  0   0  0  1      -1  0  0   0 -1  0   0  0 -1
                       0 -1  1   0 -1  0   1 -1  0       0  1 -1   0  1  0  -1  1  0
                      -1  0  0  -1  0  1  -1  1  0       1  0  0   1  0 -1   1 -1  0
                       0  1 -1   1  0 -1   0  0 -1       0 -1  1  -1  0  1   0  0  1
                      -1  0  0  -1  1  0  -1  0  1       1  0  0   1 -1  0   1  0 -1
                       0 -1  1   1 -1  0   0 -1  0       0  1 -1  -1  1  0   0  1  0
                       1  0  0   0  0  1   0  1  0      -1  0  0   0  0 -1   0 -1  0
                       0  1 -1   0  0 -1   1  0 -1       0 -1  1   0  0  1  -1  0  1
                      -1  0  1  -1  1  0  -1  0  0       1  0 -1   1 -1  0   1  0  0
                       0 -1  0   1 -1  0   0 -1  1       0  1  0  -1  1  0   0  1 -1
                       1  0 -1   0  0 -1   0  1 -1      -1  0  1   0  0  1   0 -1  1
                       0  1  0   0  0  1   1  0  0       0 -1  0   0  0 -1  -1  0  0
                       1  0 -1   0  1 -1   0  0 -1      -1  0  1   0 -1  1   0  0  1
                       0 -1  0   0 -1  1   1 -1  0       0  1  0   0  1 -1  -1  1  0
                      -1  0  1  -1  0  0  -1  1  0       1  0 -1   1  0  0   1 -1  0
                       0  1  0   1  0  0   0  0  1       0 -1  0  -1  0  0   0  0 -1
                       0  0 -1   0  1 -1   1  0 -1       0  0  1   0 -1  1  -1  0  1
                       1 -1  0   0 -1  1   0 -1  0      -1  1  0   0  1 -1   0  1  0
                       0  0  1   1  0  0   0  1  0       0  0 -1  -1  0  0   0 -1  0
                      -1  1  0  -1  0  0  -1  0  1       1 -1  0   1  0  0   1  0 -1
                       0  0  1   0  1  0   1  0  0       0  0 -1   0 -1  0  -1  0  0
                       1 -1  0   0 -1  0   0 -1  1      -1  1  0   0  1  0   0  1 -1
                       0  0 -1   1  0 -1   0  1 -1       0  0  1  -1  0  1   0 -1  1
                      -1  1  0  -1  0  1  -1  0  0       1 -1  0   1  0 -1   1  0  0
           tolwfr      1.00000000E-20
            typat      1  2
           useylm           1
              wtk        0.50000    0.50000
           xangst      0.0000000000E+00  0.0000000000E+00  0.0000000000E+00
                       2.4464476174E+00  1.7298997001E+00  4.2373715715E+00
            xcart      0.0000000000E+00  0.0000000000E+00  0.0000000000E+00
                       4.6231159954E+00  3.2690366706E+00  8.0074717934E+00
             xred      0.0000000000E+00  0.0000000000E+00  0.0000000000E+00
                       5.0000000000E-01  5.0000000000E-01  5.0000000000E-01
            znucl       47.00000   53.00000

- Timing analysis has been suppressed with timopt=0

 Suggested references for the acknowledgment of ABINIT usage.

 Calculation completed.
.Delivered  14 WARNINGs and   9 COMMENTs to log file.