.Version 9.5.2 of ABINIT

 ABINIT is a project of the Universite Catholique de Louvain,
 Corning Inc. and other collaborators, see ~abinit/doc/developers/contributors.txt .
 acknowledgments of the ABINIT effort.

.Starting date : Mon 24 May 2021.
- ( at 23h08 )

- input  file    -> /scratch/users/j/a/jabreu/flow_simple_10atoms/flow/w476/t1/run.abi
- output file    -> /scratch/users/j/a/jabreu/flow_simple_10atoms/flow/w476/t1/run.abo
- root for input  files -> /scratch/users/j/a/jabreu/flow_simple_10atoms/flow/w476/t1/indata/in
- root for output files -> /scratch/users/j/a/jabreu/flow_simple_10atoms/flow/w476/t1/outdata/out

 Symmetries : space group Fm -3 m (#225); Bravais cF (face-center cubic)
     intxc =       0      iscf =       7    lmnmax =      18     lnmax =       6
     mgfft =      72  mpssoang =       3    mqgrid =    3001     natom =      10
  nloc_mem =       1    nspden =       1   nspinor =       1    nsppol =       1
      nsym =      48    n1xccc =    2501    ntypat =       4    occopt =       1
   xclevel =       2
-    mband =          50        mffmem =           1         mkmem =           2
-   mkqmem =           2        mk1mem =           2           mpw =       14844
      nfft =      373248          nkpt =           2
  Rough estimation (10% accuracy) of disk space for files :

------------- Echo of variables that govern the present computation ------------
-
- outvars: echo of selected default values
-   iomode0 =  0 , fftalg0 =512 , wfoptalg0 =  0
-
- outvars: echo of global parameters not present in the input file
-  max_nthreads =    0
-
 -outvars: echo values of preprocessed input variables --------
            acell      1.0000000000E+00  1.0000000000E+00  1.0000000000E+00 Bohr
              amu      1.37327000E+02  8.89058500E+01  2.08980370E+02
                       1.59994000E+01
             ecut      4.40000000E+01 Hartree
-          fftalg         512
           irdden           1
           irdwfk           1
           istwfk        1    1
              ixc     -116133
              kpt      0.00000000E+00  0.00000000E+00  0.00000000E+00
                       5.00000000E-01  0.00000000E+00  5.00000000E-01
           kptopt           0
P           mkmem           2
P          mkqmem           2
P          mk1mem           2
            natom          10
            nband          50
           nbdbuf           4
            ngfft          72      72      72
             nkpt           2
            nstep        2000
             nsym          48
           ntypat           4
              occ      2.000000  2.000000  2.000000  2.000000  2.000000  2.000000
                       2.000000  2.000000  2.000000  2.000000  2.000000  2.000000
                       2.000000  2.000000  2.000000  2.000000  2.000000  2.000000
                       2.000000  2.000000  2.000000  2.000000  2.000000  2.000000
                       2.000000  2.000000  2.000000  2.000000  2.000000  2.000000
                       2.000000  2.000000  2.000000  2.000000  2.000000  2.000000
                       2.000000  2.000000  2.000000  2.000000  2.000000  0.000000
                       0.000000  0.000000  0.000000  0.000000  0.000000  0.000000
                       0.000000  0.000000
        optdriver           1
            prtwf          -1
            rfdir           1       1       1
           rfelfd           2
            rprim      9.9279889760E+00  0.0000000000E+00  5.7319271078E+00
                       3.3093296587E+00  9.3601977713E+00  5.7319271078E+00
                       0.0000000000E+00  0.0000000000E+00  1.1463854216E+01
          spgroup         225
           symrel      1  0  0   0  1  0   0  0  1      -1  0  0   0 -1  0   0  0 -1
                       0 -1  1   0 -1  0   1 -1  0       0  1 -1   0  1  0  -1  1  0
                      -1  0  0  -1  0  1  -1  1  0       1  0  0   1  0 -1   1 -1  0
                       0  1 -1   1  0 -1   0  0 -1       0 -1  1  -1  0  1   0  0  1
                      -1  0  0  -1  1  0  -1  0  1       1  0  0   1 -1  0   1  0 -1
                       0 -1  1   1 -1  0   0 -1  0       0  1 -1  -1  1  0   0  1  0
                       1  0  0   0  0  1   0  1  0      -1  0  0   0  0 -1   0 -1  0
                       0  1 -1   0  0 -1   1  0 -1       0 -1  1   0  0  1  -1  0  1
                      -1  0  1  -1  1  0  -1  0  0       1  0 -1   1 -1  0   1  0  0
                       0 -1  0   1 -1  0   0 -1  1       0  1  0  -1  1  0   0  1 -1
                       1  0 -1   0  0 -1   0  1 -1      -1  0  1   0  0  1   0 -1  1
                       0  1  0   0  0  1   1  0  0       0 -1  0   0  0 -1  -1  0  0
                       1  0 -1   0  1 -1   0  0 -1      -1  0  1   0 -1  1   0  0  1
                       0 -1  0   0 -1  1   1 -1  0       0  1  0   0  1 -1  -1  1  0
                      -1  0  1  -1  0  0  -1  1  0       1  0 -1   1  0  0   1 -1  0
                       0  1  0   1  0  0   0  0  1       0 -1  0  -1  0  0   0  0 -1
                       0  0 -1   0  1 -1   1  0 -1       0  0  1   0 -1  1  -1  0  1
                       1 -1  0   0 -1  1   0 -1  0      -1  1  0   0  1 -1   0  1  0
                       0  0  1   1  0  0   0  1  0       0  0 -1  -1  0  0   0 -1  0
                      -1  1  0  -1  0  0  -1  0  1       1 -1  0   1  0  0   1  0 -1
                       0  0  1   0  1  0   1  0  0       0  0 -1   0 -1  0  -1  0  0
                       1 -1  0   0 -1  0   0 -1  1      -1  1  0   0  1  0   0  1 -1
                       0  0 -1   1  0 -1   0  1 -1       0  0  1  -1  0  1   0 -1  1
                      -1  1  0  -1  0  1  -1  0  0       1 -1  0   1  0 -1   1  0  0
           tolwfr      1.00000000E-20
            typat      1  1  2  3  4  4  4  4  4  4
           useylm           1
              wtk        0.50000    0.50000
           xangst      1.7512218311E+00  1.2383008321E+00  3.0332051867E+00
                       5.2536654932E+00  3.7149024964E+00  9.0996155602E+00
                       3.5024436622E+00  2.4766016642E+00  6.0664103735E+00
                       0.0000000000E+00  0.0000000000E+00  0.0000000000E+00
                       4.3976157256E+00  1.2106371915E+00  7.6168938688E+00
                       5.2927877890E+00  3.7425661369E+00  6.0664103735E+00
                       1.7120995354E+00  1.2106371915E+00  6.0664103735E+00
                       2.6072715988E+00  3.7425661369E+00  7.6168938688E+00
                       2.6072715988E+00  3.7425661369E+00  4.5159268782E+00
                       4.3976157256E+00  1.2106371915E+00  4.5159268782E+00
            xcart      3.3093296587E+00  2.3400494428E+00  5.7319271078E+00
                       9.9279889760E+00  7.0201483285E+00  1.7195781323E+01
                       6.6186593173E+00  4.6800988856E+00  1.1463854216E+01
                       0.0000000000E+00  0.0000000000E+00  0.0000000000E+00
                       8.3102893590E+00  2.2877727383E+00  1.4393843395E+01
                       1.0001919401E+01  7.0724250330E+00  1.1463854216E+01
                       3.2353992341E+00  2.2877727383E+00  1.1463854216E+01
                       4.9270292757E+00  7.0724250330E+00  1.4393843395E+01
                       4.9270292757E+00  7.0724250330E+00  8.5338650359E+00
                       8.3102893590E+00  2.2877727383E+00  8.5338650359E+00
             xred      2.5000000000E-01  2.5000000000E-01  2.5000000000E-01
                       7.5000000000E-01  7.5000000000E-01  7.5000000000E-01
                       5.0000000000E-01  5.0000000000E-01  5.0000000000E-01
                       0.0000000000E+00  0.0000000000E+00  0.0000000000E+00
                       7.5558500000E-01  2.4441500000E-01  7.5558500000E-01
                       7.5558500000E-01  7.5558500000E-01  2.4441500000E-01
                       2.4441500000E-01  2.4441500000E-01  7.5558500000E-01
                       2.4441500000E-01  7.5558500000E-01  7.5558500000E-01
                       2.4441500000E-01  7.5558500000E-01  2.4441500000E-01
                       7.5558500000E-01  2.4441500000E-01  2.4441500000E-01
            znucl       56.00000   39.00000   83.00000    8.00000

 chkinp: Checking input parameters for consistency.

== DATASET  1 ==================================================================
-   mpi_nproc: 1, omp_nthreads: -1 (-1 if OMP is not activated)

--- !DatasetInfo
iteration_state: {dtset: 1, }
dimensions: {natom: 10, nkpt: 2, mband: 50, nsppol: 1, nspinor: 1, nspden: 1, mpw: 14844, }
cutoff_energies: {ecut:  44.0, pawecutdg:  -1.0, }
electrons: {nelect:   8.20000000E+01, charge:   0.00000000E+00, occopt:   1.00000000E+00, tsmear:   1.00000000E-02, }
meta: {optdriver: 1, rfelfd: 2, }
...

 Real(R)+Recip(G) space primitive vectors, cartesian coordinates (Bohr,Bohr^-1):
 R(1)=  9.9279890  0.0000000  5.7319271  G(1)=  0.1007253 -0.0356118  0.0000000
 R(2)=  3.3093297  9.3601978  5.7319271  G(2)=  0.0000000  0.1068353  0.0000000
 R(3)=  0.0000000  0.0000000 11.4638542  G(3)= -0.0503627 -0.0356118  0.0872307
 Unit cell volume ucvol=  1.0653124E+03 bohr^3
 Angles (23,13,12)=  6.00000000E+01  6.00000000E+01  6.00000000E+01 degrees

 getcut: wavevector=  0.0000  0.0000  0.0000  ngfft=  72  72  72
         ecut(hartree)=     44.000   => boxcut(ratio)=   2.10334

--- Pseudopotential description ------------------------------------------------
- pspini: atom type   1  psp file is /scratch/users/j/a/jabreu/pseudos/PBEsol/Ba.psp8
- pspatm: opening atomic psp file    /scratch/users/j/a/jabreu/pseudos/PBEsol/Ba.psp8
- Ba    ONCVPSP-3.3.0  r_core=   2.15444   1.91218   2.15444
- 56.00000  10.00000    180112                znucl, zion, pspdat
    8 -116133    2    4       600   0.00000   pspcod,pspxc,lmax,lloc,mmax,r2well
    5.99000000000000    5.00000000000000    0.00000000000000   rchrg,fchrg,qchrg
     nproj     2     2     2
     extension_switch     1
  pspatm : epsatm=   26.37418029
         --- l  ekb(1:nproj) -->
             0    6.652372    0.677024
             1    5.027722    0.408462
             2    2.543237    0.416854
 pspatm: atomic psp has been read  and splines computed

- pspini: atom type   2  psp file is /scratch/users/j/a/jabreu/pseudos/PBEsol/Y.psp8
- pspatm: opening atomic psp file    /scratch/users/j/a/jabreu/pseudos/PBEsol/Y.psp8
- Y     ONCVPSP-3.3.0  r_core=   1.60520   1.51226   1.56736
- 39.00000  11.00000    180112                znucl, zion, pspdat
    8 -116133    2    4       600   0.00000   pspcod,pspxc,lmax,lloc,mmax,r2well
    5.99000000000000    4.00000000000000    0.00000000000000   rchrg,fchrg,qchrg
     nproj     2     2     2
     extension_switch     1
  pspatm : epsatm=   18.54790046
         --- l  ekb(1:nproj) -->
             0   10.130768    0.866504
             1    5.598307    0.427135
             2    1.217602    0.315447
 pspatm: atomic psp has been read  and splines computed

[...]

- pspini: atom type   4  psp file is /scratch/users/j/a/jabreu/pseudos/PBEsol/O.psp8
- pspatm: opening atomic psp file    /scratch/users/j/a/jabreu/pseudos/PBEsol/O.psp8
- O     ONCVPSP-3.3.0  r_core=   1.35509   1.45563   1.26150
[...]
 ETOT 19  -49.655552015901     -1.421E-14 2.486E-11 0.000E+00
 ETOT 20  -49.655552015901      0.000E+00 1.050E-11 0.000E+00
 ETOT 21  -49.655552015901     -1.421E-14 3.124E-12 0.000E+00
 ETOT 22  -49.655552015901      1.421E-14 1.333E-12 0.000E+00
 ETOT 23  -49.655552015901     -7.105E-15 3.932E-13 0.000E+00
 ETOT 24  -49.655552015901      2.132E-14 1.694E-13 0.000E+00
 ETOT 25  -49.655552015901      0.000E+00 4.956E-14 0.000E+00
 ETOT 26  -49.655552015901     -7.105E-15 2.156E-14 0.000E+00
 ETOT 27  -49.655552015901      0.000E+00 6.261E-15 0.000E+00
 ETOT 28  -49.655552015901      0.000E+00 2.745E-15 0.000E+00
 ETOT 29  -49.655552015901      0.000E+00 8.033E-16 0.000E+00
 ETOT 30  -49.655552015901      0.000E+00 3.490E-16 0.000E+00
 ETOT 31  -49.655552015901     -1.421E-14 1.173E-16 0.000E+00
 ETOT 32  -49.655552015901     -7.105E-15 4.677E-17 0.000E+00
 ETOT 33  -49.655552015901      1.421E-14 2.077E-17 0.000E+00
 ETOT 34  -49.655552015901      7.105E-15 6.783E-18 0.000E+00
 ETOT 35  -49.655552015901     -1.421E-14 3.195E-18 0.000E+00
 ETOT 36  -49.655552015901      0.000E+00 9.688E-19 0.000E+00
 ETOT 37  -49.655552015901      1.421E-14 4.612E-19 0.000E+00
 ETOT 38  -49.655552015901     -2.842E-14 1.386E-19 0.000E+00
 ETOT 39  -49.655552015901      3.553E-14 6.675E-20 0.000E+00
 ETOT 40  -49.655552015901      0.000E+00 1.988E-20 0.000E+00
 ETOT 41  -49.655552015901      0.000E+00 9.981E-21 0.000E+00

 At SCF step   41   max residual=  9.98E-21 < tolwfr=  1.00E-20 =>converged.

 ----iterations are completed or convergence reached----

 dfpt_looppert: DFPT cycle converged with prtwf=-1. Will skip output of the 1st-order WFK file.
 dfpt_looppert : ek2=    7.3898144640E+01
          f-sum rule ratio=    1.0840973874E+00
 prteigrs : about to open file /scratch/users/j/a/jabreu/flow_simple_10atoms/flow/w476/t1/tmpdata/tmp_1WF1_EIG
 Expectation of eigenvalue derivatives (hartree) for nkpt=   2  k points:
  (in case of degenerate eigenvalues, averaged derivative)
 kpt#   1, nband= 50, wtk=  0.50000, kpt=  0.0000  0.0000  0.0000 (reduced coord)
   0.00000   -0.00000   -0.00000    0.00000    0.00000   -0.00000   -0.00000   -0.00000
  -0.00000   -0.00000   -0.00000    0.00000   -0.00000   -0.00000   -0.00000    0.00000
   0.00000    0.00000    0.00000    0.00000    0.00000    0.00000    0.00000    0.00000
   0.00000    0.00000    0.00000   -0.00000   -0.00000   -0.00000   -0.00000   -0.00000
   0.00000    0.00000    0.00000    0.00000    0.00000    0.00000    0.00000    0.00000
   0.00000    0.00000    0.00000    0.00000   -0.00000   -0.00000   -0.00000   -0.00000
  -0.00000   -0.00000
 prteigrs : prtvol=0 or 1, do not print more k-points.

 Eight components of 2nd-order total energy (hartree) are
 1,2,3: 0th-order hamiltonian combined with 1st-order wavefunctions
     kin0=   6.72367813E+01 eigvalue=   1.07767223E+00  local=  -3.44549015E+01
 4,5,6: 1st-order hamiltonian combined with 1st and 0th-order wfs
     kin1=  -8.01127855E+01  Hartree=   0.00000000E+00     xc=   0.00000000E+00
 7,8,9: eventually, occupation + non-local contributions
    edocc=   1.09744588E+01     enl0=   4.82154113E+00   enl1=  -1.91983185E+01
 1-9 gives the relaxation energy (to be shifted if some occ is /=2.0)
   erelax=  -4.96555520E+01
  No Ewald or frozen-wf contrib.: the relaxation energy is the total one
 2DEtotal=   -0.4965555202E+02 Ha. Also 2DEtotal=   -0.135119628668E+04 eV
    (  non-var. 2DEtotal :   -4.9655552015E+01 Ha)

 CALCULATION OF EFFECTIVE MASSES
 NOTE : Additional infos (eff. mass eigenvalues, eigenvectors and, if degenerate, average mass) are available in stdout.

 COMMENTS:
 - At k-point ( 0.000, 0.000, 0.000), bands    39 through    41
   are DEGENERATE (effective mass tensor is therefore not defined).
   See Section IIIB Eqs. (67)-(70) and Appendix E of PRB 93 205147 (2016).
 - Angular average effective mass for Frohlich model is to be averaged over degenerate bands. See later.
 - Associated theta integrals calculated with ntheta=   1000 points.

 K-point ( 0.000, 0.000, 0.000) | band =    39
 Transport equivalent effective mass tensor:
             -0.9183085882             -0.0000001898             -0.0000000000
             -0.0000001898             -0.9183084272             -0.0000000001
             -0.0000000000             -0.0000000001             -0.9183076969
 Transport equivalent effective mass tensor eigenvalues:
             -0.9183087139             -0.9183083016             -0.9183076969
 Angular average effective mass 1/(<1/m>)=  -0.8971736519
 Angular average effective mass for Frohlich model (<m**0.5>)**2=  -0.8980306808
 Effective masses along directions: (cart. coord. / red. coord. -> eff. mass)
    1:   1.000000  0.000000  0.000000 /   0.948683  0.316228  0.000000 ->  -0.9348025195
    2:   0.000000  1.000000  0.000000 /   0.000000  1.000000  0.000000 ->  -1.0126251219
    3:   0.000000  0.000000  1.000000 /   0.408248  0.408248  0.816497 ->  -0.8680879370
    4:   0.577350  0.577350  0.577350 /   0.585539  0.688047  0.428644 ->  -0.9154462012
    5:   0.000000  0.707107  0.707107 /   0.289489  0.762222  0.578977 ->  -0.8723060880
    6:   0.707107  0.000000  0.707107 /   0.731423  0.422287  0.535439 ->  -0.8905047314
    7:   0.707107  0.707107  0.000000 /   0.616798  0.787122  0.000000 ->  -0.8734354313

[...]

 K-point ( 0.000, 0.000, 0.000) | band =    41
 Transport equivalent effective mass tensor:
            -18.2838145591             -0.0000000018             -0.0000000025
             -0.0000000018            -18.2838145591             -0.0000000012
             -0.0000000025             -0.0000000012            -18.2838145638
 Transport equivalent effective mass tensor eigenvalues:
            -18.2838145654            -18.2838145595            -18.2838145571
 Angular average effective mass 1/(<1/m>)=  -3.8705708067
 Angular average effective mass for Frohlich model (<m**0.5>)**2=  -4.3769499263
 Effective masses along directions: (cart. coord. / red. coord. -> eff. mass)
    1:   1.000000  0.000000  0.000000 /   0.948683  0.316228  0.000000 ->  -3.3339603616
    2:   0.000000  1.000000  0.000000 /   0.000000  1.000000  0.000000 ->  -2.4887038181
    3:   0.000000  0.000000  1.000000 /   0.408248  0.408248  0.816497 ->  -3.1288796078
    4:   0.577350  0.577350  0.577350 /   0.585539  0.688047  0.428644 ->  -3.2647681294
    5:   0.000000  0.707107  0.707107 /   0.289489  0.762222  0.578977 ->  -5.0563273135
    6:   0.707107  0.000000  0.707107 /   0.731423  0.422287  0.535439 ->  -3.2309929679
    7:   0.707107  0.707107  0.000000 /   0.616798  0.787122  0.000000 -> -10.5708026593

 Angular average effective mass for Frohlich model, averaged over degenerate bands.
 Value of     (<<m**0.5>>)**2 =     1.813037E+00
 Absolute Value of <<m**0.5>> =     1.346491E+00

 K-point ( 0.500, 0.000, 0.500) | band =    42
 Effective mass tensor:
              0.4608579914             -0.0054963917              0.0067316774
             -0.0054963917              0.4647445273             -0.0095200295
              0.0067316774             -0.0095200295              0.4686310630
 Effective mass tensor eigenvalues:
              0.4569714556              0.4569714558              0.4802906703
 Angular average effective mass 1/(<1/m>)=   0.4644887880
 Angular average effective mass for Frohlich model (<m**0.5>)**2=   0.4645648260
 Effective masses along directions: (cart. coord. / red. coord. -> eff. mass)
    1:   1.000000  0.000000  0.000000 /   0.948683  0.316228  0.000000 ->   0.4606994584
    2:   0.000000  1.000000  0.000000 /   0.000000  1.000000  0.000000 ->   0.4644887880
    3:   0.000000  0.000000  1.000000 /   0.408248  0.408248  0.816497 ->   0.4683409704
    4:   0.577350  0.577350  0.577350 /   0.585539  0.688047  0.428644 ->   0.4591222016
    5:   0.000000  0.707107  0.707107 /   0.289489  0.762222  0.578977 ->   0.4571583107
    6:   0.707107  0.000000  0.707107 /   0.731423  0.422287  0.535439 ->   0.4712017189
    7:   0.707107  0.707107  0.000000 /   0.616798  0.787122  0.000000 ->   0.4572889001

 END OF EFFECTIVE MASSES SECTION

 ---- first-order wavefunction calculations are completed ----

 Total localisation tensor (bohr^2) in cartesian coordinates
  WARNING : still subject to testing - especially symmetries.
      direction              matrix element
   alpha     beta       real part   imaginary part
     1        1       1.2950758619    0.0000000000
     1        2       0.3663027696    0.0000000000
     1        3       0.8972548770    0.0000000000
     2        1       0.3663027696    0.0000000000
     2        2       1.0360606894    0.0000000000
     2        3       0.6344550079    0.0000000000
     3        1       0.8972548770    0.0000000000
     3        2       0.6344550079    0.0000000000
     3        3       2.3311365515    0.0000000000

 respfn : d/dk was computed, but no 2DTE, so no DDB output.

== END DATASET(S) ==============================================================

 -outvars: echo values of variables after computation  --------
            acell      1.0000000000E+00  1.0000000000E+00  1.0000000000E+00 Bohr
              amu      1.37327000E+02  8.89058500E+01  2.08980370E+02
                       1.59994000E+01
             ecut      4.40000000E+01 Hartree
           etotal     -4.9655552016E+01
            fcart      0.0000000000E+00  0.0000000000E+00  0.0000000000E+00
                       0.0000000000E+00  0.0000000000E+00  0.0000000000E+00
                       0.0000000000E+00  0.0000000000E+00  0.0000000000E+00
                       0.0000000000E+00  0.0000000000E+00  0.0000000000E+00
                       0.0000000000E+00  0.0000000000E+00  0.0000000000E+00
                       0.0000000000E+00  0.0000000000E+00  0.0000000000E+00
                       0.0000000000E+00  0.0000000000E+00  0.0000000000E+00
                       0.0000000000E+00  0.0000000000E+00  0.0000000000E+00
                       0.0000000000E+00  0.0000000000E+00  0.0000000000E+00
                       0.0000000000E+00  0.0000000000E+00  0.0000000000E+00
-          fftalg         512
           irdden           1
           irdwfk           1
           istwfk        1    1
              ixc     -116133
              kpt      0.00000000E+00  0.00000000E+00  0.00000000E+00
                       5.00000000E-01  0.00000000E+00  5.00000000E-01
           kptopt           0
P           mkmem           2
P          mkqmem           2
P          mk1mem           2
            natom          10
            nband          50
           nbdbuf           4
            ngfft          72      72      72
             nkpt           2
            nstep        2000
             nsym          48
           ntypat           4
              occ      2.000000  2.000000  2.000000  2.000000  2.000000  2.000000
                       2.000000  2.000000  2.000000  2.000000  2.000000  2.000000
                       2.000000  2.000000  2.000000  2.000000  2.000000  2.000000
                       2.000000  2.000000  2.000000  2.000000  2.000000  2.000000
                       2.000000  2.000000  2.000000  2.000000  2.000000  2.000000
                       2.000000  2.000000  2.000000  2.000000  2.000000  2.000000
                       2.000000  2.000000  2.000000  2.000000  2.000000  0.000000
                       0.000000  0.000000  0.000000  0.000000  0.000000  0.000000
                       0.000000  0.000000
        optdriver           1
            prtwf          -1
            rfdir           1       1       1
           rfelfd           2
            rprim      9.9279889760E+00  0.0000000000E+00  5.7319271078E+00
                       3.3093296587E+00  9.3601977713E+00  5.7319271078E+00
                       0.0000000000E+00  0.0000000000E+00  1.1463854216E+01
          spgroup         225
           strten      0.0000000000E+00  0.0000000000E+00  0.0000000000E+00
                       0.0000000000E+00  0.0000000000E+00  0.0000000000E+00
           symrel      1  0  0   0  1  0   0  0  1      -1  0  0   0 -1  0   0  0 -1
                       0 -1  1   0 -1  0   1 -1  0       0  1 -1   0  1  0  -1  1  0
                      -1  0  0  -1  0  1  -1  1  0       1  0  0   1  0 -1   1 -1  0
                       0  1 -1   1  0 -1   0  0 -1       0 -1  1  -1  0  1   0  0  1
                      -1  0  0  -1  1  0  -1  0  1       1  0  0   1 -1  0   1  0 -1
                       0 -1  1   1 -1  0   0 -1  0       0  1 -1  -1  1  0   0  1  0
                       1  0  0   0  0  1   0  1  0      -1  0  0   0  0 -1   0 -1  0
                       0  1 -1   0  0 -1   1  0 -1       0 -1  1   0  0  1  -1  0  1
                      -1  0  1  -1  1  0  -1  0  0       1  0 -1   1 -1  0   1  0  0
                       0 -1  0   1 -1  0   0 -1  1       0  1  0  -1  1  0   0  1 -1
                       1  0 -1   0  0 -1   0  1 -1      -1  0  1   0  0  1   0 -1  1
                       0  1  0   0  0  1   1  0  0       0 -1  0   0  0 -1  -1  0  0
                       1  0 -1   0  1 -1   0  0 -1      -1  0  1   0 -1  1   0  0  1
                       0 -1  0   0 -1  1   1 -1  0       0  1  0   0  1 -1  -1  1  0
                      -1  0  1  -1  0  0  -1  1  0       1  0 -1   1  0  0   1 -1  0
                       0  1  0   1  0  0   0  0  1       0 -1  0  -1  0  0   0  0 -1
                       0  0 -1   0  1 -1   1  0 -1       0  0  1   0 -1  1  -1  0  1
                       1 -1  0   0 -1  1   0 -1  0      -1  1  0   0  1 -1   0  1  0
                       0  0  1   1  0  0   0  1  0       0  0 -1  -1  0  0   0 -1  0
                      -1  1  0  -1  0  0  -1  0  1       1 -1  0   1  0  0   1  0 -1
                       0  0  1   0  1  0   1  0  0       0  0 -1   0 -1  0  -1  0  0
                       1 -1  0   0 -1  0   0 -1  1      -1  1  0   0  1  0   0  1 -1
                       0  0 -1   1  0 -1   0  1 -1       0  0  1  -1  0  1   0 -1  1
                      -1  1  0  -1  0  1  -1  0  0       1 -1  0   1  0 -1   1  0  0
           tolwfr      1.00000000E-20
            typat      1  1  2  3  4  4  4  4  4  4
           useylm           1
              wtk        0.50000    0.50000
           xangst      1.7512218311E+00  1.2383008321E+00  3.0332051867E+00
                       5.2536654932E+00  3.7149024964E+00  9.0996155602E+00
                       3.5024436622E+00  2.4766016642E+00  6.0664103735E+00
                       0.0000000000E+00  0.0000000000E+00  0.0000000000E+00
                       4.3976157256E+00  1.2106371915E+00  7.6168938688E+00
                       5.2927877890E+00  3.7425661369E+00  6.0664103735E+00
                       1.7120995354E+00  1.2106371915E+00  6.0664103735E+00
                       2.6072715988E+00  3.7425661369E+00  7.6168938688E+00
                       2.6072715988E+00  3.7425661369E+00  4.5159268782E+00
                       4.3976157256E+00  1.2106371915E+00  4.5159268782E+00
            xcart      3.3093296587E+00  2.3400494428E+00  5.7319271078E+00
                       9.9279889760E+00  7.0201483285E+00  1.7195781323E+01
                       6.6186593173E+00  4.6800988856E+00  1.1463854216E+01
                       0.0000000000E+00  0.0000000000E+00  0.0000000000E+00
                       8.3102893590E+00  2.2877727383E+00  1.4393843395E+01
                       1.0001919401E+01  7.0724250330E+00  1.1463854216E+01
                       3.2353992341E+00  2.2877727383E+00  1.1463854216E+01
                       4.9270292757E+00  7.0724250330E+00  1.4393843395E+01
                       4.9270292757E+00  7.0724250330E+00  8.5338650359E+00
                       8.3102893590E+00  2.2877727383E+00  8.5338650359E+00
             xred      2.5000000000E-01  2.5000000000E-01  2.5000000000E-01
                       7.5000000000E-01  7.5000000000E-01  7.5000000000E-01
                       5.0000000000E-01  5.0000000000E-01  5.0000000000E-01
                       0.0000000000E+00  0.0000000000E+00  0.0000000000E+00
                       7.5558500000E-01  2.4441500000E-01  7.5558500000E-01
                       7.5558500000E-01  7.5558500000E-01  2.4441500000E-01
                       2.4441500000E-01  2.4441500000E-01  7.5558500000E-01
                       2.4441500000E-01  7.5558500000E-01  7.5558500000E-01
                       2.4441500000E-01  7.5558500000E-01  2.4441500000E-01
                       7.5558500000E-01  2.4441500000E-01  2.4441500000E-01
            znucl       56.00000   39.00000   83.00000    8.00000

- Timing analysis has been suppressed with timopt=0

 Suggested references for the acknowledgment of ABINIT usage.

 Calculation completed.
.Delivered   2 WARNINGs and   5 COMMENTs to log file.