.Version 9.5.1 of ABINIT

 ABINIT is a project of the Universite Catholique de Louvain,
 Corning Inc. and other collaborators, see ~abinit/doc/developers/contributors.txt .
 acknowledgments of the ABINIT effort.

.Starting date : Tue 27 Apr 2021.
- ( at 18h50 )

- input  file    -> /scratch/users/j/a/jabreu/flow_simple_4atoms/flow/w264/t1/run.abi
- output file    -> /scratch/users/j/a/jabreu/flow_simple_4atoms/flow/w264/t1/run.abo
- root for input  files -> /scratch/users/j/a/jabreu/flow_simple_4atoms/flow/w264/t1/indata/in
- root for output files -> /scratch/users/j/a/jabreu/flow_simple_4atoms/flow/w264/t1/outdata/out

 Symmetries : space group R-3 m (#166); Bravais hR (rhombohedral)
     intxc =       0      iscf =       7    lmnmax =      18     lnmax =       6
     mgfft =      80  mpssoang =       3    mqgrid =    3001     natom =       4
  nloc_mem =       1    nspden =       1   nspinor =       1    nsppol =       1
      nsym =      12    n1xccc =    2501    ntypat =       3    occopt =       1
   xclevel =       2
-    mband =          25        mffmem =           1         mkmem =           2
-   mkqmem =           2        mk1mem =           2           mpw =        7946
      nfft =      512000          nkpt =           2
  Rough estimation (10% accuracy) of disk space for files :

------------- Echo of variables that govern the present computation ------------
-
- outvars: echo of selected default values
-   iomode0 =  0 , fftalg0 =512 , wfoptalg0 =  0
-
- outvars: echo of global parameters not present in the input file
-  max_nthreads =    0
-
 -outvars: echo values of preprocessed input variables --------
            acell      1.0000000000E+00  1.0000000000E+00  1.0000000000E+00 Bohr
              amu      4.00780000E+01  3.09737620E+01  1.26904470E+02
             ecut      3.60000000E+01 Hartree
-          fftalg         512
           irdden           1
           irdwfk           1
           istwfk        1    1
              ixc     -116133
              kpt      0.00000000E+00  0.00000000E+00  0.00000000E+00
                       5.00000000E-01  5.00000000E-01  0.00000000E+00
           kptopt           0
P           mkmem           2
P          mkqmem           2
P          mk1mem           2
            natom           4
            nband          25
           nbdbuf           4
            ngfft          80      80      80
             nkpt           2
            nstep         100
             nsym          12
           ntypat           3
              occ      2.000000  2.000000  2.000000  2.000000  2.000000  2.000000
                       2.000000  2.000000  2.000000  2.000000  2.000000  2.000000
                       2.000000  2.000000  2.000000  2.000000  0.000000  0.000000
                       0.000000  0.000000  0.000000  0.000000  0.000000  0.000000
                       0.000000
        optdriver           1
            prtwf          -1
            rfdir           1       1       1
           rfelfd           2
            rprim      7.7085690859E+00  0.0000000000E+00  1.2388450773E+01
                       3.5396352272E+00  6.8478478232E+00  1.2388450773E+01
                       0.0000000000E+00  0.0000000000E+00  1.4590947533E+01
          spgroup         166
           symrel      1  0  0   0  1  0   0  0  1      -1  0  0   0 -1  0   0  0 -1
                       0  1  0   1  0  0   0  0  1       0 -1  0  -1  0  0   0  0 -1
                       0  0  1   1  0  0   0  1  0       0  0 -1  -1  0  0   0 -1  0
                       1  0  0   0  0  1   0  1  0      -1  0  0   0  0 -1   0 -1  0
                       0  1  0   0  0  1   1  0  0       0 -1  0   0  0 -1  -1  0  0
                       0  0  1   0  1  0   1  0  0       0  0 -1   0 -1  0  -1  0  0
           tolwfr      1.00000000E-20
            typat      1  1  2  3
           useylm           1
              wtk        0.50000    0.50000
           xangst      1.3711822030E+00  8.3476853751E-01  4.7990321412E+00
                       4.5811111570E+00  2.7889564584E+00  1.6033536343E+01
                       2.9761466800E+00  1.8118624980E+00  1.0416284242E+01
                       0.0000000000E+00  0.0000000000E+00  0.0000000000E+00
            xcart      2.5911588420E+00  1.5774839202E+00  9.0688564497E+00
                       8.6570454711E+00  5.2703639030E+00  3.0298992630E+01
                       5.6241021566E+00  3.4239239116E+00  1.9683924540E+01
                       0.0000000000E+00  0.0000000000E+00  0.0000000000E+00
             xred      2.3036200000E-01  2.3036200000E-01  2.3036200000E-01
                       7.6963800000E-01  7.6963800000E-01  7.6963800000E-01
                       5.0000000000E-01  5.0000000000E-01  5.0000000000E-01
                       0.0000000000E+00  0.0000000000E+00  0.0000000000E+00
            znucl       20.00000   15.00000   53.00000

 chkinp: Checking input parameters for consistency.

== DATASET  1 ==================================================================
-   mpi_nproc: 1, omp_nthreads: -1 (-1 if OMP is not activated)

--- !DatasetInfo
iteration_state: {dtset: 1, }
dimensions: {natom: 4, nkpt: 2, mband: 25, nsppol: 1, nspinor: 1, nspden: 1, mpw: 7946, }
cutoff_energies: {ecut:  36.0, pawecutdg:  -1.0, }
electrons: {nelect:   3.20000000E+01, charge:   0.00000000E+00, occopt:   1.00000000E+00, tsmear:   1.00000000E-02, }
meta: {optdriver: 1, rfelfd: 2, }
...

 Real(R)+Recip(G) space primitive vectors, cartesian coordinates (Bohr,Bohr^-1):
 R(1)=  7.7085691  0.0000000 12.3884508  G(1)=  0.1297258 -0.0670549  0.0000000
 R(2)=  3.5396352  6.8478478 12.3884508  G(2)=  0.0000000  0.1460313  0.0000000
 R(3)=  0.0000000  0.0000000 14.5909475  G(3)= -0.1101437 -0.0670549  0.0685356
 Unit cell volume ucvol=  7.7021392E+02 bohr^3
 Angles (23,13,12)=  3.18914577E+01  3.18914577E+01  3.18914577E+01 degrees

 getcut: wavevector=  0.0000  0.0000  0.0000  ngfft=  80  80  80
         ecut(hartree)=     36.000   => boxcut(ratio)=   2.02998

--- Pseudopotential description ------------------------------------------------
- pspini: atom type   1  psp file is /scratch/users/j/a/jabreu/pseudos/PBEsol/Ca.psp8
- pspatm: opening atomic psp file    /scratch/users/j/a/jabreu/pseudos/PBEsol/Ca.psp8
- Ca    ONCVPSP-3.3.0  r_core=   1.45885   1.45885   1.85192
- 20.00000  10.00000    180112                znucl, zion, pspdat
    8 -116133    2    4       400   0.00000   pspcod,pspxc,lmax,lloc,mmax,r2well
    3.99000000000000    6.00000000000000    0.00000000000000   rchrg,fchrg,qchrg
     nproj     2     2     2
     extension_switch     1
  pspatm : epsatm=   12.46045226
         --- l  ekb(1:nproj) -->
             0   10.054847    0.973777
             1    2.998958    0.458102
             2   -3.447298   -1.091650
 pspatm: atomic psp has been read  and splines computed

- pspini: atom type   2  psp file is /scratch/users/j/a/jabreu/pseudos/PBEsol/P.psp8
- pspatm: opening atomic psp file    /scratch/users/j/a/jabreu/pseudos/PBEsol/P.psp8
- P     ONCVPSP-3.3.0  r_core=   1.46089   1.55067   1.70594
- 15.00000   5.00000    180112                znucl, zion, pspdat
    8 -116133    2    4       600   0.00000   pspcod,pspxc,lmax,lloc,mmax,r2well
    5.99000000000000    5.00000000000000    0.00000000000000   rchrg,fchrg,qchrg
     nproj     2     2     2
     extension_switch     1
  pspatm : epsatm=    7.31221086
         --- l  ekb(1:nproj) -->
             0    6.742364    1.063650
             1    3.449117    0.910422
             2   -3.077645   -0.799176
 pspatm: atomic psp has been read  and splines computed

- pspini: atom type   3  psp file is /scratch/users/j/a/jabreu/pseudos/PBEsol/I.psp8
- pspatm: opening atomic psp file    /scratch/users/j/a/jabreu/pseudos/PBEsol/I.psp8
- I     ONCVPSP-3.3.0  r_core=   2.02042   2.17032   2.27639
- 53.00000   7.00000    180112                znucl, zion, pspdat
    8 -116133    2    4       600   0.00000   pspcod,pspxc,lmax,lloc,mmax,r2well
    5.99000000000000    4.00000000000000    0.00000000000000   rchrg,fchrg,qchrg
     nproj     2     2     2
     extension_switch     1
  pspatm : epsatm=   18.14229533
         --- l  ekb(1:nproj) -->
             0    6.015861    0.935228
             1    4.063749    0.754139
             2    4.149534    0.722940
 pspatm: atomic psp has been read  and splines computed

   1.61201314E+03                                ecore*ucvol(ha*bohr**3)

-inwffil : will read wavefunctions from disk file /scratch/users/j/a/jabreu/flow_simple_4atoms/flow/w264/t1/indata/in_WFK

 ==>  initialize data related to q vector <==

 The list of irreducible perturbations for this q vector is:
    1)    idir= 1    ipert=   5
    2)    idir= 2    ipert=   5
    3)    idir= 3    ipert=   5

 Perturbation wavevector (in red.coord.)   0.000000  0.000000  0.000000
 Perturbation : derivative vs k along direction   1

 dfpt_looppert : COMMENT -
  In a d/dk calculation, iscf is set to -3 automatically.
 The set of symmetries contains only one element for this perturbation.
 symkpt : not enough symmetry to change the number of k points.

[...]

 Initialisation of the first-order wave-functions :
  ireadwf=   0

--- !BeginCycle
iteration_state: {dtset: 1, }
solver: {iscf: 7, nstep: 100, nline: 4, wfoptalg: 0, }
tolerances: {tolwfr: 1.00E-20, }
...

     iter   2DEtotal(Ha)        deltaE(Ha) residm    vres2
-ETOT  1  -33.169579222137     -3.317E+01 1.043E-01 0.000E+00
 ETOT  2  -33.234537574558     -6.496E-02 1.768E-02 0.000E+00
 ETOT  3  -33.236631418982     -2.094E-03 1.603E-03 0.000E+00
 ETOT  4  -33.236736073060     -1.047E-04 1.014E-03 0.000E+00
 ETOT  5  -33.236742087958     -6.015E-06 4.449E-04 0.000E+00
 ETOT  6  -33.236742448659     -3.607E-07 2.104E-04 0.000E+00
 ETOT  7  -33.236742471053     -2.239E-08 7.685E-05 0.000E+00
 ETOT  8  -33.236742472469     -1.416E-09 7.214E-05 0.000E+00
 ETOT  9  -33.236742472560     -9.135E-11 2.417E-05 0.000E+00
 ETOT 10  -33.236742472566     -5.976E-12 2.474E-05 0.000E+00
 ETOT 11  -33.236742472567     -3.766E-13 8.343E-06 0.000E+00
 ETOT 12  -33.236742472567      7.105E-15 8.556E-06 0.000E+00
 ETOT 13  -33.236742472567     -2.132E-14 2.915E-06 0.000E+00
 ETOT 14  -33.236742472567     -4.263E-14 2.980E-06 0.000E+00
 ETOT 15  -33.236742472567      0.000E+00 1.027E-06 0.000E+00
 ETOT 16  -33.236742472567      2.842E-14 1.043E-06 0.000E+00
 ETOT 17  -33.236742472567     -2.842E-14 3.635E-07 0.000E+00
 ETOT 18  -33.236742472567     -1.421E-14 3.667E-07 0.000E+00
 ETOT 19  -33.236742472567     -7.105E-15 1.292E-07 0.000E+00
 ETOT 20  -33.236742472567      7.105E-15 1.293E-07 0.000E+00
 ETOT 21  -33.236742472567     -7.105E-15 4.602E-08 0.000E+00
 ETOT 22  -33.236742472567      1.421E-14 4.569E-08 0.000E+00
 ETOT 23  -33.236742472567     -1.421E-14 1.642E-08 0.000E+00
 ETOT 24  -33.236742472567      0.000E+00 1.618E-08 0.000E+00
 ETOT 25  -33.236742472567     -7.105E-15 5.869E-09 0.000E+00
 ETOT 26  -33.236742472567      2.132E-14 5.742E-09 0.000E+00
 ETOT 27  -33.236742472567     -7.105E-15 2.099E-09 0.000E+00
 ETOT 28  -33.236742472567      7.105E-15 2.040E-09 0.000E+00
 ETOT 29  -33.236742472567      0.000E+00 7.511E-10 0.000E+00
[...]
  -0.00000
 prteigrs : prtvol=0 or 1, do not print more k-points.

 Eight components of 2nd-order total energy (hartree) are
 1,2,3: 0th-order hamiltonian combined with 1st-order wavefunctions
     kin0=   3.17127970E+01 eigvalue=   5.55115619E-01  local=  -1.94505727E+01
 4,5,6: 1st-order hamiltonian combined with 1st and 0th-order wfs
     kin1=  -6.82849828E+01  Hartree=   0.00000000E+00     xc=   0.00000000E+00
 7,8,9: eventually, occupation + non-local contributions
    edocc=   1.95760117E+01     enl0=   8.43390905E-01   enl1=   1.81149783E+00
 1-9 gives the relaxation energy (to be shifted if some occ is /=2.0)
   erelax=  -3.32367425E+01
  No Ewald or frozen-wf contrib.: the relaxation energy is the total one
 2DEtotal=   -0.3323674247E+02 Ha. Also 2DEtotal=   -0.904417757677E+03 eV
    (  non-var. 2DEtotal :   -3.3236742472E+01 Ha)

 Perturbation wavevector (in red.coord.)   0.000000  0.000000  0.000000
 Perturbation : derivative vs k along direction   2
 The set of symmetries contains only one element for this perturbation.
 symkpt : not enough symmetry to change the number of k points.

[...]

 Perturbation wavevector (in red.coord.)   0.000000  0.000000  0.000000
 Perturbation : derivative vs k along direction   3
 The set of symmetries contains only one element for this perturbation.
 symkpt : not enough symmetry to change the number of k points.

-inwffil : will read wavefunctions from disk file /scratch/users/j/a/jabreu/flow_simple_4atoms/flow/w264/t1/indata/in_WFK

 Initialisation of the first-order wave-functions :
  ireadwf=   0

--- !BeginCycle
iteration_state: {dtset: 1, }
solver: {iscf: 7, nstep: 100, nline: 4, wfoptalg: 0, }
tolerances: {tolwfr: 1.00E-20, }
...

     iter   2DEtotal(Ha)        deltaE(Ha) residm    vres2
-ETOT  1  -30.050339967362     -3.005E+01 1.123E-01 0.000E+00
 ETOT  2  -30.115747952746     -6.541E-02 1.676E-02 0.000E+00
 ETOT  3  -30.118105626934     -2.358E-03 2.664E-03 0.000E+00
 ETOT  4  -30.118239127526     -1.335E-04 1.238E-03 0.000E+00
 ETOT  5  -30.118247973029     -8.846E-06 5.155E-04 0.000E+00
 ETOT  6  -30.118248594814     -6.218E-07 2.820E-04 0.000E+00
 ETOT  7  -30.118248640874     -4.606E-08 9.356E-05 0.000E+00
 ETOT  8  -30.118248644375     -3.501E-09 5.148E-05 0.000E+00
 ETOT  9  -30.118248644646     -2.715E-10 1.701E-05 0.000E+00
 ETOT 10  -30.118248644668     -2.138E-11 1.009E-05 0.000E+00
 ETOT 11  -30.118248644669     -1.663E-12 3.363E-06 0.000E+00
 ETOT 12  -30.118248644670     -1.492E-13 2.007E-06 0.000E+00
 ETOT 13  -30.118248644670      2.487E-14 6.693E-07 0.000E+00
 ETOT 14  -30.118248644670     -3.553E-15 4.034E-07 0.000E+00
 ETOT 15  -30.118248644670     -1.066E-14 1.339E-07 0.000E+00
 ETOT 16  -30.118248644670      3.553E-15 8.184E-08 0.000E+00
 ETOT 17  -30.118248644670      0.000E+00 2.694E-08 0.000E+00
 ETOT 18  -30.118248644670      1.066E-14 1.675E-08 0.000E+00
 ETOT 19  -30.118248644670     -7.105E-15 5.454E-09 0.000E+00
 ETOT 20  -30.118248644670      3.553E-15 3.457E-09 0.000E+00
 ETOT 21  -30.118248644670      1.066E-14 1.112E-09 0.000E+00
 ETOT 22  -30.118248644670     -1.776E-14 7.186E-10 0.000E+00
 ETOT 23  -30.118248644670      1.421E-14 2.280E-10 0.000E+00
 ETOT 24  -30.118248644669      7.105E-15 1.503E-10 0.000E+00
 ETOT 25  -30.118248644670     -2.132E-14 4.705E-11 0.000E+00
 ETOT 26  -30.118248644670      1.776E-14 3.160E-11 0.000E+00
 ETOT 27  -30.118248644670     -7.105E-15 9.764E-12 0.000E+00
 ETOT 28  -30.118248644670      7.105E-15 6.670E-12 0.000E+00
 ETOT 29  -30.118248644670     -7.105E-15 2.036E-12 0.000E+00
 ETOT 30  -30.118248644670      3.553E-15 1.412E-12 0.000E+00
 ETOT 31  -30.118248644670      0.000E+00 4.261E-13 0.000E+00
 ETOT 32  -30.118248644669      1.066E-14 2.996E-13 0.000E+00
 ETOT 33  -30.118248644670     -1.421E-14 8.948E-14 0.000E+00
 ETOT 34  -30.118248644669      1.066E-14 6.368E-14 0.000E+00
 ETOT 35  -30.118248644670     -1.421E-14 1.884E-14 0.000E+00
 ETOT 36  -30.118248644670      3.553E-15 1.355E-14 0.000E+00
 ETOT 37  -30.118248644670      0.000E+00 3.976E-15 0.000E+00
 ETOT 38  -30.118248644670     -3.553E-15 2.887E-15 0.000E+00
 ETOT 39  -30.118248644670      7.105E-15 8.406E-16 0.000E+00
 ETOT 40  -30.118248644670      3.553E-15 6.153E-16 0.000E+00
 ETOT 41  -30.118248644670     -1.776E-14 1.780E-16 0.000E+00
 ETOT 42  -30.118248644670      0.000E+00 1.312E-16 0.000E+00
 ETOT 43  -30.118248644670      1.421E-14 3.773E-17 0.000E+00
 ETOT 44  -30.118248644670     -1.066E-14 2.799E-17 0.000E+00
 ETOT 45  -30.118248644670      0.000E+00 8.005E-18 0.000E+00
 ETOT 46  -30.118248644670      1.421E-14 6.435E-18 0.000E+00
 ETOT 47  -30.118248644670      0.000E+00 2.730E-18 0.000E+00
 ETOT 48  -30.118248644669      3.553E-15 2.409E-18 0.000E+00
 ETOT 49  -30.118248644670     -1.066E-14 1.021E-18 0.000E+00
 ETOT 50  -30.118248644669      2.132E-14 9.019E-19 0.000E+00
 ETOT 51  -30.118248644670     -1.776E-14 3.821E-19 0.000E+00
 ETOT 52  -30.118248644670     -1.421E-14 3.376E-19 0.000E+00
 ETOT 53  -30.118248644670      1.066E-14 1.430E-19 0.000E+00
 ETOT 54  -30.118248644670      7.105E-15 1.264E-19 0.000E+00
 ETOT 55  -30.118248644670     -3.553E-15 5.349E-20 0.000E+00
 ETOT 56  -30.118248644670      3.553E-15 4.731E-20 0.000E+00
 ETOT 57  -30.118248644670     -1.776E-14 2.001E-20 0.000E+00
 ETOT 58  -30.118248644670      1.421E-14 1.771E-20 0.000E+00
 ETOT 59  -30.118248644669      1.066E-14 9.988E-21 0.000E+00

 At SCF step   59   max residual=  9.99E-21 < tolwfr=  1.00E-20 =>converged.

 ----iterations are completed or convergence reached----

 dfpt_looppert: DFPT cycle converged with prtwf=-1. Will skip output of the 1st-order WFK file.
 dfpt_looppert : ek2=    5.3880486625E+01
          f-sum rule ratio=    1.1614952216E+00
 prteigrs : about to open file /scratch/users/j/a/jabreu/flow_simple_4atoms/flow/w264/t1/tmpdata/tmp_1WF1_EIG
 Expectation of eigenvalue derivatives (hartree) for nkpt=   2  k points:
  (in case of degenerate eigenvalues, averaged derivative)
 kpt#   1, nband= 25, wtk=  0.50000, kpt=  0.0000  0.0000  0.0000 (reduced coord)
  -0.00000    0.00000   -0.00000   -0.00000    0.00000    0.00000    0.00000    0.00000
  -0.00000   -0.00000    0.00000   -0.00000   -0.00000    0.00000   -0.00000   -0.00000
   0.00000   -0.00000   -0.00000    0.00000    0.00000    0.00000    0.00000    0.00000
  -0.00000
 prteigrs : prtvol=0 or 1, do not print more k-points.

 Eight components of 2nd-order total energy (hartree) are
 1,2,3: 0th-order hamiltonian combined with 1st-order wavefunctions
     kin0=   2.88727839E+01 eigvalue=   9.13789413E-01  local=  -1.76161491E+01
 4,5,6: 1st-order hamiltonian combined with 1st and 0th-order wfs
     kin1=  -6.25819278E+01  Hartree=   0.00000000E+00     xc=   0.00000000E+00
 7,8,9: eventually, occupation + non-local contributions
    edocc=   1.67033062E+01     enl0=   1.24451819E+00   enl1=   2.34543046E+00
 1-9 gives the relaxation energy (to be shifted if some occ is /=2.0)
   erelax=  -3.01182486E+01
  No Ewald or frozen-wf contrib.: the relaxation energy is the total one
 2DEtotal=   -0.3011824864E+02 Ha. Also 2DEtotal=   -0.819559225061E+03 eV
    (  non-var. 2DEtotal :   -3.0118248645E+01 Ha)

 CALCULATION OF EFFECTIVE MASSES
 NOTE : Additional infos (eff. mass eigenvalues, eigenvectors and, if degenerate, average mass) are available in stdout.

 COMMENTS:
 - At k-point ( 0.000, 0.000, 0.000), bands    15 through    16
   are DEGENERATE (effective mass tensor is therefore not defined).
   See Section IIIB Eqs. (67)-(70) and Appendix E of PRB 93 205147 (2016).
 - Angular average effective mass for Frohlich model is to be averaged over degenerate bands. See later.
 - Associated theta integrals calculated with ntheta=   1000 points.

 K-point ( 0.000, 0.000, 0.000) | band =    15
 Transport equivalent effective mass tensor:
             -0.3664694146             -0.0549077703             -0.3156616692
             -0.0549077703             -0.3097051538             -0.1921719924
             -0.3156616692             -0.1921719924             -1.3810652518
 Transport equivalent effective mass tensor eigenvalues:
             -1.5046839558             -0.2762780474             -0.2762778171
 Angular average effective mass 1/(<1/m>)=  -0.3761508414
 Angular average effective mass for Frohlich model (<m**0.5>)**2=  -0.4266110034
 Effective masses along directions: (cart. coord. / red. coord. -> eff. mass)
    1:   1.000000  0.000000  0.000000 /   0.908773  0.417292  0.000000 ->  -0.2908050864
    2:   0.000000  1.000000  0.000000 /   0.000000  1.000000  0.000000 ->  -0.2780015441
    3:   0.000000  0.000000  1.000000 /   0.543351  0.543351  0.639952 ->  -0.9801587197
    4:   0.577350  0.577350  0.577350 /   0.596393  0.675892  0.432996 ->  -0.5862922665
    5:   0.000000  0.707107  0.707107 /   0.456519  0.708865  0.537682 ->  -0.5395273193
    6:   0.707107  0.000000  0.707107 /   0.681161  0.539861  0.494540 ->  -0.6697266667
    7:   0.707107  0.707107  0.000000 /   0.595933  0.803034  0.000000 ->  -0.3001346056

 K-point ( 0.000, 0.000, 0.000) | band =    16
 Transport equivalent effective mass tensor:
             -2.3443711504              0.0316233499              0.1818096220
              0.0316233499             -2.3770650239              0.1106836404
              0.1818096220              0.1106836404             -1.7600038172
 Transport equivalent effective mass tensor eigenvalues:
             -2.3963194882             -2.3963165865             -1.6888039169
 Angular average effective mass 1/(<1/m>)=  -1.9227512318
 Angular average effective mass for Frohlich model (<m**0.5>)**2=  -1.9538245383
 Effective masses along directions: (cart. coord. / red. coord. -> eff. mass)
    1:   1.000000  0.000000  0.000000 /   0.908773  0.417292  0.000000 ->  -2.1878025463
    2:   0.000000  1.000000  0.000000 /   0.000000  1.000000  0.000000 ->  -2.3462207179
    3:   0.000000  0.000000  1.000000 /   0.543351  0.543351  0.639952 ->  -1.6766808337
    4:   0.577350  0.577350  0.577350 /   0.596393  0.675892  0.432996 ->  -1.5867557179
    5:   0.000000  0.707107  0.707107 /   0.456519  0.708865  0.537682 ->  -1.8697645023
    6:   0.707107  0.000000  0.707107 /   0.681161  0.539861  0.494540 ->  -1.8050522615
    7:   0.707107  0.707107  0.000000 /   0.595933  0.803034  0.000000 ->  -1.9826176902

 Angular average effective mass for Frohlich model, averaged over degenerate bands.
 Value of     (<<m**0.5>>)**2 =     1.051596E+00
 Absolute Value of <<m**0.5>> =     1.025474E+00

 K-point ( 0.500, 0.500, 0.000) | band =    17
 Effective mass tensor:
              0.5779726475              0.1668843087             -0.4545177487
              0.1668843087              0.4054484932             -0.2767080226
             -0.4545177487             -0.2767080226              1.1422097285
 Effective mass tensor eigenvalues:
              0.3038502009              0.3306641922              1.4911164762
 Angular average effective mass 1/(<1/m>)=   0.4294333623
 Angular average effective mass for Frohlich model (<m**0.5>)**2=   0.4795579152
 Effective masses along directions: (cart. coord. / red. coord. -> eff. mass)
    1:   1.000000  0.000000  0.000000 /   0.908773  0.417292  0.000000 ->   0.3875823153
    2:   0.000000  1.000000  0.000000 /   0.000000  1.000000  0.000000 ->   0.3302970946
    3:   0.000000  0.000000  1.000000 /   0.543351  0.543351  0.639952 ->   0.7255443047
    4:   0.577350  0.577350  0.577350 /   0.596393  0.675892  0.432996 ->   0.3301664817
    5:   0.000000  0.707107  0.707107 /   0.456519  0.708865  0.537682 ->   0.3617770429
    6:   0.707107  0.000000  0.707107 /   0.681161  0.539861  0.494540 ->   0.3447064595
    7:   0.707107  0.707107  0.000000 /   0.595933  0.803034  0.000000 ->   0.4217656096

 END OF EFFECTIVE MASSES SECTION

 ---- first-order wavefunction calculations are completed ----

 Total localisation tensor (bohr^2) in cartesian coordinates
  WARNING : still subject to testing - especially symmetries.
      direction              matrix element
   alpha     beta       real part   imaginary part
     1        1       3.7234805779    0.0000000000
     1        2       1.2543658087    0.0000000000
     1        3       7.2112751567    0.0000000000
     2        1       1.2543658087    0.0000000000
     2        2       2.4267207273    0.0000000000
     2        3       4.3901837551    0.0000000000
     3        1       7.2112751567    0.0000000000
     3        2       4.3901837551    0.0000000000
     3        3      24.7772915834    0.0000000000

 respfn : d/dk was computed, but no 2DTE, so no DDB output.

== END DATASET(S) ==============================================================

 -outvars: echo values of variables after computation  --------
            acell      1.0000000000E+00  1.0000000000E+00  1.0000000000E+00 Bohr
              amu      4.00780000E+01  3.09737620E+01  1.26904470E+02
             ecut      3.60000000E+01 Hartree
           etotal     -3.0118248645E+01
            fcart      0.0000000000E+00  0.0000000000E+00  0.0000000000E+00
                       0.0000000000E+00  0.0000000000E+00  0.0000000000E+00
                       0.0000000000E+00  0.0000000000E+00  0.0000000000E+00
                       0.0000000000E+00  0.0000000000E+00  0.0000000000E+00
-          fftalg         512
           irdden           1
           irdwfk           1
           istwfk        1    1
              ixc     -116133
              kpt      0.00000000E+00  0.00000000E+00  0.00000000E+00
                       5.00000000E-01  5.00000000E-01  0.00000000E+00
           kptopt           0
P           mkmem           2
P          mkqmem           2
P          mk1mem           2
            natom           4
            nband          25
           nbdbuf           4
            ngfft          80      80      80
             nkpt           2
            nstep         100
             nsym          12
           ntypat           3
              occ      2.000000  2.000000  2.000000  2.000000  2.000000  2.000000
                       2.000000  2.000000  2.000000  2.000000  2.000000  2.000000
                       2.000000  2.000000  2.000000  2.000000  0.000000  0.000000
                       0.000000  0.000000  0.000000  0.000000  0.000000  0.000000
                       0.000000
        optdriver           1
            prtwf          -1
            rfdir           1       1       1
           rfelfd           2
            rprim      7.7085690859E+00  0.0000000000E+00  1.2388450773E+01
                       3.5396352272E+00  6.8478478232E+00  1.2388450773E+01
                       0.0000000000E+00  0.0000000000E+00  1.4590947533E+01
          spgroup         166
           strten      0.0000000000E+00  0.0000000000E+00  0.0000000000E+00
                       0.0000000000E+00  0.0000000000E+00  0.0000000000E+00
           symrel      1  0  0   0  1  0   0  0  1      -1  0  0   0 -1  0   0  0 -1
                       0  1  0   1  0  0   0  0  1       0 -1  0  -1  0  0   0  0 -1
                       0  0  1   1  0  0   0  1  0       0  0 -1  -1  0  0   0 -1  0
                       1  0  0   0  0  1   0  1  0      -1  0  0   0  0 -1   0 -1  0
                       0  1  0   0  0  1   1  0  0       0 -1  0   0  0 -1  -1  0  0
                       0  0  1   0  1  0   1  0  0       0  0 -1   0 -1  0  -1  0  0
           tolwfr      1.00000000E-20
            typat      1  1  2  3
           useylm           1
              wtk        0.50000    0.50000
           xangst      1.3711822030E+00  8.3476853751E-01  4.7990321412E+00
                       4.5811111570E+00  2.7889564584E+00  1.6033536343E+01
                       2.9761466800E+00  1.8118624980E+00  1.0416284242E+01
                       0.0000000000E+00  0.0000000000E+00  0.0000000000E+00
            xcart      2.5911588420E+00  1.5774839202E+00  9.0688564497E+00
                       8.6570454711E+00  5.2703639030E+00  3.0298992630E+01
                       5.6241021566E+00  3.4239239116E+00  1.9683924540E+01
                       0.0000000000E+00  0.0000000000E+00  0.0000000000E+00
             xred      2.3036200000E-01  2.3036200000E-01  2.3036200000E-01
                       7.6963800000E-01  7.6963800000E-01  7.6963800000E-01
                       5.0000000000E-01  5.0000000000E-01  5.0000000000E-01
                       0.0000000000E+00  0.0000000000E+00  0.0000000000E+00
            znucl       20.00000   15.00000   53.00000

- Timing analysis has been suppressed with timopt=0

 Suggested references for the acknowledgment of ABINIT usage.

 Calculation completed.
.Delivered  14 WARNINGs and   9 COMMENTs to log file.