.Version 9.5.1 of ABINIT

 ABINIT is a project of the Universite Catholique de Louvain,
 Corning Inc. and other collaborators, see ~abinit/doc/developers/contributors.txt .
 acknowledgments of the ABINIT effort.

.Starting date : Sun 25 Apr 2021.
- ( at 17h19 )

- input  file    -> /scratch/users/j/a/jabreu/flow_simple2/flow/w189/t1/run.abi
- output file    -> /scratch/users/j/a/jabreu/flow_simple2/flow/w189/t1/run.abo
- root for input  files -> /scratch/users/j/a/jabreu/flow_simple2/flow/w189/t1/indata/in
- root for output files -> /scratch/users/j/a/jabreu/flow_simple2/flow/w189/t1/outdata/out

 Symmetries : space group F-4 3 m (#216); Bravais cF (face-center cubic)
     intxc =       0      iscf =       7    lmnmax =      18     lnmax =       6
     mgfft =      48  mpssoang =       3    mqgrid =    3001     natom =       2
  nloc_mem =       1    nspden =       1   nspinor =       1    nsppol =       1
      nsym =      24    n1xccc =    2501    ntypat =       2    occopt =       1
   xclevel =       2
-    mband =          23        mffmem =           1         mkmem =           1
-   mkqmem =           1        mk1mem =           1           mpw =        3943
      nfft =      110592          nkpt =           1
  Rough estimation (10% accuracy) of disk space for files :

------------- Echo of variables that govern the present computation ------------
-
- outvars: echo of selected default values
-   iomode0 =  0 , fftalg0 =512 , wfoptalg0 =  0
-
- outvars: echo of global parameters not present in the input file
-  max_nthreads =    0
-
 -outvars: echo values of preprocessed input variables --------
            acell      1.0000000000E+00  1.0000000000E+00  1.0000000000E+00 Bohr
              amu      6.97230000E+01  7.49215900E+01
             ecut      4.20000000E+01 Hartree
-          fftalg         512
           irdden           1
           irdwfk           1
           istwfk        1
              ixc     -116133
           kptopt           0
P           mkmem           1
P          mkqmem           1
P          mk1mem           1
            natom           2
            nband          23
           nbdbuf           4
            ngfft          48      48      48
             nkpt           1
            nstep         100
             nsym          24
           ntypat           2
              occ      2.000000  2.000000  2.000000  2.000000  2.000000  2.000000
                       2.000000  2.000000  2.000000  2.000000  2.000000  2.000000
                       2.000000  2.000000  0.000000  0.000000  0.000000  0.000000
                       0.000000  0.000000  0.000000  0.000000  0.000000
        optdriver           1
            prtwf          -1
            rfdir           1       1       1
           rfelfd           2
            rprim      6.5502608046E+00  0.0000000000E+00  3.7817948388E+00
                       2.1834202682E+00  6.1756451113E+00  3.7817948388E+00
                       0.0000000000E+00  0.0000000000E+00  7.5635896776E+00
          spgroup         216
           symrel      1  0  0   0  1  0   0  0  1       0 -1  1   0 -1  0   1 -1  0
                      -1  0  0  -1  0  1  -1  1  0       0  1 -1   1  0 -1   0  0 -1
                      -1  0  0  -1  1  0  -1  0  1       0 -1  1   1 -1  0   0 -1  0
                       1  0  0   0  0  1   0  1  0       0  1 -1   0  0 -1   1  0 -1
                      -1  0  1  -1  1  0  -1  0  0       0 -1  0   1 -1  0   0 -1  1
                       1  0 -1   0  0 -1   0  1 -1       0  1  0   0  0  1   1  0  0
                       1  0 -1   0  1 -1   0  0 -1       0 -1  0   0 -1  1   1 -1  0
                      -1  0  1  -1  0  0  -1  1  0       0  1  0   1  0  0   0  0  1
                       0  0 -1   0  1 -1   1  0 -1       1 -1  0   0 -1  1   0 -1  0
                       0  0  1   1  0  0   0  1  0      -1  1  0  -1  0  0  -1  0  1
                       0  0  1   0  1  0   1  0  0       1 -1  0   0 -1  0   0 -1  1
                       0  0 -1   1  0 -1   0  1 -1      -1  1  0  -1  0  1  -1  0  0
           tolwfr      1.00000000E-20
            typat      1  2
           useylm           1
           xangst      0.0000000000E+00  0.0000000000E+00  0.0000000000E+00
                       1.1554162427E+00  8.1700266031E-01  2.0012396363E+00
            xcart      0.0000000000E+00  0.0000000000E+00  0.0000000000E+00
                       2.1834202682E+00  1.5439112778E+00  3.7817948388E+00
             xred      0.0000000000E+00  0.0000000000E+00  0.0000000000E+00
                       2.5000000000E-01  2.5000000000E-01  2.5000000000E-01
            znucl       31.00000   33.00000

 chkinp: Checking input parameters for consistency.

== DATASET  1 ==================================================================
-   mpi_nproc: 1, omp_nthreads: -1 (-1 if OMP is not activated)

--- !DatasetInfo
iteration_state: {dtset: 1, }
dimensions: {natom: 2, nkpt: 1, mband: 23, nsppol: 1, nspinor: 1, nspden: 1, mpw: 3943, }
cutoff_energies: {ecut:  42.0, pawecutdg:  -1.0, }
electrons: {nelect:   2.80000000E+01, charge:   0.00000000E+00, occopt:   1.00000000E+00, tsmear:   1.00000000E-02, }
meta: {optdriver: 1, rfelfd: 2, }
...

 Real(R)+Recip(G) space primitive vectors, cartesian coordinates (Bohr,Bohr^-1):
 R(1)=  6.5502608  0.0000000  3.7817948  G(1)=  0.1526657 -0.0539755  0.0000000
 R(2)=  2.1834203  6.1756451  3.7817948  G(2)=  0.0000000  0.1619264  0.0000000
 R(3)=  0.0000000  0.0000000  7.5635897  G(3)= -0.0763328 -0.0539755  0.1322124
 Unit cell volume ucvol=  3.0596298E+02 bohr^3
 Angles (23,13,12)=  6.00000000E+01  6.00000000E+01  6.00000000E+01 degrees

 getcut: wavevector=  0.0000  0.0000  0.0000  ngfft=  48  48  48
         ecut(hartree)=     42.000   => boxcut(ratio)=   2.17532

--- Pseudopotential description ------------------------------------------------
- pspini: atom type   1  psp file is /scratch/users/j/a/jabreu/pseudos/PBEsol/Ga.psp8
- pspatm: opening atomic psp file    /scratch/users/j/a/jabreu/pseudos/PBEsol/Ga.psp8
- Ga    ONCVPSP-3.3.0  r_core=   1.66857   1.75011   1.90252
- 31.00000  13.00000    180112                znucl, zion, pspdat
    8 -116133    2    4       600   0.00000   pspcod,pspxc,lmax,lloc,mmax,r2well
    5.99000000000000    5.00000000000000    0.00000000000000   rchrg,fchrg,qchrg
     nproj     2     2     2
     extension_switch     1
  pspatm : epsatm=   24.50969055
         --- l  ekb(1:nproj) -->
             0    7.053021    1.156713
             1    6.846070    1.293139
             2   -8.368667   -2.819170
 pspatm: atomic psp has been read  and splines computed

- pspini: atom type   2  psp file is /scratch/users/j/a/jabreu/pseudos/PBEsol/As.psp8
- pspatm: opening atomic psp file    /scratch/users/j/a/jabreu/pseudos/PBEsol/As.psp8
- As    ONCVPSP-3.3.0  r_core=   1.76603   1.70395   1.80867
- 33.00000  15.00000    180112                znucl, zion, pspdat
    8 -116133    2    4       600   0.00000   pspcod,pspxc,lmax,lloc,mmax,r2well
    5.99000000000000    5.00000000000000    0.00000000000000   rchrg,fchrg,qchrg
     nproj     2     2     2
     extension_switch     1
  pspatm : epsatm=   28.79155382
         --- l  ekb(1:nproj) -->
             0    8.270760    0.868950
             1    4.919053    0.756587
             2  -10.048665   -4.076802
 pspatm: atomic psp has been read  and splines computed

   1.49243484E+03                                ecore*ucvol(ha*bohr**3)

-inwffil : will read wavefunctions from disk file /scratch/users/j/a/jabreu/flow_simple2/flow/w189/t1/indata/in_WFK

 ==>  initialize data related to q vector <==

 The list of irreducible perturbations for this q vector is:
    1)    idir= 1    ipert=   3
    2)    idir= 2    ipert=   3
    3)    idir= 3    ipert=   3

 Perturbation wavevector (in red.coord.)   0.000000  0.000000  0.000000
 Perturbation : derivative vs k along direction   1

 dfpt_looppert : COMMENT -
  In a d/dk calculation, iscf is set to -3 automatically.
 The set of symmetries contains only one element for this perturbation.
 symkpt : not enough symmetry to change the number of k points.

[...]

 Initialisation of the first-order wave-functions :
  ireadwf=   0

--- !BeginCycle
iteration_state: {dtset: 1, }
solver: {iscf: 7, nstep: 100, nline: 4, wfoptalg: 0, }
tolerances: {tolwfr: 1.00E-20, }
...

     iter   2DEtotal(Ha)        deltaE(Ha) residm    vres2
-ETOT  1  -169.66672896696     -1.697E+02 8.643E-02 0.000E+00
 ETOT  2  -169.70597385544     -3.924E-02 2.628E-04 0.000E+00
 ETOT  3  -169.70602877724     -5.492E-05 1.260E-06 0.000E+00
 ETOT  4  -169.70602903977     -2.625E-07 2.001E-08 0.000E+00
 ETOT  5  -169.70602904154     -1.766E-09 1.222E-10 0.000E+00
 ETOT  6  -169.70602904155     -1.270E-11 2.107E-12 0.000E+00
 ETOT  7  -169.70602904155     -1.421E-13 1.313E-14 0.000E+00
 ETOT  8  -169.70602904155     -1.705E-13 2.287E-16 0.000E+00
 ETOT  9  -169.70602904155      8.527E-14 1.418E-18 0.000E+00
 ETOT 10  -169.70602904155      1.137E-13 2.480E-20 0.000E+00
 ETOT 11  -169.70602904155     -8.527E-14 8.817E-21 0.000E+00

 At SCF step   11   max residual=  8.82E-21 < tolwfr=  1.00E-20 =>converged.

 ----iterations are completed or convergence reached----

 dfpt_looppert: DFPT cycle converged with prtwf=-1. Will skip output of the 1st-order WFK file.
 dfpt_looppert : ek2=    5.7967303945E+01
          f-sum rule ratio=    4.1278700766E+00
 prteigrs : about to open file /scratch/users/j/a/jabreu/flow_simple2/flow/w189/t1/tmpdata/tmp_1WF1_EIG
 Expectation of eigenvalue derivatives (hartree) for nkpt=   1  k points:
  (in case of degenerate eigenvalues, averaged derivative)
 kpt#   1, nband= 23, wtk=  1.00000, kpt=  0.0000  0.0000  0.0000 (reduced coord)
   0.00000    0.00000    0.00000    0.00000    0.00000    0.00000    0.00000    0.00000
  -0.00000   -0.00000    0.00000   -0.00000   -0.00000   -0.00000    0.00000    0.00000
   0.00000    0.00000    0.00000   -0.00002   -0.00002   -0.00000   -0.00000

 Eight components of 2nd-order total energy (hartree) are
 1,2,3: 0th-order hamiltonian combined with 1st-order wavefunctions
     kin0=   7.42078102E+01 eigvalue=   8.16822057E+00  local=  -2.64043528E+01
 4,5,6: 1st-order hamiltonian combined with 1st and 0th-order wfs
     kin1=  -2.39281499E+02  Hartree=   0.00000000E+00     xc=   0.00000000E+00
 7,8,9: eventually, occupation + non-local contributions
    edocc=   1.04950329E+02     enl0=   8.78402227E+00   enl1=  -1.00130559E+02
 1-9 gives the relaxation energy (to be shifted if some occ is /=2.0)
   erelax=  -1.69706029E+02
  No Ewald or frozen-wf contrib.: the relaxation energy is the total one
 2DEtotal=   -0.1697060290E+03 Ha. Also 2DEtotal=   -0.461793589961E+04 eV
    (  non-var. 2DEtotal :   -1.6970602904E+02 Ha)

 Perturbation wavevector (in red.coord.)   0.000000  0.000000  0.000000
 Perturbation : derivative vs k along direction   2
 The set of symmetries contains only one element for this perturbation.
 symkpt : not enough symmetry to change the number of k points.

[...]

 Perturbation wavevector (in red.coord.)   0.000000  0.000000  0.000000
 Perturbation : derivative vs k along direction   3
 The set of symmetries contains only one element for this perturbation.
 symkpt : not enough symmetry to change the number of k points.

-inwffil : will read wavefunctions from disk file /scratch/users/j/a/jabreu/flow_simple2/flow/w189/t1/indata/in_WFK

 Initialisation of the first-order wave-functions :
  ireadwf=   0

--- !BeginCycle
iteration_state: {dtset: 1, }
solver: {iscf: 7, nstep: 100, nline: 4, wfoptalg: 0, }
tolerances: {tolwfr: 1.00E-20, }
...

     iter   2DEtotal(Ha)        deltaE(Ha) residm    vres2
-ETOT  1  -169.67131739886     -1.697E+02 7.903E-02 0.000E+00
 ETOT  2  -169.70598822440     -3.467E-02 1.154E-04 0.000E+00
 ETOT  3  -169.70603466792     -4.644E-05 5.111E-07 0.000E+00
 ETOT  4  -169.70603488463     -2.167E-07 9.720E-09 0.000E+00
 ETOT  5  -169.70603488606     -1.436E-09 6.781E-11 0.000E+00
 ETOT  6  -169.70603488607     -1.009E-11 1.159E-12 0.000E+00
 ETOT  7  -169.70603488607     -2.842E-14 1.008E-14 0.000E+00
 ETOT  8  -169.70603488607     -1.137E-13 1.696E-16 0.000E+00
 ETOT  9  -169.70603488607      2.274E-13 1.510E-18 0.000E+00
 ETOT 10  -169.70603488607      0.000E+00 2.499E-20 0.000E+00
 ETOT 11  -169.70603488607     -5.684E-14 9.342E-21 0.000E+00

 At SCF step   11   max residual=  9.34E-21 < tolwfr=  1.00E-20 =>converged.

 ----iterations are completed or convergence reached----

 dfpt_looppert: DFPT cycle converged with prtwf=-1. Will skip output of the 1st-order WFK file.
 dfpt_looppert : ek2=    5.7967303945E+01
          f-sum rule ratio=    4.1278702217E+00
 prteigrs : about to open file /scratch/users/j/a/jabreu/flow_simple2/flow/w189/t1/tmpdata/tmp_1WF1_EIG
 Expectation of eigenvalue derivatives (hartree) for nkpt=   1  k points:
  (in case of degenerate eigenvalues, averaged derivative)
 kpt#   1, nband= 23, wtk=  1.00000, kpt=  0.0000  0.0000  0.0000 (reduced coord)
   0.00000    0.00000    0.00000   -0.00000   -0.00000   -0.00000   -0.00000   -0.00000
   0.00000    0.00000   -0.00000    0.00000    0.00000    0.00000    0.00000   -0.00000
  -0.00000   -0.00000   -0.00000    0.00008    0.00008   -0.00000   -0.00000

 Eight components of 2nd-order total energy (hartree) are
 1,2,3: 0th-order hamiltonian combined with 1st-order wavefunctions
     kin0=   7.39618380E+01 eigvalue=   8.12470282E+00  local=  -2.62267365E+01
 4,5,6: 1st-order hamiltonian combined with 1st and 0th-order wfs
     kin1=  -2.39281508E+02  Hartree=   0.00000000E+00     xc=   0.00000000E+00
 7,8,9: eventually, occupation + non-local contributions
    edocc=   1.05112415E+02     enl0=   8.73381552E+00   enl1=  -1.00130562E+02
 1-9 gives the relaxation energy (to be shifted if some occ is /=2.0)
   erelax=  -1.69706035E+02
  No Ewald or frozen-wf contrib.: the relaxation energy is the total one
 2DEtotal=   -0.1697060349E+03 Ha. Also 2DEtotal=   -0.461793605864E+04 eV
    (  non-var. 2DEtotal :   -1.6970603489E+02 Ha)

 CALCULATION OF EFFECTIVE MASSES
 NOTE : Additional infos (eff. mass eigenvalues, eigenvectors and, if degenerate, average mass) are available in stdout.

 COMMENTS:
 - At k-point ( 0.000, 0.000, 0.000), bands    12 through    14
   are DEGENERATE (effective mass tensor is therefore not defined).
   See Section IIIB Eqs. (67)-(70) and Appendix E of PRB 93 205147 (2016).
 - Angular average effective mass for Frohlich model is to be averaged over degenerate bands. See later.
 - Associated theta integrals calculated with ntheta=   1000 points.

 K-point ( 0.000, 0.000, 0.000) | band =    12
 Transport equivalent effective mass tensor:
             -0.0230897578              0.0000000008             -0.0000000001
              0.0000000008             -0.0230897589             -0.0000000002
             -0.0000000001             -0.0000000002             -0.0230897580
 Transport equivalent effective mass tensor eigenvalues:
             -0.0230897594             -0.0230897580             -0.0230897573
 Angular average effective mass 1/(<1/m>)=  -0.0229890523
 Angular average effective mass for Frohlich model (<m**0.5>)**2=  -0.0229960261
 Effective masses along directions: (cart. coord. / red. coord. -> eff. mass)
    1:   1.000000  0.000000  0.000000 /   0.948683  0.316228  0.000000 ->  -0.0227215354
    2:   0.000000  1.000000  0.000000 /   0.000000  1.000000  0.000000 ->  -0.0223135829
    3:   0.000000  0.000000  1.000000 /   0.408248  0.408248  0.816497 ->  -0.0227384801
    4:   0.577350  0.577350  0.577350 /   0.585539  0.688047  0.428644 ->  -0.0227096878
    5:   0.000000  0.707107  0.707107 /   0.289489  0.762222  0.578977 ->  -0.0232716876
    6:   0.707107  0.000000  0.707107 /   0.731423  0.422287  0.535439 ->  -0.0227299989
    7:   0.707107  0.707107  0.000000 /   0.616798  0.787122  0.000000 ->  -0.0239442721

[...]

 K-point ( 0.000, 0.000, 0.000) | band =    14
 Transport equivalent effective mass tensor:
             -8.6768973639              0.0000065076             -0.0000012450
              0.0000065076             -8.6768889840              0.0000041780
             -0.0000012450              0.0000041780             -8.6768867089
 Transport equivalent effective mass tensor eigenvalues:
             -8.6769015835             -8.6768887591             -8.6768827142
 Angular average effective mass 1/(<1/m>)=  -0.7803964223
 Angular average effective mass for Frohlich model (<m**0.5>)**2=  -0.9437255139
 Effective masses along directions: (cart. coord. / red. coord. -> eff. mass)
    1:   1.000000  0.000000  0.000000 /   0.948683  0.316228  0.000000 ->  -0.8253341695
    2:   0.000000  1.000000  0.000000 /   0.000000  1.000000  0.000000 ->  -0.8035827941
    3:   0.000000  0.000000  1.000000 /   0.408248  0.408248  0.816497 ->  -2.4570783531
    4:   0.577350  0.577350  0.577350 /   0.585539  0.688047  0.428644 ->  -1.0087155601
    5:   0.000000  0.707107  0.707107 /   0.289489  0.762222  0.578977 ->  -0.6764695876
    6:   0.707107  0.000000  0.707107 /   0.731423  0.422287  0.535439 ->  -1.3983960947
    7:   0.707107  0.707107  0.000000 /   0.616798  0.787122  0.000000 ->  -0.3712641210

 Angular average effective mass for Frohlich model, averaged over degenerate bands.
 Value of     (<<m**0.5>>)**2 =     3.441294E-01
 Absolute Value of <<m**0.5>> =     5.866255E-01

 K-point ( 0.000, 0.000, 0.000) | band =    15
 Effective mass tensor:
              0.0241745370             -0.0000000000             -0.0000000000
             -0.0000000000              0.0241745370             -0.0000000000
             -0.0000000000             -0.0000000000              0.0241745369
 Effective mass tensor eigenvalues:
              0.0241745369              0.0241745370              0.0241745370
 Angular average effective mass 1/(<1/m>)=   0.0241745370
 Angular average effective mass for Frohlich model (<m**0.5>)**2=   0.0241745370
 Effective masses along directions: (cart. coord. / red. coord. -> eff. mass)
    1:   1.000000  0.000000  0.000000 /   0.948683  0.316228  0.000000 ->   0.0241745370
    2:   0.000000  1.000000  0.000000 /   0.000000  1.000000  0.000000 ->   0.0241745370
    3:   0.000000  0.000000  1.000000 /   0.408248  0.408248  0.816497 ->   0.0241745369
    4:   0.577350  0.577350  0.577350 /   0.585539  0.688047  0.428644 ->   0.0241745369
    5:   0.000000  0.707107  0.707107 /   0.289489  0.762222  0.578977 ->   0.0241745369
    6:   0.707107  0.000000  0.707107 /   0.731423  0.422287  0.535439 ->   0.0241745369
    7:   0.707107  0.707107  0.000000 /   0.616798  0.787122  0.000000 ->   0.0241745370

 END OF EFFECTIVE MASSES SECTION

 ---- first-order wavefunction calculations are completed ----

 Total localisation tensor (bohr^2) in cartesian coordinates
  WARNING : still subject to testing - especially symmetries.
      direction              matrix element
   alpha     beta       real part   imaginary part
     1        1     121.7292879406    0.0000000000
     1        2      34.4302418926    0.0000000000
     1        3      84.3365245537    0.0000000000
     2        1      34.4302418926    0.0000000000
     2        2      97.3834300808    0.0000000000
     2        3      59.6349282750    0.0000000000
     3        1      84.3365245537    0.0000000000
     3        2      59.6349282750    0.0000000000
     3        3     219.1127187010    0.0000000000

 respfn : d/dk was computed, but no 2DTE, so no DDB output.

== END DATASET(S) ==============================================================

 -outvars: echo values of variables after computation  --------
            acell      1.0000000000E+00  1.0000000000E+00  1.0000000000E+00 Bohr
              amu      6.97230000E+01  7.49215900E+01
             ecut      4.20000000E+01 Hartree
           etotal     -1.6970603489E+02
            fcart      0.0000000000E+00  0.0000000000E+00  0.0000000000E+00
                       0.0000000000E+00  0.0000000000E+00  0.0000000000E+00
-          fftalg         512
           irdden           1
           irdwfk           1
           istwfk        1
              ixc     -116133
           kptopt           0
P           mkmem           1
P          mkqmem           1
P          mk1mem           1
            natom           2
            nband          23
           nbdbuf           4
            ngfft          48      48      48
             nkpt           1
            nstep         100
             nsym          24
           ntypat           2
              occ      2.000000  2.000000  2.000000  2.000000  2.000000  2.000000
                       2.000000  2.000000  2.000000  2.000000  2.000000  2.000000
                       2.000000  2.000000  0.000000  0.000000  0.000000  0.000000
                       0.000000  0.000000  0.000000  0.000000  0.000000
        optdriver           1
            prtwf          -1
            rfdir           1       1       1
           rfelfd           2
            rprim      6.5502608046E+00  0.0000000000E+00  3.7817948388E+00
                       2.1834202682E+00  6.1756451113E+00  3.7817948388E+00
                       0.0000000000E+00  0.0000000000E+00  7.5635896776E+00
          spgroup         216
           strten      0.0000000000E+00  0.0000000000E+00  0.0000000000E+00
                       0.0000000000E+00  0.0000000000E+00  0.0000000000E+00
           symrel      1  0  0   0  1  0   0  0  1       0 -1  1   0 -1  0   1 -1  0
                      -1  0  0  -1  0  1  -1  1  0       0  1 -1   1  0 -1   0  0 -1
                      -1  0  0  -1  1  0  -1  0  1       0 -1  1   1 -1  0   0 -1  0
                       1  0  0   0  0  1   0  1  0       0  1 -1   0  0 -1   1  0 -1
                      -1  0  1  -1  1  0  -1  0  0       0 -1  0   1 -1  0   0 -1  1
                       1  0 -1   0  0 -1   0  1 -1       0  1  0   0  0  1   1  0  0
                       1  0 -1   0  1 -1   0  0 -1       0 -1  0   0 -1  1   1 -1  0
                      -1  0  1  -1  0  0  -1  1  0       0  1  0   1  0  0   0  0  1
                       0  0 -1   0  1 -1   1  0 -1       1 -1  0   0 -1  1   0 -1  0
                       0  0  1   1  0  0   0  1  0      -1  1  0  -1  0  0  -1  0  1
                       0  0  1   0  1  0   1  0  0       1 -1  0   0 -1  0   0 -1  1
                       0  0 -1   1  0 -1   0  1 -1      -1  1  0  -1  0  1  -1  0  0
           tolwfr      1.00000000E-20
            typat      1  2
           useylm           1
           xangst      0.0000000000E+00  0.0000000000E+00  0.0000000000E+00
                       1.1554162427E+00  8.1700266031E-01  2.0012396363E+00
            xcart      0.0000000000E+00  0.0000000000E+00  0.0000000000E+00
                       2.1834202682E+00  1.5439112778E+00  3.7817948388E+00
             xred      0.0000000000E+00  0.0000000000E+00  0.0000000000E+00
                       2.5000000000E-01  2.5000000000E-01  2.5000000000E-01
            znucl       31.00000   33.00000

- Timing analysis has been suppressed with timopt=0

 Suggested references for the acknowledgment of ABINIT usage.

 Calculation completed.
.Delivered   6 WARNINGs and   5 COMMENTs to log file.