.Version 9.7.2 of ABINIT

 ABINIT is a project of the Universite Catholique de Louvain,
 Corning Inc. and other collaborators, see ~abinit/doc/developers/contributors.txt .
 acknowledgments of the ABINIT effort.

.Starting date : Wed  1 Dec 2021.
- ( at 21h13 )

- input  file    -> /scratch/users/j/a/jabreu/flow_simple_remain_atoms/flow/w154/t1/run.abi
- output file    -> /scratch/users/j/a/jabreu/flow_simple_remain_atoms/flow/w154/t1/run.abo
- root for input  files -> /scratch/users/j/a/jabreu/flow_simple_remain_atoms/flow/w154/t1/indata/in
- root for output files -> /scratch/users/j/a/jabreu/flow_simple_remain_atoms/flow/w154/t1/outdata/out

 Symmetries : space group P-3 m 1 (#164); Bravais hP (primitive hexag.)
     intxc =       0      iscf =       7    lmnmax =      18     lnmax =       6
     mgfft =      96  mpssoang =       3    mqgrid =    4512     natom =       5
  nloc_mem =       1    nspden =       1   nspinor =       1    nsppol =       1
      nsym =      12    n1xccc =    2501    ntypat =       3    occopt =       1
   xclevel =       2
-    mband =          39        mffmem =           1         mkmem =           1
-   mkqmem =           1        mk1mem =           1           mpw =       14703
      nfft =      279936          nkpt =           1
  Rough estimation (10% accuracy) of disk space for files :

------------- Echo of variables that govern the present computation ------------
-
- outvars: echo of selected default values
-   iomode0 =  0 , fftalg0 =512 , wfoptalg0 =  0
-
- outvars: echo of global parameters not present in the input file
-  max_nthreads =    0
-
 -outvars: echo values of preprocessed input variables --------
            acell      1.0000000000E+00  1.0000000000E+00  1.0000000000E+00 Bohr
              amu      1.37327000E+02  2.43050000E+01  2.08980370E+02
             ecut      4.20000000E+01 Hartree
-          fftalg         512
           irdden           1
           irdwfk           1
           istwfk        1
              ixc     -116133
           kptopt           0
P           mkmem           1
P          mkqmem           1
P          mk1mem           1
            natom           5
            nband          39
           nbdbuf           4
            ngfft          54      54      96
             nkpt           1
            nstep        2000
             nsym          12
           ntypat           3
              occ      2.000000  2.000000  2.000000  2.000000  2.000000  2.000000
                       2.000000  2.000000  2.000000  2.000000  2.000000  2.000000
                       2.000000  2.000000  2.000000  2.000000  2.000000  2.000000
                       2.000000  2.000000  2.000000  2.000000  2.000000  2.000000
                       2.000000  2.000000  2.000000  2.000000  2.000000  2.000000
                       0.000000  0.000000  0.000000  0.000000  0.000000  0.000000
                       0.000000  0.000000  0.000000
        optdriver           1
            prtwf          -1
            rfdir           1       1       1
           rfelfd           2
            rprim      9.1853733113E+00  0.0000000000E+00  0.0000000000E+00
                      -4.5926866557E+00  7.9547666309E+00  0.0000000000E+00
                       0.0000000000E+00  0.0000000000E+00  1.5465765327E+01
          spgroup         164
           symrel      1  0  0   0  1  0   0  0  1      -1  0  0   0 -1  0   0  0 -1
                      -1  0  0   1  1  0   0  0  1       1  0  0  -1 -1  0   0  0 -1
                       0  1  0  -1 -1  0   0  0  1       0 -1  0   1  1  0   0  0 -1
                       0 -1  0  -1  0  0   0  0  1       0  1  0   1  0  0   0  0 -1
                      -1 -1  0   1  0  0   0  0  1       1  1  0  -1  0  0   0  0 -1
                       1  1  0   0 -1  0   0  0  1      -1 -1  0   0  1  0   0  0 -1
           tolwfr      1.00000000E-20
            typat      1  2  2  3  3
           useylm           1
           xangst      0.0000000000E+00  0.0000000000E+00  0.0000000000E+00
                      -1.7639711750E-11  2.8063208005E+00  5.1046631795E+00
                       2.4303451044E+00  1.4031604002E+00  3.0794673447E+00
                       2.4303451044E+00  1.4031604002E+00  6.0430637695E+00
                      -1.7639711750E-11  2.8063208005E+00  2.1410667547E+00
            xcart      0.0000000000E+00  0.0000000000E+00  0.0000000000E+00
                      -3.3334224270E-11  5.3031777539E+00  9.6464154099E+00
                       4.5926866556E+00  2.6515888770E+00  5.8193499167E+00
                       4.5926866556E+00  2.6515888770E+00  1.1419735528E+01
                      -3.3334224270E-11  5.3031777539E+00  4.0460297986E+00
             xred      0.0000000000E+00  0.0000000000E+00  0.0000000000E+00
                       3.3333333333E-01  6.6666666667E-01  6.2372700000E-01
                       6.6666666667E-01  3.3333333333E-01  3.7627300000E-01
                       6.6666666667E-01  3.3333333333E-01  7.3838800000E-01
                       3.3333333333E-01  6.6666666667E-01  2.6161200000E-01
            znucl       56.00000   12.00000   83.00000

 chkinp: Checking input parameters for consistency.

== DATASET  1 ==================================================================
-   mpi_nproc: 1, omp_nthreads: -1 (-1 if OMP is not activated)

--- !DatasetInfo
iteration_state: {dtset: 1, }
dimensions: {natom: 5, nkpt: 1, mband: 39, nsppol: 1, nspinor: 1, nspden: 1, mpw: 14703, }
cutoff_energies: {ecut:  42.0, pawecutdg:  -1.0, }
electrons: {nelect:   6.00000000E+01, charge:   0.00000000E+00, occopt:   1.00000000E+00, tsmear:   1.00000000E-02, }
meta: {optdriver: 1, rfelfd: 2, }
...

 Real(R)+Recip(G) space primitive vectors, cartesian coordinates (Bohr,Bohr^-1):
 R(1)=  9.1853733  0.0000000  0.0000000  G(1)=  0.1088687  0.0628554  0.0000000
 R(2)= -4.5926867  7.9547666  0.0000000  G(2)=  0.0000000  0.1257108  0.0000000
 R(3)=  0.0000000  0.0000000 15.4657653  G(3)=  0.0000000  0.0000000  0.0646589
 Unit cell volume ucvol=  1.1300448E+03 bohr^3
 Angles (23,13,12)=  9.00000000E+01  9.00000000E+01  1.20000000E+02 degrees

 getcut: wavevector=  0.0000  0.0000  0.0000  ngfft=  54  54  96
         ecut(hartree)=     42.000   => boxcut(ratio)=   2.01561

--- Pseudopotential description ------------------------------------------------
- pspini: atom type   1  psp file is /scratch/users/j/a/jabreu/pseudos/PBEsol/Ba.psp8
- pspatm: opening atomic psp file    /scratch/users/j/a/jabreu/pseudos/PBEsol/Ba.psp8
- Ba    ONCVPSP-3.3.0  r_core=   2.15444   1.91218   2.15444
- 56.00000  10.00000    180112                znucl, zion, pspdat
    8 -116133    2    4       600   0.00000   pspcod,pspxc,lmax,lloc,mmax,r2well
    5.99000000000000    5.00000000000000    0.00000000000000   rchrg,fchrg,qchrg
     nproj     2     2     2
     extension_switch     1
  pspatm : epsatm=   26.37418029
         --- l  ekb(1:nproj) -->
             0    6.652372    0.677024
             1    5.027722    0.408462
             2    2.543237    0.416854
 pspatm: atomic psp has been read  and splines computed

- pspini: atom type   2  psp file is /scratch/users/j/a/jabreu/pseudos/PBEsol/Mg.psp8
- pspatm: opening atomic psp file    /scratch/users/j/a/jabreu/pseudos/PBEsol/Mg.psp8
- Mg    ONCVPSP-3.3.0  r_core=   1.16056   1.56380
- 12.00000  10.00000    180112                znucl, zion, pspdat
    8 -116133    1    4       400   0.00000   pspcod,pspxc,lmax,lloc,mmax,r2well
    3.99000000000000    0.00000000000000    0.00000000000000   rchrg,fchrg,qchrg
     nproj     2     2
     extension_switch     1
  pspatm : epsatm=    9.18164846
         --- l  ekb(1:nproj) -->
             0    2.230603   -0.826587
             1   -6.503151   -2.501445
 pspatm: atomic psp has been read  and splines computed

- pspini: atom type   3  psp file is /scratch/users/j/a/jabreu/pseudos/PBEsol/Bi.psp8
- pspatm: opening atomic psp file    /scratch/users/j/a/jabreu/pseudos/PBEsol/Bi.psp8
- Bi    ONCVPSP-3.3.0  r_core=   2.42776   2.51622   2.10397
- 83.00000  15.00000    180112                znucl, zion, pspdat
    8 -116133    2    4       600   0.00000   pspcod,pspxc,lmax,lloc,mmax,r2well
    5.99000000000000    6.00000000000000    0.00000000000000   rchrg,fchrg,qchrg
     nproj     2     2     2
     extension_switch     1
  pspatm : epsatm=   42.90078186
         --- l  ekb(1:nproj) -->
             0    6.017688    0.961606
             1    4.379371    0.528498
             2   -3.458170   -0.753782
 pspatm: atomic psp has been read  and splines computed

   7.83234246E+03                                ecore*ucvol(ha*bohr**3)

 ==>  initialize data related to q vector <==

 The list of irreducible perturbations for this q vector is:
    1)    idir= 1    ipert=   6
    2)    idir= 2    ipert=   6
    3)    idir= 3    ipert=   6

 Perturbation wavevector (in red.coord.)   0.000000  0.000000  0.000000
 Perturbation : derivative vs k along direction   1

 dfpt_looppert : COMMENT -
  In a d/dk calculation, iscf is set to -3 automatically.
 The set of symmetries contains only one element for this perturbation.
 symkpt : not enough symmetry to change the number of k points.

 Initialisation of the first-order wave-functions :
  ireadwf=   0

--- !BeginCycle
iteration_state: {dtset: 1, }
solver: {iscf: 7, nstep: 2000, nline: 4, wfoptalg: 0, }
tolerances: {tolwfr: 1.00E-20, }
...

     iter   2DEtotal(Ha)        deltaE(Ha) residm    vres2
-ETOT  1  -106.55231156718     -1.066E+02 3.589E-02 0.000E+00
 ETOT  2  -106.58411736983     -3.181E-02 3.759E-04 0.000E+00
 ETOT  3  -106.58412817969     -1.081E-05 3.842E-06 0.000E+00
 ETOT  4  -106.58412819057     -1.088E-08 2.878E-08 0.000E+00
 ETOT  5  -106.58412819058     -1.575E-11 4.350E-10 0.000E+00
 ETOT  6  -106.58412819058     -3.268E-13 3.656E-12 0.000E+00
 ETOT  7  -106.58412819058      1.421E-13 6.057E-14 0.000E+00
 ETOT  8  -106.58412819058      1.421E-14 5.141E-16 0.000E+00
 ETOT  9  -106.58412819058     -9.948E-14 8.665E-18 0.000E+00
 ETOT 10  -106.58412819058      1.421E-14 7.505E-20 0.000E+00
 ETOT 11  -106.58412819058     -2.842E-14 9.946E-21 0.000E+00

 At SCF step   11   max residual=  9.95E-21 < tolwfr=  1.00E-20 =>converged.

 ----iterations are completed or convergence reached----

 dfpt_looppert: DFPT cycle converged with prtwf=-1. Will skip output of the 1st-order WFK file.
 dfpt_looppert : ek2=    7.4866252773E+01
          f-sum rule ratio=    2.0072445721E+00
 prteigrs : about to open file /scratch/users/j/a/jabreu/flow_simple_remain_atoms/flow/w154/t1/tmpdata/tmp_1WF1_EIG
 Expectation of eigenvalue derivatives (hartree) for nkpt=   1  k points:
  (in case of degenerate eigenvalues, averaged derivative)
 kpt#   1, nband= 39, wtk=  1.00000, kpt=  0.0000  0.0000  0.0000 (reduced coord)
   0.00000   -0.00000   -0.00000   -0.00000    0.00000   -0.00000   -0.00000    0.00000
   0.00000   -0.00000   -0.00000   -0.00000   -0.00000   -0.00000    0.00000    0.00000
   0.00000   -0.00000   -0.00000   -0.00000   -0.00000   -0.00000    0.00000   -0.00000
  -0.00000   -0.00000   -0.00000   -0.00000   -0.00000   -0.00000   -0.00000    0.00000
   0.00000    0.00000    0.00000    0.00000    0.00000    0.00000    0.00000

 Eight components of 2nd-order total energy (hartree) are
 1,2,3: 0th-order hamiltonian combined with 1st-order wavefunctions
     kin0=   6.79430440E+01 eigvalue=   1.14364320E+01  local=  -3.64162678E+01
 4,5,6: 1st-order hamiltonian combined with 1st and 0th-order wfs
     kin1=  -1.50274880E+02  Hartree=   0.00000000E+00     xc=   0.00000000E+00
 7,8,9: eventually, occupation + non-local contributions
    edocc=   5.50531467E+01     enl0=   8.56777328E+00   enl1=  -6.28933769E+01
 1-9 gives the relaxation energy (to be shifted if some occ is /=2.0)
   erelax=  -1.06584128E+02
  No Ewald or frozen-wf contrib.: the relaxation energy is the total one
 2DEtotal=   -0.1065841282E+03 Ha. Also 2DEtotal=   -0.290030162558E+04 eV
    (  non-var. 2DEtotal :   -1.0658412819E+02 Ha)

 Perturbation wavevector (in red.coord.)   0.000000  0.000000  0.000000
 Perturbation : derivative vs k along direction   2
 The set of symmetries contains only one element for this perturbation.
 symkpt : not enough symmetry to change the number of k points.

[...]

 Perturbation wavevector (in red.coord.)   0.000000  0.000000  0.000000
 Perturbation : derivative vs k along direction   3
 The set of symmetries contains only one element for this perturbation.
 symkpt : not enough symmetry to change the number of k points.

 Initialisation of the first-order wave-functions :
  ireadwf=   0

--- !BeginCycle
iteration_state: {dtset: 1, }
solver: {iscf: 7, nstep: 2000, nline: 4, wfoptalg: 0, }
tolerances: {tolwfr: 1.00E-20, }
...

     iter   2DEtotal(Ha)        deltaE(Ha) residm    vres2
-ETOT  1  -25.669963918910     -2.567E+01 1.171E-02 0.000E+00
 ETOT  2  -25.676878646945     -6.915E-03 1.976E-05 0.000E+00
 ETOT  3  -25.676882451755     -3.805E-06 2.394E-07 0.000E+00
 ETOT  4  -25.676882456541     -4.786E-09 3.800E-10 0.000E+00
 ETOT  5  -25.676882456550     -9.731E-12 5.574E-12 0.000E+00
 ETOT  6  -25.676882456550     -7.105E-14 9.940E-15 0.000E+00
 ETOT  7  -25.676882456550      1.670E-13 1.631E-16 0.000E+00
 ETOT  8  -25.676882456550      7.105E-15 2.897E-19 0.000E+00
 ETOT  9  -25.676882456550      5.329E-14 9.854E-21 0.000E+00

 At SCF step    9   max residual=  9.85E-21 < tolwfr=  1.00E-20 =>converged.

 ----iterations are completed or convergence reached----

 dfpt_looppert: DFPT cycle converged with prtwf=-1. Will skip output of the 1st-order WFK file.
 dfpt_looppert : ek2=    1.9806062753E+01
          f-sum rule ratio=    1.7757538590E+00
 prteigrs : about to open file /scratch/users/j/a/jabreu/flow_simple_remain_atoms/flow/w154/t1/tmpdata/tmp_1WF1_EIG
 Expectation of eigenvalue derivatives (hartree) for nkpt=   1  k points:
  (in case of degenerate eigenvalues, averaged derivative)
 kpt#   1, nband= 39, wtk=  1.00000, kpt=  0.0000  0.0000  0.0000 (reduced coord)
   0.00000   -0.00000    0.00000    0.00000    0.00000   -0.00000   -0.00000   -0.00000
  -0.00000   -0.00000   -0.00000    0.00000    0.00000    0.00000   -0.00000   -0.00000
  -0.00000   -0.00000   -0.00000    0.00000    0.00000    0.00000   -0.00000   -0.00000
   0.00000   -0.00000   -0.00000   -0.00000   -0.00000   -0.00000   -0.00000    0.00000
  -0.00000    0.00000    0.00000    0.00000    0.00000    0.00000    0.00000

 Eight components of 2nd-order total energy (hartree) are
 1,2,3: 0th-order hamiltonian combined with 1st-order wavefunctions
     kin0=   1.97934173E+01 eigvalue=   2.85768356E+00  local=  -1.07826022E+01
 4,5,6: 1st-order hamiltonian combined with 1st and 0th-order wfs
     kin1=  -3.51706924E+01  Hartree=   0.00000000E+00     xc=   0.00000000E+00
 7,8,9: eventually, occupation + non-local contributions
    edocc=   1.16055420E+01     enl0=   2.20284172E+00   enl1=  -1.61830725E+01
 1-9 gives the relaxation energy (to be shifted if some occ is /=2.0)
   erelax=  -2.56768825E+01
  No Ewald or frozen-wf contrib.: the relaxation energy is the total one
 2DEtotal=   -0.2567688246E+02 Ha. Also 2DEtotal=   -0.698703504853E+03 eV
    (  non-var. 2DEtotal :   -2.5676882457E+01 Ha)

 CALCULATION OF EFFECTIVE MASSES
 NOTE : Additional infos (eff. mass eigenvalues, eigenvectors and, if degenerate, average mass) are available in stdout.

 COMMENTS:
 - At k-point ( 0.000, 0.000, 0.000), bands    29 through    30
   are DEGENERATE (effective mass tensor is therefore not defined).
   See Section IIIB Eqs. (67)-(70) and Appendix E of PRB 93 205147 (2016).
 - Angular average effective mass for Frohlich model is to be averaged over degenerate bands. See later.
 - Associated theta integrals calculated with ntheta=   1000 points.

 K-point ( 0.000, 0.000, 0.000) | band =    29
 Transport equivalent effective mass tensor:
             -0.0414724672             -0.0000000000              0.0000000001
             -0.0000000000             -0.0414724820             -0.0000000956
              0.0000000001             -0.0000000956             -0.5620480179
 Transport equivalent effective mass tensor eigenvalues:
             -0.5620480179             -0.0414724820             -0.0414724672
 Angular average effective mass 1/(<1/m>)=  -0.0555363591
 Angular average effective mass for Frohlich model (<m**0.5>)**2=  -0.0695105569
 Effective masses along directions: (cart. coord. / red. coord. -> eff. mass)
    1:   1.000000  0.000000  0.000000 /   0.894427 -0.447214  0.000000 ->  -0.0384445090
    2:   0.000000  1.000000  0.000000 /   0.000000  1.000000  0.000000 ->  -0.0384445090
    3:   0.000000  0.000000  1.000000 /   0.000000  0.000000  1.000000 ->  -0.5350586990
    4:   0.577350  0.577350  0.577350 /   0.501952  0.183727  0.845156 ->  -0.0581506828
    5:   0.000000  0.707107  0.707107 /   0.000000  0.457391  0.889266 ->  -0.0659607286
    6:   0.707107  0.000000  0.707107 /   0.494772 -0.247386  0.833067 ->  -0.0711041501
    7:   0.707107  0.707107  0.000000 /   0.939071  0.343724  0.000000 ->  -0.0384445090

 K-point ( 0.000, 0.000, 0.000) | band =    30
 Transport equivalent effective mass tensor:
             -1.2760160985             -0.0000000001              0.0000000003
             -0.0000000001             -1.2760156727              0.0000002355
              0.0000000003              0.0000002355             -2.7095613969
 Transport equivalent effective mass tensor eigenvalues:
             -2.7095613969             -1.2760160985             -1.2760156727
 Angular average effective mass 1/(<1/m>)=  -0.4931013098
 Angular average effective mass for Frohlich model (<m**0.5>)**2=  -0.5389029638
 Effective masses along directions: (cart. coord. / red. coord. -> eff. mass)
    1:   1.000000  0.000000  0.000000 /   0.894427 -0.447214  0.000000 ->  -0.4606526320
    2:   0.000000  1.000000  0.000000 /   0.000000  1.000000  0.000000 ->  -0.4606526319
    3:   0.000000  0.000000  1.000000 /   0.000000  0.000000  1.000000 ->  -0.5350586991
    4:   0.577350  0.577350  0.577350 /   0.501952  0.183727  0.845156 ->  -0.3524229055
    5:   0.000000  0.707107  0.707107 /   0.000000  0.457391  0.889266 ->  -1.2506364048
    6:   0.707107  0.000000  0.707107 /   0.494772 -0.247386  0.833067 ->  -0.5273560125
    7:   0.707107  0.707107  0.000000 /   0.939071  0.343724  0.000000 ->  -0.4606526320

 Angular average effective mass for Frohlich model, averaged over degenerate bands.
 Value of     (<<m**0.5>>)**2 =     2.488756E-01
 Absolute Value of <<m**0.5>> =     4.988743E-01

 K-point ( 0.000, 0.000, 0.000) | band =    31
 Effective mass tensor:
              0.0429306370              0.0000000000              0.0000000000
              0.0000000000              0.0429306370             -0.0000000000
              0.0000000000             -0.0000000000              0.0385041274
 Effective mass tensor eigenvalues:
              0.0385041274              0.0429306370              0.0429306370
 Angular average effective mass 1/(<1/m>)=   0.0413462228
 Angular average effective mass for Frohlich model (<m**0.5>)**2=   0.0413794812
 Effective masses along directions: (cart. coord. / red. coord. -> eff. mass)
    1:   1.000000  0.000000  0.000000 /   0.894427 -0.447214  0.000000 ->   0.0429306370
    2:   0.000000  1.000000  0.000000 /   0.000000  1.000000  0.000000 ->   0.0429306370
    3:   0.000000  0.000000  1.000000 /   0.000000  0.000000  1.000000 ->   0.0385041274
    4:   0.577350  0.577350  0.577350 /   0.501952  0.183727  0.845156 ->   0.0413462228
    5:   0.000000  0.707107  0.707107 /   0.000000  0.457391  0.889266 ->   0.0405970774
    6:   0.707107  0.000000  0.707107 /   0.494772 -0.247386  0.833067 ->   0.0405970774
    7:   0.707107  0.707107  0.000000 /   0.939071  0.343724  0.000000 ->   0.0429306370

 END OF EFFECTIVE MASSES SECTION

 ---- first-order wavefunction calculations are completed ----

 Total localisation tensor (bohr^2) in cartesian coordinates
  WARNING : still subject to testing - especially symmetries.
      direction              matrix element
   alpha     beta       real part   imaginary part
     1        1      39.1038451902    0.0000000000
     1        2     -13.5459693309    0.0000000000
     1        3       0.0000000000    0.0000000000
     2        1     -13.5459693309    0.0000000000
     2        2      23.4623071189    0.0000000000
     2        3       0.0000000000    0.0000000000
     3        1       0.0000000000    0.0000000000
     3        2       0.0000000000    0.0000000000
     3        3      21.9862213533    0.0000000000

 respfn : d/dk was computed, but no 2DTE, so no DDB output.

== END DATASET(S) ==============================================================

 -outvars: echo values of variables after computation  --------
            acell      1.0000000000E+00  1.0000000000E+00  1.0000000000E+00 Bohr
              amu      1.37327000E+02  2.43050000E+01  2.08980370E+02
             ecut      4.20000000E+01 Hartree
           etotal     -2.5676882457E+01
            fcart      0.0000000000E+00  0.0000000000E+00  0.0000000000E+00
                       0.0000000000E+00  0.0000000000E+00  0.0000000000E+00
                       0.0000000000E+00  0.0000000000E+00  0.0000000000E+00
                       0.0000000000E+00  0.0000000000E+00  0.0000000000E+00
                       0.0000000000E+00  0.0000000000E+00  0.0000000000E+00
-          fftalg         512
           irdden           1
           irdwfk           1
           istwfk        1
              ixc     -116133
           kptopt           0
P           mkmem           1
P          mkqmem           1
P          mk1mem           1
            natom           5
            nband          39
           nbdbuf           4
            ngfft          54      54      96
             nkpt           1
            nstep        2000
             nsym          12
           ntypat           3
              occ      2.000000  2.000000  2.000000  2.000000  2.000000  2.000000
                       2.000000  2.000000  2.000000  2.000000  2.000000  2.000000
                       2.000000  2.000000  2.000000  2.000000  2.000000  2.000000
                       2.000000  2.000000  2.000000  2.000000  2.000000  2.000000
                       2.000000  2.000000  2.000000  2.000000  2.000000  2.000000
                       0.000000  0.000000  0.000000  0.000000  0.000000  0.000000
                       0.000000  0.000000  0.000000
        optdriver           1
            prtwf          -1
            rfdir           1       1       1
           rfelfd           2
            rprim      9.1853733113E+00  0.0000000000E+00  0.0000000000E+00
                      -4.5926866557E+00  7.9547666309E+00  0.0000000000E+00
                       0.0000000000E+00  0.0000000000E+00  1.5465765327E+01
          spgroup         164
           strten      0.0000000000E+00  0.0000000000E+00  0.0000000000E+00
                       0.0000000000E+00  0.0000000000E+00  0.0000000000E+00
           symrel      1  0  0   0  1  0   0  0  1      -1  0  0   0 -1  0   0  0 -1
                      -1  0  0   1  1  0   0  0  1       1  0  0  -1 -1  0   0  0 -1
                       0  1  0  -1 -1  0   0  0  1       0 -1  0   1  1  0   0  0 -1
                       0 -1  0  -1  0  0   0  0  1       0  1  0   1  0  0   0  0 -1
                      -1 -1  0   1  0  0   0  0  1       1  1  0  -1  0  0   0  0 -1
                       1  1  0   0 -1  0   0  0  1      -1 -1  0   0  1  0   0  0 -1
           tolwfr      1.00000000E-20
            typat      1  2  2  3  3
           useylm           1
           xangst      0.0000000000E+00  0.0000000000E+00  0.0000000000E+00
                      -1.7639711750E-11  2.8063208005E+00  5.1046631795E+00
                       2.4303451044E+00  1.4031604002E+00  3.0794673447E+00
                       2.4303451044E+00  1.4031604002E+00  6.0430637695E+00
                      -1.7639711750E-11  2.8063208005E+00  2.1410667547E+00
            xcart      0.0000000000E+00  0.0000000000E+00  0.0000000000E+00
                      -3.3334224270E-11  5.3031777539E+00  9.6464154099E+00
                       4.5926866556E+00  2.6515888770E+00  5.8193499167E+00
                       4.5926866556E+00  2.6515888770E+00  1.1419735528E+01
                      -3.3334224270E-11  5.3031777539E+00  4.0460297986E+00
             xred      0.0000000000E+00  0.0000000000E+00  0.0000000000E+00
                       3.3333333333E-01  6.6666666667E-01  6.2372700000E-01
                       6.6666666667E-01  3.3333333333E-01  3.7627300000E-01
                       6.6666666667E-01  3.3333333333E-01  7.3838800000E-01
                       3.3333333333E-01  6.6666666667E-01  2.6161200000E-01
            znucl       56.00000   12.00000   83.00000

- Timing analysis has been suppressed with timopt=0

 Suggested references for the acknowledgment of ABINIT usage.

 Calculation completed.
.Delivered   2 WARNINGs and   5 COMMENTs to log file.