.Version 9.7.2 of ABINIT

 ABINIT is a project of the Universite Catholique de Louvain,
 Corning Inc. and other collaborators, see ~abinit/doc/developers/contributors.txt .
 acknowledgments of the ABINIT effort.

.Starting date : Wed  1 Dec 2021.
- ( at 21h23 )

- input  file    -> /scratch/users/j/a/jabreu/flow_simple_remain_atoms/flow/w191/t1/run.abi
- output file    -> /scratch/users/j/a/jabreu/flow_simple_remain_atoms/flow/w191/t1/run.abo
- root for input  files -> /scratch/users/j/a/jabreu/flow_simple_remain_atoms/flow/w191/t1/indata/in
- root for output files -> /scratch/users/j/a/jabreu/flow_simple_remain_atoms/flow/w191/t1/outdata/out

 Symmetries : space group P-3 m 1 (#164); Bravais hP (primitive hexag.)
     intxc =       0      iscf =       7    lmnmax =      18     lnmax =       6
     mgfft =      80  mpssoang =       3    mqgrid =    3960     natom =       5
  nloc_mem =       1    nspden =       1   nspinor =       1    nsppol =       1
      nsym =      12    n1xccc =    2501    ntypat =       2    occopt =       1
   xclevel =       2
-    mband =          39        mffmem =           1         mkmem =           2
-   mkqmem =           2        mk1mem =           2           mpw =       11379
      nfft =      233280          nkpt =           2
  Rough estimation (10% accuracy) of disk space for files :

------------- Echo of variables that govern the present computation ------------
-
- outvars: echo of selected default values
-   iomode0 =  0 , fftalg0 =512 , wfoptalg0 =  0
-
- outvars: echo of global parameters not present in the input file
-  max_nthreads =    0
-
 -outvars: echo values of preprocessed input variables --------
            acell      1.0000000000E+00  1.0000000000E+00  1.0000000000E+00 Bohr
              amu      2.43050000E+01  1.21753000E+02
             ecut      4.20000000E+01 Hartree
-          fftalg         512
           irdden           1
           irdwfk           1
           istwfk        1    0
              ixc     -116133
              kpt      0.00000000E+00  0.00000000E+00  0.00000000E+00
                       3.33333333E-01  3.33333333E-01  0.00000000E+00
           kptopt           0
P           mkmem           2
P          mkqmem           2
P          mk1mem           2
            natom           5
            nband          39
           nbdbuf           4
            ngfft          54      54      80
             nkpt           2
            nstep        2000
             nsym          12
           ntypat           2
              occ      2.000000  2.000000  2.000000  2.000000  2.000000  2.000000
                       2.000000  2.000000  2.000000  2.000000  2.000000  2.000000
                       2.000000  2.000000  2.000000  2.000000  2.000000  2.000000
                       2.000000  2.000000  2.000000  2.000000  2.000000  2.000000
                       2.000000  2.000000  2.000000  2.000000  2.000000  2.000000
                       0.000000  0.000000  0.000000  0.000000  0.000000  0.000000
                       0.000000  0.000000  0.000000
        optdriver           1
            prtwf          -1
            rfdir           1       1       1
           rfelfd           2
            rprim      8.6029997630E+00  0.0000000000E+00  0.0000000000E+00
                      -4.3014998815E+00  7.4504163435E+00  0.0000000000E+00
                       0.0000000000E+00  0.0000000000E+00  1.3571309539E+01
          spgroup         164
           symrel      1  0  0   0  1  0   0  0  1      -1  0  0   0 -1  0   0  0 -1
                      -1  0  0   1  1  0   0  0  1       1  0  0  -1 -1  0   0  0 -1
                       0  1  0  -1 -1  0   0  0  1       0 -1  0   1  1  0   0  0 -1
                       0 -1  0  -1  0  0   0  0  1       0  1  0   1  0  0   0  0 -1
                      -1 -1  0   1  0  0   0  0  1       1  1  0  -1  0  0   0  0 -1
                       1  1  0   0 -1  0   0  0  1      -1 -1  0   0  1  0   0  0 -1
           tolwfr      1.00000000E-20
            typat      1  1  1  2  2
           useylm           1
              wtk        0.50000    0.50000
           xangst      0.0000000000E+00  0.0000000000E+00  7.9732084253E-16
                       0.0000000000E+00  2.6283936823E+00  4.5450439032E+00
                       2.2762557000E+00  1.3141968412E+00  2.6365837954E+00
                       0.0000000000E+00  2.6283936823E+00  1.6104584665E+00
                       2.2762557000E+00  1.3141968412E+00  5.5711692321E+00
            xcart      0.0000000000E+00  0.0000000000E+00  1.5067180324E-15
                       0.0000000000E+00  4.9669442290E+00  8.5888882391E+00
                       4.3014998815E+00  2.4834721145E+00  4.9824212996E+00
                       0.0000000000E+00  4.9669442290E+00  3.0433254501E+00
                       4.3014998815E+00  2.4834721145E+00  1.0527984089E+01
             xred      0.0000000000E+00  0.0000000000E+00  1.1102230246E-16
                       3.3333333333E-01  6.6666666667E-01  6.3287100000E-01
                       6.6666666667E-01  3.3333333333E-01  3.6712900000E-01
                       3.3333333333E-01  6.6666666667E-01  2.2424700000E-01
                       6.6666666667E-01  3.3333333333E-01  7.7575300000E-01
            znucl       12.00000   51.00000

 chkinp: Checking input parameters for consistency.

== DATASET  1 ==================================================================
-   mpi_nproc: 1, omp_nthreads: -1 (-1 if OMP is not activated)

--- !DatasetInfo
iteration_state: {dtset: 1, }
dimensions: {natom: 5, nkpt: 2, mband: 39, nsppol: 1, nspinor: 1, nspden: 1, mpw: 11379, }
cutoff_energies: {ecut:  42.0, pawecutdg:  -1.0, }
electrons: {nelect:   6.00000000E+01, charge:   0.00000000E+00, occopt:   1.00000000E+00, tsmear:   1.00000000E-02, }
meta: {optdriver: 1, rfelfd: 2, }
...

 Real(R)+Recip(G) space primitive vectors, cartesian coordinates (Bohr,Bohr^-1):
 R(1)=  8.6029998  0.0000000  0.0000000  G(1)=  0.1162385  0.0671103  0.0000000
 R(2)= -4.3014999  7.4504163  0.0000000  G(2)=  0.0000000  0.1342207  0.0000000
 R(3)=  0.0000000  0.0000000 13.5713095  G(3)=  0.0000000  0.0000000  0.0736849
 Unit cell volume ucvol=  8.6986571E+02 bohr^3
 Angles (23,13,12)=  9.00000000E+01  9.00000000E+01  1.20000000E+02 degrees

 getcut: wavevector=  0.0000  0.0000  0.0000  ngfft=  54  54  80
         ecut(hartree)=     42.000   => boxcut(ratio)=   2.02059

--- Pseudopotential description ------------------------------------------------
- pspini: atom type   1  psp file is /scratch/users/j/a/jabreu/pseudos/PBEsol/Mg.psp8
- pspatm: opening atomic psp file    /scratch/users/j/a/jabreu/pseudos/PBEsol/Mg.psp8
- Mg    ONCVPSP-3.3.0  r_core=   1.16056   1.56380
- 12.00000  10.00000    180112                znucl, zion, pspdat
    8 -116133    1    4       400   0.00000   pspcod,pspxc,lmax,lloc,mmax,r2well
    3.99000000000000    0.00000000000000    0.00000000000000   rchrg,fchrg,qchrg
     nproj     2     2
     extension_switch     1
  pspatm : epsatm=    9.18164846
         --- l  ekb(1:nproj) -->
             0    2.230603   -0.826587
             1   -6.503151   -2.501445
 pspatm: atomic psp has been read  and splines computed

- pspini: atom type   2  psp file is /scratch/users/j/a/jabreu/pseudos/PBEsol/Sb.psp8
- pspatm: opening atomic psp file    /scratch/users/j/a/jabreu/pseudos/PBEsol/Sb.psp8
- Sb    ONCVPSP-3.3.0  r_core=   1.81962   2.12485   1.81962
- 51.00000  15.00000    180112                znucl, zion, pspdat
    8 -116133    2    4       600   0.00000   pspcod,pspxc,lmax,lloc,mmax,r2well
    5.99000000000000    5.00000000000000    0.00000000000000   rchrg,fchrg,qchrg
     nproj     2     2     2
     extension_switch     1
  pspatm : epsatm=   26.35641246
         --- l  ekb(1:nproj) -->
             0    9.727814    1.485032
             1    5.505335    0.704623
             2   -4.710637   -1.436443
 pspatm: atomic psp has been read  and splines computed

   4.81546622E+03                                ecore*ucvol(ha*bohr**3)

 ==>  initialize data related to q vector <==

 The list of irreducible perturbations for this q vector is:
    1)    idir= 1    ipert=   6
    2)    idir= 2    ipert=   6
    3)    idir= 3    ipert=   6

 Perturbation wavevector (in red.coord.)   0.000000  0.000000  0.000000
 Perturbation : derivative vs k along direction   1

 dfpt_looppert : COMMENT -
  In a d/dk calculation, iscf is set to -3 automatically.
 The set of symmetries contains only one element for this perturbation.
 symkpt : not enough symmetry to change the number of k points.

 Initialisation of the first-order wave-functions :
  ireadwf=   0

--- !BeginCycle
iteration_state: {dtset: 1, }
solver: {iscf: 7, nstep: 2000, nline: 4, wfoptalg: 0, }
tolerances: {tolwfr: 1.00E-20, }
...

     iter   2DEtotal(Ha)        deltaE(Ha) residm    vres2
-ETOT  1  -83.825820194911     -8.383E+01 6.501E-01 0.000E+00
 ETOT  2  -83.868660509597     -4.284E-02 3.968E-03 0.000E+00
 ETOT  3  -83.868685815757     -2.531E-05 1.630E-04 0.000E+00
 ETOT  4  -83.868685850457     -3.470E-08 4.473E-06 0.000E+00
 ETOT  5  -83.868685850521     -6.378E-11 5.384E-07 0.000E+00
 ETOT  6  -83.868685850521     -1.137E-13 1.594E-08 0.000E+00
 ETOT  7  -83.868685850521      1.279E-13 2.072E-09 0.000E+00
 ETOT  8  -83.868685850521     -5.684E-14 4.541E-11 0.000E+00
 ETOT  9  -83.868685850521      2.842E-14 8.620E-12 0.000E+00
 ETOT 10  -83.868685850521      1.421E-14 1.812E-13 0.000E+00
 ETOT 11  -83.868685850521      0.000E+00 3.435E-14 0.000E+00
 ETOT 12  -83.868685850521      0.000E+00 7.254E-16 0.000E+00
 ETOT 13  -83.868685850521      0.000E+00 1.380E-16 0.000E+00
 ETOT 14  -83.868685850521     -2.842E-14 2.921E-18 0.000E+00
 ETOT 15  -83.868685850521      2.842E-14 5.566E-19 0.000E+00
 ETOT 16  -83.868685850521     -2.842E-14 1.182E-20 0.000E+00
 ETOT 17  -83.868685850521      0.000E+00 9.869E-21 0.000E+00

 At SCF step   17   max residual=  9.87E-21 < tolwfr=  1.00E-20 =>converged.

 ----iterations are completed or convergence reached----

 dfpt_looppert: DFPT cycle converged with prtwf=-1. Will skip output of the 1st-order WFK file.
 dfpt_looppert : ek2=    8.5345356628E+01
          f-sum rule ratio=    1.2538674065E+00
 prteigrs : about to open file /scratch/users/j/a/jabreu/flow_simple_remain_atoms/flow/w191/t1/tmpdata/tmp_1WF1_EIG
 Expectation of eigenvalue derivatives (hartree) for nkpt=   2  k points:
  (in case of degenerate eigenvalues, averaged derivative)
 kpt#   1, nband= 39, wtk=  0.50000, kpt=  0.0000  0.0000  0.0000 (reduced coord)
  -0.00000   -0.00000   -0.00000    0.00000    0.00000    0.00000    0.00000    0.00000
  -0.00000   -0.00000   -0.00000    0.00000   -0.00000   -0.00000   -0.00000   -0.00000
   0.00000    0.00000    0.00000    0.00000    0.00000    0.00000    0.00000    0.00000
  -0.00000    0.00000    0.00000   -0.00000   -0.00000   -0.00000   -0.00000   -0.00000
  -0.00000   -0.00000   -0.00000    0.00000    0.00000    0.00000   -0.00001
 prteigrs : prtvol=0 or 1, do not print more k-points.

 Eight components of 2nd-order total energy (hartree) are
 1,2,3: 0th-order hamiltonian combined with 1st-order wavefunctions
     kin0=   7.71903818E+01 eigvalue=   1.50607165E+01  local=  -4.14443601E+01
 4,5,6: 1st-order hamiltonian combined with 1st and 0th-order wfs
     kin1=  -1.07011761E+02  Hartree=   0.00000000E+00     xc=   0.00000000E+00
 7,8,9: eventually, occupation + non-local contributions
    edocc=   2.30585995E+01     enl0=   1.00033481E+01   enl1=  -6.07256107E+01
 1-9 gives the relaxation energy (to be shifted if some occ is /=2.0)
   erelax=  -8.38686859E+01
  No Ewald or frozen-wf contrib.: the relaxation energy is the total one
 2DEtotal=   -0.8386868585E+02 Ha. Also 2DEtotal=   -0.228218300451E+04 eV
    (  non-var. 2DEtotal :   -8.3868685850E+01 Ha)

 Perturbation wavevector (in red.coord.)   0.000000  0.000000  0.000000
 Perturbation : derivative vs k along direction   2
 The set of symmetries contains only one element for this perturbation.
 symkpt : not enough symmetry to change the number of k points.

[...]

 Perturbation wavevector (in red.coord.)   0.000000  0.000000  0.000000
 Perturbation : derivative vs k along direction   3
 The set of symmetries contains only one element for this perturbation.
 symkpt : not enough symmetry to change the number of k points.

 Initialisation of the first-order wave-functions :
  ireadwf=   0

--- !BeginCycle
iteration_state: {dtset: 1, }
solver: {iscf: 7, nstep: 2000, nline: 4, wfoptalg: 0, }
tolerances: {tolwfr: 1.00E-20, }
...

     iter   2DEtotal(Ha)        deltaE(Ha) residm    vres2
-ETOT  1  -24.315288852298     -2.432E+01 1.029E-01 0.000E+00
 ETOT  2  -24.326972763447     -1.168E-02 2.109E-03 0.000E+00
 ETOT  3  -24.326978419616     -5.656E-06 4.522E-05 0.000E+00
 ETOT  4  -24.326978426920     -7.304E-09 3.451E-06 0.000E+00
 ETOT  5  -24.326978426936     -1.560E-11 8.075E-08 0.000E+00
 ETOT  6  -24.326978426936     -1.776E-14 6.465E-09 0.000E+00
 ETOT  7  -24.326978426936     -3.553E-15 1.925E-10 0.000E+00
 ETOT  8  -24.326978426936      7.105E-15 1.461E-11 0.000E+00
 ETOT  9  -24.326978426936      0.000E+00 5.241E-13 0.000E+00
 ETOT 10  -24.326978426936     -3.553E-15 3.436E-14 0.000E+00
 ETOT 11  -24.326978426936      3.553E-15 1.476E-15 0.000E+00
 ETOT 12  -24.326978426936      0.000E+00 8.107E-17 0.000E+00
 ETOT 13  -24.326978426936      0.000E+00 4.217E-18 0.000E+00
 ETOT 14  -24.326978426936     -3.553E-15 2.326E-19 0.000E+00
 ETOT 15  -24.326978426936      0.000E+00 1.215E-20 0.000E+00
 ETOT 16  -24.326978426936      3.553E-15 9.616E-21 0.000E+00

 At SCF step   16   max residual=  9.62E-21 < tolwfr=  1.00E-20 =>converged.

 ----iterations are completed or convergence reached----

 dfpt_looppert: DFPT cycle converged with prtwf=-1. Will skip output of the 1st-order WFK file.
 dfpt_looppert : ek2=    2.5721569814E+01
          f-sum rule ratio=    1.1822517123E+00
 prteigrs : about to open file /scratch/users/j/a/jabreu/flow_simple_remain_atoms/flow/w191/t1/tmpdata/tmp_1WF1_EIG
 Expectation of eigenvalue derivatives (hartree) for nkpt=   2  k points:
  (in case of degenerate eigenvalues, averaged derivative)
 kpt#   1, nband= 39, wtk=  0.50000, kpt=  0.0000  0.0000  0.0000 (reduced coord)
  -0.00000   -0.00000   -0.00000    0.00000   -0.00000   -0.00000   -0.00000   -0.00000
  -0.00000   -0.00000   -0.00000    0.00000   -0.00000   -0.00000   -0.00000   -0.00000
  -0.00000    0.00000   -0.00000   -0.00000    0.00000    0.00000   -0.00000    0.00000
  -0.00000    0.00000    0.00000    0.00000    0.00000    0.00000    0.00000    0.00000
  -0.00000   -0.00000   -0.00000   -0.00000   -0.00000   -0.00000    0.00001
 prteigrs : prtvol=0 or 1, do not print more k-points.

 Eight components of 2nd-order total energy (hartree) are
 1,2,3: 0th-order hamiltonian combined with 1st-order wavefunctions
     kin0=   2.36378082E+01 eigvalue=   4.49050693E+00  local=  -1.26303984E+01
 4,5,6: 1st-order hamiltonian combined with 1st and 0th-order wfs
     kin1=  -3.04093700E+01  Hartree=   0.00000000E+00     xc=   0.00000000E+00
 7,8,9: eventually, occupation + non-local contributions
    edocc=   5.87053462E+00     enl0=   2.95852712E+00   enl1=  -1.82445869E+01
 1-9 gives the relaxation energy (to be shifted if some occ is /=2.0)
   erelax=  -2.43269784E+01
  No Ewald or frozen-wf contrib.: the relaxation energy is the total one
 2DEtotal=   -0.2432697843E+02 Ha. Also 2DEtotal=   -0.661970748129E+03 eV
    (  non-var. 2DEtotal :   -2.4326978427E+01 Ha)

 CALCULATION OF EFFECTIVE MASSES
 NOTE : Additional infos (eff. mass eigenvalues, eigenvectors and, if degenerate, average mass) are available in stdout.

 K-point ( 0.000, 0.000, 0.000) | band =    30
 Effective mass tensor:
             -1.0468173455              0.0001068671              0.0000020808
              0.0001068671             -1.0467551035             -0.0000004666
              0.0000020808             -0.0000004666             -0.0615074916
 Effective mass tensor eigenvalues:
             -1.0468975309             -1.0466749182             -0.0615074916
 Angular average effective mass 1/(<1/m>)=  -0.1651182980
 Angular average effective mass for Frohlich model (<m**0.5>)**2=  -0.2868880505
 Effective masses along directions: (cart. coord. / red. coord. -> eff. mass)
    1:   1.000000  0.000000  0.000000 /   0.894427 -0.447214  0.000000 ->  -1.0468173345
    2:   0.000000  1.000000  0.000000 /   0.000000  1.000000  0.000000 ->  -1.0467550926
    3:   0.000000  0.000000  1.000000 /   0.000000  0.000000  1.000000 ->  -0.0615074916
    4:   0.577350  0.577350  0.577350 /   0.525406  0.192312  0.828833 ->  -0.1651160696
    5:   0.000000  0.707107  0.707107 /   0.000000  0.481234  0.876592 ->  -0.1161878694
    6:   0.707107  0.000000  0.707107 /   0.517189 -0.258595  0.815870 ->  -0.1161877188
    7:   0.707107  0.707107  0.000000 /   0.939071  0.343724  0.000000 ->  -1.0466793564

 K-point ( 0.333, 0.333, 0.000) | band =    31
 Effective mass tensor:
              0.3532797450             -0.0000000000              0.0000000002
             -0.0000000000              0.3532797450             -0.0000000000
              0.0000000002             -0.0000000000              0.2077861952
 Effective mass tensor eigenvalues:
              0.2077861952              0.3532797450              0.3532797450
 Angular average effective mass 1/(<1/m>)=   0.2864269370
 Angular average effective mass for Frohlich model (<m**0.5>)**2=   0.2922907493
 Effective masses along directions: (cart. coord. / red. coord. -> eff. mass)
    1:   1.000000  0.000000  0.000000 /   0.894427 -0.447214  0.000000 ->   0.3532797450
    2:   0.000000  1.000000  0.000000 /   0.000000  1.000000  0.000000 ->   0.3532797450
    3:   0.000000  0.000000  1.000000 /   0.000000  0.000000  1.000000 ->   0.2077861952
    4:   0.577350  0.577350  0.577350 /   0.525406  0.192312  0.828833 ->   0.2864269371
    5:   0.000000  0.707107  0.707107 /   0.000000  0.481234  0.876592 ->   0.2616685448
    6:   0.707107  0.000000  0.707107 /   0.517189 -0.258595  0.815870 ->   0.2616685449
    7:   0.707107  0.707107  0.000000 /   0.939071  0.343724  0.000000 ->   0.3532797450

 END OF EFFECTIVE MASSES SECTION

 ---- first-order wavefunction calculations are completed ----

 Total localisation tensor (bohr^2) in cartesian coordinates
  WARNING : still subject to testing - especially symmetries.
      direction              matrix element
   alpha     beta       real part   imaginary part
     1        1       5.2466076126    0.0000000000
     1        2      -1.8174897572    0.0000000000
     1        3       0.0000000000    0.0000000000
     2        1      -1.8174897572    0.0000000000
     2        2       3.1479846017    0.0000000000
     2        3       0.0000000000    0.0000000000
     3        1       0.0000000000    0.0000000000
     3        2       0.0000000000    0.0000000000
     3        3       3.7017610439    0.0000000000

 respfn : d/dk was computed, but no 2DTE, so no DDB output.

== END DATASET(S) ==============================================================

 -outvars: echo values of variables after computation  --------
            acell      1.0000000000E+00  1.0000000000E+00  1.0000000000E+00 Bohr
              amu      2.43050000E+01  1.21753000E+02
             ecut      4.20000000E+01 Hartree
           etotal     -2.4326978427E+01
            fcart      0.0000000000E+00  0.0000000000E+00  0.0000000000E+00
                       0.0000000000E+00  0.0000000000E+00  0.0000000000E+00
                       0.0000000000E+00  0.0000000000E+00  0.0000000000E+00
                       0.0000000000E+00  0.0000000000E+00  0.0000000000E+00
                       0.0000000000E+00  0.0000000000E+00  0.0000000000E+00
-          fftalg         512
           irdden           1
           irdwfk           1
           istwfk        1    0
              ixc     -116133
              kpt      0.00000000E+00  0.00000000E+00  0.00000000E+00
                       3.33333333E-01  3.33333333E-01  0.00000000E+00
           kptopt           0
P           mkmem           2
P          mkqmem           2
P          mk1mem           2
            natom           5
            nband          39
           nbdbuf           4
            ngfft          54      54      80
             nkpt           2
            nstep        2000
             nsym          12
           ntypat           2
              occ      2.000000  2.000000  2.000000  2.000000  2.000000  2.000000
                       2.000000  2.000000  2.000000  2.000000  2.000000  2.000000
                       2.000000  2.000000  2.000000  2.000000  2.000000  2.000000
                       2.000000  2.000000  2.000000  2.000000  2.000000  2.000000
                       2.000000  2.000000  2.000000  2.000000  2.000000  2.000000
                       0.000000  0.000000  0.000000  0.000000  0.000000  0.000000
                       0.000000  0.000000  0.000000
        optdriver           1
            prtwf          -1
            rfdir           1       1       1
           rfelfd           2
            rprim      8.6029997630E+00  0.0000000000E+00  0.0000000000E+00
                      -4.3014998815E+00  7.4504163435E+00  0.0000000000E+00
                       0.0000000000E+00  0.0000000000E+00  1.3571309539E+01
          spgroup         164
           strten      0.0000000000E+00  0.0000000000E+00  0.0000000000E+00
                       0.0000000000E+00  0.0000000000E+00  0.0000000000E+00
           symrel      1  0  0   0  1  0   0  0  1      -1  0  0   0 -1  0   0  0 -1
                      -1  0  0   1  1  0   0  0  1       1  0  0  -1 -1  0   0  0 -1
                       0  1  0  -1 -1  0   0  0  1       0 -1  0   1  1  0   0  0 -1
                       0 -1  0  -1  0  0   0  0  1       0  1  0   1  0  0   0  0 -1
                      -1 -1  0   1  0  0   0  0  1       1  1  0  -1  0  0   0  0 -1
                       1  1  0   0 -1  0   0  0  1      -1 -1  0   0  1  0   0  0 -1
           tolwfr      1.00000000E-20
            typat      1  1  1  2  2
           useylm           1
              wtk        0.50000    0.50000
           xangst      0.0000000000E+00  0.0000000000E+00  7.9732084253E-16
                       0.0000000000E+00  2.6283936823E+00  4.5450439032E+00
                       2.2762557000E+00  1.3141968412E+00  2.6365837954E+00
                       0.0000000000E+00  2.6283936823E+00  1.6104584665E+00
                       2.2762557000E+00  1.3141968412E+00  5.5711692321E+00
            xcart      0.0000000000E+00  0.0000000000E+00  1.5067180324E-15
                       0.0000000000E+00  4.9669442290E+00  8.5888882391E+00
                       4.3014998815E+00  2.4834721145E+00  4.9824212996E+00
                       0.0000000000E+00  4.9669442290E+00  3.0433254501E+00
                       4.3014998815E+00  2.4834721145E+00  1.0527984089E+01
             xred      0.0000000000E+00  0.0000000000E+00  1.1102230246E-16
                       3.3333333333E-01  6.6666666667E-01  6.3287100000E-01
                       6.6666666667E-01  3.3333333333E-01  3.6712900000E-01
                       3.3333333333E-01  6.6666666667E-01  2.2424700000E-01
                       6.6666666667E-01  3.3333333333E-01  7.7575300000E-01
            znucl       12.00000   51.00000

- Timing analysis has been suppressed with timopt=0

 Suggested references for the acknowledgment of ABINIT usage.

 Calculation completed.
.Delivered   2 WARNINGs and   5 COMMENTs to log file.