.Version 9.5.1 of ABINIT

 ABINIT is a project of the Universite Catholique de Louvain,
 Corning Inc. and other collaborators, see ~abinit/doc/developers/contributors.txt .
 acknowledgments of the ABINIT effort.

.Starting date : Wed  5 May 2021.
- ( at 19h39 )

- input  file    -> /scratch/users/j/a/jabreu/flow_simple_7atoms/flow/w119/t1/run.abi
- output file    -> /scratch/users/j/a/jabreu/flow_simple_7atoms/flow/w119/t1/run.abo
- root for input  files -> /scratch/users/j/a/jabreu/flow_simple_7atoms/flow/w119/t1/indata/in
- root for output files -> /scratch/users/j/a/jabreu/flow_simple_7atoms/flow/w119/t1/outdata/out

 Symmetries : space group I4/m m m (#139); Bravais tI (body-center tetrag.)
     intxc =       0      iscf =       7    lmnmax =      18     lnmax =       6
     mgfft =      90  mpssoang =       3    mqgrid =    3001     natom =       7
  nloc_mem =       1    nspden =       1   nspinor =       1    nsppol =       1
      nsym =      16    n1xccc =    2501    ntypat =       3    occopt =       1
   xclevel =       2
-    mband =          38        mffmem =           1         mkmem =           2
-   mkqmem =           2        mk1mem =           2           mpw =       11606
      nfft =      729000          nkpt =           2
  Rough estimation (10% accuracy) of disk space for files :

------------- Echo of variables that govern the present computation ------------
-
- outvars: echo of selected default values
-   iomode0 =  0 , fftalg0 =512 , wfoptalg0 =  0
-
- outvars: echo of global parameters not present in the input file
-  max_nthreads =    0
-
 -outvars: echo values of preprocessed input variables --------
            acell      1.0000000000E+00  1.0000000000E+00  1.0000000000E+00 Bohr
              amu      1.37327000E+02  2.07200000E+02  1.59994000E+01
             ecut      4.40000000E+01 Hartree
-          fftalg         512
           irdden           1
           irdwfk           1
           istwfk        1    1
              ixc     -116133
              kpt      0.00000000E+00  0.00000000E+00  5.00000000E-01
                       0.00000000E+00  0.00000000E+00  0.00000000E+00
           kptopt           0
P           mkmem           2
P          mkqmem           2
P          mk1mem           2
            natom           7
            nband          38
           nbdbuf           4
            ngfft          90      90      90
             nkpt           2
            nstep        2000
             nsym          16
           ntypat           3
              occ      2.000000  2.000000  2.000000  2.000000  2.000000  2.000000
                       2.000000  2.000000  2.000000  2.000000  2.000000  2.000000
                       2.000000  2.000000  2.000000  2.000000  2.000000  2.000000
                       2.000000  2.000000  2.000000  2.000000  2.000000  2.000000
                       2.000000  2.000000  2.000000  2.000000  2.000000  0.000000
                       0.000000  0.000000  0.000000  0.000000  0.000000  0.000000
                       0.000000  0.000000
        optdriver           1
            prtwf          -1
            rfdir           1       1       1
           rfelfd           2
            rprim      7.8048321075E+00  0.0000000000E+00 -1.1299385038E+01
                      -7.5873656420E-01  7.7678647679E+00 -1.1299385038E+01
                       0.0000000000E+00  0.0000000000E+00  1.3732862282E+01
          spgroup         139
           symrel      1  0  0   0  1  0   0  0  1      -1  0  0   0 -1  0   0  0 -1
                       0  0  1  -1 -1 -1   1  0  0       0  0 -1   1  1  1  -1  0  0
                       0  1  0   1  0  0  -1 -1 -1       0 -1  0  -1  0  0   1  1  1
                      -1 -1 -1   0  0  1   0  1  0       1  1  1   0  0 -1   0 -1  0
                       0  1  0   1  0  0   0  0  1       0 -1  0  -1  0  0   0  0 -1
                       0  0  1  -1 -1 -1   0  1  0       0  0 -1   1  1  1   0 -1  0
                       1  0  0   0  1  0  -1 -1 -1      -1  0  0   0 -1  0   1  1  1
                      -1 -1 -1   0  0  1   1  0  0       1  1  1   0  0 -1  -1  0  0
           tolwfr      1.00000000E-20
            typat      1  1  2  3  3  3  3
           useylm           1
              wtk        0.50000    0.50000
           xangst      2.4010794309E+00  2.6470348297E+00 -7.7009233920E+00
                       1.3275537401E+00  1.4635421649E+00 -4.2578306739E+00
                       0.0000000000E+00  0.0000000000E+00  0.0000000000E+00
                       2.0650696341E+00  0.0000000000E+00  6.4387034765E-01
                      -2.0075304855E-01  2.0552884973E+00  6.4387034765E-01
                       6.1147346826E-01  6.7410996365E-01 -1.9611639143E+00
                       3.1171597028E+00  3.4364670309E+00 -9.9975901516E+00
            xcart      4.5373825478E+00  5.0021708923E+00 -1.4552636181E+01
                       2.5087129955E+00  2.7656938756E+00 -8.0461338938E+00
                       0.0000000000E+00  0.0000000000E+00  0.0000000000E+00
                       3.9024160538E+00  0.0000000000E+00  1.2167386221E+00
                      -3.7936828210E-01  3.8839323839E+00  1.2167386222E+00
                       1.1555173925E+00  1.2738832147E+00 -3.7060626997E+00
                       5.8905781508E+00  6.4939815532E+00 -1.8892707375E+01
             xred      6.4395700000E-01  6.4395700000E-01 -1.1102230246E-16
                       3.5604300000E-01  3.5604300000E-01  0.0000000000E+00
                       0.0000000000E+00  0.0000000000E+00  0.0000000000E+00
                       5.0000000000E-01  0.0000000000E+00  5.0000000000E-01
                      -6.9388939039E-18  5.0000000000E-01  5.0000000000E-01
                       1.6399400000E-01  1.6399400000E-01 -2.7755575616E-17
                       8.3600600000E-01  8.3600600000E-01 -2.2204460493E-16
            znucl       56.00000   82.00000    8.00000

 chkinp: Checking input parameters for consistency.

== DATASET  1 ==================================================================
-   mpi_nproc: 1, omp_nthreads: -1 (-1 if OMP is not activated)

--- !DatasetInfo
iteration_state: {dtset: 1, }
dimensions: {natom: 7, nkpt: 2, mband: 38, nsppol: 1, nspinor: 1, nspden: 1, mpw: 11606, }
cutoff_energies: {ecut:  44.0, pawecutdg:  -1.0, }
electrons: {nelect:   5.80000000E+01, charge:   0.00000000E+00, occopt:   1.00000000E+00, tsmear:   1.00000000E-02, }
meta: {optdriver: 1, rfelfd: 2, }
...

 Real(R)+Recip(G) space primitive vectors, cartesian coordinates (Bohr,Bohr^-1):
 R(1)=  7.8048321  0.0000000-11.2993850  G(1)=  0.1281258  0.0125149  0.0000000
 R(2)= -0.7587366  7.7678648-11.2993850  G(2)=  0.0000000  0.1287355  0.0000000
 R(3)=  0.0000000  0.0000000 13.7328623  G(3)=  0.1054217  0.1162207  0.0728180
 Unit cell volume ucvol=  8.3258060E+02 bohr^3
 Angles (23,13,12)=  1.45365972E+02  1.45365972E+02  4.97894772E+01 degrees

 getcut: wavevector=  0.0000  0.0000  0.0000  ngfft=  90  90  90
         ecut(hartree)=     44.000   => boxcut(ratio)=   2.19478

--- Pseudopotential description ------------------------------------------------
- pspini: atom type   1  psp file is /scratch/users/j/a/jabreu/pseudos/PBEsol/Ba.psp8
- pspatm: opening atomic psp file    /scratch/users/j/a/jabreu/pseudos/PBEsol/Ba.psp8
- Ba    ONCVPSP-3.3.0  r_core=   2.15444   1.91218   2.15444
- 56.00000  10.00000    180112                znucl, zion, pspdat
    8 -116133    2    4       600   0.00000   pspcod,pspxc,lmax,lloc,mmax,r2well
    5.99000000000000    5.00000000000000    0.00000000000000   rchrg,fchrg,qchrg
     nproj     2     2     2
     extension_switch     1
  pspatm : epsatm=   26.37418029
         --- l  ekb(1:nproj) -->
             0    6.652372    0.677024
             1    5.027722    0.408462
             2    2.543237    0.416854
 pspatm: atomic psp has been read  and splines computed

- pspini: atom type   2  psp file is /scratch/users/j/a/jabreu/pseudos/PBEsol/Pb.psp8
- pspatm: opening atomic psp file    /scratch/users/j/a/jabreu/pseudos/PBEsol/Pb.psp8
- Pb    ONCVPSP-3.3.0  r_core=   2.42823   2.42823   2.10438
- 82.00000  14.00000    180112                znucl, zion, pspdat
    8 -116133    2    4       600   0.00000   pspcod,pspxc,lmax,lloc,mmax,r2well
    5.99000000000000    6.00000000000000    0.00000000000000   rchrg,fchrg,qchrg
     nproj     2     2     2
     extension_switch     1
  pspatm : epsatm=   44.32675151
         --- l  ekb(1:nproj) -->
             0    6.256780    1.206521
             1    4.272336    0.573876
             2   -3.251371   -0.847363
 pspatm: atomic psp has been read  and splines computed

- pspini: atom type   3  psp file is /scratch/users/j/a/jabreu/pseudos/PBEsol/O.psp8
- pspatm: opening atomic psp file    /scratch/users/j/a/jabreu/pseudos/PBEsol/O.psp8
- O     ONCVPSP-3.3.0  r_core=   1.35509   1.45563   1.26150
-  8.00000   6.00000    180112                znucl, zion, pspdat
    8 -116133    2    4       600   0.00000   pspcod,pspxc,lmax,lloc,mmax,r2well
    5.99000000000000    4.00000000000000    0.00000000000000   rchrg,fchrg,qchrg
     nproj     2     2     1
     extension_switch     1
  pspatm : epsatm=    6.22910522
         --- l  ekb(1:nproj) -->
             0    6.050032    0.820363
             1   -4.739617   -1.153841
             2   -1.335834
 pspatm: atomic psp has been read  and splines computed

   7.07550891E+03                                ecore*ucvol(ha*bohr**3)

-inwffil : will read wavefunctions from disk file /scratch/users/j/a/jabreu/flow_simple_7atoms/flow/w119/t1/indata/in_WFK

 ==>  initialize data related to q vector <==

 The list of irreducible perturbations for this q vector is:
    1)    idir= 1    ipert=   8
    2)    idir= 2    ipert=   8
    3)    idir= 3    ipert=   8

 Perturbation wavevector (in red.coord.)   0.000000  0.000000  0.000000
 Perturbation : derivative vs k along direction   1

 dfpt_looppert : COMMENT -
  In a d/dk calculation, iscf is set to -3 automatically.
 The set of symmetries contains only one element for this perturbation.
 symkpt : not enough symmetry to change the number of k points.

[...]

 Initialisation of the first-order wave-functions :
  ireadwf=   0

--- !BeginCycle
iteration_state: {dtset: 1, }
solver: {iscf: 7, nstep: 2000, nline: 4, wfoptalg: 0, }
tolerances: {tolwfr: 1.00E-20, }
...

     iter   2DEtotal(Ha)        deltaE(Ha) residm    vres2
-ETOT  1  -56.330330286663     -5.633E+01 1.028E-01 0.000E+00
 ETOT  2  -56.373383952251     -4.305E-02 4.391E-03 0.000E+00
 ETOT  3  -56.373563772898     -1.798E-04 1.253E-04 0.000E+00
 ETOT  4  -56.373564946613     -1.174E-06 1.009E-05 0.000E+00
 ETOT  5  -56.373564956474     -9.861E-09 5.583E-07 0.000E+00
 ETOT  6  -56.373564956596     -1.224E-10 1.310E-07 0.000E+00
 ETOT  7  -56.373564956598     -1.819E-12 9.399E-09 0.000E+00
 ETOT  8  -56.373564956598     -5.684E-14 4.498E-09 0.000E+00
 ETOT  9  -56.373564956598      4.974E-14 3.239E-10 0.000E+00
 ETOT 10  -56.373564956598      7.105E-15 1.679E-10 0.000E+00
 ETOT 11  -56.373564956598     -2.842E-14 1.192E-11 0.000E+00
 ETOT 12  -56.373564956598      2.132E-14 6.181E-12 0.000E+00
 ETOT 13  -56.373564956598      0.000E+00 4.433E-13 0.000E+00
 ETOT 14  -56.373564956598      0.000E+00 2.236E-13 0.000E+00
 ETOT 15  -56.373564956598     -7.105E-15 1.878E-14 0.000E+00
 ETOT 16  -56.373564956598     -7.105E-15 8.572E-15 0.000E+00
 ETOT 17  -56.373564956598      1.421E-14 7.781E-16 0.000E+00
 ETOT 18  -56.373564956598      0.000E+00 3.489E-16 0.000E+00
 ETOT 19  -56.373564956598     -7.105E-15 3.164E-17 0.000E+00
 ETOT 20  -56.373564956598     -1.421E-14 1.421E-17 0.000E+00
 ETOT 21  -56.373564956598      0.000E+00 1.288E-18 0.000E+00
 ETOT 22  -56.373564956598      1.421E-14 5.793E-19 0.000E+00
 ETOT 23  -56.373564956598      7.105E-15 5.243E-20 0.000E+00
 ETOT 24  -56.373564956598      0.000E+00 2.363E-20 0.000E+00
 ETOT 25  -56.373564956598     -7.105E-15 9.952E-21 0.000E+00

 At SCF step   25   max residual=  9.95E-21 < tolwfr=  1.00E-20 =>converged.

 ----iterations are completed or convergence reached----

 dfpt_looppert: DFPT cycle converged with prtwf=-1. Will skip output of the 1st-order WFK file.
 dfpt_looppert : ek2=    7.5895218116E+01
          f-sum rule ratio=    1.1156339459E+00
 prteigrs : about to open file /scratch/users/j/a/jabreu/flow_simple_7atoms/flow/w119/t1/tmpdata/tmp_1WF1_EIG
 Expectation of eigenvalue derivatives (hartree) for nkpt=   2  k points:
  (in case of degenerate eigenvalues, averaged derivative)
 kpt#   1, nband= 38, wtk=  0.50000, kpt=  0.0000  0.0000  0.5000 (reduced coord)
  -0.00000   -0.00000   -0.00000   -0.00000    0.00000    0.00000   -0.00000   -0.00000
  -0.00000    0.00000    0.00000   -0.00000   -0.00000   -0.00000   -0.00000   -0.00000
   0.00000    0.00000   -0.00000    0.00000    0.00000   -0.00000   -0.00000    0.00000
   0.00000    0.00000    0.00000   -0.00000    0.00000    0.00000   -0.00000   -0.00000
  -0.00000   -0.00000   -0.00000   -0.00000    0.00000   -0.00004
 prteigrs : prtvol=0 or 1, do not print more k-points.

 Eight components of 2nd-order total energy (hartree) are
 1,2,3: 0th-order hamiltonian combined with 1st-order wavefunctions
     kin0=   6.55626800E+01 eigvalue=   1.15209093E+00  local=  -3.12694728E+01
 4,5,6: 1st-order hamiltonian combined with 1st and 0th-order wfs
     kin1=  -8.46712817E+01  Hartree=   0.00000000E+00     xc=   0.00000000E+00
 7,8,9: eventually, occupation + non-local contributions
    edocc=   1.47399099E+01     enl0=   6.18835688E+00   enl1=  -2.80758482E+01
 1-9 gives the relaxation energy (to be shifted if some occ is /=2.0)
   erelax=  -5.63735650E+01
  No Ewald or frozen-wf contrib.: the relaxation energy is the total one
 2DEtotal=   -0.5637356496E+02 Ha. Also 2DEtotal=   -0.153400271559E+04 eV
    (  non-var. 2DEtotal :   -5.6373564956E+01 Ha)

 Perturbation wavevector (in red.coord.)   0.000000  0.000000  0.000000
 Perturbation : derivative vs k along direction   2
 The set of symmetries contains only one element for this perturbation.
 symkpt : not enough symmetry to change the number of k points.

[...]

 Perturbation wavevector (in red.coord.)   0.000000  0.000000  0.000000
 Perturbation : derivative vs k along direction   3
 The set of symmetries contains only one element for this perturbation.
 symkpt : not enough symmetry to change the number of k points.

-inwffil : will read wavefunctions from disk file /scratch/users/j/a/jabreu/flow_simple_7atoms/flow/w119/t1/indata/in_WFK

 Initialisation of the first-order wave-functions :
  ireadwf=   0

--- !BeginCycle
iteration_state: {dtset: 1, }
solver: {iscf: 7, nstep: 2000, nline: 4, wfoptalg: 0, }
tolerances: {tolwfr: 1.00E-20, }
...

     iter   2DEtotal(Ha)        deltaE(Ha) residm    vres2
-ETOT  1  -102.22044755842     -1.022E+02 1.549E-01 0.000E+00
 ETOT  2  -102.29102183542     -7.057E-02 6.303E-03 0.000E+00
 ETOT  3  -102.29129937228     -2.775E-04 5.794E-05 0.000E+00
 ETOT  4  -102.29130136303     -1.991E-06 7.966E-06 0.000E+00
 ETOT  5  -102.29130137991     -1.688E-08 1.296E-07 0.000E+00
 ETOT  6  -102.29130138010     -1.871E-10 1.816E-08 0.000E+00
 ETOT  7  -102.29130138010     -2.416E-12 5.435E-10 0.000E+00
 ETOT  8  -102.29130138010     -4.263E-14 1.033E-10 0.000E+00
 ETOT  9  -102.29130138010      7.105E-14 8.431E-12 0.000E+00
 ETOT 10  -102.29130138010     -1.421E-14 6.038E-13 0.000E+00
 ETOT 11  -102.29130138010      0.000E+00 3.936E-14 0.000E+00
 ETOT 12  -102.29130138010      0.000E+00 4.101E-15 0.000E+00
 ETOT 13  -102.29130138010      1.421E-14 2.208E-16 0.000E+00
 ETOT 14  -102.29130138010      2.842E-14 2.300E-17 0.000E+00
 ETOT 15  -102.29130138010     -1.421E-14 1.783E-18 0.000E+00
 ETOT 16  -102.29130138010     -1.421E-14 1.630E-19 0.000E+00
 ETOT 17  -102.29130138010      4.263E-14 1.101E-20 0.000E+00
 ETOT 18  -102.29130138010      0.000E+00 9.664E-21 0.000E+00

 At SCF step   18   max residual=  9.66E-21 < tolwfr=  1.00E-20 =>converged.

 ----iterations are completed or convergence reached----

 dfpt_looppert: DFPT cycle converged with prtwf=-1. Will skip output of the 1st-order WFK file.
 dfpt_looppert : ek2=    1.3703432713E+02
          f-sum rule ratio=    1.1224224711E+00
 prteigrs : about to open file /scratch/users/j/a/jabreu/flow_simple_7atoms/flow/w119/t1/tmpdata/tmp_1WF1_EIG
 Expectation of eigenvalue derivatives (hartree) for nkpt=   2  k points:
  (in case of degenerate eigenvalues, averaged derivative)
 kpt#   1, nband= 38, wtk=  0.50000, kpt=  0.0000  0.0000  0.5000 (reduced coord)
  -0.00000   -0.00000   -0.00000   -0.00000   -0.00000    0.00000    0.00000    0.00000
   0.00000    0.00000   -0.00000   -0.00000   -0.00000   -0.00000   -0.00000    0.00000
  -0.00000   -0.00000   -0.00000    0.00000    0.00000    0.00000   -0.00000    0.00000
   0.00000    0.00000    0.00000    0.00000    0.00000    0.00000    0.00000    0.00000
  -0.00000   -0.00000    0.00000    0.00000    0.00000    0.00005
 prteigrs : prtvol=0 or 1, do not print more k-points.

 Eight components of 2nd-order total energy (hartree) are
 1,2,3: 0th-order hamiltonian combined with 1st-order wavefunctions
     kin0=   1.21235918E+02 eigvalue=   1.85170511E+00  local=  -5.82083633E+01
 4,5,6: 1st-order hamiltonian combined with 1st and 0th-order wfs
     kin1=  -1.53810408E+02  Hartree=   0.00000000E+00     xc=   0.00000000E+00
 7,8,9: eventually, occupation + non-local contributions
    edocc=   2.60178382E+01     enl0=   1.13942029E+01   enl1=  -5.07721947E+01
 1-9 gives the relaxation energy (to be shifted if some occ is /=2.0)
   erelax=  -1.02291301E+02
  No Ewald or frozen-wf contrib.: the relaxation energy is the total one
 2DEtotal=   -0.1022913014E+03 Ha. Also 2DEtotal=   -0.278348786739E+04 eV
    (  non-var. 2DEtotal :   -1.0229130138E+02 Ha)

 CALCULATION OF EFFECTIVE MASSES
 NOTE : Additional infos (eff. mass eigenvalues, eigenvectors and, if degenerate, average mass) are available in stdout.

 K-point ( 0.000, 0.000, 0.500) | band =    29
 Effective mass tensor:
             -2.3223819405              0.2833947622             -0.3855300431
              0.2833947622             -2.2670194665             -0.4250215961
             -0.3855300431             -0.4250215961             -1.0397540213
 Effective mass tensor eigenvalues:
             -2.5794441707             -2.2762545514             -0.7734567062
 Angular average effective mass 1/(<1/m>)=  -1.4151639065
 Angular average effective mass for Frohlich model (<m**0.5>)**2=  -1.5613931583
 Effective masses along directions: (cart. coord. / red. coord. -> eff. mass)
    1:   1.000000  0.000000  0.000000 /   0.995308 -0.096758  0.000000 ->  -2.0865291059
    2:   0.000000  1.000000  0.000000 /   0.000000  1.000000  0.000000 ->  -2.0040527996
    3:   0.000000  0.000000  1.000000 /  -0.536279 -0.536279  0.651774 ->  -0.8759312467
    4:   0.577350  0.577350  0.577350 /  -0.236027 -0.289770  0.927537 ->  -2.1412482611
    5:   0.000000  0.707107  0.707107 /  -0.623202 -0.194776  0.757417 ->  -1.7273960177
    6:   0.707107  0.000000  0.707107 /  -0.187814 -0.648060  0.738068 ->  -1.6906883651
    7:   0.707107  0.707107  0.000000 /   0.744015  0.668163  0.000000 ->  -1.6946488506

 K-point ( 0.000, 0.000, 0.000) | band =    30
 Effective mass tensor:
              0.4756463189             -0.0143383731              0.0417141141
             -0.0143383731              0.4728452794              0.0459871138
              0.0417141141              0.0459871138              0.3548637494
 Effective mass tensor eigenvalues:
              0.3260505303              0.4886524087              0.4886524088
 Angular average effective mass 1/(<1/m>)=   0.4190003746
 Angular average effective mass for Frohlich model (<m**0.5>)**2=   0.4238896751
 Effective masses along directions: (cart. coord. / red. coord. -> eff. mass)
    1:   1.000000  0.000000  0.000000 /   0.995308 -0.096758  0.000000 ->   0.4699078784
    2:   0.000000  1.000000  0.000000 /   0.000000  1.000000  0.000000 ->   0.4660576486
    3:   0.000000  0.000000  1.000000 /  -0.536279 -0.536279  0.651774 ->   0.3464806406
    4:   0.577350  0.577350  0.577350 /  -0.236027 -0.289770  0.927537 ->   0.4808478701
    5:   0.000000  0.707107  0.707107 /  -0.623202 -0.194776  0.757417 ->   0.4489792833
    6:   0.707107  0.000000  0.707107 /  -0.187814 -0.648060  0.738068 ->   0.4453741333
    7:   0.707107  0.707107  0.000000 /   0.744015  0.668163  0.000000 ->   0.4490625478

 END OF EFFECTIVE MASSES SECTION

 ---- first-order wavefunction calculations are completed ----

 Total localisation tensor (bohr^2) in cartesian coordinates
  WARNING : still subject to testing - especially symmetries.
      direction              matrix element
   alpha     beta       real part   imaginary part
     1        1       1.2045743424    0.0000000000
     1        2      -0.1154579996    0.0000000000
     1        3      -1.5596373041    0.0000000000
     2        1      -0.1154579996    0.0000000000
     2        2       1.1820467994    0.0000000000
     2        3      -1.7194431569    0.0000000000
     3        1      -1.5596373041    0.0000000000
     3        2      -1.7194431569    0.0000000000
     3        3      11.5893961223    0.0000000000

 respfn : d/dk was computed, but no 2DTE, so no DDB output.

== END DATASET(S) ==============================================================

 -outvars: echo values of variables after computation  --------
            acell      1.0000000000E+00  1.0000000000E+00  1.0000000000E+00 Bohr
              amu      1.37327000E+02  2.07200000E+02  1.59994000E+01
             ecut      4.40000000E+01 Hartree
           etotal     -1.0229130138E+02
            fcart      0.0000000000E+00  0.0000000000E+00  0.0000000000E+00
                       0.0000000000E+00  0.0000000000E+00  0.0000000000E+00
                       0.0000000000E+00  0.0000000000E+00  0.0000000000E+00
                       0.0000000000E+00  0.0000000000E+00  0.0000000000E+00
                       0.0000000000E+00  0.0000000000E+00  0.0000000000E+00
                       0.0000000000E+00  0.0000000000E+00  0.0000000000E+00
                       0.0000000000E+00  0.0000000000E+00  0.0000000000E+00
-          fftalg         512
           irdden           1
           irdwfk           1
           istwfk        1    1
              ixc     -116133
              kpt      0.00000000E+00  0.00000000E+00  5.00000000E-01
                       0.00000000E+00  0.00000000E+00  0.00000000E+00
           kptopt           0
P           mkmem           2
P          mkqmem           2
P          mk1mem           2
            natom           7
            nband          38
           nbdbuf           4
            ngfft          90      90      90
             nkpt           2
            nstep        2000
             nsym          16
           ntypat           3
              occ      2.000000  2.000000  2.000000  2.000000  2.000000  2.000000
                       2.000000  2.000000  2.000000  2.000000  2.000000  2.000000
                       2.000000  2.000000  2.000000  2.000000  2.000000  2.000000
                       2.000000  2.000000  2.000000  2.000000  2.000000  2.000000
                       2.000000  2.000000  2.000000  2.000000  2.000000  0.000000
                       0.000000  0.000000  0.000000  0.000000  0.000000  0.000000
                       0.000000  0.000000
        optdriver           1
            prtwf          -1
            rfdir           1       1       1
           rfelfd           2
            rprim      7.8048321075E+00  0.0000000000E+00 -1.1299385038E+01
                      -7.5873656420E-01  7.7678647679E+00 -1.1299385038E+01
                       0.0000000000E+00  0.0000000000E+00  1.3732862282E+01
          spgroup         139
           strten      0.0000000000E+00  0.0000000000E+00  0.0000000000E+00
                       0.0000000000E+00  0.0000000000E+00  0.0000000000E+00
           symrel      1  0  0   0  1  0   0  0  1      -1  0  0   0 -1  0   0  0 -1
                       0  0  1  -1 -1 -1   1  0  0       0  0 -1   1  1  1  -1  0  0
                       0  1  0   1  0  0  -1 -1 -1       0 -1  0  -1  0  0   1  1  1
                      -1 -1 -1   0  0  1   0  1  0       1  1  1   0  0 -1   0 -1  0
                       0  1  0   1  0  0   0  0  1       0 -1  0  -1  0  0   0  0 -1
                       0  0  1  -1 -1 -1   0  1  0       0  0 -1   1  1  1   0 -1  0
                       1  0  0   0  1  0  -1 -1 -1      -1  0  0   0 -1  0   1  1  1
                      -1 -1 -1   0  0  1   1  0  0       1  1  1   0  0 -1  -1  0  0
           tolwfr      1.00000000E-20
            typat      1  1  2  3  3  3  3
           useylm           1
              wtk        0.50000    0.50000
           xangst      2.4010794309E+00  2.6470348297E+00 -7.7009233920E+00
                       1.3275537401E+00  1.4635421649E+00 -4.2578306739E+00
                       0.0000000000E+00  0.0000000000E+00  0.0000000000E+00
                       2.0650696341E+00  0.0000000000E+00  6.4387034765E-01
                      -2.0075304855E-01  2.0552884973E+00  6.4387034765E-01
                       6.1147346826E-01  6.7410996365E-01 -1.9611639143E+00
                       3.1171597028E+00  3.4364670309E+00 -9.9975901516E+00
            xcart      4.5373825478E+00  5.0021708923E+00 -1.4552636181E+01
                       2.5087129955E+00  2.7656938756E+00 -8.0461338938E+00
                       0.0000000000E+00  0.0000000000E+00  0.0000000000E+00
                       3.9024160538E+00  0.0000000000E+00  1.2167386221E+00
                      -3.7936828210E-01  3.8839323839E+00  1.2167386222E+00
                       1.1555173925E+00  1.2738832147E+00 -3.7060626997E+00
                       5.8905781508E+00  6.4939815532E+00 -1.8892707375E+01
             xred      6.4395700000E-01  6.4395700000E-01 -1.1102230246E-16
                       3.5604300000E-01  3.5604300000E-01  0.0000000000E+00
                       0.0000000000E+00  0.0000000000E+00  0.0000000000E+00
                       5.0000000000E-01  0.0000000000E+00  5.0000000000E-01
                      -6.9388939039E-18  5.0000000000E-01  5.0000000000E-01
                       1.6399400000E-01  1.6399400000E-01 -2.7755575616E-17
                       8.3600600000E-01  8.3600600000E-01 -2.2204460493E-16
            znucl       56.00000   82.00000    8.00000

- Timing analysis has been suppressed with timopt=0

 Suggested references for the acknowledgment of ABINIT usage.

 Calculation completed.
.Delivered  14 WARNINGs and   9 COMMENTs to log file.