.Version 9.5.1 of ABINIT

 ABINIT is a project of the Universite Catholique de Louvain,
 Corning Inc. and other collaborators, see ~abinit/doc/developers/contributors.txt .
 acknowledgments of the ABINIT effort.

.Starting date : Wed 19 May 2021.
- ( at 13h43 )

- input  file    -> /scratch/users/j/a/jabreu/flow_simple_9atoms/flow/w180/t1/run.abi
- output file    -> /scratch/users/j/a/jabreu/flow_simple_9atoms/flow/w180/t1/run.abo
- root for input  files -> /scratch/users/j/a/jabreu/flow_simple_9atoms/flow/w180/t1/indata/in
- root for output files -> /scratch/users/j/a/jabreu/flow_simple_9atoms/flow/w180/t1/outdata/out

 Symmetries : space group Fm -3 m (#225); Bravais cF (face-center cubic)
     intxc =       0      iscf =       7    lmnmax =      32     lnmax =       8
     mgfft =      80  mpssoang =       4    mqgrid =    3094     natom =       9
  nloc_mem =       1    nspden =       1   nspinor =       1    nsppol =       1
      nsym =      48    n1xccc =    2501    ntypat =       3    occopt =       1
   xclevel =       2
-    mband =          48        mffmem =           1         mkmem =           1
-   mkqmem =           1        mk1mem =           1           mpw =       20158
      nfft =      512000          nkpt =           1
  Rough estimation (10% accuracy) of disk space for files :

------------- Echo of variables that govern the present computation ------------
-
- outvars: echo of selected default values
-   iomode0 =  0 , fftalg0 =512 , wfoptalg0 =  0
-
- outvars: echo of global parameters not present in the input file
-  max_nthreads =    0
-
 -outvars: echo values of preprocessed input variables --------
            acell      1.0000000000E+00  1.0000000000E+00  1.0000000000E+00 Bohr
              amu      3.90983000E+01  1.95080000E+02  3.54527000E+01
             ecut      4.20000000E+01 Hartree
-          fftalg         512
           irdden           1
           irdwfk           1
           istwfk        1
              ixc     -116133
              kpt      5.00000000E-01  0.00000000E+00  5.00000000E-01
           kptopt           0
P           mkmem           1
P          mkqmem           1
P          mk1mem           1
            natom           9
            nband          48
           nbdbuf           4
            ngfft          80      80      80
             nkpt           1
            nstep        2000
             nsym          48
           ntypat           3
              occ      2.000000  2.000000  2.000000  2.000000  2.000000  2.000000
                       2.000000  2.000000  2.000000  2.000000  2.000000  2.000000
                       2.000000  2.000000  2.000000  2.000000  2.000000  2.000000
                       2.000000  2.000000  2.000000  2.000000  2.000000  2.000000
                       2.000000  2.000000  2.000000  2.000000  2.000000  2.000000
                       2.000000  2.000000  2.000000  2.000000  2.000000  2.000000
                       2.000000  2.000000  2.000000  0.000000  0.000000  0.000000
                       0.000000  0.000000  0.000000  0.000000  0.000000  0.000000
        optdriver           1
            prtwf          -1
            rfdir           1       1       1
           rfelfd           2
            rprim      1.1247805752E+01  0.0000000000E+00  6.4939236785E+00
                       3.7492685839E+00  1.0604532961E+01  6.4939236785E+00
                       0.0000000000E+00  0.0000000000E+00  1.2987847357E+01
          spgroup         225
           symrel      1  0  0   0  1  0   0  0  1      -1  0  0   0 -1  0   0  0 -1
                       0 -1  1   0 -1  0   1 -1  0       0  1 -1   0  1  0  -1  1  0
                      -1  0  0  -1  0  1  -1  1  0       1  0  0   1  0 -1   1 -1  0
                       0  1 -1   1  0 -1   0  0 -1       0 -1  1  -1  0  1   0  0  1
                      -1  0  0  -1  1  0  -1  0  1       1  0  0   1 -1  0   1  0 -1
                       0 -1  1   1 -1  0   0 -1  0       0  1 -1  -1  1  0   0  1  0
                       1  0  0   0  0  1   0  1  0      -1  0  0   0  0 -1   0 -1  0
                       0  1 -1   0  0 -1   1  0 -1       0 -1  1   0  0  1  -1  0  1
                      -1  0  1  -1  1  0  -1  0  0       1  0 -1   1 -1  0   1  0  0
                       0 -1  0   1 -1  0   0 -1  1       0  1  0  -1  1  0   0  1 -1
                       1  0 -1   0  0 -1   0  1 -1      -1  0  1   0  0  1   0 -1  1
                       0  1  0   0  0  1   1  0  0       0 -1  0   0  0 -1  -1  0  0
                       1  0 -1   0  1 -1   0  0 -1      -1  0  1   0 -1  1   0  0  1
                       0 -1  0   0 -1  1   1 -1  0       0  1  0   0  1 -1  -1  1  0
                      -1  0  1  -1  0  0  -1  1  0       1  0 -1   1  0  0   1 -1  0
                       0  1  0   1  0  0   0  0  1       0 -1  0  -1  0  0   0  0 -1
                       0  0 -1   0  1 -1   1  0 -1       0  0  1   0 -1  1  -1  0  1
                       1 -1  0   0 -1  1   0 -1  0      -1  1  0   0  1 -1   0  1  0
                       0  0  1   1  0  0   0  1  0       0  0 -1  -1  0  0   0 -1  0
                      -1  1  0  -1  0  0  -1  0  1       1 -1  0   1  0  0   1  0 -1
                       0  0  1   0  1  0   1  0  0       0  0 -1   0 -1  0  -1  0  0
                       1 -1  0   0 -1  0   0 -1  1      -1  1  0   0  1  0   0  1 -1
                       0  0 -1   1  0 -1   0  1 -1       0  0  1  -1  0  1   0 -1  1
                      -1  1  0  -1  0  1  -1  0  0       1 -1  0   1  0 -1   1  0  0
           tolwfr      1.00000000E-20
            typat      1  1  2  3  3  3  3  3  3
           useylm           1
           xangst      1.9840274835E+00  1.4029192876E+00  3.4364364050E+00
                       5.9520824504E+00  4.2087578629E+00  1.0309309215E+01
                       0.0000000000E+00  0.0000000000E+00  0.0000000000E+00
                       2.9296467265E+00  4.2743695921E+00  5.0742969786E+00
                       1.8912384861E+00  1.3373075584E+00  6.8728728100E+00
                       6.0448714478E+00  4.2743695921E+00  6.8728728100E+00
                       5.0064632073E+00  1.3373075584E+00  8.6714486414E+00
                       5.0064632073E+00  1.3373075584E+00  5.0742969786E+00
                       2.9296467265E+00  4.2743695921E+00  8.6714486414E+00
            xcart      3.7492685839E+00  2.6511332401E+00  6.4939236785E+00
                       1.1247805752E+01  7.9533997205E+00  1.9481771035E+01
                       0.0000000000E+00  0.0000000000E+00  0.0000000000E+00
                       5.5362299793E+00  8.0773879198E+00  9.5890316065E+00
                       3.5739227907E+00  2.5271450408E+00  1.2987847357E+01
                       1.1423151545E+01  8.0773879198E+00  1.2987847357E+01
                       9.4608443562E+00  2.5271450408E+00  1.6386663108E+01
                       9.4608443562E+00  2.5271450408E+00  9.5890316065E+00
                       5.5362299793E+00  8.0773879198E+00  1.6386663108E+01
             xred      2.5000000000E-01  2.5000000000E-01  2.5000000000E-01
                       7.5000000000E-01  7.5000000000E-01  7.5000000000E-01
                       0.0000000000E+00  0.0000000000E+00  0.0000000000E+00
                       2.3830800000E-01  7.6169200000E-01  2.3830800000E-01
                       2.3830800000E-01  2.3830800000E-01  7.6169200000E-01
                       7.6169200000E-01  7.6169200000E-01  2.3830800000E-01
                       7.6169200000E-01  2.3830800000E-01  7.6169200000E-01
                       7.6169200000E-01  2.3830800000E-01  2.3830800000E-01
                       2.3830800000E-01  7.6169200000E-01  7.6169200000E-01
            znucl       19.00000   78.00000   17.00000

 chkinp: Checking input parameters for consistency.

== DATASET  1 ==================================================================
-   mpi_nproc: 1, omp_nthreads: -1 (-1 if OMP is not activated)

--- !DatasetInfo
iteration_state: {dtset: 1, }
dimensions: {natom: 9, nkpt: 1, mband: 48, nsppol: 1, nspinor: 1, nspden: 1, mpw: 20158, }
cutoff_energies: {ecut:  42.0, pawecutdg:  -1.0, }
electrons: {nelect:   7.80000000E+01, charge:   0.00000000E+00, occopt:   1.00000000E+00, tsmear:   1.00000000E-02, }
meta: {optdriver: 1, rfelfd: 2, }
...

 Real(R)+Recip(G) space primitive vectors, cartesian coordinates (Bohr,Bohr^-1):
 R(1)= 11.2478058  0.0000000  6.4939237  G(1)=  0.0889062 -0.0314331  0.0000000
 R(2)=  3.7492686 10.6045330  6.4939237  G(2)=  0.0000000  0.0942993  0.0000000
 R(3)=  0.0000000  0.0000000 12.9878474  G(3)= -0.0444531 -0.0314331  0.0769951
 Unit cell volume ucvol=  1.5491609E+03 bohr^3
 Angles (23,13,12)=  6.00000000E+01  6.00000000E+01  6.00000000E+01 degrees

 getcut: wavevector=  0.0000  0.0000  0.0000  ngfft=  80  80  80
         ecut(hartree)=     42.000   => boxcut(ratio)=   2.11136

--- Pseudopotential description ------------------------------------------------
- pspini: atom type   1  psp file is /scratch/users/j/a/jabreu/pseudos/PBEsol/K.psp8
- pspatm: opening atomic psp file    /scratch/users/j/a/jabreu/pseudos/PBEsol/K.psp8
- K     ONCVPSP-3.3.0  r_core=   1.36296   1.46408   1.61068
- 19.00000   9.00000    180112                znucl, zion, pspdat
    8 -116133    2    4       400   0.00000   pspcod,pspxc,lmax,lloc,mmax,r2well
    3.99000000000000    5.00000000000000    0.00000000000000   rchrg,fchrg,qchrg
     nproj     2     2     2
     extension_switch     1
  pspatm : epsatm=    8.32487830
         --- l  ekb(1:nproj) -->
             0   10.921326    0.816676
             1    4.431000    0.560368
             2   -3.384038   -1.043186
 pspatm: atomic psp has been read  and splines computed

- pspini: atom type   2  psp file is /scratch/users/j/a/jabreu/pseudos/PBEsol/Pt.psp8
- pspatm: opening atomic psp file    /scratch/users/j/a/jabreu/pseudos/PBEsol/Pt.psp8
- Pt    ONCVPSP-3.3.0  r_core=   1.45722   1.45722   1.45722   1.91724
- 78.00000  18.00000    180112                znucl, zion, pspdat
    8 -116133    3    4       500   0.00000   pspcod,pspxc,lmax,lloc,mmax,r2well
    4.99000000000000    5.00000000000000    0.00000000000000   rchrg,fchrg,qchrg
     nproj     2     2     2     2
     extension_switch     1
  pspatm : epsatm=   26.54019552
         --- l  ekb(1:nproj) -->
             0   18.149684    1.747248
             1    8.048135    1.208190
             2    2.365973    0.348456
             3    3.491561    0.381218
 pspatm: atomic psp has been read  and splines computed

- pspini: atom type   3  psp file is /scratch/users/j/a/jabreu/pseudos/PBEsol/Cl.psp8
- pspatm: opening atomic psp file    /scratch/users/j/a/jabreu/pseudos/PBEsol/Cl.psp8
- Cl    ONCVPSP-3.3.0  r_core=   1.56009   1.35202   1.75774
- 17.00000   7.00000    180112                znucl, zion, pspdat
    8 -116133    2    4       600   0.00000   pspcod,pspxc,lmax,lloc,mmax,r2well
    5.99000000000000    8.00000000000000    0.00000000000000   rchrg,fchrg,qchrg
     nproj     2     2     2
     extension_switch     1
  pspatm : epsatm=    8.95520722
         --- l  ekb(1:nproj) -->
             0    8.193503    0.707970
             1    3.869736    1.114731
[...]

-inwffil : will read wavefunctions from disk file /scratch/users/j/a/jabreu/flow_simple_9atoms/flow/w180/t1/indata/in_WFK

 Initialisation of the first-order wave-functions :
  ireadwf=   0

--- !BeginCycle
iteration_state: {dtset: 1, }
solver: {iscf: 7, nstep: 2000, nline: 4, wfoptalg: 0, }
tolerances: {tolwfr: 1.00E-20, }
...

     iter   2DEtotal(Ha)        deltaE(Ha) residm    vres2
-ETOT  1  -25.646688843319     -2.565E+01 7.791E-02 0.000E+00
 ETOT  2  -25.690763710206     -4.407E-02 9.059E-03 0.000E+00
 ETOT  3  -25.691026900199     -2.632E-04 1.069E-03 0.000E+00
 ETOT  4  -25.691030133827     -3.234E-06 1.589E-04 0.000E+00
 ETOT  5  -25.691030190095     -5.627E-08 2.402E-05 0.000E+00
 ETOT  6  -25.691030191284     -1.190E-09 5.187E-06 0.000E+00
 ETOT  7  -25.691030191313     -2.823E-11 8.414E-07 0.000E+00
 ETOT  8  -25.691030191314     -7.709E-13 1.799E-07 0.000E+00
 ETOT  9  -25.691030191313      4.974E-14 2.790E-08 0.000E+00
 ETOT 10  -25.691030191313     -1.421E-14 6.156E-09 0.000E+00
 ETOT 11  -25.691030191313     -3.197E-14 9.624E-10 0.000E+00
 ETOT 12  -25.691030191313      7.105E-15 2.177E-10 0.000E+00
 ETOT 13  -25.691030191313      3.553E-15 3.396E-11 0.000E+00
 ETOT 14  -25.691030191313     -7.105E-15 7.832E-12 0.000E+00
 ETOT 15  -25.691030191313      7.105E-15 1.215E-12 0.000E+00
 ETOT 16  -25.691030191313     -3.553E-15 2.846E-13 0.000E+00
 ETOT 17  -25.691030191313     -3.553E-15 4.389E-14 0.000E+00
 ETOT 18  -25.691030191313     -3.553E-15 1.040E-14 0.000E+00
 ETOT 19  -25.691030191313      7.105E-15 1.595E-15 0.000E+00
 ETOT 20  -25.691030191313      0.000E+00 3.813E-16 0.000E+00
 ETOT 21  -25.691030191313      0.000E+00 5.818E-17 0.000E+00
 ETOT 22  -25.691030191313     -7.105E-15 1.401E-17 0.000E+00
 ETOT 23  -25.691030191314     -3.553E-15 2.130E-18 0.000E+00
 ETOT 24  -25.691030191313      7.105E-15 5.151E-19 0.000E+00
 ETOT 25  -25.691030191313      0.000E+00 7.816E-20 0.000E+00
 ETOT 26  -25.691030191313     -3.553E-15 1.896E-20 0.000E+00
 ETOT 27  -25.691030191313      7.105E-15 9.881E-21 0.000E+00

 At SCF step   27   max residual=  9.88E-21 < tolwfr=  1.00E-20 =>converged.

 ----iterations are completed or convergence reached----

 dfpt_looppert: DFPT cycle converged with prtwf=-1. Will skip output of the 1st-order WFK file.
 dfpt_looppert : ek2=    5.4764766772E+01
          f-sum rule ratio=    9.9179493892E-01
 prteigrs : about to open file /scratch/users/j/a/jabreu/flow_simple_9atoms/flow/w180/t1/tmpdata/tmp_1WF1_EIG
 Expectation of eigenvalue derivatives (hartree) for nkpt=   1  k points:
  (in case of degenerate eigenvalues, averaged derivative)
 kpt#   1, nband= 48, wtk=  1.00000, kpt=  0.5000  0.0000  0.5000 (reduced coord)
   0.00000   -0.00000   -0.00000   -0.00000   -0.00000   -0.00000    0.00000   -0.00000
  -0.00000   -0.00000   -0.00000   -0.00000   -0.00000   -0.00000   -0.00000   -0.00000
  -0.00000    0.00000    0.00000   -0.00000    0.00000   -0.00000   -0.00000   -0.00000
  -0.00000   -0.00000   -0.00000    0.00000    0.00000    0.00000    0.00000    0.00000
   0.00000   -0.00000   -0.00000    0.00000   -0.00000    0.00000    0.00000    0.00000
  -0.00000   -0.00000   -0.00000   -0.00000   -0.00000   -0.00000   -0.00000    0.00103

 Eight components of 2nd-order total energy (hartree) are
 1,2,3: 0th-order hamiltonian combined with 1st-order wavefunctions
     kin0=   3.78669064E+01 eigvalue=   1.77070465E+00  local=  -2.24054650E+01
 4,5,6: 1st-order hamiltonian combined with 1st and 0th-order wfs
     kin1=  -5.43154185E+01  Hartree=   0.00000000E+00     xc=   0.00000000E+00
 7,8,9: eventually, occupation + non-local contributions
    edocc=   6.01964406E+00     enl0=   2.43924008E+00   enl1=   2.93335813E+00
 1-9 gives the relaxation energy (to be shifted if some occ is /=2.0)
   erelax=  -2.56910302E+01
  No Ewald or frozen-wf contrib.: the relaxation energy is the total one
 2DEtotal=   -0.2569103019E+02 Ha. Also 2DEtotal=   -0.699088484295E+03 eV
    (  non-var. 2DEtotal :   -2.5691030191E+01 Ha)

 CALCULATION OF EFFECTIVE MASSES
 NOTE : Additional infos (eff. mass eigenvalues, eigenvectors and, if degenerate, average mass) are available in stdout.

 COMMENTS:
 - At k-point ( 0.500, 0.000, 0.500), bands    38 through    39
   are DEGENERATE (effective mass tensor is therefore not defined).
   See Section IIIB Eqs. (67)-(70) and Appendix E of PRB 93 205147 (2016).
 - Angular average effective mass for Frohlich model is to be averaged over degenerate bands. See later.
 - Associated theta integrals calculated with ntheta=   1000 points.

 K-point ( 0.500, 0.000, 0.500) | band =    38
 Transport equivalent effective mass tensor:
             -2.1527903375              0.0566303940             -0.0693830682
              0.0566303940             -2.1928813523              0.0980442636
             -0.0693830682              0.0980442636             -2.2329041326
 Transport equivalent effective mass tensor eigenvalues:
             -2.3530178706             -2.1128294775             -2.1127284743
 Angular average effective mass 1/(<1/m>)=  -1.7236954227
 Angular average effective mass for Frohlich model (<m**0.5>)**2=  -1.7464103338
 Effective masses along directions: (cart. coord. / red. coord. -> eff. mass)
    1:   1.000000  0.000000  0.000000 /   0.948683  0.316228  0.000000 ->  -1.7674814040
    2:   0.000000  1.000000  0.000000 /   0.000000  1.000000  0.000000 ->  -2.1834330069
    3:   0.000000  0.000000  1.000000 /   0.408248  0.408248  0.816497 ->  -1.5563784936
    4:   0.577350  0.577350  0.577350 /   0.585539  0.688047  0.428644 ->  -1.9467686179
    5:   0.000000  0.707107  0.707107 /   0.289489  0.762222  0.578977 ->  -1.7158053711
    6:   0.707107  0.000000  0.707107 /   0.731423  0.422287  0.535439 ->  -1.6693481161
    7:   0.707107  0.707107  0.000000 /   0.616798  0.787122  0.000000 ->  -1.4586517774

 K-point ( 0.500, 0.000, 0.500) | band =    39
 Transport equivalent effective mass tensor:
           -274.4312349984            -31.8719376441             39.0020951998
            -31.8719376441           -251.8966934244            -55.1577152510
             39.0020951998            -55.1577152510           -229.3538454807
 Transport equivalent effective mass tensor eigenvalues:
           -296.9688874520           -296.9103916915           -161.8024947601
 Angular average effective mass 1/(<1/m>)=  -3.5669698807
 Angular average effective mass for Frohlich model (<m**0.5>)**2=  -5.7215920708
 Effective masses along directions: (cart. coord. / red. coord. -> eff. mass)
    1:   1.000000  0.000000  0.000000 /   0.948683  0.316228  0.000000 ->  -4.6360990404
    2:   0.000000  1.000000  0.000000 /   0.000000  1.000000  0.000000 ->  -2.4844993178
    3:   0.000000  0.000000  1.000000 /   0.408248  0.408248  0.816497 ->  -3.3668433346
    4:   0.577350  0.577350  0.577350 /   0.585539  0.688047  0.428644 ->  -4.2637708041
    5:   0.000000  0.707107  0.707107 /   0.289489  0.762222  0.578977 ->  -8.0884752337
    6:   0.707107  0.000000  0.707107 /   0.731423  0.422287  0.535439 ->  -2.5104346854
    7:   0.707107  0.707107  0.000000 /   0.616798  0.787122  0.000000 -> -42.2482400992

 Angular average effective mass for Frohlich model, averaged over degenerate bands.
 Value of     (<<m**0.5>>)**2 =     3.447526E+00
 Absolute Value of <<m**0.5>> =     1.856752E+00

 K-point ( 0.500, 0.000, 0.500) | band =    40
 Effective mass tensor:
              0.6362322310              0.0168780384             -0.0206712652
              0.0168780384              0.6242956915              0.0292320502
             -0.0206712652              0.0292320502              0.6123608426
 Effective mass tensor eigenvalues:
              0.5765588771              0.6481631837              0.6481667043
 Angular average effective mass 1/(<1/m>)=   0.6223985596
 Angular average effective mass for Frohlich model (<m**0.5>)**2=   0.6229787831
 Effective masses along directions: (cart. coord. / red. coord. -> eff. mass)
    1:   1.000000  0.000000  0.000000 /   0.948683  0.316228  0.000000 ->   0.6350220739
    2:   0.000000  1.000000  0.000000 /   0.000000  1.000000  0.000000 ->   0.6223980733
    3:   0.000000  0.000000  1.000000 /   0.408248  0.408248  0.816497 ->   0.6102676127
    4:   0.577350  0.577350  0.577350 /   0.585539  0.688047  0.428644 ->   0.6404893981
    5:   0.000000  0.707107  0.707107 /   0.289489  0.762222  0.578977 ->   0.6474861536
    6:   0.707107  0.000000  0.707107 /   0.731423  0.422287  0.535439 ->   0.6016843063
    7:   0.707107  0.707107  0.000000 /   0.616798  0.787122  0.000000 ->   0.6470168855

 END OF EFFECTIVE MASSES SECTION

 ---- first-order wavefunction calculations are completed ----

 Total localisation tensor (bohr^2) in cartesian coordinates
  WARNING : still subject to testing - especially symmetries.
      direction              matrix element
   alpha     beta       real part   imaginary part
     1        1       1.1197905988    0.0000000000
     1        2       0.3167265964    0.0000000000
     1        3       0.7758144952    0.0000000000
     2        1       0.3167265964    0.0000000000
     2        2       0.8958380965    0.0000000000
     2        3       0.5485865571    0.0000000000
     3        1       0.7758144952    0.0000000000
     3        2       0.5485865571    0.0000000000
     3        3       2.0156223280    0.0000000000

 respfn : d/dk was computed, but no 2DTE, so no DDB output.

== END DATASET(S) ==============================================================

 -outvars: echo values of variables after computation  --------
            acell      1.0000000000E+00  1.0000000000E+00  1.0000000000E+00 Bohr
              amu      3.90983000E+01  1.95080000E+02  3.54527000E+01
             ecut      4.20000000E+01 Hartree
           etotal     -2.5691030191E+01
            fcart      0.0000000000E+00  0.0000000000E+00  0.0000000000E+00
                       0.0000000000E+00  0.0000000000E+00  0.0000000000E+00
                       0.0000000000E+00  0.0000000000E+00  0.0000000000E+00
                       0.0000000000E+00  0.0000000000E+00  0.0000000000E+00
                       0.0000000000E+00  0.0000000000E+00  0.0000000000E+00
                       0.0000000000E+00  0.0000000000E+00  0.0000000000E+00
                       0.0000000000E+00  0.0000000000E+00  0.0000000000E+00
                       0.0000000000E+00  0.0000000000E+00  0.0000000000E+00
                       0.0000000000E+00  0.0000000000E+00  0.0000000000E+00
-          fftalg         512
           irdden           1
           irdwfk           1
           istwfk        1
              ixc     -116133
              kpt      5.00000000E-01  0.00000000E+00  5.00000000E-01
           kptopt           0
P           mkmem           1
P          mkqmem           1
P          mk1mem           1
            natom           9
            nband          48
           nbdbuf           4
            ngfft          80      80      80
             nkpt           1
            nstep        2000
             nsym          48
           ntypat           3
              occ      2.000000  2.000000  2.000000  2.000000  2.000000  2.000000
                       2.000000  2.000000  2.000000  2.000000  2.000000  2.000000
                       2.000000  2.000000  2.000000  2.000000  2.000000  2.000000
                       2.000000  2.000000  2.000000  2.000000  2.000000  2.000000
                       2.000000  2.000000  2.000000  2.000000  2.000000  2.000000
                       2.000000  2.000000  2.000000  2.000000  2.000000  2.000000
                       2.000000  2.000000  2.000000  0.000000  0.000000  0.000000
                       0.000000  0.000000  0.000000  0.000000  0.000000  0.000000
        optdriver           1
            prtwf          -1
            rfdir           1       1       1
           rfelfd           2
            rprim      1.1247805752E+01  0.0000000000E+00  6.4939236785E+00
                       3.7492685839E+00  1.0604532961E+01  6.4939236785E+00
                       0.0000000000E+00  0.0000000000E+00  1.2987847357E+01
          spgroup         225
           strten      0.0000000000E+00  0.0000000000E+00  0.0000000000E+00
                       0.0000000000E+00  0.0000000000E+00  0.0000000000E+00
           symrel      1  0  0   0  1  0   0  0  1      -1  0  0   0 -1  0   0  0 -1
                       0 -1  1   0 -1  0   1 -1  0       0  1 -1   0  1  0  -1  1  0
                      -1  0  0  -1  0  1  -1  1  0       1  0  0   1  0 -1   1 -1  0
                       0  1 -1   1  0 -1   0  0 -1       0 -1  1  -1  0  1   0  0  1
                      -1  0  0  -1  1  0  -1  0  1       1  0  0   1 -1  0   1  0 -1
                       0 -1  1   1 -1  0   0 -1  0       0  1 -1  -1  1  0   0  1  0
                       1  0  0   0  0  1   0  1  0      -1  0  0   0  0 -1   0 -1  0
                       0  1 -1   0  0 -1   1  0 -1       0 -1  1   0  0  1  -1  0  1
                      -1  0  1  -1  1  0  -1  0  0       1  0 -1   1 -1  0   1  0  0
                       0 -1  0   1 -1  0   0 -1  1       0  1  0  -1  1  0   0  1 -1
                       1  0 -1   0  0 -1   0  1 -1      -1  0  1   0  0  1   0 -1  1
                       0  1  0   0  0  1   1  0  0       0 -1  0   0  0 -1  -1  0  0
                       1  0 -1   0  1 -1   0  0 -1      -1  0  1   0 -1  1   0  0  1
                       0 -1  0   0 -1  1   1 -1  0       0  1  0   0  1 -1  -1  1  0
                      -1  0  1  -1  0  0  -1  1  0       1  0 -1   1  0  0   1 -1  0
                       0  1  0   1  0  0   0  0  1       0 -1  0  -1  0  0   0  0 -1
                       0  0 -1   0  1 -1   1  0 -1       0  0  1   0 -1  1  -1  0  1
                       1 -1  0   0 -1  1   0 -1  0      -1  1  0   0  1 -1   0  1  0
                       0  0  1   1  0  0   0  1  0       0  0 -1  -1  0  0   0 -1  0
                      -1  1  0  -1  0  0  -1  0  1       1 -1  0   1  0  0   1  0 -1
                       0  0  1   0  1  0   1  0  0       0  0 -1   0 -1  0  -1  0  0
                       1 -1  0   0 -1  0   0 -1  1      -1  1  0   0  1  0   0  1 -1
                       0  0 -1   1  0 -1   0  1 -1       0  0  1  -1  0  1   0 -1  1
                      -1  1  0  -1  0  1  -1  0  0       1 -1  0   1  0 -1   1  0  0
           tolwfr      1.00000000E-20
            typat      1  1  2  3  3  3  3  3  3
           useylm           1
           xangst      1.9840274835E+00  1.4029192876E+00  3.4364364050E+00
                       5.9520824504E+00  4.2087578629E+00  1.0309309215E+01
                       0.0000000000E+00  0.0000000000E+00  0.0000000000E+00
                       2.9296467265E+00  4.2743695921E+00  5.0742969786E+00
                       1.8912384861E+00  1.3373075584E+00  6.8728728100E+00
                       6.0448714478E+00  4.2743695921E+00  6.8728728100E+00
                       5.0064632073E+00  1.3373075584E+00  8.6714486414E+00
                       5.0064632073E+00  1.3373075584E+00  5.0742969786E+00
                       2.9296467265E+00  4.2743695921E+00  8.6714486414E+00
            xcart      3.7492685839E+00  2.6511332401E+00  6.4939236785E+00
                       1.1247805752E+01  7.9533997205E+00  1.9481771035E+01
                       0.0000000000E+00  0.0000000000E+00  0.0000000000E+00
                       5.5362299793E+00  8.0773879198E+00  9.5890316065E+00
                       3.5739227907E+00  2.5271450408E+00  1.2987847357E+01
                       1.1423151545E+01  8.0773879198E+00  1.2987847357E+01
                       9.4608443562E+00  2.5271450408E+00  1.6386663108E+01
                       9.4608443562E+00  2.5271450408E+00  9.5890316065E+00
                       5.5362299793E+00  8.0773879198E+00  1.6386663108E+01
             xred      2.5000000000E-01  2.5000000000E-01  2.5000000000E-01
                       7.5000000000E-01  7.5000000000E-01  7.5000000000E-01
                       0.0000000000E+00  0.0000000000E+00  0.0000000000E+00
                       2.3830800000E-01  7.6169200000E-01  2.3830800000E-01
                       2.3830800000E-01  2.3830800000E-01  7.6169200000E-01
                       7.6169200000E-01  7.6169200000E-01  2.3830800000E-01
                       7.6169200000E-01  2.3830800000E-01  7.6169200000E-01
                       7.6169200000E-01  2.3830800000E-01  2.3830800000E-01
                       2.3830800000E-01  7.6169200000E-01  7.6169200000E-01
            znucl       19.00000   78.00000   17.00000

- Timing analysis has been suppressed with timopt=0

 Suggested references for the acknowledgment of ABINIT usage.

 Calculation completed.
.Delivered   6 WARNINGs and   5 COMMENTs to log file.