.Version 9.5.2 of ABINIT

 ABINIT is a project of the Universite Catholique de Louvain,
 Corning Inc. and other collaborators, see ~abinit/doc/developers/contributors.txt .
 acknowledgments of the ABINIT effort.

.Starting date : Mon 31 May 2021.
- ( at 23h05 )

- input  file    -> /scratch/users/j/a/jabreu/flow_simple_11atoms/flow/w395/t1/run.abi
- output file    -> /scratch/users/j/a/jabreu/flow_simple_11atoms/flow/w395/t1/run.abo
- root for input  files -> /scratch/users/j/a/jabreu/flow_simple_11atoms/flow/w395/t1/indata/in
- root for output files -> /scratch/users/j/a/jabreu/flow_simple_11atoms/flow/w395/t1/outdata/out

 Symmetries : space group Cm c m (# 63); Bravais oC (1-face-center ortho.)
     intxc =       0      iscf =       7    lmnmax =      32     lnmax =       8
     mgfft =      96  mpssoang =       4    mqgrid =    4388     natom =      12
  nloc_mem =       1    nspden =       1   nspinor =       1    nsppol =       1
      nsym =       8    n1xccc =    2501    ntypat =       3    occopt =       1
   xclevel =       2
-    mband =          77        mffmem =           1         mkmem =           1
-   mkqmem =           1        mk1mem =           1           mpw =       33617
      nfft =      663552          nkpt =           1
  Rough estimation (10% accuracy) of disk space for files :

------------- Echo of variables that govern the present computation ------------
-
- outvars: echo of selected default values
-   iomode0 =  0 , fftalg0 =512 , wfoptalg0 =  0
-
- outvars: echo of global parameters not present in the input file
-  max_nthreads =    0
-
 -outvars: echo values of preprocessed input variables --------
            acell      1.0000000000E+00  1.0000000000E+00  1.0000000000E+00 Bohr
              amu      1.32905430E+02  6.35460000E+01  7.99040000E+01
             ecut      4.60000000E+01 Hartree
-          fftalg         512
           irdden           1
           irdwfk           1
           istwfk        1
              ixc     -116133
           kptopt           0
P           mkmem           1
P          mkqmem           1
P          mk1mem           1
            natom          12
            nband          77
           nbdbuf           4
            ngfft          96      96      72
             nkpt           1
            nstep        2000
             nsym           8
           ntypat           3
              occ      2.000000  2.000000  2.000000  2.000000  2.000000  2.000000
                       2.000000  2.000000  2.000000  2.000000  2.000000  2.000000
                       2.000000  2.000000  2.000000  2.000000  2.000000  2.000000
                       2.000000  2.000000  2.000000  2.000000  2.000000  2.000000
                       2.000000  2.000000  2.000000  2.000000  2.000000  2.000000
                       2.000000  2.000000  2.000000  2.000000  2.000000  2.000000
                       2.000000  2.000000  2.000000  2.000000  2.000000  2.000000
                       2.000000  2.000000  2.000000  2.000000  2.000000  2.000000
                       2.000000  2.000000  2.000000  2.000000  2.000000  2.000000
                       2.000000  2.000000  2.000000  2.000000  2.000000  2.000000
                       2.000000  2.000000  2.000000  2.000000  2.000000  2.000000
                       2.000000  2.000000  0.000000  0.000000  0.000000  0.000000
                       0.000000  0.000000  0.000000  0.000000  0.000000
        optdriver           1
            prtwf          -1
            rfdir           1       1       1
           rfelfd           2
            rprim      1.4857653803E+01  0.0000000000E+00  0.0000000000E+00
                      -3.7794839043E+00  1.4368903157E+01  0.0000000000E+00
                       0.0000000000E+00  0.0000000000E+00  1.0562647871E+01
          spgroup          63
           symrel      1  0  0   0  1  0   0  0  1      -1  0  0   0 -1  0   0  0 -1
                       0 -1  0  -1  0  0   0  0 -1       0  1  0   1  0  0   0  0  1
                      -1  0  0   0 -1  0   0  0  1       1  0  0   0  1  0   0  0 -1
                       0  1  0   1  0  0   0  0 -1       0 -1  0  -1  0  0   0  0  1
            tnons      0.0000000  0.0000000  0.0000000     0.0000000  0.0000000  0.0000000
                       0.0000000  0.0000000  0.5000000     0.0000000  0.0000000  0.5000000
                       0.0000000  0.0000000  0.5000000     0.0000000  0.0000000  0.5000000
                       0.0000000  0.0000000  0.0000000     0.0000000  0.0000000  0.0000000
           tolwfr      1.00000000E-20
            typat      1  1  2  2  2  2  3  3  3  3  3  3
           useylm           1
           xangst      6.1648144781E+00  1.3087557701E+00  1.3973781289E+00
                      -3.0249945484E-01  6.2949402932E+00  4.1921343867E+00
                       3.7226110760E+00  4.8284002261E+00  0.0000000000E+00
                       2.1397039473E+00  2.7752958372E+00  2.7947562578E+00
                       2.1397039473E+00  2.7752958372E+00  0.0000000000E+00
                       3.7226110760E+00  4.8284002261E+00  2.7947562578E+00
                       1.6548907159E+00  4.7858271318E+00  1.3973781289E+00
                       4.2074243073E+00  2.8178689315E+00  4.1921343867E+00
                       5.7012231947E+00  5.0351523257E+00  1.3973781289E+00
                       1.6109182855E-01  2.5685437376E+00  4.1921343867E+00
                       3.4192434098E+00  6.7945183319E+00  4.1921343867E+00
                       2.4430716134E+00  8.0917773136E-01  1.3973781289E+00
            xcart      1.1649811024E+01  2.4731899803E+00  2.6406619677E+00
                      -5.7164112500E-01  1.1895713177E+01  7.9219859031E+00
                       7.0347154328E+00  9.1243540872E+00  0.0000000000E+00
                       4.0434544658E+00  5.2445490701E+00  5.2813239354E+00
                       4.0434544658E+00  5.2445490701E+00  0.0000000000E+00
                       7.0347154328E+00  9.1243540872E+00  5.2813239354E+00
                       3.1272902329E+00  9.0439025984E+00  2.6406619677E+00
                       7.9508796657E+00  5.3250005589E+00  7.9219859031E+00
                       1.0773750460E+01  9.5150589330E+00  2.6406619677E+00
                       3.0441943821E-01  4.8538442243E+00  7.9219859031E+00
                       6.4614336263E+00  1.2839778852E+01  7.9219859031E+00
                       4.6167362723E+00  1.5291243051E+00  2.6406619677E+00
             xred      8.2787900000E-01  1.7212100000E-01  2.5000000000E-01
                       1.7212100000E-01  8.2787900000E-01  7.5000000000E-01
                       6.3500700000E-01  6.3500700000E-01  0.0000000000E+00
                       3.6499300000E-01  3.6499300000E-01  5.0000000000E-01
                       3.6499300000E-01  3.6499300000E-01  0.0000000000E+00
                       6.3500700000E-01  6.3500700000E-01  5.0000000000E-01
                       3.7059200000E-01  6.2940800000E-01  2.5000000000E-01
                       6.2940800000E-01  3.7059200000E-01  7.5000000000E-01
                       8.9358100000E-01  6.6219800000E-01  2.5000000000E-01
                       1.0641900000E-01  3.3780200000E-01  7.5000000000E-01
                       6.6219800000E-01  8.9358100000E-01  7.5000000000E-01
                       3.3780200000E-01  1.0641900000E-01  2.5000000000E-01
            znucl       55.00000   29.00000   35.00000

 chkinp: Checking input parameters for consistency.

== DATASET  1 ==================================================================
-   mpi_nproc: 1, omp_nthreads: -1 (-1 if OMP is not activated)

--- !DatasetInfo
iteration_state: {dtset: 1, }
dimensions: {natom: 12, nkpt: 1, mband: 77, nsppol: 1, nspinor: 1, nspden: 1, mpw: 33617, }
cutoff_energies: {ecut:  46.0, pawecutdg:  -1.0, }
electrons: {nelect:   1.36000000E+02, charge:   0.00000000E+00, occopt:   1.00000000E+00, tsmear:   1.00000000E-02, }
meta: {optdriver: 1, rfelfd: 2, }
...

 Real(R)+Recip(G) space primitive vectors, cartesian coordinates (Bohr,Bohr^-1):
 R(1)= 14.8576538  0.0000000  0.0000000  G(1)=  0.0673054  0.0177035  0.0000000
 R(2)= -3.7794839 14.3689032  0.0000000  G(2)=  0.0000000  0.0695947  0.0000000
 R(3)=  0.0000000  0.0000000 10.5626479  G(3)=  0.0000000  0.0000000  0.0946732
 Unit cell volume ucvol=  2.2550006E+03 bohr^3
 Angles (23,13,12)=  9.00000000E+01  9.00000000E+01  1.04736826E+02 degrees

 getcut: wavevector=  0.0000  0.0000  0.0000  ngfft=  96  96  72
         ecut(hartree)=     46.000   => boxcut(ratio)=   2.11632

--- Pseudopotential description ------------------------------------------------
- pspini: atom type   1  psp file is /scratch/users/j/a/jabreu/pseudos/PBEsol/Cs.psp8
- pspatm: opening atomic psp file    /scratch/users/j/a/jabreu/pseudos/PBEsol/Cs.psp8
- Cs    ONCVPSP-3.3.0  r_core=   2.27353   1.85623   2.01788   1.90105
- 55.00000   9.00000    180112                znucl, zion, pspdat
    8 -116133    3    4       600   0.00000   pspcod,pspxc,lmax,lloc,mmax,r2well
    5.99000000000000    5.00000000000000    0.00000000000000   rchrg,fchrg,qchrg
     nproj     2     2     2     2
     extension_switch     1
  pspatm : epsatm=   22.12462445
         --- l  ekb(1:nproj) -->
             0    6.214110    0.767882
             1    6.311966    0.793598
             2    3.769790    0.913105
             3   -9.247129   -2.432478
 pspatm: atomic psp has been read  and splines computed

- pspini: atom type   2  psp file is /scratch/users/j/a/jabreu/pseudos/PBEsol/Cu.psp8
- pspatm: opening atomic psp file    /scratch/users/j/a/jabreu/pseudos/PBEsol/Cu.psp8
- Cu    ONCVPSP-3.3.0  r_core=   1.26204   1.45626   1.76249
- 29.00000  19.00000    180112                znucl, zion, pspdat
    8 -116133    2    4       600   0.00000   pspcod,pspxc,lmax,lloc,mmax,r2well
    5.99000000000000    3.50000000000000    0.00000000000000   rchrg,fchrg,qchrg
     nproj     2     2     2
     extension_switch     1
  pspatm : epsatm=   21.63488701
         --- l  ekb(1:nproj) -->
             0    5.008230   -0.401634
             1   -3.496700   -0.765945
             2   -6.895851   -2.521180
 pspatm: atomic psp has been read  and splines computed

- pspini: atom type   3  psp file is /scratch/users/j/a/jabreu/pseudos/PBEsol/Br.psp8
- pspatm: opening atomic psp file    /scratch/users/j/a/jabreu/pseudos/PBEsol/Br.psp8
- Br    ONCVPSP-3.3.0  r_core=   1.81012   1.51356   1.92136
- 35.00000   7.00000    180112                znucl, zion, pspdat
    8 -116133    2    4       600   0.00000   pspcod,pspxc,lmax,lloc,mmax,r2well
    5.99000000000000    8.00000000000000    0.00000000000000   rchrg,fchrg,qchrg
     nproj     2     2     2
     extension_switch     1
  pspatm : epsatm=   10.94933070
         --- l  ekb(1:nproj) -->
             0    8.508690    0.897946
             1    5.393311    0.892021
             2    2.527513    0.394763
 pspatm: atomic psp has been read  and splines computed

   2.67219302E+04                                ecore*ucvol(ha*bohr**3)

 ==>  initialize data related to q vector <==

 The list of irreducible perturbations for this q vector is:
    1)    idir= 1    ipert=  13
[...]
   0.00000    0.00000    0.00000    0.00000   -0.00000   -0.00000   -0.00000   -0.00000
   0.00000   -0.00000    0.00000    0.00000    0.00000   -0.00000    0.00000   -0.00000
   0.00000   -0.00000    0.00000   -0.00000   -0.00000   -0.00000    0.00000   -0.00000
   0.00000   -0.00000    0.00000   -0.00000    0.00000   -0.00000   -0.00000   -0.00000
   0.00000    0.00000   -0.00000   -0.00000   -0.00000    0.00000    0.00000   -0.00000
   0.00000    0.00000   -0.00000   -0.00000   -0.00000

 Eight components of 2nd-order total energy (hartree) are
 1,2,3: 0th-order hamiltonian combined with 1st-order wavefunctions
     kin0=   4.54152567E+01 eigvalue=   1.89917290E-02  local=  -2.14547145E+01
 4,5,6: 1st-order hamiltonian combined with 1st and 0th-order wfs
     kin1=  -5.48998603E+01  Hartree=   0.00000000E+00     xc=   0.00000000E+00
 7,8,9: eventually, occupation + non-local contributions
    edocc=   5.47689206E+00     enl0=   1.32267485E+00   enl1=  -6.65834147E+00
 1-9 gives the relaxation energy (to be shifted if some occ is /=2.0)
   erelax=  -3.07791009E+01
  No Ewald or frozen-wf contrib.: the relaxation energy is the total one
 2DEtotal=   -0.3077910087E+02 Ha. Also 2DEtotal=   -0.837541928581E+03 eV
    (  non-var. 2DEtotal :   -3.0779100868E+01 Ha)

 Perturbation wavevector (in red.coord.)   0.000000  0.000000  0.000000
 Perturbation : derivative vs k along direction   2
 The set of symmetries contains only one element for this perturbation.
 symkpt : not enough symmetry to change the number of k points.

[...]

 Perturbation wavevector (in red.coord.)   0.000000  0.000000  0.000000
 Perturbation : derivative vs k along direction   3
 The set of symmetries contains only one element for this perturbation.
 symkpt : not enough symmetry to change the number of k points.

 Initialisation of the first-order wave-functions :
  ireadwf=   0

--- !BeginCycle
iteration_state: {dtset: 1, }
solver: {iscf: 7, nstep: 2000, nline: 4, wfoptalg: 0, }
tolerances: {tolwfr: 1.00E-20, }
...

     iter   2DEtotal(Ha)        deltaE(Ha) residm    vres2
-ETOT  1  -54.408992382867     -5.441E+01 7.926E-02 0.000E+00
 ETOT  2  -54.768012799694     -3.590E-01 8.473E-03 0.000E+00
 ETOT  3  -54.786917179947     -1.890E-02 4.994E-04 0.000E+00
 ETOT  4  -54.788416427510     -1.499E-03 1.054E-04 0.000E+00
 ETOT  5  -54.788560093724     -1.437E-04 9.898E-06 0.000E+00
 ETOT  6  -54.788575460009     -1.537E-05 2.379E-06 0.000E+00
 ETOT  7  -54.788577262672     -1.803E-06 3.190E-07 0.000E+00
 ETOT  8  -54.788577487388     -2.247E-07 7.574E-08 0.000E+00
 ETOT  9  -54.788577516834     -2.945E-08 1.147E-08 0.000E+00
 ETOT 10  -54.788577520826     -3.992E-09 2.609E-09 0.000E+00
 ETOT 11  -54.788577521383     -5.571E-10 4.067E-10 0.000E+00
 ETOT 12  -54.788577521462     -7.905E-11 9.037E-11 0.000E+00
 ETOT 13  -54.788577521474     -1.148E-11 1.423E-11 0.000E+00
 ETOT 14  -54.788577521476     -1.776E-12 3.128E-12 0.000E+00
 ETOT 15  -54.788577521476     -1.990E-13 4.962E-13 0.000E+00
 ETOT 16  -54.788577521476     -8.527E-14 1.084E-13 0.000E+00
 ETOT 17  -54.788577521476      2.842E-14 1.728E-14 0.000E+00
 ETOT 18  -54.788577521476     -7.105E-15 3.763E-15 0.000E+00
 ETOT 19  -54.788577521476      1.421E-14 6.028E-16 0.000E+00
 ETOT 20  -54.788577521476     -1.421E-14 1.309E-16 0.000E+00
 ETOT 21  -54.788577521476      1.421E-14 2.103E-17 0.000E+00
 ETOT 22  -54.788577521476      0.000E+00 4.561E-18 0.000E+00
 ETOT 23  -54.788577521476      0.000E+00 7.351E-19 0.000E+00
 ETOT 24  -54.788577521476      1.421E-14 1.592E-19 0.000E+00
 ETOT 25  -54.788577521476      1.421E-14 2.571E-20 0.000E+00
 ETOT 26  -54.788577521476     -1.421E-14 9.836E-21 0.000E+00

 At SCF step   26   max residual=  9.84E-21 < tolwfr=  1.00E-20 =>converged.

 ----iterations are completed or convergence reached----

 dfpt_looppert: DFPT cycle converged with prtwf=-1. Will skip output of the 1st-order WFK file.
 dfpt_looppert : ek2=    9.6246077081E+01
          f-sum rule ratio=    1.0107672021E+00
 prteigrs : about to open file /scratch/users/j/a/jabreu/flow_simple_11atoms/flow/w395/t1/tmpdata/tmp_1WF1_EIG
 Expectation of eigenvalue derivatives (hartree) for nkpt=   1  k points:
  (in case of degenerate eigenvalues, averaged derivative)
 kpt#   1, nband= 77, wtk=  1.00000, kpt=  0.0000  0.0000  0.0000 (reduced coord)
  -0.00000    0.00000    0.00000    0.00000   -0.00000   -0.00000   -0.00000    0.00000
  -0.00000   -0.00000   -0.00000   -0.00000   -0.00000   -0.00000    0.00000   -0.00000
   0.00000   -0.00000    0.00000   -0.00000    0.00000   -0.00000   -0.00000   -0.00000
  -0.00000   -0.00000    0.00000   -0.00000    0.00000   -0.00000   -0.00000    0.00000
  -0.00000   -0.00000   -0.00000   -0.00000    0.00000    0.00000    0.00000    0.00000
   0.00000    0.00000    0.00000    0.00000   -0.00000   -0.00000    0.00000   -0.00000
  -0.00000   -0.00000   -0.00000   -0.00000    0.00000    0.00000   -0.00000   -0.00000
  -0.00000   -0.00000    0.00000   -0.00000   -0.00000    0.00000   -0.00000    0.00000
   0.00000    0.00000    0.00000   -0.00000    0.00000   -0.00000   -0.00000   -0.00000
  -0.00000    0.00000   -0.00000   -0.00000    0.00000

 Eight components of 2nd-order total energy (hartree) are
 1,2,3: 0th-order hamiltonian combined with 1st-order wavefunctions
     kin0=   8.44736132E+01 eigvalue=   1.89182035E-01  local=  -4.06863460E+01
 4,5,6: 1st-order hamiltonian combined with 1st and 0th-order wfs
     kin1=  -9.72823780E+01  Hartree=   0.00000000E+00     xc=   0.00000000E+00
 7,8,9: eventually, occupation + non-local contributions
    edocc=   8.26603513E+00     enl0=   2.54609323E+00   enl1=  -1.22947770E+01
 1-9 gives the relaxation energy (to be shifted if some occ is /=2.0)
   erelax=  -5.47885775E+01
  No Ewald or frozen-wf contrib.: the relaxation energy is the total one
 2DEtotal=   -0.5478857752E+02 Ha. Also 2DEtotal=   -0.149087301408E+04 eV
    (  non-var. 2DEtotal :   -5.4788577521E+01 Ha)

 CALCULATION OF EFFECTIVE MASSES
 NOTE : Additional infos (eff. mass eigenvalues, eigenvectors and, if degenerate, average mass) are available in stdout.

 K-point ( 0.000, 0.000, 0.000) | band =    68
 Effective mass tensor:
             -1.8105188489              0.7383288341              0.0000000020
              0.7383288341             -1.4221103648             -0.0000000016
              0.0000000020             -0.0000000016             -2.8491192945
 Effective mass tensor eigenvalues:
             -2.8491192945             -2.3797573061             -0.8528719077
 Angular average effective mass 1/(<1/m>)=  -1.5434436273
 Angular average effective mass for Frohlich model (<m**0.5>)**2=  -1.6958896669
 Effective masses along directions: (cart. coord. / red. coord. -> eff. mass)
    1:   1.000000  0.000000  0.000000 /   0.969136 -0.246528  0.000000 ->  -1.4271945439
    2:   0.000000  1.000000  0.000000 /   0.000000  1.000000  0.000000 ->  -1.1210201731
    3:   0.000000  0.000000  1.000000 /   0.000000  0.000000  1.000000 ->  -2.8491192945
    4:   0.577350  0.577350  0.577350 /   0.704752  0.502294  0.501024 ->  -1.1230670221
    5:   0.000000  0.707107  0.707107 /   0.000000  0.805724  0.592291 ->  -1.6089712878
    6:   0.707107  0.000000  0.707107 /   0.798056 -0.203009  0.567357 ->  -1.9017535491
    7:   0.707107  0.707107  0.000000 /   0.814334  0.580396  0.000000 ->  -0.8619683635

 K-point ( 0.000, 0.000, 0.000) | band =    69
 Effective mass tensor:
              0.2970242737             -0.0030256328             -0.0000000000
             -0.0030256328              0.2954325962             -0.0000000000
             -0.0000000000             -0.0000000000              0.3222698908
 Effective mass tensor eigenvalues:
              0.2930998868              0.2993569831              0.3222698908
 Angular average effective mass 1/(<1/m>)=   0.3044050855
 Angular average effective mass for Frohlich model (<m**0.5>)**2=   0.3045543105
 Effective masses along directions: (cart. coord. / red. coord. -> eff. mass)
    1:   1.000000  0.000000  0.000000 /   0.969136 -0.246528  0.000000 ->   0.2969932871
    2:   0.000000  1.000000  0.000000 /   0.000000  1.000000  0.000000 ->   0.2954017756
    3:   0.000000  0.000000  1.000000 /   0.000000  0.000000  1.000000 ->   0.3222698908
    4:   0.577350  0.577350  0.577350 /   0.704752  0.502294  0.501024 ->   0.3022896726
    5:   0.000000  0.707107  0.707107 /   0.000000  0.805724  0.592291 ->   0.3082514648
    6:   0.707107  0.000000  0.707107 /   0.798056 -0.203009  0.567357 ->   0.3091157286
    7:   0.707107  0.707107  0.000000 /   0.814334  0.580396  0.000000 ->   0.2932006857

 END OF EFFECTIVE MASSES SECTION

 ---- first-order wavefunction calculations are completed ----

 Total localisation tensor (bohr^2) in cartesian coordinates
  WARNING : still subject to testing - especially symmetries.
      direction              matrix element
   alpha     beta       real part   imaginary part
     1        1       1.1438317536    0.0000000000
     1        2      -0.2642937412    0.0000000000
     1        3       0.0000000000    0.0000000000
     2        1      -0.2642937412    0.0000000000
     2        2       1.0047962283    0.0000000000
     2        3       0.0000000000    0.0000000000
     3        1       0.0000000000    0.0000000000
     3        2       0.0000000000    0.0000000000
     3        3       0.8889142065    0.0000000000

 respfn : d/dk was computed, but no 2DTE, so no DDB output.

== END DATASET(S) ==============================================================

 -outvars: echo values of variables after computation  --------
            acell      1.0000000000E+00  1.0000000000E+00  1.0000000000E+00 Bohr
              amu      1.32905430E+02  6.35460000E+01  7.99040000E+01
             ecut      4.60000000E+01 Hartree
           etotal     -5.4788577521E+01
            fcart      0.0000000000E+00  0.0000000000E+00  0.0000000000E+00
                       0.0000000000E+00  0.0000000000E+00  0.0000000000E+00
                       0.0000000000E+00  0.0000000000E+00  0.0000000000E+00
                       0.0000000000E+00  0.0000000000E+00  0.0000000000E+00
                       0.0000000000E+00  0.0000000000E+00  0.0000000000E+00
                       0.0000000000E+00  0.0000000000E+00  0.0000000000E+00
                       0.0000000000E+00  0.0000000000E+00  0.0000000000E+00
                       0.0000000000E+00  0.0000000000E+00  0.0000000000E+00
                       0.0000000000E+00  0.0000000000E+00  0.0000000000E+00
                       0.0000000000E+00  0.0000000000E+00  0.0000000000E+00
                       0.0000000000E+00  0.0000000000E+00  0.0000000000E+00
                       0.0000000000E+00  0.0000000000E+00  0.0000000000E+00
-          fftalg         512
           irdden           1
           irdwfk           1
           istwfk        1
              ixc     -116133
           kptopt           0
P           mkmem           1
P          mkqmem           1
P          mk1mem           1
            natom          12
            nband          77
           nbdbuf           4
            ngfft          96      96      72
             nkpt           1
            nstep        2000
             nsym           8
           ntypat           3
              occ      2.000000  2.000000  2.000000  2.000000  2.000000  2.000000
                       2.000000  2.000000  2.000000  2.000000  2.000000  2.000000
                       2.000000  2.000000  2.000000  2.000000  2.000000  2.000000
                       2.000000  2.000000  2.000000  2.000000  2.000000  2.000000
                       2.000000  2.000000  2.000000  2.000000  2.000000  2.000000
                       2.000000  2.000000  2.000000  2.000000  2.000000  2.000000
                       2.000000  2.000000  2.000000  2.000000  2.000000  2.000000
                       2.000000  2.000000  2.000000  2.000000  2.000000  2.000000
                       2.000000  2.000000  2.000000  2.000000  2.000000  2.000000
                       2.000000  2.000000  2.000000  2.000000  2.000000  2.000000
                       2.000000  2.000000  2.000000  2.000000  2.000000  2.000000
                       2.000000  2.000000  0.000000  0.000000  0.000000  0.000000
                       0.000000  0.000000  0.000000  0.000000  0.000000
        optdriver           1
            prtwf          -1
            rfdir           1       1       1
           rfelfd           2
            rprim      1.4857653803E+01  0.0000000000E+00  0.0000000000E+00
                      -3.7794839043E+00  1.4368903157E+01  0.0000000000E+00
                       0.0000000000E+00  0.0000000000E+00  1.0562647871E+01
          spgroup          63
           strten      0.0000000000E+00  0.0000000000E+00  0.0000000000E+00
                       0.0000000000E+00  0.0000000000E+00  0.0000000000E+00
           symrel      1  0  0   0  1  0   0  0  1      -1  0  0   0 -1  0   0  0 -1
                       0 -1  0  -1  0  0   0  0 -1       0  1  0   1  0  0   0  0  1
                      -1  0  0   0 -1  0   0  0  1       1  0  0   0  1  0   0  0 -1
                       0  1  0   1  0  0   0  0 -1       0 -1  0  -1  0  0   0  0  1
            tnons      0.0000000  0.0000000  0.0000000     0.0000000  0.0000000  0.0000000
                       0.0000000  0.0000000  0.5000000     0.0000000  0.0000000  0.5000000
                       0.0000000  0.0000000  0.5000000     0.0000000  0.0000000  0.5000000
                       0.0000000  0.0000000  0.0000000     0.0000000  0.0000000  0.0000000
           tolwfr      1.00000000E-20
            typat      1  1  2  2  2  2  3  3  3  3  3  3
           useylm           1
           xangst      6.1648144781E+00  1.3087557701E+00  1.3973781289E+00
                      -3.0249945484E-01  6.2949402932E+00  4.1921343867E+00
                       3.7226110760E+00  4.8284002261E+00  0.0000000000E+00
                       2.1397039473E+00  2.7752958372E+00  2.7947562578E+00
                       2.1397039473E+00  2.7752958372E+00  0.0000000000E+00
                       3.7226110760E+00  4.8284002261E+00  2.7947562578E+00
                       1.6548907159E+00  4.7858271318E+00  1.3973781289E+00
                       4.2074243073E+00  2.8178689315E+00  4.1921343867E+00
                       5.7012231947E+00  5.0351523257E+00  1.3973781289E+00
                       1.6109182855E-01  2.5685437376E+00  4.1921343867E+00
                       3.4192434098E+00  6.7945183319E+00  4.1921343867E+00
                       2.4430716134E+00  8.0917773136E-01  1.3973781289E+00
            xcart      1.1649811024E+01  2.4731899803E+00  2.6406619677E+00
                      -5.7164112500E-01  1.1895713177E+01  7.9219859031E+00
                       7.0347154328E+00  9.1243540872E+00  0.0000000000E+00
                       4.0434544658E+00  5.2445490701E+00  5.2813239354E+00
                       4.0434544658E+00  5.2445490701E+00  0.0000000000E+00
                       7.0347154328E+00  9.1243540872E+00  5.2813239354E+00
                       3.1272902329E+00  9.0439025984E+00  2.6406619677E+00
                       7.9508796657E+00  5.3250005589E+00  7.9219859031E+00
                       1.0773750460E+01  9.5150589330E+00  2.6406619677E+00
                       3.0441943821E-01  4.8538442243E+00  7.9219859031E+00
                       6.4614336263E+00  1.2839778852E+01  7.9219859031E+00
                       4.6167362723E+00  1.5291243051E+00  2.6406619677E+00
             xred      8.2787900000E-01  1.7212100000E-01  2.5000000000E-01
                       1.7212100000E-01  8.2787900000E-01  7.5000000000E-01
                       6.3500700000E-01  6.3500700000E-01  0.0000000000E+00
                       3.6499300000E-01  3.6499300000E-01  5.0000000000E-01
                       3.6499300000E-01  3.6499300000E-01  0.0000000000E+00
                       6.3500700000E-01  6.3500700000E-01  5.0000000000E-01
                       3.7059200000E-01  6.2940800000E-01  2.5000000000E-01
                       6.2940800000E-01  3.7059200000E-01  7.5000000000E-01
                       8.9358100000E-01  6.6219800000E-01  2.5000000000E-01
                       1.0641900000E-01  3.3780200000E-01  7.5000000000E-01
                       6.6219800000E-01  8.9358100000E-01  7.5000000000E-01
                       3.3780200000E-01  1.0641900000E-01  2.5000000000E-01
            znucl       55.00000   29.00000   35.00000

- Timing analysis has been suppressed with timopt=0

 Suggested references for the acknowledgment of ABINIT usage.

 Calculation completed.
.Delivered   2 WARNINGs and   5 COMMENTs to log file.