.Version 9.5.1 of ABINIT

 ABINIT is a project of the Universite Catholique de Louvain,
 Corning Inc. and other collaborators, see ~abinit/doc/developers/contributors.txt .
 acknowledgments of the ABINIT effort.

.Starting date : Wed  5 May 2021.
- ( at 20h13 )

- input  file    -> /scratch/users/j/a/jabreu/flow_simple_7atoms/flow/w202/t1/run.abi
- output file    -> /scratch/users/j/a/jabreu/flow_simple_7atoms/flow/w202/t1/run.abo
- root for input  files -> /scratch/users/j/a/jabreu/flow_simple_7atoms/flow/w202/t1/indata/in
- root for output files -> /scratch/users/j/a/jabreu/flow_simple_7atoms/flow/w202/t1/outdata/out

 Symmetries : space group I-4 (# 82); Bravais tI (body-center tetrag.)
     intxc =       0      iscf =       7    lmnmax =      18     lnmax =       6
     mgfft =      90  mpssoang =       3    mqgrid =    3169     natom =       7
  nloc_mem =       1    nspden =       1   nspinor =       1    nsppol =       1
      nsym =       4    n1xccc =    2501    ntypat =       3    occopt =       1
   xclevel =       2
-    mband =          64        mffmem =           1         mkmem =           1
-   mkqmem =           1        mk1mem =           1           mpw =       23163
      nfft =      729000          nkpt =           1
  Rough estimation (10% accuracy) of disk space for files :

------------- Echo of variables that govern the present computation ------------
-
- outvars: echo of selected default values
-   iomode0 =  0 , fftalg0 =512 , wfoptalg0 =  0
-
- outvars: echo of global parameters not present in the input file
-  max_nthreads =    0
-
 -outvars: echo values of preprocessed input variables --------
            acell      1.0000000000E+00  1.0000000000E+00  1.0000000000E+00 Bohr
              amu      1.12411000E+02  1.14820000E+02  7.89600000E+01
             ecut      5.10000000E+01 Hartree
-          fftalg         512
           irdden           1
           irdwfk           1
           istwfk        1
              ixc     -116133
           kptopt           0
P           mkmem           1
P          mkqmem           1
P          mk1mem           1
            natom           7
            nband          64
           nbdbuf           4
            ngfft          90      90      90
             nkpt           1
            nstep        2000
             nsym           4
           ntypat           3
              occ      2.000000  2.000000  2.000000  2.000000  2.000000  2.000000
                       2.000000  2.000000  2.000000  2.000000  2.000000  2.000000
                       2.000000  2.000000  2.000000  2.000000  2.000000  2.000000
                       2.000000  2.000000  2.000000  2.000000  2.000000  2.000000
                       2.000000  2.000000  2.000000  2.000000  2.000000  2.000000
                       2.000000  2.000000  2.000000  2.000000  2.000000  2.000000
                       2.000000  2.000000  2.000000  2.000000  2.000000  2.000000
                       2.000000  2.000000  2.000000  2.000000  2.000000  2.000000
                       2.000000  2.000000  2.000000  2.000000  2.000000  2.000000
                       2.000000  0.000000  0.000000  0.000000  0.000000  0.000000
                       0.000000  0.000000  0.000000  0.000000
        optdriver           1
            prtwf          -1
            rfdir           1       1       1
           rfelfd           2
            rprim      1.0068349052E+01  0.0000000000E+00 -8.8793078428E+00
                      -2.0517372823E+00  9.8570800316E+00 -8.8793078428E+00
                       0.0000000000E+00  0.0000000000E+00  1.3424371881E+01
          spgroup          82
           symrel      1  0  0   0  1  0   0  0  1       0  1  0   1  0  0  -1 -1 -1
                      -1 -1 -1   0  0  1   1  0  0       0  0  1  -1 -1 -1   0  1  0
           tolwfr      1.00000000E-20
            typat      1  2  2  3  3  3  3
           useylm           1
           xangst      0.0000000000E+00  0.0000000000E+00  0.0000000000E+00
                       2.1211041192E+00  2.6080710480E+00 -4.6987273385E+00
                       5.1768575570E-01  3.9121065720E+00 -1.1467915190E+00
                       3.2216244139E+00  7.2594614392E-01 -3.2765705766E+00
                       1.8206179071E+00  1.9141846174E+00 -8.5698646464E-02
                       3.5980416411E+00  4.7485006127E+00 -4.8139912212E+00
                      -1.5586748522E-01  3.0436528179E+00  3.5890943683E+00
            xcart      0.0000000000E+00  0.0000000000E+00  0.0000000000E+00
                       4.0083058846E+00  4.9285400158E+00 -8.8793078428E+00
                       9.7828430117E-01  7.3928100237E+00 -2.1671219024E+00
                       6.0879878452E+00  1.3718393992E+00 -6.1918210448E+00
                       3.4404692371E+00  3.6172846947E+00 -1.6194697178E-01
                       6.7993133164E+00  8.9733656998E+00 -9.0971250143E+00
                      -2.9454686008E-01  5.7516702695E+00  6.7824054212E+00
             xred      0.0000000000E+00  0.0000000000E+00  0.0000000000E+00
                       5.0000000000E-01  5.0000000000E-01  0.0000000000E+00
                       2.5000000000E-01  7.5000000000E-01  5.0000000000E-01
                       6.3302675000E-01  1.3917300000E-01  4.9520250000E-02
                       4.1649350000E-01  3.6697325000E-01  5.0614625000E-01
                       8.6082700000E-01  9.1034725000E-01  4.9385375000E-01
                       8.9652750000E-02  5.8350650000E-01  9.5047975000E-01
            znucl       48.00000   49.00000   34.00000

 chkinp: Checking input parameters for consistency.

== DATASET  1 ==================================================================
-   mpi_nproc: 1, omp_nthreads: -1 (-1 if OMP is not activated)

--- !DatasetInfo
iteration_state: {dtset: 1, }
dimensions: {natom: 7, nkpt: 1, mband: 64, nsppol: 1, nspinor: 1, nspden: 1, mpw: 23163, }
cutoff_energies: {ecut:  51.0, pawecutdg:  -1.0, }
electrons: {nelect:   1.10000000E+02, charge:   0.00000000E+00, occopt:   1.00000000E+00, tsmear:   1.00000000E-02, }
meta: {optdriver: 1, rfelfd: 2, }
...

 Real(R)+Recip(G) space primitive vectors, cartesian coordinates (Bohr,Bohr^-1):
 R(1)= 10.0683491  0.0000000 -8.8793078  G(1)=  0.0993211  0.0206736  0.0000000
 R(2)= -2.0517373  9.8570800 -8.8793078  G(2)=  0.0000000  0.1014499  0.0000000
 R(3)=  0.0000000  0.0000000 13.4243719  G(3)=  0.0656942  0.0807764  0.0744914
 Unit cell volume ucvol=  1.3322954E+03 bohr^3
 Angles (23,13,12)=  1.31409170E+02  1.31409170E+02  7.11637955E+01 degrees

 getcut: wavevector=  0.0000  0.0000  0.0000  ngfft=  90  90  90
         ecut(hartree)=     51.000   => boxcut(ratio)=   2.08557

--- Pseudopotential description ------------------------------------------------
- pspini: atom type   1  psp file is /scratch/users/j/a/jabreu/pseudos/PBEsol/Cd.psp8
- pspatm: opening atomic psp file    /scratch/users/j/a/jabreu/pseudos/PBEsol/Cd.psp8
- Cd    ONCVPSP-3.3.0  r_core=   1.25838   1.30423   1.35174
- 48.00000  20.00000    180112                znucl, zion, pspdat
    8 -116133    2    4       600   0.00000   pspcod,pspxc,lmax,lloc,mmax,r2well
    5.99000000000000    6.00000000000000    0.00000000000000   rchrg,fchrg,qchrg
     nproj     2     2     2
     extension_switch     1
  pspatm : epsatm=   23.26728021
         --- l  ekb(1:nproj) -->
             0   63.701523    3.700425
             1    8.703569    1.290373
             2    0.983656   -0.721725
 pspatm: atomic psp has been read  and splines computed

- pspini: atom type   2  psp file is /scratch/users/j/a/jabreu/pseudos/PBEsol/In.psp8
- pspatm: opening atomic psp file    /scratch/users/j/a/jabreu/pseudos/PBEsol/In.psp8
- In    ONCVPSP-3.3.0  r_core=   2.10853   2.37566   1.87143
- 49.00000  13.00000    180112                znucl, zion, pspdat
    8 -116133    2    4       600   0.00000   pspcod,pspxc,lmax,lloc,mmax,r2well
    5.99000000000000    5.00000000000000    0.00000000000000   rchrg,fchrg,qchrg
     nproj     2     2     2
     extension_switch     1
  pspatm : epsatm=   25.17984752
         --- l  ekb(1:nproj) -->
             0   12.999887    1.931740
             1    5.981707    1.012544
             2   -4.048011   -1.239028
 pspatm: atomic psp has been read  and splines computed

- pspini: atom type   3  psp file is /scratch/users/j/a/jabreu/pseudos/PBEsol/Se.psp8
- pspatm: opening atomic psp file    /scratch/users/j/a/jabreu/pseudos/PBEsol/Se.psp8
- Se    ONCVPSP-3.3.0  r_core=   1.81943   1.50330   1.90835
- 34.00000  16.00000    180112                znucl, zion, pspdat
    8 -116133    2    4       600   0.00000   pspcod,pspxc,lmax,lloc,mmax,r2well
    5.99000000000000    5.00000000000000    0.00000000000000   rchrg,fchrg,qchrg
     nproj     2     2     2
     extension_switch     1
  pspatm : epsatm=   29.17862020
         --- l  ekb(1:nproj) -->
             0    8.973804    1.019550
             1    6.849857    1.297308
             2   -9.203962   -3.731027
 pspatm: atomic psp has been read  and splines computed

   2.09375602E+04                                ecore*ucvol(ha*bohr**3)

-inwffil : will read wavefunctions from disk file /scratch/users/j/a/jabreu/flow_simple_7atoms/flow/w202/t1/indata/in_WFK

 ==>  initialize data related to q vector <==

 The list of irreducible perturbations for this q vector is:
    1)    idir= 1    ipert=   8
    2)    idir= 2    ipert=   8
    3)    idir= 3    ipert=   8

 Perturbation wavevector (in red.coord.)   0.000000  0.000000  0.000000
 Perturbation : derivative vs k along direction   1

 dfpt_looppert : COMMENT -
  In a d/dk calculation, iscf is set to -3 automatically.
 The set of symmetries contains only one element for this perturbation.
 symkpt : not enough symmetry to change the number of k points.

[...]

 Initialisation of the first-order wave-functions :
  ireadwf=   0

--- !BeginCycle
iteration_state: {dtset: 1, }
solver: {iscf: 7, nstep: 2000, nline: 4, wfoptalg: 0, }
tolerances: {tolwfr: 1.00E-20, }
...

     iter   2DEtotal(Ha)        deltaE(Ha) residm    vres2
-ETOT  1  -106.91440325089     -1.069E+02 2.625E-01 0.000E+00
 ETOT  2  -107.08179617627     -1.674E-01 4.038E-02 0.000E+00
 ETOT  3  -107.08456176155     -2.766E-03 4.561E-03 0.000E+00
 ETOT  4  -107.08467582037     -1.141E-04 5.032E-04 0.000E+00
 ETOT  5  -107.08468192917     -6.109E-06 7.634E-05 0.000E+00
 ETOT  6  -107.08468235830     -4.291E-07 1.492E-05 0.000E+00
 ETOT  7  -107.08468239875     -4.045E-08 2.682E-06 0.000E+00
 ETOT  8  -107.08468240370     -4.956E-09 5.718E-07 0.000E+00
 ETOT  9  -107.08468240438     -6.785E-10 1.065E-07 0.000E+00
 ETOT 10  -107.08468240448     -9.739E-11 2.324E-08 0.000E+00
 ETOT 11  -107.08468240449     -1.444E-11 4.404E-09 0.000E+00
 ETOT 12  -107.08468240449     -2.231E-12 9.810E-10 0.000E+00
 ETOT 13  -107.08468240449     -3.837E-13 1.869E-10 0.000E+00
 ETOT 14  -107.08468240449     -7.105E-14 4.236E-11 0.000E+00
 ETOT 15  -107.08468240449     -4.263E-14 8.058E-12 0.000E+00
 ETOT 16  -107.08468240449      1.421E-14 1.855E-12 0.000E+00
 ETOT 17  -107.08468240449      7.105E-14 3.509E-13 0.000E+00
 ETOT 18  -107.08468240449      4.263E-14 8.197E-14 0.000E+00
[...]
 kpt#   1, nband= 64, wtk=  1.00000, kpt=  0.0000  0.0000  0.0000 (reduced coord)
  -0.00000   -0.00000    0.00000    0.00000   -0.00000    0.00000    0.00000    0.00000
   0.00000   -0.00000   -0.00000   -0.00000    0.00000   -0.00000    0.00000    0.00000
  -0.00000   -0.00000    0.00000    0.00000   -0.00000   -0.00000   -0.00000   -0.00000
   0.00000   -0.00000   -0.00000   -0.00000    0.00000    0.00000    0.00000   -0.00000
  -0.00000   -0.00000   -0.00000   -0.00000   -0.00000   -0.00000    0.00000   -0.00000
   0.00000    0.00000    0.00000   -0.00000    0.00000   -0.00000    0.00000    0.00000
   0.00000    0.00000    0.00000    0.00000   -0.00000    0.00000    0.00000    0.00000
  -0.00000    0.00000    0.00000    0.00000    0.00000    0.00000   -0.00000   -0.00000

 Eight components of 2nd-order total energy (hartree) are
 1,2,3: 0th-order hamiltonian combined with 1st-order wavefunctions
     kin0=   1.13560886E+02 eigvalue=   1.56133281E+01  local=  -5.25286724E+01
 4,5,6: 1st-order hamiltonian combined with 1st and 0th-order wfs
     kin1=  -1.04726588E+02  Hartree=   0.00000000E+00     xc=   0.00000000E+00
 7,8,9: eventually, occupation + non-local contributions
    edocc=   1.73200467E+01     enl0=   1.31190945E+01   enl1=  -1.09442777E+02
 1-9 gives the relaxation energy (to be shifted if some occ is /=2.0)
   erelax=  -1.07084682E+02
  No Ewald or frozen-wf contrib.: the relaxation energy is the total one
 2DEtotal=   -0.1070846824E+03 Ha. Also 2DEtotal=   -0.291392239843E+04 eV
    (  non-var. 2DEtotal :   -1.0708468240E+02 Ha)

 Perturbation wavevector (in red.coord.)   0.000000  0.000000  0.000000
 Perturbation : derivative vs k along direction   2
 The set of symmetries contains only one element for this perturbation.
 symkpt : not enough symmetry to change the number of k points.

[...]

 Perturbation wavevector (in red.coord.)   0.000000  0.000000  0.000000
 Perturbation : derivative vs k along direction   3
 The set of symmetries contains only one element for this perturbation.
 symkpt : not enough symmetry to change the number of k points.

-inwffil : will read wavefunctions from disk file /scratch/users/j/a/jabreu/flow_simple_7atoms/flow/w202/t1/indata/in_WFK

 Initialisation of the first-order wave-functions :
  ireadwf=   0

--- !BeginCycle
iteration_state: {dtset: 1, }
solver: {iscf: 7, nstep: 2000, nline: 4, wfoptalg: 0, }
tolerances: {tolwfr: 1.00E-20, }
...

     iter   2DEtotal(Ha)        deltaE(Ha) residm    vres2
-ETOT  1  -171.84482045365     -1.718E+02 5.824E-01 0.000E+00
 ETOT  2  -172.08987888593     -2.451E-01 3.958E-02 0.000E+00
 ETOT  3  -172.09269423662     -2.815E-03 5.723E-03 0.000E+00
 ETOT  4  -172.09279632879     -1.021E-04 5.283E-04 0.000E+00
 ETOT  5  -172.09280180994     -5.481E-06 7.555E-05 0.000E+00
 ETOT  6  -172.09280220261     -3.927E-07 8.796E-06 0.000E+00
 ETOT  7  -172.09280224112     -3.851E-08 1.847E-06 0.000E+00
 ETOT  8  -172.09280224635     -5.235E-09 2.046E-07 0.000E+00
 ETOT  9  -172.09280224714     -7.869E-10 5.158E-08 0.000E+00
 ETOT 10  -172.09280224726     -1.233E-10 5.658E-09 0.000E+00
 ETOT 11  -172.09280224728     -1.978E-11 1.516E-09 0.000E+00
 ETOT 12  -172.09280224728     -3.155E-12 1.659E-10 0.000E+00
 ETOT 13  -172.09280224728     -5.116E-13 4.719E-11 0.000E+00
 ETOT 14  -172.09280224728     -1.421E-13 5.209E-12 0.000E+00
 ETOT 15  -172.09280224728      1.137E-13 1.561E-12 0.000E+00
 ETOT 16  -172.09280224728     -1.705E-13 1.753E-13 0.000E+00
 ETOT 17  -172.09280224728      1.990E-13 5.464E-14 0.000E+00
 ETOT 18  -172.09280224728     -2.842E-14 6.260E-15 0.000E+00
 ETOT 19  -172.09280224728     -5.684E-14 1.999E-15 0.000E+00
 ETOT 20  -172.09280224728      2.842E-14 2.332E-16 0.000E+00
 ETOT 21  -172.09280224728     -5.684E-14 7.538E-17 0.000E+00
 ETOT 22  -172.09280224728      5.684E-14 8.913E-18 0.000E+00
 ETOT 23  -172.09280224728     -2.842E-14 2.896E-18 0.000E+00
 ETOT 24  -172.09280224728      0.000E+00 3.458E-19 0.000E+00
 ETOT 25  -172.09280224728     -2.842E-14 1.125E-19 0.000E+00
 ETOT 26  -172.09280224728      2.842E-14 1.352E-20 0.000E+00
 ETOT 27  -172.09280224728     -2.842E-14 9.848E-21 0.000E+00

 At SCF step   27   max residual=  9.85E-21 < tolwfr=  1.00E-20 =>converged.

 ----iterations are completed or convergence reached----

 dfpt_looppert: DFPT cycle converged with prtwf=-1. Will skip output of the 1st-order WFK file.
 dfpt_looppert : ek2=    1.4234703861E+02
          f-sum rule ratio=    1.1924993463E+00
 prteigrs : about to open file /scratch/users/j/a/jabreu/flow_simple_7atoms/flow/w202/t1/tmpdata/tmp_1WF1_EIG
 Expectation of eigenvalue derivatives (hartree) for nkpt=   1  k points:
  (in case of degenerate eigenvalues, averaged derivative)
 kpt#   1, nband= 64, wtk=  1.00000, kpt=  0.0000  0.0000  0.0000 (reduced coord)
  -0.00000   -0.00000    0.00000    0.00000   -0.00000    0.00000    0.00000    0.00000
   0.00000   -0.00000   -0.00000   -0.00000   -0.00000    0.00000    0.00000    0.00000
  -0.00000    0.00000    0.00000    0.00000   -0.00000    0.00000   -0.00000   -0.00000
   0.00000    0.00000    0.00000   -0.00000    0.00000    0.00000    0.00000   -0.00000
  -0.00000   -0.00000   -0.00000   -0.00000   -0.00000   -0.00000   -0.00000   -0.00000
   0.00000    0.00000    0.00000   -0.00000   -0.00000   -0.00000    0.00000    0.00000
   0.00000   -0.00000    0.00000    0.00000   -0.00000    0.00000    0.00000   -0.00000
   0.00000    0.00000    0.00000   -0.00000   -0.00000   -0.00000    0.00000    0.00000

 Eight components of 2nd-order total energy (hartree) are
 1,2,3: 0th-order hamiltonian combined with 1st-order wavefunctions
     kin0=   1.79986621E+02 eigvalue=   2.49725658E+01  local=  -8.32128350E+01
 4,5,6: 1st-order hamiltonian combined with 1st and 0th-order wfs
     kin1=  -1.69748750E+02  Hartree=   0.00000000E+00     xc=   0.00000000E+00
 7,8,9: eventually, occupation + non-local contributions
    edocc=   2.94227980E+01     enl0=   2.09236527E+01   enl1=  -1.74436854E+02
 1-9 gives the relaxation energy (to be shifted if some occ is /=2.0)
   erelax=  -1.72092802E+02
  No Ewald or frozen-wf contrib.: the relaxation energy is the total one
 2DEtotal=   -0.1720928022E+03 Ha. Also 2DEtotal=   -0.468288330149E+04 eV
    (  non-var. 2DEtotal :   -1.7209280225E+02 Ha)

 CALCULATION OF EFFECTIVE MASSES
 NOTE : Additional infos (eff. mass eigenvalues, eigenvectors and, if degenerate, average mass) are available in stdout.

 COMMENTS:
 - At k-point ( 0.000, 0.000, 0.000), bands    54 through    55
   are DEGENERATE (effective mass tensor is therefore not defined).
   See Section IIIB Eqs. (67)-(70) and Appendix E of PRB 93 205147 (2016).
 - Angular average effective mass for Frohlich model is to be averaged over degenerate bands. See later.
 - Associated theta integrals calculated with ntheta=   1000 points.

 K-point ( 0.000, 0.000, 0.000) | band =    54
 Transport equivalent effective mass tensor:
             -0.1658326313             -0.0971415229              0.1750111513
             -0.0971415229             -0.2062723729              0.2151905288
              0.1750111513              0.2151905288             -0.4745183589
 Transport equivalent effective mass tensor eigenvalues:
             -0.6729655170             -0.0868289231             -0.0868289230
 Angular average effective mass 1/(<1/m>)=  -0.1215570199
 Angular average effective mass for Frohlich model (<m**0.5>)**2=  -0.1434703841
 Effective masses along directions: (cart. coord. / red. coord. -> eff. mass)
    1:   1.000000  0.000000  0.000000 /   0.979862 -0.199677  0.000000 ->  -0.1011963425
    2:   0.000000  1.000000  0.000000 /   0.000000  1.000000  0.000000 ->  -0.1103816210
    3:   0.000000  0.000000  1.000000 /  -0.483044 -0.483044  0.730300 ->  -0.1957865544
    4:   0.577350  0.577350  0.577350 /   0.087949 -0.079437  0.992952 ->  -0.0824744850
    5:   0.000000  0.707107  0.707107 /  -0.550659  0.060637  0.832525 ->  -0.0929862051
    6:   0.707107  0.000000  0.707107 /   0.068522 -0.629934  0.773620 ->  -0.0982581185
    7:   0.707107  0.707107  0.000000 /   0.790325  0.612688  0.000000 ->  -0.1170696024

 K-point ( 0.000, 0.000, 0.000) | band =    55
 Transport equivalent effective mass tensor:
             -4.9074273296              0.0067275102             -0.0121203392
              0.0067275102             -4.9046266895             -0.0149029454
             -0.0121203392             -0.0149029454             -4.8860494294
 Transport equivalent effective mass tensor eigenvalues:
             -4.9128987117             -4.9128987083             -4.8723060285
 Angular average effective mass 1/(<1/m>)=  -0.9721756534
 Angular average effective mass for Frohlich model (<m**0.5>)**2=  -1.1257377701
 Effective masses along directions: (cart. coord. / red. coord. -> eff. mass)
    1:   1.000000  0.000000  0.000000 /   0.979862 -0.199677  0.000000 ->  -0.8092048076
    2:   0.000000  1.000000  0.000000 /   0.000000  1.000000  0.000000 ->  -0.7087544548
    3:   0.000000  0.000000  1.000000 /  -0.483044 -0.483044  0.730300 ->  -0.9345194899
    4:   0.577350  0.577350  0.577350 /   0.087949 -0.079437  0.992952 ->  -3.8939834247
    5:   0.000000  0.707107  0.707107 /  -0.550659  0.060637  0.832525 ->  -0.9867351415
    6:   0.707107  0.000000  0.707107 /   0.068522 -0.629934  0.773620 ->  -0.7867579100
    7:   0.707107  0.707107  0.000000 /   0.790325  0.612688  0.000000 ->  -1.4336856369

 Angular average effective mass for Frohlich model, averaged over degenerate bands.
 Value of     (<<m**0.5>>)**2 =     5.182436E-01
 Absolute Value of <<m**0.5>> =     7.198914E-01

 K-point ( 0.000, 0.000, 0.000) | band =    56
 Effective mass tensor:
              0.0923640333              0.0062430081             -0.0112474667
              0.0062430081              0.0949629800             -0.0138296806
             -0.0112474667             -0.0138296806              0.1122023841
 Effective mass tensor eigenvalues:
              0.0872866908              0.0872866909              0.1249560157
 Angular average effective mass 1/(<1/m>)=   0.0970377086
 Angular average effective mass for Frohlich model (<m**0.5>)**2=   0.0978175853
 Effective masses along directions: (cart. coord. / red. coord. -> eff. mass)
    1:   1.000000  0.000000  0.000000 /   0.979862 -0.199677  0.000000 ->   0.0909836322
    2:   0.000000  1.000000  0.000000 /   0.000000  1.000000  0.000000 ->   0.0929998511
    3:   0.000000  0.000000  1.000000 /  -0.483044 -0.483044  0.730300 ->   0.1090260091
    4:   0.577350  0.577350  0.577350 /   0.087949 -0.079437  0.992952 ->   0.0872869345
    5:   0.000000  0.707107  0.707107 /  -0.550659  0.060637  0.832525 ->   0.0890441944
    6:   0.707107  0.000000  0.707107 /   0.068522 -0.629934  0.773620 ->   0.0899865544
    7:   0.707107  0.707107  0.000000 /   0.790325  0.612688  0.000000 ->   0.0970924592

 END OF EFFECTIVE MASSES SECTION

 ---- first-order wavefunction calculations are completed ----

 Total localisation tensor (bohr^2) in cartesian coordinates
  WARNING : still subject to testing - especially symmetries.
      direction              matrix element
   alpha     beta       real part   imaginary part
     1        1       3.9852132219    0.0000000000
     1        2      -0.7633692798    0.0000000000
     1        3      -2.6867954920    0.0000000000
     2        1      -0.7633692798    0.0000000000
     2        2       3.6674247477    0.0000000000
     2        3      -3.3036348717    0.0000000000
     3        1      -2.6867954920    0.0000000000
     3        2      -3.3036348717    0.0000000000
     3        3      17.6313931796    0.0000000000

 respfn : d/dk was computed, but no 2DTE, so no DDB output.

== END DATASET(S) ==============================================================

 -outvars: echo values of variables after computation  --------
            acell      1.0000000000E+00  1.0000000000E+00  1.0000000000E+00 Bohr
              amu      1.12411000E+02  1.14820000E+02  7.89600000E+01
             ecut      5.10000000E+01 Hartree
           etotal     -1.7209280225E+02
            fcart      0.0000000000E+00  0.0000000000E+00  0.0000000000E+00
                       0.0000000000E+00  0.0000000000E+00  0.0000000000E+00
                       0.0000000000E+00  0.0000000000E+00  0.0000000000E+00
                       0.0000000000E+00  0.0000000000E+00  0.0000000000E+00
                       0.0000000000E+00  0.0000000000E+00  0.0000000000E+00
                       0.0000000000E+00  0.0000000000E+00  0.0000000000E+00
                       0.0000000000E+00  0.0000000000E+00  0.0000000000E+00
-          fftalg         512
           irdden           1
           irdwfk           1
           istwfk        1
              ixc     -116133
           kptopt           0
P           mkmem           1
P          mkqmem           1
P          mk1mem           1
            natom           7
            nband          64
           nbdbuf           4
            ngfft          90      90      90
             nkpt           1
            nstep        2000
             nsym           4
           ntypat           3
              occ      2.000000  2.000000  2.000000  2.000000  2.000000  2.000000
                       2.000000  2.000000  2.000000  2.000000  2.000000  2.000000
                       2.000000  2.000000  2.000000  2.000000  2.000000  2.000000
                       2.000000  2.000000  2.000000  2.000000  2.000000  2.000000
                       2.000000  2.000000  2.000000  2.000000  2.000000  2.000000
                       2.000000  2.000000  2.000000  2.000000  2.000000  2.000000
                       2.000000  2.000000  2.000000  2.000000  2.000000  2.000000
                       2.000000  2.000000  2.000000  2.000000  2.000000  2.000000
                       2.000000  2.000000  2.000000  2.000000  2.000000  2.000000
                       2.000000  0.000000  0.000000  0.000000  0.000000  0.000000
                       0.000000  0.000000  0.000000  0.000000
        optdriver           1
            prtwf          -1
            rfdir           1       1       1
           rfelfd           2
            rprim      1.0068349052E+01  0.0000000000E+00 -8.8793078428E+00
                      -2.0517372823E+00  9.8570800316E+00 -8.8793078428E+00
                       0.0000000000E+00  0.0000000000E+00  1.3424371881E+01
          spgroup          82
           strten      0.0000000000E+00  0.0000000000E+00  0.0000000000E+00
                       0.0000000000E+00  0.0000000000E+00  0.0000000000E+00
           symrel      1  0  0   0  1  0   0  0  1       0  1  0   1  0  0  -1 -1 -1
                      -1 -1 -1   0  0  1   1  0  0       0  0  1  -1 -1 -1   0  1  0
           tolwfr      1.00000000E-20
            typat      1  2  2  3  3  3  3
           useylm           1
           xangst      0.0000000000E+00  0.0000000000E+00  0.0000000000E+00
                       2.1211041192E+00  2.6080710480E+00 -4.6987273385E+00
                       5.1768575570E-01  3.9121065720E+00 -1.1467915190E+00
                       3.2216244139E+00  7.2594614392E-01 -3.2765705766E+00
                       1.8206179071E+00  1.9141846174E+00 -8.5698646464E-02
                       3.5980416411E+00  4.7485006127E+00 -4.8139912212E+00
                      -1.5586748522E-01  3.0436528179E+00  3.5890943683E+00
            xcart      0.0000000000E+00  0.0000000000E+00  0.0000000000E+00
                       4.0083058846E+00  4.9285400158E+00 -8.8793078428E+00
                       9.7828430117E-01  7.3928100237E+00 -2.1671219024E+00
                       6.0879878452E+00  1.3718393992E+00 -6.1918210448E+00
                       3.4404692371E+00  3.6172846947E+00 -1.6194697178E-01
                       6.7993133164E+00  8.9733656998E+00 -9.0971250143E+00
                      -2.9454686008E-01  5.7516702695E+00  6.7824054212E+00
             xred      0.0000000000E+00  0.0000000000E+00  0.0000000000E+00
                       5.0000000000E-01  5.0000000000E-01  0.0000000000E+00
                       2.5000000000E-01  7.5000000000E-01  5.0000000000E-01
                       6.3302675000E-01  1.3917300000E-01  4.9520250000E-02
                       4.1649350000E-01  3.6697325000E-01  5.0614625000E-01
                       8.6082700000E-01  9.1034725000E-01  4.9385375000E-01
                       8.9652750000E-02  5.8350650000E-01  9.5047975000E-01
            znucl       48.00000   49.00000   34.00000

- Timing analysis has been suppressed with timopt=0

 Suggested references for the acknowledgment of ABINIT usage.

 Calculation completed.
.Delivered   6 WARNINGs and   5 COMMENTs to log file.