.Version 9.5.2 of ABINIT

 ABINIT is a project of the Universite Catholique de Louvain,
 Corning Inc. and other collaborators, see ~abinit/doc/developers/contributors.txt .
 acknowledgments of the ABINIT effort.

.Starting date : Mon 31 May 2021.
- ( at 22h23 )

- input  file    -> /scratch/users/j/a/jabreu/flow_simple_11atoms/flow/w359/t1/run.abi
- output file    -> /scratch/users/j/a/jabreu/flow_simple_11atoms/flow/w359/t1/run.abo
- root for input  files -> /scratch/users/j/a/jabreu/flow_simple_11atoms/flow/w359/t1/indata/in
- root for output files -> /scratch/users/j/a/jabreu/flow_simple_11atoms/flow/w359/t1/outdata/out

 Symmetries : space group P-6 2 c (#190); Bravais hP (primitive hexag.)
     intxc =       0      iscf =       7    lmnmax =      18     lnmax =       6
     mgfft =     108  mpssoang =       3    mqgrid =    5018     natom =      16
  nloc_mem =       1    nspden =       1   nspinor =       1    nsppol =       1
      nsym =      12    n1xccc =    2501    ntypat =       3    occopt =       1
   xclevel =       2
-    mband =          55        mffmem =           1         mkmem =           1
-   mkqmem =           1        mk1mem =           1           mpw =       15201
      nfft =      314928          nkpt =           1
  Rough estimation (10% accuracy) of disk space for files :

------------- Echo of variables that govern the present computation ------------
-
- outvars: echo of selected default values
-   iomode0 =  0 , fftalg0 =512 , wfoptalg0 =  0
-
- outvars: echo of global parameters not present in the input file
-  max_nthreads =    0
-
 -outvars: echo values of preprocessed input variables --------
            acell      1.0000000000E+00  1.0000000000E+00  1.0000000000E+00 Bohr
              amu      8.76200000E+01  9.01218200E+00  1.59994000E+01
             ecut      4.40000000E+01 Hartree
-          fftalg         512
           irdden           1
           irdwfk           1
           istwfk        1
              ixc     -116133
           kptopt           0
P           mkmem           1
P          mkqmem           1
P          mk1mem           1
            natom          16
            nband          55
           nbdbuf           4
            ngfft          54      54     108
             nkpt           1
            nstep        2000
             nsym          12
           ntypat           3
              occ      2.000000  2.000000  2.000000  2.000000  2.000000  2.000000
                       2.000000  2.000000  2.000000  2.000000  2.000000  2.000000
                       2.000000  2.000000  2.000000  2.000000  2.000000  2.000000
                       2.000000  2.000000  2.000000  2.000000  2.000000  2.000000
                       2.000000  2.000000  2.000000  2.000000  2.000000  2.000000
                       2.000000  2.000000  2.000000  2.000000  2.000000  2.000000
                       2.000000  2.000000  2.000000  2.000000  2.000000  2.000000
                       2.000000  2.000000  2.000000  2.000000  0.000000  0.000000
                       0.000000  0.000000  0.000000  0.000000  0.000000  0.000000
                       0.000000
        optdriver           1
            prtwf          -1
            rfdir           1       1       1
           rfelfd           2
            rprim      8.6575660773E+00  0.0000000000E+00  0.0000000000E+00
                      -4.3287830387E+00  7.4976721579E+00  0.0000000000E+00
                       0.0000000000E+00  0.0000000000E+00  1.6802648521E+01
          spgroup         190
           symrel      1  0  0   0  1  0   0  0  1       0  1  0   1  0  0   0  0  1
                      -1 -1  0   1  0  0   0  0 -1       1  0  0  -1 -1  0   0  0 -1
                       0  1  0  -1 -1  0   0  0  1      -1 -1  0   0  1  0   0  0  1
                       1  0  0   0  1  0   0  0 -1       0  1  0   1  0  0   0  0 -1
                      -1 -1  0   1  0  0   0  0  1       1  0  0  -1 -1  0   0  0  1
                       0  1  0  -1 -1  0   0  0 -1      -1 -1  0   0  1  0   0  0 -1
            tnons      0.0000000  0.0000000  0.0000000     0.0000000 -0.0000000  0.5000000
                       0.0000000 -0.0000000  0.5000000    -0.0000000 -0.0000000  0.0000000
                      -0.0000000 -0.0000000  0.0000000     0.0000000  0.0000000  0.5000000
                       0.0000000  0.0000000  0.5000000     0.0000000 -0.0000000  0.0000000
                       0.0000000 -0.0000000  0.0000000    -0.0000000 -0.0000000  0.5000000
                      -0.0000000 -0.0000000  0.5000000     0.0000000  0.0000000  0.0000000
           tolwfr      1.00000000E-20
            typat      1  1  2  2  2  2  2  2  3  3  3  3  3  3  3  3
           useylm           1
           xangst     -1.7639006744E-11  2.6450648156E+00  6.6686839809E+00
                       2.2906933250E+00  1.3225324078E+00  2.2228946603E+00
                       2.5431804718E-16 -4.4049177899E-16  2.4679088332E-16
                       2.5431804718E-16 -4.4049177899E-16  4.4457893206E+00
                       2.2906933250E+00  1.3225324078E+00  5.0776426820E+00
                       2.2906933250E+00  1.3225324078E+00  8.2597252798E+00
                      -1.7639006744E-11  2.6450648156E+00  3.8139359592E+00
                      -1.7639006744E-11  2.6450648156E+00  6.3185336140E-01
                       1.5354838054E+00 -4.4049177899E-16  4.4457893206E+00
                       1.5229514222E+00  2.6378292408E+00  2.4679088332E-16
                      -1.7639006744E-11  2.6450648156E+00  2.2228946603E+00
                       2.2906933250E+00  1.3225324078E+00  6.6686839809E+00
                       1.5354838054E+00 -4.4049177899E-16  2.4679088332E-16
                       1.5229514222E+00  2.6378292408E+00  4.4457893206E+00
                      -7.6774190273E-01  1.3297679826E+00  4.4457893206E+00
                      -7.6774190273E-01  1.3297679826E+00  2.4679088332E-16
            xcart     -3.3332892002E-11  4.9984481053E+00  1.2601986391E+01
                       4.3287830386E+00  2.4992240526E+00  4.2006621302E+00
                       4.8059145982E-16 -8.3240882608E-16  4.6636718156E-16
                       4.8059145982E-16 -8.3240882608E-16  8.4013242604E+00
                       4.3287830386E+00  2.4992240526E+00  9.5953540696E+00
                       4.3287830386E+00  2.4992240526E+00  1.5608618712E+01
                      -3.3332892002E-11  4.9984481053E+00  7.2072944512E+00
                      -3.3332892002E-11  4.9984481053E+00  1.1940298092E+00
                       2.9016438738E+00 -8.3240882608E-16  8.4013242604E+00
                       2.8779611017E+00  4.9847748505E+00  4.6636718156E-16
                      -3.3332892002E-11  4.9984481053E+00  4.2006621302E+00
                       4.3287830386E+00  2.4992240526E+00  1.2601986391E+01
                       2.9016438738E+00 -8.3240882608E-16  4.6636718156E-16
                       2.8779611017E+00  4.9847748505E+00  8.4013242604E+00
                      -1.4508219369E+00  2.5128973074E+00  8.4013242604E+00
                      -1.4508219369E+00  2.5128973074E+00  4.6636718156E-16
             xred      3.3333333333E-01  6.6666666667E-01  7.5000000000E-01
                       6.6666666667E-01  3.3333333333E-01  2.5000000000E-01
                       0.0000000000E+00 -1.1102230246E-16  2.7755575616E-17
                       0.0000000000E+00 -1.1102230246E-16  5.0000000000E-01
                       6.6666666667E-01  3.3333333333E-01  5.7106200000E-01
                       6.6666666667E-01  3.3333333333E-01  9.2893800000E-01
                       3.3333333333E-01  6.6666666667E-01  4.2893800000E-01
                       3.3333333333E-01  6.6666666667E-01  7.1062000000E-02
                       3.3515700000E-01 -1.1102230246E-16  5.0000000000E-01
                       6.6484300000E-01  6.6484300000E-01  2.7755575616E-17
                       3.3333333333E-01  6.6666666667E-01  2.5000000000E-01
                       6.6666666667E-01  3.3333333333E-01  7.5000000000E-01
                       3.3515700000E-01 -1.1102230246E-16  2.7755575616E-17
                       6.6484300000E-01  6.6484300000E-01  5.0000000000E-01
                       0.0000000000E+00  3.3515700000E-01  5.0000000000E-01
                       0.0000000000E+00  3.3515700000E-01  2.7755575616E-17
            znucl       38.00000    4.00000    8.00000

 chkinp: Checking input parameters for consistency.

== DATASET  1 ==================================================================
-   mpi_nproc: 1, omp_nthreads: -1 (-1 if OMP is not activated)

--- !DatasetInfo
iteration_state: {dtset: 1, }
dimensions: {natom: 16, nkpt: 1, mband: 55, nsppol: 1, nspinor: 1, nspden: 1, mpw: 15201, }
cutoff_energies: {ecut:  44.0, pawecutdg:  -1.0, }
electrons: {nelect:   9.20000000E+01, charge:   0.00000000E+00, occopt:   1.00000000E+00, tsmear:   1.00000000E-02, }
meta: {optdriver: 1, rfelfd: 2, }
...

 Real(R)+Recip(G) space primitive vectors, cartesian coordinates (Bohr,Bohr^-1):
 R(1)=  8.6575661  0.0000000  0.0000000  G(1)=  0.1155059  0.0666874  0.0000000
 R(2)= -4.3287830  7.4976722  0.0000000  G(2)=  0.0000000  0.1333747  0.0000000
 R(3)=  0.0000000  0.0000000 16.8026485  G(3)=  0.0000000  0.0000000  0.0595144
 Unit cell volume ucvol=  1.0906867E+03 bohr^3
 Angles (23,13,12)=  9.00000000E+01  9.00000000E+01  1.20000000E+02 degrees

 getcut: wavevector=  0.0000  0.0000  0.0000  ngfft=  54  54 108
         ecut(hartree)=     44.000   => boxcut(ratio)=   2.08932

--- Pseudopotential description ------------------------------------------------
- pspini: atom type   1  psp file is /scratch/users/j/a/jabreu/pseudos/PBEsol/Sr.psp8
- pspatm: opening atomic psp file    /scratch/users/j/a/jabreu/pseudos/PBEsol/Sr.psp8
- Sr    ONCVPSP-3.3.0  r_core=   1.66721   1.31335   1.51547
- 38.00000  10.00000    180112                znucl, zion, pspdat
    8 -116133    2    4       600   0.00000   pspcod,pspxc,lmax,lloc,mmax,r2well
    5.99000000000000    6.00000000000000    0.00000000000000   rchrg,fchrg,qchrg
     nproj     2     2     2
     extension_switch     1
  pspatm : epsatm=   12.46450977
         --- l  ekb(1:nproj) -->
             0   10.029206    1.044171
             1    7.472414    1.670829
             2    4.142950    0.968140
 pspatm: atomic psp has been read  and splines computed

- pspini: atom type   2  psp file is /scratch/users/j/a/jabreu/pseudos/PBEsol/Be.psp8
- pspatm: opening atomic psp file    /scratch/users/j/a/jabreu/pseudos/PBEsol/Be.psp8
- Be    ONCVPSP-3.3.0  r_core=   1.35684   1.10780
-  4.00000   4.00000    180112                znucl, zion, pspdat
    8 -116133    1    4       400   0.00000   pspcod,pspxc,lmax,lloc,mmax,r2well
    3.99000000000000    0.00000000000000    0.00000000000000   rchrg,fchrg,qchrg
     nproj     2     2
     extension_switch     1
  pspatm : epsatm=    3.86293307
         --- l  ekb(1:nproj) -->
             0   -7.966826   -2.672546
             1   -3.431835   -0.651830
 pspatm: atomic psp has been read  and splines computed

- pspini: atom type   3  psp file is /scratch/users/j/a/jabreu/pseudos/PBEsol/O.psp8
[...]
 ETOT 18  -13.718847700618     -5.329E-15 4.061E-14 0.000E+00
 ETOT 19  -13.718847700618      3.553E-15 1.321E-14 0.000E+00
 ETOT 20  -13.718847700618      5.329E-15 1.914E-15 0.000E+00
 ETOT 21  -13.718847700618     -7.105E-15 6.830E-16 0.000E+00
 ETOT 22  -13.718847700618      0.000E+00 9.329E-17 0.000E+00
 ETOT 23  -13.718847700618      1.776E-15 3.399E-17 0.000E+00
 ETOT 24  -13.718847700618      3.553E-15 4.674E-18 0.000E+00
 ETOT 25  -13.718847700618      1.776E-15 1.665E-18 0.000E+00
 ETOT 26  -13.718847700618     -5.329E-15 2.376E-19 0.000E+00
 ETOT 27  -13.718847700618      0.000E+00 8.172E-20 0.000E+00
 ETOT 28  -13.718847700618      1.776E-15 1.216E-20 0.000E+00
 ETOT 29  -13.718847700618      1.776E-15 9.870E-21 0.000E+00

 At SCF step   29   max residual=  9.87E-21 < tolwfr=  1.00E-20 =>converged.

 ----iterations are completed or convergence reached----

 dfpt_looppert: DFPT cycle converged with prtwf=-1. Will skip output of the 1st-order WFK file.
 dfpt_looppert : ek2=    2.5728950651E+01
          f-sum rule ratio=    1.0202646184E+00
 prteigrs : about to open file /scratch/users/j/a/jabreu/flow_simple_11atoms/flow/w359/t1/tmpdata/tmp_1WF1_EIG
 Expectation of eigenvalue derivatives (hartree) for nkpt=   1  k points:
  (in case of degenerate eigenvalues, averaged derivative)
 kpt#   1, nband= 55, wtk=  1.00000, kpt=  0.0000  0.0000  0.0000 (reduced coord)
   0.00000    0.00000   -0.00000   -0.00000    0.00000    0.00000   -0.00000   -0.00000
   0.00000    0.00000    0.00000    0.00000   -0.00000   -0.00000   -0.00000   -0.00000
  -0.00000    0.00000    0.00000    0.00000    0.00000    0.00000   -0.00000   -0.00000
  -0.00000   -0.00000   -0.00000    0.00000   -0.00000   -0.00000   -0.00000   -0.00000
  -0.00000   -0.00000   -0.00000    0.00000    0.00000    0.00000    0.00000    0.00000
  -0.00000   -0.00000   -0.00000   -0.00000    0.00000    0.00000    0.00000   -0.00000
   0.00000    0.00000    0.00000    0.00000   -0.00000   -0.00001   -0.00009

 Eight components of 2nd-order total energy (hartree) are
 1,2,3: 0th-order hamiltonian combined with 1st-order wavefunctions
     kin0=   1.98141149E+01 eigvalue=   1.02449212E+00  local=  -8.33203389E+00
 4,5,6: 1st-order hamiltonian combined with 1st and 0th-order wfs
     kin1=  -2.62503380E+01  Hartree=   0.00000000E+00     xc=   0.00000000E+00
 7,8,9: eventually, occupation + non-local contributions
    edocc=   2.29210220E+00     enl0=  -1.07982759E+00   enl1=  -1.18735738E+00
 1-9 gives the relaxation energy (to be shifted if some occ is /=2.0)
   erelax=  -1.37188477E+01
  No Ewald or frozen-wf contrib.: the relaxation energy is the total one
 2DEtotal=   -0.1371884770E+02 Ha. Also 2DEtotal=   -0.373308830898E+03 eV
    (  non-var. 2DEtotal :   -1.3718847700E+01 Ha)

 CALCULATION OF EFFECTIVE MASSES
 NOTE : Additional infos (eff. mass eigenvalues, eigenvectors and, if degenerate, average mass) are available in stdout.

 COMMENTS:
 - At k-point ( 0.000, 0.000, 0.000), bands    45 through    46
   are DEGENERATE (effective mass tensor is therefore not defined).
   See Section IIIB Eqs. (67)-(70) and Appendix E of PRB 93 205147 (2016).
 - Angular average effective mass for Frohlich model is to be averaged over degenerate bands. See later.
 - Associated theta integrals calculated with ntheta=   1000 points.

 K-point ( 0.000, 0.000, 0.000) | band =    45
 Transport equivalent effective mass tensor:
             -2.0765811043             -0.0000103825              0.0000046746
             -0.0000103825             -2.0765992081              0.0000036379
              0.0000046746              0.0000036379             -1.0601768463
 Transport equivalent effective mass tensor eigenvalues:
             -2.0766039306             -2.0765763819             -1.0601768463
 Angular average effective mass 1/(<1/m>)=  -1.5736828136
 Angular average effective mass for Frohlich model (<m**0.5>)**2=  -1.6264627842
 Effective masses along directions: (cart. coord. / red. coord. -> eff. mass)
    1:   1.000000  0.000000  0.000000 /   0.894427 -0.447214  0.000000 ->  -2.0765541499
    2:   0.000000  1.000000  0.000000 /   0.000000  1.000000  0.000000 ->  -2.0765722407
    3:   0.000000  0.000000  1.000000 /   0.000000  0.000000  1.000000 ->  -1.0601767995
    4:   0.577350  0.577350  0.577350 /   0.451722  0.165342  0.876704 ->  -1.5736873262
    5:   0.000000  0.707107  0.707107 /   0.000000  0.407492  0.913209 ->  -1.4037011512
    6:   0.707107  0.000000  0.707107 /   0.446468 -0.223234  0.866506 ->  -1.4036997307
    7:   0.707107  0.707107  0.000000 /   0.939071  0.343724  0.000000 ->  -2.0766275186

 K-point ( 0.000, 0.000, 0.000) | band =    46
 Transport equivalent effective mass tensor:
             -2.6233043520              0.0000345947              0.0000059391
              0.0000345947             -2.6233506085              0.0000046019
              0.0000059391              0.0000046019             -1.0601768474
 Transport equivalent effective mass tensor eigenvalues:
             -2.6233690940             -2.6232858665             -1.0601768474
 Angular average effective mass 1/(<1/m>)=  -1.7588815218
 Angular average effective mass for Frohlich model (<m**0.5>)**2=  -1.8695479248
 Effective masses along directions: (cart. coord. / red. coord. -> eff. mass)
    1:   1.000000  0.000000  0.000000 /   0.894427 -0.447214  0.000000 ->  -2.6233473676
    2:   0.000000  1.000000  0.000000 /   0.000000  1.000000  0.000000 ->  -2.6233936408
    3:   0.000000  0.000000  1.000000 /   0.000000  0.000000  1.000000 ->  -1.0601768922
    4:   0.577350  0.577350  0.577350 /   0.451722  0.165342  0.876704 ->  -1.7588548802
    5:   0.000000  0.707107  0.707107 /   0.000000  0.407492  0.913209 ->  -1.5100857414
    6:   0.707107  0.000000  0.707107 /   0.446468 -0.223234  0.866506 ->  -1.5100727653
    7:   0.707107  0.707107  0.000000 /   0.939071  0.343724  0.000000 ->  -2.6232498323

 Angular average effective mass for Frohlich model, averaged over degenerate bands.
 Value of     (<<m**0.5>>)**2 =     1.745890E+00
 Absolute Value of <<m**0.5>> =     1.321321E+00

 K-point ( 0.000, 0.000, 0.000) | band =    47
 Effective mass tensor:
              0.4503706728              0.0000012462              0.0000002321
              0.0000012462              0.4503746876             -0.0000008285
              0.0000002321             -0.0000008285              0.5269415105
 Effective mass tensor eigenvalues:
              0.4503703175              0.4503750430              0.5269415105
 Angular average effective mass 1/(<1/m>)=   0.4732973128
 Angular average effective mass for Frohlich model (<m**0.5>)**2=   0.4740537547
 Effective masses along directions: (cart. coord. / red. coord. -> eff. mass)
    1:   1.000000  0.000000  0.000000 /   0.894427 -0.447214  0.000000 ->   0.4503706728
    2:   0.000000  1.000000  0.000000 /   0.000000  1.000000  0.000000 ->   0.4503746876
    3:   0.000000  0.000000  1.000000 /   0.000000  0.000000  1.000000 ->   0.5269415105
    4:   0.577350  0.577350  0.577350 /   0.451722  0.165342  0.876704 ->   0.4732978551
    5:   0.000000  0.707107  0.707107 /   0.000000  0.407492  0.913209 ->   0.4856580015
    6:   0.707107  0.000000  0.707107 /   0.446468 -0.223234  0.866506 ->   0.4856567214
    7:   0.707107  0.707107  0.000000 /   0.939071  0.343724  0.000000 ->   0.4503739264

 END OF EFFECTIVE MASSES SECTION

 ---- first-order wavefunction calculations are completed ----

 Total localisation tensor (bohr^2) in cartesian coordinates
  WARNING : still subject to testing - especially symmetries.
      direction              matrix element
   alpha     beta       real part   imaginary part
     1        1       1.0617940799    0.0000000000
     1        2      -0.3678126524    0.0000000000
     1        3       0.0000000000    0.0000000000
     2        1      -0.3678126524    0.0000000000
     2        2       0.6370702017    0.0000000000
     2        3       0.0000000000    0.0000000000
     3        1       0.0000000000    0.0000000000
     3        2       0.0000000000    0.0000000000
     3        3       0.6302432441    0.0000000000

 respfn : d/dk was computed, but no 2DTE, so no DDB output.

== END DATASET(S) ==============================================================

 -outvars: echo values of variables after computation  --------
            acell      1.0000000000E+00  1.0000000000E+00  1.0000000000E+00 Bohr
              amu      8.76200000E+01  9.01218200E+00  1.59994000E+01
             ecut      4.40000000E+01 Hartree
           etotal     -1.3718847701E+01
            fcart      0.0000000000E+00  0.0000000000E+00  0.0000000000E+00
                       0.0000000000E+00  0.0000000000E+00  0.0000000000E+00
                       0.0000000000E+00  0.0000000000E+00  0.0000000000E+00
                       0.0000000000E+00  0.0000000000E+00  0.0000000000E+00
                       0.0000000000E+00  0.0000000000E+00  0.0000000000E+00
                       0.0000000000E+00  0.0000000000E+00  0.0000000000E+00
                       0.0000000000E+00  0.0000000000E+00  0.0000000000E+00
                       0.0000000000E+00  0.0000000000E+00  0.0000000000E+00
                       0.0000000000E+00  0.0000000000E+00  0.0000000000E+00
                       0.0000000000E+00  0.0000000000E+00  0.0000000000E+00
                       0.0000000000E+00  0.0000000000E+00  0.0000000000E+00
                       0.0000000000E+00  0.0000000000E+00  0.0000000000E+00
                       0.0000000000E+00  0.0000000000E+00  0.0000000000E+00
                       0.0000000000E+00  0.0000000000E+00  0.0000000000E+00
                       0.0000000000E+00  0.0000000000E+00  0.0000000000E+00
                       0.0000000000E+00  0.0000000000E+00  0.0000000000E+00
-          fftalg         512
           irdden           1
           irdwfk           1
           istwfk        1
              ixc     -116133
           kptopt           0
P           mkmem           1
P          mkqmem           1
P          mk1mem           1
            natom          16
            nband          55
           nbdbuf           4
            ngfft          54      54     108
             nkpt           1
            nstep        2000
             nsym          12
           ntypat           3
              occ      2.000000  2.000000  2.000000  2.000000  2.000000  2.000000
                       2.000000  2.000000  2.000000  2.000000  2.000000  2.000000
                       2.000000  2.000000  2.000000  2.000000  2.000000  2.000000
                       2.000000  2.000000  2.000000  2.000000  2.000000  2.000000
                       2.000000  2.000000  2.000000  2.000000  2.000000  2.000000
                       2.000000  2.000000  2.000000  2.000000  2.000000  2.000000
                       2.000000  2.000000  2.000000  2.000000  2.000000  2.000000
                       2.000000  2.000000  2.000000  2.000000  0.000000  0.000000
                       0.000000  0.000000  0.000000  0.000000  0.000000  0.000000
                       0.000000
        optdriver           1
            prtwf          -1
            rfdir           1       1       1
           rfelfd           2
            rprim      8.6575660773E+00  0.0000000000E+00  0.0000000000E+00
                      -4.3287830387E+00  7.4976721579E+00  0.0000000000E+00
                       0.0000000000E+00  0.0000000000E+00  1.6802648521E+01
          spgroup         190
           strten      0.0000000000E+00  0.0000000000E+00  0.0000000000E+00
                       0.0000000000E+00  0.0000000000E+00  0.0000000000E+00
           symrel      1  0  0   0  1  0   0  0  1       0  1  0   1  0  0   0  0  1
                      -1 -1  0   1  0  0   0  0 -1       1  0  0  -1 -1  0   0  0 -1
                       0  1  0  -1 -1  0   0  0  1      -1 -1  0   0  1  0   0  0  1
                       1  0  0   0  1  0   0  0 -1       0  1  0   1  0  0   0  0 -1
                      -1 -1  0   1  0  0   0  0  1       1  0  0  -1 -1  0   0  0  1
                       0  1  0  -1 -1  0   0  0 -1      -1 -1  0   0  1  0   0  0 -1
            tnons      0.0000000  0.0000000  0.0000000     0.0000000 -0.0000000  0.5000000
                       0.0000000 -0.0000000  0.5000000    -0.0000000 -0.0000000  0.0000000
                      -0.0000000 -0.0000000  0.0000000     0.0000000  0.0000000  0.5000000
                       0.0000000  0.0000000  0.5000000     0.0000000 -0.0000000  0.0000000
                       0.0000000 -0.0000000  0.0000000    -0.0000000 -0.0000000  0.5000000
                      -0.0000000 -0.0000000  0.5000000     0.0000000  0.0000000  0.0000000
           tolwfr      1.00000000E-20
            typat      1  1  2  2  2  2  2  2  3  3  3  3  3  3  3  3
           useylm           1
           xangst     -1.7639006744E-11  2.6450648156E+00  6.6686839809E+00
                       2.2906933250E+00  1.3225324078E+00  2.2228946603E+00
                       2.5431804718E-16 -4.4049177899E-16  2.4679088332E-16
                       2.5431804718E-16 -4.4049177899E-16  4.4457893206E+00
                       2.2906933250E+00  1.3225324078E+00  5.0776426820E+00
                       2.2906933250E+00  1.3225324078E+00  8.2597252798E+00
                      -1.7639006744E-11  2.6450648156E+00  3.8139359592E+00
                      -1.7639006744E-11  2.6450648156E+00  6.3185336140E-01
                       1.5354838054E+00 -4.4049177899E-16  4.4457893206E+00
                       1.5229514222E+00  2.6378292408E+00  2.4679088332E-16
                      -1.7639006744E-11  2.6450648156E+00  2.2228946603E+00
                       2.2906933250E+00  1.3225324078E+00  6.6686839809E+00
                       1.5354838054E+00 -4.4049177899E-16  2.4679088332E-16
                       1.5229514222E+00  2.6378292408E+00  4.4457893206E+00
                      -7.6774190273E-01  1.3297679826E+00  4.4457893206E+00
                      -7.6774190273E-01  1.3297679826E+00  2.4679088332E-16
            xcart     -3.3332892002E-11  4.9984481053E+00  1.2601986391E+01
                       4.3287830386E+00  2.4992240526E+00  4.2006621302E+00
                       4.8059145982E-16 -8.3240882608E-16  4.6636718156E-16
                       4.8059145982E-16 -8.3240882608E-16  8.4013242604E+00
                       4.3287830386E+00  2.4992240526E+00  9.5953540696E+00
                       4.3287830386E+00  2.4992240526E+00  1.5608618712E+01
                      -3.3332892002E-11  4.9984481053E+00  7.2072944512E+00
                      -3.3332892002E-11  4.9984481053E+00  1.1940298092E+00
                       2.9016438738E+00 -8.3240882608E-16  8.4013242604E+00
                       2.8779611017E+00  4.9847748505E+00  4.6636718156E-16
                      -3.3332892002E-11  4.9984481053E+00  4.2006621302E+00
                       4.3287830386E+00  2.4992240526E+00  1.2601986391E+01
                       2.9016438738E+00 -8.3240882608E-16  4.6636718156E-16
                       2.8779611017E+00  4.9847748505E+00  8.4013242604E+00
                      -1.4508219369E+00  2.5128973074E+00  8.4013242604E+00
                      -1.4508219369E+00  2.5128973074E+00  4.6636718156E-16
             xred      3.3333333333E-01  6.6666666667E-01  7.5000000000E-01
                       6.6666666667E-01  3.3333333333E-01  2.5000000000E-01
                       0.0000000000E+00 -1.1102230246E-16  2.7755575616E-17
                       0.0000000000E+00 -1.1102230246E-16  5.0000000000E-01
                       6.6666666667E-01  3.3333333333E-01  5.7106200000E-01
                       6.6666666667E-01  3.3333333333E-01  9.2893800000E-01
                       3.3333333333E-01  6.6666666667E-01  4.2893800000E-01
                       3.3333333333E-01  6.6666666667E-01  7.1062000000E-02
                       3.3515700000E-01 -1.1102230246E-16  5.0000000000E-01
                       6.6484300000E-01  6.6484300000E-01  2.7755575616E-17
                       3.3333333333E-01  6.6666666667E-01  2.5000000000E-01
                       6.6666666667E-01  3.3333333333E-01  7.5000000000E-01
                       3.3515700000E-01 -1.1102230246E-16  2.7755575616E-17
                       6.6484300000E-01  6.6484300000E-01  5.0000000000E-01
                       0.0000000000E+00  3.3515700000E-01  5.0000000000E-01
                       0.0000000000E+00  3.3515700000E-01  2.7755575616E-17
            znucl       38.00000    4.00000    8.00000

- Timing analysis has been suppressed with timopt=0

 Suggested references for the acknowledgment of ABINIT usage.

 Calculation completed.
.Delivered   2 WARNINGs and   5 COMMENTs to log file.