.Version 9.5.1 of ABINIT

 ABINIT is a project of the Universite Catholique de Louvain,
 Corning Inc. and other collaborators, see ~abinit/doc/developers/contributors.txt .
 acknowledgments of the ABINIT effort.

.Starting date : Tue 27 Apr 2021.
- ( at 18h30 )

- input  file    -> /scratch/users/j/a/jabreu/flow_simple_4atoms/flow/w180/t1/run.abi
- output file    -> /scratch/users/j/a/jabreu/flow_simple_4atoms/flow/w180/t1/run.abo
- root for input  files -> /scratch/users/j/a/jabreu/flow_simple_4atoms/flow/w180/t1/indata/in
- root for output files -> /scratch/users/j/a/jabreu/flow_simple_4atoms/flow/w180/t1/outdata/out

 Symmetries : space group R-3 m (#166); Bravais hR (rhombohedral)
     intxc =       0      iscf =       7    lmnmax =      18     lnmax =       6
     mgfft =      90  mpssoang =       3    mqgrid =    3001     natom =       4
  nloc_mem =       1    nspden =       1   nspinor =       1    nsppol =       1
      nsym =      12    n1xccc =    2501    ntypat =       3    occopt =       1
   xclevel =       2
-    mband =          25        mffmem =           1         mkmem =           1
-   mkqmem =           1        mk1mem =           1           mpw =        7826
      nfft =      729000          nkpt =           1
  Rough estimation (10% accuracy) of disk space for files :

------------- Echo of variables that govern the present computation ------------
-
- outvars: echo of selected default values
-   iomode0 =  0 , fftalg0 =512 , wfoptalg0 =  0
-
- outvars: echo of global parameters not present in the input file
-  max_nthreads =    0
-
 -outvars: echo values of preprocessed input variables --------
            acell      1.0000000000E+00  1.0000000000E+00  1.0000000000E+00 Bohr
              amu      8.76200000E+01  1.40067400E+01  3.54527000E+01
             ecut      4.20000000E+01 Hartree
-          fftalg         512
           irdden           1
           irdwfk           1
           istwfk        1
              ixc     -116133
              kpt      5.00000000E-01  5.00000000E-01  0.00000000E+00
           kptopt           0
P           mkmem           1
P          mkqmem           1
P          mk1mem           1
            natom           4
            nband          25
           nbdbuf           4
            ngfft          90      90      90
             nkpt           1
            nstep         100
             nsym          12
           ntypat           3
              occ      2.000000  2.000000  2.000000  2.000000  2.000000  2.000000
                       2.000000  2.000000  2.000000  2.000000  2.000000  2.000000
                       2.000000  2.000000  2.000000  2.000000  0.000000  0.000000
                       0.000000  0.000000  0.000000  0.000000  0.000000  0.000000
                       0.000000
        optdriver           1
            prtwf          -1
            rfdir           1       1       1
           rfelfd           2
            rprim      7.0123264686E+00  0.0000000000E+00  1.1918090393E+01
                       3.2460671672E+00  6.2157678888E+00  1.1918090393E+01
                       0.0000000000E+00  0.0000000000E+00  1.3828000619E+01
          spgroup         166
           symrel      1  0  0   0  1  0   0  0  1      -1  0  0   0 -1  0   0  0 -1
                       0  1  0   1  0  0   0  0  1       0 -1  0  -1  0  0   0  0 -1
                       0  0  1   1  0  0   0  1  0       0  0 -1  -1  0  0   0 -1  0
                       1  0  0   0  0  1   0  1  0      -1  0  0   0  0 -1   0 -1  0
                       0  1  0   0  0  1   1  0  0       0 -1  0   0  0 -1  -1  0  0
                       0  0  1   0  1  0   1  0  0       0  0 -1   0 -1  0  -1  0  0
           tolwfr      1.00000000E-20
            typat      1  1  2  3
           useylm           1
           xangst      4.1771664191E+00  2.5310294980E+00  1.5336665696E+01
                       1.2513416897E+00  7.5821320265E-01  4.5943606839E+00
                       2.7142540544E+00  1.6446213503E+00  9.9655131900E+00
                       0.0000000000E+00  0.0000000000E+00  0.0000000000E+00
            xcart      7.8937005436E+00  4.7829525854E+00  2.8982097957E+01
                       2.3646930922E+00  1.4328153034E+00  8.6820834483E+00
                       5.1291968179E+00  3.1078839444E+00  1.8832090703E+01
                       0.0000000000E+00  0.0000000000E+00  0.0000000000E+00
             xred      7.6948700000E-01  7.6948700000E-01  7.6948700000E-01
                       2.3051300000E-01  2.3051300000E-01  2.3051300000E-01
                       5.0000000000E-01  5.0000000000E-01  5.0000000000E-01
                       0.0000000000E+00  0.0000000000E+00  0.0000000000E+00
            znucl       38.00000    7.00000   17.00000

 chkinp: Checking input parameters for consistency.

== DATASET  1 ==================================================================
-   mpi_nproc: 1, omp_nthreads: -1 (-1 if OMP is not activated)

--- !DatasetInfo
iteration_state: {dtset: 1, }
dimensions: {natom: 4, nkpt: 1, mband: 25, nsppol: 1, nspinor: 1, nspden: 1, mpw: 7826, }
cutoff_energies: {ecut:  42.0, pawecutdg:  -1.0, }
electrons: {nelect:   3.20000000E+01, charge:   0.00000000E+00, occopt:   1.00000000E+00, tsmear:   1.00000000E-02, }
meta: {optdriver: 1, rfelfd: 2, }
...

 Real(R)+Recip(G) space primitive vectors, cartesian coordinates (Bohr,Bohr^-1):
 R(1)=  7.0123265  0.0000000 11.9180904  G(1)=  0.1426060 -0.0744733  0.0000000
 R(2)=  3.2460672  6.2157679 11.9180904  G(2)=  0.0000000  0.1608812  0.0000000
 R(3)=  0.0000000  0.0000000 13.8280006  G(3)= -0.1229094 -0.0744733  0.0723170
 Unit cell volume ucvol=  6.0272098E+02 bohr^3
 Angles (23,13,12)=  3.04715629E+01  3.04715629E+01  3.04715629E+01 degrees

 getcut: wavevector=  0.0000  0.0000  0.0000  ngfft=  90  90  90
         ecut(hartree)=     42.000   => boxcut(ratio)=   2.23110

 getcut : COMMENT -
  Note that boxcut > 2.2 ; recall that boxcut=Gcut(box)/Gcut(sphere) = 2
  is sufficient for exact treatment of convolution.
  Such a large boxcut is a waste : you could raise ecut
  e.g. ecut=   52.267156 Hartrees makes boxcut=2

--- Pseudopotential description ------------------------------------------------
- pspini: atom type   1  psp file is /scratch/users/j/a/jabreu/pseudos/PBEsol/Sr.psp8
- pspatm: opening atomic psp file    /scratch/users/j/a/jabreu/pseudos/PBEsol/Sr.psp8
- Sr    ONCVPSP-3.3.0  r_core=   1.66721   1.31335   1.51547
- 38.00000  10.00000    180112                znucl, zion, pspdat
    8 -116133    2    4       600   0.00000   pspcod,pspxc,lmax,lloc,mmax,r2well
    5.99000000000000    6.00000000000000    0.00000000000000   rchrg,fchrg,qchrg
     nproj     2     2     2
     extension_switch     1
  pspatm : epsatm=   12.46450977
         --- l  ekb(1:nproj) -->
             0   10.029206    1.044171
             1    7.472414    1.670829
             2    4.142950    0.968140
 pspatm: atomic psp has been read  and splines computed

- pspini: atom type   2  psp file is /scratch/users/j/a/jabreu/pseudos/PBEsol/N.psp8
- pspatm: opening atomic psp file    /scratch/users/j/a/jabreu/pseudos/PBEsol/N.psp8
- N     ONCVPSP-3.3.0  r_core=   1.20551   1.35824
-  7.00000   5.00000    180112                znucl, zion, pspdat
    8 -116133    1    4       600   0.00000   pspcod,pspxc,lmax,lloc,mmax,r2well
    5.99000000000000    4.00000000000000    0.00000000000000   rchrg,fchrg,qchrg
     nproj     2     2
     extension_switch     1
  pspatm : epsatm=    5.26508895
         --- l  ekb(1:nproj) -->
             0    7.464189    0.625868
             1   -4.309714   -1.012941
 pspatm: atomic psp has been read  and splines computed

- pspini: atom type   3  psp file is /scratch/users/j/a/jabreu/pseudos/PBEsol/Cl.psp8
- pspatm: opening atomic psp file    /scratch/users/j/a/jabreu/pseudos/PBEsol/Cl.psp8
- Cl    ONCVPSP-3.3.0  r_core=   1.56009   1.35202   1.75774
- 17.00000   7.00000    180112                znucl, zion, pspdat
    8 -116133    2    4       600   0.00000   pspcod,pspxc,lmax,lloc,mmax,r2well
    5.99000000000000    8.00000000000000    0.00000000000000   rchrg,fchrg,qchrg
     nproj     2     2     2
     extension_switch     1
  pspatm : epsatm=    8.95520722
         --- l  ekb(1:nproj) -->
             0    8.193503    0.707970
             1    3.869736    1.114731
             2   -2.915303   -0.810552
 pspatm: atomic psp has been read  and splines computed

   1.25277810E+03                                ecore*ucvol(ha*bohr**3)

-inwffil : will read wavefunctions from disk file /scratch/users/j/a/jabreu/flow_simple_4atoms/flow/w180/t1/indata/in_WFK

 ==>  initialize data related to q vector <==

 The list of irreducible perturbations for this q vector is:
    1)    idir= 1    ipert=   5
    2)    idir= 2    ipert=   5
    3)    idir= 3    ipert=   5

 Perturbation wavevector (in red.coord.)   0.000000  0.000000  0.000000
 Perturbation : derivative vs k along direction   1

 dfpt_looppert : COMMENT -
  In a d/dk calculation, iscf is set to -3 automatically.
 The set of symmetries contains only one element for this perturbation.
 symkpt : not enough symmetry to change the number of k points.

[...]

 Initialisation of the first-order wave-functions :
  ireadwf=   0

--- !BeginCycle
iteration_state: {dtset: 1, }
solver: {iscf: 7, nstep: 100, nline: 4, wfoptalg: 0, }
tolerances: {tolwfr: 1.00E-20, }
...

     iter   2DEtotal(Ha)        deltaE(Ha) residm    vres2
-ETOT  1  -34.263819482943     -3.426E+01 7.622E-02 0.000E+00
 ETOT  2  -34.287384206448     -2.356E-02 6.290E-03 0.000E+00
 ETOT  3  -34.287479502322     -9.530E-05 1.603E-04 0.000E+00
 ETOT  4  -34.287480067077     -5.648E-07 2.308E-05 0.000E+00
 ETOT  5  -34.287480070936     -3.859E-09 7.878E-07 0.000E+00
 ETOT  6  -34.287480070964     -2.819E-11 1.123E-07 0.000E+00
 ETOT  7  -34.287480070964     -2.700E-13 4.877E-09 0.000E+00
 ETOT  8  -34.287480070964     -7.816E-14 7.226E-10 0.000E+00
 ETOT  9  -34.287480070964      1.208E-13 3.261E-11 0.000E+00
 ETOT 10  -34.287480070964     -2.842E-14 4.946E-12 0.000E+00
 ETOT 11  -34.287480070964     -1.421E-14 2.247E-13 0.000E+00
 ETOT 12  -34.287480070964      7.105E-15 3.472E-14 0.000E+00
 ETOT 13  -34.287480070964      1.421E-14 1.579E-15 0.000E+00
 ETOT 14  -34.287480070964      7.105E-15 2.477E-16 0.000E+00
 ETOT 15  -34.287480070964     -7.105E-15 1.125E-17 0.000E+00
 ETOT 16  -34.287480070964     -7.105E-15 1.787E-18 0.000E+00
 ETOT 17  -34.287480070964      7.105E-15 8.098E-20 0.000E+00
 ETOT 18  -34.287480070964     -7.105E-15 1.300E-20 0.000E+00
 ETOT 19  -34.287480070964      0.000E+00 9.654E-21 0.000E+00

 At SCF step   19   max residual=  9.65E-21 < tolwfr=  1.00E-20 =>converged.

 ----iterations are completed or convergence reached----

 dfpt_looppert: DFPT cycle converged with prtwf=-1. Will skip output of the 1st-order WFK file.
 dfpt_looppert : ek2=    6.5395841661E+01
          f-sum rule ratio=    1.0574932574E+00
 prteigrs : about to open file /scratch/users/j/a/jabreu/flow_simple_4atoms/flow/w180/t1/tmpdata/tmp_1WF1_EIG
 Expectation of eigenvalue derivatives (hartree) for nkpt=   1  k points:
  (in case of degenerate eigenvalues, averaged derivative)
 kpt#   1, nband= 25, wtk=  1.00000, kpt=  0.5000  0.5000  0.0000 (reduced coord)
  -0.00000    0.00000   -0.00000    0.00000   -0.00000   -0.00000    0.00000   -0.00000
  -0.00000   -0.00000    0.00000   -0.00000   -0.00000   -0.00000    0.00000    0.00000
  -0.00000   -0.00000   -0.00000   -0.00000    0.00000   -0.00000    0.00000   -0.00000
   0.00000

 Eight components of 2nd-order total energy (hartree) are
 1,2,3: 0th-order hamiltonian combined with 1st-order wavefunctions
     kin0=   3.52447403E+01 eigvalue=   1.45331296E-01  local=  -2.11677277E+01
 4,5,6: 1st-order hamiltonian combined with 1st and 0th-order wfs
     kin1=  -6.91556616E+01  Hartree=   0.00000000E+00     xc=   0.00000000E+00
 7,8,9: eventually, occupation + non-local contributions
    edocc=   1.61097815E+01     enl0=   3.95535466E+00   enl1=   5.80701476E-01
 1-9 gives the relaxation energy (to be shifted if some occ is /=2.0)
   erelax=  -3.42874801E+01
  No Ewald or frozen-wf contrib.: the relaxation energy is the total one
 2DEtotal=   -0.3428748007E+02 Ha. Also 2DEtotal=   -0.933009781803E+03 eV
    (  non-var. 2DEtotal :   -3.4287480071E+01 Ha)

 Perturbation wavevector (in red.coord.)   0.000000  0.000000  0.000000
 Perturbation : derivative vs k along direction   2
 The set of symmetries contains only one element for this perturbation.
 symkpt : not enough symmetry to change the number of k points.

[...]

 Perturbation wavevector (in red.coord.)   0.000000  0.000000  0.000000
 Perturbation : derivative vs k along direction   3
 The set of symmetries contains only one element for this perturbation.
 symkpt : not enough symmetry to change the number of k points.

-inwffil : will read wavefunctions from disk file /scratch/users/j/a/jabreu/flow_simple_4atoms/flow/w180/t1/indata/in_WFK

 Initialisation of the first-order wave-functions :
  ireadwf=   0

--- !BeginCycle
iteration_state: {dtset: 1, }
solver: {iscf: 7, nstep: 100, nline: 4, wfoptalg: 0, }
tolerances: {tolwfr: 1.00E-20, }
...

     iter   2DEtotal(Ha)        deltaE(Ha) residm    vres2
-ETOT  1  -31.206504667968     -3.121E+01 7.421E-02 0.000E+00
 ETOT  2  -31.226603618081     -2.010E-02 2.879E-03 0.000E+00
 ETOT  3  -31.226665904982     -6.229E-05 5.742E-05 0.000E+00
 ETOT  4  -31.226666211081     -3.061E-07 4.632E-06 0.000E+00
 ETOT  5  -31.226666212788     -1.707E-09 1.059E-07 0.000E+00
 ETOT  6  -31.226666212798     -1.017E-11 1.268E-08 0.000E+00
 ETOT  7  -31.226666212798     -9.948E-14 3.586E-10 0.000E+00
 ETOT  8  -31.226666212798      1.315E-13 4.492E-11 0.000E+00
 ETOT  9  -31.226666212798     -1.208E-13 1.409E-12 0.000E+00
 ETOT 10  -31.226666212798      3.553E-14 1.792E-13 0.000E+00
 ETOT 11  -31.226666212798      1.066E-14 5.707E-15 0.000E+00
 ETOT 12  -31.226666212798      0.000E+00 7.329E-16 0.000E+00
 ETOT 13  -31.226666212798      0.000E+00 2.351E-17 0.000E+00
 ETOT 14  -31.226666212798      0.000E+00 3.038E-18 0.000E+00
 ETOT 15  -31.226666212798      7.105E-15 9.782E-20 0.000E+00
 ETOT 16  -31.226666212798     -3.553E-15 1.270E-20 0.000E+00
 ETOT 17  -31.226666212798      0.000E+00 9.823E-21 0.000E+00

 At SCF step   17   max residual=  9.82E-21 < tolwfr=  1.00E-20 =>converged.

 ----iterations are completed or convergence reached----

 dfpt_looppert: DFPT cycle converged with prtwf=-1. Will skip output of the 1st-order WFK file.
 dfpt_looppert : ek2=    6.5395841662E+01
          f-sum rule ratio=    9.5463976533E-01
 prteigrs : about to open file /scratch/users/j/a/jabreu/flow_simple_4atoms/flow/w180/t1/tmpdata/tmp_1WF1_EIG
 Expectation of eigenvalue derivatives (hartree) for nkpt=   1  k points:
  (in case of degenerate eigenvalues, averaged derivative)
 kpt#   1, nband= 25, wtk=  1.00000, kpt=  0.5000  0.5000  0.0000 (reduced coord)
   0.00000    0.00000    0.00000    0.00000   -0.00000    0.00000   -0.00000    0.00000
  -0.00000   -0.00000   -0.00000    0.00000    0.00000    0.00000    0.00000   -0.00000
  -0.00000    0.00000   -0.00000    0.00000    0.00000    0.00000   -0.00000   -0.00000
   0.00000

 Eight components of 2nd-order total energy (hartree) are
 1,2,3: 0th-order hamiltonian combined with 1st-order wavefunctions
     kin0=   4.59030363E+01 eigvalue=  -1.67186985E-01  local=  -2.91516120E+01
 4,5,6: 1st-order hamiltonian combined with 1st and 0th-order wfs
     kin1=  -6.24294709E+01  Hartree=   0.00000000E+00     xc=   0.00000000E+00
 7,8,9: eventually, occupation + non-local contributions
    edocc=   8.55660364E+00     enl0=   6.08582520E+00   enl1=  -2.38614876E-02
 1-9 gives the relaxation energy (to be shifted if some occ is /=2.0)
   erelax=  -3.12266662E+01
  No Ewald or frozen-wf contrib.: the relaxation energy is the total one
 2DEtotal=   -0.3122666621E+02 Ha. Also 2DEtotal=   -0.849720800985E+03 eV
    (  non-var. 2DEtotal :   -3.1226666213E+01 Ha)

 CALCULATION OF EFFECTIVE MASSES
 NOTE : Additional infos (eff. mass eigenvalues, eigenvectors and, if degenerate, average mass) are available in stdout.

 K-point ( 0.500, 0.500, 0.000) | band =    16
 Effective mass tensor:
             -4.4585315482             -2.0684739636              3.5482276699
             -2.0684739636             -2.2980888344              2.1499428446
              3.5482276699              2.1499428446            -10.0341830064
 Effective mass tensor eigenvalues:
            -12.5509267175             -3.1951180048             -1.0447586667
 Angular average effective mass 1/(<1/m>)=  -2.2225321855
 Angular average effective mass for Frohlich model (<m**0.5>)**2=  -2.8498739386
 Effective masses along directions: (cart. coord. / red. coord. -> eff. mass)
    1:   1.000000  0.000000  0.000000 /   0.907486  0.420083  0.000000 ->  -2.2723956791
    2:   0.000000  1.000000  0.000000 /   0.000000  1.000000  0.000000 ->  -1.3032489851
    3:   0.000000  0.000000  1.000000 /   0.546670  0.546670  0.634275 ->  -7.0207742986
    4:   0.577350  0.577350  0.577350 /   0.596644  0.673847  0.435828 ->  -2.9780766366
    5:   0.000000  0.707107  0.707107 /   0.463178  0.704744  0.537403 ->  -1.9666223586
    6:   0.707107  0.000000  0.707107 /   0.678024  0.543129  0.495272 ->  -2.6334496261
    7:   0.707107  0.707107  0.000000 /   0.595423  0.803413  0.000000 ->  -3.4438753490

 K-point ( 0.500, 0.500, 0.000) | band =    17
 Effective mass tensor:
              0.6522464354              0.1473203852             -0.3924567030
              0.1473203852              0.4983758682             -0.2377974426
             -0.3924567030             -0.2377974426              1.0207436295
 Effective mass tensor eigenvalues:
              0.4014787907              0.4091114714              1.3607756711
 Angular average effective mass 1/(<1/m>)=   0.5291016330
 Angular average effective mass for Frohlich model (<m**0.5>)**2=   0.5697237350
 Effective masses along directions: (cart. coord. / red. coord. -> eff. mass)
    1:   1.000000  0.000000  0.000000 /   0.907486  0.420083  0.000000 ->   0.4943021998
    2:   0.000000  1.000000  0.000000 /   0.000000  1.000000  0.000000 ->   0.4367465109
    3:   0.000000  0.000000  1.000000 /   0.546670  0.546670  0.634275 ->   0.7367695077
    4:   0.577350  0.577350  0.577350 /   0.596644  0.673847  0.435828 ->   0.4017818150
    5:   0.000000  0.707107  0.707107 /   0.463178  0.704744  0.537403 ->   0.4427254051
    6:   0.707107  0.000000  0.707107 /   0.678024  0.543129  0.495272 ->   0.4151916948
    7:   0.707107  0.707107  0.000000 /   0.595423  0.803413  0.000000 ->   0.5260109236

 END OF EFFECTIVE MASSES SECTION

 ---- first-order wavefunction calculations are completed ----

 Total localisation tensor (bohr^2) in cartesian coordinates
  WARNING : still subject to testing - especially symmetries.
      direction              matrix element
   alpha     beta       real part   imaginary part
     1        1       1.8031929590    0.0000000000
     1        2       0.6093261116    0.0000000000
     1        3       3.6921856810    0.0000000000
     2        1       0.6093261116    0.0000000000
     2        2       1.1667748951    0.0000000000
     2        3       2.2371698746    0.0000000000
     3        1       3.6921856810    0.0000000000
     3        2       2.2371698746    0.0000000000
     3        3      12.8586238471    0.0000000000

 respfn : d/dk was computed, but no 2DTE, so no DDB output.

== END DATASET(S) ==============================================================

 -outvars: echo values of variables after computation  --------
            acell      1.0000000000E+00  1.0000000000E+00  1.0000000000E+00 Bohr
              amu      8.76200000E+01  1.40067400E+01  3.54527000E+01
             ecut      4.20000000E+01 Hartree
           etotal     -3.1226666213E+01
            fcart      0.0000000000E+00  0.0000000000E+00  0.0000000000E+00
                       0.0000000000E+00  0.0000000000E+00  0.0000000000E+00
                       0.0000000000E+00  0.0000000000E+00  0.0000000000E+00
                       0.0000000000E+00  0.0000000000E+00  0.0000000000E+00
-          fftalg         512
           irdden           1
           irdwfk           1
           istwfk        1
              ixc     -116133
              kpt      5.00000000E-01  5.00000000E-01  0.00000000E+00
           kptopt           0
P           mkmem           1
P          mkqmem           1
P          mk1mem           1
            natom           4
            nband          25
           nbdbuf           4
            ngfft          90      90      90
             nkpt           1
            nstep         100
             nsym          12
           ntypat           3
              occ      2.000000  2.000000  2.000000  2.000000  2.000000  2.000000
                       2.000000  2.000000  2.000000  2.000000  2.000000  2.000000
                       2.000000  2.000000  2.000000  2.000000  0.000000  0.000000
                       0.000000  0.000000  0.000000  0.000000  0.000000  0.000000
                       0.000000
        optdriver           1
            prtwf          -1
            rfdir           1       1       1
           rfelfd           2
            rprim      7.0123264686E+00  0.0000000000E+00  1.1918090393E+01
                       3.2460671672E+00  6.2157678888E+00  1.1918090393E+01
                       0.0000000000E+00  0.0000000000E+00  1.3828000619E+01
          spgroup         166
           strten      0.0000000000E+00  0.0000000000E+00  0.0000000000E+00
                       0.0000000000E+00  0.0000000000E+00  0.0000000000E+00
           symrel      1  0  0   0  1  0   0  0  1      -1  0  0   0 -1  0   0  0 -1
                       0  1  0   1  0  0   0  0  1       0 -1  0  -1  0  0   0  0 -1
                       0  0  1   1  0  0   0  1  0       0  0 -1  -1  0  0   0 -1  0
                       1  0  0   0  0  1   0  1  0      -1  0  0   0  0 -1   0 -1  0
                       0  1  0   0  0  1   1  0  0       0 -1  0   0  0 -1  -1  0  0
                       0  0  1   0  1  0   1  0  0       0  0 -1   0 -1  0  -1  0  0
           tolwfr      1.00000000E-20
            typat      1  1  2  3
           useylm           1
           xangst      4.1771664191E+00  2.5310294980E+00  1.5336665696E+01
                       1.2513416897E+00  7.5821320265E-01  4.5943606839E+00
                       2.7142540544E+00  1.6446213503E+00  9.9655131900E+00
                       0.0000000000E+00  0.0000000000E+00  0.0000000000E+00
            xcart      7.8937005436E+00  4.7829525854E+00  2.8982097957E+01
                       2.3646930922E+00  1.4328153034E+00  8.6820834483E+00
                       5.1291968179E+00  3.1078839444E+00  1.8832090703E+01
                       0.0000000000E+00  0.0000000000E+00  0.0000000000E+00
             xred      7.6948700000E-01  7.6948700000E-01  7.6948700000E-01
                       2.3051300000E-01  2.3051300000E-01  2.3051300000E-01
                       5.0000000000E-01  5.0000000000E-01  5.0000000000E-01
                       0.0000000000E+00  0.0000000000E+00  0.0000000000E+00
            znucl       38.00000    7.00000   17.00000

- Timing analysis has been suppressed with timopt=0

 Suggested references for the acknowledgment of ABINIT usage.

 Calculation completed.
.Delivered   6 WARNINGs and  11 COMMENTs to log file.