.Version 9.5.1 of ABINIT

 ABINIT is a project of the Universite Catholique de Louvain,
 Corning Inc. and other collaborators, see ~abinit/doc/developers/contributors.txt .
 acknowledgments of the ABINIT effort.

.Starting date : Tue 11 May 2021.
- ( at 21h12 )

- input  file    -> /scratch/users/j/a/jabreu/flow_simple_8atoms/flow/w266/t1/run.abi
- output file    -> /scratch/users/j/a/jabreu/flow_simple_8atoms/flow/w266/t1/run.abo
- root for input  files -> /scratch/users/j/a/jabreu/flow_simple_8atoms/flow/w266/t1/indata/in
- root for output files -> /scratch/users/j/a/jabreu/flow_simple_8atoms/flow/w266/t1/outdata/out

 Symmetries : space group Cm c m (# 63); Bravais oC (1-face-center ortho.)
     intxc =       0      iscf =       7    lmnmax =      18     lnmax =       6
     mgfft =      80  mpssoang =       3    mqgrid =    3691     natom =       8
  nloc_mem =       1    nspden =       1   nspinor =       1    nsppol =       1
      nsym =       8    n1xccc =    2501    ntypat =       3    occopt =       1
   xclevel =       2
-    mband =          35        mffmem =           1         mkmem =           1
-   mkqmem =           1        mk1mem =           1           mpw =       15247
      nfft =      480000          nkpt =           1
  Rough estimation (10% accuracy) of disk space for files :

------------- Echo of variables that govern the present computation ------------
-
- outvars: echo of selected default values
-   iomode0 =  0 , fftalg0 =512 , wfoptalg0 =  0
-
- outvars: echo of global parameters not present in the input file
-  max_nthreads =    0
-
 -outvars: echo values of preprocessed input variables --------
            acell      1.0000000000E+00  1.0000000000E+00  1.0000000000E+00 Bohr
              amu      8.54678000E+01  6.94100000E+00  3.54527000E+01
             ecut      3.70000000E+01 Hartree
-          fftalg         512
           irdden           1
           irdwfk           1
           istwfk        1
              ixc     -116133
           kptopt           0
P           mkmem           1
P          mkqmem           1
P          mk1mem           1
            natom           8
            nband          35
           nbdbuf           4
            ngfft          80      80      75
             nkpt           1
            nstep        2000
             nsym           8
           ntypat           3
              occ      2.000000  2.000000  2.000000  2.000000  2.000000  2.000000
                       2.000000  2.000000  2.000000  2.000000  2.000000  2.000000
                       2.000000  2.000000  2.000000  2.000000  2.000000  2.000000
                       2.000000  2.000000  2.000000  2.000000  2.000000  2.000000
                       2.000000  2.000000  0.000000  0.000000  0.000000  0.000000
                       0.000000  0.000000  0.000000  0.000000  0.000000
        optdriver           1
            prtwf          -1
            rfdir           1       1       1
           rfelfd           2
            rprim      1.4042982855E+01  0.0000000000E+00  0.0000000000E+00
                      -1.1907081398E+01  7.4449163901E+00  0.0000000000E+00
                       0.0000000000E+00  0.0000000000E+00  1.3476670637E+01
          spgroup          63
           symrel      1  0  0   0  1  0   0  0  1      -1  0  0   0 -1  0   0  0 -1
                       0  1  0   1  0  0   0  0 -1       0 -1  0  -1  0  0   0  0  1
                      -1  0  0   0 -1  0   0  0  1       1  0  0   0  1  0   0  0 -1
                       0 -1  0  -1  0  0   0  0 -1       0  1  0   1  0  0   0  0  1
            tnons      0.0000000  0.0000000  0.0000000     0.0000000  0.0000000  0.0000000
                       0.0000000 -0.0000000  0.0000000     0.0000000  0.0000000  0.0000000
                       0.0000000  0.0000000  0.5000000     0.0000000  0.0000000  0.5000000
                       0.0000000  0.0000000  0.5000000     0.0000000 -0.0000000  0.5000000
           tolwfr      1.00000000E-20
            typat      1  1  2  2  3  3  3  3
           useylm           1
           xangst     -1.2011942611E+00  2.4765892656E+00  1.7828867372E+00
                       2.3314646322E+00  1.4630908079E+00  5.3486602116E+00
                       5.9893198340E+00  4.1367428708E-01  5.3486602116E+00
                      -4.8590494629E+00  3.5260057864E+00  1.7828867372E+00
                       0.0000000000E+00  0.0000000000E+00  0.0000000000E+00
                       0.0000000000E+00  0.0000000000E+00  3.5657734744E+00
                       3.1881880380E+00  1.2173020475E+00  1.7828867372E+00
                      -2.0579176669E+00  2.7223780260E+00  5.3486602116E+00
            xcart     -2.2699281859E+00  4.6800754556E+00  3.3691676593E+00
                       4.4058296433E+00  2.7648409345E+00  1.0107502978E+01
                       1.1318174208E+01  7.8173111079E-01  1.0107502978E+01
                      -9.1822727510E+00  6.6631852793E+00  3.3691676593E+00
                       0.0000000000E+00  0.0000000000E+00  0.0000000000E+00
                       0.0000000000E+00  0.0000000000E+00  6.7383353185E+00
                       6.0248022519E+00  2.3003674908E+00  3.3691676593E+00
                      -3.8889007945E+00  5.1445488993E+00  1.0107502978E+01
             xred      3.7137300000E-01  6.2862700000E-01  2.5000000000E-01
                       6.2862700000E-01  3.7137300000E-01  7.5000000000E-01
                       8.9499800000E-01  1.0500200000E-01  7.5000000000E-01
                       1.0500200000E-01  8.9499800000E-01  2.5000000000E-01
                       0.0000000000E+00  0.0000000000E+00  0.0000000000E+00
                       0.0000000000E+00  0.0000000000E+00  5.0000000000E-01
                       6.9101500000E-01  3.0898500000E-01  2.5000000000E-01
                       3.0898500000E-01  6.9101500000E-01  7.5000000000E-01
            znucl       37.00000    3.00000   17.00000

 chkinp: Checking input parameters for consistency.

== DATASET  1 ==================================================================
-   mpi_nproc: 1, omp_nthreads: -1 (-1 if OMP is not activated)

--- !DatasetInfo
iteration_state: {dtset: 1, }
dimensions: {natom: 8, nkpt: 1, mband: 35, nsppol: 1, nspinor: 1, nspden: 1, mpw: 15247, }
cutoff_energies: {ecut:  37.0, pawecutdg:  -1.0, }
electrons: {nelect:   5.20000000E+01, charge:   0.00000000E+00, occopt:   1.00000000E+00, tsmear:   1.00000000E-02, }
meta: {optdriver: 1, rfelfd: 2, }
...

 Real(R)+Recip(G) space primitive vectors, cartesian coordinates (Bohr,Bohr^-1):
 R(1)= 14.0429829  0.0000000  0.0000000  G(1)=  0.0712099  0.1138901  0.0000000
 R(2)=-11.9070814  7.4449164  0.0000000  G(2)=  0.0000000  0.1343198  0.0000000
 R(3)=  0.0000000  0.0000000 13.4766706  G(3)=  0.0000000  0.0000000  0.0742023
 Unit cell volume ucvol=  1.4089702E+03 bohr^3
 Angles (23,13,12)=  9.00000000E+01  9.00000000E+01  1.47984270E+02 degrees

 getcut: wavevector=  0.0000  0.0000  0.0000  ngfft=  80  80  75
         ecut(hartree)=     37.000   => boxcut(ratio)=   2.00532

--- Pseudopotential description ------------------------------------------------
- pspini: atom type   1  psp file is /scratch/users/j/a/jabreu/pseudos/PBEsol/Rb.psp8
- pspatm: opening atomic psp file    /scratch/users/j/a/jabreu/pseudos/PBEsol/Rb.psp8
- Rb    ONCVPSP-3.3.0  r_core=   1.71227   1.75361   1.90633
- 37.00000   9.00000    180112                znucl, zion, pspdat
    8 -116133    2    4       600   0.00000   pspcod,pspxc,lmax,lloc,mmax,r2well
    5.99000000000000    7.00000000000000    0.00000000000000   rchrg,fchrg,qchrg
     nproj     2     2     2
     extension_switch     1
  pspatm : epsatm=   34.48400912
         --- l  ekb(1:nproj) -->
             0    8.196957   -0.477221
             1    3.231347   -0.378736
             2   -1.047201    0.996637
 pspatm: atomic psp has been read  and splines computed

- pspini: atom type   2  psp file is /scratch/users/j/a/jabreu/pseudos/PBEsol/Li.psp8
- pspatm: opening atomic psp file    /scratch/users/j/a/jabreu/pseudos/PBEsol/Li.psp8
- Li    ONCVPSP-3.3.0  r_core=   1.40824   1.10935
-  3.00000   3.00000    180112                znucl, zion, pspdat
    8 -116133    1    4       400   0.00000   pspcod,pspxc,lmax,lloc,mmax,r2well
    3.99000000000000    0.00000000000000    0.00000000000000   rchrg,fchrg,qchrg
     nproj     2     2
     extension_switch     1
  pspatm : epsatm=    2.60859637
         --- l  ekb(1:nproj) -->
             0   -4.855856   -1.482423
             1   -2.171544   -0.427615
 pspatm: atomic psp has been read  and splines computed

- pspini: atom type   3  psp file is /scratch/users/j/a/jabreu/pseudos/PBEsol/Cl.psp8
- pspatm: opening atomic psp file    /scratch/users/j/a/jabreu/pseudos/PBEsol/Cl.psp8
- Cl    ONCVPSP-3.3.0  r_core=   1.56009   1.35202   1.75774
- 17.00000   7.00000    180112                znucl, zion, pspdat
    8 -116133    2    4       600   0.00000   pspcod,pspxc,lmax,lloc,mmax,r2well
    5.99000000000000    8.00000000000000    0.00000000000000   rchrg,fchrg,qchrg
     nproj     2     2     2
     extension_switch     1
  pspatm : epsatm=    8.95520722
         --- l  ekb(1:nproj) -->
             0    8.193503    0.707970
             1    3.869736    1.114731
             2   -2.915303   -0.810552
 pspatm: atomic psp has been read  and splines computed

   5.72031407E+03                                ecore*ucvol(ha*bohr**3)

-inwffil : will read wavefunctions from disk file /scratch/users/j/a/jabreu/flow_simple_8atoms/flow/w266/t1/indata/in_WFK

 ==>  initialize data related to q vector <==

 The list of irreducible perturbations for this q vector is:
    1)    idir= 1    ipert=   9
    2)    idir= 2    ipert=   9
    3)    idir= 3    ipert=   9

 Perturbation wavevector (in red.coord.)   0.000000  0.000000  0.000000
 Perturbation : derivative vs k along direction   1

 dfpt_looppert : COMMENT -
  In a d/dk calculation, iscf is set to -3 automatically.
 The set of symmetries contains only one element for this perturbation.
 symkpt : not enough symmetry to change the number of k points.

[...]

 Initialisation of the first-order wave-functions :
  ireadwf=   0

--- !BeginCycle
iteration_state: {dtset: 1, }
solver: {iscf: 7, nstep: 2000, nline: 4, wfoptalg: 0, }
tolerances: {tolwfr: 1.00E-20, }
...

     iter   2DEtotal(Ha)        deltaE(Ha) residm    vres2
-ETOT  1  -40.617206448810     -4.062E+01 2.817E-02 0.000E+00
 ETOT  2  -40.666925302183     -4.972E-02 1.257E-03 0.000E+00
 ETOT  3  -40.667240609602     -3.153E-04 2.307E-05 0.000E+00
 ETOT  4  -40.667243064185     -2.455E-06 2.009E-06 0.000E+00
 ETOT  5  -40.667243084702     -2.052E-08 5.072E-08 0.000E+00
 ETOT  6  -40.667243084879     -1.774E-10 4.541E-09 0.000E+00
 ETOT  7  -40.667243084881     -1.528E-12 1.381E-10 0.000E+00
 ETOT  8  -40.667243084881     -7.105E-15 1.122E-11 0.000E+00
 ETOT  9  -40.667243084881     -5.684E-14 5.342E-13 0.000E+00
 ETOT 10  -40.667243084881      7.105E-15 4.306E-14 0.000E+00
 ETOT 11  -40.667243084881      0.000E+00 2.105E-15 0.000E+00
 ETOT 12  -40.667243084881     -1.421E-14 1.697E-16 0.000E+00
 ETOT 13  -40.667243084881      7.105E-15 8.381E-18 0.000E+00
 ETOT 14  -40.667243084881      0.000E+00 6.789E-19 0.000E+00
 ETOT 15  -40.667243084881     -7.105E-15 3.359E-20 0.000E+00
 ETOT 16  -40.667243084881      0.000E+00 9.314E-21 0.000E+00

 At SCF step   16   max residual=  9.31E-21 < tolwfr=  1.00E-20 =>converged.

 ----iterations are completed or convergence reached----

 dfpt_looppert: DFPT cycle converged with prtwf=-1. Will skip output of the 1st-order WFK file.
 dfpt_looppert : ek2=    7.4075301266E+01
          f-sum rule ratio=    1.1361369550E+00
 prteigrs : about to open file /scratch/users/j/a/jabreu/flow_simple_8atoms/flow/w266/t1/tmpdata/tmp_1WF1_EIG
 Expectation of eigenvalue derivatives (hartree) for nkpt=   1  k points:
  (in case of degenerate eigenvalues, averaged derivative)
 kpt#   1, nband= 35, wtk=  1.00000, kpt=  0.0000  0.0000  0.0000 (reduced coord)
  -0.00000   -0.00000   -0.00000    0.00000   -0.00000   -0.00000    0.00000    0.00000
  -0.00000    0.00000   -0.00000    0.00000   -0.00000   -0.00000   -0.00000    0.00000
   0.00000   -0.00000   -0.00000   -0.00000   -0.00000    0.00000    0.00000    0.00000
  -0.00000   -0.00000    0.00000   -0.00000   -0.00000   -0.00000    0.00000    0.00000
  -0.00000    0.00000    0.00021

 Eight components of 2nd-order total energy (hartree) are
 1,2,3: 0th-order hamiltonian combined with 1st-order wavefunctions
     kin0=   4.46832595E+01 eigvalue=   6.18520615E+00  local=  -2.39539721E+01
 4,5,6: 1st-order hamiltonian combined with 1st and 0th-order wfs
     kin1=  -8.41596872E+01  Hartree=   0.00000000E+00     xc=   0.00000000E+00
 7,8,9: eventually, occupation + non-local contributions
    edocc=   1.39180897E+01     enl0=  -1.65340136E-01   enl1=   2.82520105E+00
 1-9 gives the relaxation energy (to be shifted if some occ is /=2.0)
   erelax=  -4.06672431E+01
  No Ewald or frozen-wf contrib.: the relaxation energy is the total one
 2DEtotal=   -0.4066724308E+02 Ha. Also 2DEtotal=   -0.110661196211E+04 eV
    (  non-var. 2DEtotal :   -4.0667243085E+01 Ha)

 Perturbation wavevector (in red.coord.)   0.000000  0.000000  0.000000
 Perturbation : derivative vs k along direction   2
 The set of symmetries contains only one element for this perturbation.
 symkpt : not enough symmetry to change the number of k points.

[...]

 Perturbation wavevector (in red.coord.)   0.000000  0.000000  0.000000
 Perturbation : derivative vs k along direction   3
 The set of symmetries contains only one element for this perturbation.
 symkpt : not enough symmetry to change the number of k points.

-inwffil : will read wavefunctions from disk file /scratch/users/j/a/jabreu/flow_simple_8atoms/flow/w266/t1/indata/in_WFK

 Initialisation of the first-order wave-functions :
  ireadwf=   0

--- !BeginCycle
iteration_state: {dtset: 1, }
solver: {iscf: 7, nstep: 2000, nline: 4, wfoptalg: 0, }
tolerances: {tolwfr: 1.00E-20, }
...

     iter   2DEtotal(Ha)        deltaE(Ha) residm    vres2
-ETOT  1  -11.531337597313     -1.153E+01 4.676E-02 0.000E+00
 ETOT  2  -11.545874842284     -1.454E-02 1.894E-03 0.000E+00
 ETOT  3  -11.545951387757     -7.655E-05 1.713E-04 0.000E+00
 ETOT  4  -11.545951921605     -5.338E-07 1.032E-05 0.000E+00
 ETOT  5  -11.545951925748     -4.143E-09 1.098E-06 0.000E+00
 ETOT  6  -11.545951925782     -3.390E-11 7.368E-08 0.000E+00
 ETOT  7  -11.545951925782     -2.878E-13 7.753E-09 0.000E+00
 ETOT  8  -11.545951925782      1.243E-14 5.466E-10 0.000E+00
 ETOT  9  -11.545951925782     -3.375E-14 5.799E-11 0.000E+00
 ETOT 10  -11.545951925782     -1.066E-14 4.219E-12 0.000E+00
 ETOT 11  -11.545951925782      1.776E-15 4.552E-13 0.000E+00
 ETOT 12  -11.545951925782      0.000E+00 3.347E-14 0.000E+00
 ETOT 13  -11.545951925782      0.000E+00 3.680E-15 0.000E+00
 ETOT 14  -11.545951925782      0.000E+00 2.699E-16 0.000E+00
 ETOT 15  -11.545951925782      1.776E-15 3.020E-17 0.000E+00
 ETOT 16  -11.545951925782     -1.776E-15 2.201E-18 0.000E+00
 ETOT 17  -11.545951925782      0.000E+00 2.498E-19 0.000E+00
 ETOT 18  -11.545951925782     -1.776E-15 1.811E-20 0.000E+00
 ETOT 19  -11.545951925782      0.000E+00 9.890E-21 0.000E+00

 At SCF step   19   max residual=  9.89E-21 < tolwfr=  1.00E-20 =>converged.

 ----iterations are completed or convergence reached----

 dfpt_looppert: DFPT cycle converged with prtwf=-1. Will skip output of the 1st-order WFK file.
 dfpt_looppert : ek2=    2.2606214645E+01
          f-sum rule ratio=    1.0560307988E+00
 prteigrs : about to open file /scratch/users/j/a/jabreu/flow_simple_8atoms/flow/w266/t1/tmpdata/tmp_1WF1_EIG
 Expectation of eigenvalue derivatives (hartree) for nkpt=   1  k points:
  (in case of degenerate eigenvalues, averaged derivative)
 kpt#   1, nband= 35, wtk=  1.00000, kpt=  0.0000  0.0000  0.0000 (reduced coord)
   0.00000   -0.00000    0.00000   -0.00000    0.00000    0.00000   -0.00000   -0.00000
   0.00000    0.00000   -0.00000   -0.00000   -0.00000   -0.00000    0.00000   -0.00000
   0.00000   -0.00000   -0.00000    0.00000    0.00000    0.00000   -0.00000   -0.00000
   0.00000   -0.00000   -0.00000   -0.00000    0.00000    0.00000   -0.00000    0.00000
  -0.00000   -0.00000    0.00005

 Eight components of 2nd-order total energy (hartree) are
 1,2,3: 0th-order hamiltonian combined with 1st-order wavefunctions
     kin0=   1.40061324E+01 eigvalue=   1.91943798E+00  local=  -7.51198920E+00
 4,5,6: 1st-order hamiltonian combined with 1st and 0th-order wfs
     kin1=  -2.38728589E+01  Hartree=   0.00000000E+00     xc=   0.00000000E+00
 7,8,9: eventually, occupation + non-local contributions
    edocc=   3.08773591E+00     enl0=   4.46348251E-02   enl1=   7.80955058E-01
 1-9 gives the relaxation energy (to be shifted if some occ is /=2.0)
   erelax=  -1.15459519E+01
  No Ewald or frozen-wf contrib.: the relaxation energy is the total one
 2DEtotal=   -0.1154595193E+02 Ha. Also 2DEtotal=   -0.314181329882E+03 eV
    (  non-var. 2DEtotal :   -1.1545951926E+01 Ha)

 CALCULATION OF EFFECTIVE MASSES
 NOTE : Additional infos (eff. mass eigenvalues, eigenvectors and, if degenerate, average mass) are available in stdout.

 K-point ( 0.000, 0.000, 0.000) | band =    26
 Effective mass tensor:
             -7.9951605411             -3.0149756007             -0.0000095231
             -3.0149756007            -17.6390869988             -0.0000391859
             -0.0000095231             -0.0000391859             -0.5070800708
 Effective mass tensor eigenvalues:
            -18.5040743811             -7.1301731588             -0.5070800708
 Angular average effective mass 1/(<1/m>)=  -1.3848073377
 Angular average effective mass for Frohlich model (<m**0.5>)**2=  -2.6082197210
 Effective masses along directions: (cart. coord. / red. coord. -> eff. mass)
    1:   1.000000  0.000000  0.000000 /   0.762728 -0.646719  0.000000 ->  -7.4798233315
    2:   0.000000  1.000000  0.000000 /   0.000000  1.000000  0.000000 -> -16.5021394858
    3:   0.000000  0.000000  1.000000 /   0.000000  0.000000  1.000000 ->  -0.5070800708
    4:   0.577350  0.577350  0.577350 /   0.703260 -0.223461  0.674900 ->  -1.4146584868
    5:   0.000000  0.707107  0.707107 /   0.000000  0.483551  0.875316 ->  -0.9839300449
    6:   0.707107  0.000000  0.707107 /   0.615468 -0.521857  0.590648 ->  -0.9497728560
    7:   0.707107  0.707107  0.000000 /   0.953044 -0.302830  0.000000 -> -13.4600346976

 K-point ( 0.000, 0.000, 0.000) | band =    27
 Effective mass tensor:
              0.4414298474             -0.0026100103             -0.0000026466
             -0.0026100103              0.4330820665              0.0000007466
             -0.0000026466              0.0000007466              0.4245665025
 Effective mass tensor eigenvalues:
              0.4245665021              0.4323332021              0.4421787123
 Angular average effective mass 1/(<1/m>)=   0.4329064655
 Angular average effective mass for Frohlich model (<m**0.5>)**2=   0.4329423224
 Effective masses along directions: (cart. coord. / red. coord. -> eff. mass)
    1:   1.000000  0.000000  0.000000 /   0.762728 -0.646719  0.000000 ->   0.4414141180
    2:   0.000000  1.000000  0.000000 /   0.000000  1.000000  0.000000 ->   0.4330666345
    3:   0.000000  0.000000  1.000000 /   0.000000  0.000000  1.000000 ->   0.4245665025
    4:   0.577350  0.577350  0.577350 /   0.703260 -0.223461  0.674900 ->   0.4312061269
    5:   0.000000  0.707107  0.707107 /   0.000000  0.483551  0.875316 ->   0.4287751763
    6:   0.707107  0.000000  0.707107 /   0.615468 -0.521857  0.590648 ->   0.4328237843
    7:   0.707107  0.707107  0.000000 /   0.953044 -0.302830  0.000000 ->   0.4346063406

 END OF EFFECTIVE MASSES SECTION

 ---- first-order wavefunction calculations are completed ----

 Total localisation tensor (bohr^2) in cartesian coordinates
  WARNING : still subject to testing - especially symmetries.
      direction              matrix element
   alpha     beta       real part   imaginary part
     1        1       6.7432244658    0.0000000000
     1        2      -1.7634117261    0.0000000000
     1        3       0.0000000000    0.0000000000
     2        1      -1.7634117261    0.0000000000
     2        2       1.1025752175    0.0000000000
     2        3       0.0000000000    0.0000000000
     3        1       0.0000000000    0.0000000000
     3        2       0.0000000000    0.0000000000
     3        3       0.9657276360    0.0000000000

 respfn : d/dk was computed, but no 2DTE, so no DDB output.

== END DATASET(S) ==============================================================

 -outvars: echo values of variables after computation  --------
            acell      1.0000000000E+00  1.0000000000E+00  1.0000000000E+00 Bohr
              amu      8.54678000E+01  6.94100000E+00  3.54527000E+01
             ecut      3.70000000E+01 Hartree
           etotal     -1.1545951926E+01
            fcart      0.0000000000E+00  0.0000000000E+00  0.0000000000E+00
                       0.0000000000E+00  0.0000000000E+00  0.0000000000E+00
                       0.0000000000E+00  0.0000000000E+00  0.0000000000E+00
                       0.0000000000E+00  0.0000000000E+00  0.0000000000E+00
                       0.0000000000E+00  0.0000000000E+00  0.0000000000E+00
                       0.0000000000E+00  0.0000000000E+00  0.0000000000E+00
                       0.0000000000E+00  0.0000000000E+00  0.0000000000E+00
                       0.0000000000E+00  0.0000000000E+00  0.0000000000E+00
-          fftalg         512
           irdden           1
           irdwfk           1
           istwfk        1
              ixc     -116133
           kptopt           0
P           mkmem           1
P          mkqmem           1
P          mk1mem           1
            natom           8
            nband          35
           nbdbuf           4
            ngfft          80      80      75
             nkpt           1
            nstep        2000
             nsym           8
           ntypat           3
              occ      2.000000  2.000000  2.000000  2.000000  2.000000  2.000000
                       2.000000  2.000000  2.000000  2.000000  2.000000  2.000000
                       2.000000  2.000000  2.000000  2.000000  2.000000  2.000000
                       2.000000  2.000000  2.000000  2.000000  2.000000  2.000000
                       2.000000  2.000000  0.000000  0.000000  0.000000  0.000000
                       0.000000  0.000000  0.000000  0.000000  0.000000
        optdriver           1
            prtwf          -1
            rfdir           1       1       1
           rfelfd           2
            rprim      1.4042982855E+01  0.0000000000E+00  0.0000000000E+00
                      -1.1907081398E+01  7.4449163901E+00  0.0000000000E+00
                       0.0000000000E+00  0.0000000000E+00  1.3476670637E+01
          spgroup          63
           strten      0.0000000000E+00  0.0000000000E+00  0.0000000000E+00
                       0.0000000000E+00  0.0000000000E+00  0.0000000000E+00
           symrel      1  0  0   0  1  0   0  0  1      -1  0  0   0 -1  0   0  0 -1
                       0  1  0   1  0  0   0  0 -1       0 -1  0  -1  0  0   0  0  1
                      -1  0  0   0 -1  0   0  0  1       1  0  0   0  1  0   0  0 -1
                       0 -1  0  -1  0  0   0  0 -1       0  1  0   1  0  0   0  0  1
            tnons      0.0000000  0.0000000  0.0000000     0.0000000  0.0000000  0.0000000
                       0.0000000 -0.0000000  0.0000000     0.0000000  0.0000000  0.0000000
                       0.0000000  0.0000000  0.5000000     0.0000000  0.0000000  0.5000000
                       0.0000000  0.0000000  0.5000000     0.0000000 -0.0000000  0.5000000
           tolwfr      1.00000000E-20
            typat      1  1  2  2  3  3  3  3
           useylm           1
           xangst     -1.2011942611E+00  2.4765892656E+00  1.7828867372E+00
                       2.3314646322E+00  1.4630908079E+00  5.3486602116E+00
                       5.9893198340E+00  4.1367428708E-01  5.3486602116E+00
                      -4.8590494629E+00  3.5260057864E+00  1.7828867372E+00
                       0.0000000000E+00  0.0000000000E+00  0.0000000000E+00
                       0.0000000000E+00  0.0000000000E+00  3.5657734744E+00
                       3.1881880380E+00  1.2173020475E+00  1.7828867372E+00
                      -2.0579176669E+00  2.7223780260E+00  5.3486602116E+00
            xcart     -2.2699281859E+00  4.6800754556E+00  3.3691676593E+00
                       4.4058296433E+00  2.7648409345E+00  1.0107502978E+01
                       1.1318174208E+01  7.8173111079E-01  1.0107502978E+01
                      -9.1822727510E+00  6.6631852793E+00  3.3691676593E+00
                       0.0000000000E+00  0.0000000000E+00  0.0000000000E+00
                       0.0000000000E+00  0.0000000000E+00  6.7383353185E+00
                       6.0248022519E+00  2.3003674908E+00  3.3691676593E+00
                      -3.8889007945E+00  5.1445488993E+00  1.0107502978E+01
             xred      3.7137300000E-01  6.2862700000E-01  2.5000000000E-01
                       6.2862700000E-01  3.7137300000E-01  7.5000000000E-01
                       8.9499800000E-01  1.0500200000E-01  7.5000000000E-01
                       1.0500200000E-01  8.9499800000E-01  2.5000000000E-01
                       0.0000000000E+00  0.0000000000E+00  0.0000000000E+00
                       0.0000000000E+00  0.0000000000E+00  5.0000000000E-01
                       6.9101500000E-01  3.0898500000E-01  2.5000000000E-01
                       3.0898500000E-01  6.9101500000E-01  7.5000000000E-01
            znucl       37.00000    3.00000   17.00000

- Timing analysis has been suppressed with timopt=0

 Suggested references for the acknowledgment of ABINIT usage.

 Calculation completed.
.Delivered   6 WARNINGs and   5 COMMENTs to log file.