.Version 9.5.2 of ABINIT

 ABINIT is a project of the Universite Catholique de Louvain,
 Corning Inc. and other collaborators, see ~abinit/doc/developers/contributors.txt .
 acknowledgments of the ABINIT effort.

.Starting date : Mon 24 May 2021.
- ( at 23h02 )

- input  file    -> /scratch/users/j/a/jabreu/flow_simple_10atoms/flow/w469/t1/run.abi
- output file    -> /scratch/users/j/a/jabreu/flow_simple_10atoms/flow/w469/t1/run.abo
- root for input  files -> /scratch/users/j/a/jabreu/flow_simple_10atoms/flow/w469/t1/indata/in
- root for output files -> /scratch/users/j/a/jabreu/flow_simple_10atoms/flow/w469/t1/outdata/out

 Symmetries : space group I4/m m m (#139); Bravais tI (body-center tetrag.)
     intxc =       0      iscf =       7    lmnmax =      32     lnmax =       8
     mgfft =      80  mpssoang =       4    mqgrid =    3182     natom =      10
  nloc_mem =       1    nspden =       1   nspinor =       1    nsppol =       1
      nsym =      16    n1xccc =    2501    ntypat =       3    occopt =       1
   xclevel =       2
-    mband =          58        mffmem =           1         mkmem =           2
-   mkqmem =           2        mk1mem =           2           mpw =       21953
      nfft =      512000          nkpt =           2
  Rough estimation (10% accuracy) of disk space for files :

------------- Echo of variables that govern the present computation ------------
-
- outvars: echo of selected default values
-   iomode0 =  0 , fftalg0 =512 , wfoptalg0 =  0
-
- outvars: echo of global parameters not present in the input file
-  max_nthreads =    0
-
 -outvars: echo values of preprocessed input variables --------
            acell      1.0000000000E+00  1.0000000000E+00  1.0000000000E+00 Bohr
              amu      1.32905430E+02  1.96966540E+02  3.54527000E+01
             ecut      3.80000000E+01 Hartree
-          fftalg         512
           irdden           1
           irdwfk           1
              ixc     -116133
              kpt     -2.10921621E-01  2.10921621E-01  2.10921621E-01
                      -2.49271006E-01  2.49271006E-01  2.49271006E-01
           kptopt           0
P           mkmem           2
P          mkqmem           2
P          mk1mem           2
            natom          10
            nband          58
           nbdbuf           4
            ngfft          80      80      80
             nkpt           2
            nstep        2000
             nsym          16
           ntypat           3
              occ      2.000000  2.000000  2.000000  2.000000  2.000000  2.000000
                       2.000000  2.000000  2.000000  2.000000  2.000000  2.000000
                       2.000000  2.000000  2.000000  2.000000  2.000000  2.000000
                       2.000000  2.000000  2.000000  2.000000  2.000000  2.000000
                       2.000000  2.000000  2.000000  2.000000  2.000000  2.000000
                       2.000000  2.000000  2.000000  2.000000  2.000000  2.000000
                       2.000000  2.000000  2.000000  2.000000  2.000000  2.000000
                       2.000000  2.000000  2.000000  2.000000  2.000000  2.000000
                       2.000000  0.000000  0.000000  0.000000  0.000000  0.000000
                       0.000000  0.000000  0.000000  0.000000
        optdriver           1
            prtwf          -1
            rfdir           1       1       1
           rfelfd           2
            rprim      1.2073503551E+01  0.0000000000E+00 -7.3950787257E+00
                      -3.7885265458E+00  1.1463705972E+01 -7.3950787257E+00
                       0.0000000000E+00  0.0000000000E+00  1.4158272400E+01
          spgroup         139
           symrel      1  0  0   0  1  0   0  0  1      -1  0  0   0 -1  0   0  0 -1
                      -1 -1 -1   0  0  1   0  1  0       1  1  1   0  0 -1   0 -1  0
                       0  1  0   1  0  0  -1 -1 -1       0 -1  0  -1  0  0   1  1  1
                       0  0  1  -1 -1 -1   1  0  0       0  0 -1   1  1  1  -1  0  0
                       0  1  0   1  0  0   0  0  1       0 -1  0  -1  0  0   0  0 -1
                      -1 -1 -1   0  0  1   1  0  0       1  1  1   0  0 -1  -1  0  0
                       1  0  0   0  1  0  -1 -1 -1      -1  0  0   0 -1  0   1  1  1
                       0  0  1  -1 -1 -1   0  1  0       0  0 -1   1  1  1   0 -1  0
           tolwfr      1.00000000E-20
            typat      1  1  2  2  3  3  3  3  3  3
           useylm           1
              wtk        0.50000    0.50000
           xangst      4.2905667048E+00  1.5165829816E+00 -1.6718958375E-01
                       9.3654300150E-02  4.5497489448E+00 -1.6718958375E-01
                       2.1921105025E+00  3.0331659632E+00 -3.9133071174E+00
                       0.0000000000E+00  0.0000000000E+00  0.0000000000E+00
                       1.2631686033E+00  1.7478133556E+00 -2.2549806135E+00
                       3.1210524017E+00  4.3185185708E+00 -5.5716336213E+00
                       4.4969372816E+00  1.3674361449E+00 -3.9133071174E+00
                       9.8826479361E-01  1.3674361449E+00  1.6134809298E+00
                      -1.1271627661E-01  4.6988957816E+00 -3.9133071174E+00
                       3.3959562113E+00  4.6988957816E+00 -1.9478600973E+00
            xcart      8.1079960270E+00  2.8659264930E+00 -3.1594252555E-01
                       1.7698097845E-01  8.5977794791E+00 -3.1594252555E-01
                       4.1424885027E+00  5.7318529860E+00 -7.3950787257E+00
                       0.0000000000E+00  0.0000000000E+00  0.0000000000E+00
                       2.3870427199E+00  3.3028885736E+00 -4.2612957944E+00
                       5.8979342855E+00  8.1608173985E+00 -1.0528861657E+01
                       8.4979798989E+00  2.5840798180E+00 -7.3950787257E+00
                       1.8675498067E+00  2.5840798180E+00  3.0490370779E+00
                      -2.1300289351E-01  8.8796261541E+00 -7.3950787257E+00
                       6.4174271987E+00  8.8796261541E+00 -3.6809221290E+00
             xred      7.5000000000E-01  2.5000000000E-01  5.0000000000E-01
                       2.5000000000E-01  7.5000000000E-01  5.0000000000E-01
                       5.0000000000E-01  5.0000000000E-01  8.3266726847E-17
                       0.0000000000E+00  0.0000000000E+00  0.0000000000E+00
                       2.8811700000E-01  2.8811700000E-01  4.1633363423E-17
                       7.1188300000E-01  7.1188300000E-01  2.7755575616E-16
                       7.7458600000E-01  2.2541400000E-01  2.7755575616E-16
                       2.2541400000E-01  2.2541400000E-01  4.5082800000E-01
                       2.2541400000E-01  7.7458600000E-01  2.4980018054E-16
                       7.7458600000E-01  7.7458600000E-01  5.4917200000E-01
            znucl       55.00000   79.00000   17.00000

 chkinp: Checking input parameters for consistency.

== DATASET  1 ==================================================================
-   mpi_nproc: 1, omp_nthreads: -1 (-1 if OMP is not activated)

--- !DatasetInfo
iteration_state: {dtset: 1, }
dimensions: {natom: 10, nkpt: 2, mband: 58, nsppol: 1, nspinor: 1, nspden: 1, mpw: 21953, }
cutoff_energies: {ecut:  38.0, pawecutdg:  -1.0, }
electrons: {nelect:   9.80000000E+01, charge:   0.00000000E+00, occopt:   1.00000000E+00, tsmear:   1.00000000E-02, }
meta: {optdriver: 1, rfelfd: 2, }
...

 Real(R)+Recip(G) space primitive vectors, cartesian coordinates (Bohr,Bohr^-1):
 R(1)= 12.0735036  0.0000000 -7.3950787  G(1)=  0.0828260  0.0273723  0.0000000
 R(2)= -3.7885265 11.4637060 -7.3950787  G(2)=  0.0000000  0.0872318  0.0000000
 R(3)=  0.0000000  0.0000000 14.1582724  G(3)=  0.0432613  0.0598595  0.0706301
 Unit cell volume ucvol=  1.9596053E+03 bohr^3
 Angles (23,13,12)=  1.21487669E+02  1.21487669E+02  8.74420342E+01 degrees

 getcut: wavevector=  0.0000  0.0000  0.0000  ngfft=  80  80  80
         ecut(hartree)=     38.000   => boxcut(ratio)=   2.03624

--- Pseudopotential description ------------------------------------------------
- pspini: atom type   1  psp file is /scratch/users/j/a/jabreu/pseudos/PBEsol/Cs.psp8
- pspatm: opening atomic psp file    /scratch/users/j/a/jabreu/pseudos/PBEsol/Cs.psp8
- Cs    ONCVPSP-3.3.0  r_core=   2.27353   1.85623   2.01788   1.90105
- 55.00000   9.00000    180112                znucl, zion, pspdat
    8 -116133    3    4       600   0.00000   pspcod,pspxc,lmax,lloc,mmax,r2well
    5.99000000000000    5.00000000000000    0.00000000000000   rchrg,fchrg,qchrg
     nproj     2     2     2     2
     extension_switch     1
  pspatm : epsatm=   22.12462445
         --- l  ekb(1:nproj) -->
             0    6.214110    0.767882
             1    6.311966    0.793598
             2    3.769790    0.913105
             3   -9.247129   -2.432478
 pspatm: atomic psp has been read  and splines computed

- pspini: atom type   2  psp file is /scratch/users/j/a/jabreu/pseudos/PBEsol/Au.psp8
- pspatm: opening atomic psp file    /scratch/users/j/a/jabreu/pseudos/PBEsol/Au.psp8
- Au    ONCVPSP-3.3.0  r_core=   1.45604   1.56407   1.56407   1.60183
- 79.00000  19.00000    180112                znucl, zion, pspdat
    8 -116133    3    4       500   0.00000   pspcod,pspxc,lmax,lloc,mmax,r2well
    4.99000000000000    5.00000000000000    0.00000000000000   rchrg,fchrg,qchrg
     nproj     2     2     2     1
     extension_switch     1
  pspatm : epsatm=   32.21965837
         --- l  ekb(1:nproj) -->
             0    9.413866   -0.196587
             1    2.474292   -1.517497
             2    1.503483    0.298081
             3    1.177996
 pspatm: atomic psp has been read  and splines computed

- pspini: atom type   3  psp file is /scratch/users/j/a/jabreu/pseudos/PBEsol/Cl.psp8
- pspatm: opening atomic psp file    /scratch/users/j/a/jabreu/pseudos/PBEsol/Cl.psp8
- Cl    ONCVPSP-3.3.0  r_core=   1.56009   1.35202   1.75774
- 17.00000   7.00000    180112                znucl, zion, pspdat
    8 -116133    2    4       600   0.00000   pspcod,pspxc,lmax,lloc,mmax,r2well
    5.99000000000000    8.00000000000000    0.00000000000000   rchrg,fchrg,qchrg
     nproj     2     2     2
     extension_switch     1
  pspatm : epsatm=    8.95520722
         --- l  ekb(1:nproj) -->
             0    8.193503    0.707970
             1    3.869736    1.114731
             2   -2.915303   -0.810552
 pspatm: atomic psp has been read  and splines computed

   1.59171413E+04                                ecore*ucvol(ha*bohr**3)

 ==>  initialize data related to q vector <==

 The list of irreducible perturbations for this q vector is:
    1)    idir= 1    ipert=  11
    2)    idir= 2    ipert=  11
    3)    idir= 3    ipert=  11

 Perturbation wavevector (in red.coord.)   0.000000  0.000000  0.000000
 Perturbation : derivative vs k along direction   1

 dfpt_looppert : COMMENT -
  In a d/dk calculation, iscf is set to -3 automatically.
 The set of symmetries contains only one element for this perturbation.
 symkpt : not enough symmetry to change the number of k points.

 Initialisation of the first-order wave-functions :
  ireadwf=   0

--- !BeginCycle
iteration_state: {dtset: 1, }
[...]
 dfpt_looppert : ek2=    5.8879719326E+01
          f-sum rule ratio=    1.2269708169E+00
 prteigrs : about to open file /scratch/users/j/a/jabreu/flow_simple_10atoms/flow/w469/t1/tmpdata/tmp_1WF1_EIG
 Expectation of eigenvalue derivatives (hartree) for nkpt=   2  k points:
  (in case of degenerate eigenvalues, averaged derivative)
 kpt#   1, nband= 58, wtk=  0.50000, kpt= -0.2109  0.2109  0.2109 (reduced coord)
   0.00000    0.00000   -0.00000   -0.00000   -0.00000   -0.00000    0.00000    0.00000
   0.00000   -0.00000    0.00000   -0.00000    0.00000    0.00000   -0.00000   -0.00000
   0.00000    0.00000   -0.00000   -0.00000    0.00000   -0.00000    0.00000   -0.00000
   0.00000   -0.00000   -0.00000    0.00000   -0.00000    0.00000   -0.00000    0.00000
   0.00000    0.00000    0.00000   -0.00000    0.00000   -0.00000   -0.00000    0.00000
  -0.00000   -0.00000   -0.00000    0.00000   -0.00000    0.00000    0.00000    0.00000
  -0.00000    0.00000   -0.00000   -0.00000    0.00000    0.00000    0.00000   -0.00000
  -0.00000   -0.00046
 prteigrs : prtvol=0 or 1, do not print more k-points.

 Eight components of 2nd-order total energy (hartree) are
 1,2,3: 0th-order hamiltonian combined with 1st-order wavefunctions
     kin0=   4.44493500E+01 eigvalue=   1.31701085E+00  local=  -2.58143144E+01
 4,5,6: 1st-order hamiltonian combined with 1st and 0th-order wfs
     kin1=  -7.22436973E+01  Hartree=   0.00000000E+00     xc=   0.00000000E+00
 7,8,9: eventually, occupation + non-local contributions
    edocc=   1.26832059E+01     enl0=   3.60069647E+00   enl1=  -2.28200383E-01
 1-9 gives the relaxation energy (to be shifted if some occ is /=2.0)
   erelax=  -3.62359489E+01
  No Ewald or frozen-wf contrib.: the relaxation energy is the total one
 2DEtotal=   -0.3623594885E+02 Ha. Also 2DEtotal=   -0.986030313773E+03 eV
    (  non-var. 2DEtotal :   -3.6235948853E+01 Ha)

 Perturbation wavevector (in red.coord.)   0.000000  0.000000  0.000000
 Perturbation : derivative vs k along direction   2
 The set of symmetries contains only one element for this perturbation.
 symkpt : not enough symmetry to change the number of k points.

[...]

 Perturbation wavevector (in red.coord.)   0.000000  0.000000  0.000000
 Perturbation : derivative vs k along direction   3
 The set of symmetries contains only one element for this perturbation.
 symkpt : not enough symmetry to change the number of k points.

 Initialisation of the first-order wave-functions :
  ireadwf=   0

--- !BeginCycle
iteration_state: {dtset: 1, }
solver: {iscf: 7, nstep: 2000, nline: 4, wfoptalg: 0, }
tolerances: {tolwfr: 1.00E-20, }
...

     iter   2DEtotal(Ha)        deltaE(Ha) residm    vres2
-ETOT  1  -48.507246375776     -4.851E+01 5.386E-02 0.000E+00
 ETOT  2  -48.560768537141     -5.352E-02 3.583E-03 0.000E+00
 ETOT  3  -48.561372389819     -6.039E-04 3.539E-04 0.000E+00
 ETOT  4  -48.561400526792     -2.814E-05 7.491E-05 0.000E+00
 ETOT  5  -48.561402023603     -1.497E-06 1.350E-05 0.000E+00
 ETOT  6  -48.561402113733     -9.013E-08 3.093E-06 0.000E+00
 ETOT  7  -48.561402119526     -5.793E-09 6.473E-07 0.000E+00
 ETOT  8  -48.561402119922     -3.958E-10 1.663E-07 0.000E+00
 ETOT  9  -48.561402119950     -2.795E-11 3.609E-08 0.000E+00
 ETOT 10  -48.561402119952     -2.096E-12 9.860E-09 0.000E+00
 ETOT 11  -48.561402119952     -1.279E-13 2.158E-09 0.000E+00
 ETOT 12  -48.561402119952      0.000E+00 6.080E-10 0.000E+00
 ETOT 13  -48.561402119952     -7.816E-14 1.339E-10 0.000E+00
 ETOT 14  -48.561402119952      4.263E-14 3.830E-11 0.000E+00
 ETOT 15  -48.561402119952     -3.553E-14 8.491E-12 0.000E+00
 ETOT 16  -48.561402119952      3.553E-14 2.447E-12 0.000E+00
 ETOT 17  -48.561402119952     -4.974E-14 5.457E-13 0.000E+00
 ETOT 18  -48.561402119952      7.105E-15 1.578E-13 0.000E+00
 ETOT 19  -48.561402119952      0.000E+00 3.538E-14 0.000E+00
 ETOT 20  -48.561402119952     -1.421E-14 1.026E-14 0.000E+00
 ETOT 21  -48.561402119952      7.105E-15 2.308E-15 0.000E+00
 ETOT 22  -48.561402119952      7.105E-15 6.701E-16 0.000E+00
 ETOT 23  -48.561402119952     -2.132E-14 1.512E-16 0.000E+00
 ETOT 24  -48.561402119952      1.421E-14 4.395E-17 0.000E+00
 ETOT 25  -48.561402119952      2.132E-14 9.943E-18 0.000E+00
 ETOT 26  -48.561402119952     -2.132E-14 2.891E-18 0.000E+00
 ETOT 27  -48.561402119952      7.105E-15 6.554E-19 0.000E+00
 ETOT 28  -48.561402119952     -7.105E-15 1.907E-19 0.000E+00
 ETOT 29  -48.561402119952      0.000E+00 4.328E-20 0.000E+00
 ETOT 30  -48.561402119952      7.105E-15 1.260E-20 0.000E+00
 ETOT 31  -48.561402119952      7.105E-15 1.000E-20 0.000E+00

 At SCF step   31   max residual=  1.00E-20 < tolwfr=  1.00E-20 =>converged.

 ----iterations are completed or convergence reached----

 dfpt_looppert: DFPT cycle converged with prtwf=-1. Will skip output of the 1st-order WFK file.
 dfpt_looppert : ek2=    8.0807881284E+01
          f-sum rule ratio=    1.1970246180E+00
 prteigrs : about to open file /scratch/users/j/a/jabreu/flow_simple_10atoms/flow/w469/t1/tmpdata/tmp_1WF1_EIG
 Expectation of eigenvalue derivatives (hartree) for nkpt=   2  k points:
  (in case of degenerate eigenvalues, averaged derivative)
 kpt#   1, nband= 58, wtk=  0.50000, kpt= -0.2109  0.2109  0.2109 (reduced coord)
   0.00000    0.00000    0.00000    0.00000   -0.00000   -0.00000    0.00000    0.00000
   0.00089   -0.00067    0.00800   -0.01257   -0.00082    0.00051    0.00108   -0.00041
   0.01242    0.01191   -0.00388    0.01662    0.00756   -0.00095    0.00407    0.04194
  -0.00951   -0.00863   -0.03804    0.00129    0.00377   -0.01534   -0.02419   -0.01576
   0.01844   -0.01996    0.00726   -0.02191    0.02032   -0.03312   -0.01397    0.00568
   0.02397   -0.03256   -0.01447   -0.01365   -0.01603    0.05043   -0.00443    0.00003
  -0.00643   -0.06422    0.11030   -0.05197    0.11489    0.08855    0.11628    0.07133
   0.12602    0.04776
 prteigrs : prtvol=0 or 1, do not print more k-points.

 Eight components of 2nd-order total energy (hartree) are
 1,2,3: 0th-order hamiltonian combined with 1st-order wavefunctions
     kin0=   6.15689268E+01 eigvalue=   1.94792310E+00  local=  -3.60105871E+01
 4,5,6: 1st-order hamiltonian combined with 1st and 0th-order wfs
     kin1=  -9.67290232E+01  Hartree=   0.00000000E+00     xc=   0.00000000E+00
 7,8,9: eventually, occupation + non-local contributions
    edocc=   1.58797198E+01     enl0=   5.17541943E+00   enl1=  -3.93781013E-01
 1-9 gives the relaxation energy (to be shifted if some occ is /=2.0)
   erelax=  -4.85614021E+01
  No Ewald or frozen-wf contrib.: the relaxation energy is the total one
 2DEtotal=   -0.4856140212E+02 Ha. Also 2DEtotal=   -0.132142295387E+04 eV
    (  non-var. 2DEtotal :   -4.8561402120E+01 Ha)

 CALCULATION OF EFFECTIVE MASSES
 NOTE : Additional infos (eff. mass eigenvalues, eigenvectors and, if degenerate, average mass) are available in stdout.

 K-point (-0.211, 0.211, 0.211) | band =    49
 Effective mass tensor:
             -0.2704074231             -0.1738992320              0.3550919451
             -0.1738992320             -0.6187381480              0.3104412170
              0.3550919451              0.3104412170             -0.7053987467
 Effective mass tensor eigenvalues:
             -1.1449330863             -0.3781149818             -0.0714962498
 Angular average effective mass 1/(<1/m>)=  -0.1713809837
 Angular average effective mass for Frohlich model (<m**0.5>)**2=  -0.2442706033
 Effective masses along directions: (cart. coord. / red. coord. -> eff. mass)
    1:   1.000000  0.000000  0.000000 /   0.954129 -0.299395  0.000000 ->  -0.0910126719
    2:   0.000000  1.000000  0.000000 /   0.000000  1.000000  0.000000 ->  -0.4787256487
    3:   0.000000  0.000000  1.000000 /  -0.420127 -0.420127  0.804355 ->  -0.2258101346
    4:   0.577350  0.577350  0.577350 /   0.313697  0.018781  0.949337 ->  -0.1040073557
    5:   0.000000  0.707107  0.707107 /  -0.448642  0.246834  0.858949 ->  -0.2515228251
    6:   0.707107  0.000000  0.707107 /   0.251000 -0.600007  0.759599 ->  -0.0765566882
    7:   0.707107  0.707107  0.000000 /   0.843913  0.536479  0.000000 ->  -0.1629596559

 K-point (-0.249, 0.249, 0.249) | band =    50
 Effective mass tensor:
              5.6995535234              7.7368181178            -10.0432857541
              7.7368181178             10.9229745461            -13.8115836048
            -10.0432857541            -13.8115836048             18.0026532108
 Effective mass tensor eigenvalues:
              0.0736183122              0.2177525167             34.3338104515
 Angular average effective mass 1/(<1/m>)=   0.1647892405
 Angular average effective mass for Frohlich model (<m**0.5>)**2=   0.2790484359
 Effective masses along directions: (cart. coord. / red. coord. -> eff. mass)
    1:   1.000000  0.000000  0.000000 /   0.954129 -0.299395  0.000000 ->   0.0935611902
    2:   0.000000  1.000000  0.000000 /   0.000000  1.000000  0.000000 ->   0.3164079673
    3:   0.000000  0.000000  1.000000 /  -0.420127 -0.420127  0.804355 ->   0.2295471737
    4:   0.577350  0.577350  0.577350 /   0.313697  0.018781  0.949337 ->   0.0994441402
    5:   0.000000  0.707107  0.707107 /  -0.448642  0.246834  0.858949 ->   0.1783858000
    6:   0.707107  0.000000  0.707107 /   0.251000 -0.600007  0.759599 ->   0.0787955574
    7:   0.707107  0.707107  0.000000 /   0.843913  0.536479  0.000000 ->   0.1697941944

 END OF EFFECTIVE MASSES SECTION

 ---- first-order wavefunction calculations are completed ----

 Total localisation tensor (bohr^2) in cartesian coordinates
  WARNING : still subject to testing - especially symmetries.
      direction              matrix element
   alpha     beta       real part   imaginary part
     1        1       6.3818722604    0.0000000000
     1        2      -0.4545409286    0.0000000000
     1        3      -3.5237007600    0.0000000000
     2        1      -0.4545409286    0.0000000000
     2        2       1.3753958156    0.0000000000
     2        3      -0.8872488844    0.0000000000
     3        1      -3.5237007600    0.0000000000
     3        2      -0.8872488844    0.0000000000
     3        3      12.7456991328    0.0000000000

 respfn : d/dk was computed, but no 2DTE, so no DDB output.

== END DATASET(S) ==============================================================

 -outvars: echo values of variables after computation  --------
            acell      1.0000000000E+00  1.0000000000E+00  1.0000000000E+00 Bohr
              amu      1.32905430E+02  1.96966540E+02  3.54527000E+01
             ecut      3.80000000E+01 Hartree
           etotal     -4.8561402120E+01
            fcart      0.0000000000E+00  0.0000000000E+00  0.0000000000E+00
                       0.0000000000E+00  0.0000000000E+00  0.0000000000E+00
                       0.0000000000E+00  0.0000000000E+00  0.0000000000E+00
                       0.0000000000E+00  0.0000000000E+00  0.0000000000E+00
                       0.0000000000E+00  0.0000000000E+00  0.0000000000E+00
                       0.0000000000E+00  0.0000000000E+00  0.0000000000E+00
                       0.0000000000E+00  0.0000000000E+00  0.0000000000E+00
                       0.0000000000E+00  0.0000000000E+00  0.0000000000E+00
                       0.0000000000E+00  0.0000000000E+00  0.0000000000E+00
                       0.0000000000E+00  0.0000000000E+00  0.0000000000E+00
-          fftalg         512
           irdden           1
           irdwfk           1
              ixc     -116133
              kpt     -2.10921621E-01  2.10921621E-01  2.10921621E-01
                      -2.49271006E-01  2.49271006E-01  2.49271006E-01
           kptopt           0
P           mkmem           2
P          mkqmem           2
P          mk1mem           2
            natom          10
            nband          58
           nbdbuf           4
            ngfft          80      80      80
             nkpt           2
            nstep        2000
             nsym          16
           ntypat           3
              occ      2.000000  2.000000  2.000000  2.000000  2.000000  2.000000
                       2.000000  2.000000  2.000000  2.000000  2.000000  2.000000
                       2.000000  2.000000  2.000000  2.000000  2.000000  2.000000
                       2.000000  2.000000  2.000000  2.000000  2.000000  2.000000
                       2.000000  2.000000  2.000000  2.000000  2.000000  2.000000
                       2.000000  2.000000  2.000000  2.000000  2.000000  2.000000
                       2.000000  2.000000  2.000000  2.000000  2.000000  2.000000
                       2.000000  2.000000  2.000000  2.000000  2.000000  2.000000
                       2.000000  0.000000  0.000000  0.000000  0.000000  0.000000
                       0.000000  0.000000  0.000000  0.000000
        optdriver           1
            prtwf          -1
            rfdir           1       1       1
           rfelfd           2
            rprim      1.2073503551E+01  0.0000000000E+00 -7.3950787257E+00
                      -3.7885265458E+00  1.1463705972E+01 -7.3950787257E+00
                       0.0000000000E+00  0.0000000000E+00  1.4158272400E+01
          spgroup         139
           strten      0.0000000000E+00  0.0000000000E+00  0.0000000000E+00
                       0.0000000000E+00  0.0000000000E+00  0.0000000000E+00
           symrel      1  0  0   0  1  0   0  0  1      -1  0  0   0 -1  0   0  0 -1
                      -1 -1 -1   0  0  1   0  1  0       1  1  1   0  0 -1   0 -1  0
                       0  1  0   1  0  0  -1 -1 -1       0 -1  0  -1  0  0   1  1  1
                       0  0  1  -1 -1 -1   1  0  0       0  0 -1   1  1  1  -1  0  0
                       0  1  0   1  0  0   0  0  1       0 -1  0  -1  0  0   0  0 -1
                      -1 -1 -1   0  0  1   1  0  0       1  1  1   0  0 -1  -1  0  0
                       1  0  0   0  1  0  -1 -1 -1      -1  0  0   0 -1  0   1  1  1
                       0  0  1  -1 -1 -1   0  1  0       0  0 -1   1  1  1   0 -1  0
           tolwfr      1.00000000E-20
            typat      1  1  2  2  3  3  3  3  3  3
           useylm           1
              wtk        0.50000    0.50000
           xangst      4.2905667048E+00  1.5165829816E+00 -1.6718958375E-01
                       9.3654300150E-02  4.5497489448E+00 -1.6718958375E-01
                       2.1921105025E+00  3.0331659632E+00 -3.9133071174E+00
                       0.0000000000E+00  0.0000000000E+00  0.0000000000E+00
                       1.2631686033E+00  1.7478133556E+00 -2.2549806135E+00
                       3.1210524017E+00  4.3185185708E+00 -5.5716336213E+00
                       4.4969372816E+00  1.3674361449E+00 -3.9133071174E+00
                       9.8826479361E-01  1.3674361449E+00  1.6134809298E+00
                      -1.1271627661E-01  4.6988957816E+00 -3.9133071174E+00
                       3.3959562113E+00  4.6988957816E+00 -1.9478600973E+00
            xcart      8.1079960270E+00  2.8659264930E+00 -3.1594252555E-01
                       1.7698097845E-01  8.5977794791E+00 -3.1594252555E-01
                       4.1424885027E+00  5.7318529860E+00 -7.3950787257E+00
                       0.0000000000E+00  0.0000000000E+00  0.0000000000E+00
                       2.3870427199E+00  3.3028885736E+00 -4.2612957944E+00
                       5.8979342855E+00  8.1608173985E+00 -1.0528861657E+01
                       8.4979798989E+00  2.5840798180E+00 -7.3950787257E+00
                       1.8675498067E+00  2.5840798180E+00  3.0490370779E+00
                      -2.1300289351E-01  8.8796261541E+00 -7.3950787257E+00
                       6.4174271987E+00  8.8796261541E+00 -3.6809221290E+00
             xred      7.5000000000E-01  2.5000000000E-01  5.0000000000E-01
                       2.5000000000E-01  7.5000000000E-01  5.0000000000E-01
                       5.0000000000E-01  5.0000000000E-01  8.3266726847E-17
                       0.0000000000E+00  0.0000000000E+00  0.0000000000E+00
                       2.8811700000E-01  2.8811700000E-01  4.1633363423E-17
                       7.1188300000E-01  7.1188300000E-01  2.7755575616E-16
                       7.7458600000E-01  2.2541400000E-01  2.7755575616E-16
                       2.2541400000E-01  2.2541400000E-01  4.5082800000E-01
                       2.2541400000E-01  7.7458600000E-01  2.4980018054E-16
                       7.7458600000E-01  7.7458600000E-01  5.4917200000E-01
            znucl       55.00000   79.00000   17.00000

- Timing analysis has been suppressed with timopt=0

 Suggested references for the acknowledgment of ABINIT usage.

 Calculation completed.
.Delivered   2 WARNINGs and   5 COMMENTs to log file.