.Version 9.5.1 of ABINIT

 ABINIT is a project of the Universite Catholique de Louvain,
 Corning Inc. and other collaborators, see ~abinit/doc/developers/contributors.txt .
 acknowledgments of the ABINIT effort.

.Starting date : Tue 27 Apr 2021.
- ( at 18h39 )

- input  file    -> /scratch/users/j/a/jabreu/flow_simple_4atoms/flow/w223/t1/run.abi
- output file    -> /scratch/users/j/a/jabreu/flow_simple_4atoms/flow/w223/t1/run.abo
- root for input  files -> /scratch/users/j/a/jabreu/flow_simple_4atoms/flow/w223/t1/indata/in
- root for output files -> /scratch/users/j/a/jabreu/flow_simple_4atoms/flow/w223/t1/outdata/out

 Symmetries : space group R-3 m (#166); Bravais hR (rhombohedral)
     intxc =       0      iscf =       7    lmnmax =      32     lnmax =       8
     mgfft =      60  mpssoang =       4    mqgrid =    3001     natom =       4
  nloc_mem =       1    nspden =       1   nspinor =       1    nsppol =       1
      nsym =      12    n1xccc =    2501    ntypat =       3    occopt =       1
   xclevel =       2
-    mband =          24        mffmem =           1         mkmem =           2
-   mkqmem =           2        mk1mem =           2           mpw =        9168
      nfft =      216000          nkpt =           2
  Rough estimation (10% accuracy) of disk space for files :

------------- Echo of variables that govern the present computation ------------
-
- outvars: echo of selected default values
-   iomode0 =  0 , fftalg0 =512 , wfoptalg0 =  0
-
- outvars: echo of global parameters not present in the input file
-  max_nthreads =    0
-
 -outvars: echo values of preprocessed input variables --------
            acell      1.0000000000E+00  1.0000000000E+00  1.0000000000E+00 Bohr
              amu      1.32905430E+02  1.26904470E+02  3.54527000E+01
             ecut      3.50000000E+01 Hartree
-          fftalg         512
           irdden           1
           irdwfk           1
           istwfk        1    0
              ixc     -116133
              kpt      5.00000000E-01  5.00000000E-01  5.55111512E-17
                       2.17391304E-01  2.17391304E-01  2.17391304E-01
           kptopt           0
P           mkmem           2
P          mkqmem           2
P          mk1mem           2
            natom           4
            nband          24
           nbdbuf           4
            ngfft          60      60      60
             nkpt           2
            nstep         100
             nsym          12
           ntypat           3
              occ      2.000000  2.000000  2.000000  2.000000  2.000000  2.000000
                       2.000000  2.000000  2.000000  2.000000  2.000000  2.000000
                       2.000000  2.000000  2.000000  0.000000  0.000000  0.000000
                       0.000000  0.000000  0.000000  0.000000  0.000000  0.000000
        optdriver           1
            prtwf          -1
            rfdir           1       1       1
           rfelfd           2
            rprim      9.6524759234E+00  0.0000000000E+00  3.6327310257E+00
                       2.5142995127E+00  9.3192590592E+00  3.6327310257E+00
                       0.0000000000E+00  0.0000000000E+00  1.0313439104E+01
          spgroup         166
           symrel      1  0  0   0  1  0   0  0  1      -1  0  0   0 -1  0   0  0 -1
                       0  1  0   1  0  0   0  0  1       0 -1  0  -1  0  0   0  0 -1
                       0  0  1   1  0  0   0  1  0       0  0 -1  -1  0  0   0 -1  0
                       1  0  0   0  0  1   0  1  0      -1  0  0   0  0 -1   0 -1  0
                       0  1  0   0  0  1   1  0  0       0 -1  0   0  0 -1  -1  0  0
                       0  0  1   0  1  0   1  0  0       0  0 -1   0 -1  0  -1  0  0
           tolwfr      1.00000000E-20
            typat      1  2  3  3
           useylm           1
              wtk        0.50000    0.50000
           xangst      0.0000000000E+00  0.0000000000E+00  0.0000000000E+00
                       3.2191901314E+00  2.4657697475E+00  4.6511769218E+00
                       4.5464364691E+00  3.4823868883E+00  6.5688199572E+00
                       1.8919437937E+00  1.4491526068E+00  2.7335338864E+00
            xcart      0.0000000000E+00  0.0000000000E+00  0.0000000000E+00
                       6.0833877181E+00  4.6596295296E+00  8.7894505778E+00
                       8.5915198071E+00  6.5807575076E+00  1.2413270735E+01
                       3.5752556290E+00  2.7385015516E+00  5.1656304202E+00
             xred      0.0000000000E+00  0.0000000000E+00  0.0000000000E+00
                       5.0000000000E-01  5.0000000000E-01  5.0000000000E-01
                       7.0614600000E-01  7.0614600000E-01  7.0614600000E-01
                       2.9385400000E-01  2.9385400000E-01  2.9385400000E-01
            znucl       55.00000   53.00000   17.00000

 chkinp: Checking input parameters for consistency.

== DATASET  1 ==================================================================
-   mpi_nproc: 1, omp_nthreads: -1 (-1 if OMP is not activated)

--- !DatasetInfo
iteration_state: {dtset: 1, }
dimensions: {natom: 4, nkpt: 2, mband: 24, nsppol: 1, nspinor: 1, nspden: 1, mpw: 9168, }
cutoff_energies: {ecut:  35.0, pawecutdg:  -1.0, }
electrons: {nelect:   3.00000000E+01, charge:   0.00000000E+00, occopt:   1.00000000E+00, tsmear:   1.00000000E-02, }
meta: {optdriver: 1, rfelfd: 2, }
...

 Real(R)+Recip(G) space primitive vectors, cartesian coordinates (Bohr,Bohr^-1):
 R(1)=  9.6524759  0.0000000  3.6327310  G(1)=  0.1036004 -0.0279510  0.0000000
 R(2)=  2.5142995  9.3192591  3.6327310  G(2)=  0.0000000  0.1073047  0.0000000
 R(3)=  0.0000000  0.0000000 10.3134391  G(3)= -0.0364914 -0.0279510  0.0969609
 Unit cell volume ucvol=  9.2773431E+02 bohr^3
 Angles (23,13,12)=  6.93760589E+01  6.93760589E+01  6.93760589E+01 degrees

 getcut: wavevector=  0.0000  0.0000  0.0000  ngfft=  60  60  60
         ecut(hartree)=     35.000   => boxcut(ratio)=   2.18489

--- Pseudopotential description ------------------------------------------------
- pspini: atom type   1  psp file is /scratch/users/j/a/jabreu/pseudos/PBEsol/Cs.psp8
- pspatm: opening atomic psp file    /scratch/users/j/a/jabreu/pseudos/PBEsol/Cs.psp8
- Cs    ONCVPSP-3.3.0  r_core=   2.27353   1.85623   2.01788   1.90105
- 55.00000   9.00000    180112                znucl, zion, pspdat
    8 -116133    3    4       600   0.00000   pspcod,pspxc,lmax,lloc,mmax,r2well
    5.99000000000000    5.00000000000000    0.00000000000000   rchrg,fchrg,qchrg
     nproj     2     2     2     2
     extension_switch     1
  pspatm : epsatm=   22.12462445
         --- l  ekb(1:nproj) -->
             0    6.214110    0.767882
             1    6.311966    0.793598
             2    3.769790    0.913105
             3   -9.247129   -2.432478
 pspatm: atomic psp has been read  and splines computed

- pspini: atom type   2  psp file is /scratch/users/j/a/jabreu/pseudos/PBEsol/I.psp8
- pspatm: opening atomic psp file    /scratch/users/j/a/jabreu/pseudos/PBEsol/I.psp8
- I     ONCVPSP-3.3.0  r_core=   2.02042   2.17032   2.27639
- 53.00000   7.00000    180112                znucl, zion, pspdat
    8 -116133    2    4       600   0.00000   pspcod,pspxc,lmax,lloc,mmax,r2well
    5.99000000000000    4.00000000000000    0.00000000000000   rchrg,fchrg,qchrg
     nproj     2     2     2
     extension_switch     1
  pspatm : epsatm=   18.14229533
         --- l  ekb(1:nproj) -->
             0    6.015861    0.935228
             1    4.063749    0.754139
             2    4.149534    0.722940
 pspatm: atomic psp has been read  and splines computed

- pspini: atom type   3  psp file is /scratch/users/j/a/jabreu/pseudos/PBEsol/Cl.psp8
- pspatm: opening atomic psp file    /scratch/users/j/a/jabreu/pseudos/PBEsol/Cl.psp8
- Cl    ONCVPSP-3.3.0  r_core=   1.56009   1.35202   1.75774
- 17.00000   7.00000    180112                znucl, zion, pspdat
    8 -116133    2    4       600   0.00000   pspcod,pspxc,lmax,lloc,mmax,r2well
    5.99000000000000    8.00000000000000    0.00000000000000   rchrg,fchrg,qchrg
     nproj     2     2     2
     extension_switch     1
  pspatm : epsatm=    8.95520722
         --- l  ekb(1:nproj) -->
             0    8.193503    0.707970
             1    3.869736    1.114731
             2   -2.915303   -0.810552
 pspatm: atomic psp has been read  and splines computed

   1.74532003E+03                                ecore*ucvol(ha*bohr**3)

-inwffil : will read wavefunctions from disk file /scratch/users/j/a/jabreu/flow_simple_4atoms/flow/w223/t1/indata/in_WFK

 ==>  initialize data related to q vector <==

 The list of irreducible perturbations for this q vector is:
    1)    idir= 1    ipert=   5
    2)    idir= 2    ipert=   5
    3)    idir= 3    ipert=   5

 Perturbation wavevector (in red.coord.)   0.000000  0.000000  0.000000
 Perturbation : derivative vs k along direction   1

 dfpt_looppert : COMMENT -
  In a d/dk calculation, iscf is set to -3 automatically.
 The set of symmetries contains only one element for this perturbation.
 symkpt : not enough symmetry to change the number of k points.

[...]

 Initialisation of the first-order wave-functions :
  ireadwf=   0

--- !BeginCycle
iteration_state: {dtset: 1, }
solver: {iscf: 7, nstep: 100, nline: 4, wfoptalg: 0, }
tolerances: {tolwfr: 1.00E-20, }
...

     iter   2DEtotal(Ha)        deltaE(Ha) residm    vres2
-ETOT  1  -14.678122971306     -1.468E+01 6.959E-02 0.000E+00
 ETOT  2  -14.700001131392     -2.188E-02 4.246E-03 0.000E+00
 ETOT  3  -14.700617075352     -6.159E-04 5.632E-04 0.000E+00
 ETOT  4  -14.700656548432     -3.947E-05 7.687E-05 0.000E+00
 ETOT  5  -14.700659441199     -2.893E-06 1.755E-05 0.000E+00
 ETOT  6  -14.700659675058     -2.339E-07 2.329E-06 0.000E+00
 ETOT  7  -14.700659694657     -1.960E-08 5.825E-07 0.000E+00
 ETOT  8  -14.700659696389     -1.733E-09 1.073E-07 0.000E+00
 ETOT  9  -14.700659696546     -1.571E-10 1.956E-08 0.000E+00
 ETOT 10  -14.700659696561     -1.485E-11 6.278E-09 0.000E+00
 ETOT 11  -14.700659696563     -1.398E-12 8.391E-10 0.000E+00
 ETOT 12  -14.700659696563     -1.510E-13 3.708E-10 0.000E+00
 ETOT 13  -14.700659696563     -2.842E-14 4.926E-11 0.000E+00
 ETOT 14  -14.700659696563      1.421E-14 2.203E-11 0.000E+00
 ETOT 15  -14.700659696563     -3.553E-15 2.907E-12 0.000E+00
 ETOT 16  -14.700659696563      0.000E+00 1.315E-12 0.000E+00
 ETOT 17  -14.700659696563      5.329E-15 1.722E-13 0.000E+00
 ETOT 18  -14.700659696563     -8.882E-15 7.868E-14 0.000E+00
 ETOT 19  -14.700659696563      3.553E-15 1.023E-14 0.000E+00
 ETOT 20  -14.700659696563     -1.776E-15 4.721E-15 0.000E+00
 ETOT 21  -14.700659696563      1.776E-15 6.094E-16 0.000E+00
 ETOT 22  -14.700659696563      0.000E+00 2.839E-16 0.000E+00
 ETOT 23  -14.700659696563      0.000E+00 3.637E-17 0.000E+00
 ETOT 24  -14.700659696563      5.329E-15 1.710E-17 0.000E+00
 ETOT 25  -14.700659696563     -7.105E-15 2.175E-18 0.000E+00
 ETOT 26  -14.700659696563      7.105E-15 1.031E-18 0.000E+00
 ETOT 27  -14.700659696563     -1.066E-14 1.303E-19 0.000E+00
 ETOT 28  -14.700659696563      0.000E+00 6.226E-20 0.000E+00
 ETOT 29  -14.700659696563      5.329E-15 9.948E-21 0.000E+00

 At SCF step   29   max residual=  9.95E-21 < tolwfr=  1.00E-20 =>converged.

 ----iterations are completed or convergence reached----

 dfpt_looppert: DFPT cycle converged with prtwf=-1. Will skip output of the 1st-order WFK file.
 dfpt_looppert : ek2=    2.7273961181E+01
          f-sum rule ratio=    1.0367695284E+00
 prteigrs : about to open file /scratch/users/j/a/jabreu/flow_simple_4atoms/flow/w223/t1/tmpdata/tmp_1WF1_EIG
 Expectation of eigenvalue derivatives (hartree) for nkpt=   2  k points:
  (in case of degenerate eigenvalues, averaged derivative)
 kpt#   1, nband= 24, wtk=  0.50000, kpt=  0.5000  0.5000  0.0000 (reduced coord)
   0.00000    0.00000    0.00000    0.00000    0.00000    0.00000   -0.00000   -0.00000
  -0.00000    0.00000   -0.00000   -0.00000    0.00000    0.00000    0.00000    0.00000
   0.00000    0.00000    0.00000   -0.00000   -0.00000    0.00000    0.00001    0.00007
 prteigrs : prtvol=0 or 1, do not print more k-points.

 Eight components of 2nd-order total energy (hartree) are
 1,2,3: 0th-order hamiltonian combined with 1st-order wavefunctions
     kin0=   1.17464463E+01 eigvalue=   3.88256204E-01  local=  -6.71874111E+00
 4,5,6: 1st-order hamiltonian combined with 1st and 0th-order wfs
     kin1=  -2.82768119E+01  Hartree=   0.00000000E+00     xc=   0.00000000E+00
 7,8,9: eventually, occupation + non-local contributions
    edocc=   7.49336717E+00     enl0=   1.79133110E+00   enl1=  -1.12450752E+00
 1-9 gives the relaxation energy (to be shifted if some occ is /=2.0)
   erelax=  -1.47006597E+01
  No Ewald or frozen-wf contrib.: the relaxation energy is the total one
 2DEtotal=   -0.1470065970E+02 Ha. Also 2DEtotal=   -0.400025293998E+03 eV
    (  non-var. 2DEtotal :   -1.4700659697E+01 Ha)

 Perturbation wavevector (in red.coord.)   0.000000  0.000000  0.000000
 Perturbation : derivative vs k along direction   2
 The set of symmetries contains only one element for this perturbation.
 symkpt : not enough symmetry to change the number of k points.

[...]

 Perturbation wavevector (in red.coord.)   0.000000  0.000000  0.000000
 Perturbation : derivative vs k along direction   3
 The set of symmetries contains only one element for this perturbation.
 symkpt : not enough symmetry to change the number of k points.

-inwffil : will read wavefunctions from disk file /scratch/users/j/a/jabreu/flow_simple_4atoms/flow/w223/t1/indata/in_WFK

 Initialisation of the first-order wave-functions :
  ireadwf=   0

--- !BeginCycle
iteration_state: {dtset: 1, }
solver: {iscf: 7, nstep: 100, nline: 4, wfoptalg: 0, }
tolerances: {tolwfr: 1.00E-20, }
...

     iter   2DEtotal(Ha)        deltaE(Ha) residm    vres2
-ETOT  1  -14.211451494630     -1.421E+01 1.009E-01 0.000E+00
 ETOT  2  -14.229746358529     -1.829E-02 2.665E-03 0.000E+00
 ETOT  3  -14.230193831464     -4.475E-04 4.222E-04 0.000E+00
 ETOT  4  -14.230223237073     -2.941E-05 4.553E-05 0.000E+00
 ETOT  5  -14.230225431762     -2.195E-06 1.187E-05 0.000E+00
 ETOT  6  -14.230225612819     -1.811E-07 1.857E-06 0.000E+00
 ETOT  7  -14.230225628409     -1.559E-08 3.831E-07 0.000E+00
 ETOT  8  -14.230225629843     -1.434E-09 1.073E-07 0.000E+00
 ETOT  9  -14.230225629979     -1.358E-10 1.441E-08 0.000E+00
 ETOT 10  -14.230225629992     -1.343E-11 6.278E-09 0.000E+00
 ETOT 11  -14.230225629994     -1.361E-12 8.392E-10 0.000E+00
 ETOT 12  -14.230225629994     -1.563E-13 3.708E-10 0.000E+00
 ETOT 13  -14.230225629994     -1.066E-14 4.927E-11 0.000E+00
 ETOT 14  -14.230225629994      1.066E-14 2.203E-11 0.000E+00
 ETOT 15  -14.230225629994     -7.105E-15 2.908E-12 0.000E+00
 ETOT 16  -14.230225629994      3.553E-15 1.315E-12 0.000E+00
 ETOT 17  -14.230225629994     -1.776E-15 1.722E-13 0.000E+00
 ETOT 18  -14.230225629994      1.066E-14 7.869E-14 0.000E+00
 ETOT 19  -14.230225629994     -8.882E-15 1.023E-14 0.000E+00
 ETOT 20  -14.230225629994      0.000E+00 4.722E-15 0.000E+00
 ETOT 21  -14.230225629994      0.000E+00 6.095E-16 0.000E+00
 ETOT 22  -14.230225629994      0.000E+00 2.839E-16 0.000E+00
 ETOT 23  -14.230225629994     -1.776E-15 3.638E-17 0.000E+00
 ETOT 24  -14.230225629994      1.776E-15 1.710E-17 0.000E+00
 ETOT 25  -14.230225629994     -3.553E-15 2.175E-18 0.000E+00
 ETOT 26  -14.230225629994      0.000E+00 1.031E-18 0.000E+00
 ETOT 27  -14.230225629994      0.000E+00 1.303E-19 0.000E+00
 ETOT 28  -14.230225629994      3.553E-15 6.227E-20 0.000E+00
 ETOT 29  -14.230225629994      1.776E-15 9.740E-21 0.000E+00

 At SCF step   29   max residual=  9.74E-21 < tolwfr=  1.00E-20 =>converged.

 ----iterations are completed or convergence reached----

 dfpt_looppert: DFPT cycle converged with prtwf=-1. Will skip output of the 1st-order WFK file.
 dfpt_looppert : ek2=    2.7273961181E+01
          f-sum rule ratio=    1.0023362199E+00
 prteigrs : about to open file /scratch/users/j/a/jabreu/flow_simple_4atoms/flow/w223/t1/tmpdata/tmp_1WF1_EIG
 Expectation of eigenvalue derivatives (hartree) for nkpt=   2  k points:
  (in case of degenerate eigenvalues, averaged derivative)
 kpt#   1, nband= 24, wtk=  0.50000, kpt=  0.5000  0.5000  0.0000 (reduced coord)
  -0.00000   -0.00000   -0.00000   -0.00000   -0.00000   -0.00000    0.00000   -0.00000
   0.00000   -0.00000    0.00000   -0.00000   -0.00000   -0.00000    0.00000   -0.00000
  -0.00000    0.00000   -0.00000    0.00000    0.00000   -0.00000   -0.00000    0.00001
 prteigrs : prtvol=0 or 1, do not print more k-points.

 Eight components of 2nd-order total energy (hartree) are
 1,2,3: 0th-order hamiltonian combined with 1st-order wavefunctions
     kin0=   1.17428566E+01 eigvalue=   4.55201410E-01  local=  -6.76459188E+00
 4,5,6: 1st-order hamiltonian combined with 1st and 0th-order wfs
     kin1=  -2.73376792E+01  Hartree=   0.00000000E+00     xc=   0.00000000E+00
 7,8,9: eventually, occupation + non-local contributions
    edocc=   6.97619286E+00     enl0=   1.82056668E+00   enl1=  -1.12277211E+00
 1-9 gives the relaxation energy (to be shifted if some occ is /=2.0)
   erelax=  -1.42302256E+01
  No Ewald or frozen-wf contrib.: the relaxation energy is the total one
 2DEtotal=   -0.1423022563E+02 Ha. Also 2DEtotal=   -0.387224132032E+03 eV
    (  non-var. 2DEtotal :   -1.4230225630E+01 Ha)

 CALCULATION OF EFFECTIVE MASSES
 NOTE : Additional infos (eff. mass eigenvalues, eigenvectors and, if degenerate, average mass) are available in stdout.

 K-point ( 0.500, 0.500, 0.000) | band =    15
 Effective mass tensor:
             -1.4378113939             -0.0298347442              1.1447925571
             -0.0298347442             -1.4216663460              0.8768659585
              1.1447925571              0.8768659585             -3.6510293308
 Effective mass tensor eigenvalues:
             -4.3666079429             -1.3988313132             -0.7450678146
 Angular average effective mass 1/(<1/m>)=  -1.3123055890
 Angular average effective mass for Frohlich model (<m**0.5>)**2=  -1.4939094263
 Effective masses along directions: (cart. coord. / red. coord. -> eff. mass)
    1:   1.000000  0.000000  0.000000 /   0.967709  0.252071  0.000000 ->  -1.0292498860
    2:   0.000000  1.000000  0.000000 /   0.000000  1.000000  0.000000 ->  -1.1553825667
    3:   0.000000  0.000000  1.000000 /   0.315282  0.315282  0.895095 ->  -2.2273830126
    4:   0.577350  0.577350  0.577350 /   0.581439  0.676896  0.451377 ->  -0.7648916497
    5:   0.000000  0.707107  0.707107 /   0.214315  0.764109  0.608446 ->  -1.0790247590
    6:   0.707107  0.000000  0.707107 /   0.741913  0.343281  0.575954 ->  -0.9414966065
    7:   0.707107  0.707107  0.000000 /   0.632079  0.774904  0.000000 ->  -0.8967105921

 K-point ( 0.217, 0.217, 0.217) | band =    16
 Effective mass tensor:
              1.6340678624             -0.3518752221             -0.6637443367
             -0.3518752221              1.8239357053             -0.5084011807
             -0.6637443367             -0.5084011807              1.1344657476
 Effective mass tensor eigenvalues:
              0.4055490391              2.0934583059              2.0934619702
 Angular average effective mass 1/(<1/m>)=   0.8768983276
 Angular average effective mass for Frohlich model (<m**0.5>)**2=   1.0742721742
 Effective masses along directions: (cart. coord. / red. coord. -> eff. mass)
    1:   1.000000  0.000000  0.000000 /   0.967709  0.252071  0.000000 ->   0.9815699911
    2:   0.000000  1.000000  0.000000 /   0.000000  1.000000  0.000000 ->   1.2576437110
    3:   0.000000  0.000000  1.000000 /   0.315282  0.315282  0.895095 ->   0.6221864042
    4:   0.577350  0.577350  0.577350 /   0.581439  0.676896  0.451377 ->   0.4278806448
    5:   0.000000  0.707107  0.707107 /   0.214315  0.764109  0.608446 ->   0.5555526681
    6:   0.707107  0.000000  0.707107 /   0.741913  0.343281  0.575954 ->   0.4773726302
    7:   0.707107  0.707107  0.000000 /   0.632079  0.774904  0.000000 ->   0.7567638787

 END OF EFFECTIVE MASSES SECTION

 ---- first-order wavefunction calculations are completed ----

 Total localisation tensor (bohr^2) in cartesian coordinates
  WARNING : still subject to testing - especially symmetries.
      direction              matrix element
   alpha     beta       real part   imaginary part
     1        1       1.4580336003    0.0000000000
     1        2       0.3433833140    0.0000000000
     1        3       0.6477215519    0.0000000000
     2        1       0.3433833140    0.0000000000
     2        2       1.2727513343    0.0000000000
     2        3       0.4961299209    0.0000000000
     3        1       0.6477215519    0.0000000000
     3        2       0.4961299209    0.0000000000
     3        3       1.8567295331    0.0000000000

 respfn : d/dk was computed, but no 2DTE, so no DDB output.

== END DATASET(S) ==============================================================

 -outvars: echo values of variables after computation  --------
            acell      1.0000000000E+00  1.0000000000E+00  1.0000000000E+00 Bohr
              amu      1.32905430E+02  1.26904470E+02  3.54527000E+01
             ecut      3.50000000E+01 Hartree
           etotal     -1.4230225630E+01
            fcart      0.0000000000E+00  0.0000000000E+00  0.0000000000E+00
                       0.0000000000E+00  0.0000000000E+00  0.0000000000E+00
                       0.0000000000E+00  0.0000000000E+00  0.0000000000E+00
                       0.0000000000E+00  0.0000000000E+00  0.0000000000E+00
-          fftalg         512
           irdden           1
           irdwfk           1
           istwfk        1    0
              ixc     -116133
              kpt      5.00000000E-01  5.00000000E-01  5.55111512E-17
                       2.17391304E-01  2.17391304E-01  2.17391304E-01
           kptopt           0
P           mkmem           2
P          mkqmem           2
P          mk1mem           2
            natom           4
            nband          24
           nbdbuf           4
            ngfft          60      60      60
             nkpt           2
            nstep         100
             nsym          12
           ntypat           3
              occ      2.000000  2.000000  2.000000  2.000000  2.000000  2.000000
                       2.000000  2.000000  2.000000  2.000000  2.000000  2.000000
                       2.000000  2.000000  2.000000  0.000000  0.000000  0.000000
                       0.000000  0.000000  0.000000  0.000000  0.000000  0.000000
        optdriver           1
            prtwf          -1
            rfdir           1       1       1
           rfelfd           2
            rprim      9.6524759234E+00  0.0000000000E+00  3.6327310257E+00
                       2.5142995127E+00  9.3192590592E+00  3.6327310257E+00
                       0.0000000000E+00  0.0000000000E+00  1.0313439104E+01
          spgroup         166
           strten      0.0000000000E+00  0.0000000000E+00  0.0000000000E+00
                       0.0000000000E+00  0.0000000000E+00  0.0000000000E+00
           symrel      1  0  0   0  1  0   0  0  1      -1  0  0   0 -1  0   0  0 -1
                       0  1  0   1  0  0   0  0  1       0 -1  0  -1  0  0   0  0 -1
                       0  0  1   1  0  0   0  1  0       0  0 -1  -1  0  0   0 -1  0
                       1  0  0   0  0  1   0  1  0      -1  0  0   0  0 -1   0 -1  0
                       0  1  0   0  0  1   1  0  0       0 -1  0   0  0 -1  -1  0  0
                       0  0  1   0  1  0   1  0  0       0  0 -1   0 -1  0  -1  0  0
           tolwfr      1.00000000E-20
            typat      1  2  3  3
           useylm           1
              wtk        0.50000    0.50000
           xangst      0.0000000000E+00  0.0000000000E+00  0.0000000000E+00
                       3.2191901314E+00  2.4657697475E+00  4.6511769218E+00
                       4.5464364691E+00  3.4823868883E+00  6.5688199572E+00
                       1.8919437937E+00  1.4491526068E+00  2.7335338864E+00
            xcart      0.0000000000E+00  0.0000000000E+00  0.0000000000E+00
                       6.0833877181E+00  4.6596295296E+00  8.7894505778E+00
                       8.5915198071E+00  6.5807575076E+00  1.2413270735E+01
                       3.5752556290E+00  2.7385015516E+00  5.1656304202E+00
             xred      0.0000000000E+00  0.0000000000E+00  0.0000000000E+00
                       5.0000000000E-01  5.0000000000E-01  5.0000000000E-01
                       7.0614600000E-01  7.0614600000E-01  7.0614600000E-01
                       2.9385400000E-01  2.9385400000E-01  2.9385400000E-01
            znucl       55.00000   53.00000   17.00000

- Timing analysis has been suppressed with timopt=0

 Suggested references for the acknowledgment of ABINIT usage.

 Calculation completed.
.Delivered  14 WARNINGs and   9 COMMENTs to log file.