.Version 9.5.1 of ABINIT

 ABINIT is a project of the Universite Catholique de Louvain,
 Corning Inc. and other collaborators, see ~abinit/doc/developers/contributors.txt .
 acknowledgments of the ABINIT effort.

.Starting date : Sun 25 Apr 2021.
- ( at 17h13 )

- input  file    -> /scratch/users/j/a/jabreu/flow_simple2/flow/w154/t1/run.abi
- output file    -> /scratch/users/j/a/jabreu/flow_simple2/flow/w154/t1/run.abo
- root for input  files -> /scratch/users/j/a/jabreu/flow_simple2/flow/w154/t1/indata/in
- root for output files -> /scratch/users/j/a/jabreu/flow_simple2/flow/w154/t1/outdata/out

 Symmetries : space group Fm -3 m (#225); Bravais cF (face-center cubic)
     intxc =       0      iscf =       7    lmnmax =      18     lnmax =       6
     mgfft =      48  mpssoang =       3    mqgrid =    3001     natom =       2
  nloc_mem =       1    nspden =       1   nspinor =       1    nsppol =       1
      nsym =      48    n1xccc =    2501    ntypat =       2    occopt =       1
   xclevel =       2
-    mband =          24        mffmem =           1         mkmem =           1
-   mkqmem =           1        mk1mem =           1           mpw =        4800
      nfft =      110592          nkpt =           1
  Rough estimation (10% accuracy) of disk space for files :

------------- Echo of variables that govern the present computation ------------
-
- outvars: echo of selected default values
-   iomode0 =  0 , fftalg0 =512 , wfoptalg0 =  0
-
- outvars: echo of global parameters not present in the input file
-  max_nthreads =    0
-
 -outvars: echo values of preprocessed input variables --------
            acell      1.0000000000E+00  1.0000000000E+00  1.0000000000E+00 Bohr
              amu      1.18710000E+02  7.89600000E+01
             ecut      4.30000000E+01 Hartree
-          fftalg         512
           irdden           1
           irdwfk           1
              ixc     -116133
              kpt      5.00000000E-01  4.66666667E-01  5.33333333E-01
           kptopt           0
P           mkmem           1
P          mkqmem           1
P          mk1mem           1
            natom           2
            nband          24
           nbdbuf           4
            ngfft          48      48      48
             nkpt           1
            nstep         100
             nsym          48
           ntypat           2
              occ      2.000000  2.000000  2.000000  2.000000  2.000000  2.000000
                       2.000000  2.000000  2.000000  2.000000  2.000000  2.000000
                       2.000000  2.000000  2.000000  0.000000  0.000000  0.000000
                       0.000000  0.000000  0.000000  0.000000  0.000000  0.000000
        optdriver           1
            prtwf          -1
            rfdir           1       1       1
           rfelfd           2
            rprim      6.8860095668E+00  0.0000000000E+00  3.9756394770E+00
                       2.2953365223E+00  6.4921920800E+00  3.9756394770E+00
                       0.0000000000E+00  0.0000000000E+00  7.9512789540E+00
          spgroup         225
           symrel      1  0  0   0  1  0   0  0  1      -1  0  0   0 -1  0   0  0 -1
                       0 -1  1   0 -1  0   1 -1  0       0  1 -1   0  1  0  -1  1  0
                      -1  0  0  -1  0  1  -1  1  0       1  0  0   1  0 -1   1 -1  0
                       0  1 -1   1  0 -1   0  0 -1       0 -1  1  -1  0  1   0  0  1
                      -1  0  0  -1  1  0  -1  0  1       1  0  0   1 -1  0   1  0 -1
                       0 -1  1   1 -1  0   0 -1  0       0  1 -1  -1  1  0   0  1  0
                       1  0  0   0  0  1   0  1  0      -1  0  0   0  0 -1   0 -1  0
                       0  1 -1   0  0 -1   1  0 -1       0 -1  1   0  0  1  -1  0  1
                      -1  0  1  -1  1  0  -1  0  0       1  0 -1   1 -1  0   1  0  0
                       0 -1  0   1 -1  0   0 -1  1       0  1  0  -1  1  0   0  1 -1
                       1  0 -1   0  0 -1   0  1 -1      -1  0  1   0  0  1   0 -1  1
                       0  1  0   0  0  1   1  0  0       0 -1  0   0  0 -1  -1  0  0
                       1  0 -1   0  1 -1   0  0 -1      -1  0  1   0 -1  1   0  0  1
                       0 -1  0   0 -1  1   1 -1  0       0  1  0   0  1 -1  -1  1  0
                      -1  0  1  -1  0  0  -1  1  0       1  0 -1   1  0  0   1 -1  0
                       0  1  0   1  0  0   0  0  1       0 -1  0  -1  0  0   0  0 -1
                       0  0 -1   0  1 -1   1  0 -1       0  0  1   0 -1  1  -1  0  1
                       1 -1  0   0 -1  1   0 -1  0      -1  1  0   0  1 -1   0  1  0
                       0  0  1   1  0  0   0  1  0       0  0 -1  -1  0  0   0 -1  0
                      -1  1  0  -1  0  0  -1  0  1       1 -1  0   1  0  0   1  0 -1
                       0  0  1   0  1  0   1  0  0       0  0 -1   0 -1  0  -1  0  0
                       1 -1  0   0 -1  0   0 -1  1      -1  1  0   0  1  0   0  1 -1
                       0  0 -1   1  0 -1   0  1 -1       0  0  1  -1  0  1   0 -1  1
                      -1  1  0  -1  0  1  -1  0  0       1 -1  0   1  0 -1   1  0  0
           tolwfr      1.00000000E-20
            typat      1  2
           useylm           1
           xangst      0.0000000000E+00  0.0000000000E+00  0.0000000000E+00
                       2.4292795473E+00  1.7177600413E+00  4.2076356016E+00
            xcart      0.0000000000E+00  0.0000000000E+00  0.0000000000E+00
                       4.5906730445E+00  3.2460960400E+00  7.9512789540E+00
             xred      0.0000000000E+00  0.0000000000E+00  0.0000000000E+00
                       5.0000000000E-01  5.0000000000E-01  5.0000000000E-01
            znucl       50.00000   34.00000

 chkinp: Checking input parameters for consistency.

== DATASET  1 ==================================================================
-   mpi_nproc: 1, omp_nthreads: -1 (-1 if OMP is not activated)

--- !DatasetInfo
iteration_state: {dtset: 1, }
dimensions: {natom: 2, nkpt: 1, mband: 24, nsppol: 1, nspinor: 1, nspden: 1, mpw: 4800, }
cutoff_energies: {ecut:  43.0, pawecutdg:  -1.0, }
electrons: {nelect:   3.00000000E+01, charge:   0.00000000E+00, occopt:   1.00000000E+00, tsmear:   1.00000000E-02, }
meta: {optdriver: 1, rfelfd: 2, }
...

 Real(R)+Recip(G) space primitive vectors, cartesian coordinates (Bohr,Bohr^-1):
 R(1)=  6.8860096  0.0000000  3.9756395  G(1)=  0.1452220 -0.0513437  0.0000000
 R(2)=  2.2953365  6.4921921  3.9756395  G(2)=  0.0000000  0.1540312  0.0000000
 R(3)=  0.0000000  0.0000000  7.9512790  G(3)= -0.0726110 -0.0513437  0.1257659
 Unit cell volume ucvol=  3.5546429E+02 bohr^3
 Angles (23,13,12)=  6.00000000E+01  6.00000000E+01  6.00000000E+01 degrees

 getcut: wavevector=  0.0000  0.0000  0.0000  ngfft=  48  48  48
         ecut(hartree)=     43.000   => boxcut(ratio)=   2.04505

--- Pseudopotential description ------------------------------------------------
- pspini: atom type   1  psp file is /scratch/users/j/a/jabreu/pseudos/PBEsol/Sn.psp8
- pspatm: opening atomic psp file    /scratch/users/j/a/jabreu/pseudos/PBEsol/Sn.psp8
- Sn    ONCVPSP-3.3.0  r_core=   2.27326   2.62311   1.85601
- 50.00000  14.00000    180112                znucl, zion, pspdat
    8 -116133    2    4       600   0.00000   pspcod,pspxc,lmax,lloc,mmax,r2well
    5.99000000000000    6.50000000000000    0.00000000000000   rchrg,fchrg,qchrg
     nproj     2     2     2
     extension_switch     1
  pspatm : epsatm=   32.44586081
         --- l  ekb(1:nproj) -->
             0    5.587869    0.749373
             1    4.197111    0.728791
             2   -5.271877   -1.523486
 pspatm: atomic psp has been read  and splines computed

- pspini: atom type   2  psp file is /scratch/users/j/a/jabreu/pseudos/PBEsol/Se.psp8
- pspatm: opening atomic psp file    /scratch/users/j/a/jabreu/pseudos/PBEsol/Se.psp8
- Se    ONCVPSP-3.3.0  r_core=   1.81943   1.50330   1.90835
- 34.00000  16.00000    180112                znucl, zion, pspdat
    8 -116133    2    4       600   0.00000   pspcod,pspxc,lmax,lloc,mmax,r2well
    5.99000000000000    5.00000000000000    0.00000000000000   rchrg,fchrg,qchrg
     nproj     2     2     2
     extension_switch     1
  pspatm : epsatm=   29.17862020
         --- l  ekb(1:nproj) -->
             0    8.973804    1.019550
             1    6.849857    1.297308
             2   -9.203962   -3.731027
 pspatm: atomic psp has been read  and splines computed

   1.84873443E+03                                ecore*ucvol(ha*bohr**3)

-inwffil : will read wavefunctions from disk file /scratch/users/j/a/jabreu/flow_simple2/flow/w154/t1/indata/in_WFK

 ==>  initialize data related to q vector <==

 The list of irreducible perturbations for this q vector is:
    1)    idir= 1    ipert=   3
    2)    idir= 2    ipert=   3
    3)    idir= 3    ipert=   3

 Perturbation wavevector (in red.coord.)   0.000000  0.000000  0.000000
 Perturbation : derivative vs k along direction   1

 dfpt_looppert : COMMENT -
  In a d/dk calculation, iscf is set to -3 automatically.
 The set of symmetries contains only one element for this perturbation.
 symkpt : not enough symmetry to change the number of k points.

[...]

 Initialisation of the first-order wave-functions :
  ireadwf=   0

--- !BeginCycle
iteration_state: {dtset: 1, }
solver: {iscf: 7, nstep: 100, nline: 4, wfoptalg: 0, }
tolerances: {tolwfr: 1.00E-20, }
...

     iter   2DEtotal(Ha)        deltaE(Ha) residm    vres2
-ETOT  1  -268.34496006144     -2.683E+02 7.287E-02 0.000E+00
 ETOT  2  -268.38127342484     -3.631E-02 9.919E-05 0.000E+00
 ETOT  3  -268.38129225504     -1.883E-05 5.084E-07 0.000E+00
 ETOT  4  -268.38129227956     -2.452E-08 3.042E-09 0.000E+00
 ETOT  5  -268.38129227960     -3.968E-11 2.814E-11 0.000E+00
 ETOT  6  -268.38129227960     -1.705E-12 3.279E-13 0.000E+00
 ETOT  7  -268.38129227960      1.705E-13 6.117E-15 0.000E+00
 ETOT  8  -268.38129227960      7.390E-13 1.152E-16 0.000E+00
 ETOT  9  -268.38129227960      5.684E-14 2.916E-18 0.000E+00
 ETOT 10  -268.38129227960      1.705E-13 6.497E-20 0.000E+00
 ETOT 11  -268.38129227960     -5.684E-14 9.906E-21 0.000E+00

 At SCF step   11   max residual=  9.91E-21 < tolwfr=  1.00E-20 =>converged.

 ----iterations are completed or convergence reached----

 dfpt_looppert: DFPT cycle converged with prtwf=-1. Will skip output of the 1st-order WFK file.
 dfpt_looppert : ek2=    5.6198958362E+01
          f-sum rule ratio=    7.4005365140E+00
 prteigrs : about to open file /scratch/users/j/a/jabreu/flow_simple2/flow/w154/t1/tmpdata/tmp_1WF1_EIG
 Expectation of eigenvalue derivatives (hartree) for nkpt=   1  k points:
  (in case of degenerate eigenvalues, averaged derivative)
 kpt#   1, nband= 24, wtk=  1.00000, kpt=  0.5000  0.4667  0.5333 (reduced coord)
  -0.00000    0.00000    0.00000    0.00000   -0.00000   -0.00000    0.00000    0.00000
   0.00000   -0.00000    0.00000    0.00000   -0.00000    0.00000    0.00000   -0.00000
   0.00000   -0.00000   -0.00000    0.00000   -0.00000    0.00000   -0.00000   -0.00000

 Eight components of 2nd-order total energy (hartree) are
 1,2,3: 0th-order hamiltonian combined with 1st-order wavefunctions
     kin0=   6.71790781E+01 eigvalue=   1.10756815E+01  local=  -2.91450519E+01
 4,5,6: 1st-order hamiltonian combined with 1st and 0th-order wfs
     kin1=  -4.15902443E+02  Hartree=   0.00000000E+00     xc=   0.00000000E+00
 7,8,9: eventually, occupation + non-local contributions
    edocc=   2.09803546E+02     enl0=   9.46803878E+00   enl1=  -1.20860141E+02
 1-9 gives the relaxation energy (to be shifted if some occ is /=2.0)
   erelax=  -2.68381292E+02
  No Ewald or frozen-wf contrib.: the relaxation energy is the total one
 2DEtotal=   -0.2683812923E+03 Ha. Also 2DEtotal=   -0.730302636506E+04 eV
    (  non-var. 2DEtotal :   -2.6838129228E+02 Ha)

 Perturbation wavevector (in red.coord.)   0.000000  0.000000  0.000000
 Perturbation : derivative vs k along direction   2
 The set of symmetries contains only one element for this perturbation.
 symkpt : not enough symmetry to change the number of k points.

[...]

 Perturbation wavevector (in red.coord.)   0.000000  0.000000  0.000000
 Perturbation : derivative vs k along direction   3
 The set of symmetries contains only one element for this perturbation.
 symkpt : not enough symmetry to change the number of k points.

-inwffil : will read wavefunctions from disk file /scratch/users/j/a/jabreu/flow_simple2/flow/w154/t1/indata/in_WFK

 Initialisation of the first-order wave-functions :
  ireadwf=   0

--- !BeginCycle
iteration_state: {dtset: 1, }
solver: {iscf: 7, nstep: 100, nline: 4, wfoptalg: 0, }
tolerances: {tolwfr: 1.00E-20, }
...

     iter   2DEtotal(Ha)        deltaE(Ha) residm    vres2
-ETOT  1  -231.42970934229     -2.314E+02 6.390E-02 0.000E+00
 ETOT  2  -231.46666473046     -3.696E-02 3.283E-04 0.000E+00
 ETOT  3  -231.46669317865     -2.845E-05 5.146E-06 0.000E+00
 ETOT  4  -231.46669325984     -8.119E-08 1.363E-07 0.000E+00
 ETOT  5  -231.46669326035     -5.065E-10 2.731E-09 0.000E+00
 ETOT  6  -231.46669326035     -2.899E-12 9.176E-11 0.000E+00
 ETOT  7  -231.46669326035     -3.013E-12 1.823E-12 0.000E+00
 ETOT  8  -231.46669326035      1.108E-12 6.516E-14 0.000E+00
 ETOT  9  -231.46669326035      3.695E-13 1.290E-15 0.000E+00
 ETOT 10  -231.46669326035      5.969E-13 4.713E-17 0.000E+00
 ETOT 11  -231.46669326035      1.990E-13 9.324E-19 0.000E+00
 ETOT 12  -231.46669326035      1.137E-13 3.436E-20 0.000E+00
 ETOT 13  -231.46669326035     -1.137E-13 9.030E-21 0.000E+00

 At SCF step   13   max residual=  9.03E-21 < tolwfr=  1.00E-20 =>converged.

 ----iterations are completed or convergence reached----

 dfpt_looppert: DFPT cycle converged with prtwf=-1. Will skip output of the 1st-order WFK file.
 dfpt_looppert : ek2=    5.6198958363E+01
          f-sum rule ratio=    6.2855377705E+00
 prteigrs : about to open file /scratch/users/j/a/jabreu/flow_simple2/flow/w154/t1/tmpdata/tmp_1WF1_EIG
 Expectation of eigenvalue derivatives (hartree) for nkpt=   1  k points:
  (in case of degenerate eigenvalues, averaged derivative)
 kpt#   1, nband= 24, wtk=  1.00000, kpt=  0.5000  0.4667  0.5333 (reduced coord)
  -0.00000    0.00000    0.00000   -0.00000    0.00000   -0.00059    0.00058    0.00032
  -0.00052    0.00003    0.01489    0.03605   -0.27763   -0.09468   -0.35764    0.22773
   0.14946    0.48151   -0.15300   -0.44060   -0.00679    0.05333    0.30088    0.48887

 Eight components of 2nd-order total energy (hartree) are
 1,2,3: 0th-order hamiltonian combined with 1st-order wavefunctions
     kin0=   6.71884643E+01 eigvalue=   1.10680305E+01  local=  -2.91663981E+01
 4,5,6: 1st-order hamiltonian combined with 1st and 0th-order wfs
     kin1=  -3.53240675E+02  Hartree=   0.00000000E+00     xc=   0.00000000E+00
 7,8,9: eventually, occupation + non-local contributions
    edocc=   1.72874504E+02     enl0=   9.50209295E+00   enl1=  -1.09692711E+02
 1-9 gives the relaxation energy (to be shifted if some occ is /=2.0)
   erelax=  -2.31466693E+02
  No Ewald or frozen-wf contrib.: the relaxation energy is the total one
 2DEtotal=   -0.2314666933E+03 Ha. Also 2DEtotal=   -0.629852904111E+04 eV
    (  non-var. 2DEtotal :   -2.3146669326E+02 Ha)

 CALCULATION OF EFFECTIVE MASSES
 NOTE : Additional infos (eff. mass eigenvalues, eigenvectors and, if degenerate, average mass) are available in stdout.

--- !WARNING
src_file: m_efmas.F90
src_line: 0
message: |

    Band(s)    15,
    are not band extrema, but saddle points;
    the transport equivalent formalism breaks down in these conditions.
    The associated tensor(s) will therefore not be printed.
...

 K-point ( 0.500, 0.467, 0.533) | band =    15
 Effective mass tensor:
     *** SADDLE POINT: TRANSPORT EQV. EFF. MASS NOT DEFINED (see WARNING above) ***
 Angular average effective mass 1/(<1/m>)=  -0.0120808157
 Angular average effective mass for Frohlich model (<m**0.5>)**2=  -0.1058875242
 Effective masses along directions: (cart. coord. / red. coord. -> eff. mass)
    1:   1.000000  0.000000  0.000000 /   0.948683  0.316228  0.000000 ->  -0.0184202964
    2:   0.000000  1.000000  0.000000 /   0.000000  1.000000  0.000000 ->  -0.0122352012
    3:   0.000000  0.000000  1.000000 /   0.408248  0.408248  0.816497 ->  -0.0089040638
    4:   0.577350  0.577350  0.577350 /   0.585539  0.688047  0.428644 ->  -0.0197746675
    5:   0.000000  0.707107  0.707107 /   0.289489  0.762222  0.578977 ->  -0.0051363026
    6:   0.707107  0.000000  0.707107 /   0.731423  0.422287  0.535439 ->  -0.1955738636
    7:   0.707107  0.707107  0.000000 /   0.616798  0.787122  0.000000 ->  -4.7016894617

 K-point ( 0.500, 0.467, 0.533) | band =    16
 Effective mass tensor:
              0.8022724819              0.2027795656              0.3772778232
              0.2027795656              0.4844279061             -0.2714590597
              0.3772778232             -0.2714590597              0.4968860239
 Effective mass tensor eigenvalues:
              0.0040224343              0.7223553551              1.0572086225
 Angular average effective mass 1/(<1/m>)=   0.0119552432
 Angular average effective mass for Frohlich model (<m**0.5>)**2=   0.0461145386
 Effective masses along directions: (cart. coord. / red. coord. -> eff. mass)
    1:   1.000000  0.000000  0.000000 /   0.948683  0.316228  0.000000 ->   0.0183926346
    2:   0.000000  1.000000  0.000000 /   0.000000  1.000000  0.000000 ->   0.0119854106
    3:   0.000000  0.000000  1.000000 /   0.408248  0.408248  0.816497 ->   0.0088392663
    4:   0.577350  0.577350  0.577350 /   0.585539  0.688047  0.428644 ->   0.0193017447
    5:   0.000000  0.707107  0.707107 /   0.289489  0.762222  0.578977 ->   0.0051523892
    6:   0.707107  0.000000  0.707107 /   0.731423  0.422287  0.535439 ->   0.1578606572
    7:   0.707107  0.707107  0.000000 /   0.616798  0.787122  0.000000 ->   0.3620925076

 END OF EFFECTIVE MASSES SECTION

 ---- first-order wavefunction calculations are completed ----

 Total localisation tensor (bohr^2) in cartesian coordinates
  WARNING : still subject to testing - especially symmetries.
      direction              matrix element
   alpha     beta       real part   imaginary part
     1        1    7540.8641539714    0.0000000000
     1        2    1858.0864568800    0.0000000000
     1        3    5112.2805687234    0.0000000000
     2        1    1858.0864568800    0.0000000000
     2        2    5255.4621346869    0.0000000000
     2        3    3218.3001480973    0.0000000000
     3        1    5112.2805687234    0.0000000000
     3        2    3218.3001480973    0.0000000000
     3        3   12148.6352593176    0.0000000000

 respfn : d/dk was computed, but no 2DTE, so no DDB output.

== END DATASET(S) ==============================================================

 -outvars: echo values of variables after computation  --------
            acell      1.0000000000E+00  1.0000000000E+00  1.0000000000E+00 Bohr
              amu      1.18710000E+02  7.89600000E+01
             ecut      4.30000000E+01 Hartree
           etotal     -2.3146669326E+02
            fcart      0.0000000000E+00  0.0000000000E+00  0.0000000000E+00
                       0.0000000000E+00  0.0000000000E+00  0.0000000000E+00
-          fftalg         512
           irdden           1
           irdwfk           1
              ixc     -116133
              kpt      5.00000000E-01  4.66666667E-01  5.33333333E-01
           kptopt           0
P           mkmem           1
P          mkqmem           1
P          mk1mem           1
            natom           2
            nband          24
           nbdbuf           4
            ngfft          48      48      48
             nkpt           1
            nstep         100
             nsym          48
           ntypat           2
              occ      2.000000  2.000000  2.000000  2.000000  2.000000  2.000000
                       2.000000  2.000000  2.000000  2.000000  2.000000  2.000000
                       2.000000  2.000000  2.000000  0.000000  0.000000  0.000000
                       0.000000  0.000000  0.000000  0.000000  0.000000  0.000000
        optdriver           1
            prtwf          -1
            rfdir           1       1       1
           rfelfd           2
            rprim      6.8860095668E+00  0.0000000000E+00  3.9756394770E+00
                       2.2953365223E+00  6.4921920800E+00  3.9756394770E+00
                       0.0000000000E+00  0.0000000000E+00  7.9512789540E+00
          spgroup         225
           strten      0.0000000000E+00  0.0000000000E+00  0.0000000000E+00
                       0.0000000000E+00  0.0000000000E+00  0.0000000000E+00
           symrel      1  0  0   0  1  0   0  0  1      -1  0  0   0 -1  0   0  0 -1
                       0 -1  1   0 -1  0   1 -1  0       0  1 -1   0  1  0  -1  1  0
                      -1  0  0  -1  0  1  -1  1  0       1  0  0   1  0 -1   1 -1  0
                       0  1 -1   1  0 -1   0  0 -1       0 -1  1  -1  0  1   0  0  1
                      -1  0  0  -1  1  0  -1  0  1       1  0  0   1 -1  0   1  0 -1
                       0 -1  1   1 -1  0   0 -1  0       0  1 -1  -1  1  0   0  1  0
                       1  0  0   0  0  1   0  1  0      -1  0  0   0  0 -1   0 -1  0
                       0  1 -1   0  0 -1   1  0 -1       0 -1  1   0  0  1  -1  0  1
                      -1  0  1  -1  1  0  -1  0  0       1  0 -1   1 -1  0   1  0  0
                       0 -1  0   1 -1  0   0 -1  1       0  1  0  -1  1  0   0  1 -1
                       1  0 -1   0  0 -1   0  1 -1      -1  0  1   0  0  1   0 -1  1
                       0  1  0   0  0  1   1  0  0       0 -1  0   0  0 -1  -1  0  0
                       1  0 -1   0  1 -1   0  0 -1      -1  0  1   0 -1  1   0  0  1
                       0 -1  0   0 -1  1   1 -1  0       0  1  0   0  1 -1  -1  1  0
                      -1  0  1  -1  0  0  -1  1  0       1  0 -1   1  0  0   1 -1  0
                       0  1  0   1  0  0   0  0  1       0 -1  0  -1  0  0   0  0 -1
                       0  0 -1   0  1 -1   1  0 -1       0  0  1   0 -1  1  -1  0  1
                       1 -1  0   0 -1  1   0 -1  0      -1  1  0   0  1 -1   0  1  0
                       0  0  1   1  0  0   0  1  0       0  0 -1  -1  0  0   0 -1  0
                      -1  1  0  -1  0  0  -1  0  1       1 -1  0   1  0  0   1  0 -1
                       0  0  1   0  1  0   1  0  0       0  0 -1   0 -1  0  -1  0  0
                       1 -1  0   0 -1  0   0 -1  1      -1  1  0   0  1  0   0  1 -1
                       0  0 -1   1  0 -1   0  1 -1       0  0  1  -1  0  1   0 -1  1
                      -1  1  0  -1  0  1  -1  0  0       1 -1  0   1  0 -1   1  0  0
           tolwfr      1.00000000E-20
            typat      1  2
           useylm           1
           xangst      0.0000000000E+00  0.0000000000E+00  0.0000000000E+00
                       2.4292795473E+00  1.7177600413E+00  4.2076356016E+00
            xcart      0.0000000000E+00  0.0000000000E+00  0.0000000000E+00
                       4.5906730445E+00  3.2460960400E+00  7.9512789540E+00
             xred      0.0000000000E+00  0.0000000000E+00  0.0000000000E+00
                       5.0000000000E-01  5.0000000000E-01  5.0000000000E-01
            znucl       50.00000   34.00000

- Timing analysis has been suppressed with timopt=0

 Suggested references for the acknowledgment of ABINIT usage.

 Calculation completed.
.Delivered   7 WARNINGs and   5 COMMENTs to log file.