.Version 9.5.1 of ABINIT

 ABINIT is a project of the Universite Catholique de Louvain,
 Corning Inc. and other collaborators, see ~abinit/doc/developers/contributors.txt .
 acknowledgments of the ABINIT effort.

.Starting date : Fri  7 May 2021.
- ( at 11h47 )

- input  file    -> /scratch/users/j/a/jabreu/flow_simple_7atoms/flow/w124/t1/run.abi
- output file    -> /scratch/users/j/a/jabreu/flow_simple_7atoms/flow/w124/t1/run.abo
- root for input  files -> /scratch/users/j/a/jabreu/flow_simple_7atoms/flow/w124/t1/indata/in
- root for output files -> /scratch/users/j/a/jabreu/flow_simple_7atoms/flow/w124/t1/outdata/out

 Symmetries : space group R-3 m (#166); Bravais hR (rhombohedral)
     intxc =       0      iscf =       7    lmnmax =      25     lnmax =       7
     mgfft =     108  mpssoang =       4    mqgrid =    3001     natom =       7
  nloc_mem =       1    nspden =       1   nspinor =       1    nsppol =       1
      nsym =      12    n1xccc =    2501    ntypat =       3    occopt =       1
   xclevel =       2
-    mband =          52        mffmem =           1         mkmem =           2
-   mkqmem =           2        mk1mem =           2           mpw =       22834
      nfft =     1259712          nkpt =           2
  Rough estimation (10% accuracy) of disk space for files :

------------- Echo of variables that govern the present computation ------------
-
- outvars: echo of selected default values
-   iomode0 =  0 , fftalg0 =512 , wfoptalg0 =  0
-
- outvars: echo of global parameters not present in the input file
-  max_nthreads =    0
-
 -outvars: echo values of preprocessed input variables --------
            acell      1.0000000000E+00  1.0000000000E+00  1.0000000000E+00 Bohr
              amu      3.90983000E+01  2.00590000E+02  7.49215900E+01
        autoparal           1
             ecut      4.20000000E+01 Hartree
-          fftalg         512
           irdden           1
           irdwfk           1
           istwfk        1    1
              ixc     -116133
              kpt      5.00000000E-01  5.00000000E-01  0.00000000E+00
                       0.00000000E+00  0.00000000E+00  0.00000000E+00
           kptopt           0
P           mkmem           2
P          mkqmem           2
P          mk1mem           2
            natom           7
            nband          52
           nbdbuf           4
            ngfft         108     108     108
             nkpt           2
            nstep        2000
             nsym          12
           ntypat           3
              occ      2.000000  2.000000  2.000000  2.000000  2.000000  2.000000
                       2.000000  2.000000  2.000000  2.000000  2.000000  2.000000
                       2.000000  2.000000  2.000000  2.000000  2.000000  2.000000
                       2.000000  2.000000  2.000000  2.000000  2.000000  2.000000
                       2.000000  2.000000  2.000000  2.000000  2.000000  2.000000
                       2.000000  2.000000  2.000000  2.000000  2.000000  2.000000
                       2.000000  2.000000  2.000000  2.000000  2.000000  2.000000
                       2.000000  0.000000  0.000000  0.000000  0.000000  0.000000
                       0.000000  0.000000  0.000000  0.000000
        optdriver           1
            prtwf          -1
            rfdir           1       1       1
           rfelfd           2
            rprim      1.0317072220E+01  0.0000000000E+00  1.5361712871E+01
                       4.6797948866E+00  9.1946451273E+00  1.5361712871E+01
                       0.0000000000E+00  0.0000000000E+00  1.8504707550E+01
          spgroup         166
           symrel      1  0  0   0  1  0   0  0  1      -1  0  0   0 -1  0   0  0 -1
                       0  1  0   1  0  0   0  0  1       0 -1  0  -1  0  0   0  0 -1
                       0  0  1   1  0  0   0  1  0       0  0 -1  -1  0  0   0 -1  0
                       1  0  0   0  0  1   0  1  0      -1  0  0   0  0 -1   0 -1  0
                       0  1  0   0  0  1   1  0  0       0 -1  0   0  0 -1  -1  0  0
                       0  0  1   0  1  0   1  0  0       0  0 -1   0 -1  0  -1  0  0
           tolwfr      1.00000000E-20
            typat      1  1  1  1  2  3  3
           useylm           1
              wtk        0.50000    0.50000
           xangst      1.6474660407E+00  1.0100686694E+00  5.4079080162E+00
                       6.2885342325E+00  3.8555279730E+00  2.0642498143E+01
                       3.0877469223E+00  1.8931112072E+00  1.0135718079E+01
                       4.8482533509E+00  2.9724854352E+00  1.5914688080E+01
                       0.0000000000E+00  0.0000000000E+00  0.0000000000E+00
                       7.2247283127E+00  4.4295126778E+00  2.3715612457E+01
                       7.1127196048E-01  4.3608396468E-01  2.3347937024E+00
            xcart      3.1132596302E+00  1.9087531606E+00  1.0219465103E+01
                       1.1883607477E+01  7.2858919667E+00  3.9008668189E+01
                       5.8349960508E+00  3.5774617208E+00  1.9153731329E+01
                       9.1618710560E+00  5.6171834065E+00  3.0074401962E+01
                       0.0000000000E+00  0.0000000000E+00  0.0000000000E+00
                       1.3652757895E+01  8.3705658631E+00  4.4816012617E+01
                       1.3441092113E+00  8.2407926418E-01  4.4121206744E+00
             xred      2.0759400000E-01  2.0759400000E-01  2.0759400000E-01
                       7.9240600000E-01  7.9240600000E-01  7.9240600000E-01
                       3.8908100000E-01  3.8908100000E-01  3.8908100000E-01
                       6.1091900000E-01  6.1091900000E-01  6.1091900000E-01
                       0.0000000000E+00  0.0000000000E+00  0.0000000000E+00
                       9.1037400000E-01  9.1037400000E-01  9.1037400000E-01
                       8.9626000000E-02  8.9626000000E-02  8.9626000000E-02
            znucl       19.00000   80.00000   33.00000

 chkinp: Checking input parameters for consistency.

== DATASET  1 ==================================================================
-   mpi_nproc: 1, omp_nthreads: -1 (-1 if OMP is not activated)

--- !DatasetInfo
iteration_state: {dtset: 1, }
dimensions: {natom: 7, nkpt: 2, mband: 52, nsppol: 1, nspinor: 1, nspden: 1, mpw: 22834, }
cutoff_energies: {ecut:  42.0, pawecutdg:  -1.0, }
electrons: {nelect:   8.60000000E+01, charge:   0.00000000E+00, occopt:   1.00000000E+00, tsmear:   1.00000000E-02, }
meta: {optdriver: 1, rfelfd: 2, }
...

 Real(R)+Recip(G) space primitive vectors, cartesian coordinates (Bohr,Bohr^-1):
 R(1)= 10.3170722  0.0000000 15.3617129  G(1)=  0.0969267 -0.0493328  0.0000000
 R(2)=  4.6797949  9.1946451 15.3617129  G(2)=  0.0000000  0.1087590  0.0000000
 R(3)=  0.0000000  0.0000000 18.5047076  G(3)= -0.0804639 -0.0493328  0.0540403
 Unit cell volume ucvol=  1.7553902E+03 bohr^3
 Angles (23,13,12)=  3.38856842E+01  3.38856842E+01  3.38856842E+01 degrees

 getcut: wavevector=  0.0000  0.0000  0.0000  ngfft= 108 108 108
         ecut(hartree)=     42.000   => boxcut(ratio)=   2.00061

--- Pseudopotential description ------------------------------------------------
- pspini: atom type   1  psp file is /scratch/users/j/a/jabreu/pseudos/PBEsol/K.psp8
- pspatm: opening atomic psp file    /scratch/users/j/a/jabreu/pseudos/PBEsol/K.psp8
- K     ONCVPSP-3.3.0  r_core=   1.36296   1.46408   1.61068
- 19.00000   9.00000    180112                znucl, zion, pspdat
    8 -116133    2    4       400   0.00000   pspcod,pspxc,lmax,lloc,mmax,r2well
    3.99000000000000    5.00000000000000    0.00000000000000   rchrg,fchrg,qchrg
     nproj     2     2     2
     extension_switch     1
  pspatm : epsatm=    8.32487830
         --- l  ekb(1:nproj) -->
             0   10.921326    0.816676
             1    4.431000    0.560368
             2   -3.384038   -1.043186
 pspatm: atomic psp has been read  and splines computed

- pspini: atom type   2  psp file is /scratch/users/j/a/jabreu/pseudos/PBEsol/Hg.psp8
- pspatm: opening atomic psp file    /scratch/users/j/a/jabreu/pseudos/PBEsol/Hg.psp8
- Hg    ONCVPSP-3.3.0  r_core=   1.60079   1.60079   1.45509   1.60079
- 80.00000  20.00000    180112                znucl, zion, pspdat
    8 -116133    3    4       600   0.00000   pspcod,pspxc,lmax,lloc,mmax,r2well
    5.99000000000000    5.00000000000000    0.00000000000000   rchrg,fchrg,qchrg
     nproj     2     2     2     1
     extension_switch     1
  pspatm : epsatm=   30.52477316
         --- l  ekb(1:nproj) -->
             0   15.280580    2.063595
             1   11.999965    1.374025
             2    2.245749    0.205661
             3    0.961656
 pspatm: atomic psp has been read  and splines computed

- pspini: atom type   3  psp file is /scratch/users/j/a/jabreu/pseudos/PBEsol/As.psp8
- pspatm: opening atomic psp file    /scratch/users/j/a/jabreu/pseudos/PBEsol/As.psp8
- As    ONCVPSP-3.3.0  r_core=   1.76603   1.70395   1.80867
- 33.00000  15.00000    180112                znucl, zion, pspdat
    8 -116133    2    4       600   0.00000   pspcod,pspxc,lmax,lloc,mmax,r2well
    5.99000000000000    5.00000000000000    0.00000000000000   rchrg,fchrg,qchrg
     nproj     2     2     2
     extension_switch     1
  pspatm : epsatm=   28.79155382
         --- l  ekb(1:nproj) -->
             0    8.270760    0.868950
             1    4.919053    0.756587
             2  -10.048665   -4.076802
 pspatm: atomic psp has been read  and splines computed

   1.04410359E+04                                ecore*ucvol(ha*bohr**3)

-inwffil : will read wavefunctions from disk file /scratch/users/j/a/jabreu/flow_simple_7atoms/flow/w124/t1/indata/in_WFK

 ==>  initialize data related to q vector <==

 The list of irreducible perturbations for this q vector is:
    1)    idir= 1    ipert=   8
    2)    idir= 2    ipert=   8
    3)    idir= 3    ipert=   8

 Perturbation wavevector (in red.coord.)   0.000000  0.000000  0.000000
 Perturbation : derivative vs k along direction   1

 dfpt_looppert : COMMENT -
  In a d/dk calculation, iscf is set to -3 automatically.
 The set of symmetries contains only one element for this perturbation.
 symkpt : not enough symmetry to change the number of k points.

[...]

 Initialisation of the first-order wave-functions :
  ireadwf=   0

--- !BeginCycle
iteration_state: {dtset: 1, }
solver: {iscf: 7, nstep: 2000, nline: 4, wfoptalg: 0, }
tolerances: {tolwfr: 1.00E-20, }
...

     iter   2DEtotal(Ha)        deltaE(Ha) residm    vres2
-ETOT  1  -62.517698526892     -6.252E+01 1.280E-01 0.000E+00
 ETOT  2  -62.668717332551     -1.510E-01 1.480E-02 0.000E+00
 ETOT  3  -62.671762263981     -3.045E-03 1.259E-03 0.000E+00
 ETOT  4  -62.671879018434     -1.168E-04 1.574E-04 0.000E+00
 ETOT  5  -62.671884921096     -5.903E-06 2.493E-05 0.000E+00
 ETOT  6  -62.671885253070     -3.320E-07 2.550E-06 0.000E+00
 ETOT  7  -62.671885272589     -1.952E-08 5.610E-07 0.000E+00
 ETOT  8  -62.671885273763     -1.175E-09 6.711E-08 0.000E+00
 ETOT  9  -62.671885273835     -7.212E-11 1.283E-08 0.000E+00
 ETOT 10  -62.671885273840     -4.505E-12 2.159E-09 0.000E+00
 ETOT 11  -62.671885273840     -3.055E-13 3.216E-10 0.000E+00
 ETOT 12  -62.671885273840      7.105E-15 7.018E-11 0.000E+00
 ETOT 13  -62.671885273840     -6.395E-14 1.027E-11 0.000E+00
 ETOT 14  -62.671885273840      8.527E-14 2.294E-12 0.000E+00
 ETOT 15  -62.671885273840     -2.842E-14 3.304E-13 0.000E+00
 ETOT 16  -62.671885273840      1.421E-14 7.522E-14 0.000E+00
 ETOT 17  -62.671885273840      2.842E-14 1.067E-14 0.000E+00
 ETOT 18  -62.671885273840     -4.974E-14 2.473E-15 0.000E+00
 ETOT 19  -62.671885273840      4.263E-14 3.460E-16 0.000E+00
 ETOT 20  -62.671885273840     -1.421E-14 8.145E-17 0.000E+00
 ETOT 21  -62.671885273840      1.421E-14 1.124E-17 0.000E+00
 ETOT 22  -62.671885273840     -2.842E-14 2.687E-18 0.000E+00
 ETOT 23  -62.671885273840      0.000E+00 3.660E-19 0.000E+00
 ETOT 24  -62.671885273840      0.000E+00 8.879E-20 0.000E+00
 ETOT 25  -62.671885273840     -2.132E-14 1.193E-20 0.000E+00
 ETOT 26  -62.671885273840      2.132E-14 9.941E-21 0.000E+00

 At SCF step   26   max residual=  9.94E-21 < tolwfr=  1.00E-20 =>converged.

 ----iterations are completed or convergence reached----

 dfpt_looppert: DFPT cycle converged with prtwf=-1. Will skip output of the 1st-order WFK file.
 dfpt_looppert : ek2=    8.0318990164E+01
          f-sum rule ratio=    1.0383492964E+00
 prteigrs : about to open file /scratch/users/j/a/jabreu/flow_simple_7atoms/flow/w124/t1/tmpdata/tmp_1WF1_EIG
 Expectation of eigenvalue derivatives (hartree) for nkpt=   2  k points:
  (in case of degenerate eigenvalues, averaged derivative)
 kpt#   1, nband= 52, wtk=  0.50000, kpt=  0.5000  0.5000  0.0000 (reduced coord)
   0.00000    0.00000   -0.00000   -0.00000   -0.00000    0.00000    0.00000   -0.00000
   0.00000    0.00000    0.00000    0.00000   -0.00000   -0.00000   -0.00000    0.00000
   0.00000    0.00000   -0.00000   -0.00000   -0.00000   -0.00000   -0.00000    0.00000
  -0.00000    0.00000    0.00000   -0.00000   -0.00000    0.00000   -0.00000    0.00000
  -0.00000    0.00000    0.00000   -0.00000    0.00000    0.00000   -0.00000   -0.00000
   0.00000    0.00000    0.00000   -0.00000   -0.00000    0.00000    0.00000   -0.00000
  -0.00000    0.00000   -0.00000   -0.00007
 prteigrs : prtvol=0 or 1, do not print more k-points.

 Eight components of 2nd-order total energy (hartree) are
 1,2,3: 0th-order hamiltonian combined with 1st-order wavefunctions
     kin0=   8.18033706E+01 eigvalue=   1.06315094E+01  local=  -4.30017564E+01
 4,5,6: 1st-order hamiltonian combined with 1st and 0th-order wfs
     kin1=  -8.33991669E+01  Hartree=   0.00000000E+00     xc=   0.00000000E+00
 7,8,9: eventually, occupation + non-local contributions
    edocc=   7.70780899E+00     enl0=   5.53095260E+00   enl1=  -4.19446036E+01
 1-9 gives the relaxation energy (to be shifted if some occ is /=2.0)
   erelax=  -6.26718853E+01
  No Ewald or frozen-wf contrib.: the relaxation energy is the total one
 2DEtotal=   -0.6267188527E+02 Ha. Also 2DEtotal=   -0.170538872742E+04 eV
    (  non-var. 2DEtotal :   -6.2671885273E+01 Ha)

 Perturbation wavevector (in red.coord.)   0.000000  0.000000  0.000000
 Perturbation : derivative vs k along direction   2
 The set of symmetries contains only one element for this perturbation.
 symkpt : not enough symmetry to change the number of k points.

[...]

 Perturbation wavevector (in red.coord.)   0.000000  0.000000  0.000000
 Perturbation : derivative vs k along direction   3
 The set of symmetries contains only one element for this perturbation.
 symkpt : not enough symmetry to change the number of k points.

-inwffil : will read wavefunctions from disk file /scratch/users/j/a/jabreu/flow_simple_7atoms/flow/w124/t1/indata/in_WFK

 Initialisation of the first-order wave-functions :
  ireadwf=   0

--- !BeginCycle
iteration_state: {dtset: 1, }
solver: {iscf: 7, nstep: 2000, nline: 4, wfoptalg: 0, }
tolerances: {tolwfr: 1.00E-20, }
...

     iter   2DEtotal(Ha)        deltaE(Ha) residm    vres2
-ETOT  1  -62.119526175675     -6.212E+01 1.282E-01 0.000E+00
 ETOT  2  -62.259123831752     -1.396E-01 1.423E-02 0.000E+00
 ETOT  3  -62.261897133762     -2.773E-03 1.265E-03 0.000E+00
 ETOT  4  -62.261996922549     -9.979E-05 1.671E-04 0.000E+00
 ETOT  5  -62.262001568952     -4.646E-06 2.500E-05 0.000E+00
 ETOT  6  -62.262001807064     -2.381E-07 3.274E-06 0.000E+00
 ETOT  7  -62.262001819825     -1.276E-08 5.624E-07 0.000E+00
 ETOT  8  -62.262001820524     -6.994E-10 6.960E-08 0.000E+00
 ETOT  9  -62.262001820564     -3.971E-11 1.286E-08 0.000E+00
 ETOT 10  -62.262001820566     -2.359E-12 1.540E-09 0.000E+00
 ETOT 11  -62.262001820566     -7.816E-14 2.969E-10 0.000E+00
 ETOT 12  -62.262001820567     -2.132E-14 3.468E-11 0.000E+00
 ETOT 13  -62.262001820566      2.842E-14 6.904E-12 0.000E+00
 ETOT 14  -62.262001820567     -2.132E-14 7.874E-13 0.000E+00
 ETOT 15  -62.262001820567     -2.842E-14 1.614E-13 0.000E+00
 ETOT 16  -62.262001820567      2.842E-14 1.794E-14 0.000E+00
 ETOT 17  -62.262001820567     -2.842E-14 3.793E-15 0.000E+00
 ETOT 18  -62.262001820567      0.000E+00 4.096E-16 0.000E+00
 ETOT 19  -62.262001820567      1.421E-14 1.004E-16 0.000E+00
 ETOT 20  -62.262001820566      2.842E-14 1.075E-17 0.000E+00
 ETOT 21  -62.262001820567     -2.842E-14 2.784E-18 0.000E+00
 ETOT 22  -62.262001820567     -7.105E-15 2.973E-19 0.000E+00
 ETOT 23  -62.262001820567      2.132E-14 7.742E-20 0.000E+00
 ETOT 24  -62.262001820567     -1.421E-14 9.861E-21 0.000E+00

 At SCF step   24   max residual=  9.86E-21 < tolwfr=  1.00E-20 =>converged.

 ----iterations are completed or convergence reached----

 dfpt_looppert: DFPT cycle converged with prtwf=-1. Will skip output of the 1st-order WFK file.
 dfpt_looppert : ek2=    8.0318990164E+01
          f-sum rule ratio=    1.0293177712E+00
 prteigrs : about to open file /scratch/users/j/a/jabreu/flow_simple_7atoms/flow/w124/t1/tmpdata/tmp_1WF1_EIG
 Expectation of eigenvalue derivatives (hartree) for nkpt=   2  k points:
  (in case of degenerate eigenvalues, averaged derivative)
 kpt#   1, nband= 52, wtk=  0.50000, kpt=  0.5000  0.5000  0.0000 (reduced coord)
  -0.00000    0.00000    0.00000    0.00000    0.00000   -0.00000   -0.00000   -0.00000
  -0.00000    0.00000   -0.00000   -0.00000   -0.00000   -0.00000    0.00000   -0.00000
  -0.00000    0.00000    0.00000    0.00000   -0.00000   -0.00000   -0.00000   -0.00000
   0.00000    0.00000   -0.00000    0.00000   -0.00000    0.00000    0.00000   -0.00000
  -0.00000   -0.00000    0.00000    0.00000    0.00000    0.00000    0.00000    0.00000
  -0.00000   -0.00000    0.00000    0.00000    0.00000   -0.00000   -0.00000   -0.00000
  -0.00000   -0.00000   -0.00000   -0.00000
 prteigrs : prtvol=0 or 1, do not print more k-points.

 Eight components of 2nd-order total energy (hartree) are
 1,2,3: 0th-order hamiltonian combined with 1st-order wavefunctions
     kin0=   8.32607784E+01 eigvalue=   1.05087861E+01  local=  -4.38069107E+01
 4,5,6: 1st-order hamiltonian combined with 1st and 0th-order wfs
     kin1=  -8.26737639E+01  Hartree=   0.00000000E+00     xc=   0.00000000E+00
 7,8,9: eventually, occupation + non-local contributions
    edocc=   6.84007361E+00     enl0=   5.45927446E+00   enl1=  -4.18502397E+01
 1-9 gives the relaxation energy (to be shifted if some occ is /=2.0)
   erelax=  -6.22620018E+01
  No Ewald or frozen-wf contrib.: the relaxation energy is the total one
 2DEtotal=   -0.6226200182E+02 Ha. Also 2DEtotal=   -0.169423523143E+04 eV
    (  non-var. 2DEtotal :   -6.2262001820E+01 Ha)

 CALCULATION OF EFFECTIVE MASSES
 NOTE : Additional infos (eff. mass eigenvalues, eigenvectors and, if degenerate, average mass) are available in stdout.

 K-point ( 0.500, 0.500, 0.000) | band =    43
 Effective mass tensor:
             -6.3071869408             -3.3360520724             -0.5876584989
             -3.3360520724             -2.9112931598             -0.3603043716
             -0.5876584989             -0.3603043716             -3.1355519855
 Effective mass tensor eigenvalues:
             -8.4420792185             -3.0460091017             -0.8659437659
 Angular average effective mass 1/(<1/m>)=  -1.8731712486
 Angular average effective mass for Frohlich model (<m**0.5>)**2=  -2.3761319495
 Effective masses along directions: (cart. coord. / red. coord. -> eff. mass)
    1:   1.000000  0.000000  0.000000 /   0.910692  0.413087  0.000000 ->  -2.4745197917
    2:   0.000000  1.000000  0.000000 /   0.000000  1.000000  0.000000 ->  -1.1459650114
    3:   0.000000  0.000000  1.000000 /   0.538299  0.538299  0.648435 ->  -3.0786636664
    4:   0.577350  0.577350  0.577350 /   0.595961  0.678522  0.429463 ->  -4.9396733520
    5:   0.000000  0.707107  0.707107 /   0.446928  0.714433  0.538369 ->  -1.7102553959
    6:   0.707107  0.000000  0.707107 /   0.685441  0.534966  0.493944 ->  -2.9272659967
    7:   0.707107  0.707107  0.000000 /   0.596710  0.802457  0.000000 ->  -5.6141565061

 K-point ( 0.000, 0.000, 0.000) | band =    44
 Effective mass tensor:
              0.2736435810             -0.0035100681             -0.0187928900
             -0.0035100681              0.2772166395             -0.0115219479
             -0.0187928900             -0.0115219479              0.2176801295
 Effective mass tensor eigenvalues:
              0.2098030099              0.2793686634              0.2793686766
 Angular average effective mass 1/(<1/m>)=   0.2515644216
 Angular average effective mass for Frohlich model (<m**0.5>)**2=   0.2530075477
 Effective masses along directions: (cart. coord. / red. coord. -> eff. mass)
    1:   1.000000  0.000000  0.000000 /   0.910692  0.413087  0.000000 ->   0.2719477776
    2:   0.000000  1.000000  0.000000 /   0.000000  1.000000  0.000000 ->   0.2765321743
    3:   0.000000  0.000000  1.000000 /   0.538299  0.538299  0.648435 ->   0.2158902837
    4:   0.577350  0.577350  0.577350 /   0.595961  0.678522  0.429463 ->   0.2293654369
    5:   0.000000  0.707107  0.707107 /   0.446928  0.714433  0.538369 ->   0.2314451679
    6:   0.707107  0.000000  0.707107 /   0.685441  0.534966  0.493944 ->   0.2234532259
    7:   0.707107  0.707107  0.000000 /   0.596710  0.802457  0.000000 ->   0.2697903164

 END OF EFFECTIVE MASSES SECTION

 ---- first-order wavefunction calculations are completed ----

 Total localisation tensor (bohr^2) in cartesian coordinates
  WARNING : still subject to testing - especially symmetries.
      direction              matrix element
   alpha     beta       real part   imaginary part
     1        1       1.7356452574    0.0000000000
     1        2       0.5819023519    0.0000000000
     1        3       3.1155190073    0.0000000000
     2        1       0.5819023519    0.0000000000
     2        2       1.1432948995    0.0000000000
     2        3       1.9101300517    0.0000000000
     3        1       3.1155190073    0.0000000000
     3        2       1.9101300517    0.0000000000
     3        3      10.7129923206    0.0000000000

 respfn : d/dk was computed, but no 2DTE, so no DDB output.

== END DATASET(S) ==============================================================

 -outvars: echo values of variables after computation  --------
            acell      1.0000000000E+00  1.0000000000E+00  1.0000000000E+00 Bohr
              amu      3.90983000E+01  2.00590000E+02  7.49215900E+01
        autoparal           1
             ecut      4.20000000E+01 Hartree
           etotal     -6.2262001821E+01
            fcart      0.0000000000E+00  0.0000000000E+00  0.0000000000E+00
                       0.0000000000E+00  0.0000000000E+00  0.0000000000E+00
                       0.0000000000E+00  0.0000000000E+00  0.0000000000E+00
                       0.0000000000E+00  0.0000000000E+00  0.0000000000E+00
                       0.0000000000E+00  0.0000000000E+00  0.0000000000E+00
                       0.0000000000E+00  0.0000000000E+00  0.0000000000E+00
                       0.0000000000E+00  0.0000000000E+00  0.0000000000E+00
-          fftalg         512
           irdden           1
           irdwfk           1
           istwfk        1    1
              ixc     -116133
              kpt      5.00000000E-01  5.00000000E-01  0.00000000E+00
                       0.00000000E+00  0.00000000E+00  0.00000000E+00
           kptopt           0
P           mkmem           2
P          mkqmem           2
P          mk1mem           2
            natom           7
            nband          52
           nbdbuf           4
            ngfft         108     108     108
             nkpt           2
            nstep        2000
             nsym          12
           ntypat           3
              occ      2.000000  2.000000  2.000000  2.000000  2.000000  2.000000
                       2.000000  2.000000  2.000000  2.000000  2.000000  2.000000
                       2.000000  2.000000  2.000000  2.000000  2.000000  2.000000
                       2.000000  2.000000  2.000000  2.000000  2.000000  2.000000
                       2.000000  2.000000  2.000000  2.000000  2.000000  2.000000
                       2.000000  2.000000  2.000000  2.000000  2.000000  2.000000
                       2.000000  2.000000  2.000000  2.000000  2.000000  2.000000
                       2.000000  0.000000  0.000000  0.000000  0.000000  0.000000
                       0.000000  0.000000  0.000000  0.000000
        optdriver           1
            prtwf          -1
            rfdir           1       1       1
           rfelfd           2
            rprim      1.0317072220E+01  0.0000000000E+00  1.5361712871E+01
                       4.6797948866E+00  9.1946451273E+00  1.5361712871E+01
                       0.0000000000E+00  0.0000000000E+00  1.8504707550E+01
          spgroup         166
           strten      0.0000000000E+00  0.0000000000E+00  0.0000000000E+00
                       0.0000000000E+00  0.0000000000E+00  0.0000000000E+00
           symrel      1  0  0   0  1  0   0  0  1      -1  0  0   0 -1  0   0  0 -1
                       0  1  0   1  0  0   0  0  1       0 -1  0  -1  0  0   0  0 -1
                       0  0  1   1  0  0   0  1  0       0  0 -1  -1  0  0   0 -1  0
                       1  0  0   0  0  1   0  1  0      -1  0  0   0  0 -1   0 -1  0
                       0  1  0   0  0  1   1  0  0       0 -1  0   0  0 -1  -1  0  0
                       0  0  1   0  1  0   1  0  0       0  0 -1   0 -1  0  -1  0  0
           tolwfr      1.00000000E-20
            typat      1  1  1  1  2  3  3
           useylm           1
              wtk        0.50000    0.50000
           xangst      1.6474660407E+00  1.0100686694E+00  5.4079080162E+00
                       6.2885342325E+00  3.8555279730E+00  2.0642498143E+01
                       3.0877469223E+00  1.8931112072E+00  1.0135718079E+01
                       4.8482533509E+00  2.9724854352E+00  1.5914688080E+01
                       0.0000000000E+00  0.0000000000E+00  0.0000000000E+00
                       7.2247283127E+00  4.4295126778E+00  2.3715612457E+01
                       7.1127196048E-01  4.3608396468E-01  2.3347937024E+00
            xcart      3.1132596302E+00  1.9087531606E+00  1.0219465103E+01
                       1.1883607477E+01  7.2858919667E+00  3.9008668189E+01
                       5.8349960508E+00  3.5774617208E+00  1.9153731329E+01
                       9.1618710560E+00  5.6171834065E+00  3.0074401962E+01
                       0.0000000000E+00  0.0000000000E+00  0.0000000000E+00
                       1.3652757895E+01  8.3705658631E+00  4.4816012617E+01
                       1.3441092113E+00  8.2407926418E-01  4.4121206744E+00
             xred      2.0759400000E-01  2.0759400000E-01  2.0759400000E-01
                       7.9240600000E-01  7.9240600000E-01  7.9240600000E-01
                       3.8908100000E-01  3.8908100000E-01  3.8908100000E-01
                       6.1091900000E-01  6.1091900000E-01  6.1091900000E-01
                       0.0000000000E+00  0.0000000000E+00  0.0000000000E+00
                       9.1037400000E-01  9.1037400000E-01  9.1037400000E-01
                       8.9626000000E-02  8.9626000000E-02  8.9626000000E-02
            znucl       19.00000   80.00000   33.00000

- Timing analysis has been suppressed with timopt=0

 Suggested references for the acknowledgment of ABINIT usage.

 Calculation completed.
.Delivered  14 WARNINGs and  11 COMMENTs to log file.