.Version 9.5.1 of ABINIT

 ABINIT is a project of the Universite Catholique de Louvain,
 Corning Inc. and other collaborators, see ~abinit/doc/developers/contributors.txt .
 acknowledgments of the ABINIT effort.

.Starting date : Tue  4 May 2021.
- ( at 19h17 )

- input  file    -> /scratch/users/j/a/jabreu/flow_simple_6atoms/flow/w187/t1/run.abi
- output file    -> /scratch/users/j/a/jabreu/flow_simple_6atoms/flow/w187/t1/run.abo
- root for input  files -> /scratch/users/j/a/jabreu/flow_simple_6atoms/flow/w187/t1/indata/in
- root for output files -> /scratch/users/j/a/jabreu/flow_simple_6atoms/flow/w187/t1/outdata/out

 Symmetries : space group P4/n m m (#129); Bravais tP (primitive tetrag.)
     intxc =       0      iscf =       7    lmnmax =      18     lnmax =       6
     mgfft =      90  mpssoang =       3    mqgrid =    4081     natom =       6
  nloc_mem =       1    nspden =       1   nspinor =       1    nsppol =       1
      nsym =      16    n1xccc =    2501    ntypat =       3    occopt =       1
   xclevel =       2
-    mband =          33        mffmem =           1         mkmem =           1
-   mkqmem =           1        mk1mem =           1           mpw =       13009
      nfft =      225000          nkpt =           1
  Rough estimation (10% accuracy) of disk space for files :

------------- Echo of variables that govern the present computation ------------
-
- outvars: echo of selected default values
-   iomode0 =  0 , fftalg0 =512 , wfoptalg0 =  0
-
- outvars: echo of global parameters not present in the input file
-  max_nthreads =    0
-
 -outvars: echo values of preprocessed input variables --------
            acell      1.0000000000E+00  1.0000000000E+00  1.0000000000E+00 Bohr
              amu      1.37327000E+02  7.99040000E+01  1.89984032E+01
             ecut      4.20000000E+01 Hartree
-          fftalg         512
           irdden           1
           irdwfk           1
           istwfk        1
              ixc     -116133
           kptopt           0
P           mkmem           1
P          mkqmem           1
P          mk1mem           1
            natom           6
            nband          33
           nbdbuf           4
            ngfft          50      50      90
             nkpt           1
            nstep        1000
             nsym          16
           ntypat           3
              occ      2.000000  2.000000  2.000000  2.000000  2.000000  2.000000
                       2.000000  2.000000  2.000000  2.000000  2.000000  2.000000
                       2.000000  2.000000  2.000000  2.000000  2.000000  2.000000
                       2.000000  2.000000  2.000000  2.000000  2.000000  2.000000
                       0.000000  0.000000  0.000000  0.000000  0.000000  0.000000
                       0.000000  0.000000  0.000000
        optdriver           1
            prtwf          -1
            rfdir           1       1       1
           rfelfd           2
            rprim      8.4436843234E+00  0.0000000000E+00  0.0000000000E+00
                       0.0000000000E+00  8.4436843234E+00  0.0000000000E+00
                       0.0000000000E+00  0.0000000000E+00  1.3985358888E+01
          spgroup         129
           symrel      1  0  0   0  1  0   0  0  1      -1  0  0   0 -1  0   0  0 -1
                      -1  0  0   0  1  0   0  0 -1       1  0  0   0 -1  0   0  0  1
                      -1  0  0   0 -1  0   0  0  1       1  0  0   0  1  0   0  0 -1
                       1  0  0   0 -1  0   0  0 -1      -1  0  0   0  1  0   0  0  1
                       0  1  0   1  0  0   0  0  1       0 -1  0  -1  0  0   0  0 -1
                       0 -1  0   1  0  0   0  0 -1       0  1  0  -1  0  0   0  0  1
                       0 -1  0  -1  0  0   0  0  1       0  1  0   1  0  0   0  0 -1
                       0  1  0  -1  0  0   0  0 -1       0 -1  0   1  0  0   0  0  1
            tnons      0.0000000  0.0000000  0.0000000     0.5000000  0.5000000  0.0000000
                       0.5000000  0.5000000  0.0000000     0.0000000  0.0000000  0.0000000
                       0.0000000  0.0000000  0.0000000     0.5000000  0.5000000  0.0000000
                       0.5000000  0.5000000  0.0000000     0.0000000  0.0000000  0.0000000
                       0.5000000  0.5000000  0.0000000     0.0000000  0.0000000  0.0000000
                       0.0000000  0.0000000  0.0000000     0.5000000  0.5000000  0.0000000
                       0.5000000  0.5000000  0.0000000     0.0000000  0.0000000  0.0000000
                       0.0000000  0.0000000  0.0000000     0.5000000  0.5000000  0.0000000
           tolwfr      1.00000000E-20
            typat      1  1  2  2  3  3
           useylm           1
           xangst      0.0000000000E+00  2.2341026502E+00  5.9792447533E+00
                       2.2341026502E+00  0.0000000000E+00  1.4214884244E+00
                       2.2341026502E+00  0.0000000000E+00  4.7971996501E+00
                       0.0000000000E+00  2.2341026502E+00  2.6035335275E+00
                       2.2341026502E+00  2.2341026502E+00  0.0000000000E+00
                       0.0000000000E+00  0.0000000000E+00  0.0000000000E+00
            xcart      0.0000000000E+00  4.2218421617E+00  1.1299135065E+01
                       4.2218421617E+00  0.0000000000E+00  2.6862238231E+00
                       4.2218421617E+00  0.0000000000E+00  9.0653935435E+00
                       0.0000000000E+00  4.2218421617E+00  4.9199653448E+00
                       4.2218421617E+00  4.2218421617E+00  0.0000000000E+00
                       0.0000000000E+00  0.0000000000E+00  0.0000000000E+00
             xred      0.0000000000E+00  5.0000000000E-01  8.0792600000E-01
                       5.0000000000E-01  0.0000000000E+00  1.9207400000E-01
                       5.0000000000E-01  0.0000000000E+00  6.4820600000E-01
                       0.0000000000E+00  5.0000000000E-01  3.5179400000E-01
                       5.0000000000E-01  5.0000000000E-01  0.0000000000E+00
                       0.0000000000E+00  0.0000000000E+00  0.0000000000E+00
            znucl       56.00000   35.00000    9.00000

 chkinp: Checking input parameters for consistency.

== DATASET  1 ==================================================================
-   mpi_nproc: 1, omp_nthreads: -1 (-1 if OMP is not activated)

--- !DatasetInfo
iteration_state: {dtset: 1, }
dimensions: {natom: 6, nkpt: 1, mband: 33, nsppol: 1, nspinor: 1, nspden: 1, mpw: 13009, }
cutoff_energies: {ecut:  42.0, pawecutdg:  -1.0, }
electrons: {nelect:   4.80000000E+01, charge:   0.00000000E+00, occopt:   1.00000000E+00, tsmear:   1.00000000E-02, }
meta: {optdriver: 1, rfelfd: 2, }
...

 Real(R)+Recip(G) space primitive vectors, cartesian coordinates (Bohr,Bohr^-1):
 R(1)=  8.4436843  0.0000000  0.0000000  G(1)=  0.1184317  0.0000000  0.0000000
 R(2)=  0.0000000  8.4436843  0.0000000  G(2)=  0.0000000  0.1184317  0.0000000
 R(3)=  0.0000000  0.0000000 13.9853589  G(3)=  0.0000000  0.0000000  0.0715033
 Unit cell volume ucvol=  9.9709742E+02 bohr^3
 Angles (23,13,12)=  9.00000000E+01  9.00000000E+01  9.00000000E+01 degrees

 getcut: wavevector=  0.0000  0.0000  0.0000  ngfft=  50  50  90
         ecut(hartree)=     42.000   => boxcut(ratio)=   2.02978

--- Pseudopotential description ------------------------------------------------
- pspini: atom type   1  psp file is /scratch/users/j/a/jabreu/pseudos/PBEsol/Ba.psp8
- pspatm: opening atomic psp file    /scratch/users/j/a/jabreu/pseudos/PBEsol/Ba.psp8
- Ba    ONCVPSP-3.3.0  r_core=   2.15444   1.91218   2.15444
- 56.00000  10.00000    180112                znucl, zion, pspdat
    8 -116133    2    4       600   0.00000   pspcod,pspxc,lmax,lloc,mmax,r2well
    5.99000000000000    5.00000000000000    0.00000000000000   rchrg,fchrg,qchrg
     nproj     2     2     2
     extension_switch     1
  pspatm : epsatm=   26.37418029
         --- l  ekb(1:nproj) -->
             0    6.652372    0.677024
             1    5.027722    0.408462
             2    2.543237    0.416854
 pspatm: atomic psp has been read  and splines computed

- pspini: atom type   2  psp file is /scratch/users/j/a/jabreu/pseudos/PBEsol/Br.psp8
- pspatm: opening atomic psp file    /scratch/users/j/a/jabreu/pseudos/PBEsol/Br.psp8
- Br    ONCVPSP-3.3.0  r_core=   1.81012   1.51356   1.92136
- 35.00000   7.00000    180112                znucl, zion, pspdat
    8 -116133    2    4       600   0.00000   pspcod,pspxc,lmax,lloc,mmax,r2well
    5.99000000000000    8.00000000000000    0.00000000000000   rchrg,fchrg,qchrg
     nproj     2     2     2
     extension_switch     1
  pspatm : epsatm=   10.94933070
         --- l  ekb(1:nproj) -->
             0    8.508690    0.897946
             1    5.393311    0.892021
             2    2.527513    0.394763
 pspatm: atomic psp has been read  and splines computed

- pspini: atom type   3  psp file is /scratch/users/j/a/jabreu/pseudos/PBEsol/F.psp8
- pspatm: opening atomic psp file    /scratch/users/j/a/jabreu/pseudos/PBEsol/F.psp8
- F     ONCVPSP-3.3.0  r_core=   1.30942   1.45782   1.60379
-  9.00000   7.00000    180112                znucl, zion, pspdat
    8 -116133    2    4       600   0.00000   pspcod,pspxc,lmax,lloc,mmax,r2well
    5.99000000000000    2.50000000000000    0.00000000000000   rchrg,fchrg,qchrg
     nproj     2     2     1
     extension_switch     1
  pspatm : epsatm=    4.89824824
         --- l  ekb(1:nproj) -->
             0    6.506434    1.065875
             1   -3.978753   -1.295852
             2   -2.394754
 pspatm: atomic psp has been read  and splines computed

   4.05328889E+03                                ecore*ucvol(ha*bohr**3)

-inwffil : will read wavefunctions from disk file /scratch/users/j/a/jabreu/flow_simple_6atoms/flow/w187/t1/indata/in_WFK

 ==>  initialize data related to q vector <==

 The list of irreducible perturbations for this q vector is:
    1)    idir= 1    ipert=   7
    2)    idir= 2    ipert=   7
    3)    idir= 3    ipert=   7

 Perturbation wavevector (in red.coord.)   0.000000  0.000000  0.000000
 Perturbation : derivative vs k along direction   1

 dfpt_looppert : COMMENT -
  In a d/dk calculation, iscf is set to -3 automatically.
 The set of symmetries contains only one element for this perturbation.
 symkpt : not enough symmetry to change the number of k points.

[...]

 Initialisation of the first-order wave-functions :
  ireadwf=   0

--- !BeginCycle
iteration_state: {dtset: 1, }
solver: {iscf: 7, nstep: 1000, nline: 4, wfoptalg: 0, }
tolerances: {tolwfr: 1.00E-20, }
...

     iter   2DEtotal(Ha)        deltaE(Ha) residm    vres2
-ETOT  1  -31.515017508564     -3.152E+01 2.809E-02 0.000E+00
 ETOT  2  -31.528768264403     -1.375E-02 8.387E-04 0.000E+00
 ETOT  3  -31.528814813911     -4.655E-05 7.666E-06 0.000E+00
 ETOT  4  -31.528815134426     -3.205E-07 9.060E-07 0.000E+00
 ETOT  5  -31.528815137035     -2.609E-09 2.130E-08 0.000E+00
 ETOT  6  -31.528815137057     -2.213E-11 3.208E-09 0.000E+00
 ETOT  7  -31.528815137058     -2.345E-13 7.590E-11 0.000E+00
 ETOT  8  -31.528815137058      1.421E-14 1.204E-11 0.000E+00
 ETOT  9  -31.528815137058     -1.421E-14 2.845E-13 0.000E+00
 ETOT 10  -31.528815137058      3.553E-15 4.684E-14 0.000E+00
 ETOT 11  -31.528815137058      1.421E-14 1.107E-15 0.000E+00
 ETOT 12  -31.528815137058     -3.553E-15 1.863E-16 0.000E+00
 ETOT 13  -31.528815137058      3.553E-15 5.963E-18 0.000E+00
 ETOT 14  -31.528815137058      0.000E+00 7.506E-19 0.000E+00
 ETOT 15  -31.528815137058     -3.553E-15 3.397E-20 0.000E+00
 ETOT 16  -31.528815137058      0.000E+00 9.187E-21 0.000E+00

 At SCF step   16   max residual=  9.19E-21 < tolwfr=  1.00E-20 =>converged.

 ----iterations are completed or convergence reached----

 dfpt_looppert: DFPT cycle converged with prtwf=-1. Will skip output of the 1st-order WFK file.
 dfpt_looppert : ek2=    5.3157799291E+01
          f-sum rule ratio=    1.1051439675E+00
 prteigrs : about to open file /scratch/users/j/a/jabreu/flow_simple_6atoms/flow/w187/t1/tmpdata/tmp_1WF1_EIG
 Expectation of eigenvalue derivatives (hartree) for nkpt=   1  k points:
  (in case of degenerate eigenvalues, averaged derivative)
 kpt#   1, nband= 33, wtk=  1.00000, kpt=  0.0000  0.0000  0.0000 (reduced coord)
   0.00000    0.00000   -0.00000    0.00000   -0.00000   -0.00000    0.00000    0.00000
  -0.00000   -0.00000   -0.00000   -0.00000   -0.00000   -0.00000    0.00000    0.00000
   0.00000    0.00000   -0.00000   -0.00000   -0.00000    0.00000   -0.00000   -0.00000
  -0.00000   -0.00000   -0.00000    0.00000    0.00000    0.00000   -0.00000   -0.02236
  -0.00000

 Eight components of 2nd-order total energy (hartree) are
 1,2,3: 0th-order hamiltonian combined with 1st-order wavefunctions
     kin0=   2.94459589E+01 eigvalue=   3.17091070E-01  local=  -1.46428509E+01
 4,5,6: 1st-order hamiltonian combined with 1st and 0th-order wfs
     kin1=  -5.87470212E+01  Hartree=   0.00000000E+00     xc=   0.00000000E+00
 7,8,9: eventually, occupation + non-local contributions
    edocc=   1.32481273E+01     enl0=   3.16048870E+00   enl1=  -4.31060906E+00
 1-9 gives the relaxation energy (to be shifted if some occ is /=2.0)
   erelax=  -3.15288151E+01
  No Ewald or frozen-wf contrib.: the relaxation energy is the total one
 2DEtotal=   -0.3152881514E+02 Ha. Also 2DEtotal=   -0.857942691345E+03 eV
    (  non-var. 2DEtotal :   -3.1528815137E+01 Ha)

 Perturbation wavevector (in red.coord.)   0.000000  0.000000  0.000000
 Perturbation : derivative vs k along direction   2
 The set of symmetries contains only one element for this perturbation.
 symkpt : not enough symmetry to change the number of k points.

[...]

 Perturbation wavevector (in red.coord.)   0.000000  0.000000  0.000000
 Perturbation : derivative vs k along direction   3
 The set of symmetries contains only one element for this perturbation.
 symkpt : not enough symmetry to change the number of k points.

-inwffil : will read wavefunctions from disk file /scratch/users/j/a/jabreu/flow_simple_6atoms/flow/w187/t1/indata/in_WFK

 Initialisation of the first-order wave-functions :
  ireadwf=   0

--- !BeginCycle
iteration_state: {dtset: 1, }
solver: {iscf: 7, nstep: 1000, nline: 4, wfoptalg: 0, }
tolerances: {tolwfr: 1.00E-20, }
...

     iter   2DEtotal(Ha)        deltaE(Ha) residm    vres2
-ETOT  1  -11.082435150282     -1.108E+01 5.818E-03 0.000E+00
 ETOT  2  -11.087442077904     -5.007E-03 6.361E-05 0.000E+00
 ETOT  3  -11.087452197243     -1.012E-05 2.167E-07 0.000E+00
 ETOT  4  -11.087452287658     -9.042E-08 8.016E-09 0.000E+00
 ETOT  5  -11.087452288843     -1.185E-09 4.146E-11 0.000E+00
 ETOT  6  -11.087452288860     -1.650E-11 3.117E-12 0.000E+00
 ETOT  7  -11.087452288860     -2.469E-13 5.553E-14 0.000E+00
 ETOT  8  -11.087452288860      1.776E-15 4.344E-15 0.000E+00
 ETOT  9  -11.087452288860      0.000E+00 7.938E-17 0.000E+00
 ETOT 10  -11.087452288860      3.553E-15 6.226E-18 0.000E+00
 ETOT 11  -11.087452288860     -3.553E-15 1.153E-19 0.000E+00
 ETOT 12  -11.087452288860      0.000E+00 9.650E-21 0.000E+00

 At SCF step   12   max residual=  9.65E-21 < tolwfr=  1.00E-20 =>converged.

 ----iterations are completed or convergence reached----

 dfpt_looppert: DFPT cycle converged with prtwf=-1. Will skip output of the 1st-order WFK file.
 dfpt_looppert : ek2=    1.9376875041E+01
          f-sum rule ratio=    1.0648851057E+00
 prteigrs : about to open file /scratch/users/j/a/jabreu/flow_simple_6atoms/flow/w187/t1/tmpdata/tmp_1WF1_EIG
 Expectation of eigenvalue derivatives (hartree) for nkpt=   1  k points:
  (in case of degenerate eigenvalues, averaged derivative)
 kpt#   1, nband= 33, wtk=  1.00000, kpt=  0.0000  0.0000  0.0000 (reduced coord)
  -0.00000    0.00000    0.00000   -0.00000   -0.00000    0.00000   -0.00000   -0.00000
  -0.00000    0.00000    0.00000    0.00000   -0.00000    0.00000   -0.00000   -0.00000
  -0.00000   -0.00000   -0.00000    0.00000    0.00000    0.00000   -0.00000   -0.00000
  -0.00000    0.00000    0.00000   -0.00000   -0.00000   -0.00000    0.00000    0.00006
   0.00000

 Eight components of 2nd-order total energy (hartree) are
 1,2,3: 0th-order hamiltonian combined with 1st-order wavefunctions
     kin0=   1.25779865E+01 eigvalue=   1.69960336E-01  local=  -6.48085170E+00
 4,5,6: 1st-order hamiltonian combined with 1st and 0th-order wfs
     kin1=  -2.06341456E+01  Hartree=   0.00000000E+00     xc=   0.00000000E+00
 7,8,9: eventually, occupation + non-local contributions
    edocc=   3.58003130E+00     enl0=   1.24032588E+00   enl1=  -1.54075895E+00
 1-9 gives the relaxation energy (to be shifted if some occ is /=2.0)
   erelax=  -1.10874523E+01
  No Ewald or frozen-wf contrib.: the relaxation energy is the total one
 2DEtotal=   -0.1108745229E+02 Ha. Also 2DEtotal=   -0.301704920262E+03 eV
    (  non-var. 2DEtotal :   -1.1087452289E+01 Ha)

 CALCULATION OF EFFECTIVE MASSES
 NOTE : Additional infos (eff. mass eigenvalues, eigenvectors and, if degenerate, average mass) are available in stdout.

 COMMENTS:
 - At k-point ( 0.000, 0.000, 0.000), bands    23 through    24
   are DEGENERATE (effective mass tensor is therefore not defined).
   See Section IIIB Eqs. (67)-(70) and Appendix E of PRB 93 205147 (2016).
 - Angular average effective mass for Frohlich model is to be averaged over degenerate bands. See later.
 - Associated theta integrals calculated with ntheta=   1000 points.

 K-point ( 0.000, 0.000, 0.000) | band =    23
 Transport equivalent effective mass tensor:
             -0.4689118478              0.0000015982             -0.0000030702
              0.0000015982             -0.4689111498              0.0000003535
             -0.0000030702              0.0000003535             -5.0126588570
 Transport equivalent effective mass tensor eigenvalues:
             -5.0126588570             -0.4689131347             -0.4689098629
 Angular average effective mass 1/(<1/m>)=  -0.6474078122
 Angular average effective mass for Frohlich model (<m**0.5>)**2=  -0.7925886986
 Effective masses along directions: (cart. coord. / red. coord. -> eff. mass)
    1:   1.000000  0.000000  0.000000 /   1.000000  0.000000  0.000000 ->  -0.5188327034
    2:   0.000000  1.000000  0.000000 /   0.000000  1.000000  0.000000 ->  -0.5188326976
    3:   0.000000  0.000000  1.000000 /   0.000000  0.000000  1.000000 ->  -4.7292350556
    4:   0.577350  0.577350  0.577350 /   0.459152  0.459152  0.760499 ->  -0.5859457120
    5:   0.000000  0.707107  0.707107 /   0.000000  0.516855  0.856073 ->  -0.9350818294
    6:   0.707107  0.000000  0.707107 /   0.516855  0.000000  0.856073 ->  -0.9350837152
    7:   0.707107  0.707107  0.000000 /   0.707107  0.707107  0.000000 ->  -0.4074575391

 K-point ( 0.000, 0.000, 0.000) | band =    24
 Transport equivalent effective mass tensor:
             -4.5926977175             -0.0000604801             -0.0000158552
             -0.0000604801             -4.5926949149             -0.0000139499
             -0.0000158552             -0.0000139499            -14.5844957863
 Transport equivalent effective mass tensor eigenvalues:
            -14.5844957864             -4.5927568125             -4.5926358200
 Angular average effective mass 1/(<1/m>)=  -2.6594170877
 Angular average effective mass for Frohlich model (<m**0.5>)**2=  -2.9831946533
 Effective masses along directions: (cart. coord. / red. coord. -> eff. mass)
    1:   1.000000  0.000000  0.000000 /   1.000000  0.000000  0.000000 ->  -1.3474926861
    2:   0.000000  1.000000  0.000000 /   0.000000  1.000000  0.000000 ->  -1.3474926877
    3:   0.000000  0.000000  1.000000 /   0.000000  0.000000  1.000000 ->  -4.7295816284
    4:   0.577350  0.577350  0.577350 /   0.459152  0.459152  0.760499 ->  -4.6729037390
    5:   0.000000  0.707107  0.707107 /   0.000000  0.516855  0.856073 ->  -2.0974080131
    6:   0.707107  0.000000  0.707107 /   0.516855  0.000000  0.856073 ->  -2.0974051911
    7:   0.707107  0.707107  0.000000 /   0.707107  0.707107  0.000000 ->  -4.6451318885

 Angular average effective mass for Frohlich model, averaged over degenerate bands.
 Value of     (<<m**0.5>>)**2 =     1.712784E+00
 Absolute Value of <<m**0.5>> =     1.308734E+00

 K-point ( 0.000, 0.000, 0.000) | band =    25
 Effective mass tensor:
              0.4130898698             -0.0000000819              0.0000000243
             -0.0000000819              0.4130898830             -0.0000000303
              0.0000000243             -0.0000000303              0.8926958784
 Effective mass tensor eigenvalues:
              0.4130897942              0.4130899586              0.8926958784
 Angular average effective mass 1/(<1/m>)=   0.5032067921
 Angular average effective mass for Frohlich model (<m**0.5>)**2=   0.5203964282
 Effective masses along directions: (cart. coord. / red. coord. -> eff. mass)
    1:   1.000000  0.000000  0.000000 /   1.000000  0.000000  0.000000 ->   0.4130898698
    2:   0.000000  1.000000  0.000000 /   0.000000  1.000000  0.000000 ->   0.4130898830
    3:   0.000000  0.000000  1.000000 /   0.000000  0.000000  1.000000 ->   0.8926958784
    4:   0.577350  0.577350  0.577350 /   0.459152  0.459152  0.760499 ->   0.5032067083
    5:   0.000000  0.707107  0.707107 /   0.000000  0.516855  0.856073 ->   0.5648148873
    6:   0.707107  0.000000  0.707107 /   0.516855  0.000000  0.856073 ->   0.5648149222
    7:   0.707107  0.707107  0.000000 /   0.707107  0.707107  0.000000 ->   0.4130897945

 END OF EFFECTIVE MASSES SECTION

 ---- first-order wavefunction calculations are completed ----

 Total localisation tensor (bohr^2) in cartesian coordinates
  WARNING : still subject to testing - especially symmetries.
      direction              matrix element
   alpha     beta       real part   imaginary part
     1        1       1.1796091926    0.0000000000
     1        2       0.0000000000    0.0000000000
     1        3       0.0000000000    0.0000000000
     2        1       0.0000000000    0.0000000000
     2        2       1.1796078894    0.0000000000
     2        3       0.0000000000    0.0000000000
     3        1       0.0000000000    0.0000000000
     3        2       0.0000000000    0.0000000000
     3        3       1.0627234475    0.0000000000

 respfn : d/dk was computed, but no 2DTE, so no DDB output.

== END DATASET(S) ==============================================================

 -outvars: echo values of variables after computation  --------
            acell      1.0000000000E+00  1.0000000000E+00  1.0000000000E+00 Bohr
              amu      1.37327000E+02  7.99040000E+01  1.89984032E+01
             ecut      4.20000000E+01 Hartree
           etotal     -1.1087452289E+01
            fcart      0.0000000000E+00  0.0000000000E+00  0.0000000000E+00
                       0.0000000000E+00  0.0000000000E+00  0.0000000000E+00
                       0.0000000000E+00  0.0000000000E+00  0.0000000000E+00
                       0.0000000000E+00  0.0000000000E+00  0.0000000000E+00
                       0.0000000000E+00  0.0000000000E+00  0.0000000000E+00
                       0.0000000000E+00  0.0000000000E+00  0.0000000000E+00
-          fftalg         512
           irdden           1
           irdwfk           1
           istwfk        1
              ixc     -116133
           kptopt           0
P           mkmem           1
P          mkqmem           1
P          mk1mem           1
            natom           6
            nband          33
           nbdbuf           4
            ngfft          50      50      90
             nkpt           1
            nstep        1000
             nsym          16
           ntypat           3
              occ      2.000000  2.000000  2.000000  2.000000  2.000000  2.000000
                       2.000000  2.000000  2.000000  2.000000  2.000000  2.000000
                       2.000000  2.000000  2.000000  2.000000  2.000000  2.000000
                       2.000000  2.000000  2.000000  2.000000  2.000000  2.000000
                       0.000000  0.000000  0.000000  0.000000  0.000000  0.000000
                       0.000000  0.000000  0.000000
        optdriver           1
            prtwf          -1
            rfdir           1       1       1
           rfelfd           2
            rprim      8.4436843234E+00  0.0000000000E+00  0.0000000000E+00
                       0.0000000000E+00  8.4436843234E+00  0.0000000000E+00
                       0.0000000000E+00  0.0000000000E+00  1.3985358888E+01
          spgroup         129
           strten      0.0000000000E+00  0.0000000000E+00  0.0000000000E+00
                       0.0000000000E+00  0.0000000000E+00  0.0000000000E+00
           symrel      1  0  0   0  1  0   0  0  1      -1  0  0   0 -1  0   0  0 -1
                      -1  0  0   0  1  0   0  0 -1       1  0  0   0 -1  0   0  0  1
                      -1  0  0   0 -1  0   0  0  1       1  0  0   0  1  0   0  0 -1
                       1  0  0   0 -1  0   0  0 -1      -1  0  0   0  1  0   0  0  1
                       0  1  0   1  0  0   0  0  1       0 -1  0  -1  0  0   0  0 -1
                       0 -1  0   1  0  0   0  0 -1       0  1  0  -1  0  0   0  0  1
                       0 -1  0  -1  0  0   0  0  1       0  1  0   1  0  0   0  0 -1
                       0  1  0  -1  0  0   0  0 -1       0 -1  0   1  0  0   0  0  1
            tnons      0.0000000  0.0000000  0.0000000     0.5000000  0.5000000  0.0000000
                       0.5000000  0.5000000  0.0000000     0.0000000  0.0000000  0.0000000
                       0.0000000  0.0000000  0.0000000     0.5000000  0.5000000  0.0000000
                       0.5000000  0.5000000  0.0000000     0.0000000  0.0000000  0.0000000
                       0.5000000  0.5000000  0.0000000     0.0000000  0.0000000  0.0000000
                       0.0000000  0.0000000  0.0000000     0.5000000  0.5000000  0.0000000
                       0.5000000  0.5000000  0.0000000     0.0000000  0.0000000  0.0000000
                       0.0000000  0.0000000  0.0000000     0.5000000  0.5000000  0.0000000
           tolwfr      1.00000000E-20
            typat      1  1  2  2  3  3
           useylm           1
           xangst      0.0000000000E+00  2.2341026502E+00  5.9792447533E+00
                       2.2341026502E+00  0.0000000000E+00  1.4214884244E+00
                       2.2341026502E+00  0.0000000000E+00  4.7971996501E+00
                       0.0000000000E+00  2.2341026502E+00  2.6035335275E+00
                       2.2341026502E+00  2.2341026502E+00  0.0000000000E+00
                       0.0000000000E+00  0.0000000000E+00  0.0000000000E+00
            xcart      0.0000000000E+00  4.2218421617E+00  1.1299135065E+01
                       4.2218421617E+00  0.0000000000E+00  2.6862238231E+00
                       4.2218421617E+00  0.0000000000E+00  9.0653935435E+00
                       0.0000000000E+00  4.2218421617E+00  4.9199653448E+00
                       4.2218421617E+00  4.2218421617E+00  0.0000000000E+00
                       0.0000000000E+00  0.0000000000E+00  0.0000000000E+00
             xred      0.0000000000E+00  5.0000000000E-01  8.0792600000E-01
                       5.0000000000E-01  0.0000000000E+00  1.9207400000E-01
                       5.0000000000E-01  0.0000000000E+00  6.4820600000E-01
                       0.0000000000E+00  5.0000000000E-01  3.5179400000E-01
                       5.0000000000E-01  5.0000000000E-01  0.0000000000E+00
                       0.0000000000E+00  0.0000000000E+00  0.0000000000E+00
            znucl       56.00000   35.00000    9.00000

- Timing analysis has been suppressed with timopt=0

 Suggested references for the acknowledgment of ABINIT usage.

 Calculation completed.
.Delivered   6 WARNINGs and   5 COMMENTs to log file.