.Version 9.5.1 of ABINIT

 ABINIT is a project of the Universite Catholique de Louvain,
 Corning Inc. and other collaborators, see ~abinit/doc/developers/contributors.txt .
 acknowledgments of the ABINIT effort.

.Starting date : Sun 25 Apr 2021.
- ( at 17h24 )

- input  file    -> /scratch/users/j/a/jabreu/flow_simple2/flow/w227/t1/run.abi
- output file    -> /scratch/users/j/a/jabreu/flow_simple2/flow/w227/t1/run.abo
- root for input  files -> /scratch/users/j/a/jabreu/flow_simple2/flow/w227/t1/indata/in
- root for output files -> /scratch/users/j/a/jabreu/flow_simple2/flow/w227/t1/outdata/out

 Symmetries : space group F-4 3 m (#216); Bravais cF (face-center cubic)
     intxc =       0      iscf =       7    lmnmax =      18     lnmax =       6
     mgfft =      45  mpssoang =       3    mqgrid =    3001     natom =       2
  nloc_mem =       1    nspden =       1   nspinor =       1    nsppol =       1
      nsym =      24    n1xccc =    2501    ntypat =       2    occopt =       1
   xclevel =       2
-    mband =          18        mffmem =           1         mkmem =           1
-   mkqmem =           1        mk1mem =           1           mpw =        3479
      nfft =       91125          nkpt =           1
  Rough estimation (10% accuracy) of disk space for files :

------------- Echo of variables that govern the present computation ------------
-
- outvars: echo of selected default values
-   iomode0 =  0 , fftalg0 =512 , wfoptalg0 =  0
-
- outvars: echo of global parameters not present in the input file
-  max_nthreads =    0
-
 -outvars: echo values of preprocessed input variables --------
            acell      1.0000000000E+00  1.0000000000E+00  1.0000000000E+00 Bohr
              amu      1.14820000E+02  3.09737620E+01
             ecut      3.50000000E+01 Hartree
-          fftalg         512
           irdden           1
           irdwfk           1
           istwfk        1
              ixc     -116133
           kptopt           0
P           mkmem           1
P          mkqmem           1
P          mk1mem           1
            natom           2
            nband          18
           nbdbuf           4
            ngfft          45      45      45
             nkpt           1
            nstep         100
             nsym          24
           ntypat           2
              occ      2.000000  2.000000  2.000000  2.000000  2.000000  2.000000
                       2.000000  2.000000  2.000000  0.000000  0.000000  0.000000
                       0.000000  0.000000  0.000000  0.000000  0.000000  0.000000
        optdriver           1
            prtwf          -1
            rfdir           1       1       1
           rfelfd           2
            rprim      6.8062610340E+00  0.0000000000E+00  3.9295966401E+00
                       2.2687536780E+00  6.4170044422E+00  3.9295966401E+00
                       0.0000000000E+00  0.0000000000E+00  7.8591932803E+00
          spgroup         216
           symrel      1  0  0   0  1  0   0  0  1       0 -1  1   0 -1  0   1 -1  0
                      -1  0  0  -1  0  1  -1  1  0       0  1 -1   1  0 -1   0  0 -1
                      -1  0  0  -1  1  0  -1  0  1       0 -1  1   1 -1  0   0 -1  0
                       1  0  0   0  0  1   0  1  0       0  1 -1   0  0 -1   1  0 -1
                      -1  0  1  -1  1  0  -1  0  0       0 -1  0   1 -1  0   0 -1  1
                       1  0 -1   0  0 -1   0  1 -1       0  1  0   0  0  1   1  0  0
                       1  0 -1   0  1 -1   0  0 -1       0 -1  0   0 -1  1   1 -1  0
                      -1  0  1  -1  0  0  -1  1  0       0  1  0   1  0  0   0  0  1
                       0  0 -1   0  1 -1   1  0 -1       1 -1  0   0 -1  1   0 -1  0
                       0  0  1   1  0  0   0  1  0      -1  1  0  -1  0  0  -1  0  1
                       0  0  1   0  1  0   1  0  0       1 -1  0   0 -1  0   0 -1  1
                       0  0 -1   1  0 -1   0  1 -1      -1  1  0  -1  0  1  -1  0  0
           tolwfr      1.00000000E-20
            typat      1  2
           useylm           1
           xangst      1.2005727383E+00  8.4893312456E-01  2.0794529809E+00
                       2.4011454766E+00  1.6978662491E+00  4.1589059618E+00
            xcart      2.2687536780E+00  1.6042511105E+00  3.9295966401E+00
                       4.5375073560E+00  3.2085022211E+00  7.8591932802E+00
             xred      2.5000000000E-01  2.5000000000E-01  2.5000000000E-01
                       5.0000000000E-01  5.0000000000E-01  5.0000000000E-01
            znucl       49.00000   15.00000

 chkinp: Checking input parameters for consistency.

== DATASET  1 ==================================================================
-   mpi_nproc: 1, omp_nthreads: -1 (-1 if OMP is not activated)

--- !DatasetInfo
iteration_state: {dtset: 1, }
dimensions: {natom: 2, nkpt: 1, mband: 18, nsppol: 1, nspinor: 1, nspden: 1, mpw: 3479, }
cutoff_energies: {ecut:  35.0, pawecutdg:  -1.0, }
electrons: {nelect:   1.80000000E+01, charge:   0.00000000E+00, occopt:   1.00000000E+00, tsmear:   1.00000000E-02, }
meta: {optdriver: 1, rfelfd: 2, }
...

 Real(R)+Recip(G) space primitive vectors, cartesian coordinates (Bohr,Bohr^-1):
 R(1)=  6.8062610  0.0000000  3.9295966  G(1)=  0.1469235 -0.0519453  0.0000000
 R(2)=  2.2687537  6.4170044  3.9295966  G(2)=  0.0000000  0.1558360  0.0000000
 R(3)=  0.0000000  0.0000000  7.8591933  G(3)= -0.0734618 -0.0519453  0.1272395
 Unit cell volume ucvol=  3.4325661E+02 bohr^3
 Angles (23,13,12)=  6.00000000E+01  6.00000000E+01  6.00000000E+01 degrees

 getcut: wavevector=  0.0000  0.0000  0.0000  ngfft=  45  45  45
         ecut(hartree)=     35.000   => boxcut(ratio)=   2.10221

--- Pseudopotential description ------------------------------------------------
- pspini: atom type   1  psp file is /scratch/users/j/a/jabreu/pseudos/PBEsol/In.psp8
- pspatm: opening atomic psp file    /scratch/users/j/a/jabreu/pseudos/PBEsol/In.psp8
- In    ONCVPSP-3.3.0  r_core=   2.10853   2.37566   1.87143
- 49.00000  13.00000    180112                znucl, zion, pspdat
    8 -116133    2    4       600   0.00000   pspcod,pspxc,lmax,lloc,mmax,r2well
    5.99000000000000    5.00000000000000    0.00000000000000   rchrg,fchrg,qchrg
     nproj     2     2     2
     extension_switch     1
  pspatm : epsatm=   25.17984752
         --- l  ekb(1:nproj) -->
             0   12.999887    1.931740
             1    5.981707    1.012544
             2   -4.048011   -1.239028
 pspatm: atomic psp has been read  and splines computed

- pspini: atom type   2  psp file is /scratch/users/j/a/jabreu/pseudos/PBEsol/P.psp8
- pspatm: opening atomic psp file    /scratch/users/j/a/jabreu/pseudos/PBEsol/P.psp8
- P     ONCVPSP-3.3.0  r_core=   1.46089   1.55067   1.70594
- 15.00000   5.00000    180112                znucl, zion, pspdat
    8 -116133    2    4       600   0.00000   pspcod,pspxc,lmax,lloc,mmax,r2well
    5.99000000000000    5.00000000000000    0.00000000000000   rchrg,fchrg,qchrg
     nproj     2     2     2
     extension_switch     1
  pspatm : epsatm=    7.31221086
         --- l  ekb(1:nproj) -->
             0    6.742364    1.063650
             1    3.449117    0.910422
             2   -3.077645   -0.799176
 pspatm: atomic psp has been read  and splines computed

   5.84857051E+02                                ecore*ucvol(ha*bohr**3)

-inwffil : will read wavefunctions from disk file /scratch/users/j/a/jabreu/flow_simple2/flow/w227/t1/indata/in_WFK

 ==>  initialize data related to q vector <==

 The list of irreducible perturbations for this q vector is:
    1)    idir= 1    ipert=   3
    2)    idir= 2    ipert=   3
    3)    idir= 3    ipert=   3

 Perturbation wavevector (in red.coord.)   0.000000  0.000000  0.000000
 Perturbation : derivative vs k along direction   1

 dfpt_looppert : COMMENT -
  In a d/dk calculation, iscf is set to -3 automatically.
 The set of symmetries contains only one element for this perturbation.
 symkpt : not enough symmetry to change the number of k points.

[...]

 Initialisation of the first-order wave-functions :
  ireadwf=   0

--- !BeginCycle
iteration_state: {dtset: 1, }
solver: {iscf: 7, nstep: 100, nline: 4, wfoptalg: 0, }
tolerances: {tolwfr: 1.00E-20, }
...

     iter   2DEtotal(Ha)        deltaE(Ha) residm    vres2
-ETOT  1  -83.646707469376     -8.365E+01 1.914E-02 0.000E+00
 ETOT  2  -83.654659971657     -7.953E-03 1.333E-04 0.000E+00
 ETOT  3  -83.654701722618     -4.175E-05 2.072E-06 0.000E+00
 ETOT  4  -83.654702129652     -4.070E-07 2.432E-07 0.000E+00
 ETOT  5  -83.654702135454     -5.802E-09 8.238E-09 0.000E+00
 ETOT  6  -83.654702135758     -3.044E-10 1.147E-09 0.000E+00
 ETOT  7  -83.654702135775     -1.720E-11 4.034E-11 0.000E+00
 ETOT  8  -83.654702135777     -1.961E-12 5.672E-12 0.000E+00
 ETOT  9  -83.654702135777      5.684E-13 2.015E-13 0.000E+00
 ETOT 10  -83.654702135777      0.000E+00 2.817E-14 0.000E+00
 ETOT 11  -83.654702135777     -4.263E-14 1.014E-15 0.000E+00
 ETOT 12  -83.654702135777      1.563E-13 1.404E-16 0.000E+00
 ETOT 13  -83.654702135776      2.842E-13 5.117E-18 0.000E+00
 ETOT 14  -83.654702135776      4.263E-14 7.030E-19 0.000E+00
 ETOT 15  -83.654702135776     -2.842E-14 2.588E-20 0.000E+00
 ETOT 16  -83.654702135776      1.421E-14 8.883E-21 0.000E+00

 At SCF step   16   max residual=  8.88E-21 < tolwfr=  1.00E-20 =>converged.

 ----iterations are completed or convergence reached----

 dfpt_looppert: DFPT cycle converged with prtwf=-1. Will skip output of the 1st-order WFK file.
 dfpt_looppert : ek2=    3.4514179832E+01
          f-sum rule ratio=    3.9217429279E+00
 prteigrs : about to open file /scratch/users/j/a/jabreu/flow_simple2/flow/w227/t1/tmpdata/tmp_1WF1_EIG
 Expectation of eigenvalue derivatives (hartree) for nkpt=   1  k points:
  (in case of degenerate eigenvalues, averaged derivative)
 kpt#   1, nband= 18, wtk=  1.00000, kpt=  0.0000  0.0000  0.0000 (reduced coord)
   0.00000    0.00000    0.00000    0.00000    0.00000   -0.00000   -0.00000   -0.00000
  -0.00000   -0.00000    0.00000    0.00000    0.00000    0.00000   -0.00000   -0.00000
  -0.00000   -0.00000

 Eight components of 2nd-order total energy (hartree) are
 1,2,3: 0th-order hamiltonian combined with 1st-order wavefunctions
     kin0=   3.28934440E+01 eigvalue=   2.73590533E+00  local=  -1.73017895E+01
 4,5,6: 1st-order hamiltonian combined with 1st and 0th-order wfs
     kin1=  -1.35355741E+02  Hartree=   0.00000000E+00     xc=   0.00000000E+00
 7,8,9: eventually, occupation + non-local contributions
    edocc=   5.92455374E+01     enl0=   6.08160491E+00   enl1=  -3.19536636E+01
 1-9 gives the relaxation energy (to be shifted if some occ is /=2.0)
   erelax=  -8.36547021E+01
  No Ewald or frozen-wf contrib.: the relaxation energy is the total one
 2DEtotal=   -0.8365470214E+02 Ha. Also 2DEtotal=   -0.227636021151E+04 eV
    (  non-var. 2DEtotal :   -8.3654702136E+01 Ha)

 Perturbation wavevector (in red.coord.)   0.000000  0.000000  0.000000
 Perturbation : derivative vs k along direction   2
 The set of symmetries contains only one element for this perturbation.
 symkpt : not enough symmetry to change the number of k points.

[...]

 Perturbation wavevector (in red.coord.)   0.000000  0.000000  0.000000
 Perturbation : derivative vs k along direction   3
 The set of symmetries contains only one element for this perturbation.
 symkpt : not enough symmetry to change the number of k points.

-inwffil : will read wavefunctions from disk file /scratch/users/j/a/jabreu/flow_simple2/flow/w227/t1/indata/in_WFK

 Initialisation of the first-order wave-functions :
  ireadwf=   0

--- !BeginCycle
iteration_state: {dtset: 1, }
solver: {iscf: 7, nstep: 100, nline: 4, wfoptalg: 0, }
tolerances: {tolwfr: 1.00E-20, }
...

     iter   2DEtotal(Ha)        deltaE(Ha) residm    vres2
-ETOT  1  -83.645994260187     -8.365E+01 1.797E-02 0.000E+00
 ETOT  2  -83.654655995535     -8.662E-03 1.293E-04 0.000E+00
 ETOT  3  -83.654701687052     -4.569E-05 2.137E-06 0.000E+00
 ETOT  4  -83.654702117284     -4.302E-07 2.371E-07 0.000E+00
 ETOT  5  -83.654702123155     -5.871E-09 8.960E-09 0.000E+00
 ETOT  6  -83.654702123458     -3.028E-10 1.193E-09 0.000E+00
 ETOT  7  -83.654702123475     -1.744E-11 4.560E-11 0.000E+00
 ETOT  8  -83.654702123476     -1.222E-12 6.149E-12 0.000E+00
 ETOT  9  -83.654702123476      3.268E-13 2.363E-13 0.000E+00
 ETOT 10  -83.654702123476     -5.542E-13 3.173E-14 0.000E+00
 ETOT 11  -83.654702123476      5.684E-13 1.234E-15 0.000E+00
 ETOT 12  -83.654702123476     -7.105E-14 1.641E-16 0.000E+00
 ETOT 13  -83.654702123476     -5.684E-14 6.468E-18 0.000E+00
 ETOT 14  -83.654702123476     -1.990E-13 8.526E-19 0.000E+00
 ETOT 15  -83.654702123476      4.263E-14 3.401E-20 0.000E+00
 ETOT 16  -83.654702123476      1.421E-14 8.648E-21 0.000E+00

 At SCF step   16   max residual=  8.65E-21 < tolwfr=  1.00E-20 =>converged.

 ----iterations are completed or convergence reached----

 dfpt_looppert: DFPT cycle converged with prtwf=-1. Will skip output of the 1st-order WFK file.
 dfpt_looppert : ek2=    3.4514179832E+01
          f-sum rule ratio=    3.9217429272E+00
 prteigrs : about to open file /scratch/users/j/a/jabreu/flow_simple2/flow/w227/t1/tmpdata/tmp_1WF1_EIG
 Expectation of eigenvalue derivatives (hartree) for nkpt=   1  k points:
  (in case of degenerate eigenvalues, averaged derivative)
 kpt#   1, nband= 18, wtk=  1.00000, kpt=  0.0000  0.0000  0.0000 (reduced coord)
   0.00000    0.00000    0.00000    0.00000    0.00000    0.00000   -0.00000   -0.00000
  -0.00000   -0.00000   -0.00000   -0.00000   -0.00000   -0.00000    0.00000    0.00000
  -0.00000   -0.00000

 Eight components of 2nd-order total energy (hartree) are
 1,2,3: 0th-order hamiltonian combined with 1st-order wavefunctions
     kin0=   3.28686189E+01 eigvalue=   2.72577384E+00  local=  -1.72663329E+01
 4,5,6: 1st-order hamiltonian combined with 1st and 0th-order wfs
     kin1=  -1.35355741E+02  Hartree=   0.00000000E+00     xc=   0.00000000E+00
 7,8,9: eventually, occupation + non-local contributions
    edocc=   5.92715177E+01     enl0=   6.05512464E+00   enl1=  -3.19536636E+01
 1-9 gives the relaxation energy (to be shifted if some occ is /=2.0)
   erelax=  -8.36547021E+01
  No Ewald or frozen-wf contrib.: the relaxation energy is the total one
 2DEtotal=   -0.8365470212E+02 Ha. Also 2DEtotal=   -0.227636021118E+04 eV
    (  non-var. 2DEtotal :   -8.3654702123E+01 Ha)

 CALCULATION OF EFFECTIVE MASSES
 NOTE : Additional infos (eff. mass eigenvalues, eigenvectors and, if degenerate, average mass) are available in stdout.

 COMMENTS:
 - At k-point ( 0.000, 0.000, 0.000), bands     7 through     9
   are DEGENERATE (effective mass tensor is therefore not defined).
   See Section IIIB Eqs. (67)-(70) and Appendix E of PRB 93 205147 (2016).
 - Angular average effective mass for Frohlich model is to be averaged over degenerate bands. See later.
 - Associated theta integrals calculated with ntheta=   1000 points.

 K-point ( 0.000, 0.000, 0.000) | band =     7
 Transport equivalent effective mass tensor:
             -0.0412385999             -0.0000000000              0.0000000000
             -0.0000000000             -0.0412385999             -0.0000000000
              0.0000000000             -0.0000000000             -0.0412385999
 Transport equivalent effective mass tensor eigenvalues:
             -0.0412385999             -0.0412385999             -0.0412385999
 Angular average effective mass 1/(<1/m>)=  -0.0408997824
 Angular average effective mass for Frohlich model (<m**0.5>)**2=  -0.0409231423
 Effective masses along directions: (cart. coord. / red. coord. -> eff. mass)
    1:   1.000000  0.000000  0.000000 /   0.948683  0.316228  0.000000 ->  -0.0402445403
    2:   0.000000  1.000000  0.000000 /   0.000000  1.000000  0.000000 ->  -0.0392778437
    3:   0.000000  0.000000  1.000000 /   0.408248  0.408248  0.816497 ->  -0.0403014963
    4:   0.577350  0.577350  0.577350 /   0.585539  0.688047  0.428644 ->  -0.0402188501
    5:   0.000000  0.707107  0.707107 /   0.289489  0.762222  0.578977 ->  -0.0415850603
    6:   0.707107  0.000000  0.707107 /   0.731423  0.422287  0.535439 ->  -0.0402729555
    7:   0.707107  0.707107  0.000000 /   0.616798  0.787122  0.000000 ->  -0.0432743212

[...]

 K-point ( 0.000, 0.000, 0.000) | band =     9
 Transport equivalent effective mass tensor:
             -7.7757188258              0.0000085541             -0.0000000019
              0.0000085541             -7.7757166659             -0.0000000017
             -0.0000000019             -0.0000000017             -7.7757083219
 Transport equivalent effective mass tensor eigenvalues:
             -7.7757263679             -7.7757091238             -7.7757083219
 Angular average effective mass 1/(<1/m>)=  -0.9495173863
 Angular average effective mass for Frohlich model (<m**0.5>)**2=  -1.1160983465
 Effective masses along directions: (cart. coord. / red. coord. -> eff. mass)
    1:   1.000000  0.000000  0.000000 /   0.948683  0.316228  0.000000 ->  -1.0039986421
    2:   0.000000  1.000000  0.000000 /   0.000000  1.000000  0.000000 ->  -0.9698062560
    3:   0.000000  0.000000  1.000000 /   0.408248  0.408248  0.816497 ->  -2.6010360489
    4:   0.577350  0.577350  0.577350 /   0.585539  0.688047  0.428644 ->  -1.2059562192
    5:   0.000000  0.707107  0.707107 /   0.289489  0.762222  0.578977 ->  -0.8334433334
    6:   0.707107  0.000000  0.707107 /   0.731423  0.422287  0.535439 ->  -1.6157166201
    7:   0.707107  0.707107  0.000000 /   0.616798  0.787122  0.000000 ->  -0.4663048467

 Angular average effective mass for Frohlich model, averaged over degenerate bands.
 Value of     (<<m**0.5>>)**2 =     4.312886E-01
 Absolute Value of <<m**0.5>> =     6.567257E-01

 K-point ( 0.000, 0.000, 0.000) | band =    10
 Effective mass tensor:
              0.0438624070              0.0000000000             -0.0000000000
              0.0000000000              0.0438624070             -0.0000000000
             -0.0000000000             -0.0000000000              0.0438624070
 Effective mass tensor eigenvalues:
              0.0438624070              0.0438624070              0.0438624070
 Angular average effective mass 1/(<1/m>)=   0.0438624070
 Angular average effective mass for Frohlich model (<m**0.5>)**2=   0.0438624070
 Effective masses along directions: (cart. coord. / red. coord. -> eff. mass)
    1:   1.000000  0.000000  0.000000 /   0.948683  0.316228  0.000000 ->   0.0438624070
    2:   0.000000  1.000000  0.000000 /   0.000000  1.000000  0.000000 ->   0.0438624070
    3:   0.000000  0.000000  1.000000 /   0.408248  0.408248  0.816497 ->   0.0438624070
    4:   0.577350  0.577350  0.577350 /   0.585539  0.688047  0.428644 ->   0.0438624070
    5:   0.000000  0.707107  0.707107 /   0.289489  0.762222  0.578977 ->   0.0438624070
    6:   0.707107  0.000000  0.707107 /   0.731423  0.422287  0.535439 ->   0.0438624070
    7:   0.707107  0.707107  0.000000 /   0.616798  0.787122  0.000000 ->   0.0438624070

 END OF EFFECTIVE MASSES SECTION

 ---- first-order wavefunction calculations are completed ----

 Total localisation tensor (bohr^2) in cartesian coordinates
  WARNING : still subject to testing - especially symmetries.
      direction              matrix element
   alpha     beta       real part   imaginary part
     1        1      78.4540388243    0.0000000000
     1        2      22.1901531371    0.0000000000
     1        3      54.3545525169    0.0000000000
     2        1      22.1901531371    0.0000000000
     2        2      62.7632310351    0.0000000000
     2        3      38.4344726607    0.0000000000
     3        1      54.3545525169    0.0000000000
     3        2      38.4344726607    0.0000000000
     3        3     141.2172698204    0.0000000000

 respfn : d/dk was computed, but no 2DTE, so no DDB output.

== END DATASET(S) ==============================================================

 -outvars: echo values of variables after computation  --------
            acell      1.0000000000E+00  1.0000000000E+00  1.0000000000E+00 Bohr
              amu      1.14820000E+02  3.09737620E+01
             ecut      3.50000000E+01 Hartree
           etotal     -8.3654702123E+01
            fcart      0.0000000000E+00  0.0000000000E+00  0.0000000000E+00
                       0.0000000000E+00  0.0000000000E+00  0.0000000000E+00
-          fftalg         512
           irdden           1
           irdwfk           1
           istwfk        1
              ixc     -116133
           kptopt           0
P           mkmem           1
P          mkqmem           1
P          mk1mem           1
            natom           2
            nband          18
           nbdbuf           4
            ngfft          45      45      45
             nkpt           1
            nstep         100
             nsym          24
           ntypat           2
              occ      2.000000  2.000000  2.000000  2.000000  2.000000  2.000000
                       2.000000  2.000000  2.000000  0.000000  0.000000  0.000000
                       0.000000  0.000000  0.000000  0.000000  0.000000  0.000000
        optdriver           1
            prtwf          -1
            rfdir           1       1       1
           rfelfd           2
            rprim      6.8062610340E+00  0.0000000000E+00  3.9295966401E+00
                       2.2687536780E+00  6.4170044422E+00  3.9295966401E+00
                       0.0000000000E+00  0.0000000000E+00  7.8591932803E+00
          spgroup         216
           strten      0.0000000000E+00  0.0000000000E+00  0.0000000000E+00
                       0.0000000000E+00  0.0000000000E+00  0.0000000000E+00
           symrel      1  0  0   0  1  0   0  0  1       0 -1  1   0 -1  0   1 -1  0
                      -1  0  0  -1  0  1  -1  1  0       0  1 -1   1  0 -1   0  0 -1
                      -1  0  0  -1  1  0  -1  0  1       0 -1  1   1 -1  0   0 -1  0
                       1  0  0   0  0  1   0  1  0       0  1 -1   0  0 -1   1  0 -1
                      -1  0  1  -1  1  0  -1  0  0       0 -1  0   1 -1  0   0 -1  1
                       1  0 -1   0  0 -1   0  1 -1       0  1  0   0  0  1   1  0  0
                       1  0 -1   0  1 -1   0  0 -1       0 -1  0   0 -1  1   1 -1  0
                      -1  0  1  -1  0  0  -1  1  0       0  1  0   1  0  0   0  0  1
                       0  0 -1   0  1 -1   1  0 -1       1 -1  0   0 -1  1   0 -1  0
                       0  0  1   1  0  0   0  1  0      -1  1  0  -1  0  0  -1  0  1
                       0  0  1   0  1  0   1  0  0       1 -1  0   0 -1  0   0 -1  1
                       0  0 -1   1  0 -1   0  1 -1      -1  1  0  -1  0  1  -1  0  0
           tolwfr      1.00000000E-20
            typat      1  2
           useylm           1
           xangst      1.2005727383E+00  8.4893312456E-01  2.0794529809E+00
                       2.4011454766E+00  1.6978662491E+00  4.1589059618E+00
            xcart      2.2687536780E+00  1.6042511105E+00  3.9295966401E+00
                       4.5375073560E+00  3.2085022211E+00  7.8591932802E+00
             xred      2.5000000000E-01  2.5000000000E-01  2.5000000000E-01
                       5.0000000000E-01  5.0000000000E-01  5.0000000000E-01
            znucl       49.00000   15.00000

- Timing analysis has been suppressed with timopt=0

 Suggested references for the acknowledgment of ABINIT usage.

 Calculation completed.
.Delivered   6 WARNINGs and   5 COMMENTs to log file.