.Version 9.5.2 of ABINIT

 ABINIT is a project of the Universite Catholique de Louvain,
 Corning Inc. and other collaborators, see ~abinit/doc/developers/contributors.txt .
 acknowledgments of the ABINIT effort.

.Starting date : Tue  1 Jun 2021.
- ( at 13h36 )

- input  file    -> /scratch/users/j/a/jabreu/flow_simple_11atoms/flow/w403/t1/run.abi
- output file    -> /scratch/users/j/a/jabreu/flow_simple_11atoms/flow/w403/t1/run.abo
- root for input  files -> /scratch/users/j/a/jabreu/flow_simple_11atoms/flow/w403/t1/indata/in
- root for output files -> /scratch/users/j/a/jabreu/flow_simple_11atoms/flow/w403/t1/outdata/out

 Symmetries : space group Cc (#  9); Bravais mC (1-face-center monocl.)
     intxc =       0      iscf =       7    lmnmax =      18     lnmax =       6
     mgfft =      90  mpssoang =       3    mqgrid =    3764     natom =      12
  nloc_mem =       1    nspden =       1   nspinor =       1    nsppol =       1
      nsym =       2    n1xccc =    2501    ntypat =       3    occopt =       1
   xclevel =       2
-    mband =          81        mffmem =           1         mkmem =           2
-   mkqmem =           2        mk1mem =           2           mpw =       23783
      nfft =      506250          nkpt =           2
  Rough estimation (10% accuracy) of disk space for files :

------------- Echo of variables that govern the present computation ------------
-
- outvars: echo of selected default values
-   iomode0 =  0 , fftalg0 =512 , wfoptalg0 =  0
-
- outvars: echo of global parameters not present in the input file
-  max_nthreads =    0
-
 -outvars: echo values of preprocessed input variables --------
            acell      1.0000000000E+00  1.0000000000E+00  1.0000000000E+00 Bohr
              amu      1.07868200E+02  1.27600000E+02  3.20660000E+01
             ecut      4.30000000E+01 Hartree
-          fftalg         512
           irdden           1
           irdwfk           1
           istwfk        1    0
              ixc     -116133
              kpt      0.00000000E+00  0.00000000E+00  0.00000000E+00
                       7.09050284E-01 -2.90949716E-01  1.75059977E-01
           kptopt           0
P           mkmem           2
P          mkqmem           2
P          mk1mem           2
            natom          12
            nband          81
           nbdbuf           4
            ngfft          75      75      90
             nkpt           2
            nstep        2000
             nsym           2
           ntypat           3
              occ      2.000000  2.000000  2.000000  2.000000  2.000000  2.000000
                       2.000000  2.000000  2.000000  2.000000  2.000000  2.000000
                       2.000000  2.000000  2.000000  2.000000  2.000000  2.000000
                       2.000000  2.000000  2.000000  2.000000  2.000000  2.000000
                       2.000000  2.000000  2.000000  2.000000  2.000000  2.000000
                       2.000000  2.000000  2.000000  2.000000  2.000000  2.000000
                       2.000000  2.000000  2.000000  2.000000  2.000000  2.000000
                       2.000000  2.000000  2.000000  2.000000  2.000000  2.000000
                       2.000000  2.000000  2.000000  2.000000  2.000000  2.000000
                       2.000000  2.000000  2.000000  2.000000  2.000000  2.000000
                       2.000000  2.000000  2.000000  2.000000  2.000000  2.000000
                       2.000000  2.000000  2.000000  2.000000  2.000000  2.000000
                       0.000000  0.000000  0.000000  0.000000  0.000000  0.000000
                       0.000000  0.000000  0.000000
        optdriver           1
            prtwf          -1
            rfdir           1       1       1
           rfelfd           2
            rprim      1.2221919902E+01  0.0000000000E+00  2.6881873751E+00
                      -6.6104377443E+00  1.0279953254E+01  2.6881873751E+00
                       0.0000000000E+00  0.0000000000E+00  1.4029639782E+01
          spgroup           9
           symrel      1  0  0   0  1  0   0  0  1       0  1  0   1  0  0   0  0  1
            tnons      0.0000000  0.0000000  0.0000000     0.0000000  0.0000000  0.5000000
           tolwfr      1.00000000E-20
            typat      1  1  1  1  2  2  3  3  3  3  3  3
           useylm           1
              wtk        0.50000    0.50000
           xangst     -1.5086977447E-01  5.1244126633E+00  8.5427719331E+00
                       1.0145496010E-01  1.3911826056E+00  7.3934127403E+00
                       4.3917844593E+00  2.6447298720E+00  4.8306891243E+00
                       1.1152609873E+00  8.3777985250E-01  3.6813299315E+00
                       3.0680853557E+00  3.2873146239E+00  8.5516758729E+00
                       1.1055589905E+00  4.3585920324E+00  4.8395930641E+00
                      -2.4662029003E+00  4.4194103041E+00  1.6598595071E+00
                       5.0510895647E+00  3.1597213714E-01  5.3719423159E+00
                      -1.2357861368E+00  4.1124140300E+00  5.2844454594E+00
                       4.1273802904E+00  1.1848411151E+00  1.5723626506E+00
                       1.8491798610E+00  2.2198886766E+00  5.7562700419E+00
                       8.6700482099E-01  2.7560251333E+00  2.0441872331E+00
            xcart     -2.8510255548E-01  9.6837365255E+00  1.6143499369E+01
                       1.9172208940E-01  2.6289541254E+00  1.3971525267E+01
                       8.2992698627E+00  4.9978151536E+00  9.1286794781E+00
                       2.1075378327E+00  1.5831744809E+00  6.9567053754E+00
                       5.7978410746E+00  6.2121243518E+00  1.6160325377E+01
                       2.0892037158E+00  8.2365452662E+00  9.1455054857E+00
                      -4.6604480696E+00  8.3514751436E+00  3.1366798875E+00
                       9.5451759499E+00  5.9710080482E-01  1.0151499779E+01
                      -2.3352973574E+00  7.7713362617E+00  9.9861546824E+00
                       7.7996183952E+00  2.2390252186E+00  2.9713347912E+00
                       3.4944435077E+00  4.1949816443E+00  1.0877773926E+01
                       1.6384016676E+00  5.2081327172E+00  3.8629540349E+00
             xred      4.8617100000E-01  9.4200200000E-01  8.7702200000E-01
                       1.5400600000E-01  2.5573600000E-01  9.1734800000E-01
                       9.4200200000E-01  4.8617100000E-01  3.7702200000E-01
                       2.5573600000E-01  1.5400600000E-01  4.1734800000E-01
                       8.0122400000E-01  6.0429500000E-01  8.8256200000E-01
                       6.0429500000E-01  8.0122400000E-01  3.8256200000E-01
                       5.8084000000E-02  8.1240400000E-01  5.6783000000E-02
                       8.1240400000E-01  5.8084000000E-02  5.5678300000E-01
                       2.1780500000E-01  7.5597000000E-01  5.2520700000E-01
                       7.5597000000E-01  2.1780500000E-01  2.5207000000E-02
                       5.0663000000E-01  4.0807400000E-01  6.0007800000E-01
                       4.0807400000E-01  5.0663000000E-01  1.0007800000E-01
            znucl       47.00000   52.00000   16.00000

 chkinp: Checking input parameters for consistency.

== DATASET  1 ==================================================================
-   mpi_nproc: 1, omp_nthreads: -1 (-1 if OMP is not activated)

--- !DatasetInfo
iteration_state: {dtset: 1, }
dimensions: {natom: 12, nkpt: 2, mband: 81, nsppol: 1, nspinor: 1, nspden: 1, mpw: 23783, }
cutoff_energies: {ecut:  43.0, pawecutdg:  -1.0, }
electrons: {nelect:   1.44000000E+02, charge:   0.00000000E+00, occopt:   1.00000000E+00, tsmear:   1.00000000E-02, }
meta: {optdriver: 1, rfelfd: 2, }
...

 Real(R)+Recip(G) space primitive vectors, cartesian coordinates (Bohr,Bohr^-1):
 R(1)= 12.2219199  0.0000000  2.6881874  G(1)=  0.0818202  0.0526138  0.0000000
 R(2)= -6.6104377 10.2799533  2.6881874  G(2)=  0.0000000  0.0972767  0.0000000
 R(3)=  0.0000000  0.0000000 14.0296398  G(3)= -0.0156774 -0.0287202  0.0712777
 Unit cell volume ucvol=  1.7626947E+03 bohr^3
 Angles (23,13,12)=  7.75954209E+01  7.75954209E+01  1.18019003E+02 degrees

 getcut: wavevector=  0.0000  0.0000  0.0000  ngfft=  75  75  90
         ecut(hartree)=     43.000   => boxcut(ratio)=   2.00339

--- Pseudopotential description ------------------------------------------------
- pspini: atom type   1  psp file is /scratch/users/j/a/jabreu/pseudos/PBEsol/Ag.psp8
- pspatm: opening atomic psp file    /scratch/users/j/a/jabreu/pseudos/PBEsol/Ag.psp8
- Ag    ONCVPSP-3.3.0  r_core=   1.41384   1.46535   1.61207
- 47.00000  19.00000    180112                znucl, zion, pspdat
    8 -116133    2    4       600   0.00000   pspcod,pspxc,lmax,lloc,mmax,r2well
    5.99000000000000    7.00000000000000    0.00000000000000   rchrg,fchrg,qchrg
     nproj     2     2     2
     extension_switch     1
  pspatm : epsatm=   27.64581383
         --- l  ekb(1:nproj) -->
             0    9.559407   -0.398585
             1    3.418858   -0.136622
             2   -1.644397   -0.401551
 pspatm: atomic psp has been read  and splines computed

- pspini: atom type   2  psp file is /scratch/users/j/a/jabreu/pseudos/PBEsol/Te.psp8
- pspatm: opening atomic psp file    /scratch/users/j/a/jabreu/pseudos/PBEsol/Te.psp8
- Te    ONCVPSP-3.3.0  r_core=   2.26547   1.91704   1.80604
- 52.00000  16.00000    180112                znucl, zion, pspdat
    8 -116133    2    4       600   0.00000   pspcod,pspxc,lmax,lloc,mmax,r2well
    5.99000000000000    5.00000000000000    0.00000000000000   rchrg,fchrg,qchrg
     nproj     2     2     2
     extension_switch     1
  pspatm : epsatm=   36.82679836
         --- l  ekb(1:nproj) -->
             0    6.345999    0.785432
             1    5.709019    1.070069
             2   -6.035173   -1.870937
 pspatm: atomic psp has been read  and splines computed

- pspini: atom type   3  psp file is /scratch/users/j/a/jabreu/pseudos/PBEsol/S.psp8
- pspatm: opening atomic psp file    /scratch/users/j/a/jabreu/pseudos/PBEsol/S.psp8
- S     ONCVPSP-3.3.0  r_core=   1.45376   1.45376   1.61851
- 16.00000   6.00000    180112                znucl, zion, pspdat
    8 -116133    2    4       600   0.00000   pspcod,pspxc,lmax,lloc,mmax,r2well
    5.99000000000000    6.00000000000000    0.00000000000000   rchrg,fchrg,qchrg
     nproj     2     2     2
     extension_switch     1
  pspatm : epsatm=    8.71840985
         --- l  ekb(1:nproj) -->
             0    6.834532    0.579453
             1    3.282851    0.896984
             2   -3.496974   -0.974265
 pspatm: atomic psp has been read  and splines computed

   3.40628128E+04                                ecore*ucvol(ha*bohr**3)

 ==>  initialize data related to q vector <==

 The list of irreducible perturbations for this q vector is:
    1)    idir= 1    ipert=  13
    2)    idir= 2    ipert=  13
    3)    idir= 3    ipert=  13

 Perturbation wavevector (in red.coord.)   0.000000  0.000000  0.000000
 Perturbation : derivative vs k along direction   1

 dfpt_looppert : COMMENT -
  In a d/dk calculation, iscf is set to -3 automatically.
[...]
 kpt#   1, nband= 81, wtk=  0.50000, kpt=  0.0000  0.0000  0.0000 (reduced coord)
  -0.00000    0.00000    0.00000    0.00000    0.00000    0.00000    0.00000    0.00000
  -0.00000    0.00000   -0.00000   -0.00000    0.00000   -0.00000    0.00000   -0.00000
  -0.00000   -0.00000    0.00000    0.00000   -0.00000    0.00000    0.00000    0.00000
  -0.00000   -0.00000   -0.00000    0.00000   -0.00000    0.00000   -0.00000   -0.00000
   0.00000   -0.00000   -0.00000    0.00000   -0.00000    0.00000    0.00000   -0.00000
   0.00000    0.00000    0.00000    0.00000   -0.00000    0.00000    0.00000    0.00000
  -0.00000    0.00000   -0.00000    0.00000   -0.00000    0.00000   -0.00000   -0.00000
  -0.00000    0.00000    0.00000    0.00000   -0.00000   -0.00000    0.00000    0.00000
   0.00000   -0.00000   -0.00000    0.00000   -0.00000   -0.00000   -0.00000   -0.00000
   0.00000   -0.00000    0.00000   -0.00000   -0.00000    0.00000    0.00000    0.00000
  -0.00113
 prteigrs : prtvol=0 or 1, do not print more k-points.

 Eight components of 2nd-order total energy (hartree) are
 1,2,3: 0th-order hamiltonian combined with 1st-order wavefunctions
     kin0=   1.06849446E+02 eigvalue=   1.60926574E+00  local=  -5.50718705E+01
 4,5,6: 1st-order hamiltonian combined with 1st and 0th-order wfs
     kin1=  -1.11550586E+02  Hartree=   0.00000000E+00     xc=   0.00000000E+00
 7,8,9: eventually, occupation + non-local contributions
    edocc=   1.18617017E+01     enl0=   7.01287545E+00   enl1=  -3.29722498E+01
 1-9 gives the relaxation energy (to be shifted if some occ is /=2.0)
   erelax=  -7.22614180E+01
  No Ewald or frozen-wf contrib.: the relaxation energy is the total one
 2DEtotal=   -0.7226141803E+02 Ha. Also 2DEtotal=   -0.196633318438E+04 eV
    (  non-var. 2DEtotal :   -7.2261418033E+01 Ha)

 Perturbation wavevector (in red.coord.)   0.000000  0.000000  0.000000
 Perturbation : derivative vs k along direction   2
 The set of symmetries contains only one element for this perturbation.
 symkpt : not enough symmetry to change the number of k points.

[...]

 Perturbation wavevector (in red.coord.)   0.000000  0.000000  0.000000
 Perturbation : derivative vs k along direction   3
 The set of symmetries contains only one element for this perturbation.
 symkpt : not enough symmetry to change the number of k points.

 Initialisation of the first-order wave-functions :
  ireadwf=   0

--- !BeginCycle
iteration_state: {dtset: 1, }
solver: {iscf: 7, nstep: 2000, nline: 4, wfoptalg: 0, }
tolerances: {tolwfr: 1.00E-20, }
...

     iter   2DEtotal(Ha)        deltaE(Ha) residm    vres2
-ETOT  1  -46.788645537540     -4.679E+01 6.467E-02 0.000E+00
 ETOT  2  -46.911626623590     -1.230E-01 4.717E-03 0.000E+00
 ETOT  3  -46.913298805342     -1.672E-03 2.365E-04 0.000E+00
 ETOT  4  -46.913335745995     -3.694E-05 2.572E-05 0.000E+00
 ETOT  5  -46.913336723801     -9.778E-07 1.699E-06 0.000E+00
 ETOT  6  -46.913336753005     -2.920E-08 3.131E-07 0.000E+00
 ETOT  7  -46.913336753957     -9.519E-10 2.206E-08 0.000E+00
 ETOT  8  -46.913336753990     -3.303E-11 4.152E-09 0.000E+00
 ETOT  9  -46.913336753991     -1.236E-12 3.005E-10 0.000E+00
 ETOT 10  -46.913336753991      2.842E-14 5.689E-11 0.000E+00
 ETOT 11  -46.913336753991     -5.684E-14 4.176E-12 0.000E+00
 ETOT 12  -46.913336753991      1.421E-14 7.904E-13 0.000E+00
 ETOT 13  -46.913336753991      0.000E+00 5.848E-14 0.000E+00
 ETOT 14  -46.913336753991      2.842E-14 1.106E-14 0.000E+00
 ETOT 15  -46.913336753991     -4.263E-14 8.230E-16 0.000E+00
 ETOT 16  -46.913336753991      1.421E-14 1.554E-16 0.000E+00
 ETOT 17  -46.913336753991     -1.421E-14 1.162E-17 0.000E+00
 ETOT 18  -46.913336753991      0.000E+00 2.191E-18 0.000E+00
 ETOT 19  -46.913336753991      0.000E+00 1.644E-19 0.000E+00
 ETOT 20  -46.913336753991      0.000E+00 3.096E-20 0.000E+00
 ETOT 21  -46.913336753991      7.105E-15 9.850E-21 0.000E+00

 At SCF step   21   max residual=  9.85E-21 < tolwfr=  1.00E-20 =>converged.

 ----iterations are completed or convergence reached----

 dfpt_looppert: DFPT cycle converged with prtwf=-1. Will skip output of the 1st-order WFK file.
 dfpt_looppert : ek2=    6.9937076886E+01
          f-sum rule ratio=    1.0349688488E+00
 prteigrs : about to open file /scratch/users/j/a/jabreu/flow_simple_11atoms/flow/w403/t1/tmpdata/tmp_1WF1_EIG
 Expectation of eigenvalue derivatives (hartree) for nkpt=   2  k points:
  (in case of degenerate eigenvalues, averaged derivative)
 kpt#   1, nband= 81, wtk=  0.50000, kpt=  0.0000  0.0000  0.0000 (reduced coord)
   0.00000   -0.00000   -0.00000    0.00000    0.00000   -0.00000   -0.00000    0.00000
   0.00000    0.00000    0.00000    0.00000    0.00000    0.00000   -0.00000    0.00000
   0.00000    0.00000   -0.00000    0.00000    0.00000    0.00000    0.00000   -0.00000
   0.00000   -0.00000    0.00000    0.00000   -0.00000    0.00000    0.00000   -0.00000
  -0.00000    0.00000    0.00000   -0.00000   -0.00000   -0.00000   -0.00000    0.00000
   0.00000   -0.00000   -0.00000   -0.00000    0.00000   -0.00000   -0.00000   -0.00000
   0.00000   -0.00000   -0.00000   -0.00000    0.00000    0.00000   -0.00000    0.00000
  -0.00000    0.00000   -0.00000    0.00000    0.00000    0.00000   -0.00000   -0.00000
  -0.00000    0.00000    0.00000    0.00000    0.00000    0.00000   -0.00000    0.00000
   0.00000    0.00000    0.00000   -0.00000    0.00000   -0.00000    0.00000    0.00000
   0.00002
 prteigrs : prtvol=0 or 1, do not print more k-points.

 Eight components of 2nd-order total energy (hartree) are
 1,2,3: 0th-order hamiltonian combined with 1st-order wavefunctions
     kin0=   6.96798531E+01 eigvalue=   1.13757179E+00  local=  -3.58021704E+01
 4,5,6: 1st-order hamiltonian combined with 1st and 0th-order wfs
     kin1=  -7.23826960E+01  Hartree=   0.00000000E+00     xc=   0.00000000E+00
 7,8,9: eventually, occupation + non-local contributions
    edocc=   7.27763595E+00     enl0=   4.62044640E+00   enl1=  -2.14439776E+01
 1-9 gives the relaxation energy (to be shifted if some occ is /=2.0)
   erelax=  -4.69133368E+01
  No Ewald or frozen-wf contrib.: the relaxation energy is the total one
 2DEtotal=   -0.4691333675E+02 Ha. Also 2DEtotal=   -0.127657681457E+04 eV
    (  non-var. 2DEtotal :   -4.6913336754E+01 Ha)

 CALCULATION OF EFFECTIVE MASSES
 NOTE : Additional infos (eff. mass eigenvalues, eigenvectors and, if degenerate, average mass) are available in stdout.

 K-point ( 0.000, 0.000, 0.000) | band =    72
 Effective mass tensor:
             -0.6835218297             -0.5243646750             -0.3747129007
             -0.5243646750             -1.3574703442             -0.6860016949
             -0.3747129007             -0.6860016949             -3.4186849920
 Effective mass tensor eigenvalues:
             -3.7138509614             -1.3486357952             -0.3971904093
 Angular average effective mass 1/(<1/m>)=  -0.8502349474
 Angular average effective mass for Frohlich model (<m**0.5>)**2=  -1.0688160145
 Effective masses along directions: (cart. coord. / red. coord. -> eff. mass)
    1:   1.000000  0.000000  0.000000 /   0.879586 -0.475739  0.000000 ->  -0.4770508244
    2:   0.000000  1.000000  0.000000 /   0.000000  1.000000  0.000000 ->  -0.9057724655
    3:   0.000000  0.000000  1.000000 /   0.184938  0.184938  0.965192 ->  -3.0469807316
    4:   0.577350  0.577350  0.577350 /   0.695518  0.296570  0.654447 ->  -1.9217847874
    5:   0.000000  0.707107  0.707107 /   0.139333  0.672159  0.727178 ->  -1.7265808670
    6:   0.707107  0.000000  0.707107 /   0.715275 -0.188160  0.673036 ->  -0.8792504368
    7:   0.707107  0.707107  0.000000 /   0.957763  0.287559  0.000000 ->  -1.2073927238

 K-point ( 0.709,-0.291, 0.175) | band =    73
 Effective mass tensor:
              0.4101180027              0.1768743119              0.0268462391
              0.1768743119              0.6375573624              0.0491737075
              0.0268462391              0.0491737075              0.2720753466
 Effective mass tensor eigenvalues:
              0.2653790985              0.3135600381              0.7408115751
 Angular average effective mass 1/(<1/m>)=   0.3611304641
 Angular average effective mass for Frohlich model (<m**0.5>)**2=   0.3796930307
 Effective masses along directions: (cart. coord. / red. coord. -> eff. mass)
    1:   1.000000  0.000000  0.000000 /   0.879586 -0.475739  0.000000 ->   0.3603987775
    2:   0.000000  1.000000  0.000000 /   0.000000  1.000000  0.000000 ->   0.5560468533
    3:   0.000000  0.000000  1.000000 /   0.184938  0.184938  0.965192 ->   0.2677997595
    4:   0.577350  0.577350  0.577350 /   0.695518  0.296570  0.654447 ->   0.4987200940
    5:   0.000000  0.707107  0.707107 /   0.139333  0.672159  0.727178 ->   0.3974325104
    6:   0.707107  0.000000  0.707107 /   0.715275 -0.188160  0.673036 ->   0.3207333768
    7:   0.707107  0.707107  0.000000 /   0.957763  0.287559  0.000000 ->   0.6547426140

 END OF EFFECTIVE MASSES SECTION

 ---- first-order wavefunction calculations are completed ----

 Total localisation tensor (bohr^2) in cartesian coordinates
  WARNING : still subject to testing - especially symmetries.
      direction              matrix element
   alpha     beta       real part   imaginary part
     1        1       2.4023421780    0.0000000000
     1        2      -0.8455712466    0.0000000000
     1        3       0.1876812604    0.0000000000
     2        1      -0.8455712466    0.0000000000
     2        2       1.3149557146    0.0000000000
     2        3       0.3438583098    0.0000000000
     3        1       0.1876812604    0.0000000000
     3        2       0.3438583098    0.0000000000
     3        3       1.6774254957    0.0000000000

 respfn : d/dk was computed, but no 2DTE, so no DDB output.

== END DATASET(S) ==============================================================

 -outvars: echo values of variables after computation  --------
            acell      1.0000000000E+00  1.0000000000E+00  1.0000000000E+00 Bohr
              amu      1.07868200E+02  1.27600000E+02  3.20660000E+01
             ecut      4.30000000E+01 Hartree
           etotal     -4.6913336754E+01
            fcart      0.0000000000E+00  0.0000000000E+00  0.0000000000E+00
                       0.0000000000E+00  0.0000000000E+00  0.0000000000E+00
                       0.0000000000E+00  0.0000000000E+00  0.0000000000E+00
                       0.0000000000E+00  0.0000000000E+00  0.0000000000E+00
                       0.0000000000E+00  0.0000000000E+00  0.0000000000E+00
                       0.0000000000E+00  0.0000000000E+00  0.0000000000E+00
                       0.0000000000E+00  0.0000000000E+00  0.0000000000E+00
                       0.0000000000E+00  0.0000000000E+00  0.0000000000E+00
                       0.0000000000E+00  0.0000000000E+00  0.0000000000E+00
                       0.0000000000E+00  0.0000000000E+00  0.0000000000E+00
                       0.0000000000E+00  0.0000000000E+00  0.0000000000E+00
                       0.0000000000E+00  0.0000000000E+00  0.0000000000E+00
-          fftalg         512
           irdden           1
           irdwfk           1
           istwfk        1    0
              ixc     -116133
              kpt      0.00000000E+00  0.00000000E+00  0.00000000E+00
                       7.09050284E-01 -2.90949716E-01  1.75059977E-01
           kptopt           0
P           mkmem           2
P          mkqmem           2
P          mk1mem           2
            natom          12
            nband          81
           nbdbuf           4
            ngfft          75      75      90
             nkpt           2
            nstep        2000
             nsym           2
           ntypat           3
              occ      2.000000  2.000000  2.000000  2.000000  2.000000  2.000000
                       2.000000  2.000000  2.000000  2.000000  2.000000  2.000000
                       2.000000  2.000000  2.000000  2.000000  2.000000  2.000000
                       2.000000  2.000000  2.000000  2.000000  2.000000  2.000000
                       2.000000  2.000000  2.000000  2.000000  2.000000  2.000000
                       2.000000  2.000000  2.000000  2.000000  2.000000  2.000000
                       2.000000  2.000000  2.000000  2.000000  2.000000  2.000000
                       2.000000  2.000000  2.000000  2.000000  2.000000  2.000000
                       2.000000  2.000000  2.000000  2.000000  2.000000  2.000000
                       2.000000  2.000000  2.000000  2.000000  2.000000  2.000000
                       2.000000  2.000000  2.000000  2.000000  2.000000  2.000000
                       2.000000  2.000000  2.000000  2.000000  2.000000  2.000000
                       0.000000  0.000000  0.000000  0.000000  0.000000  0.000000
                       0.000000  0.000000  0.000000
        optdriver           1
            prtwf          -1
            rfdir           1       1       1
           rfelfd           2
            rprim      1.2221919902E+01  0.0000000000E+00  2.6881873751E+00
                      -6.6104377443E+00  1.0279953254E+01  2.6881873751E+00
                       0.0000000000E+00  0.0000000000E+00  1.4029639782E+01
          spgroup           9
           strten      0.0000000000E+00  0.0000000000E+00  0.0000000000E+00
                       0.0000000000E+00  0.0000000000E+00  0.0000000000E+00
           symrel      1  0  0   0  1  0   0  0  1       0  1  0   1  0  0   0  0  1
            tnons      0.0000000  0.0000000  0.0000000     0.0000000  0.0000000  0.5000000
           tolwfr      1.00000000E-20
            typat      1  1  1  1  2  2  3  3  3  3  3  3
           useylm           1
              wtk        0.50000    0.50000
           xangst     -1.5086977447E-01  5.1244126633E+00  8.5427719331E+00
                       1.0145496010E-01  1.3911826056E+00  7.3934127403E+00
                       4.3917844593E+00  2.6447298720E+00  4.8306891243E+00
                       1.1152609873E+00  8.3777985250E-01  3.6813299315E+00
                       3.0680853557E+00  3.2873146239E+00  8.5516758729E+00
                       1.1055589905E+00  4.3585920324E+00  4.8395930641E+00
                      -2.4662029003E+00  4.4194103041E+00  1.6598595071E+00
                       5.0510895647E+00  3.1597213714E-01  5.3719423159E+00
                      -1.2357861368E+00  4.1124140300E+00  5.2844454594E+00
                       4.1273802904E+00  1.1848411151E+00  1.5723626506E+00
                       1.8491798610E+00  2.2198886766E+00  5.7562700419E+00
                       8.6700482099E-01  2.7560251333E+00  2.0441872331E+00
            xcart     -2.8510255548E-01  9.6837365255E+00  1.6143499369E+01
                       1.9172208940E-01  2.6289541254E+00  1.3971525267E+01
                       8.2992698627E+00  4.9978151536E+00  9.1286794781E+00
                       2.1075378327E+00  1.5831744809E+00  6.9567053754E+00
                       5.7978410746E+00  6.2121243518E+00  1.6160325377E+01
                       2.0892037158E+00  8.2365452662E+00  9.1455054857E+00
                      -4.6604480696E+00  8.3514751436E+00  3.1366798875E+00
                       9.5451759499E+00  5.9710080482E-01  1.0151499779E+01
                      -2.3352973574E+00  7.7713362617E+00  9.9861546824E+00
                       7.7996183952E+00  2.2390252186E+00  2.9713347912E+00
                       3.4944435077E+00  4.1949816443E+00  1.0877773926E+01
                       1.6384016676E+00  5.2081327172E+00  3.8629540349E+00
             xred      4.8617100000E-01  9.4200200000E-01  8.7702200000E-01
                       1.5400600000E-01  2.5573600000E-01  9.1734800000E-01
                       9.4200200000E-01  4.8617100000E-01  3.7702200000E-01
                       2.5573600000E-01  1.5400600000E-01  4.1734800000E-01
                       8.0122400000E-01  6.0429500000E-01  8.8256200000E-01
                       6.0429500000E-01  8.0122400000E-01  3.8256200000E-01
                       5.8084000000E-02  8.1240400000E-01  5.6783000000E-02
                       8.1240400000E-01  5.8084000000E-02  5.5678300000E-01
                       2.1780500000E-01  7.5597000000E-01  5.2520700000E-01
                       7.5597000000E-01  2.1780500000E-01  2.5207000000E-02
                       5.0663000000E-01  4.0807400000E-01  6.0007800000E-01
                       4.0807400000E-01  5.0663000000E-01  1.0007800000E-01
            znucl       47.00000   52.00000   16.00000

- Timing analysis has been suppressed with timopt=0

 Suggested references for the acknowledgment of ABINIT usage.

 Calculation completed.
.Delivered   2 WARNINGs and   5 COMMENTs to log file.