.Version 9.5.1 of ABINIT

 ABINIT is a project of the Universite Catholique de Louvain,
 Corning Inc. and other collaborators, see ~abinit/doc/developers/contributors.txt .
 acknowledgments of the ABINIT effort.

.Starting date : Tue 27 Apr 2021.
- ( at 18h35 )

- input  file    -> /scratch/users/j/a/jabreu/flow_simple_4atoms/flow/w200/t1/run.abi
- output file    -> /scratch/users/j/a/jabreu/flow_simple_4atoms/flow/w200/t1/run.abo
- root for input  files -> /scratch/users/j/a/jabreu/flow_simple_4atoms/flow/w200/t1/indata/in
- root for output files -> /scratch/users/j/a/jabreu/flow_simple_4atoms/flow/w200/t1/outdata/out

 Symmetries : space group P6_3 m c (#186); Bravais hP (primitive hexag.)
     intxc =       0      iscf =       7    lmnmax =      18     lnmax =       6
     mgfft =      60  mpssoang =       3    mqgrid =    3001     natom =       4
  nloc_mem =       1    nspden =       1   nspinor =       1    nsppol =       1
      nsym =      12    n1xccc =    2501    ntypat =       2    occopt =       1
   xclevel =       2
-    mband =          35        mffmem =           1         mkmem =           1
-   mkqmem =           1        mk1mem =           1           mpw =        4403
      nfft =       96000          nkpt =           1
  Rough estimation (10% accuracy) of disk space for files :

------------- Echo of variables that govern the present computation ------------
-
- outvars: echo of selected default values
-   iomode0 =  0 , fftalg0 =512 , wfoptalg0 =  0
-
- outvars: echo of global parameters not present in the input file
-  max_nthreads =    0
-
 -outvars: echo values of preprocessed input variables --------
            acell      1.0000000000E+00  1.0000000000E+00  1.0000000000E+00 Bohr
              amu      6.53900000E+01  1.59994000E+01
             ecut      4.40000000E+01 Hartree
-          fftalg         512
           irdden           1
           irdwfk           1
           istwfk        1
              ixc     -116133
           kptopt           0
P           mkmem           1
P          mkqmem           1
P          mk1mem           1
            natom           4
            nband          35
           nbdbuf           4
            ngfft          40      40      60
             nkpt           1
            nstep         100
             nsym          12
           ntypat           2
              occ      2.000000  2.000000  2.000000  2.000000  2.000000  2.000000
                       2.000000  2.000000  2.000000  2.000000  2.000000  2.000000
                       2.000000  2.000000  2.000000  2.000000  2.000000  2.000000
                       2.000000  2.000000  2.000000  2.000000  2.000000  2.000000
                       2.000000  2.000000  0.000000  0.000000  0.000000  0.000000
                       0.000000  0.000000  0.000000  0.000000  0.000000
        optdriver           1
            prtwf          -1
            rfdir           1       1       1
           rfelfd           2
            rprim      6.0975733526E+00  0.0000000000E+00  0.0000000000E+00
                      -3.0487866763E+00  5.2806534248E+00  0.0000000000E+00
                       0.0000000000E+00  0.0000000000E+00  9.8396928339E+00
          spgroup         186
           symrel      1  0  0   0  1  0   0  0  1       0  1  0   1  0  0   0  0  1
                       1  1  0  -1  0  0   0  0  1      -1  0  0   1  1  0   0  0  1
                       0  1  0  -1 -1  0   0  0  1      -1 -1  0   0  1  0   0  0  1
                      -1  0  0   0 -1  0   0  0  1       0 -1  0  -1  0  0   0  0  1
                      -1 -1  0   1  0  0   0  0  1       1  0  0  -1 -1  0   0  0  1
                       0 -1  0   1  1  0   0  0  1       1  1  0   0 -1  0   0  0  1
            tnons      0.0000000  0.0000000  0.0000000    -0.0000000  0.0000000  0.5000000
                       0.0000000  0.0000000  0.5000000    -0.0000000  0.0000000  0.0000000
                      -0.0000000  0.0000000  0.0000000    -0.0000000 -0.0000000  0.5000000
                      -0.0000000  0.0000000  0.5000000    -0.0000000 -0.0000000  0.0000000
                      -0.0000000 -0.0000000  0.0000000     0.0000000  0.0000000  0.5000000
                      -0.0000000 -0.0000000  0.5000000     0.0000000  0.0000000  0.0000000
           tolwfr      1.00000000E-20
            typat      1  1  2  2
           useylm           1
           xangst      1.6133484230E+00  9.3146714629E-01  2.6001850137E+00
                      -2.3500188843E-16  1.8629342926E+00  5.2036556073E+00
                       1.6133484230E+00  9.3146714629E-01  6.2650437059E-01
                      -2.3500188843E-16  1.8629342926E+00  3.2299749642E+00
            xcart      3.0487866763E+00  1.7602178083E+00  4.9136375708E+00
                      -4.4408920985E-16  3.5204356165E+00  9.8334839877E+00
                       3.0487866763E+00  1.7602178083E+00  1.1839216815E+00
                      -4.4408920985E-16  3.5204356165E+00  6.1037680984E+00
             xred      6.6666666667E-01  3.3333333333E-01  4.9936900000E-01
                       3.3333333333E-01  6.6666666667E-01  9.9936900000E-01
                       6.6666666667E-01  3.3333333333E-01  1.2032100000E-01
                       3.3333333333E-01  6.6666666667E-01  6.2032100000E-01
            znucl       30.00000    8.00000

 chkinp: Checking input parameters for consistency.

== DATASET  1 ==================================================================
-   mpi_nproc: 1, omp_nthreads: -1 (-1 if OMP is not activated)

--- !DatasetInfo
iteration_state: {dtset: 1, }
dimensions: {natom: 4, nkpt: 1, mband: 35, nsppol: 1, nspinor: 1, nspden: 1, mpw: 4403, }
cutoff_energies: {ecut:  44.0, pawecutdg:  -1.0, }
electrons: {nelect:   5.20000000E+01, charge:   0.00000000E+00, occopt:   1.00000000E+00, tsmear:   1.00000000E-02, }
meta: {optdriver: 1, rfelfd: 2, }
...

 Real(R)+Recip(G) space primitive vectors, cartesian coordinates (Bohr,Bohr^-1):
 R(1)=  6.0975734  0.0000000  0.0000000  G(1)=  0.1639997  0.0946853  0.0000000
 R(2)= -3.0487867  5.2806534  0.0000000  G(2)=  0.0000000  0.1893705  0.0000000
 R(3)=  0.0000000  0.0000000  9.8396928  G(3)=  0.0000000  0.0000000  0.1016292
 Unit cell volume ucvol=  3.1682996E+02 bohr^3
 Angles (23,13,12)=  9.00000000E+01  9.00000000E+01  1.20000000E+02 degrees

 getcut: wavevector=  0.0000  0.0000  0.0000  ngfft=  40  40  60
         ecut(hartree)=     44.000   => boxcut(ratio)=   2.04211

--- Pseudopotential description ------------------------------------------------
- pspini: atom type   1  psp file is /scratch/users/j/a/jabreu/pseudos/PBEsol/Zn.psp8
- pspatm: opening atomic psp file    /scratch/users/j/a/jabreu/pseudos/PBEsol/Zn.psp8
- Zn    ONCVPSP-3.3.0  r_core=   1.35823   1.66358   1.85211
- 30.00000  20.00000    180112                znucl, zion, pspdat
    8 -116133    2    4       600   0.00000   pspcod,pspxc,lmax,lloc,mmax,r2well
    5.99000000000000    2.50000000000000    0.00000000000000   rchrg,fchrg,qchrg
     nproj     2     2     2
     extension_switch     1
  pspatm : epsatm=   26.57343589
         --- l  ekb(1:nproj) -->
             0    2.830835   -1.519107
             1   -4.626739   -1.324150
             2   -6.948510   -2.555500
 pspatm: atomic psp has been read  and splines computed

- pspini: atom type   2  psp file is /scratch/users/j/a/jabreu/pseudos/PBEsol/O.psp8
- pspatm: opening atomic psp file    /scratch/users/j/a/jabreu/pseudos/PBEsol/O.psp8
- O     ONCVPSP-3.3.0  r_core=   1.35509   1.45563   1.26150
-  8.00000   6.00000    180112                znucl, zion, pspdat
    8 -116133    2    4       600   0.00000   pspcod,pspxc,lmax,lloc,mmax,r2well
    5.99000000000000    4.00000000000000    0.00000000000000   rchrg,fchrg,qchrg
     nproj     2     2     1
     extension_switch     1
  pspatm : epsatm=    6.22910522
         --- l  ekb(1:nproj) -->
             0    6.050032    0.820363
             1   -4.739617   -1.153841
             2   -1.335834
 pspatm: atomic psp has been read  and splines computed

   3.41146427E+03                                ecore*ucvol(ha*bohr**3)

-inwffil : will read wavefunctions from disk file /scratch/users/j/a/jabreu/flow_simple_4atoms/flow/w200/t1/indata/in_WFK

 ==>  initialize data related to q vector <==

 The list of irreducible perturbations for this q vector is:
    1)    idir= 1    ipert=   5
    2)    idir= 2    ipert=   5
    3)    idir= 3    ipert=   5

 Perturbation wavevector (in red.coord.)   0.000000  0.000000  0.000000
 Perturbation : derivative vs k along direction   1

 dfpt_looppert : COMMENT -
  In a d/dk calculation, iscf is set to -3 automatically.
 The set of symmetries contains only one element for this perturbation.
 symkpt : not enough symmetry to change the number of k points.

[...]

 Initialisation of the first-order wave-functions :
  ireadwf=   0

--- !BeginCycle
iteration_state: {dtset: 1, }
solver: {iscf: 7, nstep: 100, nline: 4, wfoptalg: 0, }
tolerances: {tolwfr: 1.00E-20, }
...

     iter   2DEtotal(Ha)        deltaE(Ha) residm    vres2
-ETOT  1  -114.21476556374     -1.142E+02 4.519E-02 0.000E+00
 ETOT  2  -114.30433316372     -8.957E-02 1.902E-04 0.000E+00
 ETOT  3  -114.30441146852     -7.830E-05 1.511E-07 0.000E+00
 ETOT  4  -114.30441165099     -1.825E-07 1.096E-09 0.000E+00
 ETOT  5  -114.30441165168     -6.846E-10 4.026E-12 0.000E+00
 ETOT  6  -114.30441165168     -3.283E-12 3.346E-14 0.000E+00
 ETOT  7  -114.30441165168     -1.137E-13 1.418E-16 0.000E+00
 ETOT  8  -114.30441165168      8.527E-14 1.135E-18 0.000E+00
 ETOT  9  -114.30441165168     -5.684E-14 9.306E-21 0.000E+00

 At SCF step    9   max residual=  9.31E-21 < tolwfr=  1.00E-20 =>converged.

 ----iterations are completed or convergence reached----

 dfpt_looppert: DFPT cycle converged with prtwf=-1. Will skip output of the 1st-order WFK file.
 dfpt_looppert : ek2=    1.4723726636E+02
          f-sum rule ratio=    1.4924892046E+00
 prteigrs : about to open file /scratch/users/j/a/jabreu/flow_simple_4atoms/flow/w200/t1/tmpdata/tmp_1WF1_EIG
 Expectation of eigenvalue derivatives (hartree) for nkpt=   1  k points:
  (in case of degenerate eigenvalues, averaged derivative)
 kpt#   1, nband= 35, wtk=  1.00000, kpt=  0.0000  0.0000  0.0000 (reduced coord)
   0.00000    0.00000   -0.00000    0.00000    0.00000    0.00000   -0.00000   -0.00000
   0.00000   -0.00000   -0.00000   -0.00000    0.00000    0.00000   -0.00000   -0.00000
  -0.00000   -0.00000    0.00000    0.00000    0.00000   -0.00000   -0.00000   -0.00000
  -0.00000   -0.00000    0.00000   -0.00000   -0.00000    0.00000    0.00000    0.00000
  -0.00000   -0.00000    0.00000

 Eight components of 2nd-order total energy (hartree) are
 1,2,3: 0th-order hamiltonian combined with 1st-order wavefunctions
     kin0=   1.21698111E+02 eigvalue=   1.07857510E+00  local=  -4.06624059E+01
 4,5,6: 1st-order hamiltonian combined with 1st and 0th-order wfs
     kin1=  -2.19750031E+02  Hartree=   0.00000000E+00     xc=   0.00000000E+00
 7,8,9: eventually, occupation + non-local contributions
    edocc=   3.70983360E+01     enl0=  -4.90820420E+00   enl1=  -8.85879275E+00
 1-9 gives the relaxation energy (to be shifted if some occ is /=2.0)
   erelax=  -1.14304412E+02
  No Ewald or frozen-wf contrib.: the relaxation energy is the total one
 2DEtotal=   -0.1143044117E+03 Ha. Also 2DEtotal=   -0.311038122235E+04 eV
    (  non-var. 2DEtotal :   -1.1430441165E+02 Ha)

 Perturbation wavevector (in red.coord.)   0.000000  0.000000  0.000000
 Perturbation : derivative vs k along direction   2
 The set of symmetries contains only one element for this perturbation.
 symkpt : not enough symmetry to change the number of k points.

[...]

 Perturbation wavevector (in red.coord.)   0.000000  0.000000  0.000000
 Perturbation : derivative vs k along direction   3
 The set of symmetries contains only one element for this perturbation.
 symkpt : not enough symmetry to change the number of k points.

-inwffil : will read wavefunctions from disk file /scratch/users/j/a/jabreu/flow_simple_4atoms/flow/w200/t1/indata/in_WFK

 Initialisation of the first-order wave-functions :
  ireadwf=   0

--- !BeginCycle
iteration_state: {dtset: 1, }
solver: {iscf: 7, nstep: 100, nline: 4, wfoptalg: 0, }
tolerances: {tolwfr: 1.00E-20, }
...

     iter   2DEtotal(Ha)        deltaE(Ha) residm    vres2
-ETOT  1  -30.056156956711     -3.006E+01 1.725E-02 0.000E+00
 ETOT  2  -30.076906331332     -2.075E-02 3.311E-05 0.000E+00
 ETOT  3  -30.076929745521     -2.341E-05 3.642E-08 0.000E+00
 ETOT  4  -30.076929796794     -5.127E-08 2.072E-10 0.000E+00
 ETOT  5  -30.076929796961     -1.672E-10 4.457E-13 0.000E+00
 ETOT  6  -30.076929796962     -7.319E-13 3.463E-15 0.000E+00
 ETOT  7  -30.076929796962     -3.553E-14 8.357E-18 0.000E+00
 ETOT  8  -30.076929796962      4.619E-14 6.203E-20 0.000E+00
 ETOT  9  -30.076929796962     -3.553E-15 9.772E-21 0.000E+00

 At SCF step    9   max residual=  9.77E-21 < tolwfr=  1.00E-20 =>converged.

 ----iterations are completed or convergence reached----

 dfpt_looppert: DFPT cycle converged with prtwf=-1. Will skip output of the 1st-order WFK file.
 dfpt_looppert : ek2=    4.2406262124E+01
          f-sum rule ratio=    1.3192860290E+00
 prteigrs : about to open file /scratch/users/j/a/jabreu/flow_simple_4atoms/flow/w200/t1/tmpdata/tmp_1WF1_EIG
 Expectation of eigenvalue derivatives (hartree) for nkpt=   1  k points:
  (in case of degenerate eigenvalues, averaged derivative)
 kpt#   1, nband= 35, wtk=  1.00000, kpt=  0.0000  0.0000  0.0000 (reduced coord)
  -0.00000   -0.00000   -0.00000   -0.00000   -0.00000   -0.00000   -0.00000   -0.00000
   0.00000   -0.00000   -0.00000   -0.00000    0.00000    0.00000   -0.00000   -0.00000
   0.00000    0.00000   -0.00000   -0.00000    0.00000    0.00000    0.00000    0.00000
   0.00000    0.00000    0.00000    0.00000   -0.00000    0.00000    0.00000    0.00000
  -0.00000   -0.00000    0.00000

 Eight components of 2nd-order total energy (hartree) are
 1,2,3: 0th-order hamiltonian combined with 1st-order wavefunctions
     kin0=   3.57391200E+01 eigvalue=   2.85536638E-01  local=  -1.19344856E+01
 4,5,6: 1st-order hamiltonian combined with 1st and 0th-order wfs
     kin1=  -5.59459892E+01  Hartree=   0.00000000E+00     xc=   0.00000000E+00
 7,8,9: eventually, occupation + non-local contributions
    edocc=   7.48500600E+00     enl0=  -1.49824726E+00   enl1=  -4.20787043E+00
 1-9 gives the relaxation energy (to be shifted if some occ is /=2.0)
   erelax=  -3.00769298E+01
  No Ewald or frozen-wf contrib.: the relaxation energy is the total one
 2DEtotal=   -0.3007692980E+02 Ha. Also 2DEtotal=   -0.818434882035E+03 eV
    (  non-var. 2DEtotal :   -3.0076929797E+01 Ha)

 CALCULATION OF EFFECTIVE MASSES
 NOTE : Additional infos (eff. mass eigenvalues, eigenvectors and, if degenerate, average mass) are available in stdout.

 COMMENTS:
 - At k-point ( 0.000, 0.000, 0.000), bands    25 through    26
   are DEGENERATE (effective mass tensor is therefore not defined).
   See Section IIIB Eqs. (67)-(70) and Appendix E of PRB 93 205147 (2016).
 - Angular average effective mass for Frohlich model is to be averaged over degenerate bands. See later.
 - Associated theta integrals calculated with ntheta=   1000 points.

 K-point ( 0.000, 0.000, 0.000) | band =    25
 Transport equivalent effective mass tensor:
             -0.1563136729              0.0000000018              0.0000000321
              0.0000000018             -0.1563136751             -0.0000000381
              0.0000000321             -0.0000000381             -2.8512343711
 Transport equivalent effective mass tensor eigenvalues:
             -2.8512343711             -0.1563136761             -0.1563136719
 Angular average effective mass 1/(<1/m>)=  -0.2282147834
 Angular average effective mass for Frohlich model (<m**0.5>)**2=  -0.2945061001
 Effective masses along directions: (cart. coord. / red. coord. -> eff. mass)
    1:   1.000000  0.000000  0.000000 /   0.894427 -0.447214  0.000000 ->  -0.1563136729
    2:   0.000000  1.000000  0.000000 /   0.000000  1.000000  0.000000 ->  -0.1563136751
    3:   0.000000  0.000000  1.000000 /   0.000000  0.000000  1.000000 ->  -2.8512343710
    4:   0.577350  0.577350  0.577350 /   0.517224  0.189317  0.834648 ->  -0.2282147813
    5:   0.000000  0.707107  0.707107 /   0.000000  0.472875  0.881130 ->  -0.2963789291
    6:   0.707107  0.000000  0.707107 /   0.509379 -0.254690  0.821989 ->  -0.2963789112
    7:   0.707107  0.707107  0.000000 /   0.939071  0.343724  0.000000 ->  -0.1563136722

 K-point ( 0.000, 0.000, 0.000) | band =    26
 Transport equivalent effective mass tensor:
             -2.5950921240              0.0000000003              0.0000000024
              0.0000000003             -2.5950921233              0.0000000003
              0.0000000024              0.0000000003             -2.8512343711
 Transport equivalent effective mass tensor eigenvalues:
             -2.8512343711             -2.5950921241             -2.5950921232
 Angular average effective mass 1/(<1/m>)=  -2.6752015345
 Angular average effective mass for Frohlich model (<m**0.5>)**2=  -2.6767557014
 Effective masses along directions: (cart. coord. / red. coord. -> eff. mass)
    1:   1.000000  0.000000  0.000000 /   0.894427 -0.447214  0.000000 ->  -2.5950921245
    2:   0.000000  1.000000  0.000000 /   0.000000  1.000000  0.000000 ->  -2.5950921238
    3:   0.000000  0.000000  1.000000 /   0.000000  0.000000  1.000000 ->  -2.8512343712
    4:   0.577350  0.577350  0.577350 /   0.517224  0.189317  0.834648 ->  -2.6752015313
    5:   0.000000  0.707107  0.707107 /   0.000000  0.472875  0.881130 ->  -2.7171400280
    6:   0.707107  0.000000  0.707107 /   0.509379 -0.254690  0.821989 ->  -2.7171400217
    7:   0.707107  0.707107  0.000000 /   0.939071  0.343724  0.000000 ->  -2.5950921173

 Angular average effective mass for Frohlich model, averaged over degenerate bands.
 Value of     (<<m**0.5>>)**2 =     1.186753E+00
 Absolute Value of <<m**0.5>> =     1.089382E+00

 K-point ( 0.000, 0.000, 0.000) | band =    27
 Effective mass tensor:
              0.1412281364             -0.0000000000             -0.0000000000
             -0.0000000000              0.1412281364              0.0000000000
             -0.0000000000              0.0000000000              0.1431295331
 Effective mass tensor eigenvalues:
              0.1412281364              0.1412281364              0.1431295331
 Angular average effective mass 1/(<1/m>)=   0.1418562972
 Angular average effective mass for Frohlich model (<m**0.5>)**2=   0.1418579847
 Effective masses along directions: (cart. coord. / red. coord. -> eff. mass)
    1:   1.000000  0.000000  0.000000 /   0.894427 -0.447214  0.000000 ->   0.1412281364
    2:   0.000000  1.000000  0.000000 /   0.000000  1.000000  0.000000 ->   0.1412281364
    3:   0.000000  0.000000  1.000000 /   0.000000  0.000000  1.000000 ->   0.1431295331
    4:   0.577350  0.577350  0.577350 /   0.517224  0.189317  0.834648 ->   0.1418562972
    5:   0.000000  0.707107  0.707107 /   0.000000  0.472875  0.881130 ->   0.1421724778
    6:   0.707107  0.000000  0.707107 /   0.509379 -0.254690  0.821989 ->   0.1421724778
    7:   0.707107  0.707107  0.000000 /   0.939071  0.343724  0.000000 ->   0.1412281364

 END OF EFFECTIVE MASSES SECTION

 ---- first-order wavefunction calculations are completed ----

 Total localisation tensor (bohr^2) in cartesian coordinates
  WARNING : still subject to testing - especially symmetries.
      direction              matrix element
   alpha     beta       real part   imaginary part
     1        1       7.3001020953    0.0000000000
     1        2      -2.5288295415    0.0000000000
     1        3       0.0000000000    0.0000000000
     2        1      -2.5288295415    0.0000000000
     2        2       4.3800612496    0.0000000000
     2        3       0.0000000000    0.0000000000
     3        1       0.0000000000    0.0000000000
     3        2       0.0000000000    0.0000000000
     3        3       3.7631717127    0.0000000000

 respfn : d/dk was computed, but no 2DTE, so no DDB output.

== END DATASET(S) ==============================================================

 -outvars: echo values of variables after computation  --------
            acell      1.0000000000E+00  1.0000000000E+00  1.0000000000E+00 Bohr
              amu      6.53900000E+01  1.59994000E+01
             ecut      4.40000000E+01 Hartree
           etotal     -3.0076929797E+01
            fcart      0.0000000000E+00  0.0000000000E+00  0.0000000000E+00
                       0.0000000000E+00  0.0000000000E+00  0.0000000000E+00
                       0.0000000000E+00  0.0000000000E+00  0.0000000000E+00
                       0.0000000000E+00  0.0000000000E+00  0.0000000000E+00
-          fftalg         512
           irdden           1
           irdwfk           1
           istwfk        1
              ixc     -116133
           kptopt           0
P           mkmem           1
P          mkqmem           1
P          mk1mem           1
            natom           4
            nband          35
           nbdbuf           4
            ngfft          40      40      60
             nkpt           1
            nstep         100
             nsym          12
           ntypat           2
              occ      2.000000  2.000000  2.000000  2.000000  2.000000  2.000000
                       2.000000  2.000000  2.000000  2.000000  2.000000  2.000000
                       2.000000  2.000000  2.000000  2.000000  2.000000  2.000000
                       2.000000  2.000000  2.000000  2.000000  2.000000  2.000000
                       2.000000  2.000000  0.000000  0.000000  0.000000  0.000000
                       0.000000  0.000000  0.000000  0.000000  0.000000
        optdriver           1
            prtwf          -1
            rfdir           1       1       1
           rfelfd           2
            rprim      6.0975733526E+00  0.0000000000E+00  0.0000000000E+00
                      -3.0487866763E+00  5.2806534248E+00  0.0000000000E+00
                       0.0000000000E+00  0.0000000000E+00  9.8396928339E+00
          spgroup         186
           strten      0.0000000000E+00  0.0000000000E+00  0.0000000000E+00
                       0.0000000000E+00  0.0000000000E+00  0.0000000000E+00
           symrel      1  0  0   0  1  0   0  0  1       0  1  0   1  0  0   0  0  1
                       1  1  0  -1  0  0   0  0  1      -1  0  0   1  1  0   0  0  1
                       0  1  0  -1 -1  0   0  0  1      -1 -1  0   0  1  0   0  0  1
                      -1  0  0   0 -1  0   0  0  1       0 -1  0  -1  0  0   0  0  1
                      -1 -1  0   1  0  0   0  0  1       1  0  0  -1 -1  0   0  0  1
                       0 -1  0   1  1  0   0  0  1       1  1  0   0 -1  0   0  0  1
            tnons      0.0000000  0.0000000  0.0000000    -0.0000000  0.0000000  0.5000000
                       0.0000000  0.0000000  0.5000000    -0.0000000  0.0000000  0.0000000
                      -0.0000000  0.0000000  0.0000000    -0.0000000 -0.0000000  0.5000000
                      -0.0000000  0.0000000  0.5000000    -0.0000000 -0.0000000  0.0000000
                      -0.0000000 -0.0000000  0.0000000     0.0000000  0.0000000  0.5000000
                      -0.0000000 -0.0000000  0.5000000     0.0000000  0.0000000  0.0000000
           tolwfr      1.00000000E-20
            typat      1  1  2  2
           useylm           1
           xangst      1.6133484230E+00  9.3146714629E-01  2.6001850137E+00
                      -2.3500188843E-16  1.8629342926E+00  5.2036556073E+00
                       1.6133484230E+00  9.3146714629E-01  6.2650437059E-01
                      -2.3500188843E-16  1.8629342926E+00  3.2299749642E+00
            xcart      3.0487866763E+00  1.7602178083E+00  4.9136375708E+00
                      -4.4408920985E-16  3.5204356165E+00  9.8334839877E+00
                       3.0487866763E+00  1.7602178083E+00  1.1839216815E+00
                      -4.4408920985E-16  3.5204356165E+00  6.1037680984E+00
             xred      6.6666666667E-01  3.3333333333E-01  4.9936900000E-01
                       3.3333333333E-01  6.6666666667E-01  9.9936900000E-01
                       6.6666666667E-01  3.3333333333E-01  1.2032100000E-01
                       3.3333333333E-01  6.6666666667E-01  6.2032100000E-01
            znucl       30.00000    8.00000

- Timing analysis has been suppressed with timopt=0

 Suggested references for the acknowledgment of ABINIT usage.

 Calculation completed.
.Delivered   6 WARNINGs and   5 COMMENTs to log file.