.Version 9.5.1 of ABINIT

 ABINIT is a project of the Universite Catholique de Louvain,
 Corning Inc. and other collaborators, see ~abinit/doc/developers/contributors.txt .
 acknowledgments of the ABINIT effort.

.Starting date : Wed 19 May 2021.
- ( at 01h51 )

- input  file    -> /scratch/users/j/a/jabreu/flow_simple_8atoms/flow/w485/t1/run.abi
- output file    -> /scratch/users/j/a/jabreu/flow_simple_8atoms/flow/w485/t1/run.abo
- root for input  files -> /scratch/users/j/a/jabreu/flow_simple_8atoms/flow/w485/t1/indata/in
- root for output files -> /scratch/users/j/a/jabreu/flow_simple_8atoms/flow/w485/t1/outdata/out

 Symmetries : space group P6_3/m m c (#194); Bravais hP (primitive hexag.)
     intxc =       0      iscf =       7    lmnmax =      18     lnmax =       6
     mgfft =     135  mpssoang =       3    mqgrid =    6440     natom =       8
  nloc_mem =       1    nspden =       1   nspinor =       1    nsppol =       1
      nsym =      24    n1xccc =    2501    ntypat =       2    occopt =       1
   xclevel =       2
-    mband =          59        mffmem =           1         mkmem =           1
-   mkqmem =           1        mk1mem =           1           mpw =       26039
      nfft =      486000          nkpt =           1
  Rough estimation (10% accuracy) of disk space for files :

------------- Echo of variables that govern the present computation ------------
-
- outvars: echo of selected default values
-   iomode0 =  0 , fftalg0 =512 , wfoptalg0 =  0
-
- outvars: echo of global parameters not present in the input file
-  max_nthreads =    0
-
 -outvars: echo values of preprocessed input variables --------
            acell      1.0000000000E+00  1.0000000000E+00  1.0000000000E+00 Bohr
              amu      3.90983000E+01  1.27600000E+02
             ecut      4.00000000E+01 Hartree
-          fftalg         512
           irdden           1
           irdwfk           1
           istwfk        1
              ixc     -116133
           kptopt           0
P           mkmem           1
P          mkqmem           1
P          mk1mem           1
            natom           8
            nband          59
           nbdbuf           4
            ngfft          60      60     135
             nkpt           1
            nstep        2000
             nsym          24
           ntypat           2
              occ      2.000000  2.000000  2.000000  2.000000  2.000000  2.000000
                       2.000000  2.000000  2.000000  2.000000  2.000000  2.000000
                       2.000000  2.000000  2.000000  2.000000  2.000000  2.000000
                       2.000000  2.000000  2.000000  2.000000  2.000000  2.000000
                       2.000000  2.000000  2.000000  2.000000  2.000000  2.000000
                       2.000000  2.000000  2.000000  2.000000  2.000000  2.000000
                       2.000000  2.000000  2.000000  2.000000  2.000000  2.000000
                       2.000000  2.000000  2.000000  2.000000  2.000000  2.000000
                       2.000000  2.000000  0.000000  0.000000  0.000000  0.000000
                       0.000000  0.000000  0.000000  0.000000  0.000000
        optdriver           1
            prtwf          -1
            rfdir           1       1       1
           rfelfd           2
            rprim      1.0496933608E+01  0.0000000000E+00  0.0000000000E+00
                      -5.2484668043E+00  9.0906111668E+00  0.0000000000E+00
                       0.0000000000E+00  0.0000000000E+00  2.2618076938E+01
          spgroup         194
           symrel      1  0  0   0  1  0   0  0  1      -1  0  0   0 -1  0   0  0 -1
                       0  1  0   1  0  0   0  0  1       0 -1  0  -1  0  0   0  0 -1
                       1  1  0  -1  0  0   0  0  1      -1 -1  0   1  0  0   0  0 -1
                      -1  0  0   1  1  0   0  0  1       1  0  0  -1 -1  0   0  0 -1
                       0  1  0  -1 -1  0   0  0  1       0 -1  0   1  1  0   0  0 -1
                      -1 -1  0   0  1  0   0  0  1       1  1  0   0 -1  0   0  0 -1
                      -1  0  0   0 -1  0   0  0  1       1  0  0   0  1  0   0  0 -1
                       0 -1  0  -1  0  0   0  0  1       0  1  0   1  0  0   0  0 -1
                      -1 -1  0   1  0  0   0  0  1       1  1  0  -1  0  0   0  0 -1
                       1  0  0  -1 -1  0   0  0  1      -1  0  0   1  1  0   0  0 -1
                       0 -1  0   1  1  0   0  0  1       0  1  0  -1 -1  0   0  0 -1
                       1  1  0   0 -1  0   0  0  1      -1 -1  0   0  1  0   0  0 -1
            tnons      0.0000000  0.0000000  0.0000000     0.0000000  0.0000000 -0.0000000
                       0.0000000  0.0000000  0.5000000     0.0000000  0.0000000  0.5000000
                       0.0000000  0.0000000  0.5000000     0.0000000  0.0000000  0.5000000
                       0.0000000  0.0000000  0.0000000     0.0000000  0.0000000 -0.0000000
                       0.0000000  0.0000000  0.0000000     0.0000000  0.0000000 -0.0000000
                       0.0000000  0.0000000  0.5000000     0.0000000  0.0000000  0.5000000
                       0.0000000  0.0000000  0.5000000     0.0000000  0.0000000  0.5000000
                       0.0000000  0.0000000  0.0000000     0.0000000  0.0000000 -0.0000000
                       0.0000000  0.0000000  0.0000000     0.0000000  0.0000000 -0.0000000
                       0.0000000  0.0000000  0.5000000     0.0000000  0.0000000  0.5000000
                       0.0000000  0.0000000  0.5000000     0.0000000  0.0000000  0.5000000
                       0.0000000  0.0000000  0.0000000     0.0000000  0.0000000 -0.0000000
           tolwfr      1.00000000E-20
            typat      1  1  1  1  2  2  2  2
           useylm           1
           xangst      0.0000000000E+00  0.0000000000E+00 -1.6610283729E-16
                       0.0000000000E+00  0.0000000000E+00  5.9844854088E+00
                      -1.7639241746E-11  3.2070294944E+00  2.9922427044E+00
                       2.7773690128E+00  1.6035147472E+00  8.9767281133E+00
                      -1.7639241746E-11  3.2070294944E+00  7.5688539829E+00
                       2.7773690128E+00  1.6035147472E+00  1.5843685740E+00
                       2.7773690128E+00  1.6035147472E+00  4.4001168348E+00
                      -1.7639241746E-11  3.2070294944E+00  1.0384602244E+01
            xcart      0.0000000000E+00  0.0000000000E+00 -3.1388887236E-16
                       0.0000000000E+00  0.0000000000E+00  1.1309038469E+01
                      -3.3333336091E-11  6.0604074445E+00  5.6545192345E+00
                       5.2484668042E+00  3.0302037223E+00  1.6963557703E+01
                      -3.3333336091E-11  6.0604074445E+00  1.4303061167E+01
                       5.2484668042E+00  3.0302037223E+00  2.9940226985E+00
                       5.2484668042E+00  3.0302037223E+00  8.3150157704E+00
                      -3.3333336091E-11  6.0604074445E+00  1.9624054239E+01
             xred      0.0000000000E+00  0.0000000000E+00 -1.3877787808E-17
                       0.0000000000E+00  0.0000000000E+00  5.0000000000E-01
                       3.3333333333E-01  6.6666666667E-01  2.5000000000E-01
                       6.6666666667E-01  3.3333333333E-01  7.5000000000E-01
                       3.3333333333E-01  6.6666666667E-01  6.3237300000E-01
                       6.6666666667E-01  3.3333333333E-01  1.3237300000E-01
                       6.6666666667E-01  3.3333333333E-01  3.6762700000E-01
                       3.3333333333E-01  6.6666666667E-01  8.6762700000E-01
            znucl       19.00000   52.00000

 chkinp: Checking input parameters for consistency.

== DATASET  1 ==================================================================
-   mpi_nproc: 1, omp_nthreads: -1 (-1 if OMP is not activated)

--- !DatasetInfo
iteration_state: {dtset: 1, }
dimensions: {natom: 8, nkpt: 1, mband: 59, nsppol: 1, nspinor: 1, nspden: 1, mpw: 26039, }
cutoff_energies: {ecut:  40.0, pawecutdg:  -1.0, }
electrons: {nelect:   1.00000000E+02, charge:   0.00000000E+00, occopt:   1.00000000E+00, tsmear:   1.00000000E-02, }
meta: {optdriver: 1, rfelfd: 2, }
...

 Real(R)+Recip(G) space primitive vectors, cartesian coordinates (Bohr,Bohr^-1):
 R(1)= 10.4969336  0.0000000  0.0000000  G(1)=  0.0952659  0.0550018  0.0000000
 R(2)= -5.2484668  9.0906112  0.0000000  G(2)=  0.0000000  0.1100036  0.0000000
 R(3)=  0.0000000  0.0000000 22.6180769  G(3)=  0.0000000  0.0000000  0.0442124
 Unit cell volume ucvol=  2.1582970E+03 bohr^3
 Angles (23,13,12)=  9.00000000E+01  9.00000000E+01  1.20000000E+02 degrees

 getcut: wavevector=  0.0000  0.0000  0.0000  ngfft=  60  60 135
         ecut(hartree)=     40.000   => boxcut(ratio)=   2.00768

--- Pseudopotential description ------------------------------------------------
- pspini: atom type   1  psp file is /scratch/users/j/a/jabreu/pseudos/PBEsol/K.psp8
- pspatm: opening atomic psp file    /scratch/users/j/a/jabreu/pseudos/PBEsol/K.psp8
- K     ONCVPSP-3.3.0  r_core=   1.36296   1.46408   1.61068
- 19.00000   9.00000    180112                znucl, zion, pspdat
    8 -116133    2    4       400   0.00000   pspcod,pspxc,lmax,lloc,mmax,r2well
    3.99000000000000    5.00000000000000    0.00000000000000   rchrg,fchrg,qchrg
     nproj     2     2     2
     extension_switch     1
  pspatm : epsatm=    8.32487830
         --- l  ekb(1:nproj) -->
             0   10.921326    0.816676
             1    4.431000    0.560368
             2   -3.384038   -1.043186
 pspatm: atomic psp has been read  and splines computed

- pspini: atom type   2  psp file is /scratch/users/j/a/jabreu/pseudos/PBEsol/Te.psp8
- pspatm: opening atomic psp file    /scratch/users/j/a/jabreu/pseudos/PBEsol/Te.psp8
- Te    ONCVPSP-3.3.0  r_core=   2.26547   1.91704   1.80604
- 52.00000  16.00000    180112                znucl, zion, pspdat
    8 -116133    2    4       600   0.00000   pspcod,pspxc,lmax,lloc,mmax,r2well
    5.99000000000000    5.00000000000000    0.00000000000000   rchrg,fchrg,qchrg
     nproj     2     2     2
     extension_switch     1
  pspatm : epsatm=   36.82679836
         --- l  ekb(1:nproj) -->
             0    6.345999    0.785432
             1    5.709019    1.070069
             2   -6.035173   -1.870937
 pspatm: atomic psp has been read  and splines computed

   1.80606707E+04                                ecore*ucvol(ha*bohr**3)

-inwffil : will read wavefunctions from disk file /scratch/users/j/a/jabreu/flow_simple_8atoms/flow/w485/t1/indata/in_WFK

 ==>  initialize data related to q vector <==

 The list of irreducible perturbations for this q vector is:
    1)    idir= 1    ipert=   9
    2)    idir= 2    ipert=   9
    3)    idir= 3    ipert=   9

 Perturbation wavevector (in red.coord.)   0.000000  0.000000  0.000000
 Perturbation : derivative vs k along direction   1

 dfpt_looppert : COMMENT -
  In a d/dk calculation, iscf is set to -3 automatically.
 The set of symmetries contains only one element for this perturbation.
 symkpt : not enough symmetry to change the number of k points.

[...]

 Initialisation of the first-order wave-functions :
  ireadwf=   0

[...]
 symkpt : not enough symmetry to change the number of k points.

[...]

 Perturbation wavevector (in red.coord.)   0.000000  0.000000  0.000000
 Perturbation : derivative vs k along direction   3
 The set of symmetries contains only one element for this perturbation.
 symkpt : not enough symmetry to change the number of k points.

-inwffil : will read wavefunctions from disk file /scratch/users/j/a/jabreu/flow_simple_8atoms/flow/w485/t1/indata/in_WFK

 Initialisation of the first-order wave-functions :
  ireadwf=   0

--- !BeginCycle
iteration_state: {dtset: 1, }
solver: {iscf: 7, nstep: 2000, nline: 4, wfoptalg: 0, }
tolerances: {tolwfr: 1.00E-20, }
...

     iter   2DEtotal(Ha)        deltaE(Ha) residm    vres2
-ETOT  1  -14.309241874085     -1.431E+01 1.233E-02 0.000E+00
 ETOT  2  -14.327141438004     -1.790E-02 8.465E-04 0.000E+00
 ETOT  3  -14.327257925673     -1.165E-04 2.820E-05 0.000E+00
 ETOT  4  -14.327259282671     -1.357E-06 7.266E-07 0.000E+00
 ETOT  5  -14.327259308502     -2.583E-08 1.811E-07 0.000E+00
 ETOT  6  -14.327259309132     -6.301E-10 4.217E-09 0.000E+00
 ETOT  7  -14.327259309152     -2.063E-11 1.963E-09 0.000E+00
 ETOT  8  -14.327259309153     -7.461E-13 5.362E-11 0.000E+00
 ETOT  9  -14.327259309153     -1.954E-14 3.350E-11 0.000E+00
 ETOT 10  -14.327259309153     -8.882E-15 1.045E-12 0.000E+00
 ETOT 11  -14.327259309153      3.553E-15 6.390E-13 0.000E+00
 ETOT 12  -14.327259309153      7.105E-15 3.104E-14 0.000E+00
 ETOT 13  -14.327259309153     -3.553E-15 1.848E-14 0.000E+00
 ETOT 14  -14.327259309153     -3.553E-15 8.624E-16 0.000E+00
 ETOT 15  -14.327259309153      1.776E-15 5.909E-16 0.000E+00
 ETOT 16  -14.327259309153      0.000E+00 2.529E-17 0.000E+00
 ETOT 17  -14.327259309153      1.776E-15 1.962E-17 0.000E+00
 ETOT 18  -14.327259309153     -1.776E-15 8.084E-19 0.000E+00
 ETOT 19  -14.327259309153      0.000E+00 6.603E-19 0.000E+00
 ETOT 20  -14.327259309153      1.776E-15 2.711E-20 0.000E+00
 ETOT 21  -14.327259309153      0.000E+00 2.234E-20 0.000E+00
 ETOT 22  -14.327259309153      1.776E-15 9.683E-21 0.000E+00

 At SCF step   22   max residual=  9.68E-21 < tolwfr=  1.00E-20 =>converged.

 ----iterations are completed or convergence reached----

 dfpt_looppert: DFPT cycle converged with prtwf=-1. Will skip output of the 1st-order WFK file.
 dfpt_looppert : ek2=    1.5433995820E+01
          f-sum rule ratio=    1.0315877390E+00
 prteigrs : about to open file /scratch/users/j/a/jabreu/flow_simple_8atoms/flow/w485/t1/tmpdata/tmp_1WF1_EIG
 Expectation of eigenvalue derivatives (hartree) for nkpt=   1  k points:
  (in case of degenerate eigenvalues, averaged derivative)
 kpt#   1, nband= 59, wtk=  1.00000, kpt=  0.0000  0.0000  0.0000 (reduced coord)
  -0.00000   -0.00000   -0.00000    0.00000    0.00000    0.00000    0.00000    0.00000
   0.00000    0.00000   -0.00000   -0.00000    0.00000    0.00000    0.00000    0.00000
  -0.00000   -0.00000    0.00000    0.00000   -0.00000    0.00000   -0.00000    0.00000
  -0.00000    0.00000   -0.00000   -0.00000    0.00000    0.00000    0.00000   -0.00000
  -0.00000    0.00000    0.00000   -0.00000    0.00000    0.00000    0.00000    0.00000
   0.00000    0.00000   -0.00000   -0.00000   -0.00000   -0.00000   -0.00000   -0.00000
  -0.00000   -0.00000   -0.00000   -0.00000   -0.00000    0.00000    0.00000    0.00000
   0.00000    0.00000    0.00005

 Eight components of 2nd-order total energy (hartree) are
 1,2,3: 0th-order hamiltonian combined with 1st-order wavefunctions
     kin0=   1.75339062E+01 eigvalue=   3.11783950E+00  local=  -9.87784311E+00
 4,5,6: 1st-order hamiltonian combined with 1st and 0th-order wfs
     kin1=  -1.59215209E+01  Hartree=   0.00000000E+00     xc=   0.00000000E+00
 7,8,9: eventually, occupation + non-local contributions
    edocc=   1.84050694E+00     enl0=   1.71284982E+00   enl1=  -1.27329978E+01
 1-9 gives the relaxation energy (to be shifted if some occ is /=2.0)
   erelax=  -1.43272593E+01
  No Ewald or frozen-wf contrib.: the relaxation energy is the total one
 2DEtotal=   -0.1432725931E+02 Ha. Also 2DEtotal=   -0.389864552723E+03 eV
    (  non-var. 2DEtotal :   -1.4327259309E+01 Ha)

 CALCULATION OF EFFECTIVE MASSES
 NOTE : Additional infos (eff. mass eigenvalues, eigenvectors and, if degenerate, average mass) are available in stdout.

 COMMENTS:
 - At k-point ( 0.000, 0.000, 0.000), bands    49 through    50
   are DEGENERATE (effective mass tensor is therefore not defined).
   See Section IIIB Eqs. (67)-(70) and Appendix E of PRB 93 205147 (2016).
 - Angular average effective mass for Frohlich model is to be averaged over degenerate bands. See later.
 - Associated theta integrals calculated with ntheta=   1000 points.

 K-point ( 0.000, 0.000, 0.000) | band =    49
 Transport equivalent effective mass tensor:
             -0.2613579026             -0.0000000177             -0.0000000079
             -0.0000000177             -0.2613577224             -0.0000000069
             -0.0000000079             -0.0000000069             -0.6473066790
 Transport equivalent effective mass tensor eigenvalues:
             -0.6473066790             -0.2613579044             -0.2613577207
 Angular average effective mass 1/(<1/m>)=  -0.3261859748
 Angular average effective mass for Frohlich model (<m**0.5>)**2=  -0.3411849321
 Effective masses along directions: (cart. coord. / red. coord. -> eff. mass)
    1:   1.000000  0.000000  0.000000 /   0.894427 -0.447214  0.000000 ->  -0.2613581260
    2:   0.000000  1.000000  0.000000 /   0.000000  1.000000  0.000000 ->  -0.2613579457
    3:   0.000000  0.000000  1.000000 /   0.000000  0.000000  1.000000 ->  -0.6473066789
    4:   0.577350  0.577350  0.577350 /   0.416059  0.152288  0.896495 ->  -0.3261857600
    5:   0.000000  0.707107  0.707107 /   0.000000  0.372924  0.927862 ->  -0.3723678759
    6:   0.707107  0.000000  0.707107 /   0.411942 -0.205971  0.887626 ->  -0.3723680228
    7:   0.707107  0.707107  0.000000 /   0.939071  0.343724  0.000000 ->  -0.2613576068

 K-point ( 0.000, 0.000, 0.000) | band =    50
 Transport equivalent effective mass tensor:
             -2.5072115752             -0.0000000082             -0.0000000759
             -0.0000000082             -2.5072113947             -0.0000000665
             -0.0000000759             -0.0000000665             -0.6473066795
 Transport equivalent effective mass tensor eigenvalues:
             -2.5072115756             -2.5072113943             -0.6473066795
 Angular average effective mass 1/(<1/m>)=  -1.2806492723
 Angular average effective mass for Frohlich model (<m**0.5>)**2=  -1.4708762280
 Effective masses along directions: (cart. coord. / red. coord. -> eff. mass)
    1:   1.000000  0.000000  0.000000 /   0.894427 -0.447214  0.000000 ->  -2.5071910200
    2:   0.000000  1.000000  0.000000 /   0.000000  1.000000  0.000000 ->  -2.5071908395
    3:   0.000000  0.000000  1.000000 /   0.000000  0.000000  1.000000 ->  -0.6473066790
    4:   0.577350  0.577350  0.577350 /   0.416059  0.152288  0.896495 ->  -1.2806530585
    5:   0.000000  0.707107  0.707107 /   0.000000  0.372924  0.927862 ->  -1.0289569897
    6:   0.707107  0.000000  0.707107 /   0.411942 -0.205971  0.887626 ->  -1.0289572926
    7:   0.707107  0.707107  0.000000 /   0.939071  0.343724  0.000000 ->  -2.5072320454

 Angular average effective mass for Frohlich model, averaged over degenerate bands.
 Value of     (<<m**0.5>>)**2 =     8.072189E-01
 Absolute Value of <<m**0.5>> =     8.984536E-01

 K-point ( 0.000, 0.000, 0.000) | band =    51
 Effective mass tensor:
              0.3076968107             -0.0000000000             -0.0000000000
             -0.0000000000              0.3076968107              0.0000000000
             -0.0000000000              0.0000000000              0.3239727216
 Effective mass tensor eigenvalues:
              0.3076968107              0.3076968107              0.3239727216
 Angular average effective mass 1/(<1/m>)=   0.3129373135
 Angular average effective mass for Frohlich model (<m**0.5>)**2=   0.3129922416
 Effective masses along directions: (cart. coord. / red. coord. -> eff. mass)
    1:   1.000000  0.000000  0.000000 /   0.894427 -0.447214  0.000000 ->   0.3076968107
    2:   0.000000  1.000000  0.000000 /   0.000000  1.000000  0.000000 ->   0.3076968107
    3:   0.000000  0.000000  1.000000 /   0.000000  0.000000  1.000000 ->   0.3239727216
    4:   0.577350  0.577350  0.577350 /   0.416059  0.152288  0.896495 ->   0.3129373135
    5:   0.000000  0.707107  0.707107 /   0.000000  0.372924  0.927862 ->   0.3156250796
    6:   0.707107  0.000000  0.707107 /   0.411942 -0.205971  0.887626 ->   0.3156250795
    7:   0.707107  0.707107  0.000000 /   0.939071  0.343724  0.000000 ->   0.3076968107

 END OF EFFECTIVE MASSES SECTION

 ---- first-order wavefunction calculations are completed ----

 Total localisation tensor (bohr^2) in cartesian coordinates
  WARNING : still subject to testing - especially symmetries.
      direction              matrix element
   alpha     beta       real part   imaginary part
     1        1       3.8778685059    0.0000000000
     1        2      -1.3433330850    0.0000000000
     1        3       0.0000000000    0.0000000000
     2        1      -1.3433330850    0.0000000000
     2        2       2.3267211547    0.0000000000
     2        3       0.0000000000    0.0000000000
     3        1       0.0000000000    0.0000000000
     3        2       0.0000000000    0.0000000000
     3        3       1.2597732605    0.0000000000

 respfn : d/dk was computed, but no 2DTE, so no DDB output.

== END DATASET(S) ==============================================================

 -outvars: echo values of variables after computation  --------
            acell      1.0000000000E+00  1.0000000000E+00  1.0000000000E+00 Bohr
              amu      3.90983000E+01  1.27600000E+02
             ecut      4.00000000E+01 Hartree
           etotal     -1.4327259309E+01
            fcart      0.0000000000E+00  0.0000000000E+00  0.0000000000E+00
                       0.0000000000E+00  0.0000000000E+00  0.0000000000E+00
                       0.0000000000E+00  0.0000000000E+00  0.0000000000E+00
                       0.0000000000E+00  0.0000000000E+00  0.0000000000E+00
                       0.0000000000E+00  0.0000000000E+00  0.0000000000E+00
                       0.0000000000E+00  0.0000000000E+00  0.0000000000E+00
                       0.0000000000E+00  0.0000000000E+00  0.0000000000E+00
                       0.0000000000E+00  0.0000000000E+00  0.0000000000E+00
-          fftalg         512
           irdden           1
           irdwfk           1
           istwfk        1
              ixc     -116133
           kptopt           0
P           mkmem           1
P          mkqmem           1
P          mk1mem           1
            natom           8
            nband          59
           nbdbuf           4
            ngfft          60      60     135
             nkpt           1
            nstep        2000
             nsym          24
           ntypat           2
              occ      2.000000  2.000000  2.000000  2.000000  2.000000  2.000000
                       2.000000  2.000000  2.000000  2.000000  2.000000  2.000000
                       2.000000  2.000000  2.000000  2.000000  2.000000  2.000000
                       2.000000  2.000000  2.000000  2.000000  2.000000  2.000000
                       2.000000  2.000000  2.000000  2.000000  2.000000  2.000000
                       2.000000  2.000000  2.000000  2.000000  2.000000  2.000000
                       2.000000  2.000000  2.000000  2.000000  2.000000  2.000000
                       2.000000  2.000000  2.000000  2.000000  2.000000  2.000000
                       2.000000  2.000000  0.000000  0.000000  0.000000  0.000000
                       0.000000  0.000000  0.000000  0.000000  0.000000
        optdriver           1
            prtwf          -1
            rfdir           1       1       1
           rfelfd           2
            rprim      1.0496933608E+01  0.0000000000E+00  0.0000000000E+00
                      -5.2484668043E+00  9.0906111668E+00  0.0000000000E+00
                       0.0000000000E+00  0.0000000000E+00  2.2618076938E+01
          spgroup         194
           strten      0.0000000000E+00  0.0000000000E+00  0.0000000000E+00
                       0.0000000000E+00  0.0000000000E+00  0.0000000000E+00
           symrel      1  0  0   0  1  0   0  0  1      -1  0  0   0 -1  0   0  0 -1
                       0  1  0   1  0  0   0  0  1       0 -1  0  -1  0  0   0  0 -1
                       1  1  0  -1  0  0   0  0  1      -1 -1  0   1  0  0   0  0 -1
                      -1  0  0   1  1  0   0  0  1       1  0  0  -1 -1  0   0  0 -1
                       0  1  0  -1 -1  0   0  0  1       0 -1  0   1  1  0   0  0 -1
                      -1 -1  0   0  1  0   0  0  1       1  1  0   0 -1  0   0  0 -1
                      -1  0  0   0 -1  0   0  0  1       1  0  0   0  1  0   0  0 -1
                       0 -1  0  -1  0  0   0  0  1       0  1  0   1  0  0   0  0 -1
                      -1 -1  0   1  0  0   0  0  1       1  1  0  -1  0  0   0  0 -1
                       1  0  0  -1 -1  0   0  0  1      -1  0  0   1  1  0   0  0 -1
                       0 -1  0   1  1  0   0  0  1       0  1  0  -1 -1  0   0  0 -1
                       1  1  0   0 -1  0   0  0  1      -1 -1  0   0  1  0   0  0 -1
            tnons      0.0000000  0.0000000  0.0000000     0.0000000  0.0000000 -0.0000000
                       0.0000000  0.0000000  0.5000000     0.0000000  0.0000000  0.5000000
                       0.0000000  0.0000000  0.5000000     0.0000000  0.0000000  0.5000000
                       0.0000000  0.0000000  0.0000000     0.0000000  0.0000000 -0.0000000
                       0.0000000  0.0000000  0.0000000     0.0000000  0.0000000 -0.0000000
                       0.0000000  0.0000000  0.5000000     0.0000000  0.0000000  0.5000000
                       0.0000000  0.0000000  0.5000000     0.0000000  0.0000000  0.5000000
                       0.0000000  0.0000000  0.0000000     0.0000000  0.0000000 -0.0000000
                       0.0000000  0.0000000  0.0000000     0.0000000  0.0000000 -0.0000000
                       0.0000000  0.0000000  0.5000000     0.0000000  0.0000000  0.5000000
                       0.0000000  0.0000000  0.5000000     0.0000000  0.0000000  0.5000000
                       0.0000000  0.0000000  0.0000000     0.0000000  0.0000000 -0.0000000
           tolwfr      1.00000000E-20
            typat      1  1  1  1  2  2  2  2
           useylm           1
           xangst      0.0000000000E+00  0.0000000000E+00 -1.6610283729E-16
                       0.0000000000E+00  0.0000000000E+00  5.9844854088E+00
                      -1.7639241746E-11  3.2070294944E+00  2.9922427044E+00
                       2.7773690128E+00  1.6035147472E+00  8.9767281133E+00
                      -1.7639241746E-11  3.2070294944E+00  7.5688539829E+00
                       2.7773690128E+00  1.6035147472E+00  1.5843685740E+00
                       2.7773690128E+00  1.6035147472E+00  4.4001168348E+00
                      -1.7639241746E-11  3.2070294944E+00  1.0384602244E+01
            xcart      0.0000000000E+00  0.0000000000E+00 -3.1388887236E-16
                       0.0000000000E+00  0.0000000000E+00  1.1309038469E+01
                      -3.3333336091E-11  6.0604074445E+00  5.6545192345E+00
                       5.2484668042E+00  3.0302037223E+00  1.6963557703E+01
                      -3.3333336091E-11  6.0604074445E+00  1.4303061167E+01
                       5.2484668042E+00  3.0302037223E+00  2.9940226985E+00
                       5.2484668042E+00  3.0302037223E+00  8.3150157704E+00
                      -3.3333336091E-11  6.0604074445E+00  1.9624054239E+01
             xred      0.0000000000E+00  0.0000000000E+00 -1.3877787808E-17
                       0.0000000000E+00  0.0000000000E+00  5.0000000000E-01
                       3.3333333333E-01  6.6666666667E-01  2.5000000000E-01
                       6.6666666667E-01  3.3333333333E-01  7.5000000000E-01
                       3.3333333333E-01  6.6666666667E-01  6.3237300000E-01
                       6.6666666667E-01  3.3333333333E-01  1.3237300000E-01
                       6.6666666667E-01  3.3333333333E-01  3.6762700000E-01
                       3.3333333333E-01  6.6666666667E-01  8.6762700000E-01
            znucl       19.00000   52.00000

- Timing analysis has been suppressed with timopt=0

 Suggested references for the acknowledgment of ABINIT usage.

 Calculation completed.
.Delivered   6 WARNINGs and   5 COMMENTs to log file.