.Version 9.5.1 of ABINIT

 ABINIT is a project of the Universite Catholique de Louvain,
 Corning Inc. and other collaborators, see ~abinit/doc/developers/contributors.txt .
 acknowledgments of the ABINIT effort.

.Starting date : Wed 19 May 2021.
- ( at 12h08 )

- input  file    -> /scratch/users/j/a/jabreu/flow_simple_9atoms/flow/w153/t1/run.abi
- output file    -> /scratch/users/j/a/jabreu/flow_simple_9atoms/flow/w153/t1/run.abo
- root for input  files -> /scratch/users/j/a/jabreu/flow_simple_9atoms/flow/w153/t1/indata/in
- root for output files -> /scratch/users/j/a/jabreu/flow_simple_9atoms/flow/w153/t1/outdata/out

 Symmetries : space group Fm -3 m (#225); Bravais cF (face-center cubic)
     intxc =       0      iscf =       7    lmnmax =      18     lnmax =       6
     mgfft =      72  mpssoang =       3    mqgrid =    3001     natom =       9
  nloc_mem =       1    nspden =       1   nspinor =       1    nsppol =       1
      nsym =      48    n1xccc =    2501    ntypat =       3    occopt =       1
   xclevel =       2
-    mband =          45        mffmem =           1         mkmem =           2
-   mkqmem =           2        mk1mem =           2           mpw =       17241
      nfft =      373248          nkpt =           2
  Rough estimation (10% accuracy) of disk space for files :

------------- Echo of variables that govern the present computation ------------
-
- outvars: echo of selected default values
-   iomode0 =  0 , fftalg0 =512 , wfoptalg0 =  0
-
- outvars: echo of global parameters not present in the input file
-  max_nthreads =    0
-
 -outvars: echo values of preprocessed input variables --------
            acell      1.0000000000E+00  1.0000000000E+00  1.0000000000E+00 Bohr
              amu      8.54678000E+01  9.12240000E+01  3.54527000E+01
             ecut      3.50000000E+01 Hartree
-          fftalg         512
           irdden           1
           irdwfk           1
           istwfk        1    0
              ixc     -116133
              kpt      0.00000000E+00  0.00000000E+00  0.00000000E+00
                       2.63157895E-01  0.00000000E+00  2.63157895E-01
           kptopt           0
P           mkmem           2
P          mkqmem           2
P          mk1mem           2
            natom           9
            nband          45
           nbdbuf           4
            ngfft          72      72      72
             nkpt           2
            nstep        2000
             nsym          48
           ntypat           3
              occ      2.000000  2.000000  2.000000  2.000000  2.000000  2.000000
                       2.000000  2.000000  2.000000  2.000000  2.000000  2.000000
                       2.000000  2.000000  2.000000  2.000000  2.000000  2.000000
                       2.000000  2.000000  2.000000  2.000000  2.000000  2.000000
                       2.000000  2.000000  2.000000  2.000000  2.000000  2.000000
                       2.000000  2.000000  2.000000  2.000000  2.000000  2.000000
                       0.000000  0.000000  0.000000  0.000000  0.000000  0.000000
                       0.000000  0.000000  0.000000
        optdriver           1
            prtwf          -1
            rfdir           1       1       1
           rfelfd           2
            rprim      1.1705995617E+01  0.0000000000E+00  6.7584597207E+00
                       3.9019985391E+00  1.1036518509E+01  6.7584597207E+00
                       0.0000000000E+00  0.0000000000E+00  1.3516919441E+01
          spgroup         225
           symrel      1  0  0   0  1  0   0  0  1      -1  0  0   0 -1  0   0  0 -1
                       0 -1  1   0 -1  0   1 -1  0       0  1 -1   0  1  0  -1  1  0
                      -1  0  0  -1  0  1  -1  1  0       1  0  0   1  0 -1   1 -1  0
                       0  1 -1   1  0 -1   0  0 -1       0 -1  1  -1  0  1   0  0  1
                      -1  0  0  -1  1  0  -1  0  1       1  0  0   1 -1  0   1  0 -1
                       0 -1  1   1 -1  0   0 -1  0       0  1 -1  -1  1  0   0  1  0
                       1  0  0   0  0  1   0  1  0      -1  0  0   0  0 -1   0 -1  0
                       0  1 -1   0  0 -1   1  0 -1       0 -1  1   0  0  1  -1  0  1
                      -1  0  1  -1  1  0  -1  0  0       1  0 -1   1 -1  0   1  0  0
                       0 -1  0   1 -1  0   0 -1  1       0  1  0  -1  1  0   0  1 -1
                       1  0 -1   0  0 -1   0  1 -1      -1  0  1   0  0  1   0 -1  1
                       0  1  0   0  0  1   1  0  0       0 -1  0   0  0 -1  -1  0  0
                       1  0 -1   0  1 -1   0  0 -1      -1  0  1   0 -1  1   0  0  1
                       0 -1  0   0 -1  1   1 -1  0       0  1  0   0  1 -1  -1  1  0
                      -1  0  1  -1  0  0  -1  1  0       1  0 -1   1  0  0   1 -1  0
                       0  1  0   1  0  0   0  0  1       0 -1  0  -1  0  0   0  0 -1
                       0  0 -1   0  1 -1   1  0 -1       0  0  1   0 -1  1  -1  0  1
                       1 -1  0   0 -1  1   0 -1  0      -1  1  0   0  1 -1   0  1  0
                       0  0  1   1  0  0   0  1  0       0  0 -1  -1  0  0   0 -1  0
                      -1  1  0  -1  0  0  -1  0  1       1 -1  0   1  0  0   1  0 -1
                       0  0  1   0  1  0   1  0  0       0  0 -1   0 -1  0  -1  0  0
                       1 -1  0   0 -1  0   0 -1  1      -1  1  0   0  1  0   0  1 -1
                       0  0 -1   1  0 -1   0  1 -1       0  0  1  -1  0  1   0 -1  1
                      -1  1  0  -1  0  1  -1  0  0       1 -1  0   1  0 -1   1  0  0
           tolwfr      1.00000000E-20
            typat      1  1  2  3  3  3  3  3  3
           useylm           1
              wtk        0.50000    0.50000
           xangst      2.0648486948E+00  1.4600685142E+00  3.5764228494E+00
                       6.1945460845E+00  4.3802055427E+00  1.0729268548E+01
                       0.0000000000E+00  0.0000000000E+00  0.0000000000E+00
                       5.1911204721E+00  1.4190581098E+00  5.3144069916E+00
                       2.0068512247E+00  1.4190581098E+00  7.1528456987E+00
                       6.2525435546E+00  4.4212159471E+00  7.1528456987E+00
                       3.0682743072E+00  4.4212159471E+00  8.9912844059E+00
                       5.1911204721E+00  1.4190581098E+00  8.9912844059E+00
                       3.0682743072E+00  4.4212159471E+00  5.3144069916E+00
            xcart      3.9019985391E+00  2.7591296272E+00  6.7584597207E+00
                       1.1705995617E+01  8.2773888815E+00  2.0275379162E+01
                       0.0000000000E+00  0.0000000000E+00  0.0000000000E+00
                       9.8097960152E+00  2.6816311942E+00  1.0042773773E+01
                       3.7923992041E+00  2.6816311942E+00  1.3516919441E+01
                       1.1815594952E+01  8.3548873144E+00  1.3516919441E+01
                       5.7981981411E+00  8.3548873144E+00  1.6991065110E+01
                       9.8097960152E+00  2.6816311942E+00  1.6991065110E+01
                       5.7981981411E+00  8.3548873144E+00  1.0042773773E+01
             xred      2.5000000000E-01  2.5000000000E-01  2.5000000000E-01
                       7.5000000000E-01  7.5000000000E-01  7.5000000000E-01
                       0.0000000000E+00  0.0000000000E+00  0.0000000000E+00
                       7.5702200000E-01  2.4297800000E-01  2.4297800000E-01
                       2.4297800000E-01  2.4297800000E-01  7.5702200000E-01
                       7.5702200000E-01  7.5702200000E-01  2.4297800000E-01
                       2.4297800000E-01  7.5702200000E-01  7.5702200000E-01
                       7.5702200000E-01  2.4297800000E-01  7.5702200000E-01
                       2.4297800000E-01  7.5702200000E-01  2.4297800000E-01
            znucl       37.00000   40.00000   17.00000

 chkinp: Checking input parameters for consistency.

== DATASET  1 ==================================================================
-   mpi_nproc: 1, omp_nthreads: -1 (-1 if OMP is not activated)

--- !DatasetInfo
iteration_state: {dtset: 1, }
dimensions: {natom: 9, nkpt: 2, mband: 45, nsppol: 1, nspinor: 1, nspden: 1, mpw: 17241, }
cutoff_energies: {ecut:  35.0, pawecutdg:  -1.0, }
electrons: {nelect:   7.20000000E+01, charge:   0.00000000E+00, occopt:   1.00000000E+00, tsmear:   1.00000000E-02, }
meta: {optdriver: 1, rfelfd: 2, }
...

 Real(R)+Recip(G) space primitive vectors, cartesian coordinates (Bohr,Bohr^-1):
 R(1)= 11.7059956  0.0000000  6.7584597  G(1)=  0.0854263 -0.0302028  0.0000000
 R(2)=  3.9019985 11.0365185  6.7584597  G(2)=  0.0000000  0.0906083  0.0000000
 R(3)=  0.0000000  0.0000000 13.5169194  G(3)= -0.0427132 -0.0302028  0.0739814
 Unit cell volume ucvol=  1.7462973E+03 bohr^3
 Angles (23,13,12)=  6.00000000E+01  6.00000000E+01  6.00000000E+01 degrees

 getcut: wavevector=  0.0000  0.0000  0.0000  ngfft=  72  72  72
         ecut(hartree)=     35.000   => boxcut(ratio)=   2.00012

--- Pseudopotential description ------------------------------------------------
- pspini: atom type   1  psp file is /scratch/users/j/a/jabreu/pseudos/PBEsol/Rb.psp8
- pspatm: opening atomic psp file    /scratch/users/j/a/jabreu/pseudos/PBEsol/Rb.psp8
- Rb    ONCVPSP-3.3.0  r_core=   1.71227   1.75361   1.90633
- 37.00000   9.00000    180112                znucl, zion, pspdat
    8 -116133    2    4       600   0.00000   pspcod,pspxc,lmax,lloc,mmax,r2well
    5.99000000000000    7.00000000000000    0.00000000000000   rchrg,fchrg,qchrg
     nproj     2     2     2
     extension_switch     1
  pspatm : epsatm=   34.48400912
         --- l  ekb(1:nproj) -->
             0    8.196957   -0.477221
             1    3.231347   -0.378736
             2   -1.047201    0.996637
 pspatm: atomic psp has been read  and splines computed

- pspini: atom type   2  psp file is /scratch/users/j/a/jabreu/pseudos/PBEsol/Zr.psp8
- pspatm: opening atomic psp file    /scratch/users/j/a/jabreu/pseudos/PBEsol/Zr.psp8
- Zr    ONCVPSP-3.3.0  r_core=   1.56507   1.56507   1.51006
- 40.00000  12.00000    180112                znucl, zion, pspdat
    8 -116133    2    4       600   0.00000   pspcod,pspxc,lmax,lloc,mmax,r2well
    5.99000000000000    5.00000000000000    0.00000000000000   rchrg,fchrg,qchrg
     nproj     2     2     2
     extension_switch     1
  pspatm : epsatm=   18.88750170
         --- l  ekb(1:nproj) -->
             0   10.584966    0.890424
             1    5.814585    0.741293
             2    1.525459    0.487901
 pspatm: atomic psp has been read  and splines computed

- pspini: atom type   3  psp file is /scratch/users/j/a/jabreu/pseudos/PBEsol/Cl.psp8
- pspatm: opening atomic psp file    /scratch/users/j/a/jabreu/pseudos/PBEsol/Cl.psp8
- Cl    ONCVPSP-3.3.0  r_core=   1.56009   1.35202   1.75774
- 17.00000   7.00000    180112                znucl, zion, pspdat
    8 -116133    2    4       600   0.00000   pspcod,pspxc,lmax,lloc,mmax,r2well
    5.99000000000000    8.00000000000000    0.00000000000000   rchrg,fchrg,qchrg
     nproj     2     2     2
     extension_switch     1
  pspatm : epsatm=    8.95520722
         --- l  ekb(1:nproj) -->
             0    8.193503    0.707970
[...]
solver: {iscf: 7, nstep: 2000, nline: 4, wfoptalg: 0, }
tolerances: {tolwfr: 1.00E-20, }
...

     iter   2DEtotal(Ha)        deltaE(Ha) residm    vres2
-ETOT  1  -23.740946490093     -2.374E+01 2.782E-02 0.000E+00
 ETOT  2  -23.775898038479     -3.495E-02 8.210E-03 0.000E+00
 ETOT  3  -23.776080540131     -1.825E-04 1.448E-04 0.000E+00
 ETOT  4  -23.776081824857     -1.285E-06 1.350E-04 0.000E+00
 ETOT  5  -23.776081835829     -1.097E-08 2.694E-06 0.000E+00
 ETOT  6  -23.776081835934     -1.054E-10 2.369E-06 0.000E+00
 ETOT  7  -23.776081835935     -1.048E-12 2.376E-07 0.000E+00
 ETOT  8  -23.776081835935     -2.487E-14 1.143E-07 0.000E+00
 ETOT  9  -23.776081835935     -2.132E-14 1.309E-08 0.000E+00
 ETOT 10  -23.776081835935      2.487E-14 6.484E-09 0.000E+00
 ETOT 11  -23.776081835935     -1.066E-14 6.971E-10 0.000E+00
 ETOT 12  -23.776081835935      3.553E-15 3.870E-10 0.000E+00
 ETOT 13  -23.776081835935     -3.553E-15 3.717E-11 0.000E+00
 ETOT 14  -23.776081835935      0.000E+00 2.222E-11 0.000E+00
 ETOT 15  -23.776081835935      0.000E+00 2.020E-12 0.000E+00
 ETOT 16  -23.776081835935     -7.105E-15 1.283E-12 0.000E+00
 ETOT 17  -23.776081835935      7.105E-15 1.121E-13 0.000E+00
 ETOT 18  -23.776081835935      0.000E+00 7.456E-14 0.000E+00
 ETOT 19  -23.776081835935      3.553E-15 6.338E-15 0.000E+00
 ETOT 20  -23.776081835935      0.000E+00 4.365E-15 0.000E+00
 ETOT 21  -23.776081835935      0.000E+00 3.638E-16 0.000E+00
 ETOT 22  -23.776081835935      3.553E-15 2.563E-16 0.000E+00
 ETOT 23  -23.776081835935      0.000E+00 2.111E-17 0.000E+00
 ETOT 24  -23.776081835935      0.000E+00 1.512E-17 0.000E+00
 ETOT 25  -23.776081835935      0.000E+00 1.234E-18 0.000E+00
 ETOT 26  -23.776081835935      0.000E+00 8.965E-19 0.000E+00
 ETOT 27  -23.776081835935     -3.553E-15 7.262E-20 0.000E+00
 ETOT 28  -23.776081835935      3.553E-15 5.506E-20 0.000E+00
 ETOT 29  -23.776081835935      0.000E+00 9.993E-21 0.000E+00

 At SCF step   29   max residual=  9.99E-21 < tolwfr=  1.00E-20 =>converged.

 ----iterations are completed or convergence reached----

 dfpt_looppert: DFPT cycle converged with prtwf=-1. Will skip output of the 1st-order WFK file.
 dfpt_looppert : ek2=    4.6672174647E+01
          f-sum rule ratio=    1.0690105063E+00
 prteigrs : about to open file /scratch/users/j/a/jabreu/flow_simple_9atoms/flow/w153/t1/tmpdata/tmp_1WF1_EIG
 Expectation of eigenvalue derivatives (hartree) for nkpt=   2  k points:
  (in case of degenerate eigenvalues, averaged derivative)
 kpt#   1, nband= 45, wtk=  0.50000, kpt=  0.0000  0.0000  0.0000 (reduced coord)
  -0.00000   -0.00000   -0.00000   -0.00000    0.00000   -0.00000   -0.00000   -0.00000
  -0.00000    0.00000    0.00000    0.00000    0.00000    0.00000    0.00000    0.00000
   0.00000    0.00000   -0.00000    0.00000    0.00000    0.00000   -0.00000   -0.00000
  -0.00000   -0.00000   -0.00000   -0.00000   -0.00000   -0.00000    0.00000    0.00000
   0.00000   -0.00000   -0.00000   -0.00000   -0.00000   -0.00000   -0.00000   -0.00000
   0.00000    0.00000   -0.00000   -0.00000    0.00000
 prteigrs : prtvol=0 or 1, do not print more k-points.

 Eight components of 2nd-order total energy (hartree) are
 1,2,3: 0th-order hamiltonian combined with 1st-order wavefunctions
     kin0=   3.17913696E+01 eigvalue=   2.73720114E+00  local=  -1.91446945E+01
 4,5,6: 1st-order hamiltonian combined with 1st and 0th-order wfs
     kin1=  -4.98930451E+01  Hartree=   0.00000000E+00     xc=   0.00000000E+00
 7,8,9: eventually, occupation + non-local contributions
    edocc=   6.46657548E+00     enl0=   1.92563018E+00   enl1=   2.34088138E+00
 1-9 gives the relaxation energy (to be shifted if some occ is /=2.0)
   erelax=  -2.37760818E+01
  No Ewald or frozen-wf contrib.: the relaxation energy is the total one
 2DEtotal=   -0.2377608184E+02 Ha. Also 2DEtotal=   -0.646980089524E+03 eV
    (  non-var. 2DEtotal :   -2.3776081836E+01 Ha)

 CALCULATION OF EFFECTIVE MASSES
 NOTE : Additional infos (eff. mass eigenvalues, eigenvectors and, if degenerate, average mass) are available in stdout.

 COMMENTS:
 - At k-point ( 0.000, 0.000, 0.000), bands    34 through    36
   are DEGENERATE (effective mass tensor is therefore not defined).
   See Section IIIB Eqs. (67)-(70) and Appendix E of PRB 93 205147 (2016).
 - Angular average effective mass for Frohlich model is to be averaged over degenerate bands. See later.
 - Associated theta integrals calculated with ntheta=   1000 points.

 K-point ( 0.000, 0.000, 0.000) | band =    34
 Transport equivalent effective mass tensor:
             -1.1844160828             -0.0000003696             -0.0000000007
             -0.0000003696             -1.1844157133             -0.0000000005
             -0.0000000007             -0.0000000005             -1.1844140164
 Transport equivalent effective mass tensor eigenvalues:
             -1.1844163112             -1.1844154848             -1.1844140164
 Angular average effective mass 1/(<1/m>)=  -1.1225319435
 Angular average effective mass for Frohlich model (<m**0.5>)**2=  -1.1249114164
 Effective masses along directions: (cart. coord. / red. coord. -> eff. mass)
    1:   1.000000  0.000000  0.000000 /   0.948683  0.316228  0.000000 ->  -1.1958685399
    2:   0.000000  1.000000  0.000000 /   0.000000  1.000000  0.000000 ->  -1.3545096559
    3:   0.000000  0.000000  1.000000 /   0.408248  0.408248  0.816497 ->  -1.0704917942
    4:   0.577350  0.577350  0.577350 /   0.585539  0.688047  0.428644 ->  -1.1548013084
    5:   0.000000  0.707107  0.707107 /   0.289489  0.762222  0.578977 ->  -1.0776394109
    6:   0.707107  0.000000  0.707107 /   0.731423  0.422287  0.535439 ->  -1.1091086534
    7:   0.707107  0.707107  0.000000 /   0.616798  0.787122  0.000000 ->  -1.0802071613

[...]

 K-point ( 0.000, 0.000, 0.000) | band =    36
 Transport equivalent effective mass tensor:
            -57.3279856503             -0.0000000089             -0.0000000217
             -0.0000000089            -57.3279856458             -0.0000000148
             -0.0000000217             -0.0000000148            -57.3279856791
 Transport equivalent effective mass tensor eigenvalues:
            -57.3279856966            -57.3279856403            -57.3279856383
 Angular average effective mass 1/(<1/m>)=  -4.0870066694
 Angular average effective mass for Frohlich model (<m**0.5>)**2=  -5.1513174976
 Effective masses along directions: (cart. coord. / red. coord. -> eff. mass)
    1:   1.000000  0.000000  0.000000 /   0.948683  0.316228  0.000000 ->  -3.5036478677
    2:   0.000000  1.000000  0.000000 /   0.000000  1.000000  0.000000 ->  -2.3489848367
    3:   0.000000  0.000000  1.000000 /   0.408248  0.408248  0.816497 ->  -3.0508449497
    4:   0.577350  0.577350  0.577350 /   0.585539  0.688047  0.428644 ->  -3.3837045290
    5:   0.000000  0.707107  0.707107 /   0.289489  0.762222  0.578977 ->  -5.9278349154
    6:   0.707107  0.000000  0.707107 /   0.731423  0.422287  0.535439 ->  -3.2819711924
    7:   0.707107  0.707107  0.000000 /   0.616798  0.787122  0.000000 -> -17.6830090636

 Angular average effective mass for Frohlich model, averaged over degenerate bands.
 Value of     (<<m**0.5>>)**2 =     2.227127E+00
 Absolute Value of <<m**0.5>> =     1.492356E+00

 K-point ( 0.263, 0.000, 0.263) | band =    37
 Effective mass tensor:
             16.1698734734            -21.1531804127             25.9072491861
            -21.1531804127             31.1274308009            -36.6383831704
             25.9072491861            -36.6383831704             46.0849879811
 Effective mass tensor eigenvalues:
              1.2123161630              1.2123161661             90.9576599263
 Angular average effective mass 1/(<1/m>)=   1.8064358360
 Angular average effective mass for Frohlich model (<m**0.5>)**2=   2.6014941375
 Effective masses along directions: (cart. coord. / red. coord. -> eff. mass)
    1:   1.000000  0.000000  0.000000 /   0.948683  0.316228  0.000000 ->   1.4509117424
    2:   0.000000  1.000000  0.000000 /   0.000000  1.000000  0.000000 ->   1.8064358397
    3:   0.000000  0.000000  1.000000 /   0.408248  0.408248  0.816497 ->   2.3927410192
    4:   0.577350  0.577350  0.577350 /   0.585539  0.688047  0.428644 ->   1.3398676763
    5:   0.000000  0.707107  0.707107 /   0.289489  0.762222  0.578977 ->   1.2224702147
    6:   0.707107  0.000000  0.707107 /   0.731423  0.422287  0.535439 ->   3.1384235655
    7:   0.707107  0.707107  0.000000 /   0.616798  0.787122  0.000000 ->   1.2296632385

 END OF EFFECTIVE MASSES SECTION

 ---- first-order wavefunction calculations are completed ----

 Total localisation tensor (bohr^2) in cartesian coordinates
  WARNING : still subject to testing - especially symmetries.
      direction              matrix element
   alpha     beta       real part   imaginary part
     1        1       1.3529746202    0.0000000000
     1        2       0.3826790102    0.0000000000
     1        3       0.9373683129    0.0000000000
     2        1       0.3826790102    0.0000000000
     2        2       1.0823796926    0.0000000000
     2        3       0.6628194887    0.0000000000
     3        1       0.9373683129    0.0000000000
     3        2       0.6628194887    0.0000000000
     3        3       2.4353543044    0.0000000000

 respfn : d/dk was computed, but no 2DTE, so no DDB output.

== END DATASET(S) ==============================================================

 -outvars: echo values of variables after computation  --------
            acell      1.0000000000E+00  1.0000000000E+00  1.0000000000E+00 Bohr
              amu      8.54678000E+01  9.12240000E+01  3.54527000E+01
             ecut      3.50000000E+01 Hartree
           etotal     -2.3776081836E+01
            fcart      0.0000000000E+00  0.0000000000E+00  0.0000000000E+00
                       0.0000000000E+00  0.0000000000E+00  0.0000000000E+00
                       0.0000000000E+00  0.0000000000E+00  0.0000000000E+00
                       0.0000000000E+00  0.0000000000E+00  0.0000000000E+00
                       0.0000000000E+00  0.0000000000E+00  0.0000000000E+00
                       0.0000000000E+00  0.0000000000E+00  0.0000000000E+00
                       0.0000000000E+00  0.0000000000E+00  0.0000000000E+00
                       0.0000000000E+00  0.0000000000E+00  0.0000000000E+00
                       0.0000000000E+00  0.0000000000E+00  0.0000000000E+00
-          fftalg         512
           irdden           1
           irdwfk           1
           istwfk        1    0
              ixc     -116133
              kpt      0.00000000E+00  0.00000000E+00  0.00000000E+00
                       2.63157895E-01  0.00000000E+00  2.63157895E-01
           kptopt           0
P           mkmem           2
P          mkqmem           2
P          mk1mem           2
            natom           9
            nband          45
           nbdbuf           4
            ngfft          72      72      72
             nkpt           2
            nstep        2000
             nsym          48
           ntypat           3
              occ      2.000000  2.000000  2.000000  2.000000  2.000000  2.000000
                       2.000000  2.000000  2.000000  2.000000  2.000000  2.000000
                       2.000000  2.000000  2.000000  2.000000  2.000000  2.000000
                       2.000000  2.000000  2.000000  2.000000  2.000000  2.000000
                       2.000000  2.000000  2.000000  2.000000  2.000000  2.000000
                       2.000000  2.000000  2.000000  2.000000  2.000000  2.000000
                       0.000000  0.000000  0.000000  0.000000  0.000000  0.000000
                       0.000000  0.000000  0.000000
        optdriver           1
            prtwf          -1
            rfdir           1       1       1
           rfelfd           2
            rprim      1.1705995617E+01  0.0000000000E+00  6.7584597207E+00
                       3.9019985391E+00  1.1036518509E+01  6.7584597207E+00
                       0.0000000000E+00  0.0000000000E+00  1.3516919441E+01
          spgroup         225
           strten      0.0000000000E+00  0.0000000000E+00  0.0000000000E+00
                       0.0000000000E+00  0.0000000000E+00  0.0000000000E+00
           symrel      1  0  0   0  1  0   0  0  1      -1  0  0   0 -1  0   0  0 -1
                       0 -1  1   0 -1  0   1 -1  0       0  1 -1   0  1  0  -1  1  0
                      -1  0  0  -1  0  1  -1  1  0       1  0  0   1  0 -1   1 -1  0
                       0  1 -1   1  0 -1   0  0 -1       0 -1  1  -1  0  1   0  0  1
                      -1  0  0  -1  1  0  -1  0  1       1  0  0   1 -1  0   1  0 -1
                       0 -1  1   1 -1  0   0 -1  0       0  1 -1  -1  1  0   0  1  0
                       1  0  0   0  0  1   0  1  0      -1  0  0   0  0 -1   0 -1  0
                       0  1 -1   0  0 -1   1  0 -1       0 -1  1   0  0  1  -1  0  1
                      -1  0  1  -1  1  0  -1  0  0       1  0 -1   1 -1  0   1  0  0
                       0 -1  0   1 -1  0   0 -1  1       0  1  0  -1  1  0   0  1 -1
                       1  0 -1   0  0 -1   0  1 -1      -1  0  1   0  0  1   0 -1  1
                       0  1  0   0  0  1   1  0  0       0 -1  0   0  0 -1  -1  0  0
                       1  0 -1   0  1 -1   0  0 -1      -1  0  1   0 -1  1   0  0  1
                       0 -1  0   0 -1  1   1 -1  0       0  1  0   0  1 -1  -1  1  0
                      -1  0  1  -1  0  0  -1  1  0       1  0 -1   1  0  0   1 -1  0
                       0  1  0   1  0  0   0  0  1       0 -1  0  -1  0  0   0  0 -1
                       0  0 -1   0  1 -1   1  0 -1       0  0  1   0 -1  1  -1  0  1
                       1 -1  0   0 -1  1   0 -1  0      -1  1  0   0  1 -1   0  1  0
                       0  0  1   1  0  0   0  1  0       0  0 -1  -1  0  0   0 -1  0
                      -1  1  0  -1  0  0  -1  0  1       1 -1  0   1  0  0   1  0 -1
                       0  0  1   0  1  0   1  0  0       0  0 -1   0 -1  0  -1  0  0
                       1 -1  0   0 -1  0   0 -1  1      -1  1  0   0  1  0   0  1 -1
                       0  0 -1   1  0 -1   0  1 -1       0  0  1  -1  0  1   0 -1  1
                      -1  1  0  -1  0  1  -1  0  0       1 -1  0   1  0 -1   1  0  0
           tolwfr      1.00000000E-20
            typat      1  1  2  3  3  3  3  3  3
           useylm           1
              wtk        0.50000    0.50000
           xangst      2.0648486948E+00  1.4600685142E+00  3.5764228494E+00
                       6.1945460845E+00  4.3802055427E+00  1.0729268548E+01
                       0.0000000000E+00  0.0000000000E+00  0.0000000000E+00
                       5.1911204721E+00  1.4190581098E+00  5.3144069916E+00
                       2.0068512247E+00  1.4190581098E+00  7.1528456987E+00
                       6.2525435546E+00  4.4212159471E+00  7.1528456987E+00
                       3.0682743072E+00  4.4212159471E+00  8.9912844059E+00
                       5.1911204721E+00  1.4190581098E+00  8.9912844059E+00
                       3.0682743072E+00  4.4212159471E+00  5.3144069916E+00
            xcart      3.9019985391E+00  2.7591296272E+00  6.7584597207E+00
                       1.1705995617E+01  8.2773888815E+00  2.0275379162E+01
                       0.0000000000E+00  0.0000000000E+00  0.0000000000E+00
                       9.8097960152E+00  2.6816311942E+00  1.0042773773E+01
                       3.7923992041E+00  2.6816311942E+00  1.3516919441E+01
                       1.1815594952E+01  8.3548873144E+00  1.3516919441E+01
                       5.7981981411E+00  8.3548873144E+00  1.6991065110E+01
                       9.8097960152E+00  2.6816311942E+00  1.6991065110E+01
                       5.7981981411E+00  8.3548873144E+00  1.0042773773E+01
             xred      2.5000000000E-01  2.5000000000E-01  2.5000000000E-01
                       7.5000000000E-01  7.5000000000E-01  7.5000000000E-01
                       0.0000000000E+00  0.0000000000E+00  0.0000000000E+00
                       7.5702200000E-01  2.4297800000E-01  2.4297800000E-01
                       2.4297800000E-01  2.4297800000E-01  7.5702200000E-01
                       7.5702200000E-01  7.5702200000E-01  2.4297800000E-01
                       2.4297800000E-01  7.5702200000E-01  7.5702200000E-01
                       7.5702200000E-01  2.4297800000E-01  7.5702200000E-01
                       2.4297800000E-01  7.5702200000E-01  2.4297800000E-01
            znucl       37.00000   40.00000   17.00000

- Timing analysis has been suppressed with timopt=0

 Suggested references for the acknowledgment of ABINIT usage.

 Calculation completed.
.Delivered  14 WARNINGs and   9 COMMENTs to log file.