.Version 9.5.1 of ABINIT

 ABINIT is a project of the Universite Catholique de Louvain,
 Corning Inc. and other collaborators, see ~abinit/doc/developers/contributors.txt .
 acknowledgments of the ABINIT effort.

.Starting date : Sun 25 Apr 2021.
- ( at 18h04 )

- input  file    -> /scratch/users/j/a/jabreu/flow_simple2/flow/w253/t1/run.abi
- output file    -> /scratch/users/j/a/jabreu/flow_simple2/flow/w253/t1/run.abo
- root for input  files -> /scratch/users/j/a/jabreu/flow_simple2/flow/w253/t1/indata/in
- root for output files -> /scratch/users/j/a/jabreu/flow_simple2/flow/w253/t1/outdata/out

 Symmetries : space group F-4 3 m (#216); Bravais cF (face-center cubic)
     intxc =       0      iscf =       7    lmnmax =      18     lnmax =       6
     mgfft =      54  mpssoang =       3    mqgrid =    3001     natom =       2
  nloc_mem =       1    nspden =       1   nspinor =       1    nsppol =       1
      nsym =      24    n1xccc =    2501    ntypat =       2    occopt =       1
   xclevel =       2
-    mband =          27        mffmem =           1         mkmem =           1
-   mkqmem =           1        mk1mem =           1           mpw =        6615
      nfft =      157464          nkpt =           1
  Rough estimation (10% accuracy) of disk space for files :

------------- Echo of variables that govern the present computation ------------
-
- outvars: echo of selected default values
-   iomode0 =  0 , fftalg0 =512 , wfoptalg0 =  0
-
- outvars: echo of global parameters not present in the input file
-  max_nthreads =    0
-
 -outvars: echo values of preprocessed input variables --------
            acell      1.0000000000E+00  1.0000000000E+00  1.0000000000E+00 Bohr
              amu      1.12411000E+02  7.89600000E+01
             ecut      5.10000000E+01 Hartree
-          fftalg         512
           irdden           1
           irdwfk           1
           istwfk        1
              ixc     -116133
           kptopt           0
P           mkmem           1
P          mkqmem           1
P          mk1mem           1
            natom           2
            nband          27
           nbdbuf           4
            ngfft          54      54      54
             nkpt           1
            nstep         100
             nsym          24
           ntypat           2
              occ      2.000000  2.000000  2.000000  2.000000  2.000000  2.000000
                       2.000000  2.000000  2.000000  2.000000  2.000000  2.000000
                       2.000000  2.000000  2.000000  2.000000  2.000000  2.000000
                       0.000000  0.000000  0.000000  0.000000  0.000000  0.000000
                       0.000000  0.000000  0.000000
        optdriver           1
            prtwf          -1
            rfdir           1       1       1
           rfelfd           2
            rprim      7.0392718319E+00  0.0000000000E+00  4.0641254871E+00
                       2.3464239440E+00  6.6366891293E+00  4.0641254871E+00
                       0.0000000000E+00  0.0000000000E+00  8.1282509741E+00
          spgroup         216
           symrel      1  0  0   0  1  0   0  0  1       0 -1  1   0 -1  0   1 -1  0
                      -1  0  0  -1  0  1  -1  1  0       0  1 -1   1  0 -1   0  0 -1
                      -1  0  0  -1  1  0  -1  0  1       0 -1  1   1 -1  0   0 -1  0
                       1  0  0   0  0  1   0  1  0       0  1 -1   0  0 -1   1  0 -1
                      -1  0  1  -1  1  0  -1  0  0       0 -1  0   1 -1  0   0 -1  1
                       1  0 -1   0  0 -1   0  1 -1       0  1  0   0  0  1   1  0  0
                       1  0 -1   0  1 -1   0  0 -1       0 -1  0   0 -1  1   1 -1  0
                      -1  0  1  -1  0  0  -1  1  0       0  1  0   1  0  0   0  0  1
                       0  0 -1   0  1 -1   1  0 -1       1 -1  0   0 -1  1   0 -1  0
                       0  0  1   1  0  0   0  1  0      -1  1  0  -1  0  0  -1  0  1
                       0  0  1   0  1  0   1  0  0       1 -1  0   0 -1  0   0 -1  1
                       0  0 -1   1  0 -1   0  1 -1      -1  1  0  -1  0  1  -1  0  0
           tolwfr      1.00000000E-20
            typat      1  2
           useylm           1
           xangst      0.0000000000E+00  0.0000000000E+00  0.0000000000E+00
                       3.7250222185E+00  2.6339884708E+00  6.4519277418E+00
            xcart      0.0000000000E+00  0.0000000000E+00  0.0000000000E+00
                       7.0392718319E+00  4.9775168470E+00  1.2192376461E+01
             xred      0.0000000000E+00  0.0000000000E+00  0.0000000000E+00
                       7.5000000000E-01  7.5000000000E-01  7.5000000000E-01
            znucl       48.00000   34.00000

 chkinp: Checking input parameters for consistency.

== DATASET  1 ==================================================================
-   mpi_nproc: 1, omp_nthreads: -1 (-1 if OMP is not activated)

--- !DatasetInfo
iteration_state: {dtset: 1, }
dimensions: {natom: 2, nkpt: 1, mband: 27, nsppol: 1, nspinor: 1, nspden: 1, mpw: 6615, }
cutoff_energies: {ecut:  51.0, pawecutdg:  -1.0, }
electrons: {nelect:   3.60000000E+01, charge:   0.00000000E+00, occopt:   1.00000000E+00, tsmear:   1.00000000E-02, }
meta: {optdriver: 1, rfelfd: 2, }
...

 Real(R)+Recip(G) space primitive vectors, cartesian coordinates (Bohr,Bohr^-1):
 R(1)=  7.0392718  0.0000000  4.0641255  G(1)=  0.1420601 -0.0502258  0.0000000
 R(2)=  2.3464239  6.6366891  4.0641255  G(2)=  0.0000000  0.1506775  0.0000000
 R(3)=  0.0000000  0.0000000  8.1282510  G(3)= -0.0710301 -0.0502258  0.1230277
 Unit cell volume ucvol=  3.7973123E+02 bohr^3
 Angles (23,13,12)=  6.00000000E+01  6.00000000E+01  6.00000000E+01 degrees

 getcut: wavevector=  0.0000  0.0000  0.0000  ngfft=  54  54  54
         ecut(hartree)=     51.000   => boxcut(ratio)=   2.06726

--- Pseudopotential description ------------------------------------------------
- pspini: atom type   1  psp file is /scratch/users/j/a/jabreu/pseudos/PBEsol/Cd.psp8
- pspatm: opening atomic psp file    /scratch/users/j/a/jabreu/pseudos/PBEsol/Cd.psp8
- Cd    ONCVPSP-3.3.0  r_core=   1.25838   1.30423   1.35174
- 48.00000  20.00000    180112                znucl, zion, pspdat
    8 -116133    2    4       600   0.00000   pspcod,pspxc,lmax,lloc,mmax,r2well
    5.99000000000000    6.00000000000000    0.00000000000000   rchrg,fchrg,qchrg
     nproj     2     2     2
     extension_switch     1
  pspatm : epsatm=   23.26728021
         --- l  ekb(1:nproj) -->
             0   63.701523    3.700425
             1    8.703569    1.290373
             2    0.983656   -0.721725
 pspatm: atomic psp has been read  and splines computed

- pspini: atom type   2  psp file is /scratch/users/j/a/jabreu/pseudos/PBEsol/Se.psp8
- pspatm: opening atomic psp file    /scratch/users/j/a/jabreu/pseudos/PBEsol/Se.psp8
- Se    ONCVPSP-3.3.0  r_core=   1.81943   1.50330   1.90835
- 34.00000  16.00000    180112                znucl, zion, pspdat
    8 -116133    2    4       600   0.00000   pspcod,pspxc,lmax,lloc,mmax,r2well
    5.99000000000000    5.00000000000000    0.00000000000000   rchrg,fchrg,qchrg
     nproj     2     2     2
     extension_switch     1
  pspatm : epsatm=   29.17862020
         --- l  ekb(1:nproj) -->
             0    8.973804    1.019550
             1    6.849857    1.297308
             2   -9.203962   -3.731027
 pspatm: atomic psp has been read  and splines computed

   1.88805241E+03                                ecore*ucvol(ha*bohr**3)

-inwffil : will read wavefunctions from disk file /scratch/users/j/a/jabreu/flow_simple2/flow/w253/t1/indata/in_WFK

 ==>  initialize data related to q vector <==

 The list of irreducible perturbations for this q vector is:
    1)    idir= 1    ipert=   3
    2)    idir= 2    ipert=   3
    3)    idir= 3    ipert=   3

 Perturbation wavevector (in red.coord.)   0.000000  0.000000  0.000000
 Perturbation : derivative vs k along direction   1

 dfpt_looppert : COMMENT -
  In a d/dk calculation, iscf is set to -3 automatically.
 The set of symmetries contains only one element for this perturbation.
 symkpt : not enough symmetry to change the number of k points.

[...]

 Initialisation of the first-order wave-functions :
  ireadwf=   0

--- !BeginCycle
iteration_state: {dtset: 1, }
solver: {iscf: 7, nstep: 100, nline: 4, wfoptalg: 0, }
tolerances: {tolwfr: 1.00E-20, }
...

     iter   2DEtotal(Ha)        deltaE(Ha) residm    vres2
-ETOT  1  -95.531068914804     -9.553E+01 1.340E-01 0.000E+00
 ETOT  2  -95.588516185657     -5.745E-02 2.938E-03 0.000E+00
 ETOT  3  -95.588852066015     -3.359E-04 2.907E-05 0.000E+00
 ETOT  4  -95.588856245572     -4.180E-06 1.042E-06 0.000E+00
 ETOT  5  -95.588856308782     -6.321E-08 1.129E-08 0.000E+00
 ETOT  6  -95.588856309808     -1.026E-09 4.070E-10 0.000E+00
 ETOT  7  -95.588856309825     -1.700E-11 4.562E-12 0.000E+00
 ETOT  8  -95.588856309825     -3.411E-13 1.692E-13 0.000E+00
 ETOT  9  -95.588856309825     -5.684E-14 1.948E-15 0.000E+00
 ETOT 10  -95.588856309825     -1.421E-14 1.393E-16 0.000E+00
 ETOT 11  -95.588856309825     -7.105E-14 9.201E-18 0.000E+00
 ETOT 12  -95.588856309826     -4.263E-14 1.328E-18 0.000E+00
 ETOT 13  -95.588856309826      1.421E-14 8.742E-20 0.000E+00
 ETOT 14  -95.588856309826     -1.421E-14 1.279E-20 0.000E+00
 ETOT 15  -95.588856309825      4.263E-14 9.600E-21 0.000E+00

 At SCF step   15   max residual=  9.60E-21 < tolwfr=  1.00E-20 =>converged.

 ----iterations are completed or convergence reached----

 dfpt_looppert: DFPT cycle converged with prtwf=-1. Will skip output of the 1st-order WFK file.
 dfpt_looppert : ek2=    6.4534103712E+01
          f-sum rule ratio=    2.2287213984E+00
 prteigrs : about to open file /scratch/users/j/a/jabreu/flow_simple2/flow/w253/t1/tmpdata/tmp_1WF1_EIG
 Expectation of eigenvalue derivatives (hartree) for nkpt=   1  k points:
  (in case of degenerate eigenvalues, averaged derivative)
 kpt#   1, nband= 27, wtk=  1.00000, kpt=  0.0000  0.0000  0.0000 (reduced coord)
  -0.00000   -0.00000   -0.00000   -0.00000    0.00000    0.00000    0.00000    0.00000
   0.00000   -0.00000    0.00000    0.00000    0.00000    0.00000    0.00000   -0.00000
  -0.00000   -0.00000    0.00000    0.00000    0.00000    0.00000   -0.00000    0.00000
  -0.00046   -0.00000   -0.00000

 Eight components of 2nd-order total energy (hartree) are
 1,2,3: 0th-order hamiltonian combined with 1st-order wavefunctions
     kin0=   6.26323756E+01 eigvalue=   7.84945465E+00  local=  -2.87723461E+01
 4,5,6: 1st-order hamiltonian combined with 1st and 0th-order wfs
     kin1=  -1.43828538E+02  Hartree=   0.00000000E+00     xc=   0.00000000E+00
 7,8,9: eventually, occupation + non-local contributions
    edocc=   4.83560264E+01     enl0=   5.52334577E+00   enl1=  -4.73491747E+01
 1-9 gives the relaxation energy (to be shifted if some occ is /=2.0)
   erelax=  -9.55888563E+01
  No Ewald or frozen-wf contrib.: the relaxation energy is the total one
 2DEtotal=   -0.9558885631E+02 Ha. Also 2DEtotal=   -0.260110506179E+04 eV
    (  non-var. 2DEtotal :   -9.5588856310E+01 Ha)

 Perturbation wavevector (in red.coord.)   0.000000  0.000000  0.000000
 Perturbation : derivative vs k along direction   2
 The set of symmetries contains only one element for this perturbation.
 symkpt : not enough symmetry to change the number of k points.

[...]

 Perturbation wavevector (in red.coord.)   0.000000  0.000000  0.000000
 Perturbation : derivative vs k along direction   3
 The set of symmetries contains only one element for this perturbation.
 symkpt : not enough symmetry to change the number of k points.

-inwffil : will read wavefunctions from disk file /scratch/users/j/a/jabreu/flow_simple2/flow/w253/t1/indata/in_WFK

 Initialisation of the first-order wave-functions :
  ireadwf=   0

--- !BeginCycle
iteration_state: {dtset: 1, }
solver: {iscf: 7, nstep: 100, nline: 4, wfoptalg: 0, }
tolerances: {tolwfr: 1.00E-20, }
...

     iter   2DEtotal(Ha)        deltaE(Ha) residm    vres2
-ETOT  1  -95.529007323064     -9.553E+01 1.141E-01 0.000E+00
 ETOT  2  -95.588421978048     -5.941E-02 2.986E-03 0.000E+00
 ETOT  3  -95.588846284474     -4.243E-04 2.955E-05 0.000E+00
 ETOT  4  -95.588852928479     -6.644E-06 1.058E-06 0.000E+00
 ETOT  5  -95.588853052390     -1.239E-07 1.147E-08 0.000E+00
 ETOT  6  -95.588853054861     -2.472E-09 4.132E-10 0.000E+00
 ETOT  7  -95.588853054912     -5.083E-11 4.630E-12 0.000E+00
 ETOT  8  -95.588853054914     -1.236E-12 1.717E-13 0.000E+00
 ETOT  9  -95.588853054913      3.979E-13 1.976E-15 0.000E+00
 ETOT 10  -95.588853054913     -2.274E-13 1.092E-16 0.000E+00
 ETOT 11  -95.588853054914     -1.279E-13 7.967E-18 0.000E+00
 ETOT 12  -95.588853054913      9.948E-14 1.032E-18 0.000E+00
 ETOT 13  -95.588853054913     -2.842E-14 7.505E-20 0.000E+00
 ETOT 14  -95.588853054913      2.842E-14 9.895E-21 0.000E+00

 At SCF step   14   max residual=  9.89E-21 < tolwfr=  1.00E-20 =>converged.

 ----iterations are completed or convergence reached----

 dfpt_looppert: DFPT cycle converged with prtwf=-1. Will skip output of the 1st-order WFK file.
 dfpt_looppert : ek2=    6.4534103712E+01
          f-sum rule ratio=    2.2287212721E+00
 prteigrs : about to open file /scratch/users/j/a/jabreu/flow_simple2/flow/w253/t1/tmpdata/tmp_1WF1_EIG
 Expectation of eigenvalue derivatives (hartree) for nkpt=   1  k points:
  (in case of degenerate eigenvalues, averaged derivative)
 kpt#   1, nband= 27, wtk=  1.00000, kpt=  0.0000  0.0000  0.0000 (reduced coord)
   0.00000   -0.00000   -0.00000   -0.00000    0.00000    0.00000    0.00000   -0.00000
  -0.00000    0.00000    0.00000    0.00000    0.00000   -0.00000   -0.00000    0.00000
   0.00000    0.00000    0.00000   -0.00000   -0.00000   -0.00000    0.00000   -0.00000
   0.00000   -0.00000   -0.00000

 Eight components of 2nd-order total energy (hartree) are
 1,2,3: 0th-order hamiltonian combined with 1st-order wavefunctions
     kin0=   6.26256862E+01 eigvalue=   7.84839902E+00  local=  -2.87668318E+01
 4,5,6: 1st-order hamiltonian combined with 1st and 0th-order wfs
     kin1=  -1.43828530E+02  Hartree=   0.00000000E+00     xc=   0.00000000E+00
 7,8,9: eventually, occupation + non-local contributions
    edocc=   4.83591359E+01     enl0=   5.52246375E+00   enl1=  -4.73491764E+01
 1-9 gives the relaxation energy (to be shifted if some occ is /=2.0)
   erelax=  -9.55888531E+01
  No Ewald or frozen-wf contrib.: the relaxation energy is the total one
 2DEtotal=   -0.9558885305E+02 Ha. Also 2DEtotal=   -0.260110497321E+04 eV
    (  non-var. 2DEtotal :   -9.5588853055E+01 Ha)

 CALCULATION OF EFFECTIVE MASSES
 NOTE : Additional infos (eff. mass eigenvalues, eigenvectors and, if degenerate, average mass) are available in stdout.

 COMMENTS:
 - At k-point ( 0.000, 0.000, 0.000), bands    16 through    18
   are DEGENERATE (effective mass tensor is therefore not defined).
   See Section IIIB Eqs. (67)-(70) and Appendix E of PRB 93 205147 (2016).
 - Angular average effective mass for Frohlich model is to be averaged over degenerate bands. See later.
 - Associated theta integrals calculated with ntheta=   1000 points.

 K-point ( 0.000, 0.000, 0.000) | band =    16
 Transport equivalent effective mass tensor:
             -0.0470870266             -0.0000000073              0.0000000100
             -0.0000000073             -0.0470870228             -0.0000000143
              0.0000000100             -0.0000000143             -0.0470870229
 Transport equivalent effective mass tensor eigenvalues:
             -0.0470870378             -0.0470870321             -0.0470870023
 Angular average effective mass 1/(<1/m>)=  -0.0468974035
 Angular average effective mass for Frohlich model (<m**0.5>)**2=  -0.0469105397
 Effective masses along directions: (cart. coord. / red. coord. -> eff. mass)
    1:   1.000000  0.000000  0.000000 /   0.948683  0.316228  0.000000 ->  -0.0463731034
    2:   0.000000  1.000000  0.000000 /   0.000000  1.000000  0.000000 ->  -0.0455710846
    3:   0.000000  0.000000  1.000000 /   0.408248  0.408248  0.816497 ->  -0.0464052311
    4:   0.577350  0.577350  0.577350 /   0.585539  0.688047  0.428644 ->  -0.0463496445
    5:   0.000000  0.707107  0.707107 /   0.289489  0.762222  0.578977 ->  -0.0474517441
    6:   0.707107  0.000000  0.707107 /   0.731423  0.422287  0.535439 ->  -0.0463891456
    7:   0.707107  0.707107  0.000000 /   0.616798  0.787122  0.000000 ->  -0.0487665246

[...]

 K-point ( 0.000, 0.000, 0.000) | band =    18
 Transport equivalent effective mass tensor:
             -7.0702823002              0.0000072328              0.0000115640
              0.0000072328             -7.0703080516              0.0000111520
              0.0000115640              0.0000111520             -7.0702652170
 Transport equivalent effective mass tensor eigenvalues:
             -7.0703114907             -7.0702880564             -7.0702560217
 Angular average effective mass 1/(<1/m>)=  -1.3499843328
 Angular average effective mass for Frohlich model (<m**0.5>)**2=  -1.5228070877
 Effective masses along directions: (cart. coord. / red. coord. -> eff. mass)
    1:   1.000000  0.000000  0.000000 /   0.948683  0.316228  0.000000 ->  -1.4122950821
    2:   0.000000  1.000000  0.000000 /   0.000000  1.000000  0.000000 ->  -1.3831395275
    3:   0.000000  0.000000  1.000000 /   0.408248  0.408248  0.816497 ->  -3.0436751743
    4:   0.577350  0.577350  0.577350 /   0.585539  0.688047  0.428644 ->  -1.6552461080
    5:   0.000000  0.707107  0.707107 /   0.289489  0.762222  0.578977 ->  -1.1993961923
    6:   0.707107  0.000000  0.707107 /   0.731423  0.422287  0.535439 ->  -2.1103062004
    7:   0.707107  0.707107  0.000000 /   0.616798  0.787122  0.000000 ->  -0.7113334878

 Angular average effective mass for Frohlich model, averaged over degenerate bands.
 Value of     (<<m**0.5>>)**2 =     6.016696E-01
 Absolute Value of <<m**0.5>> =     7.756736E-01

 K-point ( 0.000, 0.000, 0.000) | band =    19
 Effective mass tensor:
              0.0478369167              0.0000000000              0.0000000000
              0.0000000000              0.0478369167              0.0000000000
              0.0000000000              0.0000000000              0.0478369168
 Effective mass tensor eigenvalues:
              0.0478369167              0.0478369167              0.0478369168
 Angular average effective mass 1/(<1/m>)=   0.0478369168
 Angular average effective mass for Frohlich model (<m**0.5>)**2=   0.0478369168
 Effective masses along directions: (cart. coord. / red. coord. -> eff. mass)
    1:   1.000000  0.000000  0.000000 /   0.948683  0.316228  0.000000 ->   0.0478369167
    2:   0.000000  1.000000  0.000000 /   0.000000  1.000000  0.000000 ->   0.0478369167
    3:   0.000000  0.000000  1.000000 /   0.408248  0.408248  0.816497 ->   0.0478369168
    4:   0.577350  0.577350  0.577350 /   0.585539  0.688047  0.428644 ->   0.0478369168
    5:   0.000000  0.707107  0.707107 /   0.289489  0.762222  0.578977 ->   0.0478369168
    6:   0.707107  0.000000  0.707107 /   0.731423  0.422287  0.535439 ->   0.0478369168
    7:   0.707107  0.707107  0.000000 /   0.616798  0.787122  0.000000 ->   0.0478369167

 END OF EFFECTIVE MASSES SECTION

 ---- first-order wavefunction calculations are completed ----

 Total localisation tensor (bohr^2) in cartesian coordinates
  WARNING : still subject to testing - especially symmetries.
      direction              matrix element
   alpha     beta       real part   imaginary part
     1        1      40.1260002515    0.0000000000
     1        2      11.3493467153    0.0000000000
     1        3      27.8001084414    0.0000000000
     2        1      11.3493467153    0.0000000000
     2        2      32.1008000973    0.0000000000
     2        3      19.6576451436    0.0000000000
     3        1      27.8001084414    0.0000000000
     3        2      19.6576451436    0.0000000000
     3        3      72.2268002916    0.0000000000

 respfn : d/dk was computed, but no 2DTE, so no DDB output.

== END DATASET(S) ==============================================================

 -outvars: echo values of variables after computation  --------
            acell      1.0000000000E+00  1.0000000000E+00  1.0000000000E+00 Bohr
              amu      1.12411000E+02  7.89600000E+01
             ecut      5.10000000E+01 Hartree
           etotal     -9.5588853055E+01
            fcart      0.0000000000E+00  0.0000000000E+00  0.0000000000E+00
                       0.0000000000E+00  0.0000000000E+00  0.0000000000E+00
-          fftalg         512
           irdden           1
           irdwfk           1
           istwfk        1
              ixc     -116133
           kptopt           0
P           mkmem           1
P          mkqmem           1
P          mk1mem           1
            natom           2
            nband          27
           nbdbuf           4
            ngfft          54      54      54
             nkpt           1
            nstep         100
             nsym          24
           ntypat           2
              occ      2.000000  2.000000  2.000000  2.000000  2.000000  2.000000
                       2.000000  2.000000  2.000000  2.000000  2.000000  2.000000
                       2.000000  2.000000  2.000000  2.000000  2.000000  2.000000
                       0.000000  0.000000  0.000000  0.000000  0.000000  0.000000
                       0.000000  0.000000  0.000000
        optdriver           1
            prtwf          -1
            rfdir           1       1       1
           rfelfd           2
            rprim      7.0392718319E+00  0.0000000000E+00  4.0641254871E+00
                       2.3464239440E+00  6.6366891293E+00  4.0641254871E+00
                       0.0000000000E+00  0.0000000000E+00  8.1282509741E+00
          spgroup         216
           strten      0.0000000000E+00  0.0000000000E+00  0.0000000000E+00
                       0.0000000000E+00  0.0000000000E+00  0.0000000000E+00
           symrel      1  0  0   0  1  0   0  0  1       0 -1  1   0 -1  0   1 -1  0
                      -1  0  0  -1  0  1  -1  1  0       0  1 -1   1  0 -1   0  0 -1
                      -1  0  0  -1  1  0  -1  0  1       0 -1  1   1 -1  0   0 -1  0
                       1  0  0   0  0  1   0  1  0       0  1 -1   0  0 -1   1  0 -1
                      -1  0  1  -1  1  0  -1  0  0       0 -1  0   1 -1  0   0 -1  1
                       1  0 -1   0  0 -1   0  1 -1       0  1  0   0  0  1   1  0  0
                       1  0 -1   0  1 -1   0  0 -1       0 -1  0   0 -1  1   1 -1  0
                      -1  0  1  -1  0  0  -1  1  0       0  1  0   1  0  0   0  0  1
                       0  0 -1   0  1 -1   1  0 -1       1 -1  0   0 -1  1   0 -1  0
                       0  0  1   1  0  0   0  1  0      -1  1  0  -1  0  0  -1  0  1
                       0  0  1   0  1  0   1  0  0       1 -1  0   0 -1  0   0 -1  1
                       0  0 -1   1  0 -1   0  1 -1      -1  1  0  -1  0  1  -1  0  0
           tolwfr      1.00000000E-20
            typat      1  2
           useylm           1
           xangst      0.0000000000E+00  0.0000000000E+00  0.0000000000E+00
                       3.7250222185E+00  2.6339884708E+00  6.4519277418E+00
            xcart      0.0000000000E+00  0.0000000000E+00  0.0000000000E+00
                       7.0392718319E+00  4.9775168470E+00  1.2192376461E+01
             xred      0.0000000000E+00  0.0000000000E+00  0.0000000000E+00
                       7.5000000000E-01  7.5000000000E-01  7.5000000000E-01
            znucl       48.00000   34.00000

- Timing analysis has been suppressed with timopt=0

 Suggested references for the acknowledgment of ABINIT usage.

 Calculation completed.
.Delivered   6 WARNINGs and   5 COMMENTs to log file.