.Version 9.5.2 of ABINIT

 ABINIT is a project of the Universite Catholique de Louvain,
 Corning Inc. and other collaborators, see ~abinit/doc/developers/contributors.txt .
 acknowledgments of the ABINIT effort.

.Starting date : Mon 24 May 2021.
- ( at 22h58 )

- input  file    -> /scratch/users/j/a/jabreu/flow_simple_10atoms/flow/w463/t1/run.abi
- output file    -> /scratch/users/j/a/jabreu/flow_simple_10atoms/flow/w463/t1/run.abo
- root for input  files -> /scratch/users/j/a/jabreu/flow_simple_10atoms/flow/w463/t1/indata/in
- root for output files -> /scratch/users/j/a/jabreu/flow_simple_10atoms/flow/w463/t1/outdata/out

 Symmetries : space group Fd d 2 (# 43); Bravais oF (face-center ortho.)
     intxc =       0      iscf =       7    lmnmax =      25     lnmax =       7
     mgfft =      96  mpssoang =       4    mqgrid =    3001     natom =      10
  nloc_mem =       1    nspden =       1   nspinor =       1    nsppol =       1
      nsym =       4    n1xccc =    2501    ntypat =       2    occopt =       1
   xclevel =       2
-    mband =          65        mffmem =           1         mkmem =           2
-   mkqmem =           2        mk1mem =           2           mpw =       12331
      nfft =      884736          nkpt =           2
  Rough estimation (10% accuracy) of disk space for files :

------------- Echo of variables that govern the present computation ------------
-
- outvars: echo of selected default values
-   iomode0 =  0 , fftalg0 =512 , wfoptalg0 =  0
-
- outvars: echo of global parameters not present in the input file
-  max_nthreads =    0
-
 -outvars: echo values of preprocessed input variables --------
            acell      1.0000000000E+00  1.0000000000E+00  1.0000000000E+00 Bohr
              amu      1.96966540E+02  1.59994000E+01
             ecut      4.40000000E+01 Hartree
-          fftalg         512
           irdden           1
           irdwfk           1
              ixc     -116133
              kpt      0.00000000E+00  1.95334303E-01  1.95334303E-01
                       1.00000000E+00  6.20996263E-01  6.20996263E-01
           kptopt           0
P           mkmem           2
P          mkqmem           2
P          mk1mem           2
            natom          10
            nband          65
           nbdbuf           4
            ngfft          96      96      96
             nkpt           2
            nstep        2000
             nsym           4
           ntypat           2
              occ      2.000000  2.000000  2.000000  2.000000  2.000000  2.000000
                       2.000000  2.000000  2.000000  2.000000  2.000000  2.000000
                       2.000000  2.000000  2.000000  2.000000  2.000000  2.000000
                       2.000000  2.000000  2.000000  2.000000  2.000000  2.000000
                       2.000000  2.000000  2.000000  2.000000  2.000000  2.000000
                       2.000000  2.000000  2.000000  2.000000  2.000000  2.000000
                       2.000000  2.000000  2.000000  2.000000  2.000000  2.000000
                       2.000000  2.000000  2.000000  2.000000  2.000000  2.000000
                       2.000000  2.000000  2.000000  2.000000  2.000000  2.000000
                       2.000000  2.000000  0.000000  0.000000  0.000000  0.000000
                       0.000000  0.000000  0.000000  0.000000  0.000000
        optdriver           1
            prtwf          -1
            rfdir           1       1       1
           rfelfd           2
            rprim      1.2576251720E+01  0.0000000000E+00  9.2500595761E+00
                       1.0669183833E+01  6.6581246403E+00  1.2964114246E+00
                       0.0000000000E+00  0.0000000000E+00  1.0546471003E+01
          spgroup          43
           symrel      1  0  0   0  1  0   0  0  1      -1  0  0  -1  0  1  -1  1  0
                       0  1 -1   0  1  0  -1  1  0       0 -1  1  -1  0  1   0  0  1
            tnons      0.0000000  0.0000000  0.0000000     0.0000000  0.0000000  0.0000000
                       0.2500000  0.2500000  0.2500000     0.2500000  0.2500000  0.2500000
           tolwfr      1.00000000E-20
            typat      1  1  1  1  2  2  2  2  2  2
           useylm           1
              wtk        0.50000    0.50000
           xangst      5.1953852150E+00  2.9687571885E+00  4.6244159275E+00
                       6.5910036579E+00  2.3510684965E+00  7.2370847493E+00
                       8.5399484690E+00  2.9092992700E+00  4.4466087063E+00
                       3.7510288344E+00  6.4886250922E-01  6.7288605911E+00
                       6.2117363190E+00  1.5477911546E+00  5.4976652459E+00
                       9.2869749937E+00  2.4286231075E+00  8.2881412885E+00
                       6.8031064335E+00  3.2988287037E+00  3.4738409089E+00
                       5.2518965582E+00  1.0831875327E+00  8.0224557652E+00
                       2.2123565059E+00  7.7721381807E-02  5.5782855728E+00
                       1.0347234916E+01  2.5426309488E+00  5.2319797220E+00
            xcart      9.8178552111E+00  5.6101380413E+00  8.7388796275E+00
                       1.2455191854E+01  4.4428755781E+00  1.3676108177E+01
                       1.6138163795E+01  5.4977788589E+00  8.4028726750E+00
                       7.0884172136E+00  1.2261724403E+00  1.2715703704E+01
                       1.1738480453E+01  2.9249013931E+00  1.0389081685E+01
                       1.7549839341E+01  4.5894325532E+00  1.5662317186E+01
                       1.2856008012E+01  6.2338828093E+00  6.5646079471E+00
                       9.9246461733E+00  2.0469277874E+00  1.5160244309E+01
                       4.1807479044E+00  1.4687212628E-01  1.0541432024E+01
                       1.9553440225E+01  4.8048761503E+00  9.8870088074E+00
             xred      6.5838166667E-02  8.4260033333E-01  6.6728633333E-01
                       4.2427516667E-01  6.6728633333E-01  8.4260033333E-01
                       5.8271366667E-01  8.2572483333E-01  1.8416183333E-01
                       4.0739966667E-01  1.8416183333E-01  8.2572483333E-01
                       5.6070191667E-01  4.3929808333E-01  4.3929808333E-01
                       8.1070191667E-01  6.8929808333E-01  6.8929808333E-01
                       2.2794091667E-01  9.3628208333E-01  3.0743308333E-01
                       5.2834391667E-01  3.0743308333E-01  9.3628208333E-01
                       3.1371791667E-01  2.2059083333E-02  7.2165608333E-01
                       9.4256691667E-01  7.2165608333E-01  2.2059083333E-02
            znucl       79.00000    8.00000

 chkinp: Checking input parameters for consistency.

== DATASET  1 ==================================================================
-   mpi_nproc: 1, omp_nthreads: -1 (-1 if OMP is not activated)

--- !DatasetInfo
iteration_state: {dtset: 1, }
dimensions: {natom: 10, nkpt: 2, mband: 65, nsppol: 1, nspinor: 1, nspden: 1, mpw: 12331, }
cutoff_energies: {ecut:  44.0, pawecutdg:  -1.0, }
electrons: {nelect:   1.12000000E+02, charge:   0.00000000E+00, occopt:   1.00000000E+00, tsmear:   1.00000000E-02, }
meta: {optdriver: 1, rfelfd: 2, }
...

 Real(R)+Recip(G) space primitive vectors, cartesian coordinates (Bohr,Bohr^-1):
 R(1)= 12.5762517  0.0000000  9.2500596  G(1)=  0.0795149 -0.1274172  0.0000000
 R(2)= 10.6691838  6.6581246  1.2964114  G(2)=  0.0000000  0.1501924  0.0000000
 R(3)=  0.0000000  0.0000000 10.5464710  G(3)= -0.0697407  0.0932924  0.0948184
 Unit cell volume ucvol=  8.8310085E+02 bohr^3
 Angles (23,13,12)=  8.41145052E+01  5.36648487E+01  4.22206460E+01 degrees

 getcut: wavevector=  0.0000  0.0000  0.0000  ngfft=  96  96  96
         ecut(hartree)=     44.000   => boxcut(ratio)=   2.05943

--- Pseudopotential description ------------------------------------------------
- pspini: atom type   1  psp file is /scratch/users/j/a/jabreu/pseudos/PBEsol/Au.psp8
- pspatm: opening atomic psp file    /scratch/users/j/a/jabreu/pseudos/PBEsol/Au.psp8
- Au    ONCVPSP-3.3.0  r_core=   1.45604   1.56407   1.56407   1.60183
- 79.00000  19.00000    180112                znucl, zion, pspdat
    8 -116133    3    4       500   0.00000   pspcod,pspxc,lmax,lloc,mmax,r2well
    4.99000000000000    5.00000000000000    0.00000000000000   rchrg,fchrg,qchrg
     nproj     2     2     2     1
     extension_switch     1
  pspatm : epsatm=   32.21965837
         --- l  ekb(1:nproj) -->
             0    9.413866   -0.196587
             1    2.474292   -1.517497
             2    1.503483    0.298081
             3    1.177996
 pspatm: atomic psp has been read  and splines computed

- pspini: atom type   2  psp file is /scratch/users/j/a/jabreu/pseudos/PBEsol/O.psp8
- pspatm: opening atomic psp file    /scratch/users/j/a/jabreu/pseudos/PBEsol/O.psp8
- O     ONCVPSP-3.3.0  r_core=   1.35509   1.45563   1.26150
-  8.00000   6.00000    180112                znucl, zion, pspdat
    8 -116133    2    4       600   0.00000   pspcod,pspxc,lmax,lloc,mmax,r2well
    5.99000000000000    4.00000000000000    0.00000000000000   rchrg,fchrg,qchrg
     nproj     2     2     1
     extension_switch     1
  pspatm : epsatm=    6.22910522
         --- l  ekb(1:nproj) -->
             0    6.050032    0.820363
             1   -4.739617   -1.153841
             2   -1.335834
 pspatm: atomic psp has been read  and splines computed

   1.86203657E+04                                ecore*ucvol(ha*bohr**3)

 ==>  initialize data related to q vector <==

 The list of irreducible perturbations for this q vector is:
    1)    idir= 1    ipert=  11
    2)    idir= 2    ipert=  11
    3)    idir= 3    ipert=  11

 Perturbation wavevector (in red.coord.)   0.000000  0.000000  0.000000
 Perturbation : derivative vs k along direction   1

 dfpt_looppert : COMMENT -
  In a d/dk calculation, iscf is set to -3 automatically.
 The set of symmetries contains only one element for this perturbation.
 symkpt : not enough symmetry to change the number of k points.

 Initialisation of the first-order wave-functions :
  ireadwf=   0

--- !BeginCycle
iteration_state: {dtset: 1, }
solver: {iscf: 7, nstep: 2000, nline: 4, wfoptalg: 0, }
tolerances: {tolwfr: 1.00E-20, }
...

     iter   2DEtotal(Ha)        deltaE(Ha) residm    vres2
-ETOT  1  -103.73943368651     -1.037E+02 8.517E-02 0.000E+00
 ETOT  2  -103.86289828733     -1.235E-01 3.517E-03 0.000E+00
 ETOT  3  -103.86357639083     -6.781E-04 4.870E-04 0.000E+00
 ETOT  4  -103.86358289608     -6.505E-06 3.504E-05 0.000E+00
 ETOT  5  -103.86358297645     -8.037E-08 1.383E-05 0.000E+00
 ETOT  6  -103.86358297760     -1.144E-09 1.248E-06 0.000E+00
 ETOT  7  -103.86358297761     -1.793E-11 5.213E-07 0.000E+00
 ETOT  8  -103.86358297761     -3.411E-13 4.926E-08 0.000E+00
 ETOT  9  -103.86358297762     -2.274E-13 2.119E-08 0.000E+00
 ETOT 10  -103.86358297761      7.105E-14 2.040E-09 0.000E+00
 ETOT 11  -103.86358297761      2.842E-14 8.931E-10 0.000E+00
 ETOT 12  -103.86358297761     -5.684E-14 8.669E-11 0.000E+00
 ETOT 13  -103.86358297761      4.263E-14 3.834E-11 0.000E+00
 ETOT 14  -103.86358297761     -2.842E-14 3.735E-12 0.000E+00
 ETOT 15  -103.86358297761      5.684E-14 1.663E-12 0.000E+00
[...]
 ETOT 28  -103.86358297761     -4.263E-14 9.979E-21 0.000E+00

 At SCF step   28   max residual=  9.98E-21 < tolwfr=  1.00E-20 =>converged.

 ----iterations are completed or convergence reached----

 dfpt_looppert: DFPT cycle converged with prtwf=-1. Will skip output of the 1st-order WFK file.
 dfpt_looppert : ek2=    1.9948209170E+02
          f-sum rule ratio=    9.9943992321E-01
 prteigrs : about to open file /scratch/users/j/a/jabreu/flow_simple_10atoms/flow/w463/t1/tmpdata/tmp_1WF1_EIG
 Expectation of eigenvalue derivatives (hartree) for nkpt=   2  k points:
  (in case of degenerate eigenvalues, averaged derivative)
 kpt#   1, nband= 65, wtk=  0.50000, kpt=  0.0000  0.1953  0.1953 (reduced coord)
  -0.00003   -0.00001    0.00002    0.00002   -0.00024    0.00002    0.00014    0.00008
  -0.00064    0.00015    0.00002    0.00065    0.00025    0.00023   -0.00015   -0.00007
  -0.04906    0.01177    0.02157   -0.01186    0.00826    0.01498   -0.03604   -0.00414
  -0.03918    0.01142    0.02587   -0.00650    0.02564    0.01822   -0.03299   -0.02303
   0.02428    0.05959    0.03358    0.08104   -0.03405    0.02406   -0.01542   -0.04573
  -0.06135   -0.00932   -0.02647   -0.01175    0.02412   -0.01229    0.02863   -0.05376
   0.00927   -0.01948    0.06359   -0.06531    0.02807    0.03373    0.01369    0.00007
   0.01925    0.09060   -0.00925   -0.00827   -0.30146    0.16213    0.05366    0.13909
   0.10801
 prteigrs : prtvol=0 or 1, do not print more k-points.

 Eight components of 2nd-order total energy (hartree) are
 1,2,3: 0th-order hamiltonian combined with 1st-order wavefunctions
     kin0=   1.77041620E+02 eigvalue=  -5.83984880E+00  local=  -8.25038304E+01
 4,5,6: 1st-order hamiltonian combined with 1st and 0th-order wfs
     kin1=  -1.99370366E+02  Hartree=   0.00000000E+00     xc=   0.00000000E+00
 7,8,9: eventually, occupation + non-local contributions
    edocc=   1.53700074E+01     enl0=  -2.04365063E-01   enl1=  -8.35679955E+00
 1-9 gives the relaxation energy (to be shifted if some occ is /=2.0)
   erelax=  -1.03863583E+02
  No Ewald or frozen-wf contrib.: the relaxation energy is the total one
 2DEtotal=   -0.1038635830E+03 Ha. Also 2DEtotal=   -0.282627182548E+04 eV
    (  non-var. 2DEtotal :   -1.0386358298E+02 Ha)

 Perturbation wavevector (in red.coord.)   0.000000  0.000000  0.000000
 Perturbation : derivative vs k along direction   2
 The set of symmetries contains only one element for this perturbation.
 symkpt : not enough symmetry to change the number of k points.

[...]

 Perturbation wavevector (in red.coord.)   0.000000  0.000000  0.000000
 Perturbation : derivative vs k along direction   3
 The set of symmetries contains only one element for this perturbation.
 symkpt : not enough symmetry to change the number of k points.

 Initialisation of the first-order wave-functions :
  ireadwf=   0

--- !BeginCycle
iteration_state: {dtset: 1, }
solver: {iscf: 7, nstep: 2000, nline: 4, wfoptalg: 0, }
tolerances: {tolwfr: 1.00E-20, }
...

     iter   2DEtotal(Ha)        deltaE(Ha) residm    vres2
-ETOT  1  -103.73565218046     -1.037E+02 8.517E-02 0.000E+00
 ETOT  2  -103.86269525296     -1.270E-01 3.371E-03 0.000E+00
 ETOT  3  -103.86338919221     -6.939E-04 4.870E-04 0.000E+00
 ETOT  4  -103.86339578255     -6.590E-06 3.504E-05 0.000E+00
 ETOT  5  -103.86339586287     -8.032E-08 1.383E-05 0.000E+00
 ETOT  6  -103.86339586400     -1.132E-09 1.248E-06 0.000E+00
 ETOT  7  -103.86339586402     -1.752E-11 5.214E-07 0.000E+00
 ETOT  8  -103.86339586402     -3.411E-13 4.927E-08 0.000E+00
 ETOT  9  -103.86339586402     -5.684E-14 2.119E-08 0.000E+00
 ETOT 10  -103.86339586402      8.527E-14 2.040E-09 0.000E+00
 ETOT 11  -103.86339586402      1.421E-14 8.932E-10 0.000E+00
 ETOT 12  -103.86339586402     -5.684E-14 8.670E-11 0.000E+00
 ETOT 13  -103.86339586402      1.421E-14 3.834E-11 0.000E+00
 ETOT 14  -103.86339586402     -2.842E-14 3.736E-12 0.000E+00
 ETOT 15  -103.86339586402      0.000E+00 1.663E-12 0.000E+00
 ETOT 16  -103.86339586402      0.000E+00 1.623E-13 0.000E+00
 ETOT 17  -103.86339586402      1.421E-14 7.257E-14 0.000E+00
 ETOT 18  -103.86339586402      1.421E-14 7.083E-15 0.000E+00
 ETOT 19  -103.86339586402     -1.421E-14 3.180E-15 0.000E+00
 ETOT 20  -103.86339586402      0.000E+00 3.103E-16 0.000E+00
 ETOT 21  -103.86339586402      0.000E+00 1.397E-16 0.000E+00
 ETOT 22  -103.86339586402      0.000E+00 1.363E-17 0.000E+00
 ETOT 23  -103.86339586402      0.000E+00 6.150E-18 0.000E+00
 ETOT 24  -103.86339586402      2.842E-14 5.998E-19 0.000E+00
 ETOT 25  -103.86339586402     -2.842E-14 2.712E-19 0.000E+00
 ETOT 26  -103.86339586402      0.000E+00 2.644E-20 0.000E+00
 ETOT 27  -103.86339586402      0.000E+00 1.197E-20 0.000E+00
 ETOT 28  -103.86339586402     -1.421E-14 9.996E-21 0.000E+00

 At SCF step   28   max residual=  1.00E-20 < tolwfr=  1.00E-20 =>converged.

 ----iterations are completed or convergence reached----

 dfpt_looppert: DFPT cycle converged with prtwf=-1. Will skip output of the 1st-order WFK file.
 dfpt_looppert : ek2=    1.9948209162E+02
          f-sum rule ratio=    9.9943814268E-01
 prteigrs : about to open file /scratch/users/j/a/jabreu/flow_simple_10atoms/flow/w463/t1/tmpdata/tmp_1WF1_EIG
 Expectation of eigenvalue derivatives (hartree) for nkpt=   2  k points:
  (in case of degenerate eigenvalues, averaged derivative)
 kpt#   1, nband= 65, wtk=  0.50000, kpt=  0.0000  0.1953  0.1953 (reduced coord)
   0.00003    0.00001   -0.00002   -0.00002    0.00024   -0.00002   -0.00014   -0.00008
   0.00064   -0.00015   -0.00002   -0.00065   -0.00025   -0.00023    0.00015    0.00007
   0.04906   -0.01177   -0.02157    0.01186   -0.00826   -0.01498    0.03604    0.00414
   0.03918   -0.01142   -0.02587    0.00650   -0.02564   -0.01822    0.03299    0.02303
  -0.02428   -0.05959   -0.03358   -0.08104    0.03405   -0.02406    0.01542    0.04573
   0.06135    0.00932    0.02647    0.01175   -0.02412    0.01229   -0.02863    0.05376
  -0.00927    0.01948   -0.06359    0.06531   -0.02807   -0.03373   -0.01369   -0.00007
  -0.01925   -0.09060    0.00925    0.00827    0.30146   -0.16213   -0.05366   -0.13907
  -0.12134
 prteigrs : prtvol=0 or 1, do not print more k-points.

 Eight components of 2nd-order total energy (hartree) are
 1,2,3: 0th-order hamiltonian combined with 1st-order wavefunctions
     kin0=   1.77550032E+02 eigvalue=  -5.87319980E+00  local=  -8.28081019E+01
 4,5,6: 1st-order hamiltonian combined with 1st and 0th-order wfs
     kin1=  -1.99370011E+02  Hartree=   0.00000000E+00     xc=   0.00000000E+00
 7,8,9: eventually, occupation + non-local contributions
    edocc=   1.52094885E+01     enl0=  -2.14823281E-01   enl1=  -8.35678058E+00
 1-9 gives the relaxation energy (to be shifted if some occ is /=2.0)
   erelax=  -1.03863396E+02
  No Ewald or frozen-wf contrib.: the relaxation energy is the total one
 2DEtotal=   -0.1038633959E+03 Ha. Also 2DEtotal=   -0.282626673386E+04 eV
    (  non-var. 2DEtotal :   -1.0386339586E+02 Ha)

 CALCULATION OF EFFECTIVE MASSES
 NOTE : Additional infos (eff. mass eigenvalues, eigenvectors and, if degenerate, average mass) are available in stdout.

 K-point ( 0.000, 0.195, 0.195) | band =    56
 Effective mass tensor:
             -2.1988725111              0.2275716300              0.1648060144
              0.2275716300             -2.9279637157             -0.5733070833
              0.1648060144             -0.5733070833             -1.6239185174
 Effective mass tensor eigenvalues:
             -3.2165895081             -2.1336715786             -1.4004936575
 Angular average effective mass 1/(<1/m>)=  -2.0085727040
 Angular average effective mass for Frohlich model (<m**0.5>)**2=  -2.0779469230
 Effective masses along directions: (cart. coord. / red. coord. -> eff. mass)
    1:   1.000000  0.000000  0.000000 /   0.762556  0.646922  0.000000 ->  -2.1716197220
    2:   0.000000  1.000000  0.000000 /   0.000000  1.000000  0.000000 ->  -2.7124150235
    3:   0.000000  0.000000  1.000000 /   0.656590  0.092022  0.748613 ->  -1.5050336072
    4:   0.577350  0.577350  0.577350 /   0.714003  0.609237  0.345006 ->  -2.1904378689
    5:   0.000000  0.707107  0.707107 /   0.573591  0.493257  0.653981 ->  -2.5686891695
    6:   0.707107  0.000000  0.707107 /   0.807391  0.442627  0.390131 ->  -1.6691951027
    7:   0.707107  0.707107  0.000000 /   0.587395  0.809301  0.000000 ->  -2.2563238958

--- !WARNING
src_file: m_efmas.F90
src_line: 0
message: |

    Band(s)    57,
    are not band extrema, but saddle points;
    the transport equivalent formalism breaks down in these conditions.
    The associated tensor(s) will therefore not be printed.
...

 K-point ( 1.000, 0.621, 0.621) | band =    57
 Effective mass tensor:
     *** SADDLE POINT: TRANSPORT EQV. EFF. MASS NOT DEFINED (see WARNING above) ***
 Angular average effective mass 1/(<1/m>)=   1.3589702120
 Angular average effective mass for Frohlich model (<m**0.5>)**2=   2.2452411770
 Effective masses along directions: (cart. coord. / red. coord. -> eff. mass)
    1:   1.000000  0.000000  0.000000 /   0.762556  0.646922  0.000000 ->  -1.7242361601
    2:   0.000000  1.000000  0.000000 /   0.000000  1.000000  0.000000 ->   0.7738117471
    3:   0.000000  0.000000  1.000000 /   0.656590  0.092022  0.748613 ->   0.6687992962
    4:   0.577350  0.577350  0.577350 /   0.714003  0.609237  0.345006 ->   2.9472318973
    5:   0.000000  0.707107  0.707107 /   0.573591  0.493257  0.653981 ->   0.7252331303
    6:   0.707107  0.000000  0.707107 /   0.807391  0.442627  0.390131 ->   2.1650137289
    7:   0.707107  0.707107  0.000000 /   0.587395  0.809301  0.000000 ->  -4.3854130113

 END OF EFFECTIVE MASSES SECTION

 ---- first-order wavefunction calculations are completed ----

 Total localisation tensor (bohr^2) in cartesian coordinates
  WARNING : still subject to testing - especially symmetries.
      direction              matrix element
   alpha     beta       real part   imaginary part
     1        1       4.3167173461    0.0000000000
     1        2       1.1274055801    0.0000000000
     1        3       2.0657627915    0.0000000000
     2        1       1.1274055801    0.0000000000
     2        2       0.7035596152    0.0000000000
     2        3       0.1369909355    0.0000000000
     3        1       2.0657627915    0.0000000000
     3        2       0.1369909355    0.0000000000
     3        3       3.1498603106    0.0000000000

 respfn : d/dk was computed, but no 2DTE, so no DDB output.

== END DATASET(S) ==============================================================

 -outvars: echo values of variables after computation  --------
            acell      1.0000000000E+00  1.0000000000E+00  1.0000000000E+00 Bohr
              amu      1.96966540E+02  1.59994000E+01
             ecut      4.40000000E+01 Hartree
           etotal     -1.0386339586E+02
            fcart      0.0000000000E+00  0.0000000000E+00  0.0000000000E+00
                       0.0000000000E+00  0.0000000000E+00  0.0000000000E+00
                       0.0000000000E+00  0.0000000000E+00  0.0000000000E+00
                       0.0000000000E+00  0.0000000000E+00  0.0000000000E+00
                       0.0000000000E+00  0.0000000000E+00  0.0000000000E+00
                       0.0000000000E+00  0.0000000000E+00  0.0000000000E+00
                       0.0000000000E+00  0.0000000000E+00  0.0000000000E+00
                       0.0000000000E+00  0.0000000000E+00  0.0000000000E+00
                       0.0000000000E+00  0.0000000000E+00  0.0000000000E+00
                       0.0000000000E+00  0.0000000000E+00  0.0000000000E+00
-          fftalg         512
           irdden           1
           irdwfk           1
              ixc     -116133
              kpt      0.00000000E+00  1.95334303E-01  1.95334303E-01
                       1.00000000E+00  6.20996263E-01  6.20996263E-01
           kptopt           0
P           mkmem           2
P          mkqmem           2
P          mk1mem           2
            natom          10
            nband          65
           nbdbuf           4
            ngfft          96      96      96
             nkpt           2
            nstep        2000
             nsym           4
           ntypat           2
              occ      2.000000  2.000000  2.000000  2.000000  2.000000  2.000000
                       2.000000  2.000000  2.000000  2.000000  2.000000  2.000000
                       2.000000  2.000000  2.000000  2.000000  2.000000  2.000000
                       2.000000  2.000000  2.000000  2.000000  2.000000  2.000000
                       2.000000  2.000000  2.000000  2.000000  2.000000  2.000000
                       2.000000  2.000000  2.000000  2.000000  2.000000  2.000000
                       2.000000  2.000000  2.000000  2.000000  2.000000  2.000000
                       2.000000  2.000000  2.000000  2.000000  2.000000  2.000000
                       2.000000  2.000000  2.000000  2.000000  2.000000  2.000000
                       2.000000  2.000000  0.000000  0.000000  0.000000  0.000000
                       0.000000  0.000000  0.000000  0.000000  0.000000
        optdriver           1
            prtwf          -1
            rfdir           1       1       1
           rfelfd           2
            rprim      1.2576251720E+01  0.0000000000E+00  9.2500595761E+00
                       1.0669183833E+01  6.6581246403E+00  1.2964114246E+00
                       0.0000000000E+00  0.0000000000E+00  1.0546471003E+01
          spgroup          43
           strten      0.0000000000E+00  0.0000000000E+00  0.0000000000E+00
                       0.0000000000E+00  0.0000000000E+00  0.0000000000E+00
           symrel      1  0  0   0  1  0   0  0  1      -1  0  0  -1  0  1  -1  1  0
                       0  1 -1   0  1  0  -1  1  0       0 -1  1  -1  0  1   0  0  1
            tnons      0.0000000  0.0000000  0.0000000     0.0000000  0.0000000  0.0000000
                       0.2500000  0.2500000  0.2500000     0.2500000  0.2500000  0.2500000
           tolwfr      1.00000000E-20
            typat      1  1  1  1  2  2  2  2  2  2
           useylm           1
              wtk        0.50000    0.50000
           xangst      5.1953852150E+00  2.9687571885E+00  4.6244159275E+00
                       6.5910036579E+00  2.3510684965E+00  7.2370847493E+00
                       8.5399484690E+00  2.9092992700E+00  4.4466087063E+00
                       3.7510288344E+00  6.4886250922E-01  6.7288605911E+00
                       6.2117363190E+00  1.5477911546E+00  5.4976652459E+00
                       9.2869749937E+00  2.4286231075E+00  8.2881412885E+00
                       6.8031064335E+00  3.2988287037E+00  3.4738409089E+00
                       5.2518965582E+00  1.0831875327E+00  8.0224557652E+00
                       2.2123565059E+00  7.7721381807E-02  5.5782855728E+00
                       1.0347234916E+01  2.5426309488E+00  5.2319797220E+00
            xcart      9.8178552111E+00  5.6101380413E+00  8.7388796275E+00
                       1.2455191854E+01  4.4428755781E+00  1.3676108177E+01
                       1.6138163795E+01  5.4977788589E+00  8.4028726750E+00
                       7.0884172136E+00  1.2261724403E+00  1.2715703704E+01
                       1.1738480453E+01  2.9249013931E+00  1.0389081685E+01
                       1.7549839341E+01  4.5894325532E+00  1.5662317186E+01
                       1.2856008012E+01  6.2338828093E+00  6.5646079471E+00
                       9.9246461733E+00  2.0469277874E+00  1.5160244309E+01
                       4.1807479044E+00  1.4687212628E-01  1.0541432024E+01
                       1.9553440225E+01  4.8048761503E+00  9.8870088074E+00
             xred      6.5838166667E-02  8.4260033333E-01  6.6728633333E-01
                       4.2427516667E-01  6.6728633333E-01  8.4260033333E-01
                       5.8271366667E-01  8.2572483333E-01  1.8416183333E-01
                       4.0739966667E-01  1.8416183333E-01  8.2572483333E-01
                       5.6070191667E-01  4.3929808333E-01  4.3929808333E-01
                       8.1070191667E-01  6.8929808333E-01  6.8929808333E-01
                       2.2794091667E-01  9.3628208333E-01  3.0743308333E-01
                       5.2834391667E-01  3.0743308333E-01  9.3628208333E-01
                       3.1371791667E-01  2.2059083333E-02  7.2165608333E-01
                       9.4256691667E-01  7.2165608333E-01  2.2059083333E-02
            znucl       79.00000    8.00000

- Timing analysis has been suppressed with timopt=0

 Suggested references for the acknowledgment of ABINIT usage.

 Calculation completed.
.Delivered   3 WARNINGs and   5 COMMENTs to log file.