.Version 9.5.2 of ABINIT

 ABINIT is a project of the Universite Catholique de Louvain,
 Corning Inc. and other collaborators, see ~abinit/doc/developers/contributors.txt .
 acknowledgments of the ABINIT effort.

.Starting date : Mon 31 May 2021.
- ( at 22h56 )

- input  file    -> /scratch/users/j/a/jabreu/flow_simple_11atoms/flow/w390/t1/run.abi
- output file    -> /scratch/users/j/a/jabreu/flow_simple_11atoms/flow/w390/t1/run.abo
- root for input  files -> /scratch/users/j/a/jabreu/flow_simple_11atoms/flow/w390/t1/indata/in
- root for output files -> /scratch/users/j/a/jabreu/flow_simple_11atoms/flow/w390/t1/outdata/out

 Symmetries : space group I4 c m (#108); Bravais tI (body-center tetrag.)
     intxc =       0      iscf =       7    lmnmax =      18     lnmax =       6
     mgfft =      90  mpssoang =       3    mqgrid =    3314     natom =      14
  nloc_mem =       1    nspden =       1   nspinor =       1    nsppol =       1
      nsym =       8    n1xccc =    2501    ntypat =       3    occopt =       1
   xclevel =       2
-    mband =          59        mffmem =           1         mkmem =           2
-   mkqmem =           2        mk1mem =           2           mpw =       24821
      nfft =      729000          nkpt =           2
  Rough estimation (10% accuracy) of disk space for files :

------------- Echo of variables that govern the present computation ------------
-
- outvars: echo of selected default values
-   iomode0 =  0 , fftalg0 =512 , wfoptalg0 =  0
-
- outvars: echo of global parameters not present in the input file
-  max_nthreads =    0
-
 -outvars: echo values of preprocessed input variables --------
            acell      1.0000000000E+00  1.0000000000E+00  1.0000000000E+00 Bohr
              amu      3.90983000E+01  1.40067400E+01  1.59994000E+01
             ecut      4.40000000E+01 Hartree
-          fftalg         512
           irdden           1
           irdwfk           1
           istwfk        1    1
              ixc     -116133
              kpt      0.00000000E+00  0.00000000E+00  0.00000000E+00
                       0.00000000E+00  0.00000000E+00  5.00000000E-01
           kptopt           0
P           mkmem           2
P          mkqmem           2
P          mk1mem           2
            natom          14
            nband          59
           nbdbuf           4
            ngfft          90      90      90
             nkpt           2
            nstep        2000
             nsym           8
           ntypat           3
              occ      2.000000  2.000000  2.000000  2.000000  2.000000  2.000000
                       2.000000  2.000000  2.000000  2.000000  2.000000  2.000000
                       2.000000  2.000000  2.000000  2.000000  2.000000  2.000000
                       2.000000  2.000000  2.000000  2.000000  2.000000  2.000000
                       2.000000  2.000000  2.000000  2.000000  2.000000  2.000000
                       2.000000  2.000000  2.000000  2.000000  2.000000  2.000000
                       2.000000  2.000000  2.000000  2.000000  2.000000  2.000000
                       2.000000  2.000000  2.000000  2.000000  2.000000  2.000000
                       2.000000  2.000000  0.000000  0.000000  0.000000  0.000000
                       0.000000  0.000000  0.000000  0.000000  0.000000
        optdriver           1
            prtwf          -1
            rfdir           1       1       1
           rfelfd           2
            rprim      1.1729379719E+01  0.0000000000E+00 -6.9688799769E+00
                      -3.7981412033E+00  1.1097408346E+01 -6.9688799769E+00
                       0.0000000000E+00  0.0000000000E+00  1.3643446659E+01
          spgroup         108
           symrel      1  0  0   0  1  0   0  0  1       1  1  1   0  0 -1   0 -1  0
                       0  1  0   1  0  0  -1 -1 -1       0  0 -1   1  1  1  -1  0  0
                       0  1  0   1  0  0   0  0  1       1  1  1   0  0 -1  -1  0  0
                       1  0  0   0  1  0  -1 -1 -1       0  0 -1   1  1  1   0 -1  0
            tnons      0.0000000  0.0000000  0.0000000     0.5000000  0.5000000  0.0000000
                      -0.0000000  0.0000000  0.0000000     0.5000000  0.5000000 -0.0000000
                       0.5000000  0.5000000  0.0000000     0.0000000  0.0000000  0.0000000
                       0.5000000  0.5000000  0.0000000    -0.0000000 -0.0000000 -0.0000000
           tolwfr      1.00000000E-20
            typat      1  1  1  1  1  1  2  2  3  3  3  3  3  3
           useylm           1
              wtk        0.50000    0.50000
           xangst      3.6041158806E+00  3.9640695779E+00 -1.8268570342E+00
                       2.5098716546E-01  4.6935509777E+00 -3.1541227285E+00
                       3.8380371061E+00  1.0278217923E+00  3.1881811132E+00
                       4.8490839099E-01  1.7573031922E+00  1.8609154189E+00
                       1.0292839957E+00  1.4401766864E+00 -1.8087860084E+00
                       3.1277993250E+00  4.3764244719E+00 -5.4965584616E+00
                      -1.0529457011E-01  4.1950407012E+00  1.8503672978E-01
                       4.0031105190E+00  1.2587929157E+00  1.8503672978E-01
                       4.7268580276E+00  2.2714622013E+00  4.4543946343E-01
                       3.8361201124E+00  1.0251395300E+00 -1.0537689134E+00
                       2.0933739667E+00  2.9290539785E+00 -3.6787374107E+00
                       4.1918892960E+00  5.8653017640E+00 -7.3665098638E+00
                      -6.9884488536E-01  5.2077099869E+00 -3.0416472499E-01
                       1.0450128471E+00  3.9613873156E+00 -3.0416472499E-01
            xcart      6.8107919655E+00  7.4910058739E+00 -3.4522594786E+00
                       4.7429700559E-01  8.8695259387E+00 -5.9604281463E+00
                       7.2528390184E+00  1.9423017009E+00  6.0247891660E+00
                       9.1634405851E-01  3.3208217657E+00  3.5166204983E+00
                       1.9450648649E+00  2.7215395202E+00 -3.4181101888E+00
                       5.9106841229E+00  8.2702436932E+00 -1.0386990166E+01
                      -1.9897790079E-01  7.9274780416E+00  3.4966874381E-01
                       7.5647825605E+00  2.3787738686E+00  3.4966874381E-01
                       8.9324671411E+00  4.2924414817E+00  8.4175859466E-01
                       7.2492164252E+00  1.9372329597E+00 -1.9913346537E+00
                       3.9559034908E+00  5.5351098478E+00 -6.9518062210E+00
                       7.9215227488E+00  1.1083814021E+01 -1.3920686198E+01
                      -1.3206254427E+00  9.8411456547E+00 -5.7478802952E-01
                       1.9747880865E+00  7.4859371327E+00 -5.7478802952E-01
             xred      7.9924300000E-01  6.7502300000E-01  5.0000000000E-01
                       2.9924300000E-01  7.9924300000E-01  1.2422000000E-01
                       6.7502300000E-01  1.7502300000E-01  8.7578000000E-01
                       1.7502300000E-01  2.9924300000E-01  5.0000000000E-01
                       2.4524100000E-01  2.4524100000E-01  1.3877787808E-16
                       7.4524100000E-01  7.4524100000E-01  1.3877787808E-16
                       2.1435400000E-01  7.1435400000E-01  5.0000000000E-01
                       7.1435400000E-01  2.1435400000E-01  5.0000000000E-01
                       8.8679675000E-01  3.8679675000E-01  7.1223050000E-01
                       6.7456625000E-01  1.7456625000E-01  2.8776950000E-01
                       4.9877500000E-01  4.9877500000E-01  1.3877787808E-16
                       9.9877500000E-01  9.9877500000E-01  1.3877787808E-16
                       1.7456625000E-01  8.8679675000E-01  5.0000000000E-01
                       3.8679675000E-01  6.7456625000E-01  5.0000000000E-01
            znucl       19.00000    7.00000    8.00000

 chkinp: Checking input parameters for consistency.

== DATASET  1 ==================================================================
-   mpi_nproc: 1, omp_nthreads: -1 (-1 if OMP is not activated)

--- !DatasetInfo
iteration_state: {dtset: 1, }
dimensions: {natom: 14, nkpt: 2, mband: 59, nsppol: 1, nspinor: 1, nspden: 1, mpw: 24821, }
cutoff_energies: {ecut:  44.0, pawecutdg:  -1.0, }
electrons: {nelect:   1.00000000E+02, charge:   0.00000000E+00, occopt:   1.00000000E+00, tsmear:   1.00000000E-02, }
meta: {optdriver: 1, rfelfd: 2, }
...

 Real(R)+Recip(G) space primitive vectors, cartesian coordinates (Bohr,Bohr^-1):
 R(1)= 11.7293797  0.0000000 -6.9688800  G(1)=  0.0852560  0.0291793  0.0000000
 R(2)= -3.7981412 11.0974083 -6.9688800  G(2)=  0.0000000  0.0901111  0.0000000
 R(3)=  0.0000000  0.0000000 13.6434467  G(3)=  0.0435476  0.0609319  0.0732953
 Unit cell volume ucvol=  1.7759090E+03 bohr^3
 Angles (23,13,12)=  1.20716191E+02  1.20716191E+02  8.87639327E+01 degrees

 getcut: wavevector=  0.0000  0.0000  0.0000  ngfft=  90  90  90
         ecut(hartree)=     44.000   => boxcut(ratio)=   2.20916

 getcut : COMMENT -
  Note that boxcut > 2.2 ; recall that boxcut=Gcut(box)/Gcut(sphere) = 2
  is sufficient for exact treatment of convolution.
  Such a large boxcut is a waste : you could raise ecut
  e.g. ecut=   53.684235 Hartrees makes boxcut=2

--- Pseudopotential description ------------------------------------------------
- pspini: atom type   1  psp file is /scratch/users/j/a/jabreu/pseudos/PBEsol/K.psp8
- pspatm: opening atomic psp file    /scratch/users/j/a/jabreu/pseudos/PBEsol/K.psp8
- K     ONCVPSP-3.3.0  r_core=   1.36296   1.46408   1.61068
- 19.00000   9.00000    180112                znucl, zion, pspdat
    8 -116133    2    4       400   0.00000   pspcod,pspxc,lmax,lloc,mmax,r2well
    3.99000000000000    5.00000000000000    0.00000000000000   rchrg,fchrg,qchrg
     nproj     2     2     2
     extension_switch     1
  pspatm : epsatm=    8.32487830
         --- l  ekb(1:nproj) -->
             0   10.921326    0.816676
             1    4.431000    0.560368
             2   -3.384038   -1.043186
 pspatm: atomic psp has been read  and splines computed

- pspini: atom type   2  psp file is /scratch/users/j/a/jabreu/pseudos/PBEsol/N.psp8
- pspatm: opening atomic psp file    /scratch/users/j/a/jabreu/pseudos/PBEsol/N.psp8
- N     ONCVPSP-3.3.0  r_core=   1.20551   1.35824
-  7.00000   5.00000    180112                znucl, zion, pspdat
    8 -116133    1    4       600   0.00000   pspcod,pspxc,lmax,lloc,mmax,r2well
    5.99000000000000    4.00000000000000    0.00000000000000   rchrg,fchrg,qchrg
     nproj     2     2
     extension_switch     1
  pspatm : epsatm=    5.26508895
         --- l  ekb(1:nproj) -->
             0    7.464189    0.625868
             1   -4.309714   -1.012941
 pspatm: atomic psp has been read  and splines computed

- pspini: atom type   3  psp file is /scratch/users/j/a/jabreu/pseudos/PBEsol/O.psp8
- pspatm: opening atomic psp file    /scratch/users/j/a/jabreu/pseudos/PBEsol/O.psp8
- O     ONCVPSP-3.3.0  r_core=   1.35509   1.45563   1.26150
-  8.00000   6.00000    180112                znucl, zion, pspdat
    8 -116133    2    4       600   0.00000   pspcod,pspxc,lmax,lloc,mmax,r2well
[...]
 1,2,3: 0th-order hamiltonian combined with 1st-order wavefunctions
     kin0=   5.26626701E+01 eigvalue=   4.34584514E+00  local=  -2.86309391E+01
 4,5,6: 1st-order hamiltonian combined with 1st and 0th-order wfs
     kin1=  -6.43285547E+01  Hartree=   0.00000000E+00     xc=   0.00000000E+00
 7,8,9: eventually, occupation + non-local contributions
    edocc=   3.17818773E+00     enl0=  -9.44994772E-01   enl1=   3.10701666E+00
 1-9 gives the relaxation energy (to be shifted if some occ is /=2.0)
   erelax=  -3.06107690E+01
  No Ewald or frozen-wf contrib.: the relaxation energy is the total one
 2DEtotal=   -0.3061076903E+02 Ha. Also 2DEtotal=   -0.832961386271E+03 eV
    (  non-var. 2DEtotal :   -3.0610769028E+01 Ha)

 Perturbation wavevector (in red.coord.)   0.000000  0.000000  0.000000
 Perturbation : derivative vs k along direction   2
 The set of symmetries contains only one element for this perturbation.
 symkpt : not enough symmetry to change the number of k points.

[...]

 Perturbation wavevector (in red.coord.)   0.000000  0.000000  0.000000
 Perturbation : derivative vs k along direction   3
 The set of symmetries contains only one element for this perturbation.
 symkpt : not enough symmetry to change the number of k points.

 Initialisation of the first-order wave-functions :
  ireadwf=   0

--- !BeginCycle
iteration_state: {dtset: 1, }
solver: {iscf: 7, nstep: 2000, nline: 4, wfoptalg: 0, }
tolerances: {tolwfr: 1.00E-20, }
...

     iter   2DEtotal(Ha)        deltaE(Ha) residm    vres2
-ETOT  1  -41.429396163332     -4.143E+01 1.570E-01 0.000E+00
 ETOT  2  -41.584630840836     -1.552E-01 6.554E-03 0.000E+00
 ETOT  3  -41.586399656706     -1.769E-03 1.564E-03 0.000E+00
 ETOT  4  -41.586430885570     -3.123E-05 1.464E-04 0.000E+00
 ETOT  5  -41.586431579608     -6.940E-07 5.865E-05 0.000E+00
 ETOT  6  -41.586431597176     -1.757E-08 6.161E-06 0.000E+00
 ETOT  7  -41.586431597668     -4.920E-10 2.595E-06 0.000E+00
 ETOT  8  -41.586431597683     -1.502E-11 2.837E-07 0.000E+00
 ETOT  9  -41.586431597684     -4.405E-13 1.189E-07 0.000E+00
 ETOT 10  -41.586431597684     -4.263E-14 1.325E-08 0.000E+00
 ETOT 11  -41.586431597684      2.842E-14 5.528E-09 0.000E+00
 ETOT 12  -41.586431597684      7.105E-15 6.237E-10 0.000E+00
 ETOT 13  -41.586431597684     -4.263E-14 2.592E-10 0.000E+00
 ETOT 14  -41.586431597684      7.105E-15 2.956E-11 0.000E+00
 ETOT 15  -41.586431597684     -1.421E-14 1.224E-11 0.000E+00
 ETOT 16  -41.586431597684      1.421E-14 1.409E-12 0.000E+00
 ETOT 17  -41.586431597684      7.105E-15 5.807E-13 0.000E+00
 ETOT 18  -41.586431597684      0.000E+00 6.745E-14 0.000E+00
 ETOT 19  -41.586431597684     -7.105E-15 2.768E-14 0.000E+00
 ETOT 20  -41.586431597684      1.421E-14 3.241E-15 0.000E+00
 ETOT 21  -41.586431597684      7.105E-15 1.325E-15 0.000E+00
 ETOT 22  -41.586431597684     -7.105E-15 1.562E-16 0.000E+00
 ETOT 23  -41.586431597684      0.000E+00 6.362E-17 0.000E+00
 ETOT 24  -41.586431597684      7.105E-15 7.551E-18 0.000E+00
 ETOT 25  -41.586431597684     -7.105E-15 3.064E-18 0.000E+00
 ETOT 26  -41.586431597684     -1.421E-14 3.658E-19 0.000E+00
 ETOT 27  -41.586431597684      0.000E+00 1.480E-19 0.000E+00
 ETOT 28  -41.586431597684      1.421E-14 1.775E-20 0.000E+00
 ETOT 29  -41.586431597684      0.000E+00 9.881E-21 0.000E+00

 At SCF step   29   max residual=  9.88E-21 < tolwfr=  1.00E-20 =>converged.

 ----iterations are completed or convergence reached----

 dfpt_looppert: DFPT cycle converged with prtwf=-1. Will skip output of the 1st-order WFK file.
 dfpt_looppert : ek2=    8.6704683828E+01
          f-sum rule ratio=    1.0092355075E+00
 prteigrs : about to open file /scratch/users/j/a/jabreu/flow_simple_11atoms/flow/w390/t1/tmpdata/tmp_1WF1_EIG
 Expectation of eigenvalue derivatives (hartree) for nkpt=   2  k points:
  (in case of degenerate eigenvalues, averaged derivative)
 kpt#   1, nband= 59, wtk=  0.50000, kpt=  0.0000  0.0000  0.0000 (reduced coord)
   0.00000   -0.00000   -0.00000   -0.00000    0.00000   -0.00000    0.00000   -0.00000
   0.00000    0.00000   -0.00000    0.00000    0.00000   -0.00000   -0.00000   -0.00000
  -0.00000   -0.00000   -0.00000   -0.00000   -0.00000    0.00000    0.00000    0.00000
   0.00000    0.00000    0.00000   -0.00000    0.00000    0.00000    0.00000   -0.00000
  -0.00000   -0.00000    0.00000    0.00000   -0.00000   -0.00000   -0.00000    0.00000
   0.00000    0.00000   -0.00000    0.00000    0.00000    0.00000    0.00000   -0.00000
  -0.00000    0.00000    0.00000    0.00000    0.00000   -0.00000   -0.00000   -0.00000
  -0.00000   -0.00007    0.00009
 prteigrs : prtvol=0 or 1, do not print more k-points.

 Eight components of 2nd-order total energy (hartree) are
 1,2,3: 0th-order hamiltonian combined with 1st-order wavefunctions
     kin0=   7.21348028E+01 eigvalue=   5.82165600E+00  local=  -3.93829481E+01
 4,5,6: 1st-order hamiltonian combined with 1st and 0th-order wfs
     kin1=  -8.75054456E+01  Hartree=   0.00000000E+00     xc=   0.00000000E+00
 7,8,9: eventually, occupation + non-local contributions
    edocc=   4.57095156E+00     enl0=  -1.55803071E+00   enl1=   4.33258239E+00
 1-9 gives the relaxation energy (to be shifted if some occ is /=2.0)
   erelax=  -4.15864316E+01
  No Ewald or frozen-wf contrib.: the relaxation energy is the total one
 2DEtotal=   -0.4158643160E+02 Ha. Also 2DEtotal=   -0.113162435357E+04 eV
    (  non-var. 2DEtotal :   -4.1586431597E+01 Ha)

 CALCULATION OF EFFECTIVE MASSES
 NOTE : Additional infos (eff. mass eigenvalues, eigenvectors and, if degenerate, average mass) are available in stdout.

 K-point ( 0.000, 0.000, 0.000) | band =    50
 Effective mass tensor:
             -4.0417439907              0.9405082646             -1.1811896764
              0.9405082646             -3.3979738500             -1.6527153591
             -1.1811896764             -1.6527153591             -2.6381238662
 Effective mass tensor eigenvalues:
             -4.7139242870             -4.7138539938             -0.6500634261
 Angular average effective mass 1/(<1/m>)=  -1.5285926718
 Angular average effective mass for Frohlich model (<m**0.5>)**2=  -2.0462801796
 Effective masses along directions: (cart. coord. / red. coord. -> eff. mass)
    1:   1.000000  0.000000  0.000000 /   0.951365 -0.308066  0.000000 ->  -2.3175585956
    2:   0.000000  1.000000  0.000000 /   0.000000  1.000000  0.000000 ->  -1.5586764732
    3:   0.000000  0.000000  1.000000 /  -0.414056 -0.414056  0.810626 ->  -1.1241878664
    4:   0.577350  0.577350  0.577350 /   0.329358  0.022858  0.943929 ->  -4.1277151336
    5:   0.000000  0.707107  0.707107 /  -0.439213  0.260200  0.859877 ->  -4.4207425664
    6:   0.707107  0.000000  0.707107 /   0.264173 -0.597491  0.757111 ->  -3.6358095739
    7:   0.707107  0.707107  0.000000 /   0.849025  0.528353  0.000000 ->  -1.1856155957

 K-point ( 0.000, 0.000, 0.500) | band =    51
 Effective mass tensor:
              6.6178437514              1.7378593306             -3.8264312921
              1.7378593306              7.8073566719             -5.3539649945
             -3.8264312921             -5.3539649945              9.3331155844
 Effective mass tensor eigenvalues:
              2.6089681297              5.3757849520             15.7735629259
 Angular average effective mass 1/(<1/m>)=   4.7415097838
 Angular average effective mass for Frohlich model (<m**0.5>)**2=   5.4387357448
 Effective masses along directions: (cart. coord. / red. coord. -> eff. mass)
    1:   1.000000  0.000000  0.000000 /   0.951365 -0.308066  0.000000 ->   5.0049337910
    2:   0.000000  1.000000  0.000000 /   0.000000  1.000000  0.000000 ->   4.6946443954
    3:   0.000000  0.000000  1.000000 /  -0.414056 -0.414056  0.810626 ->   4.5475559276
    4:   0.577350  0.577350  0.577350 /   0.329358  0.022858  0.943929 ->   2.6846919998
    5:   0.000000  0.707107  0.707107 /  -0.439213  0.260200  0.859877 ->   2.8855528671
    6:   0.707107  0.000000  0.707107 /   0.264173 -0.597491  0.757111 ->   3.3021724059
    7:   0.707107  0.707107  0.000000 /   0.849025  0.528353  0.000000 ->   4.4307926003

 END OF EFFECTIVE MASSES SECTION

 ---- first-order wavefunction calculations are completed ----

 Total localisation tensor (bohr^2) in cartesian coordinates
  WARNING : still subject to testing - especially symmetries.
      direction              matrix element
   alpha     beta       real part   imaginary part
     1        1       0.8944571992    0.0000000000
     1        2      -0.2480253177    0.0000000000
     1        3      -0.3252432229    0.0000000000
     2        1      -0.2480253177    0.0000000000
     2        2       0.7246803326    0.0000000000
     2        3      -0.4550801505    0.0000000000
     3        1      -0.3252432229    0.0000000000
     3        2      -0.4550801505    0.0000000000
     3        3       2.2009179893    0.0000000000

 respfn : d/dk was computed, but no 2DTE, so no DDB output.

== END DATASET(S) ==============================================================

 -outvars: echo values of variables after computation  --------
            acell      1.0000000000E+00  1.0000000000E+00  1.0000000000E+00 Bohr
              amu      3.90983000E+01  1.40067400E+01  1.59994000E+01
             ecut      4.40000000E+01 Hartree
           etotal     -4.1586431598E+01
            fcart      0.0000000000E+00  0.0000000000E+00  0.0000000000E+00
                       0.0000000000E+00  0.0000000000E+00  0.0000000000E+00
                       0.0000000000E+00  0.0000000000E+00  0.0000000000E+00
                       0.0000000000E+00  0.0000000000E+00  0.0000000000E+00
                       0.0000000000E+00  0.0000000000E+00  0.0000000000E+00
                       0.0000000000E+00  0.0000000000E+00  0.0000000000E+00
                       0.0000000000E+00  0.0000000000E+00  0.0000000000E+00
                       0.0000000000E+00  0.0000000000E+00  0.0000000000E+00
                       0.0000000000E+00  0.0000000000E+00  0.0000000000E+00
                       0.0000000000E+00  0.0000000000E+00  0.0000000000E+00
                       0.0000000000E+00  0.0000000000E+00  0.0000000000E+00
                       0.0000000000E+00  0.0000000000E+00  0.0000000000E+00
                       0.0000000000E+00  0.0000000000E+00  0.0000000000E+00
                       0.0000000000E+00  0.0000000000E+00  0.0000000000E+00
-          fftalg         512
           irdden           1
           irdwfk           1
           istwfk        1    1
              ixc     -116133
              kpt      0.00000000E+00  0.00000000E+00  0.00000000E+00
                       0.00000000E+00  0.00000000E+00  5.00000000E-01
           kptopt           0
P           mkmem           2
P          mkqmem           2
P          mk1mem           2
            natom          14
            nband          59
           nbdbuf           4
            ngfft          90      90      90
             nkpt           2
            nstep        2000
             nsym           8
           ntypat           3
              occ      2.000000  2.000000  2.000000  2.000000  2.000000  2.000000
                       2.000000  2.000000  2.000000  2.000000  2.000000  2.000000
                       2.000000  2.000000  2.000000  2.000000  2.000000  2.000000
                       2.000000  2.000000  2.000000  2.000000  2.000000  2.000000
                       2.000000  2.000000  2.000000  2.000000  2.000000  2.000000
                       2.000000  2.000000  2.000000  2.000000  2.000000  2.000000
                       2.000000  2.000000  2.000000  2.000000  2.000000  2.000000
                       2.000000  2.000000  2.000000  2.000000  2.000000  2.000000
                       2.000000  2.000000  0.000000  0.000000  0.000000  0.000000
                       0.000000  0.000000  0.000000  0.000000  0.000000
        optdriver           1
            prtwf          -1
            rfdir           1       1       1
           rfelfd           2
            rprim      1.1729379719E+01  0.0000000000E+00 -6.9688799769E+00
                      -3.7981412033E+00  1.1097408346E+01 -6.9688799769E+00
                       0.0000000000E+00  0.0000000000E+00  1.3643446659E+01
          spgroup         108
           strten      0.0000000000E+00  0.0000000000E+00  0.0000000000E+00
                       0.0000000000E+00  0.0000000000E+00  0.0000000000E+00
           symrel      1  0  0   0  1  0   0  0  1       1  1  1   0  0 -1   0 -1  0
                       0  1  0   1  0  0  -1 -1 -1       0  0 -1   1  1  1  -1  0  0
                       0  1  0   1  0  0   0  0  1       1  1  1   0  0 -1  -1  0  0
                       1  0  0   0  1  0  -1 -1 -1       0  0 -1   1  1  1   0 -1  0
            tnons      0.0000000  0.0000000  0.0000000     0.5000000  0.5000000  0.0000000
                      -0.0000000  0.0000000  0.0000000     0.5000000  0.5000000 -0.0000000
                       0.5000000  0.5000000  0.0000000     0.0000000  0.0000000  0.0000000
                       0.5000000  0.5000000  0.0000000    -0.0000000 -0.0000000 -0.0000000
           tolwfr      1.00000000E-20
            typat      1  1  1  1  1  1  2  2  3  3  3  3  3  3
           useylm           1
              wtk        0.50000    0.50000
           xangst      3.6041158806E+00  3.9640695779E+00 -1.8268570342E+00
                       2.5098716546E-01  4.6935509777E+00 -3.1541227285E+00
                       3.8380371061E+00  1.0278217923E+00  3.1881811132E+00
                       4.8490839099E-01  1.7573031922E+00  1.8609154189E+00
                       1.0292839957E+00  1.4401766864E+00 -1.8087860084E+00
                       3.1277993250E+00  4.3764244719E+00 -5.4965584616E+00
                      -1.0529457011E-01  4.1950407012E+00  1.8503672978E-01
                       4.0031105190E+00  1.2587929157E+00  1.8503672978E-01
                       4.7268580276E+00  2.2714622013E+00  4.4543946343E-01
                       3.8361201124E+00  1.0251395300E+00 -1.0537689134E+00
                       2.0933739667E+00  2.9290539785E+00 -3.6787374107E+00
                       4.1918892960E+00  5.8653017640E+00 -7.3665098638E+00
                      -6.9884488536E-01  5.2077099869E+00 -3.0416472499E-01
                       1.0450128471E+00  3.9613873156E+00 -3.0416472499E-01
            xcart      6.8107919655E+00  7.4910058739E+00 -3.4522594786E+00
                       4.7429700559E-01  8.8695259387E+00 -5.9604281463E+00
                       7.2528390184E+00  1.9423017009E+00  6.0247891660E+00
                       9.1634405851E-01  3.3208217657E+00  3.5166204983E+00
                       1.9450648649E+00  2.7215395202E+00 -3.4181101888E+00
                       5.9106841229E+00  8.2702436932E+00 -1.0386990166E+01
                      -1.9897790079E-01  7.9274780416E+00  3.4966874381E-01
                       7.5647825605E+00  2.3787738686E+00  3.4966874381E-01
                       8.9324671411E+00  4.2924414817E+00  8.4175859466E-01
                       7.2492164252E+00  1.9372329597E+00 -1.9913346537E+00
                       3.9559034908E+00  5.5351098478E+00 -6.9518062210E+00
                       7.9215227488E+00  1.1083814021E+01 -1.3920686198E+01
                      -1.3206254427E+00  9.8411456547E+00 -5.7478802952E-01
                       1.9747880865E+00  7.4859371327E+00 -5.7478802952E-01
             xred      7.9924300000E-01  6.7502300000E-01  5.0000000000E-01
                       2.9924300000E-01  7.9924300000E-01  1.2422000000E-01
                       6.7502300000E-01  1.7502300000E-01  8.7578000000E-01
                       1.7502300000E-01  2.9924300000E-01  5.0000000000E-01
                       2.4524100000E-01  2.4524100000E-01  1.3877787808E-16
                       7.4524100000E-01  7.4524100000E-01  1.3877787808E-16
                       2.1435400000E-01  7.1435400000E-01  5.0000000000E-01
                       7.1435400000E-01  2.1435400000E-01  5.0000000000E-01
                       8.8679675000E-01  3.8679675000E-01  7.1223050000E-01
                       6.7456625000E-01  1.7456625000E-01  2.8776950000E-01
                       4.9877500000E-01  4.9877500000E-01  1.3877787808E-16
                       9.9877500000E-01  9.9877500000E-01  1.3877787808E-16
                       1.7456625000E-01  8.8679675000E-01  5.0000000000E-01
                       3.8679675000E-01  6.7456625000E-01  5.0000000000E-01
            znucl       19.00000    7.00000    8.00000

- Timing analysis has been suppressed with timopt=0

 Suggested references for the acknowledgment of ABINIT usage.

 Calculation completed.
.Delivered   2 WARNINGs and  11 COMMENTs to log file.