.Version 9.5.2 of ABINIT

 ABINIT is a project of the Universite Catholique de Louvain,
 Corning Inc. and other collaborators, see ~abinit/doc/developers/contributors.txt .
 acknowledgments of the ABINIT effort.

.Starting date : Wed 26 May 2021.
- ( at 02h47 )

- input  file    -> /scratch/users/j/a/jabreu/flow_simple_11atoms/flow/w258/t1/run.abi
- output file    -> /scratch/users/j/a/jabreu/flow_simple_11atoms/flow/w258/t1/run.abo
- root for input  files -> /scratch/users/j/a/jabreu/flow_simple_11atoms/flow/w258/t1/indata/in
- root for output files -> /scratch/users/j/a/jabreu/flow_simple_11atoms/flow/w258/t1/outdata/out

 Symmetries : space group P2_1/c (# 14); Bravais mP (primitive monocl.)
     intxc =       0      iscf =       7    lmnmax =      18     lnmax =       6
     mgfft =      60  mpssoang =       3    mqgrid =    3001     natom =      12
  nloc_mem =       1    nspden =       1   nspinor =       1    nsppol =       1
      nsym =       4    n1xccc =    2501    ntypat =       2    occopt =       1
   xclevel =       2
-    mband =          57        mffmem =           1         mkmem =           2
-   mkqmem =           2        mk1mem =           2           mpw =       13091
      nfft =      216000          nkpt =           2
  Rough estimation (10% accuracy) of disk space for files :

------------- Echo of variables that govern the present computation ------------
-
- outvars: echo of selected default values
-   iomode0 =  0 , fftalg0 =512 , wfoptalg0 =  0
-
- outvars: echo of global parameters not present in the input file
-  max_nthreads =    0
-
 -outvars: echo values of preprocessed input variables --------
            acell      1.0000000000E+00  1.0000000000E+00  1.0000000000E+00 Bohr
              amu      9.12240000E+01  1.59994000E+01
             ecut      4.40000000E+01 Hartree
-          fftalg         512
           irdden           1
           irdwfk           1
           istwfk        1    1
              ixc     -116133
              kpt      0.00000000E+00  0.00000000E+00  0.00000000E+00
                       0.00000000E+00  5.00000000E-01  0.00000000E+00
           kptopt           0
P           mkmem           2
P          mkqmem           2
P          mk1mem           2
            natom          12
            nband          57
           nbdbuf           4
            ngfft          60      60      60
             nkpt           2
            nstep        2000
             nsym           4
           ntypat           2
              occ      2.000000  2.000000  2.000000  2.000000  2.000000  2.000000
                       2.000000  2.000000  2.000000  2.000000  2.000000  2.000000
                       2.000000  2.000000  2.000000  2.000000  2.000000  2.000000
                       2.000000  2.000000  2.000000  2.000000  2.000000  2.000000
                       2.000000  2.000000  2.000000  2.000000  2.000000  2.000000
                       2.000000  2.000000  2.000000  2.000000  2.000000  2.000000
                       2.000000  2.000000  2.000000  2.000000  2.000000  2.000000
                       2.000000  2.000000  2.000000  2.000000  2.000000  2.000000
                       0.000000  0.000000  0.000000  0.000000  0.000000  0.000000
                       0.000000  0.000000  0.000000
        optdriver           1
            prtwf          -1
            rfdir           1       1       1
           rfelfd           2
            rprim      9.8434855332E+00  0.0000000000E+00  0.0000000000E+00
                       0.0000000000E+00  9.5514858993E+00  1.6136958690E+00
                       0.0000000000E+00  0.0000000000E+00  1.0003401206E+01
          spgroup          14
           symrel      1  0  0   0  1  0   0  0  1      -1  0  0   0 -1  0   0  0 -1
                       1  0  0   0 -1  0   0  0 -1      -1  0  0   0  1  0   0  0  1
            tnons      0.0000000  0.0000000  0.0000000     0.0000000  0.0000000  0.0000000
                       0.5000000  0.0000000  0.5000000     0.5000000  0.0000000  0.5000000
           tolwfr      1.00000000E-20
            typat      1  1  1  1  2  2  2  2  2  2  2  2
           useylm           1
              wtk        0.50000    0.50000
           xangst      2.2462547311E-01  1.4007944638E+00  4.4211440772E+00
                       2.3798486255E+00  1.4007944638E+00  1.7743581137E+00
                       2.8290995717E+00  3.6536341822E+00  4.3731448886E+00
                       4.9843227241E+00  3.6536341822E+00  1.7263589252E+00
                       4.3570924359E+00  4.7003254840E+00  5.2484936351E+00
                       3.4563298600E+00  4.7003254840E+00  2.6017076716E+00
                       3.8665657842E+00  2.2683719776E+00  4.9107552072E-01
                       1.2620916856E+00  2.7860566684E+00  3.0096415182E+00
                       3.9468565117E+00  2.2683719776E+00  3.1378614842E+00
                       1.3423824131E+00  2.7860566684E+00  5.6564274816E+00
                       1.7526183373E+00  3.5410316209E-01  3.5457953307E+00
                       8.5185576133E-01  3.5410316209E-01  8.9900936728E-01
            xcart      4.2448062665E-01  2.6471179051E+00  8.3547514998E+00
                       4.4972621400E+00  2.6471179051E+00  3.3530508966E+00
                       5.3462233932E+00  6.9043679942E+00  8.2640461789E+00
                       9.4190049066E+00  6.9043679942E+00  3.2623455757E+00
                       8.2337114396E+00  8.8823279002E+00  9.9182155804E+00
                       6.5315168602E+00  8.8823279002E+00  4.9165149772E+00
                       7.3067504069E+00  4.2866018053E+00  9.2799824473E-01
                       2.3850076403E+00  5.2648840940E+00  5.6873982275E+00
                       7.4584778929E+00  4.2866018053E+00  5.9296988480E+00
                       2.5367351263E+00  5.2648840940E+00  1.0689098831E+01
                       3.3119686730E+00  6.6915799913E-01  6.7005820983E+00
                       1.6097740936E+00  6.6915799913E-01  1.6988814951E+00
             xred      4.3123000000E-02  2.7714200000E-01  7.9048400000E-01
                       4.5687700000E-01  2.7714200000E-01  2.9048400000E-01
                       5.4312300000E-01  7.2285800000E-01  7.0951600000E-01
                       9.5687700000E-01  7.2285800000E-01  2.0951600000E-01
                       8.3646300000E-01  9.2994200000E-01  8.4147100000E-01
                       6.6353700000E-01  9.2994200000E-01  3.4147100000E-01
                       7.4229300000E-01  4.4878900000E-01  2.0372000000E-02
                       2.4229300000E-01  5.5121100000E-01  4.7962800000E-01
                       7.5770700000E-01  4.4878900000E-01  5.2037200000E-01
                       2.5770700000E-01  5.5121100000E-01  9.7962800000E-01
                       3.3646300000E-01  7.0058000000E-02  6.5852900000E-01
                       1.6353700000E-01  7.0058000000E-02  1.5852900000E-01
            znucl       40.00000    8.00000

 chkinp: Checking input parameters for consistency.

== DATASET  1 ==================================================================
-   mpi_nproc: 1, omp_nthreads: -1 (-1 if OMP is not activated)

--- !DatasetInfo
iteration_state: {dtset: 1, }
dimensions: {natom: 12, nkpt: 2, mband: 57, nsppol: 1, nspinor: 1, nspden: 1, mpw: 13091, }
cutoff_energies: {ecut:  44.0, pawecutdg:  -1.0, }
electrons: {nelect:   9.60000000E+01, charge:   0.00000000E+00, occopt:   1.00000000E+00, tsmear:   1.00000000E-02, }
meta: {optdriver: 1, rfelfd: 2, }
...

 Real(R)+Recip(G) space primitive vectors, cartesian coordinates (Bohr,Bohr^-1):
 R(1)=  9.8434855  0.0000000  0.0000000  G(1)=  0.1015900  0.0000000  0.0000000
 R(2)=  0.0000000  9.5514859  1.6136959  G(2)=  0.0000000  0.1046958  0.0000000
 R(3)=  0.0000000  0.0000000 10.0034012  G(3)=  0.0000000 -0.0168890  0.0999660
 Unit cell volume ucvol=  9.4051891E+02 bohr^3
 Angles (23,13,12)=  8.04105970E+01  9.00000000E+01  9.00000000E+01 degrees

 getcut: wavevector=  0.0000  0.0000  0.0000  ngfft=  60  60  60
         ecut(hartree)=     44.000   => boxcut(ratio)=   2.00872

--- Pseudopotential description ------------------------------------------------
- pspini: atom type   1  psp file is /scratch/users/j/a/jabreu/pseudos/PBEsol/Zr.psp8
- pspatm: opening atomic psp file    /scratch/users/j/a/jabreu/pseudos/PBEsol/Zr.psp8
- Zr    ONCVPSP-3.3.0  r_core=   1.56507   1.56507   1.51006
- 40.00000  12.00000    180112                znucl, zion, pspdat
    8 -116133    2    4       600   0.00000   pspcod,pspxc,lmax,lloc,mmax,r2well
    5.99000000000000    5.00000000000000    0.00000000000000   rchrg,fchrg,qchrg
     nproj     2     2     2
     extension_switch     1
  pspatm : epsatm=   18.88750170
         --- l  ekb(1:nproj) -->
             0   10.584966    0.890424
             1    5.814585    0.741293
             2    1.525459    0.487901
 pspatm: atomic psp has been read  and splines computed

- pspini: atom type   2  psp file is /scratch/users/j/a/jabreu/pseudos/PBEsol/O.psp8
- pspatm: opening atomic psp file    /scratch/users/j/a/jabreu/pseudos/PBEsol/O.psp8
- O     ONCVPSP-3.3.0  r_core=   1.35509   1.45563   1.26150
-  8.00000   6.00000    180112                znucl, zion, pspdat
    8 -116133    2    4       600   0.00000   pspcod,pspxc,lmax,lloc,mmax,r2well
    5.99000000000000    4.00000000000000    0.00000000000000   rchrg,fchrg,qchrg
     nproj     2     2     1
     extension_switch     1
  pspatm : epsatm=    6.22910522
         --- l  ekb(1:nproj) -->
             0    6.050032    0.820363
             1   -4.739617   -1.153841
             2   -1.335834
 pspatm: atomic psp has been read  and splines computed

   1.20367535E+04                                ecore*ucvol(ha*bohr**3)

 ==>  initialize data related to q vector <==

 The list of irreducible perturbations for this q vector is:
    1)    idir= 1    ipert=  13
    2)    idir= 2    ipert=  13
    3)    idir= 3    ipert=  13

 Perturbation wavevector (in red.coord.)   0.000000  0.000000  0.000000
 Perturbation : derivative vs k along direction   1

 dfpt_looppert : COMMENT -
  In a d/dk calculation, iscf is set to -3 automatically.
 The set of symmetries contains only one element for this perturbation.
 symkpt : not enough symmetry to change the number of k points.

 Initialisation of the first-order wave-functions :
  ireadwf=   0

--- !BeginCycle
iteration_state: {dtset: 1, }
solver: {iscf: 7, nstep: 2000, nline: 4, wfoptalg: 0, }
tolerances: {tolwfr: 1.00E-20, }
...

     iter   2DEtotal(Ha)        deltaE(Ha) residm    vres2
-ETOT  1  -40.872503800429     -4.087E+01 9.456E-02 0.000E+00
 ETOT  2  -41.039971432007     -1.675E-01 1.731E-02 0.000E+00
 ETOT  3  -41.042408840066     -2.437E-03 1.350E-03 0.000E+00
 ETOT  4  -41.042457433781     -4.859E-05 5.560E-04 0.000E+00
 ETOT  5  -41.042458608137     -1.174E-06 9.362E-05 0.000E+00
 ETOT  6  -41.042458640469     -3.233E-08 3.547E-05 0.000E+00
 ETOT  7  -41.042458641457     -9.878E-10 7.180E-06 0.000E+00
 ETOT  8  -41.042458641490     -3.241E-11 2.462E-06 0.000E+00
 ETOT  9  -41.042458641491     -1.023E-12 5.666E-07 0.000E+00
[...]
   0.00000
 prteigrs : prtvol=0 or 1, do not print more k-points.

 Eight components of 2nd-order total energy (hartree) are
 1,2,3: 0th-order hamiltonian combined with 1st-order wavefunctions
     kin0=   8.12775286E+01 eigvalue=  -3.73565874E+00  local=  -4.55193641E+01
 4,5,6: 1st-order hamiltonian combined with 1st and 0th-order wfs
     kin1=  -8.19573414E+01  Hartree=   0.00000000E+00     xc=   0.00000000E+00
 7,8,9: eventually, occupation + non-local contributions
    edocc=   7.72572309E+00     enl0=   1.29422983E+00   enl1=  -1.27575871E-01
 1-9 gives the relaxation energy (to be shifted if some occ is /=2.0)
   erelax=  -4.10424586E+01
  No Ewald or frozen-wf contrib.: the relaxation energy is the total one
 2DEtotal=   -0.4104245864E+02 Ha. Also 2DEtotal=   -0.111682209665E+04 eV
    (  non-var. 2DEtotal :   -4.1042458641E+01 Ha)

 Perturbation wavevector (in red.coord.)   0.000000  0.000000  0.000000
 Perturbation : derivative vs k along direction   2
 The set of symmetries contains only one element for this perturbation.
 symkpt : not enough symmetry to change the number of k points.

[...]

 Perturbation wavevector (in red.coord.)   0.000000  0.000000  0.000000
 Perturbation : derivative vs k along direction   3
 The set of symmetries contains only one element for this perturbation.
 symkpt : not enough symmetry to change the number of k points.

 Initialisation of the first-order wave-functions :
  ireadwf=   0

--- !BeginCycle
iteration_state: {dtset: 1, }
solver: {iscf: 7, nstep: 2000, nline: 4, wfoptalg: 0, }
tolerances: {tolwfr: 1.00E-20, }
...

     iter   2DEtotal(Ha)        deltaE(Ha) residm    vres2
-ETOT  1  -40.719910777496     -4.072E+01 6.816E-02 0.000E+00
 ETOT  2  -40.931676355054     -2.118E-01 1.739E-02 0.000E+00
 ETOT  3  -40.935027127202     -3.351E-03 3.054E-03 0.000E+00
 ETOT  4  -40.935098457988     -7.133E-05 1.438E-03 0.000E+00
 ETOT  5  -40.935100258919     -1.801E-06 3.348E-04 0.000E+00
 ETOT  6  -40.935100309713     -5.079E-08 1.638E-04 0.000E+00
 ETOT  7  -40.935100311278     -1.564E-09 4.032E-05 0.000E+00
 ETOT  8  -40.935100311329     -5.161E-11 2.136E-05 0.000E+00
 ETOT  9  -40.935100311331     -1.791E-12 5.122E-06 0.000E+00
 ETOT 10  -40.935100311331     -1.492E-13 2.940E-06 0.000E+00
 ETOT 11  -40.935100311331      8.527E-14 6.755E-07 0.000E+00
 ETOT 12  -40.935100311331     -4.974E-14 4.094E-07 0.000E+00
 ETOT 13  -40.935100311331      7.105E-15 9.108E-08 0.000E+00
 ETOT 14  -40.935100311331     -7.105E-15 5.710E-08 0.000E+00
 ETOT 15  -40.935100311331      7.105E-15 1.246E-08 0.000E+00
 ETOT 16  -40.935100311331      1.421E-14 7.967E-09 0.000E+00
 ETOT 17  -40.935100311331     -1.421E-14 1.721E-09 0.000E+00
 ETOT 18  -40.935100311331     -1.421E-14 1.113E-09 0.000E+00
 ETOT 19  -40.935100311331      3.553E-14 2.394E-10 0.000E+00
 ETOT 20  -40.935100311331      0.000E+00 1.556E-10 0.000E+00
 ETOT 21  -40.935100311331     -7.105E-15 3.347E-11 0.000E+00
 ETOT 22  -40.935100311331     -1.421E-14 2.180E-11 0.000E+00
 ETOT 23  -40.935100311331     -1.421E-14 4.697E-12 0.000E+00
 ETOT 24  -40.935100311331      1.421E-14 3.059E-12 0.000E+00
 ETOT 25  -40.935100311331     -1.421E-14 6.608E-13 0.000E+00
 ETOT 26  -40.935100311331      0.000E+00 4.301E-13 0.000E+00
 ETOT 27  -40.935100311331      7.105E-15 9.317E-14 0.000E+00
 ETOT 28  -40.935100311331     -7.105E-15 6.059E-14 0.000E+00
 ETOT 29  -40.935100311331      0.000E+00 1.316E-14 0.000E+00
 ETOT 30  -40.935100311331      1.421E-14 8.550E-15 0.000E+00
 ETOT 31  -40.935100311331      0.000E+00 1.861E-15 0.000E+00
 ETOT 32  -40.935100311331      7.105E-15 1.209E-15 0.000E+00
 ETOT 33  -40.935100311331      7.105E-15 2.636E-16 0.000E+00
 ETOT 34  -40.935100311331      0.000E+00 1.711E-16 0.000E+00
 ETOT 35  -40.935100311331      0.000E+00 3.737E-17 0.000E+00
 ETOT 36  -40.935100311331     -7.105E-15 2.426E-17 0.000E+00
 ETOT 37  -40.935100311331      0.000E+00 5.304E-18 0.000E+00
 ETOT 38  -40.935100311331     -7.105E-15 3.445E-18 0.000E+00
 ETOT 39  -40.935100311331      0.000E+00 7.534E-19 0.000E+00
 ETOT 40  -40.935100311331      1.421E-14 4.896E-19 0.000E+00
 ETOT 41  -40.935100311331      2.132E-14 1.071E-19 0.000E+00
 ETOT 42  -40.935100311331     -1.421E-14 6.967E-20 0.000E+00
 ETOT 43  -40.935100311331     -7.105E-15 1.524E-20 0.000E+00
 ETOT 44  -40.935100311331      0.000E+00 9.981E-21 0.000E+00

 At SCF step   44   max residual=  9.98E-21 < tolwfr=  1.00E-20 =>converged.

 ----iterations are completed or convergence reached----

 dfpt_looppert: DFPT cycle converged with prtwf=-1. Will skip output of the 1st-order WFK file.
 dfpt_looppert : ek2=    7.7909083522E+01
          f-sum rule ratio=    1.0499078834E+00
 prteigrs : about to open file /scratch/users/j/a/jabreu/flow_simple_11atoms/flow/w258/t1/tmpdata/tmp_1WF1_EIG
 Expectation of eigenvalue derivatives (hartree) for nkpt=   2  k points:
  (in case of degenerate eigenvalues, averaged derivative)
 kpt#   1, nband= 57, wtk=  0.50000, kpt=  0.0000  0.0000  0.0000 (reduced coord)
   0.00000   -0.00000   -0.00000    0.00000   -0.00000    0.00000    0.00000    0.00000
  -0.00000    0.00000    0.00000    0.00000    0.00000    0.00000   -0.00000   -0.00000
   0.00000    0.00000   -0.00000    0.00000    0.00000    0.00000   -0.00000    0.00000
   0.00000   -0.00000    0.00000    0.00000   -0.00000   -0.00000   -0.00000    0.00000
   0.00000   -0.00000    0.00000    0.00000    0.00000    0.00000   -0.00000    0.00000
  -0.00000   -0.00000   -0.00000    0.00000    0.00000    0.00000    0.00000    0.00000
  -0.00000   -0.00000   -0.00000    0.00000    0.00000   -0.00000   -0.00000    0.00000
  -0.00000
 prteigrs : prtvol=0 or 1, do not print more k-points.

 Eight components of 2nd-order total energy (hartree) are
 1,2,3: 0th-order hamiltonian combined with 1st-order wavefunctions
     kin0=   8.23220477E+01 eigvalue=  -4.33890047E+00  local=  -4.52082368E+01
 4,5,6: 1st-order hamiltonian combined with 1st and 0th-order wfs
     kin1=  -8.17973610E+01  Hartree=   0.00000000E+00     xc=   0.00000000E+00
 7,8,9: eventually, occupation + non-local contributions
    edocc=   7.10288521E+00     enl0=   1.05730462E+00   enl1=  -7.28396401E-02
 1-9 gives the relaxation energy (to be shifted if some occ is /=2.0)
   erelax=  -4.09351003E+01
  No Ewald or frozen-wf contrib.: the relaxation energy is the total one
 2DEtotal=   -0.4093510031E+02 Ha. Also 2DEtotal=   -0.111390072792E+04 eV
    (  non-var. 2DEtotal :   -4.0935100311E+01 Ha)

 CALCULATION OF EFFECTIVE MASSES
 NOTE : Additional infos (eff. mass eigenvalues, eigenvectors and, if degenerate, average mass) are available in stdout.

 K-point ( 0.000, 0.000, 0.000) | band =    48
 Effective mass tensor:
             -2.0874235059              0.0000000822              0.0000001039
              0.0000000822            -14.3304180720             -3.5989884646
              0.0000001039             -3.5989884646             -2.9058160680
 Effective mass tensor eigenvalues:
            -15.3696428758             -2.0874235059             -1.8665912642
 Angular average effective mass 1/(<1/m>)=  -2.7781412061
 Angular average effective mass for Frohlich model (<m**0.5>)**2=  -3.2831550639
 Effective masses along directions: (cart. coord. / red. coord. -> eff. mass)
    1:   1.000000  0.000000  0.000000 /   1.000000  0.000000  0.000000 ->  -2.0874235059
    2:   0.000000  1.000000  0.000000 /   0.000000  1.000000  0.000000 ->  -9.8729033273
    3:   0.000000  0.000000  1.000000 /   0.000000  0.159256  0.987237 ->  -2.0019542335
    4:   0.577350  0.577350  0.577350 /   0.548877  0.622575  0.557794 ->  -3.6189898048
    5:   0.000000  0.707107  0.707107 /   0.000000  0.744794  0.667295 ->  -5.7159007832
    6:   0.707107  0.000000  0.707107 /   0.696796  0.114229  0.708116 ->  -2.0437956192
    7:   0.707107  0.707107  0.000000 /   0.717671  0.696382  0.000000 ->  -3.4462152958

 K-point ( 0.000, 0.500, 0.000) | band =    49
 Effective mass tensor:
              0.9639858891             -0.0002073495             -0.0008200879
             -0.0002073495              1.5877087116              2.5615519567
             -0.0008200879              2.5615519567             11.9984247494
 Effective mass tensor eigenvalues:
              0.9639858182              0.9915755064             12.5945580254
 Angular average effective mass 1/(<1/m>)=   1.4115952479
 Angular average effective mass for Frohlich model (<m**0.5>)**2=   1.7595845337
 Effective masses along directions: (cart. coord. / red. coord. -> eff. mass)
    1:   1.000000  0.000000  0.000000 /   1.000000  0.000000  0.000000 ->   0.9639858320
    2:   0.000000  1.000000  0.000000 /   0.000000  1.000000  0.000000 ->   1.0408412205
    3:   0.000000  0.000000  1.000000 /   0.000000  0.159256  0.987237 ->   7.8657089891
    4:   0.577350  0.577350  0.577350 /   0.548877  0.622575  0.557794 ->   1.7490464606
    5:   0.000000  0.707107  0.707107 /   0.000000  0.744794  0.667295 ->   2.9512965395
    6:   0.707107  0.000000  0.707107 /   0.696796  0.114229  0.708116 ->   1.7172956329
    7:   0.707107  0.707107  0.000000 /   0.717671  0.696382  0.000000 ->   1.0009081741

 END OF EFFECTIVE MASSES SECTION

 ---- first-order wavefunction calculations are completed ----

 Total localisation tensor (bohr^2) in cartesian coordinates
  WARNING : still subject to testing - especially symmetries.
      direction              matrix element
   alpha     beta       real part   imaginary part
     1        1       0.7981924366    0.0000000000
     1        2       0.0000000000    0.0000000000
     1        3       0.0000000000    0.0000000000
     2        1       0.0000000000    0.0000000000
     2        2       0.7239804750    0.0000000000
     2        3       0.1223144037    0.0000000000
     3        1       0.0000000000    0.0000000000
     3        2       0.1223144037    0.0000000000
     3        3       0.8131782291    0.0000000000

 respfn : d/dk was computed, but no 2DTE, so no DDB output.

== END DATASET(S) ==============================================================

 -outvars: echo values of variables after computation  --------
            acell      1.0000000000E+00  1.0000000000E+00  1.0000000000E+00 Bohr
              amu      9.12240000E+01  1.59994000E+01
             ecut      4.40000000E+01 Hartree
           etotal     -4.0935100311E+01
            fcart      0.0000000000E+00  0.0000000000E+00  0.0000000000E+00
                       0.0000000000E+00  0.0000000000E+00  0.0000000000E+00
                       0.0000000000E+00  0.0000000000E+00  0.0000000000E+00
                       0.0000000000E+00  0.0000000000E+00  0.0000000000E+00
                       0.0000000000E+00  0.0000000000E+00  0.0000000000E+00
                       0.0000000000E+00  0.0000000000E+00  0.0000000000E+00
                       0.0000000000E+00  0.0000000000E+00  0.0000000000E+00
                       0.0000000000E+00  0.0000000000E+00  0.0000000000E+00
                       0.0000000000E+00  0.0000000000E+00  0.0000000000E+00
                       0.0000000000E+00  0.0000000000E+00  0.0000000000E+00
                       0.0000000000E+00  0.0000000000E+00  0.0000000000E+00
                       0.0000000000E+00  0.0000000000E+00  0.0000000000E+00
-          fftalg         512
           irdden           1
           irdwfk           1
           istwfk        1    1
              ixc     -116133
              kpt      0.00000000E+00  0.00000000E+00  0.00000000E+00
                       0.00000000E+00  5.00000000E-01  0.00000000E+00
           kptopt           0
P           mkmem           2
P          mkqmem           2
P          mk1mem           2
            natom          12
            nband          57
           nbdbuf           4
            ngfft          60      60      60
             nkpt           2
            nstep        2000
             nsym           4
           ntypat           2
              occ      2.000000  2.000000  2.000000  2.000000  2.000000  2.000000
                       2.000000  2.000000  2.000000  2.000000  2.000000  2.000000
                       2.000000  2.000000  2.000000  2.000000  2.000000  2.000000
                       2.000000  2.000000  2.000000  2.000000  2.000000  2.000000
                       2.000000  2.000000  2.000000  2.000000  2.000000  2.000000
                       2.000000  2.000000  2.000000  2.000000  2.000000  2.000000
                       2.000000  2.000000  2.000000  2.000000  2.000000  2.000000
                       2.000000  2.000000  2.000000  2.000000  2.000000  2.000000
                       0.000000  0.000000  0.000000  0.000000  0.000000  0.000000
                       0.000000  0.000000  0.000000
        optdriver           1
            prtwf          -1
            rfdir           1       1       1
           rfelfd           2
            rprim      9.8434855332E+00  0.0000000000E+00  0.0000000000E+00
                       0.0000000000E+00  9.5514858993E+00  1.6136958690E+00
                       0.0000000000E+00  0.0000000000E+00  1.0003401206E+01
          spgroup          14
           strten      0.0000000000E+00  0.0000000000E+00  0.0000000000E+00
                       0.0000000000E+00  0.0000000000E+00  0.0000000000E+00
           symrel      1  0  0   0  1  0   0  0  1      -1  0  0   0 -1  0   0  0 -1
                       1  0  0   0 -1  0   0  0 -1      -1  0  0   0  1  0   0  0  1
            tnons      0.0000000  0.0000000  0.0000000     0.0000000  0.0000000  0.0000000
                       0.5000000  0.0000000  0.5000000     0.5000000  0.0000000  0.5000000
           tolwfr      1.00000000E-20
            typat      1  1  1  1  2  2  2  2  2  2  2  2
           useylm           1
              wtk        0.50000    0.50000
           xangst      2.2462547311E-01  1.4007944638E+00  4.4211440772E+00
                       2.3798486255E+00  1.4007944638E+00  1.7743581137E+00
                       2.8290995717E+00  3.6536341822E+00  4.3731448886E+00
                       4.9843227241E+00  3.6536341822E+00  1.7263589252E+00
                       4.3570924359E+00  4.7003254840E+00  5.2484936351E+00
                       3.4563298600E+00  4.7003254840E+00  2.6017076716E+00
                       3.8665657842E+00  2.2683719776E+00  4.9107552072E-01
                       1.2620916856E+00  2.7860566684E+00  3.0096415182E+00
                       3.9468565117E+00  2.2683719776E+00  3.1378614842E+00
                       1.3423824131E+00  2.7860566684E+00  5.6564274816E+00
                       1.7526183373E+00  3.5410316209E-01  3.5457953307E+00
                       8.5185576133E-01  3.5410316209E-01  8.9900936728E-01
            xcart      4.2448062665E-01  2.6471179051E+00  8.3547514998E+00
                       4.4972621400E+00  2.6471179051E+00  3.3530508966E+00
                       5.3462233932E+00  6.9043679942E+00  8.2640461789E+00
                       9.4190049066E+00  6.9043679942E+00  3.2623455757E+00
                       8.2337114396E+00  8.8823279002E+00  9.9182155804E+00
                       6.5315168602E+00  8.8823279002E+00  4.9165149772E+00
                       7.3067504069E+00  4.2866018053E+00  9.2799824473E-01
                       2.3850076403E+00  5.2648840940E+00  5.6873982275E+00
                       7.4584778929E+00  4.2866018053E+00  5.9296988480E+00
                       2.5367351263E+00  5.2648840940E+00  1.0689098831E+01
                       3.3119686730E+00  6.6915799913E-01  6.7005820983E+00
                       1.6097740936E+00  6.6915799913E-01  1.6988814951E+00
             xred      4.3123000000E-02  2.7714200000E-01  7.9048400000E-01
                       4.5687700000E-01  2.7714200000E-01  2.9048400000E-01
                       5.4312300000E-01  7.2285800000E-01  7.0951600000E-01
                       9.5687700000E-01  7.2285800000E-01  2.0951600000E-01
                       8.3646300000E-01  9.2994200000E-01  8.4147100000E-01
                       6.6353700000E-01  9.2994200000E-01  3.4147100000E-01
                       7.4229300000E-01  4.4878900000E-01  2.0372000000E-02
                       2.4229300000E-01  5.5121100000E-01  4.7962800000E-01
                       7.5770700000E-01  4.4878900000E-01  5.2037200000E-01
                       2.5770700000E-01  5.5121100000E-01  9.7962800000E-01
                       3.3646300000E-01  7.0058000000E-02  6.5852900000E-01
                       1.6353700000E-01  7.0058000000E-02  1.5852900000E-01
            znucl       40.00000    8.00000

- Timing analysis has been suppressed with timopt=0

 Suggested references for the acknowledgment of ABINIT usage.

 Calculation completed.
.Delivered   2 WARNINGs and   5 COMMENTs to log file.