.Version 9.5.2 of ABINIT

 ABINIT is a project of the Universite Catholique de Louvain,
 Corning Inc. and other collaborators, see ~abinit/doc/developers/contributors.txt .
 acknowledgments of the ABINIT effort.

.Starting date : Tue  1 Jun 2021.
- ( at 12h10 )

- input  file    -> /scratch/users/j/a/jabreu/flow_simple_11atoms/flow/w343/t1/run.abi
- output file    -> /scratch/users/j/a/jabreu/flow_simple_11atoms/flow/w343/t1/run.abo
- root for input  files -> /scratch/users/j/a/jabreu/flow_simple_11atoms/flow/w343/t1/indata/in
- root for output files -> /scratch/users/j/a/jabreu/flow_simple_11atoms/flow/w343/t1/outdata/out

 Symmetries : space group Pn m a (# 62); Bravais oP (primitive ortho.)
     intxc =       0      iscf =       7    lmnmax =      18     lnmax =       6
     mgfft =     125  mpssoang =       3    mqgrid =    6159     natom =      12
  nloc_mem =       1    nspden =       1   nspinor =       1    nsppol =       1
      nsym =       8    n1xccc =    2501    ntypat =       3    occopt =       1
   xclevel =       2
-    mband =          77        mffmem =           1         mkmem =           2
-   mkqmem =           2        mk1mem =           2           mpw =       34583
      nfft =      540000          nkpt =           2
  Rough estimation (10% accuracy) of disk space for files :

------------- Echo of variables that govern the present computation ------------
-
- outvars: echo of selected default values
-   iomode0 =  0 , fftalg0 =512 , wfoptalg0 =  0
-
- outvars: echo of global parameters not present in the input file
-  max_nthreads =    0
-
 -outvars: echo values of preprocessed input variables --------
            acell      1.0000000000E+00  1.0000000000E+00  1.0000000000E+00 Bohr
              amu      3.90983000E+01  6.35460000E+01  3.20660000E+01
             ecut      4.60000000E+01 Hartree
-          fftalg         512
           irdden           1
           irdwfk           1
           istwfk        0    1
              ixc     -116133
              kpt      0.00000000E+00  4.68750000E-01  0.00000000E+00
                       0.00000000E+00  0.00000000E+00  0.00000000E+00
           kptopt           0
P           mkmem           2
P          mkqmem           2
P          mk1mem           2
            natom          12
            nband          77
           nbdbuf           4
            ngfft          60      72     125
             nkpt           2
            nstep        2000
             nsym           8
           ntypat           3
              occ      2.000000  2.000000  2.000000  2.000000  2.000000  2.000000
                       2.000000  2.000000  2.000000  2.000000  2.000000  2.000000
                       2.000000  2.000000  2.000000  2.000000  2.000000  2.000000
                       2.000000  2.000000  2.000000  2.000000  2.000000  2.000000
                       2.000000  2.000000  2.000000  2.000000  2.000000  2.000000
                       2.000000  2.000000  2.000000  2.000000  2.000000  2.000000
                       2.000000  2.000000  2.000000  2.000000  2.000000  2.000000
                       2.000000  2.000000  2.000000  2.000000  2.000000  2.000000
                       2.000000  2.000000  2.000000  2.000000  2.000000  2.000000
                       2.000000  2.000000  2.000000  2.000000  2.000000  2.000000
                       2.000000  2.000000  2.000000  2.000000  2.000000  2.000000
                       2.000000  2.000000  0.000000  0.000000  0.000000  0.000000
                       0.000000  0.000000  0.000000  0.000000  0.000000
        optdriver           1
            prtwf          -1
            rfdir           1       1       1
           rfelfd           2
            rprim      9.8045386557E+00  0.0000000000E+00  0.0000000000E+00
                       0.0000000000E+00  1.1742145036E+01  0.0000000000E+00
                       0.0000000000E+00  0.0000000000E+00  2.0172588993E+01
          spgroup          62
           symrel      1  0  0   0  1  0   0  0  1      -1  0  0   0 -1  0   0  0 -1
                      -1  0  0   0  1  0   0  0 -1       1  0  0   0 -1  0   0  0  1
                      -1  0  0   0 -1  0   0  0  1       1  0  0   0  1  0   0  0 -1
                       1  0  0   0 -1  0   0  0 -1      -1  0  0   0  1  0   0  0  1
            tnons      0.0000000  0.0000000  0.0000000     0.0000000  0.0000000 -0.0000000
                       0.0000000  0.5000000  0.5000000     0.0000000  0.5000000  0.5000000
                       0.5000000  0.5000000  0.5000000     0.5000000  0.5000000  0.5000000
                       0.5000000  0.0000000 -0.0000000     0.5000000  0.0000000  0.0000000
           tolwfr      1.00000000E-20
            typat      1  1  1  1  2  2  2  2  3  3  3  3
           useylm           1
              wtk        0.50000    0.50000
           xangst      3.8912537980E+00  3.2162170968E+00  9.0348933895E+00
                       1.2970845993E+00  1.0937933040E-01  6.9774181105E+00
                       3.8912537980E+00  6.1042962024E+00  3.6974562228E+00
                       1.2970845993E+00  2.9974584360E+00  1.6399809438E+00
                       2.5941691987E+00  0.0000000000E+00  0.0000000000E+00
                       2.5941691987E+00  3.1068377664E+00  5.3374371667E+00
                       0.0000000000E+00  3.1068377664E+00  5.3374371667E+00
                       0.0000000000E+00  0.0000000000E+00  0.0000000000E+00
                       3.8912537980E+00  1.3961693965E+00  9.5406689354E-01
                       3.8912537980E+00  1.7106683699E+00  6.2915040602E+00
                       1.2970845993E+00  4.8175061363E+00  9.7208074398E+00
                       1.2970845993E+00  4.5030071629E+00  4.3833702731E+00
            xcart      7.3534039918E+00  6.0777694969E+00  1.7073474146E+01
                       2.4511346639E+00  2.0669697906E-01  1.3185409343E+01
                       7.3534039918E+00  1.1535448057E+01  6.9871796495E+00
                       2.4511346639E+00  5.6643755388E+00  3.0991148470E+00
                       4.9022693279E+00  0.0000000000E+00  0.0000000000E+00
                       4.9022693279E+00  5.8710725179E+00  1.0086294496E+01
                       0.0000000000E+00  5.8710725179E+00  1.0086294496E+01
                       0.0000000000E+00  0.0000000000E+00  0.0000000000E+00
                       7.3534039918E+00  2.6383777945E+00  1.8029251412E+00
                       7.3534039918E+00  3.2326947233E+00  1.1889219638E+01
                       2.4511346639E+00  9.1037672412E+00  1.8369663852E+01
                       2.4511346639E+00  8.5094503124E+00  8.2833693553E+00
             xred      7.5000000000E-01  5.1760300000E-01  8.4637000000E-01
                       2.5000000000E-01  1.7603000000E-02  6.5363000000E-01
                       7.5000000000E-01  9.8239700000E-01  3.4637000000E-01
                       2.5000000000E-01  4.8239700000E-01  1.5363000000E-01
                       5.0000000000E-01  0.0000000000E+00  0.0000000000E+00
                       5.0000000000E-01  5.0000000000E-01  5.0000000000E-01
                       0.0000000000E+00  5.0000000000E-01  5.0000000000E-01
                       0.0000000000E+00  0.0000000000E+00  0.0000000000E+00
                       7.5000000000E-01  2.2469300000E-01  8.9375000000E-02
                       7.5000000000E-01  2.7530700000E-01  5.8937500000E-01
                       2.5000000000E-01  7.7530700000E-01  9.1062500000E-01
                       2.5000000000E-01  7.2469300000E-01  4.1062500000E-01
            znucl       19.00000   29.00000   16.00000

 chkinp: Checking input parameters for consistency.

== DATASET  1 ==================================================================
-   mpi_nproc: 1, omp_nthreads: -1 (-1 if OMP is not activated)

--- !DatasetInfo
iteration_state: {dtset: 1, }
dimensions: {natom: 12, nkpt: 2, mband: 77, nsppol: 1, nspinor: 1, nspden: 1, mpw: 34583, }
cutoff_energies: {ecut:  46.0, pawecutdg:  -1.0, }
electrons: {nelect:   1.36000000E+02, charge:   0.00000000E+00, occopt:   1.00000000E+00, tsmear:   1.00000000E-02, }
meta: {optdriver: 1, rfelfd: 2, }
...

 Real(R)+Recip(G) space primitive vectors, cartesian coordinates (Bohr,Bohr^-1):
 R(1)=  9.8045387  0.0000000  0.0000000  G(1)=  0.1019936  0.0000000  0.0000000
 R(2)=  0.0000000 11.7421450  0.0000000  G(2)=  0.0000000  0.0851633  0.0000000
 R(3)=  0.0000000  0.0000000 20.1725890  G(3)=  0.0000000  0.0000000  0.0495722
 Unit cell volume ucvol=  2.3223958E+03 bohr^3
 Angles (23,13,12)=  9.00000000E+01  9.00000000E+01  9.00000000E+01 degrees

 getcut: wavevector=  0.0000  0.0000  0.0000  ngfft=  60  72 125
         ecut(hartree)=     46.000   => boxcut(ratio)=   2.00438

--- Pseudopotential description ------------------------------------------------
- pspini: atom type   1  psp file is /scratch/users/j/a/jabreu/pseudos/PBEsol/K.psp8
- pspatm: opening atomic psp file    /scratch/users/j/a/jabreu/pseudos/PBEsol/K.psp8
- K     ONCVPSP-3.3.0  r_core=   1.36296   1.46408   1.61068
- 19.00000   9.00000    180112                znucl, zion, pspdat
    8 -116133    2    4       400   0.00000   pspcod,pspxc,lmax,lloc,mmax,r2well
    3.99000000000000    5.00000000000000    0.00000000000000   rchrg,fchrg,qchrg
     nproj     2     2     2
     extension_switch     1
  pspatm : epsatm=    8.32487830
         --- l  ekb(1:nproj) -->
             0   10.921326    0.816676
             1    4.431000    0.560368
             2   -3.384038   -1.043186
 pspatm: atomic psp has been read  and splines computed

- pspini: atom type   2  psp file is /scratch/users/j/a/jabreu/pseudos/PBEsol/Cu.psp8
- pspatm: opening atomic psp file    /scratch/users/j/a/jabreu/pseudos/PBEsol/Cu.psp8
- Cu    ONCVPSP-3.3.0  r_core=   1.26204   1.45626   1.76249
- 29.00000  19.00000    180112                znucl, zion, pspdat
    8 -116133    2    4       600   0.00000   pspcod,pspxc,lmax,lloc,mmax,r2well
    5.99000000000000    3.50000000000000    0.00000000000000   rchrg,fchrg,qchrg
     nproj     2     2     2
     extension_switch     1
  pspatm : epsatm=   21.63488701
         --- l  ekb(1:nproj) -->
             0    5.008230   -0.401634
             1   -3.496700   -0.765945
             2   -6.895851   -2.521180
 pspatm: atomic psp has been read  and splines computed

- pspini: atom type   3  psp file is /scratch/users/j/a/jabreu/pseudos/PBEsol/S.psp8
- pspatm: opening atomic psp file    /scratch/users/j/a/jabreu/pseudos/PBEsol/S.psp8
- S     ONCVPSP-3.3.0  r_core=   1.45376   1.45376   1.61851
- 16.00000   6.00000    180112                znucl, zion, pspdat
    8 -116133    2    4       600   0.00000   pspcod,pspxc,lmax,lloc,mmax,r2well
    5.99000000000000    6.00000000000000    0.00000000000000   rchrg,fchrg,qchrg
     nproj     2     2     2
     extension_switch     1
  pspatm : epsatm=    8.71840985
         --- l  ekb(1:nproj) -->
             0    6.834532    0.579453
             1    3.282851    0.896984
             2   -3.496974   -0.974265
 pspatm: atomic psp has been read  and splines computed

   2.10409273E+04                                ecore*ucvol(ha*bohr**3)

[...]
 ETOT  5  -13.942169600998     -1.378E-05 6.012E-06 0.000E+00
 ETOT  6  -13.942171210343     -1.609E-06 1.292E-06 0.000E+00
 ETOT  7  -13.942171428338     -2.180E-07 5.619E-07 0.000E+00
 ETOT  8  -13.942171460339     -3.200E-08 1.249E-07 0.000E+00
 ETOT  9  -13.942171465304     -4.965E-09 5.584E-08 0.000E+00
 ETOT 10  -13.942171466098     -7.944E-10 1.285E-08 0.000E+00
 ETOT 11  -13.942171466228     -1.299E-10 6.087E-09 0.000E+00
 ETOT 12  -13.942171466250     -2.154E-11 1.549E-09 0.000E+00
 ETOT 13  -13.942171466253     -3.633E-12 8.499E-10 0.000E+00
 ETOT 14  -13.942171466254     -6.111E-13 2.701E-10 0.000E+00
 ETOT 15  -13.942171466254     -9.237E-14 1.838E-10 0.000E+00
 ETOT 16  -13.942171466254     -2.487E-14 7.167E-11 0.000E+00
 ETOT 17  -13.942171466254     -8.882E-15 5.523E-11 0.000E+00
 ETOT 18  -13.942171466254      1.243E-14 2.315E-11 0.000E+00
 ETOT 19  -13.942171466254     -3.553E-15 1.849E-11 0.000E+00
 ETOT 20  -13.942171466254      0.000E+00 7.842E-12 0.000E+00
 ETOT 21  -13.942171466254      5.329E-15 6.327E-12 0.000E+00
 ETOT 22  -13.942171466254     -3.553E-15 2.681E-12 0.000E+00
 ETOT 23  -13.942171466254      1.776E-15 2.174E-12 0.000E+00
 ETOT 24  -13.942171466254      3.553E-15 9.192E-13 0.000E+00
 ETOT 25  -13.942171466254      0.000E+00 7.480E-13 0.000E+00
 ETOT 26  -13.942171466254     -7.105E-15 3.157E-13 0.000E+00
 ETOT 27  -13.942171466254      7.105E-15 2.577E-13 0.000E+00
 ETOT 28  -13.942171466254      0.000E+00 1.085E-13 0.000E+00
 ETOT 29  -13.942171466254     -7.105E-15 8.884E-14 0.000E+00
 ETOT 30  -13.942171466254      1.776E-15 3.735E-14 0.000E+00
 ETOT 31  -13.942171466254     -3.553E-15 3.066E-14 0.000E+00
 ETOT 32  -13.942171466254      8.882E-15 1.287E-14 0.000E+00
 ETOT 33  -13.942171466254      0.000E+00 1.058E-14 0.000E+00
 ETOT 34  -13.942171466254     -7.105E-15 4.437E-15 0.000E+00
 ETOT 35  -13.942171466254      0.000E+00 3.657E-15 0.000E+00
 ETOT 36  -13.942171466254      7.105E-15 1.531E-15 0.000E+00
 ETOT 37  -13.942171466254     -5.329E-15 1.264E-15 0.000E+00
 ETOT 38  -13.942171466254      3.553E-15 5.287E-16 0.000E+00
 ETOT 39  -13.942171466254     -5.329E-15 4.372E-16 0.000E+00
 ETOT 40  -13.942171466254      5.329E-15 1.826E-16 0.000E+00
 ETOT 41  -13.942171466254      0.000E+00 1.512E-16 0.000E+00
 ETOT 42  -13.942171466254      0.000E+00 6.314E-17 0.000E+00
 ETOT 43  -13.942171466254     -7.105E-15 5.235E-17 0.000E+00
 ETOT 44  -13.942171466254      7.105E-15 2.184E-17 0.000E+00
 ETOT 45  -13.942171466254     -1.776E-15 1.812E-17 0.000E+00
 ETOT 46  -13.942171466254     -1.776E-15 7.555E-18 0.000E+00
 ETOT 47  -13.942171466254     -7.105E-15 6.277E-18 0.000E+00
 ETOT 48  -13.942171466254      3.553E-15 2.615E-18 0.000E+00
 ETOT 49  -13.942171466254      0.000E+00 2.174E-18 0.000E+00
 ETOT 50  -13.942171466254      8.882E-15 9.055E-19 0.000E+00
 ETOT 51  -13.942171466254      1.776E-15 7.535E-19 0.000E+00
 ETOT 52  -13.942171466254     -8.882E-15 3.137E-19 0.000E+00
 ETOT 53  -13.942171466254     -5.329E-15 2.612E-19 0.000E+00
 ETOT 54  -13.942171466254      5.329E-15 1.087E-19 0.000E+00
 ETOT 55  -13.942171466254      0.000E+00 9.054E-20 0.000E+00
 ETOT 56  -13.942171466254     -7.105E-15 3.767E-20 0.000E+00
 ETOT 57  -13.942171466254     -1.776E-15 3.139E-20 0.000E+00
 ETOT 58  -13.942171466254      5.329E-15 1.306E-20 0.000E+00
 ETOT 59  -13.942171466254      0.000E+00 1.089E-20 0.000E+00
 ETOT 60  -13.942171466254      1.776E-15 9.994E-21 0.000E+00

 At SCF step   60   max residual=  9.99E-21 < tolwfr=  1.00E-20 =>converged.

 ----iterations are completed or convergence reached----

 dfpt_looppert: DFPT cycle converged with prtwf=-1. Will skip output of the 1st-order WFK file.
 dfpt_looppert : ek2=    2.6387932265E+01
          f-sum rule ratio=    1.0024572517E+00
 prteigrs : about to open file /scratch/users/j/a/jabreu/flow_simple_11atoms/flow/w343/t1/tmpdata/tmp_1WF1_EIG
 Expectation of eigenvalue derivatives (hartree) for nkpt=   2  k points:
  (in case of degenerate eigenvalues, averaged derivative)
 kpt#   1, nband= 77, wtk=  0.50000, kpt=  0.0000  0.4688  0.0000 (reduced coord)
   0.00000   -0.00000    0.00000   -0.00000    0.00000   -0.00000   -0.00000    0.00000
   0.00000   -0.00000   -0.00000    0.00000   -0.00000    0.00000    0.00000   -0.00000
   0.00000   -0.00000    0.00000   -0.00000   -0.00000    0.00000    0.00000   -0.00000
   0.00000   -0.00000    0.00000   -0.00000    0.00000    0.00000   -0.00000    0.00000
  -0.00000    0.00000   -0.00000    0.00000    0.00000   -0.00000    0.00000   -0.00000
   0.00000   -0.00000   -0.00000    0.00000   -0.00000    0.00000    0.00000   -0.00000
   0.00000   -0.00000    0.00000   -0.00000    0.00000   -0.00000   -0.00000    0.00000
  -0.00000    0.00000   -0.00000    0.00000   -0.00000    0.00000    0.00000   -0.00000
  -0.00000    0.00000    0.00000   -0.00000    0.00000    0.00000    0.00000   -0.00000
  -0.00000   -0.00000    0.00000   -0.00000   -0.00003
 prteigrs : prtvol=0 or 1, do not print more k-points.

 Eight components of 2nd-order total energy (hartree) are
 1,2,3: 0th-order hamiltonian combined with 1st-order wavefunctions
     kin0=   2.34379875E+01 eigvalue=   1.22213746E+00  local=  -1.17167027E+01
 4,5,6: 1st-order hamiltonian combined with 1st and 0th-order wfs
     kin1=  -2.64527741E+01  Hartree=   0.00000000E+00     xc=   0.00000000E+00
 7,8,9: eventually, occupation + non-local contributions
    edocc=   1.20924641E+00     enl0=  -2.10497248E-01   enl1=  -1.43156888E+00
 1-9 gives the relaxation energy (to be shifted if some occ is /=2.0)
   erelax=  -1.39421715E+01
  No Ewald or frozen-wf contrib.: the relaxation energy is the total one
 2DEtotal=   -0.1394217147E+02 Ha. Also 2DEtotal=   -0.379385779610E+03 eV
    (  non-var. 2DEtotal :   -1.3942171466E+01 Ha)

 CALCULATION OF EFFECTIVE MASSES
 NOTE : Additional infos (eff. mass eigenvalues, eigenvectors and, if degenerate, average mass) are available in stdout.

 K-point ( 0.000, 0.469, 0.000) | band =    68
 Effective mass tensor:
             -0.3043734436             -0.0000049387              0.0074255764
             -0.0000049387            -18.2515221577              2.1018333305
              0.0074255764              2.1018333305         -10177.4741320761
 Effective mass tensor eigenvalues:
         -10177.4745669281            -18.2510873111             -0.3043734382
 Angular average effective mass 1/(<1/m>)=  -0.8981155789
 Angular average effective mass for Frohlich model (<m**0.5>)**2=  -3.5225678139
 Effective masses along directions: (cart. coord. / red. coord. -> eff. mass)
    1:   1.000000  0.000000  0.000000 /   1.000000  0.000000  0.000000 ->  -0.3043734382
    2:   0.000000  1.000000  0.000000 /   0.000000  1.000000  0.000000 -> -18.2510880909
    3:   0.000000  0.000000  1.000000 /   0.000000  0.000000  1.000000 -> **************
    4:   0.577350  0.577350  0.577350 /   0.387274  0.463808  0.796806 ->  -0.8981085349
    5:   0.000000  0.707107  0.707107 /   0.000000  0.503065  0.864248 -> -36.4218164813
    6:   0.707107  0.000000  0.707107 /   0.437136  0.000000  0.899396 ->  -0.6087277828
    7:   0.707107  0.707107  0.000000 /   0.640933  0.767597  0.000000 ->  -0.5987615521

 K-point ( 0.000, 0.000, 0.000) | band =    69
 Effective mass tensor:
              0.2146804527              0.0000103669              0.0000000048
              0.0000103669              1.0467035782              0.0000065999
              0.0000000048              0.0000065999              1.9296531767
 Effective mass tensor eigenvalues:
              0.2146804526              1.0467035783              1.9296531768
 Angular average effective mass 1/(<1/m>)=   0.4892611969
 Angular average effective mass for Frohlich model (<m**0.5>)**2=   0.6389795513
 Effective masses along directions: (cart. coord. / red. coord. -> eff. mass)
    1:   1.000000  0.000000  0.000000 /   1.000000  0.000000  0.000000 ->   0.2146804526
    2:   0.000000  1.000000  0.000000 /   0.000000  1.000000  0.000000 ->   1.0467035777
    3:   0.000000  0.000000  1.000000 /   0.000000  0.000000  1.000000 ->   1.9296531767
    4:   0.577350  0.577350  0.577350 /   0.387274  0.463808  0.796806 ->   0.4892690827
    5:   0.000000  0.707107  0.707107 /   0.000000  0.503065  0.864248 ->   1.3572189142
    6:   0.707107  0.000000  0.707107 /   0.437136  0.000000  0.899396 ->   0.3863753415
    7:   0.707107  0.707107  0.000000 /   0.640933  0.767597  0.000000 ->   0.3562919556

 END OF EFFECTIVE MASSES SECTION

 ---- first-order wavefunction calculations are completed ----

 Total localisation tensor (bohr^2) in cartesian coordinates
  WARNING : still subject to testing - especially symmetries.
      direction              matrix element
   alpha     beta       real part   imaginary part
     1        1       1.3172969718    0.0000000000
     1        2       0.0000000000    0.0000000000
     1        3       0.0000000000    0.0000000000
     2        1       0.0000000000    0.0000000000
     2        2       0.6673899966    0.0000000000
     2        3       0.0000000000    0.0000000000
     3        1       0.0000000000    0.0000000000
     3        2       0.0000000000    0.0000000000
     3        3       0.6371178102    0.0000000000

 respfn : d/dk was computed, but no 2DTE, so no DDB output.

== END DATASET(S) ==============================================================

 -outvars: echo values of variables after computation  --------
            acell      1.0000000000E+00  1.0000000000E+00  1.0000000000E+00 Bohr
              amu      3.90983000E+01  6.35460000E+01  3.20660000E+01
             ecut      4.60000000E+01 Hartree
           etotal     -1.3942171466E+01
            fcart      0.0000000000E+00  0.0000000000E+00  0.0000000000E+00
                       0.0000000000E+00  0.0000000000E+00  0.0000000000E+00
                       0.0000000000E+00  0.0000000000E+00  0.0000000000E+00
                       0.0000000000E+00  0.0000000000E+00  0.0000000000E+00
                       0.0000000000E+00  0.0000000000E+00  0.0000000000E+00
                       0.0000000000E+00  0.0000000000E+00  0.0000000000E+00
                       0.0000000000E+00  0.0000000000E+00  0.0000000000E+00
                       0.0000000000E+00  0.0000000000E+00  0.0000000000E+00
                       0.0000000000E+00  0.0000000000E+00  0.0000000000E+00
                       0.0000000000E+00  0.0000000000E+00  0.0000000000E+00
                       0.0000000000E+00  0.0000000000E+00  0.0000000000E+00
                       0.0000000000E+00  0.0000000000E+00  0.0000000000E+00
-          fftalg         512
           irdden           1
           irdwfk           1
           istwfk        0    1
              ixc     -116133
              kpt      0.00000000E+00  4.68750000E-01  0.00000000E+00
                       0.00000000E+00  0.00000000E+00  0.00000000E+00
           kptopt           0
P           mkmem           2
P          mkqmem           2
P          mk1mem           2
            natom          12
            nband          77
           nbdbuf           4
            ngfft          60      72     125
             nkpt           2
            nstep        2000
             nsym           8
           ntypat           3
              occ      2.000000  2.000000  2.000000  2.000000  2.000000  2.000000
                       2.000000  2.000000  2.000000  2.000000  2.000000  2.000000
                       2.000000  2.000000  2.000000  2.000000  2.000000  2.000000
                       2.000000  2.000000  2.000000  2.000000  2.000000  2.000000
                       2.000000  2.000000  2.000000  2.000000  2.000000  2.000000
                       2.000000  2.000000  2.000000  2.000000  2.000000  2.000000
                       2.000000  2.000000  2.000000  2.000000  2.000000  2.000000
                       2.000000  2.000000  2.000000  2.000000  2.000000  2.000000
                       2.000000  2.000000  2.000000  2.000000  2.000000  2.000000
                       2.000000  2.000000  2.000000  2.000000  2.000000  2.000000
                       2.000000  2.000000  2.000000  2.000000  2.000000  2.000000
                       2.000000  2.000000  0.000000  0.000000  0.000000  0.000000
                       0.000000  0.000000  0.000000  0.000000  0.000000
        optdriver           1
            prtwf          -1
            rfdir           1       1       1
           rfelfd           2
            rprim      9.8045386557E+00  0.0000000000E+00  0.0000000000E+00
                       0.0000000000E+00  1.1742145036E+01  0.0000000000E+00
                       0.0000000000E+00  0.0000000000E+00  2.0172588993E+01
          spgroup          62
           strten      0.0000000000E+00  0.0000000000E+00  0.0000000000E+00
                       0.0000000000E+00  0.0000000000E+00  0.0000000000E+00
           symrel      1  0  0   0  1  0   0  0  1      -1  0  0   0 -1  0   0  0 -1
                      -1  0  0   0  1  0   0  0 -1       1  0  0   0 -1  0   0  0  1
                      -1  0  0   0 -1  0   0  0  1       1  0  0   0  1  0   0  0 -1
                       1  0  0   0 -1  0   0  0 -1      -1  0  0   0  1  0   0  0  1
            tnons      0.0000000  0.0000000  0.0000000     0.0000000  0.0000000 -0.0000000
                       0.0000000  0.5000000  0.5000000     0.0000000  0.5000000  0.5000000
                       0.5000000  0.5000000  0.5000000     0.5000000  0.5000000  0.5000000
                       0.5000000  0.0000000 -0.0000000     0.5000000  0.0000000  0.0000000
           tolwfr      1.00000000E-20
            typat      1  1  1  1  2  2  2  2  3  3  3  3
           useylm           1
              wtk        0.50000    0.50000
           xangst      3.8912537980E+00  3.2162170968E+00  9.0348933895E+00
                       1.2970845993E+00  1.0937933040E-01  6.9774181105E+00
                       3.8912537980E+00  6.1042962024E+00  3.6974562228E+00
                       1.2970845993E+00  2.9974584360E+00  1.6399809438E+00
                       2.5941691987E+00  0.0000000000E+00  0.0000000000E+00
                       2.5941691987E+00  3.1068377664E+00  5.3374371667E+00
                       0.0000000000E+00  3.1068377664E+00  5.3374371667E+00
                       0.0000000000E+00  0.0000000000E+00  0.0000000000E+00
                       3.8912537980E+00  1.3961693965E+00  9.5406689354E-01
                       3.8912537980E+00  1.7106683699E+00  6.2915040602E+00
                       1.2970845993E+00  4.8175061363E+00  9.7208074398E+00
                       1.2970845993E+00  4.5030071629E+00  4.3833702731E+00
            xcart      7.3534039918E+00  6.0777694969E+00  1.7073474146E+01
                       2.4511346639E+00  2.0669697906E-01  1.3185409343E+01
                       7.3534039918E+00  1.1535448057E+01  6.9871796495E+00
                       2.4511346639E+00  5.6643755388E+00  3.0991148470E+00
                       4.9022693279E+00  0.0000000000E+00  0.0000000000E+00
                       4.9022693279E+00  5.8710725179E+00  1.0086294496E+01
                       0.0000000000E+00  5.8710725179E+00  1.0086294496E+01
                       0.0000000000E+00  0.0000000000E+00  0.0000000000E+00
                       7.3534039918E+00  2.6383777945E+00  1.8029251412E+00
                       7.3534039918E+00  3.2326947233E+00  1.1889219638E+01
                       2.4511346639E+00  9.1037672412E+00  1.8369663852E+01
                       2.4511346639E+00  8.5094503124E+00  8.2833693553E+00
             xred      7.5000000000E-01  5.1760300000E-01  8.4637000000E-01
                       2.5000000000E-01  1.7603000000E-02  6.5363000000E-01
                       7.5000000000E-01  9.8239700000E-01  3.4637000000E-01
                       2.5000000000E-01  4.8239700000E-01  1.5363000000E-01
                       5.0000000000E-01  0.0000000000E+00  0.0000000000E+00
                       5.0000000000E-01  5.0000000000E-01  5.0000000000E-01
                       0.0000000000E+00  5.0000000000E-01  5.0000000000E-01
                       0.0000000000E+00  0.0000000000E+00  0.0000000000E+00
                       7.5000000000E-01  2.2469300000E-01  8.9375000000E-02
                       7.5000000000E-01  2.7530700000E-01  5.8937500000E-01
                       2.5000000000E-01  7.7530700000E-01  9.1062500000E-01
                       2.5000000000E-01  7.2469300000E-01  4.1062500000E-01
            znucl       19.00000   29.00000   16.00000

- Timing analysis has been suppressed with timopt=0

 Suggested references for the acknowledgment of ABINIT usage.

 Calculation completed.
.Delivered   2 WARNINGs and   7 COMMENTs to log file.