.Version 9.5.1 of ABINIT

 ABINIT is a project of the Universite Catholique de Louvain,
 Corning Inc. and other collaborators, see ~abinit/doc/developers/contributors.txt .
 acknowledgments of the ABINIT effort.

.Starting date : Wed 19 May 2021.
- ( at 07h48 )

- input  file    -> /scratch/users/j/a/jabreu/flow_simple_9atoms/flow/w119/t1/run.abi
- output file    -> /scratch/users/j/a/jabreu/flow_simple_9atoms/flow/w119/t1/run.abo
- root for input  files -> /scratch/users/j/a/jabreu/flow_simple_9atoms/flow/w119/t1/indata/in
- root for output files -> /scratch/users/j/a/jabreu/flow_simple_9atoms/flow/w119/t1/outdata/out

 Symmetries : space group Fm -3 m (#225); Bravais cF (face-center cubic)
     intxc =       0      iscf =       7    lmnmax =      18     lnmax =       6
     mgfft =      80  mpssoang =       3    mqgrid =    3175     natom =       9
  nloc_mem =       1    nspden =       1   nspinor =       1    nsppol =       1
      nsym =      48    n1xccc =    2501    ntypat =       3    occopt =       1
   xclevel =       2
-    mband =          47        mffmem =           1         mkmem =           2
-   mkqmem =           2        mk1mem =           2           mpw =       21756
      nfft =      512000          nkpt =           2
  Rough estimation (10% accuracy) of disk space for files :

------------- Echo of variables that govern the present computation ------------
-
- outvars: echo of selected default values
-   iomode0 =  0 , fftalg0 =512 , wfoptalg0 =  0
-
- outvars: echo of global parameters not present in the input file
-  max_nthreads =    0
-
 -outvars: echo values of preprocessed input variables --------
            acell      1.0000000000E+00  1.0000000000E+00  1.0000000000E+00 Bohr
              amu      8.54678000E+01  1.27600000E+02  3.54527000E+01
             ecut      4.00000000E+01 Hartree
-          fftalg         512
           irdden           1
           irdwfk           1
           istwfk        0    1
              ixc     -116133
              kpt      5.00000000E-01  2.50000000E-01  7.50000000E-01
                       5.00000000E-01  5.00000000E-01  5.00000000E-01
           kptopt           0
P           mkmem           2
P          mkqmem           2
P          mk1mem           2
            natom           9
            nband          47
           nbdbuf           4
            ngfft          80      80      80
             nkpt           2
            nstep        2000
             nsym          48
           ntypat           3
              occ      2.000000  2.000000  2.000000  2.000000  2.000000  2.000000
                       2.000000  2.000000  2.000000  2.000000  2.000000  2.000000
                       2.000000  2.000000  2.000000  2.000000  2.000000  2.000000
                       2.000000  2.000000  2.000000  2.000000  2.000000  2.000000
                       2.000000  2.000000  2.000000  2.000000  2.000000  2.000000
                       2.000000  2.000000  2.000000  2.000000  2.000000  2.000000
                       2.000000  2.000000  0.000000  0.000000  0.000000  0.000000
                       0.000000  0.000000  0.000000  0.000000  0.000000
        optdriver           1
            prtwf          -1
            rfdir           1       1       1
           rfelfd           2
            rprim      1.1826973775E+01  0.0000000000E+00  6.8283064927E+00
                       3.9423245917E+00  1.1150577810E+01  6.8283064927E+00
                       0.0000000000E+00  0.0000000000E+00  1.3656612985E+01
          spgroup         225
           symrel      1  0  0   0  1  0   0  0  1      -1  0  0   0 -1  0   0  0 -1
                       0 -1  1   0 -1  0   1 -1  0       0  1 -1   0  1  0  -1  1  0
                      -1  0  0  -1  0  1  -1  1  0       1  0  0   1  0 -1   1 -1  0
                       0  1 -1   1  0 -1   0  0 -1       0 -1  1  -1  0  1   0  0  1
                      -1  0  0  -1  1  0  -1  0  1       1  0  0   1 -1  0   1  0 -1
                       0 -1  1   1 -1  0   0 -1  0       0  1 -1  -1  1  0   0  1  0
                       1  0  0   0  0  1   0  1  0      -1  0  0   0  0 -1   0 -1  0
                       0  1 -1   0  0 -1   1  0 -1       0 -1  1   0  0  1  -1  0  1
                      -1  0  1  -1  1  0  -1  0  0       1  0 -1   1 -1  0   1  0  0
                       0 -1  0   1 -1  0   0 -1  1       0  1  0  -1  1  0   0  1 -1
                       1  0 -1   0  0 -1   0  1 -1      -1  0  1   0  0  1   0 -1  1
                       0  1  0   0  0  1   1  0  0       0 -1  0   0  0 -1  -1  0  0
                       1  0 -1   0  1 -1   0  0 -1      -1  0  1   0 -1  1   0  0  1
                       0 -1  0   0 -1  1   1 -1  0       0  1  0   0  1 -1  -1  1  0
                      -1  0  1  -1  0  0  -1  1  0       1  0 -1   1  0  0   1 -1  0
                       0  1  0   1  0  0   0  0  1       0 -1  0  -1  0  0   0  0 -1
                       0  0 -1   0  1 -1   1  0 -1       0  0  1   0 -1  1  -1  0  1
                       1 -1  0   0 -1  1   0 -1  0      -1  1  0   0  1 -1   0  1  0
                       0  0  1   1  0  0   0  1  0       0  0 -1  -1  0  0   0 -1  0
                      -1  1  0  -1  0  0  -1  0  1       1 -1  0   1  0  0   1  0 -1
                       0  0  1   0  1  0   1  0  0       0  0 -1   0 -1  0  -1  0  0
                       1 -1  0   0 -1  0   0 -1  1      -1  1  0   0  1  0   0  1 -1
                       0  0 -1   1  0 -1   0  1 -1       0  0  1  -1  0  1   0 -1  1
                      -1  1  0  -1  0  1  -1  0  0       1 -1  0   1  0 -1   1  0  0
           tolwfr      1.00000000E-20
            typat      1  1  2  3  3  3  3  3  3
           useylm           1
              wtk        0.50000    0.50000
           xangst      2.0861883228E+00  1.4751579099E+00  3.6133841692E+00
                       6.2585649683E+00  4.4254737296E+00  1.0840152508E+01
                       0.0000000000E+00  0.0000000000E+00  0.0000000000E+00
                       3.1245468367E+00  4.4321709465E+00  9.0416628051E+00
                       5.2202064544E+00  1.4684606930E+00  9.0416628051E+00
                       3.1245468367E+00  4.4321709465E+00  5.4118738717E+00
                       5.2202064544E+00  1.4684606930E+00  5.4118738717E+00
                       2.0767170278E+00  1.4684606930E+00  7.2267683384E+00
                       6.2680362633E+00  4.4321709465E+00  7.2267683384E+00
            xcart      3.9423245917E+00  2.7876444524E+00  6.8283064927E+00
                       1.1826973775E+01  8.3629333572E+00  2.0484919478E+01
                       0.0000000000E+00  0.0000000000E+00  0.0000000000E+00
                       5.9045378107E+00  8.3755892630E+00  1.7086266487E+01
                       9.8647605560E+00  2.7749885466E+00  1.7086266487E+01
                       5.9045378107E+00  8.3755892630E+00  1.0226959483E+01
                       9.8647605560E+00  2.7749885466E+00  1.0226959483E+01
                       3.9244264380E+00  2.7749885466E+00  1.3656612985E+01
                       1.1844871929E+01  8.3755892630E+00  1.3656612985E+01
             xred      2.5000000000E-01  2.5000000000E-01  2.5000000000E-01
                       7.5000000000E-01  7.5000000000E-01  7.5000000000E-01
                       0.0000000000E+00  0.0000000000E+00  0.0000000000E+00
                       2.4886500000E-01  7.5113500000E-01  7.5113500000E-01
                       7.5113500000E-01  2.4886500000E-01  7.5113500000E-01
                       2.4886500000E-01  7.5113500000E-01  2.4886500000E-01
                       7.5113500000E-01  2.4886500000E-01  2.4886500000E-01
                       2.4886500000E-01  2.4886500000E-01  7.5113500000E-01
                       7.5113500000E-01  7.5113500000E-01  2.4886500000E-01
            znucl       37.00000   52.00000   17.00000

 chkinp: Checking input parameters for consistency.

== DATASET  1 ==================================================================
-   mpi_nproc: 1, omp_nthreads: -1 (-1 if OMP is not activated)

--- !DatasetInfo
iteration_state: {dtset: 1, }
dimensions: {natom: 9, nkpt: 2, mband: 47, nsppol: 1, nspinor: 1, nspden: 1, mpw: 21756, }
cutoff_energies: {ecut:  40.0, pawecutdg:  -1.0, }
electrons: {nelect:   7.60000000E+01, charge:   0.00000000E+00, occopt:   1.00000000E+00, tsmear:   1.00000000E-02, }
meta: {optdriver: 1, rfelfd: 2, }
...

 Real(R)+Recip(G) space primitive vectors, cartesian coordinates (Bohr,Bohr^-1):
 R(1)= 11.8269738  0.0000000  6.8283065  G(1)=  0.0845525 -0.0298938  0.0000000
 R(2)=  3.9423246 11.1505778  6.8283065  G(2)=  0.0000000  0.0896815  0.0000000
 R(3)=  0.0000000  0.0000000 13.6566130  G(3)= -0.0422762 -0.0298938  0.0732246
 Unit cell volume ucvol=  1.8010012E+03 bohr^3
 Angles (23,13,12)=  6.00000000E+01  6.00000000E+01  6.00000000E+01 degrees

 getcut: wavevector=  0.0000  0.0000  0.0000  ngfft=  80  80  80
         ecut(hartree)=     40.000   => boxcut(ratio)=   2.05756

--- Pseudopotential description ------------------------------------------------
- pspini: atom type   1  psp file is /scratch/users/j/a/jabreu/pseudos/PBEsol/Rb.psp8
- pspatm: opening atomic psp file    /scratch/users/j/a/jabreu/pseudos/PBEsol/Rb.psp8
- Rb    ONCVPSP-3.3.0  r_core=   1.71227   1.75361   1.90633
- 37.00000   9.00000    180112                znucl, zion, pspdat
    8 -116133    2    4       600   0.00000   pspcod,pspxc,lmax,lloc,mmax,r2well
    5.99000000000000    7.00000000000000    0.00000000000000   rchrg,fchrg,qchrg
     nproj     2     2     2
     extension_switch     1
  pspatm : epsatm=   34.48400912
         --- l  ekb(1:nproj) -->
             0    8.196957   -0.477221
             1    3.231347   -0.378736
             2   -1.047201    0.996637
 pspatm: atomic psp has been read  and splines computed

- pspini: atom type   2  psp file is /scratch/users/j/a/jabreu/pseudos/PBEsol/Te.psp8
- pspatm: opening atomic psp file    /scratch/users/j/a/jabreu/pseudos/PBEsol/Te.psp8
- Te    ONCVPSP-3.3.0  r_core=   2.26547   1.91704   1.80604
- 52.00000  16.00000    180112                znucl, zion, pspdat
    8 -116133    2    4       600   0.00000   pspcod,pspxc,lmax,lloc,mmax,r2well
    5.99000000000000    5.00000000000000    0.00000000000000   rchrg,fchrg,qchrg
     nproj     2     2     2
     extension_switch     1
  pspatm : epsatm=   36.82679836
         --- l  ekb(1:nproj) -->
             0    6.345999    0.785432
             1    5.709019    1.070069
             2   -6.035173   -1.870937
 pspatm: atomic psp has been read  and splines computed

- pspini: atom type   3  psp file is /scratch/users/j/a/jabreu/pseudos/PBEsol/Cl.psp8
- pspatm: opening atomic psp file    /scratch/users/j/a/jabreu/pseudos/PBEsol/Cl.psp8
- Cl    ONCVPSP-3.3.0  r_core=   1.56009   1.35202   1.75774
- 17.00000   7.00000    180112                znucl, zion, pspdat
    8 -116133    2    4       600   0.00000   pspcod,pspxc,lmax,lloc,mmax,r2well
    5.99000000000000    8.00000000000000    0.00000000000000   rchrg,fchrg,qchrg
     nproj     2     2     2
     extension_switch     1
  pspatm : epsatm=    8.95520722
         --- l  ekb(1:nproj) -->
[...]
   0.00000    0.00000   -0.00000   -0.00000    0.00000    0.00000    0.00000    0.00000
   0.00000   -0.00000    0.00000   -0.00000    0.00000    0.00000    0.00000    0.00000
   0.00000   -0.00000    0.00000   -0.00000   -0.00000   -0.00000   -0.00000    0.00000
   0.00000   -0.00000   -0.00000    0.00000   -0.00000    0.00000    0.00000
 prteigrs : prtvol=0 or 1, do not print more k-points.

 Eight components of 2nd-order total energy (hartree) are
 1,2,3: 0th-order hamiltonian combined with 1st-order wavefunctions
     kin0=   3.61111985E+01 eigvalue=   5.18350220E+00  local=  -1.98769386E+01
 4,5,6: 1st-order hamiltonian combined with 1st and 0th-order wfs
     kin1=  -4.85244317E+01  Hartree=   0.00000000E+00     xc=   0.00000000E+00
 7,8,9: eventually, occupation + non-local contributions
    edocc=   6.45176342E+00     enl0=   2.34806075E+00   enl1=  -1.19107409E+01
 1-9 gives the relaxation energy (to be shifted if some occ is /=2.0)
   erelax=  -3.02175863E+01
  No Ewald or frozen-wf contrib.: the relaxation energy is the total one
 2DEtotal=   -0.3021758631E+02 Ha. Also 2DEtotal=   -0.822262340379E+03 eV
    (  non-var. 2DEtotal :   -3.0217586309E+01 Ha)

 Perturbation wavevector (in red.coord.)   0.000000  0.000000  0.000000
 Perturbation : derivative vs k along direction   2
 The set of symmetries contains only one element for this perturbation.
 symkpt : not enough symmetry to change the number of k points.

[...]

 Perturbation wavevector (in red.coord.)   0.000000  0.000000  0.000000
 Perturbation : derivative vs k along direction   3
 The set of symmetries contains only one element for this perturbation.
 symkpt : not enough symmetry to change the number of k points.

-inwffil : will read wavefunctions from disk file /scratch/users/j/a/jabreu/flow_simple_9atoms/flow/w119/t1/indata/in_WFK

 Initialisation of the first-order wave-functions :
  ireadwf=   0

--- !BeginCycle
iteration_state: {dtset: 1, }
solver: {iscf: 7, nstep: 2000, nline: 4, wfoptalg: 0, }
tolerances: {tolwfr: 1.00E-20, }
...

     iter   2DEtotal(Ha)        deltaE(Ha) residm    vres2
-ETOT  1  -30.179109826264     -3.018E+01 1.041E-01 0.000E+00
 ETOT  2  -30.217359920936     -3.825E-02 1.787E-02 0.000E+00
 ETOT  3  -30.217581479804     -2.216E-04 1.819E-03 0.000E+00
 ETOT  4  -30.217583315711     -1.836E-06 4.614E-04 0.000E+00
 ETOT  5  -30.217583333369     -1.766E-08 5.495E-05 0.000E+00
 ETOT  6  -30.217583333552     -1.826E-10 1.589E-05 0.000E+00
 ETOT  7  -30.217583333554     -1.979E-12 2.128E-06 0.000E+00
 ETOT  8  -30.217583333554     -3.908E-14 5.897E-07 0.000E+00
 ETOT  9  -30.217583333554      1.776E-14 8.248E-08 0.000E+00
 ETOT 10  -30.217583333554     -7.105E-15 2.235E-08 0.000E+00
 ETOT 11  -30.217583333554      2.132E-14 3.138E-09 0.000E+00
 ETOT 12  -30.217583333554     -1.421E-14 8.583E-10 0.000E+00
 ETOT 13  -30.217583333554      0.000E+00 1.194E-10 0.000E+00
 ETOT 14  -30.217583333554      7.105E-15 3.329E-11 0.000E+00
 ETOT 15  -30.217583333554     -3.553E-15 4.568E-12 0.000E+00
 ETOT 16  -30.217583333554     -3.553E-15 1.304E-12 0.000E+00
 ETOT 17  -30.217583333554     -3.553E-15 1.777E-13 0.000E+00
 ETOT 18  -30.217583333554      3.553E-15 5.151E-14 0.000E+00
 ETOT 19  -30.217583333554      3.553E-15 6.928E-15 0.000E+00
 ETOT 20  -30.217583333554      0.000E+00 2.053E-15 0.000E+00
 ETOT 21  -30.217583333554      3.553E-15 2.748E-16 0.000E+00
 ETOT 22  -30.217583333554     -1.421E-14 8.223E-17 0.000E+00
 ETOT 23  -30.217583333554      0.000E+00 1.089E-17 0.000E+00
 ETOT 24  -30.217583333554     -3.553E-15 3.318E-18 0.000E+00
 ETOT 25  -30.217583333554      3.553E-15 4.379E-19 0.000E+00
 ETOT 26  -30.217583333554     -3.553E-15 1.343E-19 0.000E+00
 ETOT 27  -30.217583333554      3.553E-15 1.757E-20 0.000E+00
 ETOT 28  -30.217583333554     -7.105E-15 9.903E-21 0.000E+00

 At SCF step   28   max residual=  9.90E-21 < tolwfr=  1.00E-20 =>converged.

 ----iterations are completed or convergence reached----

 dfpt_looppert: DFPT cycle converged with prtwf=-1. Will skip output of the 1st-order WFK file.
 dfpt_looppert : ek2=    4.8262362740E+01
          f-sum rule ratio=    1.0054300280E+00
 prteigrs : about to open file /scratch/users/j/a/jabreu/flow_simple_9atoms/flow/w119/t1/tmpdata/tmp_1WF1_EIG
 Expectation of eigenvalue derivatives (hartree) for nkpt=   2  k points:
  (in case of degenerate eigenvalues, averaged derivative)
 kpt#   1, nband= 47, wtk=  0.50000, kpt=  0.5000  0.2500  0.7500 (reduced coord)
   0.00000    0.00000   -0.00000    0.00000   -0.00000    0.00000    0.00000    0.00000
   0.00000   -0.00000   -0.00000    0.00000   -0.00000    0.00000   -0.00000   -0.00000
  -0.00000   -0.00000    0.00000    0.00000   -0.00000    0.00000    0.00000    0.00000
   0.00000   -0.00000   -0.00000   -0.00000    0.00000    0.00000    0.00000    0.00000
  -0.00000   -0.00000   -0.00000   -0.00000   -0.00000    0.00000   -0.00000    0.00000
   0.00000    0.00000    0.00000   -0.00000    0.00000    0.00000    0.00000
 prteigrs : prtvol=0 or 1, do not print more k-points.

 Eight components of 2nd-order total energy (hartree) are
 1,2,3: 0th-order hamiltonian combined with 1st-order wavefunctions
     kin0=   3.61112061E+01 eigvalue=   5.18350122E+00  local=  -1.98769399E+01
 4,5,6: 1st-order hamiltonian combined with 1st and 0th-order wfs
     kin1=  -4.85244287E+01  Hartree=   0.00000000E+00     xc=   0.00000000E+00
 7,8,9: eventually, occupation + non-local contributions
    edocc=   6.45175887E+00     enl0=   2.34805704E+00   enl1=  -1.19107379E+01
 1-9 gives the relaxation energy (to be shifted if some occ is /=2.0)
   erelax=  -3.02175833E+01
  No Ewald or frozen-wf contrib.: the relaxation energy is the total one
 2DEtotal=   -0.3021758333E+02 Ha. Also 2DEtotal=   -0.822262259411E+03 eV
    (  non-var. 2DEtotal :   -3.0217583333E+01 Ha)

 CALCULATION OF EFFECTIVE MASSES
 NOTE : Additional infos (eff. mass eigenvalues, eigenvectors and, if degenerate, average mass) are available in stdout.

 K-point ( 0.500, 0.250, 0.750) | band =    38
 Effective mass tensor:
             -3.8542124458              3.6258860913              4.4407850780
              3.6258860913             -6.4181023908             -6.2802193597
              4.4407850780             -6.2802193597             -8.9819908071
 Effective mass tensor eigenvalues:
            -16.6736567983             -1.2903246238             -1.2903242216
 Angular average effective mass 1/(<1/m>)=  -1.8633857110
 Angular average effective mass for Frohlich model (<m**0.5>)**2=  -2.3233384575
 Effective masses along directions: (cart. coord. / red. coord. -> eff. mass)
    1:   1.000000  0.000000  0.000000 /   0.948683  0.316228  0.000000 ->  -1.5247892651
    2:   0.000000  1.000000  0.000000 /   0.000000  1.000000  0.000000 ->  -1.8633858918
    3:   0.000000  0.000000  1.000000 /   0.408248  0.408248  0.816497 ->  -2.3952852591
    4:   0.577350  0.577350  0.577350 /   0.585539  0.688047  0.428644 ->  -1.6891482944
    5:   0.000000  0.707107  0.707107 /   0.289489  0.762222  0.578977 ->  -5.4005928891
    6:   0.707107  0.000000  0.707107 /   0.731423  0.422287  0.535439 ->  -1.3457732904
    7:   0.707107  0.707107  0.000000 /   0.616798  0.787122  0.000000 ->  -1.3075728350

 K-point ( 0.500, 0.500, 0.500) | band =    39
 Effective mass tensor:
              0.5542998233              0.0679259730              0.1663839975
              0.0679259730              0.5062689069              0.1176512520
              0.1663839975              0.1176512520              0.7464235628
 Effective mass tensor eigenvalues:
              0.4582379894              0.4582379910              0.8905163126
 Angular average effective mass 1/(<1/m>)=   0.5466982005
 Angular average effective mass for Frohlich model (<m**0.5>)**2=   0.5608877993
 Effective masses along directions: (cart. coord. / red. coord. -> eff. mass)
    1:   1.000000  0.000000  0.000000 /   0.948683  0.316228  0.000000 ->   0.5136460498
    2:   0.000000  1.000000  0.000000 /   0.000000  1.000000  0.000000 ->   0.4843625867
    3:   0.000000  0.000000  1.000000 /   0.408248  0.408248  0.816497 ->   0.6774822835
    4:   0.577350  0.577350  0.577350 /   0.585539  0.688047  0.428644 ->   0.7973469728
    5:   0.000000  0.707107  0.707107 /   0.289489  0.762222  0.578977 ->   0.6747644585
    6:   0.707107  0.000000  0.707107 /   0.731423  0.422287  0.535439 ->   0.7670334577
    7:   0.707107  0.707107  0.000000 /   0.616798  0.787122  0.000000 ->   0.5436968710

 END OF EFFECTIVE MASSES SECTION

 ---- first-order wavefunction calculations are completed ----

 Total localisation tensor (bohr^2) in cartesian coordinates
  WARNING : still subject to testing - especially symmetries.
      direction              matrix element
   alpha     beta       real part   imaginary part
     1        1       1.2869152358    0.0000000000
     1        2       0.3639946010    0.0000000000
     1        3       0.8916010314    0.0000000000
     2        1       0.3639946010    0.0000000000
     2        2       1.0295322028    0.0000000000
     2        3       0.6304571427    0.0000000000
     3        1       0.8916010314    0.0000000000
     3        2       0.6304571427    0.0000000000
     3        3       2.3164468736    0.0000000000

 respfn : d/dk was computed, but no 2DTE, so no DDB output.

== END DATASET(S) ==============================================================

 -outvars: echo values of variables after computation  --------
            acell      1.0000000000E+00  1.0000000000E+00  1.0000000000E+00 Bohr
              amu      8.54678000E+01  1.27600000E+02  3.54527000E+01
             ecut      4.00000000E+01 Hartree
           etotal     -3.0217583334E+01
            fcart      0.0000000000E+00  0.0000000000E+00  0.0000000000E+00
                       0.0000000000E+00  0.0000000000E+00  0.0000000000E+00
                       0.0000000000E+00  0.0000000000E+00  0.0000000000E+00
                       0.0000000000E+00  0.0000000000E+00  0.0000000000E+00
                       0.0000000000E+00  0.0000000000E+00  0.0000000000E+00
                       0.0000000000E+00  0.0000000000E+00  0.0000000000E+00
                       0.0000000000E+00  0.0000000000E+00  0.0000000000E+00
                       0.0000000000E+00  0.0000000000E+00  0.0000000000E+00
                       0.0000000000E+00  0.0000000000E+00  0.0000000000E+00
-          fftalg         512
           irdden           1
           irdwfk           1
           istwfk        0    1
              ixc     -116133
              kpt      5.00000000E-01  2.50000000E-01  7.50000000E-01
                       5.00000000E-01  5.00000000E-01  5.00000000E-01
           kptopt           0
P           mkmem           2
P          mkqmem           2
P          mk1mem           2
            natom           9
            nband          47
           nbdbuf           4
            ngfft          80      80      80
             nkpt           2
            nstep        2000
             nsym          48
           ntypat           3
              occ      2.000000  2.000000  2.000000  2.000000  2.000000  2.000000
                       2.000000  2.000000  2.000000  2.000000  2.000000  2.000000
                       2.000000  2.000000  2.000000  2.000000  2.000000  2.000000
                       2.000000  2.000000  2.000000  2.000000  2.000000  2.000000
                       2.000000  2.000000  2.000000  2.000000  2.000000  2.000000
                       2.000000  2.000000  2.000000  2.000000  2.000000  2.000000
                       2.000000  2.000000  0.000000  0.000000  0.000000  0.000000
                       0.000000  0.000000  0.000000  0.000000  0.000000
        optdriver           1
            prtwf          -1
            rfdir           1       1       1
           rfelfd           2
            rprim      1.1826973775E+01  0.0000000000E+00  6.8283064927E+00
                       3.9423245917E+00  1.1150577810E+01  6.8283064927E+00
                       0.0000000000E+00  0.0000000000E+00  1.3656612985E+01
          spgroup         225
           strten      0.0000000000E+00  0.0000000000E+00  0.0000000000E+00
                       0.0000000000E+00  0.0000000000E+00  0.0000000000E+00
           symrel      1  0  0   0  1  0   0  0  1      -1  0  0   0 -1  0   0  0 -1
                       0 -1  1   0 -1  0   1 -1  0       0  1 -1   0  1  0  -1  1  0
                      -1  0  0  -1  0  1  -1  1  0       1  0  0   1  0 -1   1 -1  0
                       0  1 -1   1  0 -1   0  0 -1       0 -1  1  -1  0  1   0  0  1
                      -1  0  0  -1  1  0  -1  0  1       1  0  0   1 -1  0   1  0 -1
                       0 -1  1   1 -1  0   0 -1  0       0  1 -1  -1  1  0   0  1  0
                       1  0  0   0  0  1   0  1  0      -1  0  0   0  0 -1   0 -1  0
                       0  1 -1   0  0 -1   1  0 -1       0 -1  1   0  0  1  -1  0  1
                      -1  0  1  -1  1  0  -1  0  0       1  0 -1   1 -1  0   1  0  0
                       0 -1  0   1 -1  0   0 -1  1       0  1  0  -1  1  0   0  1 -1
                       1  0 -1   0  0 -1   0  1 -1      -1  0  1   0  0  1   0 -1  1
                       0  1  0   0  0  1   1  0  0       0 -1  0   0  0 -1  -1  0  0
                       1  0 -1   0  1 -1   0  0 -1      -1  0  1   0 -1  1   0  0  1
                       0 -1  0   0 -1  1   1 -1  0       0  1  0   0  1 -1  -1  1  0
                      -1  0  1  -1  0  0  -1  1  0       1  0 -1   1  0  0   1 -1  0
                       0  1  0   1  0  0   0  0  1       0 -1  0  -1  0  0   0  0 -1
                       0  0 -1   0  1 -1   1  0 -1       0  0  1   0 -1  1  -1  0  1
                       1 -1  0   0 -1  1   0 -1  0      -1  1  0   0  1 -1   0  1  0
                       0  0  1   1  0  0   0  1  0       0  0 -1  -1  0  0   0 -1  0
                      -1  1  0  -1  0  0  -1  0  1       1 -1  0   1  0  0   1  0 -1
                       0  0  1   0  1  0   1  0  0       0  0 -1   0 -1  0  -1  0  0
                       1 -1  0   0 -1  0   0 -1  1      -1  1  0   0  1  0   0  1 -1
                       0  0 -1   1  0 -1   0  1 -1       0  0  1  -1  0  1   0 -1  1
                      -1  1  0  -1  0  1  -1  0  0       1 -1  0   1  0 -1   1  0  0
           tolwfr      1.00000000E-20
            typat      1  1  2  3  3  3  3  3  3
           useylm           1
              wtk        0.50000    0.50000
           xangst      2.0861883228E+00  1.4751579099E+00  3.6133841692E+00
                       6.2585649683E+00  4.4254737296E+00  1.0840152508E+01
                       0.0000000000E+00  0.0000000000E+00  0.0000000000E+00
                       3.1245468367E+00  4.4321709465E+00  9.0416628051E+00
                       5.2202064544E+00  1.4684606930E+00  9.0416628051E+00
                       3.1245468367E+00  4.4321709465E+00  5.4118738717E+00
                       5.2202064544E+00  1.4684606930E+00  5.4118738717E+00
                       2.0767170278E+00  1.4684606930E+00  7.2267683384E+00
                       6.2680362633E+00  4.4321709465E+00  7.2267683384E+00
            xcart      3.9423245917E+00  2.7876444524E+00  6.8283064927E+00
                       1.1826973775E+01  8.3629333572E+00  2.0484919478E+01
                       0.0000000000E+00  0.0000000000E+00  0.0000000000E+00
                       5.9045378107E+00  8.3755892630E+00  1.7086266487E+01
                       9.8647605560E+00  2.7749885466E+00  1.7086266487E+01
                       5.9045378107E+00  8.3755892630E+00  1.0226959483E+01
                       9.8647605560E+00  2.7749885466E+00  1.0226959483E+01
                       3.9244264380E+00  2.7749885466E+00  1.3656612985E+01
                       1.1844871929E+01  8.3755892630E+00  1.3656612985E+01
             xred      2.5000000000E-01  2.5000000000E-01  2.5000000000E-01
                       7.5000000000E-01  7.5000000000E-01  7.5000000000E-01
                       0.0000000000E+00  0.0000000000E+00  0.0000000000E+00
                       2.4886500000E-01  7.5113500000E-01  7.5113500000E-01
                       7.5113500000E-01  2.4886500000E-01  7.5113500000E-01
                       2.4886500000E-01  7.5113500000E-01  2.4886500000E-01
                       7.5113500000E-01  2.4886500000E-01  2.4886500000E-01
                       2.4886500000E-01  2.4886500000E-01  7.5113500000E-01
                       7.5113500000E-01  7.5113500000E-01  2.4886500000E-01
            znucl       37.00000   52.00000   17.00000

- Timing analysis has been suppressed with timopt=0

 Suggested references for the acknowledgment of ABINIT usage.

 Calculation completed.
.Delivered  14 WARNINGs and   9 COMMENTs to log file.