.Version 9.5.1 of ABINIT

 ABINIT is a project of the Universite Catholique de Louvain,
 Corning Inc. and other collaborators, see ~abinit/doc/developers/contributors.txt .
 acknowledgments of the ABINIT effort.

.Starting date : Sun 25 Apr 2021.
- ( at 17h18 )

- input  file    -> /scratch/users/j/a/jabreu/flow_simple2/flow/w177/t1/run.abi
- output file    -> /scratch/users/j/a/jabreu/flow_simple2/flow/w177/t1/run.abo
- root for input  files -> /scratch/users/j/a/jabreu/flow_simple2/flow/w177/t1/indata/in
- root for output files -> /scratch/users/j/a/jabreu/flow_simple2/flow/w177/t1/outdata/out

 Symmetries : space group Pm -3 m (#221); Bravais cP (primitive cubic)
     intxc =       0      iscf =       7    lmnmax =      32     lnmax =       8
     mgfft =      40  mpssoang =       4    mqgrid =    3001     natom =       2
  nloc_mem =       1    nspden =       1   nspinor =       1    nsppol =       1
      nsym =      48    n1xccc =    2501    ntypat =       2    occopt =       1
   xclevel =       2
-    mband =          17        mffmem =           1         mkmem =           1
-   mkqmem =           1        mk1mem =           1           mpw =        3191
      nfft =       64000          nkpt =           1
  Rough estimation (10% accuracy) of disk space for files :

------------- Echo of variables that govern the present computation ------------
-
- outvars: echo of selected default values
-   iomode0 =  0 , fftalg0 =512 , wfoptalg0 =  0
-
- outvars: echo of global parameters not present in the input file
-  max_nthreads =    0
-
 -outvars: echo values of preprocessed input variables --------
            acell      1.0000000000E+00  1.0000000000E+00  1.0000000000E+00 Bohr
              amu      1.32905430E+02  3.54527000E+01
             ecut      2.80000000E+01 Hartree
-          fftalg         512
           irdden           1
           irdwfk           1
           istwfk        1
              ixc     -116133
           kptopt           0
P           mkmem           1
P          mkqmem           1
P          mk1mem           1
            natom           2
            nband          17
           nbdbuf           4
            ngfft          40      40      40
             nkpt           1
            nstep         100
             nsym          48
           ntypat           2
              occ      2.000000  2.000000  2.000000  2.000000  2.000000  2.000000
                       2.000000  2.000000  0.000000  0.000000  0.000000  0.000000
                       0.000000  0.000000  0.000000  0.000000  0.000000
        optdriver           1
            prtwf          -1
            rfdir           1       1       1
           rfelfd           2
            rprim      7.6832284464E+00  0.0000000000E+00  0.0000000000E+00
                       0.0000000000E+00  7.6832284464E+00  0.0000000000E+00
                       0.0000000000E+00  0.0000000000E+00  7.6832284464E+00
          spgroup         221
           symrel      1  0  0   0  1  0   0  0  1      -1  0  0   0 -1  0   0  0 -1
                      -1  0  0   0  1  0   0  0 -1       1  0  0   0 -1  0   0  0  1
                      -1  0  0   0 -1  0   0  0  1       1  0  0   0  1  0   0  0 -1
                       1  0  0   0 -1  0   0  0 -1      -1  0  0   0  1  0   0  0  1
                       0  1  0   1  0  0   0  0  1       0 -1  0  -1  0  0   0  0 -1
                       0 -1  0   1  0  0   0  0 -1       0  1  0  -1  0  0   0  0  1
                       0 -1  0  -1  0  0   0  0  1       0  1  0   1  0  0   0  0 -1
                       0  1  0  -1  0  0   0  0 -1       0 -1  0   1  0  0   0  0  1
                       0  0  1   1  0  0   0  1  0       0  0 -1  -1  0  0   0 -1  0
                       0  0 -1   1  0  0   0 -1  0       0  0  1  -1  0  0   0  1  0
                       0  0 -1  -1  0  0   0  1  0       0  0  1   1  0  0   0 -1  0
                       0  0  1  -1  0  0   0 -1  0       0  0 -1   1  0  0   0  1  0
                       1  0  0   0  0  1   0  1  0      -1  0  0   0  0 -1   0 -1  0
                      -1  0  0   0  0  1   0 -1  0       1  0  0   0  0 -1   0  1  0
                      -1  0  0   0  0 -1   0  1  0       1  0  0   0  0  1   0 -1  0
                       1  0  0   0  0 -1   0 -1  0      -1  0  0   0  0  1   0  1  0
                       0  1  0   0  0  1   1  0  0       0 -1  0   0  0 -1  -1  0  0
                       0 -1  0   0  0  1  -1  0  0       0  1  0   0  0 -1   1  0  0
                       0 -1  0   0  0 -1   1  0  0       0  1  0   0  0  1  -1  0  0
                       0  1  0   0  0 -1  -1  0  0       0 -1  0   0  0  1   1  0  0
                       0  0  1   0  1  0   1  0  0       0  0 -1   0 -1  0  -1  0  0
                       0  0 -1   0  1  0  -1  0  0       0  0  1   0 -1  0   1  0  0
                       0  0 -1   0 -1  0   1  0  0       0  0  1   0  1  0  -1  0  0
                       0  0  1   0 -1  0  -1  0  0       0  0 -1   0  1  0   1  0  0
           tolwfr      1.00000000E-20
            typat      1  2
           useylm           1
           xangst      0.0000000000E+00  0.0000000000E+00  0.0000000000E+00
                       2.0328946911E+00  2.0328946911E+00  2.0328946911E+00
            xcart      0.0000000000E+00  0.0000000000E+00  0.0000000000E+00
                       3.8416142232E+00  3.8416142232E+00  3.8416142232E+00
             xred      0.0000000000E+00  0.0000000000E+00  0.0000000000E+00
                       5.0000000000E-01  5.0000000000E-01  5.0000000000E-01
            znucl       55.00000   17.00000

 chkinp: Checking input parameters for consistency.

== DATASET  1 ==================================================================
-   mpi_nproc: 1, omp_nthreads: -1 (-1 if OMP is not activated)

--- !DatasetInfo
iteration_state: {dtset: 1, }
dimensions: {natom: 2, nkpt: 1, mband: 17, nsppol: 1, nspinor: 1, nspden: 1, mpw: 3191, }
cutoff_energies: {ecut:  28.0, pawecutdg:  -1.0, }
electrons: {nelect:   1.60000000E+01, charge:   0.00000000E+00, occopt:   1.00000000E+00, tsmear:   1.00000000E-02, }
meta: {optdriver: 1, rfelfd: 2, }
...

 Real(R)+Recip(G) space primitive vectors, cartesian coordinates (Bohr,Bohr^-1):
 R(1)=  7.6832284  0.0000000  0.0000000  G(1)=  0.1301536  0.0000000  0.0000000
 R(2)=  0.0000000  7.6832284  0.0000000  G(2)=  0.0000000  0.1301536  0.0000000
 R(3)=  0.0000000  0.0000000  7.6832284  G(3)=  0.0000000  0.0000000  0.1301536
 Unit cell volume ucvol=  4.5355634E+02 bohr^3
 Angles (23,13,12)=  9.00000000E+01  9.00000000E+01  9.00000000E+01 degrees

 getcut: wavevector=  0.0000  0.0000  0.0000  ngfft=  40  40  40
         ecut(hartree)=     28.000   => boxcut(ratio)=   2.18561

--- Pseudopotential description ------------------------------------------------
- pspini: atom type   1  psp file is /scratch/users/j/a/jabreu/pseudos/PBEsol/Cs.psp8
- pspatm: opening atomic psp file    /scratch/users/j/a/jabreu/pseudos/PBEsol/Cs.psp8
- Cs    ONCVPSP-3.3.0  r_core=   2.27353   1.85623   2.01788   1.90105
- 55.00000   9.00000    180112                znucl, zion, pspdat
    8 -116133    3    4       600   0.00000   pspcod,pspxc,lmax,lloc,mmax,r2well
    5.99000000000000    5.00000000000000    0.00000000000000   rchrg,fchrg,qchrg
     nproj     2     2     2     2
     extension_switch     1
  pspatm : epsatm=   22.12462445
         --- l  ekb(1:nproj) -->
             0    6.214110    0.767882
             1    6.311966    0.793598
             2    3.769790    0.913105
             3   -9.247129   -2.432478
 pspatm: atomic psp has been read  and splines computed

- pspini: atom type   2  psp file is /scratch/users/j/a/jabreu/pseudos/PBEsol/Cl.psp8
- pspatm: opening atomic psp file    /scratch/users/j/a/jabreu/pseudos/PBEsol/Cl.psp8
- Cl    ONCVPSP-3.3.0  r_core=   1.56009   1.35202   1.75774
- 17.00000   7.00000    180112                znucl, zion, pspdat
    8 -116133    2    4       600   0.00000   pspcod,pspxc,lmax,lloc,mmax,r2well
    5.99000000000000    8.00000000000000    0.00000000000000   rchrg,fchrg,qchrg
     nproj     2     2     2
     extension_switch     1
  pspatm : epsatm=    8.95520722
         --- l  ekb(1:nproj) -->
             0    8.193503    0.707970
             1    3.869736    1.114731
             2   -2.915303   -0.810552
 pspatm: atomic psp has been read  and splines computed

   4.97277307E+02                                ecore*ucvol(ha*bohr**3)

-inwffil : will read wavefunctions from disk file /scratch/users/j/a/jabreu/flow_simple2/flow/w177/t1/indata/in_WFK

 ==>  initialize data related to q vector <==

 The list of irreducible perturbations for this q vector is:
    1)    idir= 1    ipert=   3
    2)    idir= 2    ipert=   3
    3)    idir= 3    ipert=   3

 Perturbation wavevector (in red.coord.)   0.000000  0.000000  0.000000
 Perturbation : derivative vs k along direction   1

 dfpt_looppert : COMMENT -
  In a d/dk calculation, iscf is set to -3 automatically.
 The set of symmetries contains only one element for this perturbation.
 symkpt : not enough symmetry to change the number of k points.

[...]

 Initialisation of the first-order wave-functions :
  ireadwf=   0

--- !BeginCycle
iteration_state: {dtset: 1, }
solver: {iscf: 7, nstep: 100, nline: 4, wfoptalg: 0, }
tolerances: {tolwfr: 1.00E-20, }
...

     iter   2DEtotal(Ha)        deltaE(Ha) residm    vres2
-ETOT  1  -14.910315304337     -1.491E+01 4.883E-02 0.000E+00
 ETOT  2  -14.912127865919     -1.813E-03 1.265E-02 0.000E+00
 ETOT  3  -14.912129279939     -1.414E-06 8.624E-05 0.000E+00
 ETOT  4  -14.912129288776     -8.837E-09 4.613E-05 0.000E+00
 ETOT  5  -14.912129288927     -1.507E-10 8.200E-07 0.000E+00
 ETOT  6  -14.912129288930     -3.658E-12 2.808E-07 0.000E+00
 ETOT  7  -14.912129288931     -1.474E-13 6.143E-09 0.000E+00
 ETOT  8  -14.912129288931     -1.599E-14 2.182E-09 0.000E+00
 ETOT  9  -14.912129288931      1.776E-14 5.382E-11 0.000E+00
 ETOT 10  -14.912129288931     -1.243E-14 1.871E-11 0.000E+00
 ETOT 11  -14.912129288931      2.842E-14 4.889E-13 0.000E+00
 ETOT 12  -14.912129288931      5.329E-15 1.676E-13 0.000E+00
 ETOT 13  -14.912129288931      1.776E-15 4.547E-15 0.000E+00
 ETOT 14  -14.912129288931      1.776E-15 1.545E-15 0.000E+00
 ETOT 15  -14.912129288931     -1.776E-15 4.333E-17 0.000E+00
 ETOT 16  -14.912129288931     -1.776E-15 1.459E-17 0.000E+00
 ETOT 17  -14.912129288931      0.000E+00 4.255E-19 0.000E+00
 ETOT 18  -14.912129288931      5.329E-15 1.419E-19 0.000E+00
 ETOT 19  -14.912129288931     -5.329E-15 9.702E-21 0.000E+00

 At SCF step   19   max residual=  9.70E-21 < tolwfr=  1.00E-20 =>converged.

 ----iterations are completed or convergence reached----

 dfpt_looppert: DFPT cycle converged with prtwf=-1. Will skip output of the 1st-order WFK file.
 dfpt_looppert : ek2=    2.1400416334E+01
          f-sum rule ratio=    1.3489885146E+00
 prteigrs : about to open file /scratch/users/j/a/jabreu/flow_simple2/flow/w177/t1/tmpdata/tmp_1WF1_EIG
 Expectation of eigenvalue derivatives (hartree) for nkpt=   1  k points:
  (in case of degenerate eigenvalues, averaged derivative)
 kpt#   1, nband= 17, wtk=  1.00000, kpt=  0.0000  0.0000  0.0000 (reduced coord)
  -0.00000   -0.00000    0.00000    0.00000    0.00000   -0.00000   -0.00000   -0.00000
   0.00000    0.00000    0.00000   -0.00000   -0.00000   -0.00000    0.00001    0.00001
  -0.00000

 Eight components of 2nd-order total energy (hartree) are
 1,2,3: 0th-order hamiltonian combined with 1st-order wavefunctions
     kin0=   4.24328004E+00 eigvalue=   1.28498888E-01  local=  -2.26219358E+00
 4,5,6: 1st-order hamiltonian combined with 1st and 0th-order wfs
     kin1=  -2.88689158E+01  Hartree=   0.00000000E+00     xc=   0.00000000E+00
 7,8,9: eventually, occupation + non-local contributions
    edocc=   1.19517890E+01     enl0=   8.50754930E-01   enl1=  -9.55342736E-01
 1-9 gives the relaxation energy (to be shifted if some occ is /=2.0)
   erelax=  -1.49121293E+01
  No Ewald or frozen-wf contrib.: the relaxation energy is the total one
 2DEtotal=   -0.1491212929E+02 Ha. Also 2DEtotal=   -0.405779674251E+03 eV
    (  non-var. 2DEtotal :   -1.4912129289E+01 Ha)

 Perturbation wavevector (in red.coord.)   0.000000  0.000000  0.000000
 Perturbation : derivative vs k along direction   2
 The set of symmetries contains only one element for this perturbation.
 symkpt : not enough symmetry to change the number of k points.

[...]

 Perturbation wavevector (in red.coord.)   0.000000  0.000000  0.000000
 Perturbation : derivative vs k along direction   3
 The set of symmetries contains only one element for this perturbation.
 symkpt : not enough symmetry to change the number of k points.

-inwffil : will read wavefunctions from disk file /scratch/users/j/a/jabreu/flow_simple2/flow/w177/t1/indata/in_WFK

 Initialisation of the first-order wave-functions :
  ireadwf=   0

--- !BeginCycle
iteration_state: {dtset: 1, }
solver: {iscf: 7, nstep: 100, nline: 4, wfoptalg: 0, }
tolerances: {tolwfr: 1.00E-20, }
...

     iter   2DEtotal(Ha)        deltaE(Ha) residm    vres2
-ETOT  1  -14.910315299772     -1.491E+01 5.194E-02 0.000E+00
 ETOT  2  -14.912127859399     -1.813E-03 1.384E-02 0.000E+00
 ETOT  3  -14.912129276116     -1.417E-06 9.791E-05 0.000E+00
 ETOT  4  -14.912129284573     -8.457E-09 4.402E-05 0.000E+00
 ETOT  5  -14.912129284708     -1.351E-10 1.018E-06 0.000E+00
 ETOT  6  -14.912129284711     -3.038E-12 3.236E-07 0.000E+00
 ETOT  7  -14.912129284711     -9.237E-14 1.496E-08 0.000E+00
 ETOT  8  -14.912129284711     -2.132E-14 4.837E-09 0.000E+00
 ETOT  9  -14.912129284711      7.105E-15 2.681E-10 0.000E+00
 ETOT 10  -14.912129284711      1.066E-14 8.310E-11 0.000E+00
 ETOT 11  -14.912129284711      8.882E-15 4.947E-12 0.000E+00
 ETOT 12  -14.912129284711     -5.329E-15 1.519E-12 0.000E+00
 ETOT 13  -14.912129284711      0.000E+00 9.259E-14 0.000E+00
 ETOT 14  -14.912129284711      1.776E-15 2.866E-14 0.000E+00
 ETOT 15  -14.912129284711     -1.776E-15 1.750E-15 0.000E+00
 ETOT 16  -14.912129284711      3.553E-15 5.466E-16 0.000E+00
 ETOT 17  -14.912129284711     -5.329E-15 3.327E-17 0.000E+00
 ETOT 18  -14.912129284711      1.776E-15 1.046E-17 0.000E+00
 ETOT 19  -14.912129284711      1.776E-15 6.350E-19 0.000E+00
 ETOT 20  -14.912129284711      0.000E+00 2.004E-19 0.000E+00
 ETOT 21  -14.912129284711     -1.776E-15 1.216E-20 0.000E+00
 ETOT 22  -14.912129284711      5.329E-15 9.977E-21 0.000E+00

 At SCF step   22   max residual=  9.98E-21 < tolwfr=  1.00E-20 =>converged.

 ----iterations are completed or convergence reached----

 dfpt_looppert: DFPT cycle converged with prtwf=-1. Will skip output of the 1st-order WFK file.
 dfpt_looppert : ek2=    2.1400416334E+01
          f-sum rule ratio=    1.3489887009E+00
 prteigrs : about to open file /scratch/users/j/a/jabreu/flow_simple2/flow/w177/t1/tmpdata/tmp_1WF1_EIG
 Expectation of eigenvalue derivatives (hartree) for nkpt=   1  k points:
  (in case of degenerate eigenvalues, averaged derivative)
 kpt#   1, nband= 17, wtk=  1.00000, kpt=  0.0000  0.0000  0.0000 (reduced coord)
  -0.00000   -0.00000    0.00000    0.00000    0.00000    0.00000    0.00000    0.00000
   0.00000    0.00000   -0.00000    0.00000    0.00000    0.00000    0.00006    0.00006
   0.00000

 Eight components of 2nd-order total energy (hartree) are
 1,2,3: 0th-order hamiltonian combined with 1st-order wavefunctions
     kin0=   4.24327850E+00 eigvalue=   1.28499064E-01  local=  -2.26219337E+00
 4,5,6: 1st-order hamiltonian combined with 1st and 0th-order wfs
     kin1=  -2.88689198E+01  Hartree=   0.00000000E+00     xc=   0.00000000E+00
 7,8,9: eventually, occupation + non-local contributions
    edocc=   1.19517906E+01     enl0=   8.50754503E-01   enl1=  -9.55338740E-01
 1-9 gives the relaxation energy (to be shifted if some occ is /=2.0)
   erelax=  -1.49121293E+01
  No Ewald or frozen-wf contrib.: the relaxation energy is the total one
 2DEtotal=   -0.1491212928E+02 Ha. Also 2DEtotal=   -0.405779674136E+03 eV
    (  non-var. 2DEtotal :   -1.4912129285E+01 Ha)

 CALCULATION OF EFFECTIVE MASSES
 NOTE : Additional infos (eff. mass eigenvalues, eigenvectors and, if degenerate, average mass) are available in stdout.

 COMMENTS:
 - At k-point ( 0.000, 0.000, 0.000), bands     6 through     8
   are DEGENERATE (effective mass tensor is therefore not defined).
   See Section IIIB Eqs. (67)-(70) and Appendix E of PRB 93 205147 (2016).
 - Angular average effective mass for Frohlich model is to be averaged over degenerate bands. See later.
 - Associated theta integrals calculated with ntheta=   1000 points.

 K-point ( 0.000, 0.000, 0.000) | band =     6
 Transport equivalent effective mass tensor:
             -0.5624855007              0.0000000031              0.0000000053
              0.0000000031             -0.5624847989              0.0000000022
              0.0000000053              0.0000000022             -0.5624855310
 Transport equivalent effective mass tensor eigenvalues:
             -0.5624855319             -0.5624854999             -0.5624847988
 Angular average effective mass 1/(<1/m>)=  -0.5608881703
 Angular average effective mass for Frohlich model (<m**0.5>)**2=  -0.5609997672
 Effective masses along directions: (cart. coord. / red. coord. -> eff. mass)
    1:   1.000000  0.000000  0.000000 /   1.000000  0.000000  0.000000 ->  -0.5409816790
    2:   0.000000  1.000000  0.000000 /   0.000000  1.000000  0.000000 ->  -0.5409809783
    3:   0.000000  0.000000  1.000000 /   0.000000  0.000000  1.000000 ->  -0.5409817439
    4:   0.577350  0.577350  0.577350 /   0.577350  0.577350  0.577350 ->  -0.5753893597
    5:   0.000000  0.707107  0.707107 /   0.000000  0.707107  0.707107 ->  -0.5663833568
    6:   0.707107  0.000000  0.707107 /   0.707107  0.000000  0.707107 ->  -0.5663836623
    7:   0.707107  0.707107  0.000000 /   0.707107  0.707107  0.000000 ->  -0.5663833948

[...]

 Angular average effective mass for Frohlich model, averaged over degenerate bands.
 Value of     (<<m**0.5>>)**2 =     2.044028E+00
 Absolute Value of <<m**0.5>> =     1.429695E+00

 COMMENTS:
 - At k-point ( 0.000, 0.000, 0.000), bands     9 through    10
   are DEGENERATE (effective mass tensor is therefore not defined).
   See Section IIIB Eqs. (67)-(70) and Appendix E of PRB 93 205147 (2016).
 - Angular average effective mass for Frohlich model is to be averaged over degenerate bands. See later.
 - Associated theta integrals calculated with ntheta=   1000 points.

[...]

 K-point ( 0.000, 0.000, 0.000) | band =    10
 Transport equivalent effective mass tensor:
              0.4592682717             -0.0000000569             -0.0000000232
             -0.0000000569              0.4592686619             -0.0000000458
             -0.0000000232             -0.0000000458              0.4592662467
 Transport equivalent effective mass tensor eigenvalues:
              0.4592686707              0.4592682640              0.4592662456
 Angular average effective mass 1/(<1/m>)=   0.4105525628
 Angular average effective mass for Frohlich model (<m**0.5>)**2=   0.4133157795
 Effective masses along directions: (cart. coord. / red. coord. -> eff. mass)
    1:   1.000000  0.000000  0.000000 /   1.000000  0.000000  0.000000 ->   0.3498287203
    2:   0.000000  1.000000  0.000000 /   0.000000  1.000000  0.000000 ->   0.3498287203
    3:   0.000000  0.000000  1.000000 /   0.000000  0.000000  1.000000 ->   0.3498287202
    4:   0.577350  0.577350  0.577350 /   0.577350  0.577350  0.577350 ->   0.5496989849
    5:   0.000000  0.707107  0.707107 /   0.000000  0.707107  0.707107 ->   0.4275589083
    6:   0.707107  0.000000  0.707107 /   0.707107  0.000000  0.707107 ->   0.4275588359
    7:   0.707107  0.707107  0.000000 /   0.707107  0.707107  0.000000 ->   0.4275588065

 Angular average effective mass for Frohlich model, averaged over degenerate bands.
 Value of     (<<m**0.5>>)**2 =     6.143854E-01
 Absolute Value of <<m**0.5>> =     7.838274E-01

 END OF EFFECTIVE MASSES SECTION

 ---- first-order wavefunction calculations are completed ----

 Total localisation tensor (bohr^2) in cartesian coordinates
  WARNING : still subject to testing - especially symmetries.
      direction              matrix element
   alpha     beta       real part   imaginary part
     1        1       1.7621259273    0.0000000000
     1        2       0.0000000000    0.0000000000
     1        3       0.0000000000    0.0000000000
     2        1       0.0000000000    0.0000000000
     2        2       1.7621264204    0.0000000000
     2        3       0.0000000000    0.0000000000
     3        1       0.0000000000    0.0000000000
     3        2       0.0000000000    0.0000000000
     3        3       1.7621259849    0.0000000000

 respfn : d/dk was computed, but no 2DTE, so no DDB output.

== END DATASET(S) ==============================================================

 -outvars: echo values of variables after computation  --------
            acell      1.0000000000E+00  1.0000000000E+00  1.0000000000E+00 Bohr
              amu      1.32905430E+02  3.54527000E+01
             ecut      2.80000000E+01 Hartree
           etotal     -1.4912129285E+01
            fcart      0.0000000000E+00  0.0000000000E+00  0.0000000000E+00
                       0.0000000000E+00  0.0000000000E+00  0.0000000000E+00
-          fftalg         512
           irdden           1
           irdwfk           1
           istwfk        1
              ixc     -116133
           kptopt           0
P           mkmem           1
P          mkqmem           1
P          mk1mem           1
            natom           2
            nband          17
           nbdbuf           4
            ngfft          40      40      40
             nkpt           1
            nstep         100
             nsym          48
           ntypat           2
              occ      2.000000  2.000000  2.000000  2.000000  2.000000  2.000000
                       2.000000  2.000000  0.000000  0.000000  0.000000  0.000000
                       0.000000  0.000000  0.000000  0.000000  0.000000
        optdriver           1
            prtwf          -1
            rfdir           1       1       1
           rfelfd           2
            rprim      7.6832284464E+00  0.0000000000E+00  0.0000000000E+00
                       0.0000000000E+00  7.6832284464E+00  0.0000000000E+00
                       0.0000000000E+00  0.0000000000E+00  7.6832284464E+00
          spgroup         221
           strten      0.0000000000E+00  0.0000000000E+00  0.0000000000E+00
                       0.0000000000E+00  0.0000000000E+00  0.0000000000E+00
           symrel      1  0  0   0  1  0   0  0  1      -1  0  0   0 -1  0   0  0 -1
                      -1  0  0   0  1  0   0  0 -1       1  0  0   0 -1  0   0  0  1
                      -1  0  0   0 -1  0   0  0  1       1  0  0   0  1  0   0  0 -1
                       1  0  0   0 -1  0   0  0 -1      -1  0  0   0  1  0   0  0  1
                       0  1  0   1  0  0   0  0  1       0 -1  0  -1  0  0   0  0 -1
                       0 -1  0   1  0  0   0  0 -1       0  1  0  -1  0  0   0  0  1
                       0 -1  0  -1  0  0   0  0  1       0  1  0   1  0  0   0  0 -1
                       0  1  0  -1  0  0   0  0 -1       0 -1  0   1  0  0   0  0  1
                       0  0  1   1  0  0   0  1  0       0  0 -1  -1  0  0   0 -1  0
                       0  0 -1   1  0  0   0 -1  0       0  0  1  -1  0  0   0  1  0
                       0  0 -1  -1  0  0   0  1  0       0  0  1   1  0  0   0 -1  0
                       0  0  1  -1  0  0   0 -1  0       0  0 -1   1  0  0   0  1  0
                       1  0  0   0  0  1   0  1  0      -1  0  0   0  0 -1   0 -1  0
                      -1  0  0   0  0  1   0 -1  0       1  0  0   0  0 -1   0  1  0
                      -1  0  0   0  0 -1   0  1  0       1  0  0   0  0  1   0 -1  0
                       1  0  0   0  0 -1   0 -1  0      -1  0  0   0  0  1   0  1  0
                       0  1  0   0  0  1   1  0  0       0 -1  0   0  0 -1  -1  0  0
                       0 -1  0   0  0  1  -1  0  0       0  1  0   0  0 -1   1  0  0
                       0 -1  0   0  0 -1   1  0  0       0  1  0   0  0  1  -1  0  0
                       0  1  0   0  0 -1  -1  0  0       0 -1  0   0  0  1   1  0  0
                       0  0  1   0  1  0   1  0  0       0  0 -1   0 -1  0  -1  0  0
                       0  0 -1   0  1  0  -1  0  0       0  0  1   0 -1  0   1  0  0
                       0  0 -1   0 -1  0   1  0  0       0  0  1   0  1  0  -1  0  0
                       0  0  1   0 -1  0  -1  0  0       0  0 -1   0  1  0   1  0  0
           tolwfr      1.00000000E-20
            typat      1  2
           useylm           1
           xangst      0.0000000000E+00  0.0000000000E+00  0.0000000000E+00
                       2.0328946911E+00  2.0328946911E+00  2.0328946911E+00
            xcart      0.0000000000E+00  0.0000000000E+00  0.0000000000E+00
                       3.8416142232E+00  3.8416142232E+00  3.8416142232E+00
             xred      0.0000000000E+00  0.0000000000E+00  0.0000000000E+00
                       5.0000000000E-01  5.0000000000E-01  5.0000000000E-01
            znucl       55.00000   17.00000

- Timing analysis has been suppressed with timopt=0

 Suggested references for the acknowledgment of ABINIT usage.

 Calculation completed.
.Delivered   6 WARNINGs and   5 COMMENTs to log file.