.Version 9.5.1 of ABINIT

 ABINIT is a project of the Universite Catholique de Louvain,
 Corning Inc. and other collaborators, see ~abinit/doc/developers/contributors.txt .
 acknowledgments of the ABINIT effort.

.Starting date : Tue 11 May 2021.
- ( at 21h24 )

- input  file    -> /scratch/users/j/a/jabreu/flow_simple_8atoms/flow/w300/t1/run.abi
- output file    -> /scratch/users/j/a/jabreu/flow_simple_8atoms/flow/w300/t1/run.abo
- root for input  files -> /scratch/users/j/a/jabreu/flow_simple_8atoms/flow/w300/t1/indata/in
- root for output files -> /scratch/users/j/a/jabreu/flow_simple_8atoms/flow/w300/t1/outdata/out

 Symmetries : space group P4/n m m (#129); Bravais tP (primitive tetrag.)
     intxc =       0      iscf =       7    lmnmax =      18     lnmax =       6
     mgfft =     108  mpssoang =       3    mqgrid =    5133     natom =       8
  nloc_mem =       1    nspden =       1   nspinor =       1    nsppol =       1
      nsym =      16    n1xccc =    2501    ntypat =       4    occopt =       1
   xclevel =       2
-    mband =          65        mffmem =           1         mkmem =           2
-   mkqmem =           2        mk1mem =           2           mpw =       13668
      nfft =      248832          nkpt =           2
  Rough estimation (10% accuracy) of disk space for files :

------------- Echo of variables that govern the present computation ------------
-
- outvars: echo of selected default values
-   iomode0 =  0 , fftalg0 =512 , wfoptalg0 =  0
-
- outvars: echo of global parameters not present in the input file
-  max_nthreads =    0
-
 -outvars: echo values of preprocessed input variables --------
            acell      1.0000000000E+00  1.0000000000E+00  1.0000000000E+00 Bohr
              amu      6.35460000E+01  2.08980370E+02  7.89600000E+01
                       1.59994000E+01
             ecut      4.60000000E+01 Hartree
-          fftalg         512
           irdden           1
           irdwfk           1
           istwfk        0    1
              ixc     -116133
              kpt      1.71428571E-01  1.71428571E-01  0.00000000E+00
                       1.34217238E-17  1.34217238E-17  5.00000000E-01
           kptopt           0
P           mkmem           2
P          mkqmem           2
P          mk1mem           2
            natom           8
            nband          65
           nbdbuf           4
            ngfft          48      48     108
             nkpt           2
            nstep        2000
             nsym          16
           ntypat           4
              occ      2.000000  2.000000  2.000000  2.000000  2.000000  2.000000
                       2.000000  2.000000  2.000000  2.000000  2.000000  2.000000
                       2.000000  2.000000  2.000000  2.000000  2.000000  2.000000
                       2.000000  2.000000  2.000000  2.000000  2.000000  2.000000
                       2.000000  2.000000  2.000000  2.000000  2.000000  2.000000
                       2.000000  2.000000  2.000000  2.000000  2.000000  2.000000
                       2.000000  2.000000  2.000000  2.000000  2.000000  2.000000
                       2.000000  2.000000  2.000000  2.000000  2.000000  2.000000
                       2.000000  2.000000  2.000000  2.000000  2.000000  2.000000
                       2.000000  2.000000  0.000000  0.000000  0.000000  0.000000
                       0.000000  0.000000  0.000000  0.000000  0.000000
        optdriver           1
            prtwf          -1
            rfdir           1       1       1
           rfelfd           2
            rprim      7.3701725238E+00  0.0000000000E+00  0.0000000000E+00
                       0.0000000000E+00  7.3701725238E+00  0.0000000000E+00
                       0.0000000000E+00  0.0000000000E+00  1.6812032391E+01
          spgroup         129
           symrel      1  0  0   0  1  0   0  0  1      -1  0  0   0 -1  0   0  0 -1
                      -1  0  0   0  1  0   0  0 -1       1  0  0   0 -1  0   0  0  1
                      -1  0  0   0 -1  0   0  0  1       1  0  0   0  1  0   0  0 -1
                       1  0  0   0 -1  0   0  0 -1      -1  0  0   0  1  0   0  0  1
                       0  1  0   1  0  0   0  0  1       0 -1  0  -1  0  0   0  0 -1
                       0 -1  0   1  0  0   0  0 -1       0  1  0  -1  0  0   0  0  1
                       0 -1  0  -1  0  0   0  0  1       0  1  0   1  0  0   0  0 -1
                       0  1  0  -1  0  0   0  0 -1       0 -1  0   1  0  0   0  0  1
            tnons      0.0000000  0.0000000  0.0000000     0.5000000  0.5000000 -0.0000000
                       0.5000000  0.5000000 -0.0000000     0.0000000  0.0000000  0.0000000
                       0.0000000  0.0000000  0.0000000     0.5000000  0.5000000 -0.0000000
                       0.5000000  0.5000000 -0.0000000     0.0000000  0.0000000  0.0000000
                       0.5000000  0.5000000  0.0000000     0.0000000  0.0000000 -0.0000000
                       0.0000000  0.0000000 -0.0000000     0.5000000  0.5000000  0.0000000
                       0.5000000  0.5000000  0.0000000     0.0000000  0.0000000 -0.0000000
                       0.0000000  0.0000000 -0.0000000     0.5000000  0.5000000  0.0000000
           tolwfr      1.00000000E-20
            typat      1  1  2  2  3  3  4  4
           useylm           1
              wtk        0.50000    0.50000
           xangst      0.0000000000E+00  0.0000000000E+00  4.4482721856E+00
                       1.9500636615E+00  1.9500636615E+00  4.4482721856E+00
                       0.0000000000E+00  1.9500636615E+00  7.6306461760E+00
                       1.9500636615E+00  0.0000000000E+00  1.2658981951E+00
                       1.9500636615E+00  0.0000000000E+00  5.9822143660E+00
                       0.0000000000E+00  1.9500636615E+00  2.9143300051E+00
                       1.9500636615E+00  1.9500636615E+00  0.0000000000E+00
                       0.0000000000E+00  0.0000000000E+00  0.0000000000E+00
            xcart      0.0000000000E+00  0.0000000000E+00  8.4060161952E+00
                       3.6850862619E+00  3.6850862619E+00  8.4060161952E+00
                       0.0000000000E+00  3.6850862619E+00  1.4419831490E+01
                       3.6850862619E+00  0.0000000000E+00  2.3922009009E+00
                       3.6850862619E+00  0.0000000000E+00  1.1304746820E+01
                       0.0000000000E+00  3.6850862619E+00  5.5072855705E+00
                       3.6850862619E+00  3.6850862619E+00  0.0000000000E+00
                       0.0000000000E+00  0.0000000000E+00  0.0000000000E+00
             xred      0.0000000000E+00  0.0000000000E+00  5.0000000000E-01
                       5.0000000000E-01  5.0000000000E-01  5.0000000000E-01
                       0.0000000000E+00  5.0000000000E-01  8.5770900000E-01
                       5.0000000000E-01  0.0000000000E+00  1.4229100000E-01
                       5.0000000000E-01  0.0000000000E+00  6.7242000000E-01
                       0.0000000000E+00  5.0000000000E-01  3.2758000000E-01
                       5.0000000000E-01  5.0000000000E-01  0.0000000000E+00
                       0.0000000000E+00  0.0000000000E+00  0.0000000000E+00
            znucl       29.00000   83.00000   34.00000    8.00000

 chkinp: Checking input parameters for consistency.

== DATASET  1 ==================================================================
-   mpi_nproc: 1, omp_nthreads: -1 (-1 if OMP is not activated)

--- !DatasetInfo
iteration_state: {dtset: 1, }
dimensions: {natom: 8, nkpt: 2, mband: 65, nsppol: 1, nspinor: 1, nspden: 1, mpw: 13668, }
cutoff_energies: {ecut:  46.0, pawecutdg:  -1.0, }
electrons: {nelect:   1.12000000E+02, charge:   0.00000000E+00, occopt:   1.00000000E+00, tsmear:   1.00000000E-02, }
meta: {optdriver: 1, rfelfd: 2, }
...

 Real(R)+Recip(G) space primitive vectors, cartesian coordinates (Bohr,Bohr^-1):
 R(1)=  7.3701725  0.0000000  0.0000000  G(1)=  0.1356820  0.0000000  0.0000000
 R(2)=  0.0000000  7.3701725  0.0000000  G(2)=  0.0000000  0.1356820  0.0000000
 R(3)=  0.0000000  0.0000000 16.8120324  G(3)=  0.0000000  0.0000000  0.0594812
 Unit cell volume ucvol=  9.1322024E+02 bohr^3
 Angles (23,13,12)=  9.00000000E+01  9.00000000E+01  9.00000000E+01 degrees

 getcut: wavevector=  0.0000  0.0000  0.0000  ngfft=  48  48 108
         ecut(hartree)=     46.000   => boxcut(ratio)=   2.10407

--- Pseudopotential description ------------------------------------------------
- pspini: atom type   1  psp file is /scratch/users/j/a/jabreu/pseudos/PBEsol/Cu.psp8
- pspatm: opening atomic psp file    /scratch/users/j/a/jabreu/pseudos/PBEsol/Cu.psp8
- Cu    ONCVPSP-3.3.0  r_core=   1.26204   1.45626   1.76249
- 29.00000  19.00000    180112                znucl, zion, pspdat
    8 -116133    2    4       600   0.00000   pspcod,pspxc,lmax,lloc,mmax,r2well
    5.99000000000000    3.50000000000000    0.00000000000000   rchrg,fchrg,qchrg
     nproj     2     2     2
     extension_switch     1
  pspatm : epsatm=   21.63488701
         --- l  ekb(1:nproj) -->
             0    5.008230   -0.401634
             1   -3.496700   -0.765945
             2   -6.895851   -2.521180
 pspatm: atomic psp has been read  and splines computed

- pspini: atom type   2  psp file is /scratch/users/j/a/jabreu/pseudos/PBEsol/Bi.psp8
- pspatm: opening atomic psp file    /scratch/users/j/a/jabreu/pseudos/PBEsol/Bi.psp8
- Bi    ONCVPSP-3.3.0  r_core=   2.42776   2.51622   2.10397
- 83.00000  15.00000    180112                znucl, zion, pspdat
    8 -116133    2    4       600   0.00000   pspcod,pspxc,lmax,lloc,mmax,r2well
    5.99000000000000    6.00000000000000    0.00000000000000   rchrg,fchrg,qchrg
     nproj     2     2     2
     extension_switch     1
  pspatm : epsatm=   42.90078186
         --- l  ekb(1:nproj) -->
             0    6.017688    0.961606
             1    4.379371    0.528498
             2   -3.458170   -0.753782
 pspatm: atomic psp has been read  and splines computed

[...]

- pspini: atom type   4  psp file is /scratch/users/j/a/jabreu/pseudos/PBEsol/O.psp8
- pspatm: opening atomic psp file    /scratch/users/j/a/jabreu/pseudos/PBEsol/O.psp8
- O     ONCVPSP-3.3.0  r_core=   1.35509   1.45563   1.26150
-  8.00000   6.00000    180112                znucl, zion, pspdat
    8 -116133    2    4       600   0.00000   pspcod,pspxc,lmax,lloc,mmax,r2well
    5.99000000000000    4.00000000000000    0.00000000000000   rchrg,fchrg,qchrg
     nproj     2     2     1
     extension_switch     1
  pspatm : epsatm=    6.22910522
         --- l  ekb(1:nproj) -->
             0    6.050032    0.820363
             1   -4.739617   -1.153841
             2   -1.335834
 pspatm: atomic psp has been read  and splines computed

   2.23873203E+04                                ecore*ucvol(ha*bohr**3)

-inwffil : will read wavefunctions from disk file /scratch/users/j/a/jabreu/flow_simple_8atoms/flow/w300/t1/indata/in_WFK

 ==>  initialize data related to q vector <==

 The list of irreducible perturbations for this q vector is:
    1)    idir= 1    ipert=   9
    2)    idir= 2    ipert=   9
    3)    idir= 3    ipert=   9

[...]
 dfpt_looppert : ek2=    1.6279926763E+02
          f-sum rule ratio=    1.1510430227E+00
 prteigrs : about to open file /scratch/users/j/a/jabreu/flow_simple_8atoms/flow/w300/t1/tmpdata/tmp_1WF1_EIG
 Expectation of eigenvalue derivatives (hartree) for nkpt=   2  k points:
  (in case of degenerate eigenvalues, averaged derivative)
 kpt#   1, nband= 65, wtk=  0.50000, kpt=  0.1714  0.1714  0.0000 (reduced coord)
   0.00008   -0.00008   -0.00011    0.00119   -0.00121    0.00009    0.00010   -0.00010
  -0.00001   -0.00001    0.00000   -0.00000    0.00001    0.00001    0.00004    0.00003
  -0.00001   -0.00001    0.00170   -0.01410    0.00148    0.00258    0.00389    0.00332
   0.00019   -0.00089    0.00010   -0.00130    0.07910   -0.04277    0.05997    0.05890
  -0.05225   -0.12170   -0.04943    0.11835   -0.01025   -0.13015   -0.15647   -0.00487
  -0.11563    0.00869   -0.01302    0.01267    0.03473    0.03441   -0.02581   -0.01205
  -0.01648   -0.03480   -0.02739   -0.03078    0.00361   -0.07218   -0.00539    0.01182
  -0.09276    0.20930    0.19889   -0.17860    0.05459   -0.00597   -0.17804    0.23258
  -0.05601
 prteigrs : prtvol=0 or 1, do not print more k-points.

 Eight components of 2nd-order total energy (hartree) are
 1,2,3: 0th-order hamiltonian combined with 1st-order wavefunctions
     kin0=   1.87741920E+02 eigvalue=   1.42707478E+01  local=  -7.85175464E+01
 4,5,6: 1st-order hamiltonian combined with 1st and 0th-order wfs
     kin1=  -1.87388961E+02  Hartree=   0.00000000E+00     xc=   0.00000000E+00
 7,8,9: eventually, occupation + non-local contributions
    edocc=   3.01113436E+01     enl0=   9.77865807E+00   enl1=  -1.39381286E+02
 1-9 gives the relaxation energy (to be shifted if some occ is /=2.0)
   erelax=  -1.63385123E+02
  No Ewald or frozen-wf contrib.: the relaxation energy is the total one
 2DEtotal=   -0.1633851233E+03 Ha. Also 2DEtotal=   -0.444593530846E+04 eV
    (  non-var. 2DEtotal :   -1.6338512335E+02 Ha)

 Perturbation wavevector (in red.coord.)   0.000000  0.000000  0.000000
 Perturbation : derivative vs k along direction   2
 The set of symmetries contains only one element for this perturbation.
 symkpt : not enough symmetry to change the number of k points.

[...]

 Perturbation wavevector (in red.coord.)   0.000000  0.000000  0.000000
 Perturbation : derivative vs k along direction   3
 The set of symmetries contains only one element for this perturbation.
 symkpt : not enough symmetry to change the number of k points.

-inwffil : will read wavefunctions from disk file /scratch/users/j/a/jabreu/flow_simple_8atoms/flow/w300/t1/indata/in_WFK

 Initialisation of the first-order wave-functions :
  ireadwf=   0

--- !BeginCycle
iteration_state: {dtset: 1, }
solver: {iscf: 7, nstep: 2000, nline: 4, wfoptalg: 0, }
tolerances: {tolwfr: 1.00E-20, }
...

     iter   2DEtotal(Ha)        deltaE(Ha) residm    vres2
-ETOT  1  -29.853002498547     -2.985E+01 6.442E-02 0.000E+00
 ETOT  2  -29.919462350809     -6.646E-02 1.277E-03 0.000E+00
 ETOT  3  -29.921660921678     -2.199E-03 1.307E-04 0.000E+00
 ETOT  4  -29.921809229117     -1.483E-04 1.177E-05 0.000E+00
 ETOT  5  -29.921822037388     -1.281E-05 1.047E-06 0.000E+00
 ETOT  6  -29.921823282667     -1.245E-06 1.537E-07 0.000E+00
 ETOT  7  -29.921823414362     -1.317E-07 1.357E-08 0.000E+00
 ETOT  8  -29.921823428938     -1.458E-08 2.166E-09 0.000E+00
 ETOT  9  -29.921823430616     -1.677E-09 1.884E-10 0.000E+00
 ETOT 10  -29.921823430813     -1.974E-10 3.171E-11 0.000E+00
 ETOT 11  -29.921823430837     -2.369E-11 2.716E-12 0.000E+00
 ETOT 12  -29.921823430840     -2.906E-12 4.707E-13 0.000E+00
 ETOT 13  -29.921823430840     -3.446E-13 3.982E-14 0.000E+00
 ETOT 14  -29.921823430840     -4.619E-14 7.025E-15 0.000E+00
 ETOT 15  -29.921823430840     -1.421E-14 5.885E-16 0.000E+00
 ETOT 16  -29.921823430840     -7.105E-15 1.052E-16 0.000E+00
 ETOT 17  -29.921823430840      1.776E-14 8.750E-18 0.000E+00
 ETOT 18  -29.921823430840     -3.553E-15 1.581E-18 0.000E+00
 ETOT 19  -29.921823430840      0.000E+00 1.307E-19 0.000E+00
 ETOT 20  -29.921823430840      3.553E-15 2.382E-20 0.000E+00
 ETOT 21  -29.921823430840      7.105E-15 9.951E-21 0.000E+00

 At SCF step   21   max residual=  9.95E-21 < tolwfr=  1.00E-20 =>converged.

 ----iterations are completed or convergence reached----

 dfpt_looppert: DFPT cycle converged with prtwf=-1. Will skip output of the 1st-order WFK file.
 dfpt_looppert : ek2=    3.1287244707E+01
          f-sum rule ratio=    1.0610178629E+00
 prteigrs : about to open file /scratch/users/j/a/jabreu/flow_simple_8atoms/flow/w300/t1/tmpdata/tmp_1WF1_EIG
 Expectation of eigenvalue derivatives (hartree) for nkpt=   2  k points:
  (in case of degenerate eigenvalues, averaged derivative)
 kpt#   1, nband= 65, wtk=  0.50000, kpt=  0.1714  0.1714  0.0000 (reduced coord)
   0.00000    0.00000    0.00000    0.00000   -0.00000    0.00000    0.00000    0.00000
   0.00000   -0.00000   -0.00000    0.00000   -0.00000   -0.00000   -0.00000   -0.00000
  -0.00000   -0.00000   -0.00000    0.00000    0.00000   -0.00000    0.00000   -0.00000
   0.00000    0.00000    0.00000   -0.00000    0.00000   -0.00000   -0.00000    0.00000
   0.00000    0.00000    0.00000    0.00000   -0.00000   -0.00000   -0.00000   -0.00000
  -0.00000    0.00000   -0.00000   -0.00000   -0.00000    0.00000    0.00000   -0.00000
   0.00000    0.00000   -0.00000    0.00000    0.00000    0.00000    0.00000   -0.00000
   0.00000    0.00000   -0.00000   -0.00000    0.00000    0.00000   -0.00000   -0.00000
  -0.00000
 prteigrs : prtvol=0 or 1, do not print more k-points.

 Eight components of 2nd-order total energy (hartree) are
 1,2,3: 0th-order hamiltonian combined with 1st-order wavefunctions
     kin0=   3.58234286E+01 eigvalue=   2.76655273E+00  local=  -1.48831499E+01
 4,5,6: 1st-order hamiltonian combined with 1st and 0th-order wfs
     kin1=  -3.31963255E+01  Hartree=   0.00000000E+00     xc=   0.00000000E+00
 7,8,9: eventually, occupation + non-local contributions
    edocc=   4.33025579E+00     enl0=   1.88473616E+00   enl1=  -2.66473213E+01
 1-9 gives the relaxation energy (to be shifted if some occ is /=2.0)
   erelax=  -2.99218234E+01
  No Ewald or frozen-wf contrib.: the relaxation energy is the total one
 2DEtotal=   -0.2992182343E+02 Ha. Also 2DEtotal=   -0.814214223168E+03 eV
    (  non-var. 2DEtotal :   -2.9921823431E+01 Ha)

 CALCULATION OF EFFECTIVE MASSES
 NOTE : Additional infos (eff. mass eigenvalues, eigenvectors and, if degenerate, average mass) are available in stdout.

 K-point ( 0.171, 0.171, 0.000) | band =    56
 Effective mass tensor:
             -1.6632510571              1.4612935937              0.0000000677
              1.4612935937             -1.6632518822             -0.0000000532
              0.0000000677             -0.0000000532             -1.1481364200
 Effective mass tensor eigenvalues:
             -3.1245450633             -1.1481364200             -0.2019578760
 Angular average effective mass 1/(<1/m>)=  -0.4883964455
 Angular average effective mass for Frohlich model (<m**0.5>)**2=  -0.7005226849
 Effective masses along directions: (cart. coord. / red. coord. -> eff. mass)
    1:   1.000000  0.000000  0.000000 /   1.000000  0.000000  0.000000 ->  -0.3793932183
    2:   0.000000  1.000000  0.000000 /   0.000000  1.000000  0.000000 ->  -0.3793934064
    3:   0.000000  0.000000  1.000000 /   0.000000  0.000000  1.000000 ->  -1.1481364200
    4:   0.577350  0.577350  0.577350 /   0.372591  0.372591  0.849913 ->  -0.2784472890
    5:   0.000000  0.707107  0.707107 /   0.000000  0.401500  0.915859 ->  -0.5703265185
    6:   0.707107  0.000000  0.707107 /   0.401500  0.000000  0.915859 ->  -0.5703262949
    7:   0.707107  0.707107  0.000000 /   0.707107  0.707107  0.000000 ->  -0.2019578760

 K-point ( 0.000, 0.000, 0.500) | band =    57
 Effective mass tensor:
              0.1078083381             -0.0000000003              0.0000003410
             -0.0000000003              0.1078083380             -0.0000004926
              0.0000003410             -0.0000004926              0.2859795410
 Effective mass tensor eigenvalues:
              0.1078083377              0.1078083384              0.2859795410
 Angular average effective mass 1/(<1/m>)=   0.1360655635
 Angular average effective mass for Frohlich model (<m**0.5>)**2=   0.1431995533
 Effective masses along directions: (cart. coord. / red. coord. -> eff. mass)
    1:   1.000000  0.000000  0.000000 /   1.000000  0.000000  0.000000 ->   0.1078083381
    2:   0.000000  1.000000  0.000000 /   0.000000  1.000000  0.000000 ->   0.1078083380
    3:   0.000000  0.000000  1.000000 /   0.000000  0.000000  1.000000 ->   0.2859795410
    4:   0.577350  0.577350  0.577350 /   0.372591  0.372591  0.849913 ->   0.1360655025
    5:   0.000000  0.707107  0.707107 /   0.000000  0.401500  0.915859 ->   0.1565863427
    6:   0.707107  0.000000  0.707107 /   0.401500  0.000000  0.915859 ->   0.1565870057
    7:   0.707107  0.707107  0.000000 /   0.707107  0.707107  0.000000 ->   0.1078083377

 END OF EFFECTIVE MASSES SECTION

 ---- first-order wavefunction calculations are completed ----

 Total localisation tensor (bohr^2) in cartesian coordinates
  WARNING : still subject to testing - especially symmetries.
      direction              matrix element
   alpha     beta       real part   imaginary part
     1        1       3.4978335680    0.0000000000
     1        2       0.0000000000    0.0000000000
     1        3       0.0000000000    0.0000000000
     2        1       0.0000000000    0.0000000000
     2        2       3.4978339237    0.0000000000
     2        3       0.0000000000    0.0000000000
     3        1       0.0000000000    0.0000000000
     3        2       0.0000000000    0.0000000000
     3        3       1.3397762477    0.0000000000

 respfn : d/dk was computed, but no 2DTE, so no DDB output.

== END DATASET(S) ==============================================================

 -outvars: echo values of variables after computation  --------
            acell      1.0000000000E+00  1.0000000000E+00  1.0000000000E+00 Bohr
              amu      6.35460000E+01  2.08980370E+02  7.89600000E+01
                       1.59994000E+01
             ecut      4.60000000E+01 Hartree
           etotal     -2.9921823431E+01
            fcart      0.0000000000E+00  0.0000000000E+00  0.0000000000E+00
                       0.0000000000E+00  0.0000000000E+00  0.0000000000E+00
                       0.0000000000E+00  0.0000000000E+00  0.0000000000E+00
                       0.0000000000E+00  0.0000000000E+00  0.0000000000E+00
                       0.0000000000E+00  0.0000000000E+00  0.0000000000E+00
                       0.0000000000E+00  0.0000000000E+00  0.0000000000E+00
                       0.0000000000E+00  0.0000000000E+00  0.0000000000E+00
                       0.0000000000E+00  0.0000000000E+00  0.0000000000E+00
-          fftalg         512
           irdden           1
           irdwfk           1
           istwfk        0    1
              ixc     -116133
              kpt      1.71428571E-01  1.71428571E-01  0.00000000E+00
                       1.34217238E-17  1.34217238E-17  5.00000000E-01
           kptopt           0
P           mkmem           2
P          mkqmem           2
P          mk1mem           2
            natom           8
            nband          65
           nbdbuf           4
            ngfft          48      48     108
             nkpt           2
            nstep        2000
             nsym          16
           ntypat           4
              occ      2.000000  2.000000  2.000000  2.000000  2.000000  2.000000
                       2.000000  2.000000  2.000000  2.000000  2.000000  2.000000
                       2.000000  2.000000  2.000000  2.000000  2.000000  2.000000
                       2.000000  2.000000  2.000000  2.000000  2.000000  2.000000
                       2.000000  2.000000  2.000000  2.000000  2.000000  2.000000
                       2.000000  2.000000  2.000000  2.000000  2.000000  2.000000
                       2.000000  2.000000  2.000000  2.000000  2.000000  2.000000
                       2.000000  2.000000  2.000000  2.000000  2.000000  2.000000
                       2.000000  2.000000  2.000000  2.000000  2.000000  2.000000
                       2.000000  2.000000  0.000000  0.000000  0.000000  0.000000
                       0.000000  0.000000  0.000000  0.000000  0.000000
        optdriver           1
            prtwf          -1
            rfdir           1       1       1
           rfelfd           2
            rprim      7.3701725238E+00  0.0000000000E+00  0.0000000000E+00
                       0.0000000000E+00  7.3701725238E+00  0.0000000000E+00
                       0.0000000000E+00  0.0000000000E+00  1.6812032391E+01
          spgroup         129
           strten      0.0000000000E+00  0.0000000000E+00  0.0000000000E+00
                       0.0000000000E+00  0.0000000000E+00  0.0000000000E+00
           symrel      1  0  0   0  1  0   0  0  1      -1  0  0   0 -1  0   0  0 -1
                      -1  0  0   0  1  0   0  0 -1       1  0  0   0 -1  0   0  0  1
                      -1  0  0   0 -1  0   0  0  1       1  0  0   0  1  0   0  0 -1
                       1  0  0   0 -1  0   0  0 -1      -1  0  0   0  1  0   0  0  1
                       0  1  0   1  0  0   0  0  1       0 -1  0  -1  0  0   0  0 -1
                       0 -1  0   1  0  0   0  0 -1       0  1  0  -1  0  0   0  0  1
                       0 -1  0  -1  0  0   0  0  1       0  1  0   1  0  0   0  0 -1
                       0  1  0  -1  0  0   0  0 -1       0 -1  0   1  0  0   0  0  1
            tnons      0.0000000  0.0000000  0.0000000     0.5000000  0.5000000 -0.0000000
                       0.5000000  0.5000000 -0.0000000     0.0000000  0.0000000  0.0000000
                       0.0000000  0.0000000  0.0000000     0.5000000  0.5000000 -0.0000000
                       0.5000000  0.5000000 -0.0000000     0.0000000  0.0000000  0.0000000
                       0.5000000  0.5000000  0.0000000     0.0000000  0.0000000 -0.0000000
                       0.0000000  0.0000000 -0.0000000     0.5000000  0.5000000  0.0000000
                       0.5000000  0.5000000  0.0000000     0.0000000  0.0000000 -0.0000000
                       0.0000000  0.0000000 -0.0000000     0.5000000  0.5000000  0.0000000
           tolwfr      1.00000000E-20
            typat      1  1  2  2  3  3  4  4
           useylm           1
              wtk        0.50000    0.50000
           xangst      0.0000000000E+00  0.0000000000E+00  4.4482721856E+00
                       1.9500636615E+00  1.9500636615E+00  4.4482721856E+00
                       0.0000000000E+00  1.9500636615E+00  7.6306461760E+00
                       1.9500636615E+00  0.0000000000E+00  1.2658981951E+00
                       1.9500636615E+00  0.0000000000E+00  5.9822143660E+00
                       0.0000000000E+00  1.9500636615E+00  2.9143300051E+00
                       1.9500636615E+00  1.9500636615E+00  0.0000000000E+00
                       0.0000000000E+00  0.0000000000E+00  0.0000000000E+00
            xcart      0.0000000000E+00  0.0000000000E+00  8.4060161952E+00
                       3.6850862619E+00  3.6850862619E+00  8.4060161952E+00
                       0.0000000000E+00  3.6850862619E+00  1.4419831490E+01
                       3.6850862619E+00  0.0000000000E+00  2.3922009009E+00
                       3.6850862619E+00  0.0000000000E+00  1.1304746820E+01
                       0.0000000000E+00  3.6850862619E+00  5.5072855705E+00
                       3.6850862619E+00  3.6850862619E+00  0.0000000000E+00
                       0.0000000000E+00  0.0000000000E+00  0.0000000000E+00
             xred      0.0000000000E+00  0.0000000000E+00  5.0000000000E-01
                       5.0000000000E-01  5.0000000000E-01  5.0000000000E-01
                       0.0000000000E+00  5.0000000000E-01  8.5770900000E-01
                       5.0000000000E-01  0.0000000000E+00  1.4229100000E-01
                       5.0000000000E-01  0.0000000000E+00  6.7242000000E-01
                       0.0000000000E+00  5.0000000000E-01  3.2758000000E-01
                       5.0000000000E-01  5.0000000000E-01  0.0000000000E+00
                       0.0000000000E+00  0.0000000000E+00  0.0000000000E+00
            znucl       29.00000   83.00000   34.00000    8.00000

- Timing analysis has been suppressed with timopt=0

 Suggested references for the acknowledgment of ABINIT usage.

 Calculation completed.
.Delivered  14 WARNINGs and   9 COMMENTs to log file.