.Version 9.5.2 of ABINIT

 ABINIT is a project of the Universite Catholique de Louvain,
 Corning Inc. and other collaborators, see ~abinit/doc/developers/contributors.txt .
 acknowledgments of the ABINIT effort.

.Starting date : Mon 31 May 2021.
- ( at 22h38 )

- input  file    -> /scratch/users/j/a/jabreu/flow_simple_11atoms/flow/w373/t1/run.abi
- output file    -> /scratch/users/j/a/jabreu/flow_simple_11atoms/flow/w373/t1/run.abo
- root for input  files -> /scratch/users/j/a/jabreu/flow_simple_11atoms/flow/w373/t1/indata/in
- root for output files -> /scratch/users/j/a/jabreu/flow_simple_11atoms/flow/w373/t1/outdata/out

 Symmetries : space group Ib a m (# 72); Bravais oI (body-center ortho.)
     intxc =       0      iscf =       7    lmnmax =      18     lnmax =       6
     mgfft =     100  mpssoang =       3    mqgrid =    3400     natom =      12
  nloc_mem =       1    nspden =       1   nspinor =       1    nsppol =       1
      nsym =       8    n1xccc =    2501    ntypat =       4    occopt =       1
   xclevel =       2
-    mband =          59        mffmem =           1         mkmem =           2
-   mkqmem =           2        mk1mem =           2           mpw =       30334
      nfft =     1000000          nkpt =           2
  Rough estimation (10% accuracy) of disk space for files :

------------- Echo of variables that govern the present computation ------------
-
- outvars: echo of selected default values
-   iomode0 =  0 , fftalg0 =512 , wfoptalg0 =  0
-
- outvars: echo of global parameters not present in the input file
-  max_nthreads =    0
-
 -outvars: echo values of preprocessed input variables --------
            acell      1.0000000000E+00  1.0000000000E+00  1.0000000000E+00 Bohr
              amu      3.90983000E+01  2.29897680E+01  1.14820000E+02
                       3.09737620E+01
             ecut      4.40000000E+01 Hartree
-          fftalg         512
           irdden           1
           irdwfk           1
           istwfk        0    1
              ixc     -116133
              kpt      3.07692308E-01  3.07692308E-01 -3.07692308E-01
                       0.00000000E+00  0.00000000E+00  0.00000000E+00
           kptopt           0
P           mkmem           2
P          mkqmem           2
P          mk1mem           2
            natom          12
            nband          59
           nbdbuf           4
            ngfft         100     100     100
             nkpt           2
            nstep        2000
             nsym           8
           ntypat           4
              occ      2.000000  2.000000  2.000000  2.000000  2.000000  2.000000
                       2.000000  2.000000  2.000000  2.000000  2.000000  2.000000
                       2.000000  2.000000  2.000000  2.000000  2.000000  2.000000
                       2.000000  2.000000  2.000000  2.000000  2.000000  2.000000
                       2.000000  2.000000  2.000000  2.000000  2.000000  2.000000
                       2.000000  2.000000  2.000000  2.000000  2.000000  2.000000
                       2.000000  2.000000  2.000000  2.000000  2.000000  2.000000
                       2.000000  2.000000  2.000000  2.000000  2.000000  2.000000
                       2.000000  2.000000  0.000000  0.000000  0.000000  0.000000
                       0.000000  0.000000  0.000000  0.000000  0.000000
        optdriver           1
            prtwf          -1
            rfdir           1       1       1
           rfelfd           2
            rprim      1.1540769882E+01  0.0000000000E+00 -1.1881664156E+01
                      -1.8957327107E+00  1.1373905838E+01 -1.1891331973E+01
                       0.0000000000E+00  0.0000000000E+00  1.6563915980E+01
          spgroup          72
           symrel      1  0  0   0  1  0   0  0  1      -1  0  0   0 -1  0   0  0 -1
                       0  0  1  -1 -1 -1   1  0  0       0  0 -1   1  1  1  -1  0  0
                      -1 -1 -1   0  0  1   0  1  0       1  1  1   0  0 -1   0 -1  0
                       0  1  0   1  0  0  -1 -1 -1       0 -1  0  -1  0  0   1  1  1
            tnons      0.0000000  0.0000000  0.0000000     0.0000000  0.0000000  0.0000000
                       0.0000000  0.5000000  0.5000000     0.0000000  0.5000000  0.5000000
                       0.0000000  0.0000000  0.0000000    -0.0000000  0.0000000  0.0000000
                       0.0000000  0.5000000  0.5000000     0.0000000  0.5000000  0.5000000
           tolwfr      1.00000000E-20
            typat      1  1  1  1  2  2  3  3  4  4  4  4
           useylm           1
              wtk        0.50000    0.50000
           xangst      5.0357985409E+00  4.0731225078E+00 -7.8716153162E+00
                       6.8135306459E-02  1.9456892342E+00  4.0567344068E+00
                       2.7301523954E+00  4.9550951052E+00 -2.1886805669E+00
                       2.3737814519E+00  1.0637166368E+00 -1.6262003426E+00
                      -7.5238390806E-01  4.5141088065E+00  1.8544687215E+00
                      -2.5079463602E-01  1.5047029355E+00  6.1815624050E-01
                       2.8027615597E+00  1.5047029355E+00  1.8570267156E+00
                       2.3011722876E+00  4.5141088065E+00 -5.6719076251E+00
                       2.2492754142E-01  5.4169305678E+00 -4.3292755258E+00
                       4.8790063059E+00  6.0188117420E-01  5.1439461627E-01
                       1.7473035829E+00  3.6112870452E+00  6.8363326869E-01
                       3.3566302644E+00  2.4075246968E+00 -4.4985141782E+00
            xcart      9.5162801026E+00  7.6970860454E+00 -1.4875197171E+01
                       1.2875706919E-01  3.6768197923E+00  7.6661170226E+00
                       5.1592403284E+00  9.3637727112E+00 -4.1360068638E+00
                       4.4857968434E+00  2.0101331265E+00 -3.0730732847E+00
                      -1.4217995330E+00  8.5304293783E+00  3.5044380056E+00
                      -4.7393317768E-01  2.8434764594E+00  1.1681460019E+00
                       5.2964517636E+00  2.8434764594E+00  3.5092719139E+00
                       4.3485854082E+00  8.5304293783E+00 -1.0718352062E+01
                       4.2505145303E-01  1.0236515254E+01 -8.1811450975E+00
                       9.2199857188E+00  1.1373905838E+00  9.7206494898E-01
                       3.3019252427E+00  6.8243435026E+00  1.2918796532E+00
                       6.3431119291E+00  4.5495623351E+00 -8.5009598017E+00
             xred      9.3574200000E-01  6.7673200000E-01  2.5901000000E-01
                       6.4258000000E-02  3.2326800000E-01  7.4099000000E-01
                       5.8227800000E-01  8.2326800000E-01  7.5901000000E-01
                       4.1772200000E-01  1.7673200000E-01  2.4099000000E-01
                       1.3877787808E-17  7.5000000000E-01  7.5000000000E-01
                       0.0000000000E+00  2.5000000000E-01  2.5000000000E-01
                       5.0000000000E-01  2.5000000000E-01  7.5000000000E-01
                       5.0000000000E-01  7.5000000000E-01  2.5000000000E-01
                       1.8466800000E-01  9.0000000000E-01  2.8466800000E-01
                       8.1533200000E-01  1.0000000000E-01  7.1533200000E-01
                       3.8466800000E-01  6.0000000000E-01  7.8466800000E-01
                       6.1533200000E-01  4.0000000000E-01  2.1533200000E-01
            znucl       19.00000   11.00000   49.00000   15.00000

 chkinp: Checking input parameters for consistency.

== DATASET  1 ==================================================================
-   mpi_nproc: 1, omp_nthreads: -1 (-1 if OMP is not activated)

--- !DatasetInfo
iteration_state: {dtset: 1, }
dimensions: {natom: 12, nkpt: 2, mband: 59, nsppol: 1, nspinor: 1, nspden: 1, mpw: 30334, }
cutoff_energies: {ecut:  44.0, pawecutdg:  -1.0, }
electrons: {nelect:   1.00000000E+02, charge:   0.00000000E+00, occopt:   1.00000000E+00, tsmear:   1.00000000E-02, }
meta: {optdriver: 1, rfelfd: 2, }
...

 Real(R)+Recip(G) space primitive vectors, cartesian coordinates (Bohr,Bohr^-1):
 R(1)= 11.5407699  0.0000000-11.8816642  G(1)=  0.0866493  0.0144422  0.0000000
 R(2)= -1.8957327 11.3739058-11.8913320  G(2)=  0.0000000  0.0879205  0.0000000
 R(3)=  0.0000000  0.0000000 16.5639160  G(3)=  0.0621555  0.0734784  0.0603722
 Unit cell volume ucvol=  2.1742397E+03 bohr^3
 Angles (23,13,12)=  1.35881852E+02  1.35833834E+02  6.42001968E+01 degrees

 getcut: wavevector=  0.0000  0.0000  0.0000  ngfft= 100 100 100
         ecut(hartree)=     44.000   => boxcut(ratio)=   2.02186

--- Pseudopotential description ------------------------------------------------
- pspini: atom type   1  psp file is /scratch/users/j/a/jabreu/pseudos/PBEsol/K.psp8
- pspatm: opening atomic psp file    /scratch/users/j/a/jabreu/pseudos/PBEsol/K.psp8
- K     ONCVPSP-3.3.0  r_core=   1.36296   1.46408   1.61068
- 19.00000   9.00000    180112                znucl, zion, pspdat
    8 -116133    2    4       400   0.00000   pspcod,pspxc,lmax,lloc,mmax,r2well
    3.99000000000000    5.00000000000000    0.00000000000000   rchrg,fchrg,qchrg
     nproj     2     2     2
     extension_switch     1
  pspatm : epsatm=    8.32487830
         --- l  ekb(1:nproj) -->
             0   10.921326    0.816676
             1    4.431000    0.560368
             2   -3.384038   -1.043186
 pspatm: atomic psp has been read  and splines computed

- pspini: atom type   2  psp file is /scratch/users/j/a/jabreu/pseudos/PBEsol/Na.psp8
- pspatm: opening atomic psp file    /scratch/users/j/a/jabreu/pseudos/PBEsol/Na.psp8
- Na    ONCVPSP-3.3.0  r_core=   1.20708   1.55069
- 11.00000   9.00000    180112                znucl, zion, pspdat
    8 -116133    1    4       400   0.00000   pspcod,pspxc,lmax,lloc,mmax,r2well
    3.99000000000000    0.00000000000000    0.00000000000000   rchrg,fchrg,qchrg
     nproj     2     2
     extension_switch     1
  pspatm : epsatm=    9.32878306
         --- l  ekb(1:nproj) -->
             0    2.657905   -0.678300
             1   -6.761319   -2.404728
 pspatm: atomic psp has been read  and splines computed

[...]

- pspini: atom type   4  psp file is /scratch/users/j/a/jabreu/pseudos/PBEsol/P.psp8
- pspatm: opening atomic psp file    /scratch/users/j/a/jabreu/pseudos/PBEsol/P.psp8
- P     ONCVPSP-3.3.0  r_core=   1.46089   1.55067   1.70594
- 15.00000   5.00000    180112                znucl, zion, pspdat
    8 -116133    2    4       600   0.00000   pspcod,pspxc,lmax,lloc,mmax,r2well
    5.99000000000000    5.00000000000000    0.00000000000000   rchrg,fchrg,qchrg
     nproj     2     2     2
     extension_switch     1
  pspatm : epsatm=    7.31221086
         --- l  ekb(1:nproj) -->
             0    6.742364    1.063650
             1    3.449117    0.910422
             2   -3.077645   -0.799176
 pspatm: atomic psp has been read  and splines computed

   1.31565618E+04                                ecore*ucvol(ha*bohr**3)

 ==>  initialize data related to q vector <==

 The list of irreducible perturbations for this q vector is:
    1)    idir= 1    ipert=  13
    2)    idir= 2    ipert=  13
    3)    idir= 3    ipert=  13

[...]
    edocc=   7.96018599E+00     enl0=   5.82216186E+00   enl1=  -1.87071107E+01
 1-9 gives the relaxation energy (to be shifted if some occ is /=2.0)
   erelax=  -4.23885156E+01
  No Ewald or frozen-wf contrib.: the relaxation energy is the total one
 2DEtotal=   -0.4238851562E+02 Ha. Also 2DEtotal=   -0.115345016986E+04 eV
    (  non-var. 2DEtotal :   -4.2388515622E+01 Ha)

 Perturbation wavevector (in red.coord.)   0.000000  0.000000  0.000000
 Perturbation : derivative vs k along direction   2
 The set of symmetries contains only one element for this perturbation.
 symkpt : not enough symmetry to change the number of k points.

[...]

 Perturbation wavevector (in red.coord.)   0.000000  0.000000  0.000000
 Perturbation : derivative vs k along direction   3
 The set of symmetries contains only one element for this perturbation.
 symkpt : not enough symmetry to change the number of k points.

 Initialisation of the first-order wave-functions :
  ireadwf=   0

--- !BeginCycle
iteration_state: {dtset: 1, }
solver: {iscf: 7, nstep: 2000, nline: 4, wfoptalg: 0, }
tolerances: {tolwfr: 1.00E-20, }
...

     iter   2DEtotal(Ha)        deltaE(Ha) residm    vres2
-ETOT  1  -70.555088720597     -7.056E+01 3.419E-01 0.000E+00
 ETOT  2  -70.825918479761     -2.708E-01 5.107E-02 0.000E+00
 ETOT  3  -70.836882390483     -1.096E-02 1.113E-02 0.000E+00
 ETOT  4  -70.837839286552     -9.569E-04 2.065E-03 0.000E+00
 ETOT  5  -70.837940119301     -1.008E-04 1.190E-03 0.000E+00
 ETOT  6  -70.837951354813     -1.124E-05 1.932E-04 0.000E+00
 ETOT  7  -70.837952645281     -1.290E-06 1.065E-04 0.000E+00
 ETOT  8  -70.837952795724     -1.504E-07 2.404E-05 0.000E+00
 ETOT  9  -70.837952813469     -1.774E-08 1.278E-05 0.000E+00
 ETOT 10  -70.837952815579     -2.110E-09 3.087E-06 0.000E+00
 ETOT 11  -70.837952815831     -2.526E-10 1.544E-06 0.000E+00
 ETOT 12  -70.837952815862     -3.051E-11 4.082E-07 0.000E+00
 ETOT 13  -70.837952815865     -3.652E-12 1.900E-07 0.000E+00
 ETOT 14  -70.837952815866     -4.263E-13 5.500E-08 0.000E+00
 ETOT 15  -70.837952815866     -8.527E-14 2.382E-08 0.000E+00
 ETOT 16  -70.837952815866     -2.842E-14 7.530E-09 0.000E+00
 ETOT 17  -70.837952815866      1.421E-14 3.044E-09 0.000E+00
 ETOT 18  -70.837952815866      2.842E-14 1.043E-09 0.000E+00
 ETOT 19  -70.837952815866     -4.263E-14 3.967E-10 0.000E+00
 ETOT 20  -70.837952815866      1.421E-14 1.446E-10 0.000E+00
 ETOT 21  -70.837952815866      1.421E-14 5.249E-11 0.000E+00
 ETOT 22  -70.837952815866      0.000E+00 1.984E-11 0.000E+00
 ETOT 23  -70.837952815866     -1.421E-14 7.033E-12 0.000E+00
 ETOT 24  -70.837952815866      1.421E-14 2.691E-12 0.000E+00
 ETOT 25  -70.837952815866      0.000E+00 9.585E-13 0.000E+00
 ETOT 26  -70.837952815866      0.000E+00 3.673E-13 0.000E+00
 ETOT 27  -70.837952815866     -2.842E-14 1.333E-13 0.000E+00
 ETOT 28  -70.837952815866      4.263E-14 5.115E-14 0.000E+00
 ETOT 29  -70.837952815866     -2.842E-14 1.886E-14 0.000E+00
 ETOT 30  -70.837952815866      2.842E-14 7.262E-15 0.000E+00
 ETOT 31  -70.837952815866      1.421E-14 2.693E-15 0.000E+00
 ETOT 32  -70.837952815866     -4.263E-14 1.042E-15 0.000E+00
 ETOT 33  -70.837952815866      1.421E-14 3.855E-16 0.000E+00
 ETOT 34  -70.837952815866      0.000E+00 1.500E-16 0.000E+00
 ETOT 35  -70.837952815866      2.842E-14 5.518E-17 0.000E+00
 ETOT 36  -70.837952815866     -4.263E-14 2.159E-17 0.000E+00
 ETOT 37  -70.837952815866      1.421E-14 7.885E-18 0.000E+00
 ETOT 38  -70.837952815866      2.842E-14 3.100E-18 0.000E+00
 ETOT 39  -70.837952815866     -2.842E-14 1.125E-18 0.000E+00
 ETOT 40  -70.837952815866      0.000E+00 4.442E-19 0.000E+00
 ETOT 41  -70.837952815866      1.421E-14 1.603E-19 0.000E+00
 ETOT 42  -70.837952815866      1.421E-14 6.353E-20 0.000E+00
 ETOT 43  -70.837952815866      0.000E+00 2.282E-20 0.000E+00
 ETOT 44  -70.837952815866     -2.842E-14 9.955E-21 0.000E+00

 At SCF step   44   max residual=  9.95E-21 < tolwfr=  1.00E-20 =>converged.

 ----iterations are completed or convergence reached----

 dfpt_looppert: DFPT cycle converged with prtwf=-1. Will skip output of the 1st-order WFK file.
 dfpt_looppert : ek2=    1.0191098577E+02
          f-sum rule ratio=    1.0845560261E+00
 prteigrs : about to open file /scratch/users/j/a/jabreu/flow_simple_11atoms/flow/w373/t1/tmpdata/tmp_1WF1_EIG
 Expectation of eigenvalue derivatives (hartree) for nkpt=   2  k points:
  (in case of degenerate eigenvalues, averaged derivative)
 kpt#   1, nband= 59, wtk=  0.50000, kpt=  0.3077  0.3077 -0.3077 (reduced coord)
  -0.00000    0.00000    0.00000    0.00000    0.00000   -0.00000   -0.00000   -0.00000
  -0.00000    0.00000   -0.00000    0.00000    0.00000   -0.00000   -0.00000    0.00000
   0.00000   -0.00000   -0.00000   -0.00000    0.00000   -0.00000    0.00000    0.00000
  -0.00000   -0.00000    0.00000    0.00000    0.00000    0.00000   -0.00000    0.00000
  -0.00000   -0.00000   -0.00000    0.00000    0.00000   -0.00000    0.00000   -0.00000
  -0.00000    0.00000   -0.00000    0.00000   -0.00000    0.00000    0.00000   -0.00000
  -0.00000   -0.00000   -0.00000    0.00000   -0.00000    0.00000   -0.00000   -0.00000
   0.00000   -0.00000   -0.00003
 prteigrs : prtvol=0 or 1, do not print more k-points.

 Eight components of 2nd-order total energy (hartree) are
 1,2,3: 0th-order hamiltonian combined with 1st-order wavefunctions
     kin0=   9.08903994E+01 eigvalue=   8.59473631E+00  local=  -5.20002058E+01
 4,5,6: 1st-order hamiltonian combined with 1st and 0th-order wfs
     kin1=  -1.10528174E+02  Hartree=   0.00000000E+00     xc=   0.00000000E+00
 7,8,9: eventually, occupation + non-local contributions
    edocc=   1.40790097E+01     enl0=   9.27401323E+00   enl1=  -3.11477319E+01
 1-9 gives the relaxation energy (to be shifted if some occ is /=2.0)
   erelax=  -7.08379528E+01
  No Ewald or frozen-wf contrib.: the relaxation energy is the total one
 2DEtotal=   -0.7083795282E+02 Ha. Also 2DEtotal=   -0.192759872593E+04 eV
    (  non-var. 2DEtotal :   -7.0837952815E+01 Ha)

 CALCULATION OF EFFECTIVE MASSES
 NOTE : Additional infos (eff. mass eigenvalues, eigenvectors and, if degenerate, average mass) are available in stdout.

 K-point ( 0.308, 0.308,-0.308) | band =    50
 Effective mass tensor:
             -2.3420163864             -2.0965755009              4.6750525417
             -2.0965755009             -3.7585207085              5.1676220744
              4.6750525417              5.1676220744            -11.9683172442
 Effective mass tensor eigenvalues:
            -16.3374369022             -1.2861338783             -0.4452835586
 Angular average effective mass 1/(<1/m>)=  -0.9726071251
 Angular average effective mass for Frohlich model (<m**0.5>)**2=  -1.4005761459
 Effective masses along directions: (cart. coord. / red. coord. -> eff. mass)
    1:   1.000000  0.000000  0.000000 /   0.986776 -0.162092  0.000000 ->  -0.5118678881
    2:   0.000000  1.000000  0.000000 /   0.000000  1.000000  0.000000 ->  -1.5154745908
    3:   0.000000  0.000000  1.000000 /  -0.503469 -0.503879  0.701873 ->  -2.1231208865
    4:   0.577350  0.577350  0.577350 /  -0.020361 -0.144136  0.989348 ->  -0.6228087812
    5:   0.000000  0.707107  0.707107 /  -0.582683 -0.025375  0.812303 ->  -1.2324879538
    6:   0.707107  0.000000  0.707107 /  -0.015816 -0.639661  0.768495 ->  -0.5175021386
    7:   0.707107  0.707107  0.000000 /   0.772784  0.634670  0.000000 ->  -0.8285248990

 K-point ( 0.000, 0.000, 0.000) | band =    51
 Effective mass tensor:
              0.1545526991              0.0028842240             -0.0052947273
              0.0028842240              0.1536997144             -0.0071090082
             -0.0052947273             -0.0071090082              0.1654549477
 Effective mass tensor eigenvalues:
              0.1502984944              0.1524045541              0.1710043127
 Angular average effective mass 1/(<1/m>)=   0.1573752656
 Angular average effective mass for Frohlich model (<m**0.5>)**2=   0.1575299700
 Effective masses along directions: (cart. coord. / red. coord. -> eff. mass)
    1:   1.000000  0.000000  0.000000 /   0.986776 -0.162092  0.000000 ->   0.1543372489
    2:   0.000000  1.000000  0.000000 /   0.000000  1.000000  0.000000 ->   0.1533485470
    3:   0.000000  0.000000  1.000000 /  -0.503469 -0.503879  0.701873 ->   0.1649537137
    4:   0.577350  0.577350  0.577350 /  -0.020361 -0.144136  0.989348 ->   0.1515418044
    5:   0.000000  0.707107  0.707107 /  -0.582683 -0.025375  0.812303 ->   0.1522464813
    6:   0.707107  0.000000  0.707107 /  -0.015816 -0.639661  0.768495 ->   0.1544798760
    7:   0.707107  0.707107  0.000000 /   0.772784  0.634670  0.000000 ->   0.1565438757

 END OF EFFECTIVE MASSES SECTION

 ---- first-order wavefunction calculations are completed ----

 Total localisation tensor (bohr^2) in cartesian coordinates
  WARNING : still subject to testing - especially symmetries.
      direction              matrix element
   alpha     beta       real part   imaginary part
     1        1       1.9990051355    0.0000000000
     1        2      -0.3011327130    0.0000000000
     1        3      -1.6915468090    0.0000000000
     2        1      -0.3011327130    0.0000000000
     2        2       1.8067183748    0.0000000000
     2        3      -1.8889103077    0.0000000000
     3        1      -1.6915468090    0.0000000000
     3        2      -1.8889103077    0.0000000000
     3        3      10.8882155702    0.0000000000

 respfn : d/dk was computed, but no 2DTE, so no DDB output.

== END DATASET(S) ==============================================================

 -outvars: echo values of variables after computation  --------
            acell      1.0000000000E+00  1.0000000000E+00  1.0000000000E+00 Bohr
              amu      3.90983000E+01  2.29897680E+01  1.14820000E+02
                       3.09737620E+01
             ecut      4.40000000E+01 Hartree
           etotal     -7.0837952816E+01
            fcart      0.0000000000E+00  0.0000000000E+00  0.0000000000E+00
                       0.0000000000E+00  0.0000000000E+00  0.0000000000E+00
                       0.0000000000E+00  0.0000000000E+00  0.0000000000E+00
                       0.0000000000E+00  0.0000000000E+00  0.0000000000E+00
                       0.0000000000E+00  0.0000000000E+00  0.0000000000E+00
                       0.0000000000E+00  0.0000000000E+00  0.0000000000E+00
                       0.0000000000E+00  0.0000000000E+00  0.0000000000E+00
                       0.0000000000E+00  0.0000000000E+00  0.0000000000E+00
                       0.0000000000E+00  0.0000000000E+00  0.0000000000E+00
                       0.0000000000E+00  0.0000000000E+00  0.0000000000E+00
                       0.0000000000E+00  0.0000000000E+00  0.0000000000E+00
                       0.0000000000E+00  0.0000000000E+00  0.0000000000E+00
-          fftalg         512
           irdden           1
           irdwfk           1
           istwfk        0    1
              ixc     -116133
              kpt      3.07692308E-01  3.07692308E-01 -3.07692308E-01
                       0.00000000E+00  0.00000000E+00  0.00000000E+00
           kptopt           0
P           mkmem           2
P          mkqmem           2
P          mk1mem           2
            natom          12
            nband          59
           nbdbuf           4
            ngfft         100     100     100
             nkpt           2
            nstep        2000
             nsym           8
           ntypat           4
              occ      2.000000  2.000000  2.000000  2.000000  2.000000  2.000000
                       2.000000  2.000000  2.000000  2.000000  2.000000  2.000000
                       2.000000  2.000000  2.000000  2.000000  2.000000  2.000000
                       2.000000  2.000000  2.000000  2.000000  2.000000  2.000000
                       2.000000  2.000000  2.000000  2.000000  2.000000  2.000000
                       2.000000  2.000000  2.000000  2.000000  2.000000  2.000000
                       2.000000  2.000000  2.000000  2.000000  2.000000  2.000000
                       2.000000  2.000000  2.000000  2.000000  2.000000  2.000000
                       2.000000  2.000000  0.000000  0.000000  0.000000  0.000000
                       0.000000  0.000000  0.000000  0.000000  0.000000
        optdriver           1
            prtwf          -1
            rfdir           1       1       1
           rfelfd           2
            rprim      1.1540769882E+01  0.0000000000E+00 -1.1881664156E+01
                      -1.8957327107E+00  1.1373905838E+01 -1.1891331973E+01
                       0.0000000000E+00  0.0000000000E+00  1.6563915980E+01
          spgroup          72
           strten      0.0000000000E+00  0.0000000000E+00  0.0000000000E+00
                       0.0000000000E+00  0.0000000000E+00  0.0000000000E+00
           symrel      1  0  0   0  1  0   0  0  1      -1  0  0   0 -1  0   0  0 -1
                       0  0  1  -1 -1 -1   1  0  0       0  0 -1   1  1  1  -1  0  0
                      -1 -1 -1   0  0  1   0  1  0       1  1  1   0  0 -1   0 -1  0
                       0  1  0   1  0  0  -1 -1 -1       0 -1  0  -1  0  0   1  1  1
            tnons      0.0000000  0.0000000  0.0000000     0.0000000  0.0000000  0.0000000
                       0.0000000  0.5000000  0.5000000     0.0000000  0.5000000  0.5000000
                       0.0000000  0.0000000  0.0000000    -0.0000000  0.0000000  0.0000000
                       0.0000000  0.5000000  0.5000000     0.0000000  0.5000000  0.5000000
           tolwfr      1.00000000E-20
            typat      1  1  1  1  2  2  3  3  4  4  4  4
           useylm           1
              wtk        0.50000    0.50000
           xangst      5.0357985409E+00  4.0731225078E+00 -7.8716153162E+00
                       6.8135306459E-02  1.9456892342E+00  4.0567344068E+00
                       2.7301523954E+00  4.9550951052E+00 -2.1886805669E+00
                       2.3737814519E+00  1.0637166368E+00 -1.6262003426E+00
                      -7.5238390806E-01  4.5141088065E+00  1.8544687215E+00
                      -2.5079463602E-01  1.5047029355E+00  6.1815624050E-01
                       2.8027615597E+00  1.5047029355E+00  1.8570267156E+00
                       2.3011722876E+00  4.5141088065E+00 -5.6719076251E+00
                       2.2492754142E-01  5.4169305678E+00 -4.3292755258E+00
                       4.8790063059E+00  6.0188117420E-01  5.1439461627E-01
                       1.7473035829E+00  3.6112870452E+00  6.8363326869E-01
                       3.3566302644E+00  2.4075246968E+00 -4.4985141782E+00
            xcart      9.5162801026E+00  7.6970860454E+00 -1.4875197171E+01
                       1.2875706919E-01  3.6768197923E+00  7.6661170226E+00
                       5.1592403284E+00  9.3637727112E+00 -4.1360068638E+00
                       4.4857968434E+00  2.0101331265E+00 -3.0730732847E+00
                      -1.4217995330E+00  8.5304293783E+00  3.5044380056E+00
                      -4.7393317768E-01  2.8434764594E+00  1.1681460019E+00
                       5.2964517636E+00  2.8434764594E+00  3.5092719139E+00
                       4.3485854082E+00  8.5304293783E+00 -1.0718352062E+01
                       4.2505145303E-01  1.0236515254E+01 -8.1811450975E+00
                       9.2199857188E+00  1.1373905838E+00  9.7206494898E-01
                       3.3019252427E+00  6.8243435026E+00  1.2918796532E+00
                       6.3431119291E+00  4.5495623351E+00 -8.5009598017E+00
             xred      9.3574200000E-01  6.7673200000E-01  2.5901000000E-01
                       6.4258000000E-02  3.2326800000E-01  7.4099000000E-01
                       5.8227800000E-01  8.2326800000E-01  7.5901000000E-01
                       4.1772200000E-01  1.7673200000E-01  2.4099000000E-01
                       1.3877787808E-17  7.5000000000E-01  7.5000000000E-01
                       0.0000000000E+00  2.5000000000E-01  2.5000000000E-01
                       5.0000000000E-01  2.5000000000E-01  7.5000000000E-01
                       5.0000000000E-01  7.5000000000E-01  2.5000000000E-01
                       1.8466800000E-01  9.0000000000E-01  2.8466800000E-01
                       8.1533200000E-01  1.0000000000E-01  7.1533200000E-01
                       3.8466800000E-01  6.0000000000E-01  7.8466800000E-01
                       6.1533200000E-01  4.0000000000E-01  2.1533200000E-01
            znucl       19.00000   11.00000   49.00000   15.00000

- Timing analysis has been suppressed with timopt=0

 Suggested references for the acknowledgment of ABINIT usage.

 Calculation completed.
.Delivered   2 WARNINGs and   5 COMMENTs to log file.