.Version 9.5.1 of ABINIT

 ABINIT is a project of the Universite Catholique de Louvain,
 Corning Inc. and other collaborators, see ~abinit/doc/developers/contributors.txt .
 acknowledgments of the ABINIT effort.

.Starting date : Wed 19 May 2021.
- ( at 01h20 )

- input  file    -> /scratch/users/j/a/jabreu/flow_simple_8atoms/flow/w423/t1/run.abi
- output file    -> /scratch/users/j/a/jabreu/flow_simple_8atoms/flow/w423/t1/run.abo
- root for input  files -> /scratch/users/j/a/jabreu/flow_simple_8atoms/flow/w423/t1/indata/in
- root for output files -> /scratch/users/j/a/jabreu/flow_simple_8atoms/flow/w423/t1/outdata/out

 Symmetries : space group R-3 (#148); Bravais hR (rhombohedral)
     intxc =       0      iscf =       7    lmnmax =      18     lnmax =       6
     mgfft =      60  mpssoang =       3    mqgrid =    3001     natom =       8
  nloc_mem =       1    nspden =       1   nspinor =       1    nsppol =       1
      nsym =       6    n1xccc =    2501    ntypat =       3    occopt =       1
   xclevel =       2
-    mband =          42        mffmem =           1         mkmem =           2
-   mkqmem =           2        mk1mem =           2           mpw =       12262
      nfft =      216000          nkpt =           2
  Rough estimation (10% accuracy) of disk space for files :

------------- Echo of variables that govern the present computation ------------
-
- outvars: echo of selected default values
-   iomode0 =  0 , fftalg0 =512 , wfoptalg0 =  0
-
- outvars: echo of global parameters not present in the input file
-  max_nthreads =    0
-
 -outvars: echo values of preprocessed input variables --------
            acell      1.0000000000E+00  1.0000000000E+00  1.0000000000E+00 Bohr
              amu      8.54678000E+01  2.08980370E+02  1.89984032E+01
             ecut      4.20000000E+01 Hartree
-          fftalg         512
           irdden           1
           irdwfk           1
           istwfk        1    1
              ixc     -116133
              kpt      5.00000000E-01  0.00000000E+00  0.00000000E+00
                       0.00000000E+00  0.00000000E+00  0.00000000E+00
           kptopt           0
P           mkmem           2
P          mkqmem           2
P          mk1mem           2
            natom           8
            nband          42
           nbdbuf           4
            ngfft          60      60      60
             nkpt           2
            nstep        2000
             nsym           6
           ntypat           3
              occ      2.000000  2.000000  2.000000  2.000000  2.000000  2.000000
                       2.000000  2.000000  2.000000  2.000000  2.000000  2.000000
                       2.000000  2.000000  2.000000  2.000000  2.000000  2.000000
                       2.000000  2.000000  2.000000  2.000000  2.000000  2.000000
                       2.000000  2.000000  2.000000  2.000000  2.000000  2.000000
                       2.000000  2.000000  2.000000  0.000000  0.000000  0.000000
                       0.000000  0.000000  0.000000  0.000000  0.000000  0.000000
        optdriver           1
            prtwf          -1
            rfdir           1       1       1
           rfelfd           2
            rprim      9.8084637245E+00  0.0000000000E+00 -1.1785228441E+00
                      -1.3286033060E+00  9.7180643077E+00 -1.1785228441E+00
                       0.0000000000E+00  0.0000000000E+00  9.8790119308E+00
          spgroup         148
           symrel      1  0  0   0  1  0   0  0  1      -1  0  0   0 -1  0   0  0 -1
                       0  0  1   1  0  0   0  1  0       0  0 -1  -1  0  0   0 -1  0
                       0  1  0   0  0  1   1  0  0       0 -1  0   0  0 -1  -1  0  0
           tolwfr      1.00000000E-20
            typat      1  2  3  3  3  3  3  3
           useylm           1
              wtk        0.50000    0.50000
           xangst      2.2436744327E+00  2.5712890716E+00  1.9902265497E+00
                       0.0000000000E+00  0.0000000000E+00  0.0000000000E+00
                      -1.5099035651E-01  4.0318069772E+00  3.0070534820E+00
                       3.4645633264E+00  3.9652877289E-01  3.6276992879E+00
                       8.9467205126E-01  1.6562341445E+00  4.4890935071E+00
                       1.0227855391E+00  4.7460493704E+00  3.5275381151E-01
                       4.6383392220E+00  1.1107711661E+00  9.7339961732E-01
                       3.5926768142E+00  3.4863439987E+00 -5.0864040777E-01
            xcart      4.2399302092E+00  4.8590321539E+00  3.7609831213E+00
                       0.0000000000E+00  0.0000000000E+00  0.0000000000E+00
                      -2.8533042252E-01  7.6190110076E+00  5.6825075480E+00
                       6.5470758569E+00  7.4933078457E-01  6.8553581465E+00
                       1.6906851556E+00  3.1298289451E+00  8.4831573134E+00
                       1.9327845616E+00  8.9687335231E+00  6.6660809609E-01
                       8.7651908410E+00  2.0990533001E+00  1.8394586946E+00
                       6.7891752629E+00  6.5882353626E+00 -9.6119107080E-01
             xred      5.0000000000E-01  5.0000000000E-01  5.0000000000E-01
                       0.0000000000E+00  0.0000000000E+00  0.0000000000E+00
                       7.7107000000E-02  7.8400500000E-01  6.7793700000E-01
                       6.7793700000E-01  7.7107000000E-02  7.8400500000E-01
                       2.1599500000E-01  3.2206300000E-01  9.2289300000E-01
                       3.2206300000E-01  9.2289300000E-01  2.1599500000E-01
                       9.2289300000E-01  2.1599500000E-01  3.2206300000E-01
                       7.8400500000E-01  6.7793700000E-01  7.7107000000E-02
            znucl       37.00000   83.00000    9.00000

 chkinp: Checking input parameters for consistency.

== DATASET  1 ==================================================================
-   mpi_nproc: 1, omp_nthreads: -1 (-1 if OMP is not activated)

--- !DatasetInfo
iteration_state: {dtset: 1, }
dimensions: {natom: 8, nkpt: 2, mband: 42, nsppol: 1, nspinor: 1, nspden: 1, mpw: 12262, }
cutoff_energies: {ecut:  42.0, pawecutdg:  -1.0, }
electrons: {nelect:   6.60000000E+01, charge:   0.00000000E+00, occopt:   1.00000000E+00, tsmear:   1.00000000E-02, }
meta: {optdriver: 1, rfelfd: 2, }
...

 Real(R)+Recip(G) space primitive vectors, cartesian coordinates (Bohr,Bohr^-1):
 R(1)=  9.8084637  0.0000000 -1.1785228  G(1)=  0.1019528  0.0139385  0.0000000
 R(2)= -1.3286033  9.7180643 -1.1785228  G(2)=  0.0000000  0.1029012  0.0000000
 R(3)=  0.0000000  0.0000000  9.8790119  G(3)=  0.0121625  0.0139385  0.1012247
 Unit cell volume ucvol=  9.4166032E+02 bohr^3
 Angles (23,13,12)=  9.68514525E+01  9.68514525E+01  9.68514525E+01 degrees

 getcut: wavevector=  0.0000  0.0000  0.0000  ngfft=  60  60  60
         ecut(hartree)=     42.000   => boxcut(ratio)=   2.08232

--- Pseudopotential description ------------------------------------------------
- pspini: atom type   1  psp file is /scratch/users/j/a/jabreu/pseudos/PBEsol/Rb.psp8
- pspatm: opening atomic psp file    /scratch/users/j/a/jabreu/pseudos/PBEsol/Rb.psp8
- Rb    ONCVPSP-3.3.0  r_core=   1.71227   1.75361   1.90633
- 37.00000   9.00000    180112                znucl, zion, pspdat
    8 -116133    2    4       600   0.00000   pspcod,pspxc,lmax,lloc,mmax,r2well
    5.99000000000000    7.00000000000000    0.00000000000000   rchrg,fchrg,qchrg
     nproj     2     2     2
     extension_switch     1
  pspatm : epsatm=   34.48400912
         --- l  ekb(1:nproj) -->
             0    8.196957   -0.477221
             1    3.231347   -0.378736
             2   -1.047201    0.996637
 pspatm: atomic psp has been read  and splines computed

- pspini: atom type   2  psp file is /scratch/users/j/a/jabreu/pseudos/PBEsol/Bi.psp8
- pspatm: opening atomic psp file    /scratch/users/j/a/jabreu/pseudos/PBEsol/Bi.psp8
- Bi    ONCVPSP-3.3.0  r_core=   2.42776   2.51622   2.10397
- 83.00000  15.00000    180112                znucl, zion, pspdat
    8 -116133    2    4       600   0.00000   pspcod,pspxc,lmax,lloc,mmax,r2well
    5.99000000000000    6.00000000000000    0.00000000000000   rchrg,fchrg,qchrg
     nproj     2     2     2
     extension_switch     1
  pspatm : epsatm=   42.90078186
         --- l  ekb(1:nproj) -->
             0    6.017688    0.961606
             1    4.379371    0.528498
             2   -3.458170   -0.753782
 pspatm: atomic psp has been read  and splines computed

- pspini: atom type   3  psp file is /scratch/users/j/a/jabreu/pseudos/PBEsol/F.psp8
- pspatm: opening atomic psp file    /scratch/users/j/a/jabreu/pseudos/PBEsol/F.psp8
- F     ONCVPSP-3.3.0  r_core=   1.30942   1.45782   1.60379
-  9.00000   7.00000    180112                znucl, zion, pspdat
    8 -116133    2    4       600   0.00000   pspcod,pspxc,lmax,lloc,mmax,r2well
    5.99000000000000    2.50000000000000    0.00000000000000   rchrg,fchrg,qchrg
     nproj     2     2     1
     extension_switch     1
  pspatm : epsatm=    4.89824824
         --- l  ekb(1:nproj) -->
             0    6.506434    1.065875
             1   -3.978753   -1.295852
             2   -2.394754
 pspatm: atomic psp has been read  and splines computed

   7.04710251E+03                                ecore*ucvol(ha*bohr**3)

-inwffil : will read wavefunctions from disk file /scratch/users/j/a/jabreu/flow_simple_8atoms/flow/w423/t1/indata/in_WFK

 ==>  initialize data related to q vector <==

 The list of irreducible perturbations for this q vector is:
    1)    idir= 1    ipert=   9
    2)    idir= 2    ipert=   9
    3)    idir= 3    ipert=   9

 Perturbation wavevector (in red.coord.)   0.000000  0.000000  0.000000
 Perturbation : derivative vs k along direction   1

 dfpt_looppert : COMMENT -
  In a d/dk calculation, iscf is set to -3 automatically.
 The set of symmetries contains only one element for this perturbation.
 symkpt : not enough symmetry to change the number of k points.

[...]

 Initialisation of the first-order wave-functions :
  ireadwf=   0

--- !BeginCycle
iteration_state: {dtset: 1, }
solver: {iscf: 7, nstep: 2000, nline: 4, wfoptalg: 0, }
tolerances: {tolwfr: 1.00E-20, }
...

     iter   2DEtotal(Ha)        deltaE(Ha) residm    vres2
-ETOT  1  -36.626403046479     -3.663E+01 5.681E-02 0.000E+00
 ETOT  2  -36.653120285608     -2.672E-02 6.681E-03 0.000E+00
 ETOT  3  -36.653213652646     -9.337E-05 4.732E-04 0.000E+00
 ETOT  4  -36.653214337164     -6.845E-07 8.687E-05 0.000E+00
 ETOT  5  -36.653214343236     -6.072E-09 1.228E-05 0.000E+00
 ETOT  6  -36.653214343295     -5.939E-11 2.531E-06 0.000E+00
 ETOT  7  -36.653214343296     -6.253E-13 3.877E-07 0.000E+00
 ETOT  8  -36.653214343296     -2.842E-14 8.193E-08 0.000E+00
 ETOT  9  -36.653214343296     -1.421E-14 1.299E-08 0.000E+00
 ETOT 10  -36.653214343296      1.421E-14 2.803E-09 0.000E+00
 ETOT 11  -36.653214343296      7.105E-15 4.510E-10 0.000E+00
 ETOT 12  -36.653214343296     -7.105E-15 9.871E-11 0.000E+00
 ETOT 13  -36.653214343296      7.105E-15 1.599E-11 0.000E+00
 ETOT 14  -36.653214343296      7.105E-15 3.527E-12 0.000E+00
 ETOT 15  -36.653214343296      0.000E+00 5.730E-13 0.000E+00
 ETOT 16  -36.653214343296     -1.421E-14 1.269E-13 0.000E+00
 ETOT 17  -36.653214343296      1.421E-14 2.065E-14 0.000E+00
 ETOT 18  -36.653214343296     -7.105E-15 4.583E-15 0.000E+00
 ETOT 19  -36.653214343296     -2.132E-14 7.467E-16 0.000E+00
 ETOT 20  -36.653214343296      2.132E-14 1.658E-16 0.000E+00
 ETOT 21  -36.653214343296      0.000E+00 2.704E-17 0.000E+00
 ETOT 22  -36.653214343296      0.000E+00 6.008E-18 0.000E+00
 ETOT 23  -36.653214343296     -7.105E-15 9.805E-19 0.000E+00
 ETOT 24  -36.653214343296      0.000E+00 2.178E-19 0.000E+00
 ETOT 25  -36.653214343296      0.000E+00 3.558E-20 0.000E+00
 ETOT 26  -36.653214343296      0.000E+00 9.978E-21 0.000E+00

 At SCF step   26   max residual=  9.98E-21 < tolwfr=  1.00E-20 =>converged.

 ----iterations are completed or convergence reached----

 dfpt_looppert: DFPT cycle converged with prtwf=-1. Will skip output of the 1st-order WFK file.
 dfpt_looppert : ek2=    5.5179038768E+01
          f-sum rule ratio=    1.0026056518E+00
 prteigrs : about to open file /scratch/users/j/a/jabreu/flow_simple_8atoms/flow/w423/t1/tmpdata/tmp_1WF1_EIG
 Expectation of eigenvalue derivatives (hartree) for nkpt=   2  k points:
  (in case of degenerate eigenvalues, averaged derivative)
 kpt#   1, nband= 42, wtk=  0.50000, kpt=  0.5000  0.0000  0.0000 (reduced coord)
   0.00000   -0.00000   -0.00000    0.00000   -0.00000    0.00000   -0.00000   -0.00000
  -0.00000    0.00000   -0.00000   -0.00000   -0.00000   -0.00000   -0.00000   -0.00000
   0.00000   -0.00000    0.00000    0.00000    0.00000   -0.00000   -0.00000   -0.00000
  -0.00000    0.00000    0.00000   -0.00000    0.00000    0.00000    0.00000    0.00000
  -0.00000    0.00000   -0.00000   -0.00000    0.00000    0.00000    0.00000   -0.00000
  -0.00000   -0.00024
 prteigrs : prtvol=0 or 1, do not print more k-points.

 Eight components of 2nd-order total energy (hartree) are
 1,2,3: 0th-order hamiltonian combined with 1st-order wavefunctions
     kin0=   4.46905481E+01 eigvalue=   5.39194127E+00  local=  -2.08692473E+01
 4,5,6: 1st-order hamiltonian combined with 1st and 0th-order wfs
     kin1=  -5.53228161E+01  Hartree=   0.00000000E+00     xc=   0.00000000E+00
 7,8,9: eventually, occupation + non-local contributions
    edocc=   5.63665860E+00     enl0=   1.80331364E+00   enl1=  -1.79836126E+01
 1-9 gives the relaxation energy (to be shifted if some occ is /=2.0)
   erelax=  -3.66532143E+01
  No Ewald or frozen-wf contrib.: the relaxation energy is the total one
 2DEtotal=   -0.3665321434E+02 Ha. Also 2DEtotal=   -0.997384685198E+03 eV
    (  non-var. 2DEtotal :   -3.6653214343E+01 Ha)

 Perturbation wavevector (in red.coord.)   0.000000  0.000000  0.000000
 Perturbation : derivative vs k along direction   2
 The set of symmetries contains only one element for this perturbation.
 symkpt : not enough symmetry to change the number of k points.

[...]

 Perturbation wavevector (in red.coord.)   0.000000  0.000000  0.000000
 Perturbation : derivative vs k along direction   3
 The set of symmetries contains only one element for this perturbation.
 symkpt : not enough symmetry to change the number of k points.

-inwffil : will read wavefunctions from disk file /scratch/users/j/a/jabreu/flow_simple_8atoms/flow/w423/t1/indata/in_WFK

 Initialisation of the first-order wave-functions :
  ireadwf=   0

--- !BeginCycle
iteration_state: {dtset: 1, }
solver: {iscf: 7, nstep: 2000, nline: 4, wfoptalg: 0, }
tolerances: {tolwfr: 1.00E-20, }
...

     iter   2DEtotal(Ha)        deltaE(Ha) residm    vres2
-ETOT  1  -36.695864281319     -3.670E+01 6.482E-02 0.000E+00
 ETOT  2  -36.724215614475     -2.835E-02 4.766E-03 0.000E+00
 ETOT  3  -36.724298837864     -8.322E-05 1.785E-04 0.000E+00
 ETOT  4  -36.724299429115     -5.913E-07 3.587E-05 0.000E+00
 ETOT  5  -36.724299434337     -5.222E-09 3.367E-06 0.000E+00
 ETOT  6  -36.724299434388     -5.147E-11 8.513E-07 0.000E+00
 ETOT  7  -36.724299434389     -5.187E-13 9.971E-08 0.000E+00
 ETOT  8  -36.724299434389     -2.132E-14 2.613E-08 0.000E+00
 ETOT  9  -36.724299434389     -7.105E-15 3.155E-09 0.000E+00
 ETOT 10  -36.724299434389      2.132E-14 8.525E-10 0.000E+00
 ETOT 11  -36.724299434389     -7.105E-15 1.045E-10 0.000E+00
 ETOT 12  -36.724299434389     -1.421E-14 2.882E-11 0.000E+00
 ETOT 13  -36.724299434389      2.132E-14 3.561E-12 0.000E+00
 ETOT 14  -36.724299434389      0.000E+00 9.934E-13 0.000E+00
 ETOT 15  -36.724299434389      0.000E+00 1.233E-13 0.000E+00
 ETOT 16  -36.724299434389      0.000E+00 3.459E-14 0.000E+00
 ETOT 17  -36.724299434389     -1.421E-14 4.306E-15 0.000E+00
 ETOT 18  -36.724299434389     -7.105E-15 1.211E-15 0.000E+00
 ETOT 19  -36.724299434389      7.105E-15 1.510E-16 0.000E+00
 ETOT 20  -36.724299434389      1.421E-14 4.249E-17 0.000E+00
 ETOT 21  -36.724299434389      0.000E+00 5.307E-18 0.000E+00
 ETOT 22  -36.724299434389     -2.132E-14 1.493E-18 0.000E+00
 ETOT 23  -36.724299434389      0.000E+00 1.867E-19 0.000E+00
 ETOT 24  -36.724299434389      2.132E-14 5.251E-20 0.000E+00
 ETOT 25  -36.724299434389      0.000E+00 9.733E-21 0.000E+00

 At SCF step   25   max residual=  9.73E-21 < tolwfr=  1.00E-20 =>converged.

 ----iterations are completed or convergence reached----

 dfpt_looppert: DFPT cycle converged with prtwf=-1. Will skip output of the 1st-order WFK file.
 dfpt_looppert : ek2=    5.5179038768E+01
          f-sum rule ratio=    1.0077150967E+00
 prteigrs : about to open file /scratch/users/j/a/jabreu/flow_simple_8atoms/flow/w423/t1/tmpdata/tmp_1WF1_EIG
 Expectation of eigenvalue derivatives (hartree) for nkpt=   2  k points:
  (in case of degenerate eigenvalues, averaged derivative)
 kpt#   1, nband= 42, wtk=  0.50000, kpt=  0.5000  0.0000  0.0000 (reduced coord)
   0.00000   -0.00000   -0.00000   -0.00000    0.00000    0.00000   -0.00000   -0.00000
  -0.00000   -0.00000    0.00000   -0.00000    0.00000   -0.00000   -0.00000    0.00000
  -0.00000   -0.00000   -0.00000    0.00000    0.00000    0.00000    0.00000   -0.00000
  -0.00000   -0.00000   -0.00000   -0.00000   -0.00000   -0.00000    0.00000   -0.00000
   0.00000   -0.00000    0.00000   -0.00000   -0.00000    0.00000    0.00000   -0.00000
  -0.00000   -0.00001
 prteigrs : prtvol=0 or 1, do not print more k-points.

 Eight components of 2nd-order total energy (hartree) are
 1,2,3: 0th-order hamiltonian combined with 1st-order wavefunctions
     kin0=   4.50147840E+01 eigvalue=   5.47494489E+00  local=  -2.10618744E+01
 4,5,6: 1st-order hamiltonian combined with 1st and 0th-order wfs
     kin1=  -5.56047504E+01  Hartree=   0.00000000E+00     xc=   0.00000000E+00
 7,8,9: eventually, occupation + non-local contributions
    edocc=   5.53677349E+00     enl0=   1.75967143E+00   enl1=  -1.78438485E+01
 1-9 gives the relaxation energy (to be shifted if some occ is /=2.0)
   erelax=  -3.67242994E+01
  No Ewald or frozen-wf contrib.: the relaxation energy is the total one
 2DEtotal=   -0.3672429943E+02 Ha. Also 2DEtotal=   -0.999319008899E+03 eV
    (  non-var. 2DEtotal :   -3.6724299434E+01 Ha)

 CALCULATION OF EFFECTIVE MASSES
 NOTE : Additional infos (eff. mass eigenvalues, eigenvectors and, if degenerate, average mass) are available in stdout.

 K-point ( 0.500, 0.000, 0.000) | band =    33
 Effective mass tensor:
            -22.0483233846              1.4659951882             -1.3713916429
              1.4659951882            -11.7493372895             -1.1865885736
             -1.3713916429             -1.1865885736             -8.0226805796
 Effective mass tensor eigenvalues:
            -22.3536577961            -11.9974854917             -7.4691979659
 Angular average effective mass 1/(<1/m>)= -11.4517196063
 Angular average effective mass for Frohlich model (<m**0.5>)**2= -12.1133960848
 Effective masses along directions: (cart. coord. / red. coord. -> eff. mass)
    1:   1.000000  0.000000  0.000000 /   0.990950 -0.134229  0.000000 -> -21.5732702628
    2:   0.000000  1.000000  0.000000 /   0.000000  1.000000  0.000000 -> -11.4461652154
    3:   0.000000  0.000000  1.000000 /  -0.117633 -0.117633  0.986065 ->  -7.7972571528
    4:   0.577350  0.577350  0.577350 /   0.576524  0.481728  0.659969 -> -13.0785097694
    5:   0.000000  0.707107  0.707107 /  -0.089886  0.651309  0.753470 -> -10.6673921388
    6:   0.707107  0.000000  0.707107 /   0.646195 -0.187729  0.739723 -> -12.7567734990
    7:   0.707107  0.707107  0.000000 /   0.759937  0.649996  0.000000 -> -13.5974299903

 K-point ( 0.000, 0.000, 0.000) | band =    34
 Effective mass tensor:
              1.1526702412              0.0158772102              0.0122895080
              0.0158772102              1.1570120113              0.0140840033
              0.0122895080              0.0140840033              1.1497168175
 Effective mass tensor eigenvalues:
              1.1388155335              1.1388162086              1.1817673279
 Angular average effective mass 1/(<1/m>)=   1.1527818634
 Angular average effective mass for Frohlich model (<m**0.5>)**2=   1.1528865174
 Effective masses along directions: (cart. coord. / red. coord. -> eff. mass)
    1:   1.000000  0.000000  0.000000 /   0.990950 -0.134229  0.000000 ->   1.1523250804
    2:   0.000000  1.000000  0.000000 /   0.000000  1.000000  0.000000 ->   1.1566248886
    3:   0.000000  0.000000  1.000000 /  -0.117633 -0.117633  0.986065 ->   1.1494184134
    4:   0.577350  0.577350  0.577350 /   0.576524  0.481728  0.659969 ->   1.1812827505
    5:   0.000000  0.707107  0.707107 /  -0.089886  0.651309  0.753470 ->   1.1670928764
    6:   0.707107  0.000000  0.707107 /   0.646195 -0.187729  0.739723 ->   1.1630932545
    7:   0.707107  0.707107  0.000000 /   0.759937  0.649996  0.000000 ->   1.1704117840

 END OF EFFECTIVE MASSES SECTION

 ---- first-order wavefunction calculations are completed ----

 Total localisation tensor (bohr^2) in cartesian coordinates
  WARNING : still subject to testing - especially symmetries.
      direction              matrix element
   alpha     beta       real part   imaginary part
     1        1       0.5841541895    0.0000000000
     1        2      -0.0786022934    0.0000000000
     1        3      -0.0593648758    0.0000000000
     2        1      -0.0786022934    0.0000000000
     2        2       0.5749362042    0.0000000000
     2        3      -0.0697232936    0.0000000000
     3        1      -0.0593648758    0.0000000000
     3        2      -0.0697232936    0.0000000000
     3        3       0.6105813265    0.0000000000

 respfn : d/dk was computed, but no 2DTE, so no DDB output.

== END DATASET(S) ==============================================================

 -outvars: echo values of variables after computation  --------
            acell      1.0000000000E+00  1.0000000000E+00  1.0000000000E+00 Bohr
              amu      8.54678000E+01  2.08980370E+02  1.89984032E+01
             ecut      4.20000000E+01 Hartree
           etotal     -3.6724299434E+01
            fcart      0.0000000000E+00  0.0000000000E+00  0.0000000000E+00
                       0.0000000000E+00  0.0000000000E+00  0.0000000000E+00
                       0.0000000000E+00  0.0000000000E+00  0.0000000000E+00
                       0.0000000000E+00  0.0000000000E+00  0.0000000000E+00
                       0.0000000000E+00  0.0000000000E+00  0.0000000000E+00
                       0.0000000000E+00  0.0000000000E+00  0.0000000000E+00
                       0.0000000000E+00  0.0000000000E+00  0.0000000000E+00
                       0.0000000000E+00  0.0000000000E+00  0.0000000000E+00
-          fftalg         512
           irdden           1
           irdwfk           1
           istwfk        1    1
              ixc     -116133
              kpt      5.00000000E-01  0.00000000E+00  0.00000000E+00
                       0.00000000E+00  0.00000000E+00  0.00000000E+00
           kptopt           0
P           mkmem           2
P          mkqmem           2
P          mk1mem           2
            natom           8
            nband          42
           nbdbuf           4
            ngfft          60      60      60
             nkpt           2
            nstep        2000
             nsym           6
           ntypat           3
              occ      2.000000  2.000000  2.000000  2.000000  2.000000  2.000000
                       2.000000  2.000000  2.000000  2.000000  2.000000  2.000000
                       2.000000  2.000000  2.000000  2.000000  2.000000  2.000000
                       2.000000  2.000000  2.000000  2.000000  2.000000  2.000000
                       2.000000  2.000000  2.000000  2.000000  2.000000  2.000000
                       2.000000  2.000000  2.000000  0.000000  0.000000  0.000000
                       0.000000  0.000000  0.000000  0.000000  0.000000  0.000000
        optdriver           1
            prtwf          -1
            rfdir           1       1       1
           rfelfd           2
            rprim      9.8084637245E+00  0.0000000000E+00 -1.1785228441E+00
                      -1.3286033060E+00  9.7180643077E+00 -1.1785228441E+00
                       0.0000000000E+00  0.0000000000E+00  9.8790119308E+00
          spgroup         148
           strten      0.0000000000E+00  0.0000000000E+00  0.0000000000E+00
                       0.0000000000E+00  0.0000000000E+00  0.0000000000E+00
           symrel      1  0  0   0  1  0   0  0  1      -1  0  0   0 -1  0   0  0 -1
                       0  0  1   1  0  0   0  1  0       0  0 -1  -1  0  0   0 -1  0
                       0  1  0   0  0  1   1  0  0       0 -1  0   0  0 -1  -1  0  0
           tolwfr      1.00000000E-20
            typat      1  2  3  3  3  3  3  3
           useylm           1
              wtk        0.50000    0.50000
           xangst      2.2436744327E+00  2.5712890716E+00  1.9902265497E+00
                       0.0000000000E+00  0.0000000000E+00  0.0000000000E+00
                      -1.5099035651E-01  4.0318069772E+00  3.0070534820E+00
                       3.4645633264E+00  3.9652877289E-01  3.6276992879E+00
                       8.9467205126E-01  1.6562341445E+00  4.4890935071E+00
                       1.0227855391E+00  4.7460493704E+00  3.5275381151E-01
                       4.6383392220E+00  1.1107711661E+00  9.7339961732E-01
                       3.5926768142E+00  3.4863439987E+00 -5.0864040777E-01
            xcart      4.2399302092E+00  4.8590321539E+00  3.7609831213E+00
                       0.0000000000E+00  0.0000000000E+00  0.0000000000E+00
                      -2.8533042252E-01  7.6190110076E+00  5.6825075480E+00
                       6.5470758569E+00  7.4933078457E-01  6.8553581465E+00
                       1.6906851556E+00  3.1298289451E+00  8.4831573134E+00
                       1.9327845616E+00  8.9687335231E+00  6.6660809609E-01
                       8.7651908410E+00  2.0990533001E+00  1.8394586946E+00
                       6.7891752629E+00  6.5882353626E+00 -9.6119107080E-01
             xred      5.0000000000E-01  5.0000000000E-01  5.0000000000E-01
                       0.0000000000E+00  0.0000000000E+00  0.0000000000E+00
                       7.7107000000E-02  7.8400500000E-01  6.7793700000E-01
                       6.7793700000E-01  7.7107000000E-02  7.8400500000E-01
                       2.1599500000E-01  3.2206300000E-01  9.2289300000E-01
                       3.2206300000E-01  9.2289300000E-01  2.1599500000E-01
                       9.2289300000E-01  2.1599500000E-01  3.2206300000E-01
                       7.8400500000E-01  6.7793700000E-01  7.7107000000E-02
            znucl       37.00000   83.00000    9.00000

- Timing analysis has been suppressed with timopt=0

 Suggested references for the acknowledgment of ABINIT usage.

 Calculation completed.
.Delivered  14 WARNINGs and   9 COMMENTs to log file.