.Version 9.5.1 of ABINIT

 ABINIT is a project of the Universite Catholique de Louvain,
 Corning Inc. and other collaborators, see ~abinit/doc/developers/contributors.txt .
 acknowledgments of the ABINIT effort.

.Starting date : Tue  4 May 2021.
- ( at 19h48 )

- input  file    -> /scratch/users/j/a/jabreu/flow_simple_6atoms/flow/w232/t1/run.abi
- output file    -> /scratch/users/j/a/jabreu/flow_simple_6atoms/flow/w232/t1/run.abo
- root for input  files -> /scratch/users/j/a/jabreu/flow_simple_6atoms/flow/w232/t1/indata/in
- root for output files -> /scratch/users/j/a/jabreu/flow_simple_6atoms/flow/w232/t1/outdata/out

 Symmetries : space group P4_2/m m c (#131); Bravais tP (primitive tetrag.)
     intxc =       0      iscf =       7    lmnmax =      18     lnmax =       6
     mgfft =      80  mpssoang =       3    mqgrid =    3848     natom =       6
  nloc_mem =       1    nspden =       1   nspinor =       1    nsppol =       1
      nsym =      16    n1xccc =    2501    ntypat =       3    occopt =       1
   xclevel =       2
-    mband =          27        mffmem =           1         mkmem =           2
-   mkqmem =           2        mk1mem =           2           mpw =        9243
      nfft =      162000          nkpt =           2
  Rough estimation (10% accuracy) of disk space for files :

------------- Echo of variables that govern the present computation ------------
-
- outvars: echo of selected default values
-   iomode0 =  0 , fftalg0 =512 , wfoptalg0 =  0
-
- outvars: echo of global parameters not present in the input file
-  max_nthreads =    0
-
 -outvars: echo values of preprocessed input variables --------
            acell      1.0000000000E+00  1.0000000000E+00  1.0000000000E+00 Bohr
              amu      8.76200000E+01  6.94100000E+00  1.40067400E+01
             ecut      4.20000000E+01 Hartree
-          fftalg         512
           irdden           1
           irdwfk           1
           istwfk        1    1
              ixc     -116133
              kpt      5.00000000E-01  5.00000000E-01  0.00000000E+00
                       0.00000000E+00  0.00000000E+00  0.00000000E+00
           kptopt           0
P           mkmem           2
P          mkqmem           2
P          mk1mem           2
            natom           6
            nband          27
           nbdbuf           4
            ngfft          45      45      80
             nkpt           2
            nstep        1000
             nsym          16
           ntypat           3
              occ      2.000000  2.000000  2.000000  2.000000  2.000000  2.000000
                       2.000000  2.000000  2.000000  2.000000  2.000000  2.000000
                       2.000000  2.000000  2.000000  2.000000  2.000000  2.000000
                       0.000000  0.000000  0.000000  0.000000  0.000000  0.000000
                       0.000000  0.000000  0.000000
        optdriver           1
            prtwf          -1
            rfdir           1       1       1
           rfelfd           2
            rprim      7.3498628623E+00  0.0000000000E+00  0.0000000000E+00
                       0.0000000000E+00  7.3498628623E+00  0.0000000000E+00
                       0.0000000000E+00  0.0000000000E+00  1.3187088118E+01
          spgroup         131
           symrel      1  0  0   0  1  0   0  0  1      -1  0  0   0 -1  0   0  0 -1
                      -1  0  0   0  1  0   0  0 -1       1  0  0   0 -1  0   0  0  1
                      -1  0  0   0 -1  0   0  0  1       1  0  0   0  1  0   0  0 -1
                       1  0  0   0 -1  0   0  0 -1      -1  0  0   0  1  0   0  0  1
                       0  1  0   1  0  0   0  0  1       0 -1  0  -1  0  0   0  0 -1
                       0 -1  0   1  0  0   0  0 -1       0  1  0  -1  0  0   0  0  1
                       0 -1  0  -1  0  0   0  0  1       0  1  0   1  0  0   0  0 -1
                       0  1  0  -1  0  0   0  0 -1       0 -1  0   1  0  0   0  0  1
            tnons      0.0000000  0.0000000  0.0000000     0.0000000  0.0000000 -0.0000000
                       0.0000000  0.0000000 -0.0000000     0.0000000  0.0000000  0.0000000
                       0.0000000  0.0000000  0.0000000     0.0000000  0.0000000 -0.0000000
                       0.0000000  0.0000000 -0.0000000     0.0000000  0.0000000  0.0000000
                       0.0000000  0.0000000  0.5000000     0.0000000  0.0000000  0.5000000
                       0.0000000  0.0000000  0.5000000     0.0000000  0.0000000  0.5000000
                       0.0000000  0.0000000  0.5000000     0.0000000  0.0000000  0.5000000
                       0.0000000  0.0000000  0.5000000     0.0000000  0.0000000  0.5000000
           tolwfr      1.00000000E-20
            typat      1  1  2  2  3  3
           useylm           1
              wtk        0.50000    0.50000
           xangst      0.0000000000E+00  0.0000000000E+00  5.2337298596E+00
                       0.0000000000E+00  0.0000000000E+00  1.7445766199E+00
                       1.9446899565E+00  1.9446899565E+00  3.4891532398E+00
                       1.9446899565E+00  1.9446899565E+00  0.0000000000E+00
                       0.0000000000E+00  1.9446899565E+00  0.0000000000E+00
                       1.9446899565E+00  0.0000000000E+00  3.4891532398E+00
            xcart      0.0000000000E+00  0.0000000000E+00  9.8903160882E+00
                       0.0000000000E+00  0.0000000000E+00  3.2967720294E+00
                       3.6749314311E+00  3.6749314311E+00  6.5935440588E+00
                       3.6749314311E+00  3.6749314311E+00  0.0000000000E+00
                       0.0000000000E+00  3.6749314311E+00  0.0000000000E+00
                       3.6749314311E+00  0.0000000000E+00  6.5935440588E+00
             xred      0.0000000000E+00  0.0000000000E+00  7.5000000000E-01
                       0.0000000000E+00  0.0000000000E+00  2.5000000000E-01
                       5.0000000000E-01  5.0000000000E-01  5.0000000000E-01
                       5.0000000000E-01  5.0000000000E-01  0.0000000000E+00
                       0.0000000000E+00  5.0000000000E-01  0.0000000000E+00
                       5.0000000000E-01  0.0000000000E+00  5.0000000000E-01
            znucl       38.00000    3.00000    7.00000

 chkinp: Checking input parameters for consistency.

== DATASET  1 ==================================================================
-   mpi_nproc: 1, omp_nthreads: -1 (-1 if OMP is not activated)

--- !DatasetInfo
iteration_state: {dtset: 1, }
dimensions: {natom: 6, nkpt: 2, mband: 27, nsppol: 1, nspinor: 1, nspden: 1, mpw: 9243, }
cutoff_energies: {ecut:  42.0, pawecutdg:  -1.0, }
electrons: {nelect:   3.60000000E+01, charge:   0.00000000E+00, occopt:   1.00000000E+00, tsmear:   1.00000000E-02, }
meta: {optdriver: 1, rfelfd: 2, }
...

 Real(R)+Recip(G) space primitive vectors, cartesian coordinates (Bohr,Bohr^-1):
 R(1)=  7.3498629  0.0000000  0.0000000  G(1)=  0.1360570  0.0000000  0.0000000
 R(2)=  0.0000000  7.3498629  0.0000000  G(2)=  0.0000000  0.1360570  0.0000000
 R(3)=  0.0000000  0.0000000 13.1870881  G(3)=  0.0000000  0.0000000  0.0758318
 Unit cell volume ucvol=  7.1237288E+02 bohr^3
 Angles (23,13,12)=  9.00000000E+01  9.00000000E+01  9.00000000E+01 degrees

 getcut: wavevector=  0.0000  0.0000  0.0000  ngfft=  45  45  80
         ecut(hartree)=     42.000   => boxcut(ratio)=   2.05203

--- Pseudopotential description ------------------------------------------------
- pspini: atom type   1  psp file is /scratch/users/j/a/jabreu/pseudos/PBEsol/Sr.psp8
- pspatm: opening atomic psp file    /scratch/users/j/a/jabreu/pseudos/PBEsol/Sr.psp8
- Sr    ONCVPSP-3.3.0  r_core=   1.66721   1.31335   1.51547
- 38.00000  10.00000    180112                znucl, zion, pspdat
    8 -116133    2    4       600   0.00000   pspcod,pspxc,lmax,lloc,mmax,r2well
    5.99000000000000    6.00000000000000    0.00000000000000   rchrg,fchrg,qchrg
     nproj     2     2     2
     extension_switch     1
  pspatm : epsatm=   12.46450977
         --- l  ekb(1:nproj) -->
             0   10.029206    1.044171
             1    7.472414    1.670829
             2    4.142950    0.968140
 pspatm: atomic psp has been read  and splines computed

- pspini: atom type   2  psp file is /scratch/users/j/a/jabreu/pseudos/PBEsol/Li.psp8
- pspatm: opening atomic psp file    /scratch/users/j/a/jabreu/pseudos/PBEsol/Li.psp8
- Li    ONCVPSP-3.3.0  r_core=   1.40824   1.10935
-  3.00000   3.00000    180112                znucl, zion, pspdat
    8 -116133    1    4       400   0.00000   pspcod,pspxc,lmax,lloc,mmax,r2well
    3.99000000000000    0.00000000000000    0.00000000000000   rchrg,fchrg,qchrg
     nproj     2     2
     extension_switch     1
  pspatm : epsatm=    2.60859637
         --- l  ekb(1:nproj) -->
             0   -4.855856   -1.482423
             1   -2.171544   -0.427615
 pspatm: atomic psp has been read  and splines computed

- pspini: atom type   3  psp file is /scratch/users/j/a/jabreu/pseudos/PBEsol/N.psp8
- pspatm: opening atomic psp file    /scratch/users/j/a/jabreu/pseudos/PBEsol/N.psp8
- N     ONCVPSP-3.3.0  r_core=   1.20551   1.35824
-  7.00000   5.00000    180112                znucl, zion, pspdat
    8 -116133    1    4       600   0.00000   pspcod,pspxc,lmax,lloc,mmax,r2well
    5.99000000000000    4.00000000000000    0.00000000000000   rchrg,fchrg,qchrg
     nproj     2     2
     extension_switch     1
  pspatm : epsatm=    5.26508895
         --- l  ekb(1:nproj) -->
             0    7.464189    0.625868
             1   -4.309714   -1.012941
 pspatm: atomic psp has been read  and splines computed

   1.46435005E+03                                ecore*ucvol(ha*bohr**3)

-inwffil : will read wavefunctions from disk file /scratch/users/j/a/jabreu/flow_simple_6atoms/flow/w232/t1/indata/in_WFK

 ==>  initialize data related to q vector <==

 The list of irreducible perturbations for this q vector is:
    1)    idir= 1    ipert=   7
    2)    idir= 2    ipert=   7
    3)    idir= 3    ipert=   7

 Perturbation wavevector (in red.coord.)   0.000000  0.000000  0.000000
 Perturbation : derivative vs k along direction   1

 dfpt_looppert : COMMENT -
  In a d/dk calculation, iscf is set to -3 automatically.
 The set of symmetries contains only one element for this perturbation.
 symkpt : not enough symmetry to change the number of k points.

[...]

 Initialisation of the first-order wave-functions :
  ireadwf=   0

--- !BeginCycle
iteration_state: {dtset: 1, }
solver: {iscf: 7, nstep: 1000, nline: 4, wfoptalg: 0, }
tolerances: {tolwfr: 1.00E-20, }
...

     iter   2DEtotal(Ha)        deltaE(Ha) residm    vres2
-ETOT  1  -29.992626372882     -2.999E+01 2.319E-02 0.000E+00
 ETOT  2  -30.006195301481     -1.357E-02 8.353E-04 0.000E+00
 ETOT  3  -30.006220122354     -2.482E-05 1.459E-05 0.000E+00
 ETOT  4  -30.006220199491     -7.714E-08 1.776E-06 0.000E+00
 ETOT  5  -30.006220199802     -3.112E-10 5.112E-08 0.000E+00
 ETOT  6  -30.006220199804     -1.808E-12 7.648E-09 0.000E+00
 ETOT  7  -30.006220199804     -3.553E-15 2.386E-10 0.000E+00
 ETOT  8  -30.006220199804     -2.132E-14 3.658E-11 0.000E+00
 ETOT  9  -30.006220199804     -3.553E-15 1.199E-12 0.000E+00
 ETOT 10  -30.006220199804      3.553E-15 1.838E-13 0.000E+00
 ETOT 11  -30.006220199804      1.066E-14 6.374E-15 0.000E+00
 ETOT 12  -30.006220199804     -1.776E-14 9.579E-16 0.000E+00
 ETOT 13  -30.006220199804      7.105E-15 3.491E-17 0.000E+00
 ETOT 14  -30.006220199804      1.066E-14 5.109E-18 0.000E+00
 ETOT 15  -30.006220199804     -7.105E-15 1.929E-19 0.000E+00
 ETOT 16  -30.006220199804      3.553E-15 2.781E-20 0.000E+00
 ETOT 17  -30.006220199804      0.000E+00 9.582E-21 0.000E+00

 At SCF step   17   max residual=  9.58E-21 < tolwfr=  1.00E-20 =>converged.

 ----iterations are completed or convergence reached----

 dfpt_looppert: DFPT cycle converged with prtwf=-1. Will skip output of the 1st-order WFK file.
 dfpt_looppert : ek2=    5.2617930312E+01
          f-sum rule ratio=    1.1233363880E+00
 prteigrs : about to open file /scratch/users/j/a/jabreu/flow_simple_6atoms/flow/w232/t1/tmpdata/tmp_1WF1_EIG
 Expectation of eigenvalue derivatives (hartree) for nkpt=   2  k points:
  (in case of degenerate eigenvalues, averaged derivative)
 kpt#   1, nband= 27, wtk=  0.50000, kpt=  0.5000  0.5000  0.0000 (reduced coord)
   0.00000    0.00000   -0.00000    0.00000    0.00000    0.00000    0.00000    0.00000
   0.00000   -0.00000    0.00000    0.00000   -0.00000   -0.00000   -0.00000    0.00000
   0.00000    0.00000    0.00000   -0.00000   -0.00000    0.00000    0.00000    0.00000
   0.00000    0.00133    0.00010
 prteigrs : prtvol=0 or 1, do not print more k-points.

 Eight components of 2nd-order total energy (hartree) are
 1,2,3: 0th-order hamiltonian combined with 1st-order wavefunctions
     kin0=   3.09852401E+01 eigvalue=   1.17557130E+00  local=  -1.61206183E+01
 4,5,6: 1st-order hamiltonian combined with 1st and 0th-order wfs
     kin1=  -5.91076358E+01  Hartree=   0.00000000E+00     xc=   0.00000000E+00
 7,8,9: eventually, occupation + non-local contributions
    edocc=   1.20934771E+01     enl0=   1.87255000E+00   enl1=  -9.04804620E-01
 1-9 gives the relaxation energy (to be shifted if some occ is /=2.0)
   erelax=  -3.00062202E+01
  No Ewald or frozen-wf contrib.: the relaxation energy is the total one
 2DEtotal=   -0.3000622020E+02 Ha. Also 2DEtotal=   -0.816510776045E+03 eV
    (  non-var. 2DEtotal :   -3.0006220200E+01 Ha)

 Perturbation wavevector (in red.coord.)   0.000000  0.000000  0.000000
 Perturbation : derivative vs k along direction   2
 The set of symmetries contains only one element for this perturbation.
 symkpt : not enough symmetry to change the number of k points.

[...]

 Perturbation wavevector (in red.coord.)   0.000000  0.000000  0.000000
 Perturbation : derivative vs k along direction   3
 The set of symmetries contains only one element for this perturbation.
 symkpt : not enough symmetry to change the number of k points.

-inwffil : will read wavefunctions from disk file /scratch/users/j/a/jabreu/flow_simple_6atoms/flow/w232/t1/indata/in_WFK

 Initialisation of the first-order wave-functions :
  ireadwf=   0

--- !BeginCycle
iteration_state: {dtset: 1, }
solver: {iscf: 7, nstep: 1000, nline: 4, wfoptalg: 0, }
tolerances: {tolwfr: 1.00E-20, }
...

     iter   2DEtotal(Ha)        deltaE(Ha) residm    vres2
-ETOT  1  -9.8011724819575     -9.801E+00 4.912E-02 0.000E+00
 ETOT  2  -9.8049701944163     -3.798E-03 1.258E-03 0.000E+00
 ETOT  3  -9.8049754614613     -5.267E-06 1.918E-05 0.000E+00
 ETOT  4  -9.8049754740384     -1.258E-08 6.226E-07 0.000E+00
 ETOT  5  -9.8049754740814     -4.296E-11 1.240E-08 0.000E+00
 ETOT  6  -9.8049754740816     -1.954E-13 8.765E-10 0.000E+00
 ETOT  7  -9.8049754740816      1.066E-14 8.914E-12 0.000E+00
 ETOT  8  -9.8049754740816     -1.243E-14 1.482E-12 0.000E+00
 ETOT  9  -9.8049754740816     -1.776E-15 1.267E-14 0.000E+00
 ETOT 10  -9.8049754740816      0.000E+00 3.038E-15 0.000E+00
 ETOT 11  -9.8049754740816      1.776E-15 2.524E-17 0.000E+00
 ETOT 12  -9.8049754740816      0.000E+00 6.869E-18 0.000E+00
 ETOT 13  -9.8049754740816     -1.776E-15 5.119E-20 0.000E+00
 ETOT 14  -9.8049754740816      3.553E-15 1.606E-20 0.000E+00
 ETOT 15  -9.8049754740816     -3.553E-15 9.346E-21 0.000E+00

 At SCF step   15   max residual=  9.35E-21 < tolwfr=  1.00E-20 =>converged.

 ----iterations are completed or convergence reached----

 dfpt_looppert: DFPT cycle converged with prtwf=-1. Will skip output of the 1st-order WFK file.
 dfpt_looppert : ek2=    1.6345357236E+01
          f-sum rule ratio=    1.1930438633E+00
 prteigrs : about to open file /scratch/users/j/a/jabreu/flow_simple_6atoms/flow/w232/t1/tmpdata/tmp_1WF1_EIG
 Expectation of eigenvalue derivatives (hartree) for nkpt=   2  k points:
  (in case of degenerate eigenvalues, averaged derivative)
 kpt#   1, nband= 27, wtk=  0.50000, kpt=  0.5000  0.5000  0.0000 (reduced coord)
   0.00000   -0.00000   -0.00000   -0.00000   -0.00000   -0.00000    0.00000   -0.00000
  -0.00000   -0.00000   -0.00000   -0.00000    0.00000   -0.00000   -0.00000    0.00000
   0.00000   -0.00000    0.00000    0.00000    0.00000    0.00000    0.00000    0.00000
   0.00000    0.00001   -0.00000
 prteigrs : prtvol=0 or 1, do not print more k-points.

 Eight components of 2nd-order total energy (hartree) are
 1,2,3: 0th-order hamiltonian combined with 1st-order wavefunctions
     kin0=   1.00863623E+01 eigvalue=   4.62715236E-01  local=  -5.66204471E+00
 4,5,6: 1st-order hamiltonian combined with 1st and 0th-order wfs
     kin1=  -1.95007281E+01  Hartree=   0.00000000E+00     xc=   0.00000000E+00
 7,8,9: eventually, occupation + non-local contributions
    edocc=   4.06360903E+00     enl0=   8.54333643E-01   enl1=  -1.09222804E-01
 1-9 gives the relaxation energy (to be shifted if some occ is /=2.0)
   erelax=  -9.80497547E+00
  No Ewald or frozen-wf contrib.: the relaxation energy is the total one
 2DEtotal=   -0.9804975474E+01 Ha. Also 2DEtotal=   -0.266806951363E+03 eV
    (  non-var. 2DEtotal :   -9.8049754739E+00 Ha)

 CALCULATION OF EFFECTIVE MASSES
 NOTE : Additional infos (eff. mass eigenvalues, eigenvectors and, if degenerate, average mass) are available in stdout.

 K-point ( 0.500, 0.500, 0.000) | band =    18
 Effective mass tensor:
             -2.5489020909              0.0020991369              0.0000245727
              0.0020991369             -2.5513790480              0.0000167195
              0.0000245727              0.0000167195             -0.8079760214
 Effective mass tensor eigenvalues:
             -2.5525778230             -2.5477033164             -0.8079760209
 Angular average effective mass 1/(<1/m>)=  -1.4837296424
 Angular average effective mass for Frohlich model (<m**0.5>)**2=  -1.6387235623
 Effective masses along directions: (cart. coord. / red. coord. -> eff. mass)
    1:   1.000000  0.000000  0.000000 /   1.000000  0.000000  0.000000 ->  -2.5489003630
    2:   0.000000  1.000000  0.000000 /   0.000000  1.000000  0.000000 ->  -2.5513773190
    3:   0.000000  0.000000  1.000000 /   0.000000  0.000000  1.000000 ->  -0.8079760211
    4:   0.577350  0.577350  0.577350 /   0.437724  0.437724  0.785363 ->  -1.4832266436
    5:   0.000000  0.707107  0.707107 /   0.000000  0.486842  0.873490 ->  -1.2272785512
    6:   0.707107  0.000000  0.707107 /   0.486842  0.000000  0.873490 ->  -1.2269860254
    7:   0.707107  0.707107  0.000000 /   0.707107  0.707107  0.000000 ->  -2.5480408305

 K-point ( 0.000, 0.000, 0.000) | band =    19
 Effective mass tensor:
              0.2849868025              0.0000014064              0.0000000388
              0.0000014064              0.2849883319              0.0000001393
              0.0000000388              0.0000001393              0.1730307664
 Effective mass tensor eigenvalues:
              0.1730307664              0.2849859664              0.2849891680
 Angular average effective mass 1/(<1/m>)=   0.2344268481
 Angular average effective mass for Frohlich model (<m**0.5>)**2=   0.2386483357
 Effective masses along directions: (cart. coord. / red. coord. -> eff. mass)
    1:   1.000000  0.000000  0.000000 /   1.000000  0.000000  0.000000 ->   0.2849868025
    2:   0.000000  1.000000  0.000000 /   0.000000  1.000000  0.000000 ->   0.2849883319
    3:   0.000000  0.000000  1.000000 /   0.000000  0.000000  1.000000 ->   0.1730307664
    4:   0.577350  0.577350  0.577350 /   0.437724  0.437724  0.785363 ->   0.2344276148
    5:   0.000000  0.707107  0.707107 /   0.000000  0.486842  0.873490 ->   0.2153263026
    6:   0.707107  0.000000  0.707107 /   0.486842  0.000000  0.873490 ->   0.2153257715
    7:   0.707107  0.707107  0.000000 /   0.707107  0.707107  0.000000 ->   0.2849889736

 END OF EFFECTIVE MASSES SECTION

 ---- first-order wavefunction calculations are completed ----

 Total localisation tensor (bohr^2) in cartesian coordinates
  WARNING : still subject to testing - especially symmetries.
      direction              matrix element
   alpha     beta       real part   imaginary part
     1        1       1.9499631393    0.0000000000
     1        2       0.0000000000    0.0000000000
     1        3       0.0000000000    0.0000000000
     2        1       0.0000000000    0.0000000000
     2        2       1.9501505089    0.0000000000
     2        3       0.0000000000    0.0000000000
     3        1       0.0000000000    0.0000000000
     3        2       0.0000000000    0.0000000000
     3        3       3.1319448685    0.0000000000

 respfn : d/dk was computed, but no 2DTE, so no DDB output.

== END DATASET(S) ==============================================================

 -outvars: echo values of variables after computation  --------
            acell      1.0000000000E+00  1.0000000000E+00  1.0000000000E+00 Bohr
              amu      8.76200000E+01  6.94100000E+00  1.40067400E+01
             ecut      4.20000000E+01 Hartree
           etotal     -9.8049754741E+00
            fcart      0.0000000000E+00  0.0000000000E+00  0.0000000000E+00
                       0.0000000000E+00  0.0000000000E+00  0.0000000000E+00
                       0.0000000000E+00  0.0000000000E+00  0.0000000000E+00
                       0.0000000000E+00  0.0000000000E+00  0.0000000000E+00
                       0.0000000000E+00  0.0000000000E+00  0.0000000000E+00
                       0.0000000000E+00  0.0000000000E+00  0.0000000000E+00
-          fftalg         512
           irdden           1
           irdwfk           1
           istwfk        1    1
              ixc     -116133
              kpt      5.00000000E-01  5.00000000E-01  0.00000000E+00
                       0.00000000E+00  0.00000000E+00  0.00000000E+00
           kptopt           0
P           mkmem           2
P          mkqmem           2
P          mk1mem           2
            natom           6
            nband          27
           nbdbuf           4
            ngfft          45      45      80
             nkpt           2
            nstep        1000
             nsym          16
           ntypat           3
              occ      2.000000  2.000000  2.000000  2.000000  2.000000  2.000000
                       2.000000  2.000000  2.000000  2.000000  2.000000  2.000000
                       2.000000  2.000000  2.000000  2.000000  2.000000  2.000000
                       0.000000  0.000000  0.000000  0.000000  0.000000  0.000000
                       0.000000  0.000000  0.000000
        optdriver           1
            prtwf          -1
            rfdir           1       1       1
           rfelfd           2
            rprim      7.3498628623E+00  0.0000000000E+00  0.0000000000E+00
                       0.0000000000E+00  7.3498628623E+00  0.0000000000E+00
                       0.0000000000E+00  0.0000000000E+00  1.3187088118E+01
          spgroup         131
           strten      0.0000000000E+00  0.0000000000E+00  0.0000000000E+00
                       0.0000000000E+00  0.0000000000E+00  0.0000000000E+00
           symrel      1  0  0   0  1  0   0  0  1      -1  0  0   0 -1  0   0  0 -1
                      -1  0  0   0  1  0   0  0 -1       1  0  0   0 -1  0   0  0  1
                      -1  0  0   0 -1  0   0  0  1       1  0  0   0  1  0   0  0 -1
                       1  0  0   0 -1  0   0  0 -1      -1  0  0   0  1  0   0  0  1
                       0  1  0   1  0  0   0  0  1       0 -1  0  -1  0  0   0  0 -1
                       0 -1  0   1  0  0   0  0 -1       0  1  0  -1  0  0   0  0  1
                       0 -1  0  -1  0  0   0  0  1       0  1  0   1  0  0   0  0 -1
                       0  1  0  -1  0  0   0  0 -1       0 -1  0   1  0  0   0  0  1
            tnons      0.0000000  0.0000000  0.0000000     0.0000000  0.0000000 -0.0000000
                       0.0000000  0.0000000 -0.0000000     0.0000000  0.0000000  0.0000000
                       0.0000000  0.0000000  0.0000000     0.0000000  0.0000000 -0.0000000
                       0.0000000  0.0000000 -0.0000000     0.0000000  0.0000000  0.0000000
                       0.0000000  0.0000000  0.5000000     0.0000000  0.0000000  0.5000000
                       0.0000000  0.0000000  0.5000000     0.0000000  0.0000000  0.5000000
                       0.0000000  0.0000000  0.5000000     0.0000000  0.0000000  0.5000000
                       0.0000000  0.0000000  0.5000000     0.0000000  0.0000000  0.5000000
           tolwfr      1.00000000E-20
            typat      1  1  2  2  3  3
           useylm           1
              wtk        0.50000    0.50000
           xangst      0.0000000000E+00  0.0000000000E+00  5.2337298596E+00
                       0.0000000000E+00  0.0000000000E+00  1.7445766199E+00
                       1.9446899565E+00  1.9446899565E+00  3.4891532398E+00
                       1.9446899565E+00  1.9446899565E+00  0.0000000000E+00
                       0.0000000000E+00  1.9446899565E+00  0.0000000000E+00
                       1.9446899565E+00  0.0000000000E+00  3.4891532398E+00
            xcart      0.0000000000E+00  0.0000000000E+00  9.8903160882E+00
                       0.0000000000E+00  0.0000000000E+00  3.2967720294E+00
                       3.6749314311E+00  3.6749314311E+00  6.5935440588E+00
                       3.6749314311E+00  3.6749314311E+00  0.0000000000E+00
                       0.0000000000E+00  3.6749314311E+00  0.0000000000E+00
                       3.6749314311E+00  0.0000000000E+00  6.5935440588E+00
             xred      0.0000000000E+00  0.0000000000E+00  7.5000000000E-01
                       0.0000000000E+00  0.0000000000E+00  2.5000000000E-01
                       5.0000000000E-01  5.0000000000E-01  5.0000000000E-01
                       5.0000000000E-01  5.0000000000E-01  0.0000000000E+00
                       0.0000000000E+00  5.0000000000E-01  0.0000000000E+00
                       5.0000000000E-01  0.0000000000E+00  5.0000000000E-01
            znucl       38.00000    3.00000    7.00000

- Timing analysis has been suppressed with timopt=0

 Suggested references for the acknowledgment of ABINIT usage.

 Calculation completed.
.Delivered  14 WARNINGs and   9 COMMENTs to log file.