.Version 9.5.1 of ABINIT

 ABINIT is a project of the Universite Catholique de Louvain,
 Corning Inc. and other collaborators, see ~abinit/doc/developers/contributors.txt .
 acknowledgments of the ABINIT effort.

.Starting date : Tue 11 May 2021.
- ( at 21h38 )

- input  file    -> /scratch/users/j/a/jabreu/flow_simple_8atoms/flow/w333/t1/run.abi
- output file    -> /scratch/users/j/a/jabreu/flow_simple_8atoms/flow/w333/t1/run.abo
- root for input  files -> /scratch/users/j/a/jabreu/flow_simple_8atoms/flow/w333/t1/indata/in
- root for output files -> /scratch/users/j/a/jabreu/flow_simple_8atoms/flow/w333/t1/outdata/out

 Symmetries : space group P4/n m m (#129); Bravais tP (primitive tetrag.)
     intxc =       0      iscf =       7    lmnmax =      18     lnmax =       6
     mgfft =     108  mpssoang =       3    mqgrid =    5028     natom =       8
  nloc_mem =       1    nspden =       1   nspinor =       1    nsppol =       1
      nsym =      16    n1xccc =    2501    ntypat =       4    occopt =       1
   xclevel =       2
-    mband =          61        mffmem =           1         mkmem =           1
-   mkqmem =           1        mk1mem =           1           mpw =       14111
      nfft =      248832          nkpt =           1
  Rough estimation (10% accuracy) of disk space for files :

------------- Echo of variables that govern the present computation ------------
-
- outvars: echo of selected default values
-   iomode0 =  0 , fftalg0 =512 , wfoptalg0 =  0
-
- outvars: echo of global parameters not present in the input file
-  max_nthreads =    0
-
 -outvars: echo values of preprocessed input variables --------
            acell      1.0000000000E+00  1.0000000000E+00  1.0000000000E+00 Bohr
              amu      8.76200000E+01  6.35460000E+01  7.89600000E+01
                       1.89984032E+01
             ecut      4.60000000E+01 Hartree
-          fftalg         512
           irdden           1
           irdwfk           1
           istwfk        1
              ixc     -116133
           kptopt           0
P           mkmem           1
P          mkqmem           1
P          mk1mem           1
            natom           8
            nband          61
           nbdbuf           4
            ngfft          48      48     108
             nkpt           1
            nstep        2000
             nsym          16
           ntypat           4
              occ      2.000000  2.000000  2.000000  2.000000  2.000000  2.000000
                       2.000000  2.000000  2.000000  2.000000  2.000000  2.000000
                       2.000000  2.000000  2.000000  2.000000  2.000000  2.000000
                       2.000000  2.000000  2.000000  2.000000  2.000000  2.000000
                       2.000000  2.000000  2.000000  2.000000  2.000000  2.000000
                       2.000000  2.000000  2.000000  2.000000  2.000000  2.000000
                       2.000000  2.000000  2.000000  2.000000  2.000000  2.000000
                       2.000000  2.000000  2.000000  2.000000  2.000000  2.000000
                       2.000000  2.000000  2.000000  2.000000  0.000000  0.000000
                       0.000000  0.000000  0.000000  0.000000  0.000000  0.000000
                       0.000000
        optdriver           1
            prtwf          -1
            rfdir           1       1       1
           rfelfd           2
            rprim      7.5827036904E+00  0.0000000000E+00  0.0000000000E+00
                       0.0000000000E+00  7.5827036904E+00  0.0000000000E+00
                       0.0000000000E+00  0.0000000000E+00  1.6465196007E+01
          spgroup         129
           symrel      1  0  0   0  1  0   0  0  1      -1  0  0   0 -1  0   0  0 -1
                      -1  0  0   0  1  0   0  0 -1       1  0  0   0 -1  0   0  0  1
                      -1  0  0   0 -1  0   0  0  1       1  0  0   0  1  0   0  0 -1
                       1  0  0   0 -1  0   0  0 -1      -1  0  0   0  1  0   0  0  1
                       0  1  0   1  0  0   0  0  1       0 -1  0  -1  0  0   0  0 -1
                       0 -1  0   1  0  0   0  0 -1       0  1  0  -1  0  0   0  0  1
                       0 -1  0  -1  0  0   0  0  1       0  1  0   1  0  0   0  0 -1
                       0  1  0  -1  0  0   0  0 -1       0 -1  0   1  0  0   0  0  1
            tnons      0.0000000  0.0000000  0.0000000     0.5000000  0.5000000  0.0000000
                       0.5000000  0.5000000  0.0000000     0.0000000 -0.0000000  0.0000000
                       0.0000000 -0.0000000  0.0000000     0.5000000  0.5000000  0.0000000
                       0.5000000  0.5000000  0.0000000     0.0000000  0.0000000  0.0000000
                       0.5000000  0.5000000  0.0000000    -0.0000000  0.0000000  0.0000000
                       0.0000000  0.0000000  0.0000000     0.5000000  0.5000000  0.0000000
                       0.5000000  0.5000000  0.0000000     0.0000000  0.0000000  0.0000000
                      -0.0000000  0.0000000  0.0000000     0.5000000  0.5000000  0.0000000
           tolwfr      1.00000000E-20
            typat      1  1  2  2  3  3  4  4
           useylm           1
           xangst      0.0000000000E+00  2.0062969862E+00  5.7714606284E+00
                       2.0062969862E+00  0.0000000000E+00  2.9415458336E+00
                       2.0062969862E+00  2.0062969862E+00  0.0000000000E+00
                       0.0000000000E+00  0.0000000000E+00  0.0000000000E+00
                       2.0062969862E+00  0.0000000000E+00  7.2443769447E+00
                       0.0000000000E+00  2.0062969862E+00  1.4686295172E+00
                       0.0000000000E+00  0.0000000000E+00  4.3565032310E+00
                       2.0062969862E+00  2.0062969862E+00  4.3565032310E+00
            xcart      0.0000000000E+00  3.7913518452E+00  1.0906479974E+01
                       3.7913518452E+00  0.0000000000E+00  5.5587160328E+00
                       3.7913518452E+00  3.7913518452E+00  0.0000000000E+00
                       0.0000000000E+00  0.0000000000E+00  0.0000000000E+00
                       3.7913518452E+00  0.0000000000E+00  1.3689888429E+01
                       0.0000000000E+00  3.7913518452E+00  2.7753075782E+00
                       0.0000000000E+00  0.0000000000E+00  8.2325980035E+00
                       3.7913518452E+00  3.7913518452E+00  8.2325980035E+00
             xred      0.0000000000E+00  5.0000000000E-01  6.6239600000E-01
                       5.0000000000E-01  0.0000000000E+00  3.3760400000E-01
                       5.0000000000E-01  5.0000000000E-01  0.0000000000E+00
                       0.0000000000E+00  0.0000000000E+00  0.0000000000E+00
                       5.0000000000E-01  0.0000000000E+00  8.3144400000E-01
                       0.0000000000E+00  5.0000000000E-01  1.6855600000E-01
                       0.0000000000E+00  0.0000000000E+00  5.0000000000E-01
                       5.0000000000E-01  5.0000000000E-01  5.0000000000E-01
            znucl       38.00000   29.00000   34.00000    9.00000

 chkinp: Checking input parameters for consistency.

== DATASET  1 ==================================================================
-   mpi_nproc: 1, omp_nthreads: -1 (-1 if OMP is not activated)

--- !DatasetInfo
iteration_state: {dtset: 1, }
dimensions: {natom: 8, nkpt: 1, mband: 61, nsppol: 1, nspinor: 1, nspden: 1, mpw: 14111, }
cutoff_energies: {ecut:  46.0, pawecutdg:  -1.0, }
electrons: {nelect:   1.04000000E+02, charge:   0.00000000E+00, occopt:   1.00000000E+00, tsmear:   1.00000000E-02, }
meta: {optdriver: 1, rfelfd: 2, }
...

 Real(R)+Recip(G) space primitive vectors, cartesian coordinates (Bohr,Bohr^-1):
 R(1)=  7.5827037  0.0000000  0.0000000  G(1)=  0.1318791  0.0000000  0.0000000
 R(2)=  0.0000000  7.5827037  0.0000000  G(2)=  0.0000000  0.1318791  0.0000000
 R(3)=  0.0000000  0.0000000 16.4651960  G(3)=  0.0000000  0.0000000  0.0607342
 Unit cell volume ucvol=  9.4670588E+02 bohr^3
 Angles (23,13,12)=  9.00000000E+01  9.00000000E+01  9.00000000E+01 degrees

 getcut: wavevector=  0.0000  0.0000  0.0000  ngfft=  48  48 108
         ecut(hartree)=     46.000   => boxcut(ratio)=   2.07335

--- Pseudopotential description ------------------------------------------------
- pspini: atom type   1  psp file is /scratch/users/j/a/jabreu/pseudos/PBEsol/Sr.psp8
- pspatm: opening atomic psp file    /scratch/users/j/a/jabreu/pseudos/PBEsol/Sr.psp8
- Sr    ONCVPSP-3.3.0  r_core=   1.66721   1.31335   1.51547
- 38.00000  10.00000    180112                znucl, zion, pspdat
    8 -116133    2    4       600   0.00000   pspcod,pspxc,lmax,lloc,mmax,r2well
    5.99000000000000    6.00000000000000    0.00000000000000   rchrg,fchrg,qchrg
     nproj     2     2     2
     extension_switch     1
  pspatm : epsatm=   12.46450977
         --- l  ekb(1:nproj) -->
             0   10.029206    1.044171
             1    7.472414    1.670829
             2    4.142950    0.968140
 pspatm: atomic psp has been read  and splines computed

- pspini: atom type   2  psp file is /scratch/users/j/a/jabreu/pseudos/PBEsol/Cu.psp8
- pspatm: opening atomic psp file    /scratch/users/j/a/jabreu/pseudos/PBEsol/Cu.psp8
- Cu    ONCVPSP-3.3.0  r_core=   1.26204   1.45626   1.76249
- 29.00000  19.00000    180112                znucl, zion, pspdat
    8 -116133    2    4       600   0.00000   pspcod,pspxc,lmax,lloc,mmax,r2well
    5.99000000000000    3.50000000000000    0.00000000000000   rchrg,fchrg,qchrg
     nproj     2     2     2
     extension_switch     1
  pspatm : epsatm=   21.63488701
         --- l  ekb(1:nproj) -->
             0    5.008230   -0.401634
             1   -3.496700   -0.765945
             2   -6.895851   -2.521180
 pspatm: atomic psp has been read  and splines computed

[...]

- pspini: atom type   4  psp file is /scratch/users/j/a/jabreu/pseudos/PBEsol/F.psp8
- pspatm: opening atomic psp file    /scratch/users/j/a/jabreu/pseudos/PBEsol/F.psp8
- F     ONCVPSP-3.3.0  r_core=   1.30942   1.45782   1.60379
-  9.00000   7.00000    180112                znucl, zion, pspdat
    8 -116133    2    4       600   0.00000   pspcod,pspxc,lmax,lloc,mmax,r2well
    5.99000000000000    2.50000000000000    0.00000000000000   rchrg,fchrg,qchrg
     nproj     2     2     1
     extension_switch     1
  pspatm : epsatm=    4.89824824
         --- l  ekb(1:nproj) -->
             0    6.506434    1.065875
             1   -3.978753   -1.295852
             2   -2.394754
 pspatm: atomic psp has been read  and splines computed

   1.41806632E+04                                ecore*ucvol(ha*bohr**3)

-inwffil : will read wavefunctions from disk file /scratch/users/j/a/jabreu/flow_simple_8atoms/flow/w333/t1/indata/in_WFK

 ==>  initialize data related to q vector <==

 The list of irreducible perturbations for this q vector is:
    1)    idir= 1    ipert=   9
    2)    idir= 2    ipert=   9
    3)    idir= 3    ipert=   9

 Perturbation wavevector (in red.coord.)   0.000000  0.000000  0.000000
 Perturbation : derivative vs k along direction   1

 dfpt_looppert : COMMENT -
  In a d/dk calculation, iscf is set to -3 automatically.
[...]
 ETOT  9  -23.824496828690     -1.029E-10 2.705E-06 0.000E+00
 ETOT 10  -23.824496828698     -8.495E-12 2.999E-06 0.000E+00
 ETOT 11  -23.824496828699     -7.212E-13 5.238E-07 0.000E+00
 ETOT 12  -23.824496828699     -6.750E-14 5.941E-07 0.000E+00
 ETOT 13  -23.824496828699     -2.487E-14 1.031E-07 0.000E+00
 ETOT 14  -23.824496828699      1.066E-14 1.176E-07 0.000E+00
 ETOT 15  -23.824496828699      0.000E+00 2.038E-08 0.000E+00
 ETOT 16  -23.824496828699     -7.105E-15 2.335E-08 0.000E+00
 ETOT 17  -23.824496828699     -7.105E-15 4.046E-09 0.000E+00
 ETOT 18  -23.824496828699      3.553E-15 4.647E-09 0.000E+00
 ETOT 19  -23.824496828699     -7.105E-15 8.056E-10 0.000E+00
 ETOT 20  -23.824496828699     -3.553E-15 9.269E-10 0.000E+00
 ETOT 21  -23.824496828699      0.000E+00 1.608E-10 0.000E+00
 ETOT 22  -23.824496828699     -7.105E-15 1.853E-10 0.000E+00
 ETOT 23  -23.824496828699      7.105E-15 3.217E-11 0.000E+00
 ETOT 24  -23.824496828699      0.000E+00 3.709E-11 0.000E+00
 ETOT 25  -23.824496828699      0.000E+00 6.447E-12 0.000E+00
 ETOT 26  -23.824496828699      0.000E+00 7.435E-12 0.000E+00
 ETOT 27  -23.824496828699      0.000E+00 1.294E-12 0.000E+00
 ETOT 28  -23.824496828699      0.000E+00 1.492E-12 0.000E+00
 ETOT 29  -23.824496828699      0.000E+00 2.599E-13 0.000E+00
 ETOT 30  -23.824496828699      0.000E+00 2.997E-13 0.000E+00
 ETOT 31  -23.824496828699      0.000E+00 5.227E-14 0.000E+00
 ETOT 32  -23.824496828699      0.000E+00 6.021E-14 0.000E+00
 ETOT 33  -23.824496828699      0.000E+00 1.052E-14 0.000E+00
 ETOT 34  -23.824496828699      0.000E+00 1.210E-14 0.000E+00
 ETOT 35  -23.824496828699      0.000E+00 2.118E-15 0.000E+00
 ETOT 36  -23.824496828699     -3.553E-15 2.434E-15 0.000E+00
 ETOT 37  -23.824496828699      0.000E+00 4.267E-16 0.000E+00
 ETOT 38  -23.824496828699      0.000E+00 4.895E-16 0.000E+00
 ETOT 39  -23.824496828699      3.553E-15 8.600E-17 0.000E+00
 ETOT 40  -23.824496828699      0.000E+00 9.848E-17 0.000E+00
 ETOT 41  -23.824496828699      0.000E+00 1.734E-17 0.000E+00
 ETOT 42  -23.824496828699      7.105E-15 1.982E-17 0.000E+00
 ETOT 43  -23.824496828699     -3.553E-15 3.497E-18 0.000E+00
 ETOT 44  -23.824496828699     -7.105E-15 3.988E-18 0.000E+00
 ETOT 45  -23.824496828699      7.105E-15 7.056E-19 0.000E+00
 ETOT 46  -23.824496828699      0.000E+00 8.027E-19 0.000E+00
 ETOT 47  -23.824496828699     -3.553E-15 1.424E-19 0.000E+00
 ETOT 48  -23.824496828699      0.000E+00 1.616E-19 0.000E+00
 ETOT 49  -23.824496828699      0.000E+00 2.874E-20 0.000E+00
 ETOT 50  -23.824496828699      3.553E-15 3.254E-20 0.000E+00
 ETOT 51  -23.824496828699     -7.105E-15 9.981E-21 0.000E+00

 At SCF step   51   max residual=  9.98E-21 < tolwfr=  1.00E-20 =>converged.

 ----iterations are completed or convergence reached----

 dfpt_looppert: DFPT cycle converged with prtwf=-1. Will skip output of the 1st-order WFK file.
 dfpt_looppert : ek2=    3.0289301733E+01
          f-sum rule ratio=    1.0224752429E+00
 prteigrs : about to open file /scratch/users/j/a/jabreu/flow_simple_8atoms/flow/w333/t1/tmpdata/tmp_1WF1_EIG
 Expectation of eigenvalue derivatives (hartree) for nkpt=   1  k points:
  (in case of degenerate eigenvalues, averaged derivative)
 kpt#   1, nband= 61, wtk=  1.00000, kpt=  0.0000  0.0000  0.0000 (reduced coord)
  -0.00000   -0.00000   -0.00000   -0.00000    0.00000    0.00000    0.00000    0.00000
   0.00000    0.00000   -0.00000   -0.00000    0.00000    0.00000   -0.00000   -0.00000
  -0.00000    0.00000   -0.00000    0.00000   -0.00000   -0.00000    0.00000    0.00000
   0.00000    0.00000    0.00000   -0.00000    0.00000    0.00000    0.00000    0.00000
   0.00000    0.00000   -0.00000    0.00000    0.00000   -0.00000   -0.00000   -0.00000
   0.00000    0.00000    0.00000   -0.00000    0.00000    0.00000    0.00000    0.00000
  -0.00000   -0.00000    0.00000    0.00000   -0.00000   -0.00000    0.00000    0.00000
   0.00000    0.00000   -0.00000   -0.00000    0.00000

 Eight components of 2nd-order total energy (hartree) are
 1,2,3: 0th-order hamiltonian combined with 1st-order wavefunctions
     kin0=   3.23724846E+01 eigvalue=   1.46100245E+00  local=  -1.34250017E+01
 4,5,6: 1st-order hamiltonian combined with 1st and 0th-order wfs
     kin1=  -3.09700611E+01  Hartree=   0.00000000E+00     xc=   0.00000000E+00
 7,8,9: eventually, occupation + non-local contributions
    edocc=   2.52105292E+00     enl0=   8.94958583E-01   enl1=  -1.66789325E+01
 1-9 gives the relaxation energy (to be shifted if some occ is /=2.0)
   erelax=  -2.38244968E+01
  No Ewald or frozen-wf contrib.: the relaxation energy is the total one
 2DEtotal=   -0.2382449683E+02 Ha. Also 2DEtotal=   -0.648297528477E+03 eV
    (  non-var. 2DEtotal :   -2.3824496828E+01 Ha)

 CALCULATION OF EFFECTIVE MASSES
 NOTE : Additional infos (eff. mass eigenvalues, eigenvectors and, if degenerate, average mass) are available in stdout.

 COMMENTS:
 - At k-point ( 0.000, 0.000, 0.000), bands    51 through    52
   are DEGENERATE (effective mass tensor is therefore not defined).
   See Section IIIB Eqs. (67)-(70) and Appendix E of PRB 93 205147 (2016).
 - Angular average effective mass for Frohlich model is to be averaged over degenerate bands. See later.
 - Associated theta integrals calculated with ntheta=   1000 points.

 K-point ( 0.000, 0.000, 0.000) | band =    51
 Transport equivalent effective mass tensor:
             -0.2992103816              0.0000001462             -0.0000014234
              0.0000001462             -0.2992102386             -0.0000012176
             -0.0000014234             -0.0000012176            -14.0132086247
 Transport equivalent effective mass tensor eigenvalues:
            -14.0132086247             -0.2992104729             -0.2992101473
 Angular average effective mass 1/(<1/m>)=  -0.3886820933
 Angular average effective mass for Frohlich model (<m**0.5>)**2=  -0.5476803088
 Effective masses along directions: (cart. coord. / red. coord. -> eff. mass)
    1:   1.000000  0.000000  0.000000 /   1.000000  0.000000  0.000000 ->  -0.2219286913
    2:   0.000000  1.000000  0.000000 /   0.000000  1.000000  0.000000 ->  -0.2219286914
    3:   0.000000  0.000000  1.000000 /   0.000000  0.000000  1.000000 -> -11.2796467825
    4:   0.577350  0.577350  0.577350 /   0.385901  0.385901  0.837951 ->  -0.5228649110
    5:   0.000000  0.707107  0.707107 /   0.000000  0.418302  0.908308 ->  -0.4352929702
    6:   0.707107  0.000000  0.707107 /   0.418302  0.000000  0.908308 ->  -0.4352930168
    7:   0.707107  0.707107  0.000000 /   0.707107  0.707107  0.000000 ->  -0.3540469102

 K-point ( 0.000, 0.000, 0.000) | band =    52
 Transport equivalent effective mass tensor:
             -2.9642728475              0.0000006148             -0.0000213408
              0.0000006148             -2.9642836748              0.0000022405
             -0.0000213408              0.0000022405            -61.0977694231
 Transport equivalent effective mass tensor eigenvalues:
            -61.0977694231             -2.9642837096             -2.9642728127
 Angular average effective mass 1/(<1/m>)=  -1.3417337825
 Angular average effective mass for Frohlich model (<m**0.5>)**2=  -1.9859963416
 Effective masses along directions: (cart. coord. / red. coord. -> eff. mass)
    1:   1.000000  0.000000  0.000000 /   1.000000  0.000000  0.000000 ->  -2.6140734173
    2:   0.000000  1.000000  0.000000 /   0.000000  1.000000  0.000000 ->  -2.6140734169
    3:   0.000000  0.000000  1.000000 /   0.000000  0.000000  1.000000 -> -11.2797297062
    4:   0.577350  0.577350  0.577350 /   0.385901  0.385901  0.837951 ->  -0.7114601531
    5:   0.000000  0.707107  0.707107 /   0.000000  0.418302  0.908308 ->  -4.2444888864
    6:   0.707107  0.000000  0.707107 /   0.418302  0.000000  0.908308 ->  -4.2445033683
    7:   0.707107  0.707107  0.000000 /   0.707107  0.707107  0.000000 ->  -0.4844932798

 Angular average effective mass for Frohlich model, averaged over degenerate bands.
 Value of     (<<m**0.5>>)**2 =     1.154881E+00
 Absolute Value of <<m**0.5>> =     1.074654E+00

 K-point ( 0.000, 0.000, 0.000) | band =    53
 Effective mass tensor:
              0.2098275048             -0.0000000000             -0.0000000000
             -0.0000000000              0.2098275048              0.0000000000
             -0.0000000000              0.0000000000              0.3423102308
 Effective mass tensor eigenvalues:
              0.2098275048              0.2098275048              0.3423102308
 Angular average effective mass 1/(<1/m>)=   0.2409064729
 Angular average effective mass for Frohlich model (<m**0.5>)**2=   0.2444199808
 Effective masses along directions: (cart. coord. / red. coord. -> eff. mass)
    1:   1.000000  0.000000  0.000000 /   1.000000  0.000000  0.000000 ->   0.2098275048
    2:   0.000000  1.000000  0.000000 /   0.000000  1.000000  0.000000 ->   0.2098275048
    3:   0.000000  0.000000  1.000000 /   0.000000  0.000000  1.000000 ->   0.3423102308
    4:   0.577350  0.577350  0.577350 /   0.385901  0.385901  0.837951 ->   0.2409064729
    5:   0.000000  0.707107  0.707107 /   0.000000  0.418302  0.908308 ->   0.2601745795
    6:   0.707107  0.000000  0.707107 /   0.418302  0.000000  0.908308 ->   0.2601745795
    7:   0.707107  0.707107  0.000000 /   0.707107  0.707107  0.000000 ->   0.2098275048

 END OF EFFECTIVE MASSES SECTION

 ---- first-order wavefunction calculations are completed ----

 Total localisation tensor (bohr^2) in cartesian coordinates
  WARNING : still subject to testing - especially symmetries.
      direction              matrix element
   alpha     beta       real part   imaginary part
     1        1       1.5034918094    0.0000000000
     1        2       0.0000000000    0.0000000000
     1        3       0.0000000000    0.0000000000
     2        1       0.0000000000    0.0000000000
     2        2       1.5034918191    0.0000000000
     2        3       0.0000000000    0.0000000000
     3        1       0.0000000000    0.0000000000
     3        2       0.0000000000    0.0000000000
     3        3       0.7488759361    0.0000000000

 respfn : d/dk was computed, but no 2DTE, so no DDB output.

== END DATASET(S) ==============================================================

 -outvars: echo values of variables after computation  --------
            acell      1.0000000000E+00  1.0000000000E+00  1.0000000000E+00 Bohr
              amu      8.76200000E+01  6.35460000E+01  7.89600000E+01
                       1.89984032E+01
             ecut      4.60000000E+01 Hartree
           etotal     -2.3824496829E+01
            fcart      0.0000000000E+00  0.0000000000E+00  0.0000000000E+00
                       0.0000000000E+00  0.0000000000E+00  0.0000000000E+00
                       0.0000000000E+00  0.0000000000E+00  0.0000000000E+00
                       0.0000000000E+00  0.0000000000E+00  0.0000000000E+00
                       0.0000000000E+00  0.0000000000E+00  0.0000000000E+00
                       0.0000000000E+00  0.0000000000E+00  0.0000000000E+00
                       0.0000000000E+00  0.0000000000E+00  0.0000000000E+00
                       0.0000000000E+00  0.0000000000E+00  0.0000000000E+00
-          fftalg         512
           irdden           1
           irdwfk           1
           istwfk        1
              ixc     -116133
           kptopt           0
P           mkmem           1
P          mkqmem           1
P          mk1mem           1
            natom           8
            nband          61
           nbdbuf           4
            ngfft          48      48     108
             nkpt           1
            nstep        2000
             nsym          16
           ntypat           4
              occ      2.000000  2.000000  2.000000  2.000000  2.000000  2.000000
                       2.000000  2.000000  2.000000  2.000000  2.000000  2.000000
                       2.000000  2.000000  2.000000  2.000000  2.000000  2.000000
                       2.000000  2.000000  2.000000  2.000000  2.000000  2.000000
                       2.000000  2.000000  2.000000  2.000000  2.000000  2.000000
                       2.000000  2.000000  2.000000  2.000000  2.000000  2.000000
                       2.000000  2.000000  2.000000  2.000000  2.000000  2.000000
                       2.000000  2.000000  2.000000  2.000000  2.000000  2.000000
                       2.000000  2.000000  2.000000  2.000000  0.000000  0.000000
                       0.000000  0.000000  0.000000  0.000000  0.000000  0.000000
                       0.000000
        optdriver           1
            prtwf          -1
            rfdir           1       1       1
           rfelfd           2
            rprim      7.5827036904E+00  0.0000000000E+00  0.0000000000E+00
                       0.0000000000E+00  7.5827036904E+00  0.0000000000E+00
                       0.0000000000E+00  0.0000000000E+00  1.6465196007E+01
          spgroup         129
           strten      0.0000000000E+00  0.0000000000E+00  0.0000000000E+00
                       0.0000000000E+00  0.0000000000E+00  0.0000000000E+00
           symrel      1  0  0   0  1  0   0  0  1      -1  0  0   0 -1  0   0  0 -1
                      -1  0  0   0  1  0   0  0 -1       1  0  0   0 -1  0   0  0  1
                      -1  0  0   0 -1  0   0  0  1       1  0  0   0  1  0   0  0 -1
                       1  0  0   0 -1  0   0  0 -1      -1  0  0   0  1  0   0  0  1
                       0  1  0   1  0  0   0  0  1       0 -1  0  -1  0  0   0  0 -1
                       0 -1  0   1  0  0   0  0 -1       0  1  0  -1  0  0   0  0  1
                       0 -1  0  -1  0  0   0  0  1       0  1  0   1  0  0   0  0 -1
                       0  1  0  -1  0  0   0  0 -1       0 -1  0   1  0  0   0  0  1
            tnons      0.0000000  0.0000000  0.0000000     0.5000000  0.5000000  0.0000000
                       0.5000000  0.5000000  0.0000000     0.0000000 -0.0000000  0.0000000
                       0.0000000 -0.0000000  0.0000000     0.5000000  0.5000000  0.0000000
                       0.5000000  0.5000000  0.0000000     0.0000000  0.0000000  0.0000000
                       0.5000000  0.5000000  0.0000000    -0.0000000  0.0000000  0.0000000
                       0.0000000  0.0000000  0.0000000     0.5000000  0.5000000  0.0000000
                       0.5000000  0.5000000  0.0000000     0.0000000  0.0000000  0.0000000
                      -0.0000000  0.0000000  0.0000000     0.5000000  0.5000000  0.0000000
           tolwfr      1.00000000E-20
            typat      1  1  2  2  3  3  4  4
           useylm           1
           xangst      0.0000000000E+00  2.0062969862E+00  5.7714606284E+00
                       2.0062969862E+00  0.0000000000E+00  2.9415458336E+00
                       2.0062969862E+00  2.0062969862E+00  0.0000000000E+00
                       0.0000000000E+00  0.0000000000E+00  0.0000000000E+00
                       2.0062969862E+00  0.0000000000E+00  7.2443769447E+00
                       0.0000000000E+00  2.0062969862E+00  1.4686295172E+00
                       0.0000000000E+00  0.0000000000E+00  4.3565032310E+00
                       2.0062969862E+00  2.0062969862E+00  4.3565032310E+00
            xcart      0.0000000000E+00  3.7913518452E+00  1.0906479974E+01
                       3.7913518452E+00  0.0000000000E+00  5.5587160328E+00
                       3.7913518452E+00  3.7913518452E+00  0.0000000000E+00
                       0.0000000000E+00  0.0000000000E+00  0.0000000000E+00
                       3.7913518452E+00  0.0000000000E+00  1.3689888429E+01
                       0.0000000000E+00  3.7913518452E+00  2.7753075782E+00
                       0.0000000000E+00  0.0000000000E+00  8.2325980035E+00
                       3.7913518452E+00  3.7913518452E+00  8.2325980035E+00
             xred      0.0000000000E+00  5.0000000000E-01  6.6239600000E-01
                       5.0000000000E-01  0.0000000000E+00  3.3760400000E-01
                       5.0000000000E-01  5.0000000000E-01  0.0000000000E+00
                       0.0000000000E+00  0.0000000000E+00  0.0000000000E+00
                       5.0000000000E-01  0.0000000000E+00  8.3144400000E-01
                       0.0000000000E+00  5.0000000000E-01  1.6855600000E-01
                       0.0000000000E+00  0.0000000000E+00  5.0000000000E-01
                       5.0000000000E-01  5.0000000000E-01  5.0000000000E-01
            znucl       38.00000   29.00000   34.00000    9.00000

- Timing analysis has been suppressed with timopt=0

 Suggested references for the acknowledgment of ABINIT usage.

 Calculation completed.
.Delivered   6 WARNINGs and   5 COMMENTs to log file.