.Version 9.5.1 of ABINIT

 ABINIT is a project of the Universite Catholique de Louvain,
 Corning Inc. and other collaborators, see ~abinit/doc/developers/contributors.txt .
 acknowledgments of the ABINIT effort.

.Starting date : Tue 11 May 2021.
- ( at 21h10 )

- input  file    -> /scratch/users/j/a/jabreu/flow_simple_8atoms/flow/w258/t1/run.abi
- output file    -> /scratch/users/j/a/jabreu/flow_simple_8atoms/flow/w258/t1/run.abo
- root for input  files -> /scratch/users/j/a/jabreu/flow_simple_8atoms/flow/w258/t1/indata/in
- root for output files -> /scratch/users/j/a/jabreu/flow_simple_8atoms/flow/w258/t1/outdata/out

 Symmetries : space group R-3 (#148); Bravais hR (rhombohedral)
     intxc =       0      iscf =       7    lmnmax =      18     lnmax =       6
     mgfft =      72  mpssoang =       3    mqgrid =    3001     natom =       8
  nloc_mem =       1    nspden =       1   nspinor =       1    nsppol =       1
      nsym =       6    n1xccc =    2501    ntypat =       3    occopt =       1
   xclevel =       2
-    mband =          42        mffmem =           1         mkmem =           2
-   mkqmem =           2        mk1mem =           2           mpw =       13125
      nfft =      373248          nkpt =           2
  Rough estimation (10% accuracy) of disk space for files :

------------- Echo of variables that govern the present computation ------------
-
- outvars: echo of selected default values
-   iomode0 =  0 , fftalg0 =512 , wfoptalg0 =  0
-
- outvars: echo of global parameters not present in the input file
-  max_nthreads =    0
-
 -outvars: echo values of preprocessed input variables --------
            acell      1.0000000000E+00  1.0000000000E+00  1.0000000000E+00 Bohr
              amu      2.29897680E+01  2.08980370E+02  1.89984032E+01
             ecut      4.40000000E+01 Hartree
-          fftalg         512
           irdden           1
           irdwfk           1
           istwfk        0    1
              ixc     -116133
              kpt      9.52380952E-02 -6.93889390E-18 -6.93889390E-18
                       0.00000000E+00  0.00000000E+00  0.00000000E+00
           kptopt           0
P           mkmem           2
P          mkqmem           2
P          mk1mem           2
            natom           8
            nband          42
           nbdbuf           4
            ngfft          72      72      72
             nkpt           2
            nstep        2000
             nsym           6
           ntypat           3
              occ      2.000000  2.000000  2.000000  2.000000  2.000000  2.000000
                       2.000000  2.000000  2.000000  2.000000  2.000000  2.000000
                       2.000000  2.000000  2.000000  2.000000  2.000000  2.000000
                       2.000000  2.000000  2.000000  2.000000  2.000000  2.000000
                       2.000000  2.000000  2.000000  2.000000  2.000000  2.000000
                       2.000000  2.000000  2.000000  0.000000  0.000000  0.000000
                       0.000000  0.000000  0.000000  0.000000  0.000000  0.000000
        optdriver           1
            prtwf          -1
            rfdir           1       1       1
           rfelfd           2
            rprim      9.4334144087E+00  0.0000000000E+00  6.3562979603E+00
                       3.3816708517E+00  8.8064527283E+00  6.3562979603E+00
                       0.0000000000E+00  0.0000000000E+00  1.1375053018E+01
          spgroup         148
           symrel      1  0  0   0  1  0   0  0  1      -1  0  0   0 -1  0   0  0 -1
                       0  0  1   1  0  0   0  1  0       0  0 -1  -1  0  0   0 -1  0
                       0  1  0   0  0  1   1  0  0       0 -1  0   0  0 -1  -1  0  0
           tolwfr      1.00000000E-20
            typat      1  2  3  3  3  3  3  3
           useylm           1
              wtk        0.50000    0.50000
           xangst      3.3907255230E+00  2.3300870362E+00  6.3733174134E+00
                       0.0000000000E+00  0.0000000000E+00  0.0000000000E+00
                       3.1035294790E+00  3.5792094149E+00  4.4506413151E+00
                       1.2021556188E+00  1.6141957554E+00  6.1806178744E+00
                       4.0427694043E+00  5.4360464536E-01  5.0607660400E+00
                       3.6779215670E+00  1.0809646575E+00  8.2959935117E+00
                       5.5792954271E+00  3.0459783170E+00  6.5660169524E+00
                       2.7386816417E+00  4.1165694270E+00  7.6858687869E+00
            xcart      6.4075426302E+00  4.4032263642E+00  1.2043824469E+01
                       0.0000000000E+00  0.0000000000E+00  0.0000000000E+00
                       5.8648207606E+00  6.7637255663E+00  8.4104932013E+00
                       2.2717448886E+00  3.0503879025E+00  1.1679675115E+01
                       7.6397269925E+00  1.0272639043E+00  9.5634618383E+00
                       6.9502644998E+00  2.0427271620E+00  1.5677155737E+01
                       1.0543340372E+01  5.7560648258E+00  1.2407973824E+01
                       5.1753582679E+00  7.7791888240E+00  1.4524187100E+01
             xred      5.0000000000E-01  5.0000000000E-01  5.0000000000E-01
                       0.0000000000E+00  0.0000000000E+00  0.0000000000E+00
                       3.4638100000E-01  7.6804200000E-01  1.1664900000E-01
                       1.1664900000E-01  3.4638100000E-01  7.6804200000E-01
                       7.6804200000E-01  1.1664900000E-01  3.4638100000E-01
                       6.5361900000E-01  2.3195800000E-01  8.8335100000E-01
                       8.8335100000E-01  6.5361900000E-01  2.3195800000E-01
                       2.3195800000E-01  8.8335100000E-01  6.5361900000E-01
            znucl       11.00000   83.00000    9.00000

 chkinp: Checking input parameters for consistency.

== DATASET  1 ==================================================================
-   mpi_nproc: 1, omp_nthreads: -1 (-1 if OMP is not activated)

--- !DatasetInfo
iteration_state: {dtset: 1, }
dimensions: {natom: 8, nkpt: 2, mband: 42, nsppol: 1, nspinor: 1, nspden: 1, mpw: 13125, }
cutoff_energies: {ecut:  44.0, pawecutdg:  -1.0, }
electrons: {nelect:   6.60000000E+01, charge:   0.00000000E+00, occopt:   1.00000000E+00, tsmear:   1.00000000E-02, }
meta: {optdriver: 1, rfelfd: 2, }
...

 Real(R)+Recip(G) space primitive vectors, cartesian coordinates (Bohr,Bohr^-1):
 R(1)=  9.4334144  0.0000000  6.3562980  G(1)=  0.1060062 -0.0407063  0.0000000
 R(2)=  3.3816709  8.8064527  6.3562980  G(2)=  0.0000000  0.1135531  0.0000000
 R(3)=  0.0000000  0.0000000 11.3750530  G(3)= -0.0592355 -0.0407063  0.0879117
 Unit cell volume ucvol=  9.4498160E+02 bohr^3
 Angles (23,13,12)=  5.60276457E+01  5.60276457E+01  5.60276457E+01 degrees

 getcut: wavevector=  0.0000  0.0000  0.0000  ngfft=  72  72  72
         ecut(hartree)=     44.000   => boxcut(ratio)=   2.11979

--- Pseudopotential description ------------------------------------------------
- pspini: atom type   1  psp file is /scratch/users/j/a/jabreu/pseudos/PBEsol/Na.psp8
- pspatm: opening atomic psp file    /scratch/users/j/a/jabreu/pseudos/PBEsol/Na.psp8
- Na    ONCVPSP-3.3.0  r_core=   1.20708   1.55069
- 11.00000   9.00000    180112                znucl, zion, pspdat
    8 -116133    1    4       400   0.00000   pspcod,pspxc,lmax,lloc,mmax,r2well
    3.99000000000000    0.00000000000000    0.00000000000000   rchrg,fchrg,qchrg
     nproj     2     2
     extension_switch     1
  pspatm : epsatm=    9.32878306
         --- l  ekb(1:nproj) -->
             0    2.657905   -0.678300
             1   -6.761319   -2.404728
 pspatm: atomic psp has been read  and splines computed

- pspini: atom type   2  psp file is /scratch/users/j/a/jabreu/pseudos/PBEsol/Bi.psp8
- pspatm: opening atomic psp file    /scratch/users/j/a/jabreu/pseudos/PBEsol/Bi.psp8
- Bi    ONCVPSP-3.3.0  r_core=   2.42776   2.51622   2.10397
- 83.00000  15.00000    180112                znucl, zion, pspdat
    8 -116133    2    4       600   0.00000   pspcod,pspxc,lmax,lloc,mmax,r2well
    5.99000000000000    6.00000000000000    0.00000000000000   rchrg,fchrg,qchrg
     nproj     2     2     2
     extension_switch     1
  pspatm : epsatm=   42.90078186
         --- l  ekb(1:nproj) -->
             0    6.017688    0.961606
             1    4.379371    0.528498
             2   -3.458170   -0.753782
 pspatm: atomic psp has been read  and splines computed

- pspini: atom type   3  psp file is /scratch/users/j/a/jabreu/pseudos/PBEsol/F.psp8
- pspatm: opening atomic psp file    /scratch/users/j/a/jabreu/pseudos/PBEsol/F.psp8
- F     ONCVPSP-3.3.0  r_core=   1.30942   1.45782   1.60379
-  9.00000   7.00000    180112                znucl, zion, pspdat
    8 -116133    2    4       600   0.00000   pspcod,pspxc,lmax,lloc,mmax,r2well
    5.99000000000000    2.50000000000000    0.00000000000000   rchrg,fchrg,qchrg
     nproj     2     2     1
     extension_switch     1
  pspatm : epsatm=    4.89824824
         --- l  ekb(1:nproj) -->
             0    6.506434    1.065875
             1   -3.978753   -1.295852
             2   -2.394754
 pspatm: atomic psp has been read  and splines computed

   5.38685759E+03                                ecore*ucvol(ha*bohr**3)

-inwffil : will read wavefunctions from disk file /scratch/users/j/a/jabreu/flow_simple_8atoms/flow/w258/t1/indata/in_WFK

 ==>  initialize data related to q vector <==

 The list of irreducible perturbations for this q vector is:
    1)    idir= 1    ipert=   9
    2)    idir= 2    ipert=   9
    3)    idir= 3    ipert=   9

 Perturbation wavevector (in red.coord.)   0.000000  0.000000  0.000000
 Perturbation : derivative vs k along direction   1

 dfpt_looppert : COMMENT -
  In a d/dk calculation, iscf is set to -3 automatically.
 The set of symmetries contains only one element for this perturbation.
 symkpt : not enough symmetry to change the number of k points.

[...]

 Initialisation of the first-order wave-functions :
  ireadwf=   0

--- !BeginCycle
iteration_state: {dtset: 1, }
solver: {iscf: 7, nstep: 2000, nline: 4, wfoptalg: 0, }
tolerances: {tolwfr: 1.00E-20, }
...

     iter   2DEtotal(Ha)        deltaE(Ha) residm    vres2
-ETOT  1  -45.800574467021     -4.580E+01 2.659E-02 0.000E+00
 ETOT  2  -45.829985570369     -2.941E-02 4.262E-04 0.000E+00
 ETOT  3  -45.830022565028     -3.699E-05 7.391E-06 0.000E+00
 ETOT  4  -45.830022668784     -1.038E-07 2.977E-07 0.000E+00
 ETOT  5  -45.830022669168     -3.841E-10 9.169E-09 0.000E+00
 ETOT  6  -45.830022669169     -1.634E-12 4.166E-10 0.000E+00
 ETOT  7  -45.830022669169     -3.553E-14 1.422E-11 0.000E+00
 ETOT  8  -45.830022669169      4.263E-14 7.109E-13 0.000E+00
 ETOT  9  -45.830022669169     -7.105E-15 2.536E-14 0.000E+00
 ETOT 10  -45.830022669169      0.000E+00 1.335E-15 0.000E+00
 ETOT 11  -45.830022669169      0.000E+00 4.892E-17 0.000E+00
 ETOT 12  -45.830022669169      0.000E+00 2.639E-18 0.000E+00
 ETOT 13  -45.830022669169     -7.105E-15 9.848E-20 0.000E+00
 ETOT 14  -45.830022669169      0.000E+00 9.594E-21 0.000E+00

 At SCF step   14   max residual=  9.59E-21 < tolwfr=  1.00E-20 =>converged.

 ----iterations are completed or convergence reached----

 dfpt_looppert: DFPT cycle converged with prtwf=-1. Will skip output of the 1st-order WFK file.
 dfpt_looppert : ek2=    6.7194178928E+01
          f-sum rule ratio=    1.0175370769E+00
 prteigrs : about to open file /scratch/users/j/a/jabreu/flow_simple_8atoms/flow/w258/t1/tmpdata/tmp_1WF1_EIG
 Expectation of eigenvalue derivatives (hartree) for nkpt=   2  k points:
  (in case of degenerate eigenvalues, averaged derivative)
 kpt#   1, nband= 42, wtk=  0.50000, kpt=  0.0952  0.0000  0.0000 (reduced coord)
   0.00000   -0.00067   -0.00036    0.00198   -0.00000    0.00002    0.00003    0.00369
  -0.00039    0.00329   -0.01367   -0.01298   -0.00316    0.01022    0.01106    0.00435
  -0.00596    0.00900    0.00050    0.01211   -0.00428    0.01398   -0.01302   -0.00706
   0.01068   -0.02143   -0.00734   -0.00459   -0.01959   -0.00275    0.01730   -0.00222
   0.00007    0.03236   -0.07434    0.02863   -0.00993    0.09695   -0.07511    0.01761
  -0.04727   -0.00661
 prteigrs : prtvol=0 or 1, do not print more k-points.

 Eight components of 2nd-order total energy (hartree) are
 1,2,3: 0th-order hamiltonian combined with 1st-order wavefunctions
     kin0=   5.69817788E+01 eigvalue=   7.67196050E+00  local=  -2.63342413E+01
 4,5,6: 1st-order hamiltonian combined with 1st and 0th-order wfs
     kin1=  -6.83725684E+01  Hartree=   0.00000000E+00     xc=   0.00000000E+00
 7,8,9: eventually, occupation + non-local contributions
    edocc=   5.27190992E+00     enl0=   2.23861472E+00   enl1=  -2.32874769E+01
 1-9 gives the relaxation energy (to be shifted if some occ is /=2.0)
   erelax=  -4.58300227E+01
  No Ewald or frozen-wf contrib.: the relaxation energy is the total one
 2DEtotal=   -0.4583002267E+02 Ha. Also 2DEtotal=   -0.124709833916E+04 eV
    (  non-var. 2DEtotal :   -4.5830022669E+01 Ha)

 Perturbation wavevector (in red.coord.)   0.000000  0.000000  0.000000
 Perturbation : derivative vs k along direction   2
 The set of symmetries contains only one element for this perturbation.
 symkpt : not enough symmetry to change the number of k points.

[...]

 Perturbation wavevector (in red.coord.)   0.000000  0.000000  0.000000
 Perturbation : derivative vs k along direction   3
 The set of symmetries contains only one element for this perturbation.
 symkpt : not enough symmetry to change the number of k points.

-inwffil : will read wavefunctions from disk file /scratch/users/j/a/jabreu/flow_simple_8atoms/flow/w258/t1/indata/in_WFK

 Initialisation of the first-order wave-functions :
  ireadwf=   0

--- !BeginCycle
iteration_state: {dtset: 1, }
solver: {iscf: 7, nstep: 2000, nline: 4, wfoptalg: 0, }
tolerances: {tolwfr: 1.00E-20, }
...

     iter   2DEtotal(Ha)        deltaE(Ha) residm    vres2
-ETOT  1  -45.842112436326     -4.584E+01 2.703E-02 0.000E+00
 ETOT  2  -45.869645232438     -2.753E-02 6.527E-04 0.000E+00
 ETOT  3  -45.869680113125     -3.488E-05 1.077E-05 0.000E+00
 ETOT  4  -45.869680213073     -9.995E-08 4.462E-07 0.000E+00
 ETOT  5  -45.869680213464     -3.901E-10 1.194E-08 0.000E+00
 ETOT  6  -45.869680213465     -1.819E-12 5.294E-10 0.000E+00
 ETOT  7  -45.869680213465      7.105E-15 1.402E-11 0.000E+00
 ETOT  8  -45.869680213465     -1.421E-14 6.832E-13 0.000E+00
 ETOT  9  -45.869680213465      7.105E-15 1.729E-14 0.000E+00
 ETOT 10  -45.869680213465      7.105E-15 9.127E-16 0.000E+00
 ETOT 11  -45.869680213465      7.105E-15 2.208E-17 0.000E+00
 ETOT 12  -45.869680213465     -1.421E-14 1.240E-18 0.000E+00
 ETOT 13  -45.869680213465      7.105E-15 2.892E-20 0.000E+00
 ETOT 14  -45.869680213465     -7.105E-15 9.922E-21 0.000E+00

 At SCF step   14   max residual=  9.92E-21 < tolwfr=  1.00E-20 =>converged.

 ----iterations are completed or convergence reached----

 dfpt_looppert: DFPT cycle converged with prtwf=-1. Will skip output of the 1st-order WFK file.
 dfpt_looppert : ek2=    6.7194178928E+01
          f-sum rule ratio=    1.0190810504E+00
 prteigrs : about to open file /scratch/users/j/a/jabreu/flow_simple_8atoms/flow/w258/t1/tmpdata/tmp_1WF1_EIG
 Expectation of eigenvalue derivatives (hartree) for nkpt=   2  k points:
  (in case of degenerate eigenvalues, averaged derivative)
 kpt#   1, nband= 42, wtk=  0.50000, kpt=  0.0952  0.0000  0.0000 (reduced coord)
  -0.00000    0.00065   -0.00028   -0.00083    0.00000   -0.00001   -0.00002   -0.00144
  -0.00011   -0.00057   -0.00016    0.01104   -0.00076   -0.00549   -0.00169   -0.00121
   0.00223   -0.00219   -0.00090   -0.00533    0.00550   -0.00784   -0.00113    0.00881
  -0.00549    0.01055    0.00151   -0.00136    0.00642    0.00437   -0.00874    0.00093
  -0.00030   -0.01097    0.02228    0.00004    0.00432   -0.04299    0.02738    0.00026
  -0.00670    0.02799
 prteigrs : prtvol=0 or 1, do not print more k-points.

 Eight components of 2nd-order total energy (hartree) are
 1,2,3: 0th-order hamiltonian combined with 1st-order wavefunctions
     kin0=   5.68881849E+01 eigvalue=   7.65276246E+00  local=  -2.62790720E+01
 4,5,6: 1st-order hamiltonian combined with 1st and 0th-order wfs
     kin1=  -6.84763144E+01  Hartree=   0.00000000E+00     xc=   0.00000000E+00
 7,8,9: eventually, occupation + non-local contributions
    edocc=   5.36057203E+00     enl0=   2.24723281E+00   enl1=  -2.32630460E+01
 1-9 gives the relaxation energy (to be shifted if some occ is /=2.0)
   erelax=  -4.58696802E+01
  No Ewald or frozen-wf contrib.: the relaxation energy is the total one
 2DEtotal=   -0.4586968021E+02 Ha. Also 2DEtotal=   -0.124817747582E+04 eV
    (  non-var. 2DEtotal :   -4.5869680213E+01 Ha)

 CALCULATION OF EFFECTIVE MASSES
 NOTE : Additional infos (eff. mass eigenvalues, eigenvectors and, if degenerate, average mass) are available in stdout.

 K-point ( 0.095,-0.000,-0.000) | band =    33
 Effective mass tensor:
           -320.8290165058            -99.5986586890            -21.2465006752
            -99.5986586890            -69.4047910197            -12.0784669702
            -21.2465006752            -12.0784669702            -20.3617531571
 Effective mass tensor eigenvalues:
           -357.2175926786            -35.8613207514            -17.5166472526
 Angular average effective mass 1/(<1/m>)= -34.1790125665
 Angular average effective mass for Frohlich model (<m**0.5>)**2= -44.9527053162
 Effective masses along directions: (cart. coord. / red. coord. -> eff. mass)
    1:   1.000000  0.000000  0.000000 /   0.941343  0.337451  0.000000 -> **************
    2:   0.000000  1.000000  0.000000 /   0.000000  1.000000  0.000000 -> -36.8993619809
    3:   0.000000  0.000000  1.000000 /   0.438421  0.438421  0.784586 -> -18.1736597915
    4:   0.577350  0.577350  0.577350 /   0.587387  0.689864  0.423159 -> -55.6727169113
    5:   0.000000  0.707107  0.707107 /   0.317933  0.758419  0.568964 -> -30.0989003273
    6:   0.707107  0.000000  0.707107 /   0.725602  0.447499  0.522730 -> -34.3338290236
    7:   0.707107  0.707107  0.000000 /   0.612070  0.790804  0.000000 -> **************

 K-point ( 0.000, 0.000, 0.000) | band =    34
 Effective mass tensor:
              1.3689687965             -0.0254070037             -0.0694938337
             -0.0254070037              1.3884813744             -0.0477557903
             -0.0694938337             -0.0477557903              1.2753179563
 Effective mass tensor eigenvalues:
              1.2208863852              1.4059408243              1.4059409176
 Angular average effective mass 1/(<1/m>)=   1.3383226205
 Angular average effective mass for Frohlich model (<m**0.5>)**2=   1.3401432145
 Effective masses along directions: (cart. coord. / red. coord. -> eff. mass)
    1:   1.000000  0.000000  0.000000 /   0.941343  0.337451  0.000000 ->   1.3646162329
    2:   0.000000  1.000000  0.000000 /   0.000000  1.000000  0.000000 ->   1.3861184391
    3:   0.000000  0.000000  1.000000 /   0.438421  0.438421  0.784586 ->   1.2700571648
    4:   0.577350  0.577350  0.577350 /   0.587387  0.689864  0.423159 ->   1.2459348396
    5:   0.000000  0.707107  0.707107 /   0.317933  0.758419  0.568964 ->   1.2784056837
    6:   0.707107  0.000000  0.707107 /   0.725602  0.447499  0.522730 ->   1.2491063204
    7:   0.707107  0.707107  0.000000 /   0.612070  0.790804  0.000000 ->   1.3478458617

 END OF EFFECTIVE MASSES SECTION

 ---- first-order wavefunction calculations are completed ----

 Total localisation tensor (bohr^2) in cartesian coordinates
  WARNING : still subject to testing - especially symmetries.
      direction              matrix element
   alpha     beta       real part   imaginary part
     1        1       0.6779864770    0.0000000000
     1        2       0.2022197646    0.0000000000
     1        3       0.5504668890    0.0000000000
     2        1       0.2022197646    0.0000000000
     2        2       0.5266150596    0.0000000000
     2        3       0.3800988131    0.0000000000
     3        1       0.5504668890    0.0000000000
     3        2       0.3800988131    0.0000000000
     3        3       1.4256531428    0.0000000000

 respfn : d/dk was computed, but no 2DTE, so no DDB output.

== END DATASET(S) ==============================================================

 -outvars: echo values of variables after computation  --------
            acell      1.0000000000E+00  1.0000000000E+00  1.0000000000E+00 Bohr
              amu      2.29897680E+01  2.08980370E+02  1.89984032E+01
             ecut      4.40000000E+01 Hartree
           etotal     -4.5869680213E+01
            fcart      0.0000000000E+00  0.0000000000E+00  0.0000000000E+00
                       0.0000000000E+00  0.0000000000E+00  0.0000000000E+00
                       0.0000000000E+00  0.0000000000E+00  0.0000000000E+00
                       0.0000000000E+00  0.0000000000E+00  0.0000000000E+00
                       0.0000000000E+00  0.0000000000E+00  0.0000000000E+00
                       0.0000000000E+00  0.0000000000E+00  0.0000000000E+00
                       0.0000000000E+00  0.0000000000E+00  0.0000000000E+00
                       0.0000000000E+00  0.0000000000E+00  0.0000000000E+00
-          fftalg         512
           irdden           1
           irdwfk           1
           istwfk        0    1
              ixc     -116133
              kpt      9.52380952E-02 -6.93889390E-18 -6.93889390E-18
                       0.00000000E+00  0.00000000E+00  0.00000000E+00
           kptopt           0
P           mkmem           2
P          mkqmem           2
P          mk1mem           2
            natom           8
            nband          42
           nbdbuf           4
            ngfft          72      72      72
             nkpt           2
            nstep        2000
             nsym           6
           ntypat           3
              occ      2.000000  2.000000  2.000000  2.000000  2.000000  2.000000
                       2.000000  2.000000  2.000000  2.000000  2.000000  2.000000
                       2.000000  2.000000  2.000000  2.000000  2.000000  2.000000
                       2.000000  2.000000  2.000000  2.000000  2.000000  2.000000
                       2.000000  2.000000  2.000000  2.000000  2.000000  2.000000
                       2.000000  2.000000  2.000000  0.000000  0.000000  0.000000
                       0.000000  0.000000  0.000000  0.000000  0.000000  0.000000
        optdriver           1
            prtwf          -1
            rfdir           1       1       1
           rfelfd           2
            rprim      9.4334144087E+00  0.0000000000E+00  6.3562979603E+00
                       3.3816708517E+00  8.8064527283E+00  6.3562979603E+00
                       0.0000000000E+00  0.0000000000E+00  1.1375053018E+01
          spgroup         148
           strten      0.0000000000E+00  0.0000000000E+00  0.0000000000E+00
                       0.0000000000E+00  0.0000000000E+00  0.0000000000E+00
           symrel      1  0  0   0  1  0   0  0  1      -1  0  0   0 -1  0   0  0 -1
                       0  0  1   1  0  0   0  1  0       0  0 -1  -1  0  0   0 -1  0
                       0  1  0   0  0  1   1  0  0       0 -1  0   0  0 -1  -1  0  0
           tolwfr      1.00000000E-20
            typat      1  2  3  3  3  3  3  3
           useylm           1
              wtk        0.50000    0.50000
           xangst      3.3907255230E+00  2.3300870362E+00  6.3733174134E+00
                       0.0000000000E+00  0.0000000000E+00  0.0000000000E+00
                       3.1035294790E+00  3.5792094149E+00  4.4506413151E+00
                       1.2021556188E+00  1.6141957554E+00  6.1806178744E+00
                       4.0427694043E+00  5.4360464536E-01  5.0607660400E+00
                       3.6779215670E+00  1.0809646575E+00  8.2959935117E+00
                       5.5792954271E+00  3.0459783170E+00  6.5660169524E+00
                       2.7386816417E+00  4.1165694270E+00  7.6858687869E+00
            xcart      6.4075426302E+00  4.4032263642E+00  1.2043824469E+01
                       0.0000000000E+00  0.0000000000E+00  0.0000000000E+00
                       5.8648207606E+00  6.7637255663E+00  8.4104932013E+00
                       2.2717448886E+00  3.0503879025E+00  1.1679675115E+01
                       7.6397269925E+00  1.0272639043E+00  9.5634618383E+00
                       6.9502644998E+00  2.0427271620E+00  1.5677155737E+01
                       1.0543340372E+01  5.7560648258E+00  1.2407973824E+01
                       5.1753582679E+00  7.7791888240E+00  1.4524187100E+01
             xred      5.0000000000E-01  5.0000000000E-01  5.0000000000E-01
                       0.0000000000E+00  0.0000000000E+00  0.0000000000E+00
                       3.4638100000E-01  7.6804200000E-01  1.1664900000E-01
                       1.1664900000E-01  3.4638100000E-01  7.6804200000E-01
                       7.6804200000E-01  1.1664900000E-01  3.4638100000E-01
                       6.5361900000E-01  2.3195800000E-01  8.8335100000E-01
                       8.8335100000E-01  6.5361900000E-01  2.3195800000E-01
                       2.3195800000E-01  8.8335100000E-01  6.5361900000E-01
            znucl       11.00000   83.00000    9.00000

- Timing analysis has been suppressed with timopt=0

 Suggested references for the acknowledgment of ABINIT usage.

 Calculation completed.
.Delivered  14 WARNINGs and   9 COMMENTs to log file.