.Version 9.5.1 of ABINIT

 ABINIT is a project of the Universite Catholique de Louvain,
 Corning Inc. and other collaborators, see ~abinit/doc/developers/contributors.txt .
 acknowledgments of the ABINIT effort.

.Starting date : Tue 27 Apr 2021.
- ( at 18h35 )

- input  file    -> /scratch/users/j/a/jabreu/flow_simple_4atoms/flow/w201/t1/run.abi
- output file    -> /scratch/users/j/a/jabreu/flow_simple_4atoms/flow/w201/t1/run.abo
- root for input  files -> /scratch/users/j/a/jabreu/flow_simple_4atoms/flow/w201/t1/indata/in
- root for output files -> /scratch/users/j/a/jabreu/flow_simple_4atoms/flow/w201/t1/outdata/out

 Symmetries : space group C2/m (# 12); Bravais mC (1-face-center monocl.)
     intxc =       0      iscf =       7    lmnmax =       8     lnmax =       4
     mgfft =      54  mpssoang =       2    mqgrid =    3001     natom =       4
  nloc_mem =       1    nspden =       1   nspinor =       1    nsppol =       1
      nsym =       4    n1xccc =    2501    ntypat =       2    occopt =       1
   xclevel =       2
-    mband =          18        mffmem =           1         mkmem =           2
-   mkqmem =           2        mk1mem =           2           mpw =        3734
      nfft =       69984          nkpt =           2
  Rough estimation (10% accuracy) of disk space for files :

------------- Echo of variables that govern the present computation ------------
-
- outvars: echo of selected default values
-   iomode0 =  0 , fftalg0 =512 , wfoptalg0 =  0
-
- outvars: echo of global parameters not present in the input file
-  max_nthreads =    0
-
 -outvars: echo values of preprocessed input variables --------
            acell      1.0000000000E+00  1.0000000000E+00  1.0000000000E+00 Bohr
              amu      6.94100000E+00  1.40067400E+01
             ecut      4.20000000E+01 Hartree
-          fftalg         512
           irdden           1
           irdwfk           1
           istwfk        1    1
              ixc     -116133
              kpt      0.00000000E+00  0.00000000E+00  5.00000000E-01
                       5.00000000E-01  5.00000000E-01  5.00000000E-01
           kptopt           0
P           mkmem           2
P          mkqmem           2
P          mk1mem           2
            natom           4
            nband          18
           nbdbuf           4
            ngfft          36      36      54
             nkpt           2
            nstep         100
             nsym           4
           ntypat           2
              occ      2.000000  2.000000  2.000000  2.000000  2.000000  2.000000
                       2.000000  2.000000  2.000000  0.000000  0.000000  0.000000
                       0.000000  0.000000  0.000000  0.000000  0.000000  0.000000
        optdriver           1
            prtwf          -1
            rfdir           1       1       1
           rfelfd           2
            rprim      5.9178398339E+00  0.0000000000E+00  1.3334595021E+00
                       2.6410211354E+00  5.2958319141E+00  1.3334595021E+00
                       0.0000000000E+00  0.0000000000E+00  9.1574985660E+00
          spgroup          12
           symrel      1  0  0   0  1  0   0  0  1      -1  0  0   0 -1  0   0  0 -1
                       0 -1  0  -1  0  0   0  0 -1       0  1  0   1  0  0   0  0  1
           tolwfr      1.00000000E-20
            typat      1  2  2  2
           useylm           1
              wtk        0.50000    0.50000
           xangst      0.0000000000E+00  0.0000000000E+00  0.0000000000E+00
                       1.7396299949E+00  1.0764035166E+00  4.1345288004E+00
                       2.7895241616E+00  1.7260300328E+00  2.1226834826E+00
                       2.2645770782E+00  1.4012167747E+00  3.1286061415E+00
            xcart      0.0000000000E+00  0.0000000000E+00  0.0000000000E+00
                       3.2874242629E+00  2.0341078549E+00  7.8131271213E+00
                       5.2714367064E+00  3.2617240592E+00  4.0112904489E+00
                       4.2794304846E+00  2.6479159570E+00  5.9122087851E+00
             xred      0.0000000000E+00  0.0000000000E+00  0.0000000000E+00
                       3.8409600000E-01  3.8409600000E-01  7.4133500000E-01
                       6.1590400000E-01  6.1590400000E-01  2.5866500000E-01
                       5.0000000000E-01  5.0000000000E-01  5.0000000000E-01
            znucl        3.00000    7.00000

 chkinp: Checking input parameters for consistency.

== DATASET  1 ==================================================================
-   mpi_nproc: 1, omp_nthreads: -1 (-1 if OMP is not activated)

--- !DatasetInfo
iteration_state: {dtset: 1, }
dimensions: {natom: 4, nkpt: 2, mband: 18, nsppol: 1, nspinor: 1, nspden: 1, mpw: 3734, }
cutoff_energies: {ecut:  42.0, pawecutdg:  -1.0, }
electrons: {nelect:   1.80000000E+01, charge:   0.00000000E+00, occopt:   1.00000000E+00, tsmear:   1.00000000E-02, }
meta: {optdriver: 1, rfelfd: 2, }
...

 Real(R)+Recip(G) space primitive vectors, cartesian coordinates (Bohr,Bohr^-1):
 R(1)=  5.9178398  0.0000000  1.3334595  G(1)=  0.1689806 -0.0842703  0.0000000
 R(2)=  2.6410211  5.2958319  1.3334595  G(2)=  0.0000000  0.1888277  0.0000000
 R(3)=  0.0000000  0.0000000  9.1574986  G(3)= -0.0246059 -0.0152250  0.1092001
 Unit cell volume ucvol=  2.8699495E+02 bohr^3
 Angles (23,13,12)=  7.73016889E+01  7.73016889E+01  6.17683964E+01 degrees

 getcut: wavevector=  0.0000  0.0000  0.0000  ngfft=  36  36  54
         ecut(hartree)=     42.000   => boxcut(ratio)=   2.02130

--- Pseudopotential description ------------------------------------------------
- pspini: atom type   1  psp file is /scratch/users/j/a/jabreu/pseudos/PBEsol/Li.psp8
- pspatm: opening atomic psp file    /scratch/users/j/a/jabreu/pseudos/PBEsol/Li.psp8
- Li    ONCVPSP-3.3.0  r_core=   1.40824   1.10935
-  3.00000   3.00000    180112                znucl, zion, pspdat
    8 -116133    1    4       400   0.00000   pspcod,pspxc,lmax,lloc,mmax,r2well
    3.99000000000000    0.00000000000000    0.00000000000000   rchrg,fchrg,qchrg
     nproj     2     2
     extension_switch     1
  pspatm : epsatm=    2.60859637
         --- l  ekb(1:nproj) -->
             0   -4.855856   -1.482423
             1   -2.171544   -0.427615
 pspatm: atomic psp has been read  and splines computed

- pspini: atom type   2  psp file is /scratch/users/j/a/jabreu/pseudos/PBEsol/N.psp8
- pspatm: opening atomic psp file    /scratch/users/j/a/jabreu/pseudos/PBEsol/N.psp8
- N     ONCVPSP-3.3.0  r_core=   1.20551   1.35824
-  7.00000   5.00000    180112                znucl, zion, pspdat
    8 -116133    1    4       600   0.00000   pspcod,pspxc,lmax,lloc,mmax,r2well
    5.99000000000000    4.00000000000000    0.00000000000000   rchrg,fchrg,qchrg
     nproj     2     2
     extension_switch     1
  pspatm : epsatm=    5.26508895
         --- l  ekb(1:nproj) -->
             0    7.464189    0.625868
             1   -4.309714   -1.012941
 pspatm: atomic psp has been read  and splines computed

   3.31269538E+02                                ecore*ucvol(ha*bohr**3)

-inwffil : will read wavefunctions from disk file /scratch/users/j/a/jabreu/flow_simple_4atoms/flow/w201/t1/indata/in_WFK

 ==>  initialize data related to q vector <==

 The list of irreducible perturbations for this q vector is:
    1)    idir= 1    ipert=   5
    2)    idir= 2    ipert=   5
    3)    idir= 3    ipert=   5

 Perturbation wavevector (in red.coord.)   0.000000  0.000000  0.000000
 Perturbation : derivative vs k along direction   1

 dfpt_looppert : COMMENT -
  In a d/dk calculation, iscf is set to -3 automatically.
 The set of symmetries contains only one element for this perturbation.
 symkpt : not enough symmetry to change the number of k points.

[...]

 Initialisation of the first-order wave-functions :
  ireadwf=   0

--- !BeginCycle
iteration_state: {dtset: 1, }
solver: {iscf: 7, nstep: 100, nline: 4, wfoptalg: 0, }
tolerances: {tolwfr: 1.00E-20, }
...

     iter   2DEtotal(Ha)        deltaE(Ha) residm    vres2
-ETOT  1  -28.634669602960     -2.863E+01 6.266E-02 0.000E+00
 ETOT  2  -28.643446132985     -8.777E-03 2.039E-04 0.000E+00
 ETOT  3  -28.643454970288     -8.837E-06 1.777E-06 0.000E+00
 ETOT  4  -28.643454987397     -1.711E-08 1.432E-08 0.000E+00
 ETOT  5  -28.643454987440     -4.328E-11 1.768E-10 0.000E+00
 ETOT  6  -28.643454987440     -9.948E-14 1.507E-12 0.000E+00
 ETOT  7  -28.643454987440      0.000E+00 1.993E-14 0.000E+00
 ETOT  8  -28.643454987440      2.132E-14 1.705E-16 0.000E+00
 ETOT  9  -28.643454987440     -3.553E-15 2.367E-18 0.000E+00
 ETOT 10  -28.643454987440      3.553E-15 2.029E-20 0.000E+00
 ETOT 11  -28.643454987440     -7.105E-15 8.934E-21 0.000E+00

 At SCF step   11   max residual=  8.93E-21 < tolwfr=  1.00E-20 =>converged.

 ----iterations are completed or convergence reached----

 dfpt_looppert: DFPT cycle converged with prtwf=-1. Will skip output of the 1st-order WFK file.
 dfpt_looppert : ek2=    5.0675011110E+01
          f-sum rule ratio=    1.1053165802E+00
 prteigrs : about to open file /scratch/users/j/a/jabreu/flow_simple_4atoms/flow/w201/t1/tmpdata/tmp_1WF1_EIG
 Expectation of eigenvalue derivatives (hartree) for nkpt=   2  k points:
  (in case of degenerate eigenvalues, averaged derivative)
 kpt#   1, nband= 18, wtk=  0.50000, kpt=  0.0000  0.0000  0.5000 (reduced coord)
  -0.00000   -0.00000    0.00000    0.00000   -0.00000   -0.00000    0.00000   -0.00000
   0.00000   -0.00000   -0.00000   -0.00000   -0.00000    0.00000   -0.00000    0.00000
   0.00000    0.00000
 prteigrs : prtvol=0 or 1, do not print more k-points.

 Eight components of 2nd-order total energy (hartree) are
 1,2,3: 0th-order hamiltonian combined with 1st-order wavefunctions
     kin0=   2.58730181E+01 eigvalue=   2.20794891E+00  local=  -9.39660146E+00
 4,5,6: 1st-order hamiltonian combined with 1st and 0th-order wfs
     kin1=  -5.60119300E+01  Hartree=   0.00000000E+00     xc=   0.00000000E+00
 7,8,9: eventually, occupation + non-local contributions
    edocc=   1.15835572E+01     enl0=  -1.62446779E+00   enl1=  -1.27498000E+00
 1-9 gives the relaxation energy (to be shifted if some occ is /=2.0)
   erelax=  -2.86434550E+01
  No Ewald or frozen-wf contrib.: the relaxation energy is the total one
 2DEtotal=   -0.2864345499E+02 Ha. Also 2DEtotal=   -0.779428048740E+03 eV
    (  non-var. 2DEtotal :   -2.8643454987E+01 Ha)

 Perturbation wavevector (in red.coord.)   0.000000  0.000000  0.000000
 Perturbation : derivative vs k along direction   2
 The set of symmetries contains only one element for this perturbation.
 symkpt : not enough symmetry to change the number of k points.

[...]

 Perturbation wavevector (in red.coord.)   0.000000  0.000000  0.000000
 Perturbation : derivative vs k along direction   3
 The set of symmetries contains only one element for this perturbation.
 symkpt : not enough symmetry to change the number of k points.

-inwffil : will read wavefunctions from disk file /scratch/users/j/a/jabreu/flow_simple_4atoms/flow/w201/t1/indata/in_WFK

 Initialisation of the first-order wave-functions :
  ireadwf=   0

--- !BeginCycle
iteration_state: {dtset: 1, }
solver: {iscf: 7, nstep: 100, nline: 4, wfoptalg: 0, }
tolerances: {tolwfr: 1.00E-20, }
...

     iter   2DEtotal(Ha)        deltaE(Ha) residm    vres2
-ETOT  1  -9.7623188611679     -9.762E+00 4.098E-02 0.000E+00
 ETOT  2  -9.7653750029618     -3.056E-03 1.594E-04 0.000E+00
 ETOT  3  -9.7653765862742     -1.583E-06 8.856E-07 0.000E+00
 ETOT  4  -9.7653765893758     -3.102E-09 7.571E-09 0.000E+00
 ETOT  5  -9.7653765893848     -8.908E-12 4.707E-11 0.000E+00
 ETOT  6  -9.7653765893848     -3.375E-14 6.046E-13 0.000E+00
 ETOT  7  -9.7653765893848     -3.553E-15 4.277E-15 0.000E+00
 ETOT  8  -9.7653765893848     -3.553E-15 6.137E-17 0.000E+00
 ETOT  9  -9.7653765893848      3.553E-15 4.905E-19 0.000E+00
 ETOT 10  -9.7653765893848      1.776E-15 9.845E-21 0.000E+00

 At SCF step   10   max residual=  9.85E-21 < tolwfr=  1.00E-20 =>converged.

 ----iterations are completed or convergence reached----

 dfpt_looppert: DFPT cycle converged with prtwf=-1. Will skip output of the 1st-order WFK file.
 dfpt_looppert : ek2=    1.8137535618E+01
          f-sum rule ratio=    1.0465229742E+00
 prteigrs : about to open file /scratch/users/j/a/jabreu/flow_simple_4atoms/flow/w201/t1/tmpdata/tmp_1WF1_EIG
 Expectation of eigenvalue derivatives (hartree) for nkpt=   2  k points:
  (in case of degenerate eigenvalues, averaged derivative)
 kpt#   1, nband= 18, wtk=  0.50000, kpt=  0.0000  0.0000  0.5000 (reduced coord)
  -0.00000   -0.00000   -0.00000   -0.00000   -0.00000    0.00000    0.00000    0.00000
  -0.00000    0.00000    0.00000   -0.00000   -0.00000   -0.00000    0.00000    0.00000
   0.00000   -0.00000
 prteigrs : prtvol=0 or 1, do not print more k-points.

 Eight components of 2nd-order total energy (hartree) are
 1,2,3: 0th-order hamiltonian combined with 1st-order wavefunctions
     kin0=   6.09375639E+00 eigvalue=   6.63427077E-01  local=  -2.27381887E+00
 4,5,6: 1st-order hamiltonian combined with 1st and 0th-order wfs
     kin1=  -1.89813477E+01  Hartree=   0.00000000E+00     xc=   0.00000000E+00
 7,8,9: eventually, occupation + non-local contributions
    edocc=   5.95154626E+00     enl0=  -6.69534275E-01   enl1=  -5.49405459E-01
 1-9 gives the relaxation energy (to be shifted if some occ is /=2.0)
   erelax=  -9.76537659E+00
  No Ewald or frozen-wf contrib.: the relaxation energy is the total one
 2DEtotal=   -0.9765376589E+01 Ha. Also 2DEtotal=   -0.265729410911E+03 eV
    (  non-var. 2DEtotal :   -9.7653765894E+00 Ha)

 CALCULATION OF EFFECTIVE MASSES
 NOTE : Additional infos (eff. mass eigenvalues, eigenvectors and, if degenerate, average mass) are available in stdout.

 K-point ( 0.000, 0.000, 0.500) | band =     9
 Effective mass tensor:
            -41.5200113741            -25.0187472477            -78.0223061907
            -25.0187472477            -16.5664096594            -48.2766364443
            -78.0223061907            -48.2766364443           -153.5660919474
 Effective mass tensor eigenvalues:
           -208.9623224511             -1.6042379881             -1.0859525418
 Angular average effective mass 1/(<1/m>)=  -1.9367521122
 Angular average effective mass for Frohlich model (<m**0.5>)**2=  -2.9392358712
 Effective masses along directions: (cart. coord. / red. coord. -> eff. mass)
    1:   1.000000  0.000000  0.000000 /   0.913188  0.407539  0.000000 ->  -1.7058573350
    2:   0.000000  1.000000  0.000000 /   0.000000  1.000000  0.000000 ->  -1.2614584216
    3:   0.000000  0.000000  1.000000 /   0.142621  0.142621  0.979448 ->  -5.8810972020
    4:   0.577350  0.577350  0.577350 /   0.486260  0.621651  0.614086 ->  -7.8666966511
    5:   0.000000  0.707107  0.707107 /   0.117139  0.582357  0.804450 ->  -2.9640849213
    6:   0.707107  0.000000  0.707107 /   0.587699  0.322121  0.742191 ->  -6.8785244440
    7:   0.707107  0.707107  0.000000 /   0.597748  0.801684  0.000000 ->  -2.0728933798

 K-point ( 0.500, 0.500, 0.500) | band =    10
 Effective mass tensor:
              4.0306001501             -1.6386607888             -0.2611058932
             -1.6386607888              5.6649878028             -0.1615599072
             -0.2611058932             -0.1615599072              0.6183837430
 Effective mass tensor eigenvalues:
              0.5796972657              3.0553565009              6.6789179292
 Angular average effective mass 1/(<1/m>)=   1.3623624151
 Angular average effective mass for Frohlich model (<m**0.5>)**2=   1.8583904399
 Effective masses along directions: (cart. coord. / red. coord. -> eff. mass)
    1:   1.000000  0.000000  0.000000 /   0.913188  0.407539  0.000000 ->   3.4022029594
    2:   0.000000  1.000000  0.000000 /   0.000000  1.000000  0.000000 ->   4.8796226108
    3:   0.000000  0.000000  1.000000 /   0.142621  0.142621  0.979448 ->   0.5871314382
    4:   0.577350  0.577350  0.577350 /   0.486260  0.621651  0.614086 ->   1.0497662399
    5:   0.000000  0.707107  0.707107 /   0.117139  0.582357  0.804450 ->   0.9566804918
    6:   0.707107  0.000000  0.707107 /   0.587699  0.322121  0.742191 ->   0.8726151282
    7:   0.707107  0.707107  0.000000 /   0.597748  0.801684  0.000000 ->   2.9528445401

 END OF EFFECTIVE MASSES SECTION

 ---- first-order wavefunction calculations are completed ----

 Total localisation tensor (bohr^2) in cartesian coordinates
  WARNING : still subject to testing - especially symmetries.
      direction              matrix element
   alpha     beta       real part   imaginary part
     1        1       1.0121600613    0.0000000000
     1        2       0.3370920950    0.0000000000
     1        3       0.2750672066    0.0000000000
     2        1       0.3370920950    0.0000000000
     2        2       0.6759442592    0.0000000000
     2        3       0.1701988111    0.0000000000
     3        1       0.2750672066    0.0000000000
     3        2       0.1701988111    0.0000000000
     3        3       1.3507578756    0.0000000000

 respfn : d/dk was computed, but no 2DTE, so no DDB output.

== END DATASET(S) ==============================================================

 -outvars: echo values of variables after computation  --------
            acell      1.0000000000E+00  1.0000000000E+00  1.0000000000E+00 Bohr
              amu      6.94100000E+00  1.40067400E+01
             ecut      4.20000000E+01 Hartree
           etotal     -9.7653765894E+00
            fcart      0.0000000000E+00  0.0000000000E+00  0.0000000000E+00
                       0.0000000000E+00  0.0000000000E+00  0.0000000000E+00
                       0.0000000000E+00  0.0000000000E+00  0.0000000000E+00
                       0.0000000000E+00  0.0000000000E+00  0.0000000000E+00
-          fftalg         512
           irdden           1
           irdwfk           1
           istwfk        1    1
              ixc     -116133
              kpt      0.00000000E+00  0.00000000E+00  5.00000000E-01
                       5.00000000E-01  5.00000000E-01  5.00000000E-01
           kptopt           0
P           mkmem           2
P          mkqmem           2
P          mk1mem           2
            natom           4
            nband          18
           nbdbuf           4
            ngfft          36      36      54
             nkpt           2
            nstep         100
             nsym           4
           ntypat           2
              occ      2.000000  2.000000  2.000000  2.000000  2.000000  2.000000
                       2.000000  2.000000  2.000000  0.000000  0.000000  0.000000
                       0.000000  0.000000  0.000000  0.000000  0.000000  0.000000
        optdriver           1
            prtwf          -1
            rfdir           1       1       1
           rfelfd           2
            rprim      5.9178398339E+00  0.0000000000E+00  1.3334595021E+00
                       2.6410211354E+00  5.2958319141E+00  1.3334595021E+00
                       0.0000000000E+00  0.0000000000E+00  9.1574985660E+00
          spgroup          12
           strten      0.0000000000E+00  0.0000000000E+00  0.0000000000E+00
                       0.0000000000E+00  0.0000000000E+00  0.0000000000E+00
           symrel      1  0  0   0  1  0   0  0  1      -1  0  0   0 -1  0   0  0 -1
                       0 -1  0  -1  0  0   0  0 -1       0  1  0   1  0  0   0  0  1
           tolwfr      1.00000000E-20
            typat      1  2  2  2
           useylm           1
              wtk        0.50000    0.50000
           xangst      0.0000000000E+00  0.0000000000E+00  0.0000000000E+00
                       1.7396299949E+00  1.0764035166E+00  4.1345288004E+00
                       2.7895241616E+00  1.7260300328E+00  2.1226834826E+00
                       2.2645770782E+00  1.4012167747E+00  3.1286061415E+00
            xcart      0.0000000000E+00  0.0000000000E+00  0.0000000000E+00
                       3.2874242629E+00  2.0341078549E+00  7.8131271213E+00
                       5.2714367064E+00  3.2617240592E+00  4.0112904489E+00
                       4.2794304846E+00  2.6479159570E+00  5.9122087851E+00
             xred      0.0000000000E+00  0.0000000000E+00  0.0000000000E+00
                       3.8409600000E-01  3.8409600000E-01  7.4133500000E-01
                       6.1590400000E-01  6.1590400000E-01  2.5866500000E-01
                       5.0000000000E-01  5.0000000000E-01  5.0000000000E-01
            znucl        3.00000    7.00000

- Timing analysis has been suppressed with timopt=0

 Suggested references for the acknowledgment of ABINIT usage.

 Calculation completed.
.Delivered  14 WARNINGs and   9 COMMENTs to log file.