.Version 9.5.1 of ABINIT

 ABINIT is a project of the Universite Catholique de Louvain,
 Corning Inc. and other collaborators, see ~abinit/doc/developers/contributors.txt .
 acknowledgments of the ABINIT effort.

.Starting date : Sun 25 Apr 2021.
- ( at 17h16 )

- input  file    -> /scratch/users/j/a/jabreu/flow_simple2/flow/w158/t1/run.abi
- output file    -> /scratch/users/j/a/jabreu/flow_simple2/flow/w158/t1/run.abo
- root for input  files -> /scratch/users/j/a/jabreu/flow_simple2/flow/w158/t1/indata/in
- root for output files -> /scratch/users/j/a/jabreu/flow_simple2/flow/w158/t1/outdata/out

 Symmetries : space group Pm -3 m (#221); Bravais cP (primitive cubic)
     intxc =       0      iscf =       7    lmnmax =      18     lnmax =       6
     mgfft =      36  mpssoang =       3    mqgrid =    3001     natom =       2
  nloc_mem =       1    nspden =       1   nspinor =       1    nsppol =       1
      nsym =      48    n1xccc =    2501    ntypat =       2    occopt =       1
   xclevel =       2
-    mband =          19        mffmem =           1         mkmem =           1
-   mkqmem =           1        mk1mem =           1           mpw =        2946
      nfft =       46656          nkpt =           1
  Rough estimation (10% accuracy) of disk space for files :

------------- Echo of variables that govern the present computation ------------
-
- outvars: echo of selected default values
-   iomode0 =  0 , fftalg0 =512 , wfoptalg0 =  0
-
- outvars: echo of global parameters not present in the input file
-  max_nthreads =    0
-
 -outvars: echo values of preprocessed input variables --------
            acell      1.0000000000E+00  1.0000000000E+00  1.0000000000E+00 Bohr
              amu      2.04383300E+02  3.54527000E+01
             ecut      3.10000000E+01 Hartree
-          fftalg         512
           irdden           1
           irdwfk           1
           istwfk        1
              ixc     -116133
              kpt      0.00000000E+00  5.00000000E-01  0.00000000E+00
           kptopt           0
P           mkmem           1
P          mkqmem           1
P          mk1mem           1
            natom           2
            nband          19
           nbdbuf           4
            ngfft          36      36      36
             nkpt           1
            nstep         100
             nsym          48
           ntypat           2
              occ      2.000000  2.000000  2.000000  2.000000  2.000000  2.000000
                       2.000000  2.000000  2.000000  2.000000  0.000000  0.000000
                       0.000000  0.000000  0.000000  0.000000  0.000000  0.000000
                       0.000000
        optdriver           1
            prtwf          -1
            rfdir           1       1       1
           rfelfd           2
            rprim      7.1210066918E+00  0.0000000000E+00  0.0000000000E+00
                       0.0000000000E+00  7.1210066918E+00  0.0000000000E+00
                       0.0000000000E+00  0.0000000000E+00  7.1210066918E+00
          spgroup         221
           symrel      1  0  0   0  1  0   0  0  1      -1  0  0   0 -1  0   0  0 -1
                      -1  0  0   0  1  0   0  0 -1       1  0  0   0 -1  0   0  0  1
                      -1  0  0   0 -1  0   0  0  1       1  0  0   0  1  0   0  0 -1
                       1  0  0   0 -1  0   0  0 -1      -1  0  0   0  1  0   0  0  1
                       0  1  0   1  0  0   0  0  1       0 -1  0  -1  0  0   0  0 -1
                       0 -1  0   1  0  0   0  0 -1       0  1  0  -1  0  0   0  0  1
                       0 -1  0  -1  0  0   0  0  1       0  1  0   1  0  0   0  0 -1
                       0  1  0  -1  0  0   0  0 -1       0 -1  0   1  0  0   0  0  1
                       0  0  1   1  0  0   0  1  0       0  0 -1  -1  0  0   0 -1  0
                       0  0 -1   1  0  0   0 -1  0       0  0  1  -1  0  0   0  1  0
                       0  0 -1  -1  0  0   0  1  0       0  0  1   1  0  0   0 -1  0
                       0  0  1  -1  0  0   0 -1  0       0  0 -1   1  0  0   0  1  0
                       1  0  0   0  0  1   0  1  0      -1  0  0   0  0 -1   0 -1  0
                      -1  0  0   0  0  1   0 -1  0       1  0  0   0  0 -1   0  1  0
                      -1  0  0   0  0 -1   0  1  0       1  0  0   0  0  1   0 -1  0
                       1  0  0   0  0 -1   0 -1  0      -1  0  0   0  0  1   0  1  0
                       0  1  0   0  0  1   1  0  0       0 -1  0   0  0 -1  -1  0  0
                       0 -1  0   0  0  1  -1  0  0       0  1  0   0  0 -1   1  0  0
                       0 -1  0   0  0 -1   1  0  0       0  1  0   0  0  1  -1  0  0
                       0  1  0   0  0 -1  -1  0  0       0 -1  0   0  0  1   1  0  0
                       0  0  1   0  1  0   1  0  0       0  0 -1   0 -1  0  -1  0  0
                       0  0 -1   0  1  0  -1  0  0       0  0  1   0 -1  0   1  0  0
                       0  0 -1   0 -1  0   1  0  0       0  0  1   0  1  0  -1  0  0
                       0  0  1   0 -1  0  -1  0  0       0  0 -1   0  1  0   1  0  0
           tolwfr      1.00000000E-20
            typat      1  2
           useylm           1
           xangst      0.0000000000E+00  0.0000000000E+00  0.0000000000E+00
                       1.8841372218E+00  1.8841372218E+00  1.8841372218E+00
            xcart      0.0000000000E+00  0.0000000000E+00  0.0000000000E+00
                       3.5605033459E+00  3.5605033459E+00  3.5605033459E+00
             xred      0.0000000000E+00  0.0000000000E+00  0.0000000000E+00
                       5.0000000000E-01  5.0000000000E-01  5.0000000000E-01
            znucl       81.00000   17.00000

 chkinp: Checking input parameters for consistency.

== DATASET  1 ==================================================================
-   mpi_nproc: 1, omp_nthreads: -1 (-1 if OMP is not activated)

--- !DatasetInfo
iteration_state: {dtset: 1, }
dimensions: {natom: 2, nkpt: 1, mband: 19, nsppol: 1, nspinor: 1, nspden: 1, mpw: 2946, }
cutoff_energies: {ecut:  31.0, pawecutdg:  -1.0, }
electrons: {nelect:   2.00000000E+01, charge:   0.00000000E+00, occopt:   1.00000000E+00, tsmear:   1.00000000E-02, }
meta: {optdriver: 1, rfelfd: 2, }
...

 Real(R)+Recip(G) space primitive vectors, cartesian coordinates (Bohr,Bohr^-1):
 R(1)=  7.1210067  0.0000000  0.0000000  G(1)=  0.1404296  0.0000000  0.0000000
 R(2)=  0.0000000  7.1210067  0.0000000  G(2)=  0.0000000  0.1404296  0.0000000
 R(3)=  0.0000000  0.0000000  7.1210067  G(3)=  0.0000000  0.0000000  0.1404296
 Unit cell volume ucvol=  3.6109725E+02 bohr^3
 Angles (23,13,12)=  9.00000000E+01  9.00000000E+01  9.00000000E+01 degrees

 getcut: wavevector=  0.0000  0.0000  0.0000  ngfft=  36  36  36
         ecut(hartree)=     31.000   => boxcut(ratio)=   2.01704

--- Pseudopotential description ------------------------------------------------
- pspini: atom type   1  psp file is /scratch/users/j/a/jabreu/pseudos/PBEsol/Tl.psp8
- pspatm: opening atomic psp file    /scratch/users/j/a/jabreu/pseudos/PBEsol/Tl.psp8
- Tl    ONCVPSP-3.3.0  r_core=   2.10510   2.60929   2.00701
- 81.00000  13.00000    180112                znucl, zion, pspdat
    8 -116133    2    4       600   0.00000   pspcod,pspxc,lmax,lloc,mmax,r2well
    5.99000000000000    7.00000000000000    0.00000000000000   rchrg,fchrg,qchrg
     nproj     2     2     2
     extension_switch     1
  pspatm : epsatm=   37.24354552
         --- l  ekb(1:nproj) -->
             0    6.297242    0.908324
             1    4.393460    0.899003
             2   -2.697741   -0.589563
 pspatm: atomic psp has been read  and splines computed

- pspini: atom type   2  psp file is /scratch/users/j/a/jabreu/pseudos/PBEsol/Cl.psp8
- pspatm: opening atomic psp file    /scratch/users/j/a/jabreu/pseudos/PBEsol/Cl.psp8
- Cl    ONCVPSP-3.3.0  r_core=   1.56009   1.35202   1.75774
- 17.00000   7.00000    180112                znucl, zion, pspdat
    8 -116133    2    4       600   0.00000   pspcod,pspxc,lmax,lloc,mmax,r2well
    5.99000000000000    8.00000000000000    0.00000000000000   rchrg,fchrg,qchrg
     nproj     2     2     2
     extension_switch     1
  pspatm : epsatm=    8.95520722
         --- l  ekb(1:nproj) -->
             0    8.193503    0.707970
             1    3.869736    1.114731
             2   -2.915303   -0.810552
 pspatm: atomic psp has been read  and splines computed

   9.23975055E+02                                ecore*ucvol(ha*bohr**3)

-inwffil : will read wavefunctions from disk file /scratch/users/j/a/jabreu/flow_simple2/flow/w158/t1/indata/in_WFK

 ==>  initialize data related to q vector <==

 The list of irreducible perturbations for this q vector is:
    1)    idir= 1    ipert=   3
    2)    idir= 2    ipert=   3
    3)    idir= 3    ipert=   3

 Perturbation wavevector (in red.coord.)   0.000000  0.000000  0.000000
 Perturbation : derivative vs k along direction   1

 dfpt_looppert : COMMENT -
  In a d/dk calculation, iscf is set to -3 automatically.
 The set of symmetries contains only one element for this perturbation.
 symkpt : not enough symmetry to change the number of k points.

[...]

 Initialisation of the first-order wave-functions :
  ireadwf=   0

--- !BeginCycle
iteration_state: {dtset: 1, }
solver: {iscf: 7, nstep: 100, nline: 4, wfoptalg: 0, }
tolerances: {tolwfr: 1.00E-20, }
...

     iter   2DEtotal(Ha)        deltaE(Ha) residm    vres2
-ETOT  1  -33.922081966264     -3.392E+01 2.223E-02 0.000E+00
 ETOT  2  -33.931369051582     -9.287E-03 1.391E-04 0.000E+00
 ETOT  3  -33.931373130164     -4.079E-06 1.188E-05 0.000E+00
 ETOT  4  -33.931373140643     -1.048E-08 3.420E-07 0.000E+00
 ETOT  5  -33.931373140728     -8.548E-11 3.387E-08 0.000E+00
 ETOT  6  -33.931373140729     -9.592E-13 1.005E-09 0.000E+00
 ETOT  7  -33.931373140729      2.842E-14 1.085E-10 0.000E+00
 ETOT  8  -33.931373140729     -1.421E-13 3.350E-12 0.000E+00
 ETOT  9  -33.931373140729      3.553E-14 3.650E-13 0.000E+00
 ETOT 10  -33.931373140729      3.553E-14 1.202E-14 0.000E+00
 ETOT 11  -33.931373140729     -2.132E-14 1.284E-15 0.000E+00
 ETOT 12  -33.931373140729      0.000E+00 4.546E-17 0.000E+00
 ETOT 13  -33.931373140729     -7.105E-15 4.736E-18 0.000E+00
 ETOT 14  -33.931373140729      7.105E-15 1.793E-19 0.000E+00
 ETOT 15  -33.931373140729      0.000E+00 1.845E-20 0.000E+00
 ETOT 16  -33.931373140729      0.000E+00 8.603E-21 0.000E+00

 At SCF step   16   max residual=  8.60E-21 < tolwfr=  1.00E-20 =>converged.

 ----iterations are completed or convergence reached----

 dfpt_looppert: DFPT cycle converged with prtwf=-1. Will skip output of the 1st-order WFK file.
 dfpt_looppert : ek2=    3.1141314481E+01
          f-sum rule ratio=    1.3907720015E+00
 prteigrs : about to open file /scratch/users/j/a/jabreu/flow_simple2/flow/w158/t1/tmpdata/tmp_1WF1_EIG
 Expectation of eigenvalue derivatives (hartree) for nkpt=   1  k points:
  (in case of degenerate eigenvalues, averaged derivative)
 kpt#   1, nband= 19, wtk=  1.00000, kpt=  0.0000  0.5000  0.0000 (reduced coord)
  -0.00000    0.00000    0.00000    0.00000    0.00000    0.00000   -0.00000   -0.00000
  -0.00000   -0.00000    0.00000    0.00000    0.00000    0.00000    0.00000   -0.00000
   0.00000    0.00002   -0.00051

 Eight components of 2nd-order total energy (hartree) are
 1,2,3: 0th-order hamiltonian combined with 1st-order wavefunctions
     kin0=   2.59258625E+01 eigvalue=   2.02388380E+00  local=  -1.30757011E+01
 4,5,6: 1st-order hamiltonian combined with 1st and 0th-order wfs
     kin1=  -4.33104683E+01  Hartree=   0.00000000E+00     xc=   0.00000000E+00
 7,8,9: eventually, occupation + non-local contributions
    edocc=   1.51016485E+01     enl0=   3.95567946E+00   enl1=  -2.45522780E+01
 1-9 gives the relaxation energy (to be shifted if some occ is /=2.0)
   erelax=  -3.39313731E+01
  No Ewald or frozen-wf contrib.: the relaxation energy is the total one
 2DEtotal=   -0.3393137314E+02 Ha. Also 2DEtotal=   -0.923319619429E+03 eV
    (  non-var. 2DEtotal :   -3.3931373141E+01 Ha)

 Perturbation wavevector (in red.coord.)   0.000000  0.000000  0.000000
 Perturbation : derivative vs k along direction   2
 The set of symmetries contains only one element for this perturbation.
 symkpt : not enough symmetry to change the number of k points.

[...]

 Perturbation wavevector (in red.coord.)   0.000000  0.000000  0.000000
 Perturbation : derivative vs k along direction   3
 The set of symmetries contains only one element for this perturbation.
 symkpt : not enough symmetry to change the number of k points.

-inwffil : will read wavefunctions from disk file /scratch/users/j/a/jabreu/flow_simple2/flow/w158/t1/indata/in_WFK

 Initialisation of the first-order wave-functions :
  ireadwf=   0

--- !BeginCycle
iteration_state: {dtset: 1, }
solver: {iscf: 7, nstep: 100, nline: 4, wfoptalg: 0, }
tolerances: {tolwfr: 1.00E-20, }
...

     iter   2DEtotal(Ha)        deltaE(Ha) residm    vres2
-ETOT  1  -33.920729247441     -3.392E+01 2.223E-02 0.000E+00
 ETOT  2  -33.930506243713     -9.777E-03 1.424E-04 0.000E+00
 ETOT  3  -33.930510456038     -4.212E-06 1.848E-05 0.000E+00
 ETOT  4  -33.930510467203     -1.116E-08 3.030E-07 0.000E+00
 ETOT  5  -33.930510467287     -8.383E-11 4.631E-08 0.000E+00
 ETOT  6  -33.930510467287     -8.242E-13 8.510E-10 0.000E+00
 ETOT  7  -33.930510467287     -1.421E-14 1.413E-10 0.000E+00
 ETOT  8  -33.930510467287     -2.132E-14 2.706E-12 0.000E+00
 ETOT  9  -33.930510467287      7.105E-15 4.474E-13 0.000E+00
 ETOT 10  -33.930510467287      0.000E+00 9.340E-15 0.000E+00
 ETOT 11  -33.930510467287      2.132E-14 1.480E-15 0.000E+00
 ETOT 12  -33.930510467287      7.105E-15 3.345E-17 0.000E+00
 ETOT 13  -33.930510467287      0.000E+00 5.035E-18 0.000E+00
 ETOT 14  -33.930510467287      0.000E+00 1.211E-19 0.000E+00
 ETOT 15  -33.930510467287     -1.421E-14 1.769E-20 0.000E+00
 ETOT 16  -33.930510467287     -1.421E-14 8.363E-21 0.000E+00

 At SCF step   16   max residual=  8.36E-21 < tolwfr=  1.00E-20 =>converged.

 ----iterations are completed or convergence reached----

 dfpt_looppert: DFPT cycle converged with prtwf=-1. Will skip output of the 1st-order WFK file.
 dfpt_looppert : ek2=    3.1141314481E+01
          f-sum rule ratio=    1.3907580698E+00
 prteigrs : about to open file /scratch/users/j/a/jabreu/flow_simple2/flow/w158/t1/tmpdata/tmp_1WF1_EIG
 Expectation of eigenvalue derivatives (hartree) for nkpt=   1  k points:
  (in case of degenerate eigenvalues, averaged derivative)
 kpt#   1, nband= 19, wtk=  1.00000, kpt=  0.0000  0.5000  0.0000 (reduced coord)
   0.00000   -0.00000   -0.00000   -0.00000    0.00000    0.00000    0.00000   -0.00000
  -0.00000   -0.00000   -0.00000    0.00000    0.00000   -0.00000    0.00000   -0.00000
  -0.00000    0.00002    0.00440

 Eight components of 2nd-order total energy (hartree) are
 1,2,3: 0th-order hamiltonian combined with 1st-order wavefunctions
     kin0=   2.63337736E+01 eigvalue=   2.09233827E+00  local=  -1.34449134E+01
 4,5,6: 1st-order hamiltonian combined with 1st and 0th-order wfs
     kin1=  -4.33100344E+01  Hartree=   0.00000000E+00     xc=   0.00000000E+00
 7,8,9: eventually, occupation + non-local contributions
    edocc=   1.47471727E+01     enl0=   4.20213928E+00   enl1=  -2.45509865E+01
 1-9 gives the relaxation energy (to be shifted if some occ is /=2.0)
   erelax=  -3.39305105E+01
  No Ewald or frozen-wf contrib.: the relaxation energy is the total one
 2DEtotal=   -0.3393051047E+02 Ha. Also 2DEtotal=   -0.923296144891E+03 eV
    (  non-var. 2DEtotal :   -3.3930510467E+01 Ha)

 CALCULATION OF EFFECTIVE MASSES
 NOTE : Additional infos (eff. mass eigenvalues, eigenvectors and, if degenerate, average mass) are available in stdout.

 K-point ( 0.000, 0.500, 0.000) | band =    10
 Effective mass tensor:
             -0.5454869910             -0.0000036860             -0.0000094545
             -0.0000036860             -0.2082741717             -0.0000006566
             -0.0000094545             -0.0000006566             -0.5454928439
 Effective mass tensor eigenvalues:
             -0.5454998145             -0.5454800204             -0.2082741716
 Angular average effective mass 1/(<1/m>)=  -0.3542836038
 Angular average effective mass for Frohlich model (<m**0.5>)**2=  -0.3796480425
 Effective masses along directions: (cart. coord. / red. coord. -> eff. mass)
    1:   1.000000  0.000000  0.000000 /   1.000000  0.000000  0.000000 ->  -0.5454869908
    2:   0.000000  1.000000  0.000000 /   0.000000  1.000000  0.000000 ->  -0.2082741716
    3:   0.000000  0.000000  1.000000 /   0.000000  0.000000  1.000000 ->  -0.5454928437
    4:   0.577350  0.577350  0.577350 /   0.577350  0.577350  0.577350 ->  -0.3542894610
    5:   0.000000  0.707107  0.707107 /   0.000000  0.707107  0.707107 ->  -0.3014519493
    6:   0.707107  0.000000  0.707107 /   0.707107  0.000000  0.707107 ->  -0.5454993719
    7:   0.707107  0.707107  0.000000 /   0.707107  0.707107  0.000000 ->  -0.3014534788

 K-point ( 0.000, 0.500, 0.000) | band =    11
 Effective mass tensor:
              0.2692045580              0.0000012828             -0.0000034952
              0.0000012828              0.1431687138             -0.0000016947
             -0.0000034952             -0.0000016947              0.2692078926
 Effective mass tensor eigenvalues:
              0.1431687137              0.2692023528              0.2692100978
 Angular average effective mass 1/(<1/m>)=   0.2081307678
 Angular average effective mass for Frohlich model (<m**0.5>)**2=   0.2142526600
 Effective masses along directions: (cart. coord. / red. coord. -> eff. mass)
    1:   1.000000  0.000000  0.000000 /   1.000000  0.000000  0.000000 ->   0.2692045579
    2:   0.000000  1.000000  0.000000 /   0.000000  1.000000  0.000000 ->   0.1431687138
    3:   0.000000  0.000000  1.000000 /   0.000000  0.000000  1.000000 ->   0.2692078925
    4:   0.577350  0.577350  0.577350 /   0.577350  0.577350  0.577350 ->   0.2081290664
    5:   0.000000  0.707107  0.707107 /   0.000000  0.707107  0.707107 ->   0.1869253994
    6:   0.707107  0.000000  0.707107 /   0.707107  0.000000  0.707107 ->   0.2692027301
    7:   0.707107  0.707107  0.000000 /   0.707107  0.707107  0.000000 ->   0.1869272949

 END OF EFFECTIVE MASSES SECTION

 ---- first-order wavefunction calculations are completed ----

 Total localisation tensor (bohr^2) in cartesian coordinates
  WARNING : still subject to testing - especially symmetries.
      direction              matrix element
   alpha     beta       real part   imaginary part
     1        1       2.5678012934    0.0000000000
     1        2       0.0000000000    0.0000000000
     1        3       0.0000000000    0.0000000000
     2        1       0.0000000000    0.0000000000
     2        2       4.8488584498    0.0000000000
     2        3       0.0000000000    0.0000000000
     3        1       0.0000000000    0.0000000000
     3        2       0.0000000000    0.0000000000
     3        3       2.5677621414    0.0000000000

 respfn : d/dk was computed, but no 2DTE, so no DDB output.

== END DATASET(S) ==============================================================

 -outvars: echo values of variables after computation  --------
            acell      1.0000000000E+00  1.0000000000E+00  1.0000000000E+00 Bohr
              amu      2.04383300E+02  3.54527000E+01
             ecut      3.10000000E+01 Hartree
           etotal     -3.3930510467E+01
            fcart      0.0000000000E+00  0.0000000000E+00  0.0000000000E+00
                       0.0000000000E+00  0.0000000000E+00  0.0000000000E+00
-          fftalg         512
           irdden           1
           irdwfk           1
           istwfk        1
              ixc     -116133
              kpt      0.00000000E+00  5.00000000E-01  0.00000000E+00
           kptopt           0
P           mkmem           1
P          mkqmem           1
P          mk1mem           1
            natom           2
            nband          19
           nbdbuf           4
            ngfft          36      36      36
             nkpt           1
            nstep         100
             nsym          48
           ntypat           2
              occ      2.000000  2.000000  2.000000  2.000000  2.000000  2.000000
                       2.000000  2.000000  2.000000  2.000000  0.000000  0.000000
                       0.000000  0.000000  0.000000  0.000000  0.000000  0.000000
                       0.000000
        optdriver           1
            prtwf          -1
            rfdir           1       1       1
           rfelfd           2
            rprim      7.1210066918E+00  0.0000000000E+00  0.0000000000E+00
                       0.0000000000E+00  7.1210066918E+00  0.0000000000E+00
                       0.0000000000E+00  0.0000000000E+00  7.1210066918E+00
          spgroup         221
           strten      0.0000000000E+00  0.0000000000E+00  0.0000000000E+00
                       0.0000000000E+00  0.0000000000E+00  0.0000000000E+00
           symrel      1  0  0   0  1  0   0  0  1      -1  0  0   0 -1  0   0  0 -1
                      -1  0  0   0  1  0   0  0 -1       1  0  0   0 -1  0   0  0  1
                      -1  0  0   0 -1  0   0  0  1       1  0  0   0  1  0   0  0 -1
                       1  0  0   0 -1  0   0  0 -1      -1  0  0   0  1  0   0  0  1
                       0  1  0   1  0  0   0  0  1       0 -1  0  -1  0  0   0  0 -1
                       0 -1  0   1  0  0   0  0 -1       0  1  0  -1  0  0   0  0  1
                       0 -1  0  -1  0  0   0  0  1       0  1  0   1  0  0   0  0 -1
                       0  1  0  -1  0  0   0  0 -1       0 -1  0   1  0  0   0  0  1
                       0  0  1   1  0  0   0  1  0       0  0 -1  -1  0  0   0 -1  0
                       0  0 -1   1  0  0   0 -1  0       0  0  1  -1  0  0   0  1  0
                       0  0 -1  -1  0  0   0  1  0       0  0  1   1  0  0   0 -1  0
                       0  0  1  -1  0  0   0 -1  0       0  0 -1   1  0  0   0  1  0
                       1  0  0   0  0  1   0  1  0      -1  0  0   0  0 -1   0 -1  0
                      -1  0  0   0  0  1   0 -1  0       1  0  0   0  0 -1   0  1  0
                      -1  0  0   0  0 -1   0  1  0       1  0  0   0  0  1   0 -1  0
                       1  0  0   0  0 -1   0 -1  0      -1  0  0   0  0  1   0  1  0
                       0  1  0   0  0  1   1  0  0       0 -1  0   0  0 -1  -1  0  0
                       0 -1  0   0  0  1  -1  0  0       0  1  0   0  0 -1   1  0  0
                       0 -1  0   0  0 -1   1  0  0       0  1  0   0  0  1  -1  0  0
                       0  1  0   0  0 -1  -1  0  0       0 -1  0   0  0  1   1  0  0
                       0  0  1   0  1  0   1  0  0       0  0 -1   0 -1  0  -1  0  0
                       0  0 -1   0  1  0  -1  0  0       0  0  1   0 -1  0   1  0  0
                       0  0 -1   0 -1  0   1  0  0       0  0  1   0  1  0  -1  0  0
                       0  0  1   0 -1  0  -1  0  0       0  0 -1   0  1  0   1  0  0
           tolwfr      1.00000000E-20
            typat      1  2
           useylm           1
           xangst      0.0000000000E+00  0.0000000000E+00  0.0000000000E+00
                       1.8841372218E+00  1.8841372218E+00  1.8841372218E+00
            xcart      0.0000000000E+00  0.0000000000E+00  0.0000000000E+00
                       3.5605033459E+00  3.5605033459E+00  3.5605033459E+00
             xred      0.0000000000E+00  0.0000000000E+00  0.0000000000E+00
                       5.0000000000E-01  5.0000000000E-01  5.0000000000E-01
            znucl       81.00000   17.00000

- Timing analysis has been suppressed with timopt=0

 Suggested references for the acknowledgment of ABINIT usage.

 Calculation completed.
.Delivered   6 WARNINGs and   5 COMMENTs to log file.