.Version 9.5.1 of ABINIT

 ABINIT is a project of the Universite Catholique de Louvain,
 Corning Inc. and other collaborators, see ~abinit/doc/developers/contributors.txt .
 acknowledgments of the ABINIT effort.

.Starting date : Fri 30 Apr 2021.
- ( at 11h28 )

- input  file    -> /scratch/users/j/a/jabreu/flow_simple_5atoms/flow/w190/t1/run.abi
- output file    -> /scratch/users/j/a/jabreu/flow_simple_5atoms/flow/w190/t1/run.abo
- root for input  files -> /scratch/users/j/a/jabreu/flow_simple_5atoms/flow/w190/t1/indata/in
- root for output files -> /scratch/users/j/a/jabreu/flow_simple_5atoms/flow/w190/t1/outdata/out

 Symmetries : space group R3 m (#160); Bravais hR (rhombohedral)
     intxc =       0      iscf =       7    lmnmax =      18     lnmax =       6
     mgfft =      54  mpssoang =       3    mqgrid =    3001     natom =       5
  nloc_mem =       1    nspden =       1   nspinor =       1    nsppol =       1
      nsym =       6    n1xccc =    2501    ntypat =       3    occopt =       1
   xclevel =       2
-    mband =          26        mffmem =           1         mkmem =           1
-   mkqmem =           1        mk1mem =           1           mpw =        8296
      nfft =      157464          nkpt =           1
  Rough estimation (10% accuracy) of disk space for files :

------------- Echo of variables that govern the present computation ------------
-
- outvars: echo of selected default values
-   iomode0 =  0 , fftalg0 =512 , wfoptalg0 =  0
-
- outvars: echo of global parameters not present in the input file
-  max_nthreads =    0
-
 -outvars: echo values of preprocessed input variables --------
            acell      1.0000000000E+00  1.0000000000E+00  1.0000000000E+00 Bohr
              amu      8.54678000E+01  7.99040000E+01  1.59994000E+01
             ecut      4.40000000E+01 Hartree
-          fftalg         512
           irdden           1
           irdwfk           1
           istwfk        1
              ixc     -116133
              kpt      5.00000000E-01  5.00000000E-01  5.00000000E-01
           kptopt           0
P           mkmem           1
P          mkqmem           1
P          mk1mem           1
            natom           5
            nband          26
           nbdbuf           4
            ngfft          54      54      54
             nkpt           1
            nstep         100
             nsym           6
           ntypat           3
              occ      2.000000  2.000000  2.000000  2.000000  2.000000  2.000000
                       2.000000  2.000000  2.000000  2.000000  2.000000  2.000000
                       2.000000  2.000000  2.000000  2.000000  2.000000  0.000000
                       0.000000  0.000000  0.000000  0.000000  0.000000  0.000000
                       0.000000  0.000000
        optdriver           1
            prtwf          -1
            rfdir           1       1       1
           rfelfd           2
            rprim      8.4242088764E+00  0.0000000000E+00  4.4583540000E-01
                       4.2286432450E-01  8.4135890651E+00  4.4583540000E-01
                       0.0000000000E+00  0.0000000000E+00  8.4359981269E+00
          spgroup         160
           symrel      1  0  0   0  1  0   0  0  1       0  1  0   1  0  0   0  0  1
                       0  0  1   1  0  0   0  1  0       1  0  0   0  0  1   0  1  0
                       0  1  0   0  0  1   1  0  0       0  0  1   0  1  0   1  0  0
           tolwfr      1.00000000E-20
            typat      1  2  3  3  3
           useylm           1
           xangst      1.2378334160E-02  1.1771827198E-02  1.3050757045E-02
                       2.4647772687E+00  2.3440094373E+00  2.5986702968E+00
                       4.1087207960E+00  2.0853587077E+00  2.4133153882E+00
                       2.2889725251E+00  3.9988638760E+00  2.4133153882E+00
                       2.1928003607E+00  2.0853587077E+00  4.2305205732E+00
            xcart      2.3391661543E-02  2.2245529488E-02  2.4662356643E-02
                       4.6577540164E+00  4.4295358895E+00  4.9107751706E+00
                       7.7643570609E+00  3.9407568463E+00  4.5605051560E+00
                       4.3255311981E+00  7.5567575683E+00  4.5605051560E+00
                       4.1437921458E+00  3.9407568463E+00  7.9945252830E+00
             xred      2.6440000000E-03  2.6440000000E-03  2.6440000000E-03
                       5.2647400000E-01  5.2647400000E-01  5.2647400000E-01
                       8.9816100000E-01  4.6838000000E-01  4.6838000000E-01
                       4.6838000000E-01  8.9816100000E-01  4.6838000000E-01
                       4.6838000000E-01  4.6838000000E-01  8.9816100000E-01
            znucl       37.00000   35.00000    8.00000

 chkinp: Checking input parameters for consistency.

== DATASET  1 ==================================================================
-   mpi_nproc: 1, omp_nthreads: -1 (-1 if OMP is not activated)

--- !DatasetInfo
iteration_state: {dtset: 1, }
dimensions: {natom: 5, nkpt: 1, mband: 26, nsppol: 1, nspinor: 1, nspden: 1, mpw: 8296, }
cutoff_energies: {ecut:  44.0, pawecutdg:  -1.0, }
electrons: {nelect:   3.40000000E+01, charge:   0.00000000E+00, occopt:   1.00000000E+00, tsmear:   1.00000000E-02, }
meta: {optdriver: 1, rfelfd: 2, }
...

 Real(R)+Recip(G) space primitive vectors, cartesian coordinates (Bohr,Bohr^-1):
 R(1)=  8.4242089  0.0000000  0.4458354  G(1)=  0.1187055 -0.0059661  0.0000000
 R(2)=  0.4228643  8.4135891  0.4458354  G(2)=  0.0000000  0.1188553  0.0000000
 R(3)=  0.0000000  0.0000000  8.4359981  G(3)= -0.0062735 -0.0059661  0.1185396
 Unit cell volume ucvol=  5.9792526E+02 bohr^3
 Angles (23,13,12)=  8.69705549E+01  8.69705549E+01  8.69705549E+01 degrees

 getcut: wavevector=  0.0000  0.0000  0.0000  ngfft=  54  54  54
         ecut(hartree)=     44.000   => boxcut(ratio)=   2.14422

--- Pseudopotential description ------------------------------------------------
- pspini: atom type   1  psp file is /scratch/users/j/a/jabreu/pseudos/PBEsol/Rb.psp8
- pspatm: opening atomic psp file    /scratch/users/j/a/jabreu/pseudos/PBEsol/Rb.psp8
- Rb    ONCVPSP-3.3.0  r_core=   1.71227   1.75361   1.90633
- 37.00000   9.00000    180112                znucl, zion, pspdat
    8 -116133    2    4       600   0.00000   pspcod,pspxc,lmax,lloc,mmax,r2well
    5.99000000000000    7.00000000000000    0.00000000000000   rchrg,fchrg,qchrg
     nproj     2     2     2
     extension_switch     1
  pspatm : epsatm=   34.48400912
         --- l  ekb(1:nproj) -->
             0    8.196957   -0.477221
             1    3.231347   -0.378736
             2   -1.047201    0.996637
 pspatm: atomic psp has been read  and splines computed

- pspini: atom type   2  psp file is /scratch/users/j/a/jabreu/pseudos/PBEsol/Br.psp8
- pspatm: opening atomic psp file    /scratch/users/j/a/jabreu/pseudos/PBEsol/Br.psp8
- Br    ONCVPSP-3.3.0  r_core=   1.81012   1.51356   1.92136
- 35.00000   7.00000    180112                znucl, zion, pspdat
    8 -116133    2    4       600   0.00000   pspcod,pspxc,lmax,lloc,mmax,r2well
    5.99000000000000    8.00000000000000    0.00000000000000   rchrg,fchrg,qchrg
     nproj     2     2     2
     extension_switch     1
  pspatm : epsatm=   10.94933070
         --- l  ekb(1:nproj) -->
             0    8.508690    0.897946
             1    5.393311    0.892021
             2    2.527513    0.394763
 pspatm: atomic psp has been read  and splines computed

- pspini: atom type   3  psp file is /scratch/users/j/a/jabreu/pseudos/PBEsol/O.psp8
- pspatm: opening atomic psp file    /scratch/users/j/a/jabreu/pseudos/PBEsol/O.psp8
- O     ONCVPSP-3.3.0  r_core=   1.35509   1.45563   1.26150
-  8.00000   6.00000    180112                znucl, zion, pspdat
    8 -116133    2    4       600   0.00000   pspcod,pspxc,lmax,lloc,mmax,r2well
    5.99000000000000    4.00000000000000    0.00000000000000   rchrg,fchrg,qchrg
     nproj     2     2     1
     extension_switch     1
  pspatm : epsatm=    6.22910522
         --- l  ekb(1:nproj) -->
             0    6.050032    0.820363
             1   -4.739617   -1.153841
             2   -1.335834
 pspatm: atomic psp has been read  and splines computed

   2.18010229E+03                                ecore*ucvol(ha*bohr**3)

-inwffil : will read wavefunctions from disk file /scratch/users/j/a/jabreu/flow_simple_5atoms/flow/w190/t1/indata/in_WFK

 ==>  initialize data related to q vector <==

 The list of irreducible perturbations for this q vector is:
    1)    idir= 1    ipert=   6
    2)    idir= 2    ipert=   6
    3)    idir= 3    ipert=   6

 Perturbation wavevector (in red.coord.)   0.000000  0.000000  0.000000
 Perturbation : derivative vs k along direction   1

 dfpt_looppert : COMMENT -
  In a d/dk calculation, iscf is set to -3 automatically.
 The set of symmetries contains only one element for this perturbation.
 symkpt : not enough symmetry to change the number of k points.

[...]

 Initialisation of the first-order wave-functions :
  ireadwf=   0

--- !BeginCycle
iteration_state: {dtset: 1, }
solver: {iscf: 7, nstep: 100, nline: 4, wfoptalg: 0, }
tolerances: {tolwfr: 1.00E-20, }
...

     iter   2DEtotal(Ha)        deltaE(Ha) residm    vres2
-ETOT  1  -22.084729270214     -2.208E+01 1.207E-01 0.000E+00
 ETOT  2  -22.099803053885     -1.507E-02 4.069E-03 0.000E+00
 ETOT  3  -22.099889448398     -8.639E-05 1.260E-04 0.000E+00
 ETOT  4  -22.099890328981     -8.806E-07 1.532E-05 0.000E+00
 ETOT  5  -22.099890339894     -1.091E-08 1.121E-06 0.000E+00
 ETOT  6  -22.099890340037     -1.432E-10 1.792E-07 0.000E+00
 ETOT  7  -22.099890340039     -1.965E-12 1.408E-08 0.000E+00
 ETOT  8  -22.099890340039     -1.421E-14 2.292E-09 0.000E+00
 ETOT  9  -22.099890340039     -7.105E-15 1.820E-10 0.000E+00
 ETOT 10  -22.099890340039     -7.105E-15 3.017E-11 0.000E+00
 ETOT 11  -22.099890340039      0.000E+00 2.391E-12 0.000E+00
 ETOT 12  -22.099890340039      3.553E-15 4.040E-13 0.000E+00
 ETOT 13  -22.099890340039      0.000E+00 3.188E-14 0.000E+00
 ETOT 14  -22.099890340039     -7.105E-15 5.484E-15 0.000E+00
 ETOT 15  -22.099890340039      3.553E-15 4.325E-16 0.000E+00
 ETOT 16  -22.099890340039     -7.105E-15 7.522E-17 0.000E+00
 ETOT 17  -22.099890340039      0.000E+00 5.965E-18 0.000E+00
 ETOT 18  -22.099890340039     -3.553E-15 1.041E-18 0.000E+00
 ETOT 19  -22.099890340039      3.553E-15 8.336E-20 0.000E+00
 ETOT 20  -22.099890340039      0.000E+00 1.450E-20 0.000E+00
 ETOT 21  -22.099890340039     -3.553E-15 7.619E-21 0.000E+00

 At SCF step   21   max residual=  7.62E-21 < tolwfr=  1.00E-20 =>converged.

 ----iterations are completed or convergence reached----

 dfpt_looppert: DFPT cycle converged with prtwf=-1. Will skip output of the 1st-order WFK file.
 dfpt_looppert : ek2=    3.7923294310E+01
          f-sum rule ratio=    1.1623319152E+00
 prteigrs : about to open file /scratch/users/j/a/jabreu/flow_simple_5atoms/flow/w190/t1/tmpdata/tmp_1WF1_EIG
 Expectation of eigenvalue derivatives (hartree) for nkpt=   1  k points:
  (in case of degenerate eigenvalues, averaged derivative)
 kpt#   1, nband= 26, wtk=  1.00000, kpt=  0.5000  0.5000  0.5000 (reduced coord)
  -0.00000   -0.00000   -0.00000   -0.00000   -0.00000    0.00000   -0.00000   -0.00000
   0.00000    0.00000    0.00000    0.00000    0.00000   -0.00000   -0.00000   -0.00000
  -0.00000    0.00000    0.00000    0.00000   -0.00000   -0.00000   -0.00000   -0.00000
   0.00045   -0.00411

 Eight components of 2nd-order total energy (hartree) are
 1,2,3: 0th-order hamiltonian combined with 1st-order wavefunctions
     kin0=   2.18392309E+01 eigvalue=   1.10748599E+00  local=  -9.25607228E+00
 4,5,6: 1st-order hamiltonian combined with 1st and 0th-order wfs
     kin1=  -4.40794553E+01  Hartree=   0.00000000E+00     xc=   0.00000000E+00
 7,8,9: eventually, occupation + non-local contributions
    edocc=   9.30715849E+00     enl0=  -8.97912800E-01   enl1=  -1.20325373E-01
 1-9 gives the relaxation energy (to be shifted if some occ is /=2.0)
   erelax=  -2.20998903E+01
  No Ewald or frozen-wf contrib.: the relaxation energy is the total one
 2DEtotal=   -0.2209989034E+02 Ha. Also 2DEtotal=   -0.601368599307E+03 eV
    (  non-var. 2DEtotal :   -2.2099890340E+01 Ha)

 Perturbation wavevector (in red.coord.)   0.000000  0.000000  0.000000
 Perturbation : derivative vs k along direction   2
 The set of symmetries contains only one element for this perturbation.
 symkpt : not enough symmetry to change the number of k points.

[...]

 Perturbation wavevector (in red.coord.)   0.000000  0.000000  0.000000
 Perturbation : derivative vs k along direction   3
 The set of symmetries contains only one element for this perturbation.
 symkpt : not enough symmetry to change the number of k points.

-inwffil : will read wavefunctions from disk file /scratch/users/j/a/jabreu/flow_simple_5atoms/flow/w190/t1/indata/in_WFK

 Initialisation of the first-order wave-functions :
  ireadwf=   0

--- !BeginCycle
iteration_state: {dtset: 1, }
solver: {iscf: 7, nstep: 100, nline: 4, wfoptalg: 0, }
tolerances: {tolwfr: 1.00E-20, }
...

     iter   2DEtotal(Ha)        deltaE(Ha) residm    vres2
-ETOT  1  -22.084976349462     -2.208E+01 1.214E-01 0.000E+00
 ETOT  2  -22.100125257591     -1.515E-02 4.042E-03 0.000E+00
 ETOT  3  -22.100206377313     -8.112E-05 1.206E-04 0.000E+00
 ETOT  4  -22.100207134343     -7.570E-07 9.119E-06 0.000E+00
 ETOT  5  -22.100207142926     -8.582E-09 3.810E-07 0.000E+00
 ETOT  6  -22.100207143030     -1.040E-10 3.534E-08 0.000E+00
 ETOT  7  -22.100207143031     -1.315E-12 1.829E-09 0.000E+00
 ETOT  8  -22.100207143031     -1.776E-14 1.730E-10 0.000E+00
 ETOT  9  -22.100207143031     -2.132E-14 1.828E-11 0.000E+00
 ETOT 10  -22.100207143031      0.000E+00 1.775E-12 0.000E+00
 ETOT 11  -22.100207143031      1.066E-14 1.894E-13 0.000E+00
 ETOT 12  -22.100207143031      3.553E-15 1.868E-14 0.000E+00
 ETOT 13  -22.100207143031     -7.105E-15 2.018E-15 0.000E+00
 ETOT 14  -22.100207143031      0.000E+00 2.009E-16 0.000E+00
 ETOT 15  -22.100207143031      0.000E+00 2.197E-17 0.000E+00
 ETOT 16  -22.100207143031      3.553E-15 2.198E-18 0.000E+00
 ETOT 17  -22.100207143031      3.553E-15 2.429E-19 0.000E+00
 ETOT 18  -22.100207143031      0.000E+00 2.436E-20 0.000E+00
 ETOT 19  -22.100207143031     -3.553E-15 9.912E-21 0.000E+00

 At SCF step   19   max residual=  9.91E-21 < tolwfr=  1.00E-20 =>converged.

 ----iterations are completed or convergence reached----

 dfpt_looppert: DFPT cycle converged with prtwf=-1. Will skip output of the 1st-order WFK file.
 dfpt_looppert : ek2=    3.7923294310E+01
          f-sum rule ratio=    1.1623481450E+00
 prteigrs : about to open file /scratch/users/j/a/jabreu/flow_simple_5atoms/flow/w190/t1/tmpdata/tmp_1WF1_EIG
 Expectation of eigenvalue derivatives (hartree) for nkpt=   1  k points:
  (in case of degenerate eigenvalues, averaged derivative)
 kpt#   1, nband= 26, wtk=  1.00000, kpt=  0.5000  0.5000  0.5000 (reduced coord)
  -0.00000    0.00000    0.00000    0.00000    0.00000   -0.00000    0.00000    0.00000
   0.00000    0.00000   -0.00000    0.00000    0.00000    0.00000    0.00000    0.00000
  -0.00000   -0.00000   -0.00000    0.00000    0.00000    0.00000    0.00000   -0.00000
  -0.00722   -0.00380

 Eight components of 2nd-order total energy (hartree) are
 1,2,3: 0th-order hamiltonian combined with 1st-order wavefunctions
     kin0=   2.17957043E+01 eigvalue=   1.10174557E+00  local=  -9.23223398E+00
 4,5,6: 1st-order hamiltonian combined with 1st and 0th-order wfs
     kin1=  -4.40800708E+01  Hartree=   0.00000000E+00     xc=   0.00000000E+00
 7,8,9: eventually, occupation + non-local contributions
    edocc=   9.33059726E+00     enl0=  -8.95606033E-01   enl1=  -1.20343490E-01
 1-9 gives the relaxation energy (to be shifted if some occ is /=2.0)
   erelax=  -2.21002071E+01
  No Ewald or frozen-wf contrib.: the relaxation energy is the total one
 2DEtotal=   -0.2210020714E+02 Ha. Also 2DEtotal=   -0.601377219955E+03 eV
    (  non-var. 2DEtotal :   -2.2100207143E+01 Ha)

 CALCULATION OF EFFECTIVE MASSES
 NOTE : Additional infos (eff. mass eigenvalues, eigenvectors and, if degenerate, average mass) are available in stdout.

 K-point ( 0.500, 0.500, 0.500) | band =    17
 Effective mass tensor:
             -2.5625121481              0.7209131604              0.7992207125
              0.7209131604             -2.6348672596              0.7599930240
              0.7992207125              0.7599930240             -2.4778329082
 Effective mass tensor eigenvalues:
             -3.3205533100             -3.3203881082             -1.0342708978
 Angular average effective mass 1/(<1/m>)=  -1.9118156903
 Angular average effective mass for Frohlich model (<m**0.5>)**2=  -2.1179221260
 Effective masses along directions: (cart. coord. / red. coord. -> eff. mass)
    1:   1.000000  0.000000  0.000000 /   0.998743  0.050133  0.000000 ->  -1.9161572750
    2:   0.000000  1.000000  0.000000 /   0.000000  1.000000  0.000000 ->  -1.9968364823
    3:   0.000000  0.000000  1.000000 /   0.052702  0.052702  0.997219 ->  -1.8297626896
    4:   0.577350  0.577350  0.577350 /   0.577385  0.604220  0.549131 ->  -1.0355335426
    5:   0.000000  0.707107  0.707107 /   0.036420  0.723721  0.689131 ->  -1.3423474399
    6:   0.707107  0.000000  0.707107 /   0.722796  0.070788  0.687427 ->  -1.3039294212
    7:   0.707107  0.707107  0.000000 /   0.690022  0.723789  0.000000 ->  -1.3864879203

 COMMENTS:
 - At k-point ( 0.500, 0.500, 0.500), bands    18 through    19
   are DEGENERATE (effective mass tensor is therefore not defined).
   See Section IIIB Eqs. (67)-(70) and Appendix E of PRB 93 205147 (2016).
 - Angular average effective mass for Frohlich model is to be averaged over degenerate bands. See later.
 - Associated theta integrals calculated with ntheta=   1000 points.

 K-point ( 0.500, 0.500, 0.500) | band =    18
 Transport equivalent effective mass tensor:
              1.5999340691             -0.0093533843             -0.0102394506
             -0.0093533843              1.6004874299             -0.0100022797
             -0.0102394506             -0.0100022797              1.5983347056
 Transport equivalent effective mass tensor eigenvalues:
              1.6095747492              1.6093821839              1.5797992715
 Angular average effective mass 1/(<1/m>)=   1.1135828328
 Angular average effective mass for Frohlich model (<m**0.5>)**2=   1.1432019562
 Effective masses along directions: (cart. coord. / red. coord. -> eff. mass)
    1:   1.000000  0.000000  0.000000 /   0.998743  0.050133  0.000000 ->   1.6833674280
    2:   0.000000  1.000000  0.000000 /   0.000000  1.000000  0.000000 ->   1.6828415741
    3:   0.000000  0.000000  1.000000 /   0.052702  0.052702  0.997219 ->   1.6822177280
    4:   0.577350  0.577350  0.577350 /   0.577385  0.604220  0.549131 ->   0.7507199236
    5:   0.000000  0.707107  0.707107 /   0.036420  0.723721  0.689131 ->   1.0508790425
    6:   0.707107  0.000000  0.707107 /   0.722796  0.070788  0.687427 ->   1.0459443024
    7:   0.707107  0.707107  0.000000 /   0.690022  0.723789  0.000000 ->   1.0532299527

 K-point ( 0.500, 0.500, 0.500) | band =    19
 Transport equivalent effective mass tensor:
              0.6226879740             -0.0138252810             -0.0153094138
             -0.0138252810              0.6242191315             -0.0146190255
             -0.0153094138             -0.0146190255              0.6211238288
 Transport equivalent effective mass tensor eigenvalues:
              0.6373787073              0.6372241075              0.5934281196
 Angular average effective mass 1/(<1/m>)=   0.5581224438
 Angular average effective mass for Frohlich model (<m**0.5>)**2=   0.5618952864
 Effective masses along directions: (cart. coord. / red. coord. -> eff. mass)
    1:   1.000000  0.000000  0.000000 /   0.998743  0.050133  0.000000 ->   0.4771962355
    2:   0.000000  1.000000  0.000000 /   0.000000  1.000000  0.000000 ->   0.4780364025
    3:   0.000000  0.000000  1.000000 /   0.052702  0.052702  0.997219 ->   0.4764234593
    4:   0.577350  0.577350  0.577350 /   0.577385  0.604220  0.549131 ->   0.7015366029
    5:   0.000000  0.707107  0.707107 /   0.036420  0.723721  0.689131 ->   0.5642501133
    6:   0.707107  0.000000  0.707107 /   0.722796  0.070788  0.687427 ->   0.5646779735
    7:   0.707107  0.707107  0.000000 /   0.690022  0.723789  0.000000 ->   0.5648031308

 Angular average effective mass for Frohlich model, averaged over degenerate bands.
 Value of     (<<m**0.5>>)**2 =     8.270111E-01
 Absolute Value of <<m**0.5>> =     9.094015E-01

 END OF EFFECTIVE MASSES SECTION

 ---- first-order wavefunction calculations are completed ----

 Total localisation tensor (bohr^2) in cartesian coordinates
  WARNING : still subject to testing - especially symmetries.
      direction              matrix element
   alpha     beta       real part   imaginary part
     1        1       1.1391389824    0.0000000000
     1        2       0.0569688346    0.0000000000
     1        3       0.0631540293    0.0000000000
     2        1       0.0569688346    0.0000000000
     2        2       1.1334897170    0.0000000000
     2        3       0.0600635279    0.0000000000
     3        1       0.0631540293    0.0000000000
     3        2       0.0600635279    0.0000000000
     3        3       1.1458547003    0.0000000000

 respfn : d/dk was computed, but no 2DTE, so no DDB output.

== END DATASET(S) ==============================================================

 -outvars: echo values of variables after computation  --------
            acell      1.0000000000E+00  1.0000000000E+00  1.0000000000E+00 Bohr
              amu      8.54678000E+01  7.99040000E+01  1.59994000E+01
             ecut      4.40000000E+01 Hartree
           etotal     -2.2100207143E+01
            fcart      0.0000000000E+00  0.0000000000E+00  0.0000000000E+00
                       0.0000000000E+00  0.0000000000E+00  0.0000000000E+00
                       0.0000000000E+00  0.0000000000E+00  0.0000000000E+00
                       0.0000000000E+00  0.0000000000E+00  0.0000000000E+00
                       0.0000000000E+00  0.0000000000E+00  0.0000000000E+00
-          fftalg         512
           irdden           1
           irdwfk           1
           istwfk        1
              ixc     -116133
              kpt      5.00000000E-01  5.00000000E-01  5.00000000E-01
           kptopt           0
P           mkmem           1
P          mkqmem           1
P          mk1mem           1
            natom           5
            nband          26
           nbdbuf           4
            ngfft          54      54      54
             nkpt           1
            nstep         100
             nsym           6
           ntypat           3
              occ      2.000000  2.000000  2.000000  2.000000  2.000000  2.000000
                       2.000000  2.000000  2.000000  2.000000  2.000000  2.000000
                       2.000000  2.000000  2.000000  2.000000  2.000000  0.000000
                       0.000000  0.000000  0.000000  0.000000  0.000000  0.000000
                       0.000000  0.000000
        optdriver           1
            prtwf          -1
            rfdir           1       1       1
           rfelfd           2
            rprim      8.4242088764E+00  0.0000000000E+00  4.4583540000E-01
                       4.2286432450E-01  8.4135890651E+00  4.4583540000E-01
                       0.0000000000E+00  0.0000000000E+00  8.4359981269E+00
          spgroup         160
           strten      0.0000000000E+00  0.0000000000E+00  0.0000000000E+00
                       0.0000000000E+00  0.0000000000E+00  0.0000000000E+00
           symrel      1  0  0   0  1  0   0  0  1       0  1  0   1  0  0   0  0  1
                       0  0  1   1  0  0   0  1  0       1  0  0   0  0  1   0  1  0
                       0  1  0   0  0  1   1  0  0       0  0  1   0  1  0   1  0  0
           tolwfr      1.00000000E-20
            typat      1  2  3  3  3
           useylm           1
           xangst      1.2378334160E-02  1.1771827198E-02  1.3050757045E-02
                       2.4647772687E+00  2.3440094373E+00  2.5986702968E+00
                       4.1087207960E+00  2.0853587077E+00  2.4133153882E+00
                       2.2889725251E+00  3.9988638760E+00  2.4133153882E+00
                       2.1928003607E+00  2.0853587077E+00  4.2305205732E+00
            xcart      2.3391661543E-02  2.2245529488E-02  2.4662356643E-02
                       4.6577540164E+00  4.4295358895E+00  4.9107751706E+00
                       7.7643570609E+00  3.9407568463E+00  4.5605051560E+00
                       4.3255311981E+00  7.5567575683E+00  4.5605051560E+00
                       4.1437921458E+00  3.9407568463E+00  7.9945252830E+00
             xred      2.6440000000E-03  2.6440000000E-03  2.6440000000E-03
                       5.2647400000E-01  5.2647400000E-01  5.2647400000E-01
                       8.9816100000E-01  4.6838000000E-01  4.6838000000E-01
                       4.6838000000E-01  8.9816100000E-01  4.6838000000E-01
                       4.6838000000E-01  4.6838000000E-01  8.9816100000E-01
            znucl       37.00000   35.00000    8.00000

- Timing analysis has been suppressed with timopt=0

 Suggested references for the acknowledgment of ABINIT usage.

 Calculation completed.
.Delivered   6 WARNINGs and   5 COMMENTs to log file.