.Version 9.5.1 of ABINIT

 ABINIT is a project of the Universite Catholique de Louvain,
 Corning Inc. and other collaborators, see ~abinit/doc/developers/contributors.txt .
 acknowledgments of the ABINIT effort.

.Starting date : Wed 19 May 2021.
- ( at 15h33 )

- input  file    -> /scratch/users/j/a/jabreu/flow_simple_9atoms/flow/w183/t1/run.abi
- output file    -> /scratch/users/j/a/jabreu/flow_simple_9atoms/flow/w183/t1/run.abo
- root for input  files -> /scratch/users/j/a/jabreu/flow_simple_9atoms/flow/w183/t1/indata/in
- root for output files -> /scratch/users/j/a/jabreu/flow_simple_9atoms/flow/w183/t1/outdata/out

 Symmetries : space group Fm -3 m (#225); Bravais cF (face-center cubic)
     intxc =       0      iscf =       7    lmnmax =      18     lnmax =       6
     mgfft =      90  mpssoang =       3    mqgrid =    3333     natom =       9
  nloc_mem =       1    nspden =       1   nspinor =       1    nsppol =       1
      nsym =      48    n1xccc =    2501    ntypat =       3    occopt =       1
   xclevel =       2
-    mband =          47        mffmem =           1         mkmem =           2
-   mkqmem =           2        mk1mem =           2           mpw =       25198
      nfft =      729000          nkpt =           2
  Rough estimation (10% accuracy) of disk space for files :

------------- Echo of variables that govern the present computation ------------
-
- outvars: echo of selected default values
-   iomode0 =  0 , fftalg0 =512 , wfoptalg0 =  0
-
- outvars: echo of global parameters not present in the input file
-  max_nthreads =    0
-
 -outvars: echo values of preprocessed input variables --------
            acell      1.0000000000E+00  1.0000000000E+00  1.0000000000E+00 Bohr
              amu      3.90983000E+01  7.89600000E+01  7.99040000E+01
             ecut      4.30000000E+01 Hartree
-          fftalg         512
           irdden           1
           irdwfk           1
           istwfk        1    1
              ixc     -116133
              kpt      0.00000000E+00  0.00000000E+00  0.00000000E+00
                       5.00000000E-01  5.00000000E-01  5.00000000E-01
           kptopt           0
P           mkmem           2
P          mkqmem           2
P          mk1mem           2
            natom           9
            nband          47
           nbdbuf           4
            ngfft          90      90      90
             nkpt           2
            nstep        2000
             nsym          48
           ntypat           3
              occ      2.000000  2.000000  2.000000  2.000000  2.000000  2.000000
                       2.000000  2.000000  2.000000  2.000000  2.000000  2.000000
                       2.000000  2.000000  2.000000  2.000000  2.000000  2.000000
                       2.000000  2.000000  2.000000  2.000000  2.000000  2.000000
                       2.000000  2.000000  2.000000  2.000000  2.000000  2.000000
                       2.000000  2.000000  2.000000  2.000000  2.000000  2.000000
                       2.000000  2.000000  0.000000  0.000000  0.000000  0.000000
                       0.000000  0.000000  0.000000  0.000000  0.000000
        optdriver           1
            prtwf          -1
            rfdir           1       1       1
           rfelfd           2
            rprim      1.1975011188E+01  0.0000000000E+00  6.9137759329E+00
                       3.9916703960E+00  1.1290148821E+01  6.9137759329E+00
                       0.0000000000E+00  0.0000000000E+00  1.3827551866E+01
          spgroup         225
           symrel      1  0  0   0  1  0   0  0  1      -1  0  0   0 -1  0   0  0 -1
                       0 -1  1   0 -1  0   1 -1  0       0  1 -1   0  1  0  -1  1  0
                      -1  0  0  -1  0  1  -1  1  0       1  0  0   1  0 -1   1 -1  0
                       0  1 -1   1  0 -1   0  0 -1       0 -1  1  -1  0  1   0  0  1
                      -1  0  0  -1  1  0  -1  0  1       1  0  0   1 -1  0   1  0 -1
                       0 -1  1   1 -1  0   0 -1  0       0  1 -1  -1  1  0   0  1  0
                       1  0  0   0  0  1   0  1  0      -1  0  0   0  0 -1   0 -1  0
                       0  1 -1   0  0 -1   1  0 -1       0 -1  1   0  0  1  -1  0  1
                      -1  0  1  -1  1  0  -1  0  0       1  0 -1   1 -1  0   1  0  0
                       0 -1  0   1 -1  0   0 -1  1       0  1  0  -1  1  0   0  1 -1
                       1  0 -1   0  0 -1   0  1 -1      -1  0  1   0  0  1   0 -1  1
                       0  1  0   0  0  1   1  0  0       0 -1  0   0  0 -1  -1  0  0
                       1  0 -1   0  1 -1   0  0 -1      -1  0  1   0 -1  1   0  0  1
                       0 -1  0   0 -1  1   1 -1  0       0  1  0   0  1 -1  -1  1  0
                      -1  0  1  -1  0  0  -1  1  0       1  0 -1   1  0  0   1 -1  0
                       0  1  0   1  0  0   0  0  1       0 -1  0  -1  0  0   0  0 -1
                       0  0 -1   0  1 -1   1  0 -1       0  0  1   0 -1  1  -1  0  1
                       1 -1  0   0 -1  1   0 -1  0      -1  1  0   0  1 -1   0  1  0
                       0  0  1   1  0  0   0  1  0       0  0 -1  -1  0  0   0 -1  0
                      -1  1  0  -1  0  0  -1  0  1       1 -1  0   1  0  0   1  0 -1
                       0  0  1   0  1  0   1  0  0       0  0 -1   0 -1  0  -1  0  0
                       1 -1  0   0 -1  0   0 -1  1      -1  1  0   0  1  0   0  1 -1
                       0  0 -1   1  0 -1   0  1 -1       0  0  1  -1  0  1   0 -1  1
                      -1  1  0  -1  0  1  -1  0  0       1 -1  0   1  0 -1   1  0  0
           tolwfr      1.00000000E-20
            typat      1  1  2  3  3  3  3  3  3
           useylm           1
              wtk        0.50000    0.50000
           xangst      6.3369029933E+00  4.4808670783E+00  1.0975837947E+01
                       2.1123009978E+00  1.4936223594E+00  3.6586126490E+00
                       0.0000000000E+00  0.0000000000E+00  0.0000000000E+00
                       2.0930452619E+00  1.4800064980E+00  7.3172252980E+00
                       5.2903803624E+00  1.4800064980E+00  5.4712430170E+00
                       3.1588236287E+00  4.4944829397E+00  9.1632075790E+00
                       5.2903803624E+00  1.4800064980E+00  9.1632075790E+00
                       3.1588236287E+00  4.4944829397E+00  5.4712430170E+00
                       6.3561587292E+00  4.4944829397E+00  7.3172252980E+00
            xcart      1.1975011188E+01  8.4676116158E+00  2.0741327799E+01
                       3.9916703960E+00  2.8225372053E+00  6.9137759329E+00
                       0.0000000000E+00  0.0000000000E+00  0.0000000000E+00
                       3.9552823287E+00  2.7968069561E+00  1.3827551866E+01
                       9.9973700237E+00  2.7968069561E+00  1.0339150909E+01
                       5.9693115603E+00  8.4933418650E+00  1.7315952823E+01
                       9.9973700237E+00  2.7968069561E+00  1.7315952823E+01
                       5.9693115603E+00  8.4933418650E+00  1.0339150909E+01
                       1.2011399255E+01  8.4933418650E+00  1.3827551866E+01
             xred      7.5000000000E-01  7.5000000000E-01  7.5000000000E-01
                       2.5000000000E-01  2.5000000000E-01  2.5000000000E-01
                       0.0000000000E+00  0.0000000000E+00  0.0000000000E+00
                       2.4772100000E-01  2.4772100000E-01  7.5227900000E-01
                       7.5227900000E-01  2.4772100000E-01  2.4772100000E-01
                       2.4772100000E-01  7.5227900000E-01  7.5227900000E-01
                       7.5227900000E-01  2.4772100000E-01  7.5227900000E-01
                       2.4772100000E-01  7.5227900000E-01  2.4772100000E-01
                       7.5227900000E-01  7.5227900000E-01  2.4772100000E-01
            znucl       19.00000   34.00000   35.00000

 chkinp: Checking input parameters for consistency.

== DATASET  1 ==================================================================
-   mpi_nproc: 1, omp_nthreads: -1 (-1 if OMP is not activated)

--- !DatasetInfo
iteration_state: {dtset: 1, }
dimensions: {natom: 9, nkpt: 2, mband: 47, nsppol: 1, nspinor: 1, nspden: 1, mpw: 25198, }
cutoff_energies: {ecut:  43.0, pawecutdg:  -1.0, }
electrons: {nelect:   7.60000000E+01, charge:   0.00000000E+00, occopt:   1.00000000E+00, tsmear:   1.00000000E-02, }
meta: {optdriver: 1, rfelfd: 2, }
...

 Real(R)+Recip(G) space primitive vectors, cartesian coordinates (Bohr,Bohr^-1):
 R(1)= 11.9750112  0.0000000  6.9137759  G(1)=  0.0835072 -0.0295243  0.0000000
 R(2)=  3.9916704 11.2901488  6.9137759  G(2)=  0.0000000  0.0885728  0.0000000
 R(3)=  0.0000000  0.0000000 13.8275519  G(3)= -0.0417536 -0.0295243  0.0723194
 Unit cell volume ucvol=  1.8694803E+03 bohr^3
 Angles (23,13,12)=  6.00000000E+01  6.00000000E+01  6.00000000E+01 degrees

 getcut: wavevector=  0.0000  0.0000  0.0000  ngfft=  90  90  90
         ecut(hartree)=     43.000   => boxcut(ratio)=   2.20522

 getcut : COMMENT -
  Note that boxcut > 2.2 ; recall that boxcut=Gcut(box)/Gcut(sphere) = 2
  is sufficient for exact treatment of convolution.
  Such a large boxcut is a waste : you could raise ecut
  e.g. ecut=   52.277090 Hartrees makes boxcut=2

--- Pseudopotential description ------------------------------------------------
- pspini: atom type   1  psp file is /scratch/users/j/a/jabreu/pseudos/PBEsol/K.psp8
- pspatm: opening atomic psp file    /scratch/users/j/a/jabreu/pseudos/PBEsol/K.psp8
- K     ONCVPSP-3.3.0  r_core=   1.36296   1.46408   1.61068
- 19.00000   9.00000    180112                znucl, zion, pspdat
    8 -116133    2    4       400   0.00000   pspcod,pspxc,lmax,lloc,mmax,r2well
    3.99000000000000    5.00000000000000    0.00000000000000   rchrg,fchrg,qchrg
     nproj     2     2     2
     extension_switch     1
  pspatm : epsatm=    8.32487830
         --- l  ekb(1:nproj) -->
             0   10.921326    0.816676
             1    4.431000    0.560368
             2   -3.384038   -1.043186
 pspatm: atomic psp has been read  and splines computed

- pspini: atom type   2  psp file is /scratch/users/j/a/jabreu/pseudos/PBEsol/Se.psp8
- pspatm: opening atomic psp file    /scratch/users/j/a/jabreu/pseudos/PBEsol/Se.psp8
- Se    ONCVPSP-3.3.0  r_core=   1.81943   1.50330   1.90835
- 34.00000  16.00000    180112                znucl, zion, pspdat
    8 -116133    2    4       600   0.00000   pspcod,pspxc,lmax,lloc,mmax,r2well
    5.99000000000000    5.00000000000000    0.00000000000000   rchrg,fchrg,qchrg
     nproj     2     2     2
     extension_switch     1
  pspatm : epsatm=   29.17862020
         --- l  ekb(1:nproj) -->
             0    8.973804    1.019550
             1    6.849857    1.297308
             2   -9.203962   -3.731027
 pspatm: atomic psp has been read  and splines computed

- pspini: atom type   3  psp file is /scratch/users/j/a/jabreu/pseudos/PBEsol/Br.psp8
- pspatm: opening atomic psp file    /scratch/users/j/a/jabreu/pseudos/PBEsol/Br.psp8
- Br    ONCVPSP-3.3.0  r_core=   1.81012   1.51356   1.92136
- 35.00000   7.00000    180112                znucl, zion, pspdat
[...]
-ETOT  1  -34.075656516091     -3.408E+01 3.611E-02 0.000E+00
 ETOT  2  -34.140269415148     -6.461E-02 1.335E-03 0.000E+00
 ETOT  3  -34.141054922589     -7.855E-04 1.892E-04 0.000E+00
 ETOT  4  -34.141074791241     -1.987E-05 2.831E-05 0.000E+00
 ETOT  5  -34.141075554497     -7.633E-07 4.104E-06 0.000E+00
 ETOT  6  -34.141075591385     -3.689E-08 9.075E-07 0.000E+00
 ETOT  7  -34.141075593399     -2.014E-09 1.565E-07 0.000E+00
 ETOT  8  -34.141075593515     -1.166E-10 4.236E-08 0.000E+00
 ETOT  9  -34.141075593522     -7.049E-12 7.828E-09 0.000E+00
 ETOT 10  -34.141075593523     -4.334E-13 2.556E-09 0.000E+00
 ETOT 11  -34.141075593523     -2.132E-14 4.788E-10 0.000E+00
 ETOT 12  -34.141075593523     -2.842E-14 1.705E-10 0.000E+00
 ETOT 13  -34.141075593523      1.421E-14 3.180E-11 0.000E+00
 ETOT 14  -34.141075593523     -7.105E-15 1.178E-11 0.000E+00
 ETOT 15  -34.141075593523     -7.105E-15 2.187E-12 0.000E+00
 ETOT 16  -34.141075593523      0.000E+00 8.232E-13 0.000E+00
 ETOT 17  -34.141075593523      1.421E-14 1.528E-13 0.000E+00
 ETOT 18  -34.141075593523      0.000E+00 5.779E-14 0.000E+00
 ETOT 19  -34.141075593523      0.000E+00 1.076E-14 0.000E+00
 ETOT 20  -34.141075593523      0.000E+00 4.066E-15 0.000E+00
 ETOT 21  -34.141075593523      0.000E+00 7.611E-16 0.000E+00
 ETOT 22  -34.141075593523      0.000E+00 2.864E-16 0.000E+00
 ETOT 23  -34.141075593523      0.000E+00 5.395E-17 0.000E+00
 ETOT 24  -34.141075593523      0.000E+00 2.019E-17 0.000E+00
 ETOT 25  -34.141075593523      0.000E+00 3.830E-18 0.000E+00
 ETOT 26  -34.141075593523      0.000E+00 1.425E-18 0.000E+00
 ETOT 27  -34.141075593523      7.105E-15 2.721E-19 0.000E+00
 ETOT 28  -34.141075593523     -7.105E-15 1.006E-19 0.000E+00
 ETOT 29  -34.141075593523      0.000E+00 1.935E-20 0.000E+00
 ETOT 30  -34.141075593523      0.000E+00 9.992E-21 0.000E+00

 At SCF step   30   max residual=  9.99E-21 < tolwfr=  1.00E-20 =>converged.

 ----iterations are completed or convergence reached----

 dfpt_looppert: DFPT cycle converged with prtwf=-1. Will skip output of the 1st-order WFK file.
 dfpt_looppert : ek2=    4.7076480985E+01
          f-sum rule ratio=    1.1109974610E+00
 prteigrs : about to open file /scratch/users/j/a/jabreu/flow_simple_9atoms/flow/w183/t1/tmpdata/tmp_1WF1_EIG
 Expectation of eigenvalue derivatives (hartree) for nkpt=   2  k points:
  (in case of degenerate eigenvalues, averaged derivative)
 kpt#   1, nband= 47, wtk=  0.50000, kpt=  0.0000  0.0000  0.0000 (reduced coord)
   0.00000    0.00000    0.00000   -0.00000   -0.00000   -0.00000    0.00000   -0.00000
  -0.00000   -0.00000   -0.00000    0.00000    0.00000   -0.00000   -0.00000   -0.00000
   0.00000    0.00000    0.00000    0.00000   -0.00000   -0.00000   -0.00000   -0.00000
  -0.00000   -0.00000   -0.00000   -0.00000   -0.00000   -0.00000   -0.00000   -0.00000
  -0.00000   -0.00000   -0.00000    0.00000    0.00000    0.00000   -0.00000   -0.00000
  -0.00000    0.00000   -0.00000   -0.00000   -0.00000    0.00000    0.00000
 prteigrs : prtvol=0 or 1, do not print more k-points.

 Eight components of 2nd-order total energy (hartree) are
 1,2,3: 0th-order hamiltonian combined with 1st-order wavefunctions
     kin0=   3.77851109E+01 eigvalue=   3.85219419E+00  local=  -2.02239813E+01
 4,5,6: 1st-order hamiltonian combined with 1st and 0th-order wfs
     kin1=  -5.23018508E+01  Hartree=   0.00000000E+00     xc=   0.00000000E+00
 7,8,9: eventually, occupation + non-local contributions
    edocc=   8.75506884E+00     enl0=   3.97268297E+00   enl1=  -1.59803003E+01
 1-9 gives the relaxation energy (to be shifted if some occ is /=2.0)
   erelax=  -3.41410756E+01
  No Ewald or frozen-wf contrib.: the relaxation energy is the total one
 2DEtotal=   -0.3414107559E+02 Ha. Also 2DEtotal=   -0.929025913369E+03 eV
    (  non-var. 2DEtotal :   -3.4141075593E+01 Ha)

 CALCULATION OF EFFECTIVE MASSES
 NOTE : Additional infos (eff. mass eigenvalues, eigenvectors and, if degenerate, average mass) are available in stdout.

 COMMENTS:
 - At k-point ( 0.000, 0.000, 0.000), bands    36 through    38
   are DEGENERATE (effective mass tensor is therefore not defined).
   See Section IIIB Eqs. (67)-(70) and Appendix E of PRB 93 205147 (2016).
 - Angular average effective mass for Frohlich model is to be averaged over degenerate bands. See later.
 - Associated theta integrals calculated with ntheta=   1000 points.

 K-point ( 0.000, 0.000, 0.000) | band =    36
 Transport equivalent effective mass tensor:
             -0.7005636199             -0.0000001914              0.0000000001
             -0.0000001914             -0.7005634393              0.0000000001
              0.0000000001              0.0000000001             -0.7005626172
 Transport equivalent effective mass tensor eigenvalues:
             -0.7005637412             -0.7005633181             -0.7005626172
 Angular average effective mass 1/(<1/m>)=  -0.6725020212
 Angular average effective mass for Frohlich model (<m**0.5>)**2=  -0.6736071927
 Effective masses along directions: (cart. coord. / red. coord. -> eff. mass)
    1:   1.000000  0.000000  0.000000 /   0.948683  0.316228  0.000000 ->  -0.7104181902
    2:   0.000000  1.000000  0.000000 /   0.000000  1.000000  0.000000 ->  -0.7912112771
    3:   0.000000  0.000000  1.000000 /   0.408248  0.408248  0.816497 ->  -0.6445964112
    4:   0.577350  0.577350  0.577350 /   0.585539  0.688047  0.428644 ->  -0.6899729507
    5:   0.000000  0.707107  0.707107 /   0.289489  0.762222  0.578977 ->  -0.6485183157
    6:   0.707107  0.000000  0.707107 /   0.731423  0.422287  0.535439 ->  -0.6656553487
    7:   0.707107  0.707107  0.000000 /   0.616798  0.787122  0.000000 ->  -0.6497609049

[...]

 K-point ( 0.000, 0.000, 0.000) | band =    38
 Transport equivalent effective mass tensor:
            -44.3361563526             -0.0000000009              0.0000000033
             -0.0000000009            -44.3361563554              0.0000000023
              0.0000000033              0.0000000023            -44.3361563554
 Transport equivalent effective mass tensor eigenvalues:
            -44.3361563591            -44.3361563539            -44.3361563503
 Angular average effective mass 1/(<1/m>)=  -2.7716896602
 Angular average effective mass for Frohlich model (<m**0.5>)**2=  -3.5165667411
 Effective masses along directions: (cart. coord. / red. coord. -> eff. mass)
    1:   1.000000  0.000000  0.000000 /   0.948683  0.316228  0.000000 ->  -2.3440545177
    2:   0.000000  1.000000  0.000000 /   0.000000  1.000000  0.000000 ->  -1.6136862454
    3:   0.000000  0.000000  1.000000 /   0.408248  0.408248  0.816497 ->  -2.1010060492
    4:   0.577350  0.577350  0.577350 /   0.585539  0.688047  0.428644 ->  -2.2731601118
    5:   0.000000  0.707107  0.707107 /   0.289489  0.762222  0.578977 ->  -3.9774347309
    6:   0.707107  0.000000  0.707107 /   0.731423  0.422287  0.535439 ->  -2.2227645246
    7:   0.707107  0.707107  0.000000 /   0.616798  0.787122  0.000000 -> -12.5260142704

 Angular average effective mass for Frohlich model, averaged over degenerate bands.
 Value of     (<<m**0.5>>)**2 =     1.420753E+00
 Absolute Value of <<m**0.5>> =     1.191953E+00

 K-point ( 0.500, 0.500, 0.500) | band =    39
 Effective mass tensor:
              0.3060114722              0.0260567502              0.0638249663
              0.0260567502              0.2875881597              0.0451323842
              0.0638249663              0.0451323842              0.3797126921
 Effective mass tensor eigenvalues:
              0.2691627179              0.2691627352              0.4349868709
 Angular average effective mass 1/(<1/m>)=   0.3083447562
 Angular average effective mass for Frohlich model (<m**0.5>)**2=   0.3126781535
 Effective masses along directions: (cart. coord. / red. coord. -> eff. mass)
    1:   1.000000  0.000000  0.000000 /   0.948683  0.316228  0.000000 ->   0.2940744580
    2:   0.000000  1.000000  0.000000 /   0.000000  1.000000  0.000000 ->   0.2810683858
    3:   0.000000  0.000000  1.000000 /   0.408248  0.408248  0.816497 ->   0.3608783417
    4:   0.577350  0.577350  0.577350 /   0.585539  0.688047  0.428644 ->   0.4041461456
    5:   0.000000  0.707107  0.707107 /   0.289489  0.762222  0.578977 ->   0.3598469688
    6:   0.707107  0.000000  0.707107 /   0.731423  0.422287  0.535439 ->   0.3936033379
    7:   0.707107  0.707107  0.000000 /   0.616798  0.787122  0.000000 ->   0.3070663307

 END OF EFFECTIVE MASSES SECTION

 ---- first-order wavefunction calculations are completed ----

 Total localisation tensor (bohr^2) in cartesian coordinates
  WARNING : still subject to testing - especially symmetries.
      direction              matrix element
   alpha     beta       real part   imaginary part
     1        1       2.0136394163    0.0000000000
     1        2       0.5695429502    0.0000000000
     1        3       1.3950901948    0.0000000000
     2        1       0.5695429502    0.0000000000
     2        2       1.6109107290    0.0000000000
     2        3       0.9864773268    0.0000000000
     3        1       1.3950901948    0.0000000000
     3        2       0.9864773268    0.0000000000
     3        3       3.6245524096    0.0000000000

 respfn : d/dk was computed, but no 2DTE, so no DDB output.

== END DATASET(S) ==============================================================

 -outvars: echo values of variables after computation  --------
            acell      1.0000000000E+00  1.0000000000E+00  1.0000000000E+00 Bohr
              amu      3.90983000E+01  7.89600000E+01  7.99040000E+01
             ecut      4.30000000E+01 Hartree
           etotal     -3.4141075594E+01
            fcart      0.0000000000E+00  0.0000000000E+00  0.0000000000E+00
                       0.0000000000E+00  0.0000000000E+00  0.0000000000E+00
                       0.0000000000E+00  0.0000000000E+00  0.0000000000E+00
                       0.0000000000E+00  0.0000000000E+00  0.0000000000E+00
                       0.0000000000E+00  0.0000000000E+00  0.0000000000E+00
                       0.0000000000E+00  0.0000000000E+00  0.0000000000E+00
                       0.0000000000E+00  0.0000000000E+00  0.0000000000E+00
                       0.0000000000E+00  0.0000000000E+00  0.0000000000E+00
                       0.0000000000E+00  0.0000000000E+00  0.0000000000E+00
-          fftalg         512
           irdden           1
           irdwfk           1
           istwfk        1    1
              ixc     -116133
              kpt      0.00000000E+00  0.00000000E+00  0.00000000E+00
                       5.00000000E-01  5.00000000E-01  5.00000000E-01
           kptopt           0
P           mkmem           2
P          mkqmem           2
P          mk1mem           2
            natom           9
            nband          47
           nbdbuf           4
            ngfft          90      90      90
             nkpt           2
            nstep        2000
             nsym          48
           ntypat           3
              occ      2.000000  2.000000  2.000000  2.000000  2.000000  2.000000
                       2.000000  2.000000  2.000000  2.000000  2.000000  2.000000
                       2.000000  2.000000  2.000000  2.000000  2.000000  2.000000
                       2.000000  2.000000  2.000000  2.000000  2.000000  2.000000
                       2.000000  2.000000  2.000000  2.000000  2.000000  2.000000
                       2.000000  2.000000  2.000000  2.000000  2.000000  2.000000
                       2.000000  2.000000  0.000000  0.000000  0.000000  0.000000
                       0.000000  0.000000  0.000000  0.000000  0.000000
        optdriver           1
            prtwf          -1
            rfdir           1       1       1
           rfelfd           2
            rprim      1.1975011188E+01  0.0000000000E+00  6.9137759329E+00
                       3.9916703960E+00  1.1290148821E+01  6.9137759329E+00
                       0.0000000000E+00  0.0000000000E+00  1.3827551866E+01
          spgroup         225
           strten      0.0000000000E+00  0.0000000000E+00  0.0000000000E+00
                       0.0000000000E+00  0.0000000000E+00  0.0000000000E+00
           symrel      1  0  0   0  1  0   0  0  1      -1  0  0   0 -1  0   0  0 -1
                       0 -1  1   0 -1  0   1 -1  0       0  1 -1   0  1  0  -1  1  0
                      -1  0  0  -1  0  1  -1  1  0       1  0  0   1  0 -1   1 -1  0
                       0  1 -1   1  0 -1   0  0 -1       0 -1  1  -1  0  1   0  0  1
                      -1  0  0  -1  1  0  -1  0  1       1  0  0   1 -1  0   1  0 -1
                       0 -1  1   1 -1  0   0 -1  0       0  1 -1  -1  1  0   0  1  0
                       1  0  0   0  0  1   0  1  0      -1  0  0   0  0 -1   0 -1  0
                       0  1 -1   0  0 -1   1  0 -1       0 -1  1   0  0  1  -1  0  1
                      -1  0  1  -1  1  0  -1  0  0       1  0 -1   1 -1  0   1  0  0
                       0 -1  0   1 -1  0   0 -1  1       0  1  0  -1  1  0   0  1 -1
                       1  0 -1   0  0 -1   0  1 -1      -1  0  1   0  0  1   0 -1  1
                       0  1  0   0  0  1   1  0  0       0 -1  0   0  0 -1  -1  0  0
                       1  0 -1   0  1 -1   0  0 -1      -1  0  1   0 -1  1   0  0  1
                       0 -1  0   0 -1  1   1 -1  0       0  1  0   0  1 -1  -1  1  0
                      -1  0  1  -1  0  0  -1  1  0       1  0 -1   1  0  0   1 -1  0
                       0  1  0   1  0  0   0  0  1       0 -1  0  -1  0  0   0  0 -1
                       0  0 -1   0  1 -1   1  0 -1       0  0  1   0 -1  1  -1  0  1
                       1 -1  0   0 -1  1   0 -1  0      -1  1  0   0  1 -1   0  1  0
                       0  0  1   1  0  0   0  1  0       0  0 -1  -1  0  0   0 -1  0
                      -1  1  0  -1  0  0  -1  0  1       1 -1  0   1  0  0   1  0 -1
                       0  0  1   0  1  0   1  0  0       0  0 -1   0 -1  0  -1  0  0
                       1 -1  0   0 -1  0   0 -1  1      -1  1  0   0  1  0   0  1 -1
                       0  0 -1   1  0 -1   0  1 -1       0  0  1  -1  0  1   0 -1  1
                      -1  1  0  -1  0  1  -1  0  0       1 -1  0   1  0 -1   1  0  0
           tolwfr      1.00000000E-20
            typat      1  1  2  3  3  3  3  3  3
           useylm           1
              wtk        0.50000    0.50000
           xangst      6.3369029933E+00  4.4808670783E+00  1.0975837947E+01
                       2.1123009978E+00  1.4936223594E+00  3.6586126490E+00
                       0.0000000000E+00  0.0000000000E+00  0.0000000000E+00
                       2.0930452619E+00  1.4800064980E+00  7.3172252980E+00
                       5.2903803624E+00  1.4800064980E+00  5.4712430170E+00
                       3.1588236287E+00  4.4944829397E+00  9.1632075790E+00
                       5.2903803624E+00  1.4800064980E+00  9.1632075790E+00
                       3.1588236287E+00  4.4944829397E+00  5.4712430170E+00
                       6.3561587292E+00  4.4944829397E+00  7.3172252980E+00
            xcart      1.1975011188E+01  8.4676116158E+00  2.0741327799E+01
                       3.9916703960E+00  2.8225372053E+00  6.9137759329E+00
                       0.0000000000E+00  0.0000000000E+00  0.0000000000E+00
                       3.9552823287E+00  2.7968069561E+00  1.3827551866E+01
                       9.9973700237E+00  2.7968069561E+00  1.0339150909E+01
                       5.9693115603E+00  8.4933418650E+00  1.7315952823E+01
                       9.9973700237E+00  2.7968069561E+00  1.7315952823E+01
                       5.9693115603E+00  8.4933418650E+00  1.0339150909E+01
                       1.2011399255E+01  8.4933418650E+00  1.3827551866E+01
             xred      7.5000000000E-01  7.5000000000E-01  7.5000000000E-01
                       2.5000000000E-01  2.5000000000E-01  2.5000000000E-01
                       0.0000000000E+00  0.0000000000E+00  0.0000000000E+00
                       2.4772100000E-01  2.4772100000E-01  7.5227900000E-01
                       7.5227900000E-01  2.4772100000E-01  2.4772100000E-01
                       2.4772100000E-01  7.5227900000E-01  7.5227900000E-01
                       7.5227900000E-01  2.4772100000E-01  7.5227900000E-01
                       2.4772100000E-01  7.5227900000E-01  2.4772100000E-01
                       7.5227900000E-01  7.5227900000E-01  2.4772100000E-01
            znucl       19.00000   34.00000   35.00000

- Timing analysis has been suppressed with timopt=0

 Suggested references for the acknowledgment of ABINIT usage.

 Calculation completed.
.Delivered  14 WARNINGs and  17 COMMENTs to log file.