.Version 9.5.2 of ABINIT

 ABINIT is a project of the Universite Catholique de Louvain,
 Corning Inc. and other collaborators, see ~abinit/doc/developers/contributors.txt .
 acknowledgments of the ABINIT effort.

.Starting date : Wed 26 May 2021.
- ( at 02h38 )

- input  file    -> /scratch/users/j/a/jabreu/flow_simple_11atoms/flow/w252/t1/run.abi
- output file    -> /scratch/users/j/a/jabreu/flow_simple_11atoms/flow/w252/t1/run.abo
- root for input  files -> /scratch/users/j/a/jabreu/flow_simple_11atoms/flow/w252/t1/indata/in
- root for output files -> /scratch/users/j/a/jabreu/flow_simple_11atoms/flow/w252/t1/outdata/out

 Symmetries : space group Cm c 2_1 (# 36); Bravais oC (1-face-center ortho.)
     intxc =       0      iscf =       7    lmnmax =      18     lnmax =       6
     mgfft =      72  mpssoang =       3    mqgrid =    3299     natom =      12
  nloc_mem =       1    nspden =       1   nspinor =       1    nsppol =       1
      nsym =       4    n1xccc =    2501    ntypat =       3    occopt =       1
   xclevel =       2
-    mband =          33        mffmem =           1         mkmem =           2
-   mkqmem =           2        mk1mem =           2           mpw =       12757
      nfft =      373248          nkpt =           2
  Rough estimation (10% accuracy) of disk space for files :

------------- Echo of variables that govern the present computation ------------
-
- outvars: echo of selected default values
-   iomode0 =  0 , fftalg0 =512 , wfoptalg0 =  0
-
- outvars: echo of global parameters not present in the input file
-  max_nthreads =    0
-
 -outvars: echo values of preprocessed input variables --------
            acell      1.0000000000E+00  1.0000000000E+00  1.0000000000E+00 Bohr
              amu      8.54678000E+01  1.00794000E+00  1.59994000E+01
             ecut      4.40000000E+01 Hartree
-          fftalg         512
           irdden           1
           irdwfk           1
           istwfk        0    1
              ixc     -116133
              kpt     -3.49644124E-01  6.50355876E-01  0.00000000E+00
                       0.00000000E+00  0.00000000E+00  0.00000000E+00
           kptopt           0
P           mkmem           2
P          mkqmem           2
P          mk1mem           2
            natom          12
            nband          33
           nbdbuf           4
            ngfft          72      72      72
             nkpt           2
            nstep        2000
             nsym           4
           ntypat           3
              occ      2.000000  2.000000  2.000000  2.000000  2.000000  2.000000
                       2.000000  2.000000  2.000000  2.000000  2.000000  2.000000
                       2.000000  2.000000  2.000000  2.000000  2.000000  2.000000
                       2.000000  2.000000  2.000000  2.000000  2.000000  2.000000
                       0.000000  0.000000  0.000000  0.000000  0.000000  0.000000
                       0.000000  0.000000  0.000000
        optdriver           1
            prtwf          -1
            rfdir           1       1       1
           rfelfd           2
            rprim      1.1214232827E+01  0.0000000000E+00  0.0000000000E+00
                      -8.4456570177E+00  7.3776619227E+00  0.0000000000E+00
                       0.0000000000E+00  0.0000000000E+00  1.1047910756E+01
          spgroup          36
           symrel      1  0  0   0  1  0   0  0  1       0 -1  0  -1  0  0   0  0  1
                      -1  0  0   0 -1  0   0  0  1       0  1  0   1  0  0   0  0  1
            tnons      0.0000000  0.0000000  0.0000000     0.0000000  0.0000000  0.0000000
                      -0.0000000  0.0000000  0.5000000    -0.0000000  0.0000000  0.5000000
           tolwfr      1.00000000E-20
            typat      1  1  2  2  2  2  2  2  3  3  3  3
           useylm           1
              wtk        0.50000    0.50000
           xangst     -8.8817545864E-01  2.5602401121E+00  1.6010099600E+00
                       2.3532426774E+00  1.3438504301E+00  4.5241612472E+00
                       5.8258280417E+00  4.0711856174E-02  7.6124705822E-02
                      -4.3607608230E+00  3.8633786860E+00  2.9992759930E+00
                       1.5489346977E+00  7.6260162197E-01  1.7569542349E+00
                      -8.3867478924E-02  3.1414889202E+00  4.6801055221E+00
                      -6.6482962905E-01  1.5933491443E+00  4.6801055221E+00
                       2.1298968478E+00  2.3107413978E+00  1.7569542349E+00
                      -9.2785465795E-01  2.5751303134E+00  4.4799281220E+00
                       5.6131271424E+00  1.2053098731E-01  4.9687550191E+00
                       2.3929218767E+00  1.3289602287E+00  1.5567768347E+00
                      -4.1480599237E+00  3.7835595549E+00  2.0456037319E+00
            xcart     -1.6784083748E+00  4.8381526463E+00  3.0254703604E+00
                       4.4469841845E+00  2.5395092764E+00  8.5494257383E+00
                       1.1009219496E+01  7.6934258530E-02  1.4385484595E-01
                      -8.2406436864E+00  7.3007276642E+00  5.6678102238E+00
                       2.9270623763E+00  1.4411082140E+00  3.3201623319E+00
                      -1.5848656662E-01  5.9365537087E+00  8.8441177098E+00
                      -1.2563459239E+00  3.0109935169E+00  8.8441177098E+00
                       4.0249217336E+00  4.3666684058E+00  3.3201623319E+00
                      -1.7533911946E+00  4.8662910489E+00  8.4658372455E+00
                       1.0607273048E+01  2.2777055654E-01  9.3895862075E+00
                       4.5219670043E+00  2.5113708738E+00  2.9418818677E+00
                      -7.8386972385E+00  7.1498913662E+00  3.8656308297E+00
             xred      3.4421600000E-01  6.5578400000E-01  2.7385000000E-01
                       6.5578400000E-01  3.4421600000E-01  7.7385000000E-01
                       9.8957200000E-01  1.0428000000E-02  1.3021000000E-02
                       1.0428000000E-02  9.8957200000E-01  5.1302100000E-01
                       4.0812300000E-01  1.9533400000E-01  3.0052400000E-01
                       5.9187700000E-01  8.0466600000E-01  8.0052400000E-01
                       1.9533400000E-01  4.0812300000E-01  8.0052400000E-01
                       8.0466600000E-01  5.9187700000E-01  3.0052400000E-01
                       3.4040200000E-01  6.5959800000E-01  7.6628400000E-01
                       9.6912700000E-01  3.0873000000E-02  8.4989700000E-01
                       6.5959800000E-01  3.4040200000E-01  2.6628400000E-01
                       3.0873000000E-02  9.6912700000E-01  3.4989700000E-01
            znucl       37.00000    1.00000    8.00000

 chkinp: Checking input parameters for consistency.

== DATASET  1 ==================================================================
-   mpi_nproc: 1, omp_nthreads: -1 (-1 if OMP is not activated)

--- !DatasetInfo
iteration_state: {dtset: 1, }
dimensions: {natom: 12, nkpt: 2, mband: 33, nsppol: 1, nspinor: 1, nspden: 1, mpw: 12757, }
cutoff_energies: {ecut:  44.0, pawecutdg:  -1.0, }
electrons: {nelect:   4.80000000E+01, charge:   0.00000000E+00, occopt:   1.00000000E+00, tsmear:   1.00000000E-02, }
meta: {optdriver: 1, rfelfd: 2, }
...

 Real(R)+Recip(G) space primitive vectors, cartesian coordinates (Bohr,Bohr^-1):
 R(1)= 11.2142328  0.0000000  0.0000000  G(1)=  0.0891724  0.1020810  0.0000000
 R(2)= -8.4456570  7.3776619  0.0000000  G(2)=  0.0000000  0.1355443  0.0000000
 R(3)=  0.0000000  0.0000000 11.0479108  G(3)=  0.0000000  0.0000000  0.0905149
 Unit cell volume ucvol=  9.1404689E+02 bohr^3
 Angles (23,13,12)=  9.00000000E+01  9.00000000E+01  1.38861323E+02 degrees

 getcut: wavevector=  0.0000  0.0000  0.0000  ngfft=  72  72  72
         ecut(hartree)=     44.000   => boxcut(ratio)=   2.15019

--- Pseudopotential description ------------------------------------------------
- pspini: atom type   1  psp file is /scratch/users/j/a/jabreu/pseudos/PBEsol/Rb.psp8
- pspatm: opening atomic psp file    /scratch/users/j/a/jabreu/pseudos/PBEsol/Rb.psp8
- Rb    ONCVPSP-3.3.0  r_core=   1.71227   1.75361   1.90633
- 37.00000   9.00000    180112                znucl, zion, pspdat
    8 -116133    2    4       600   0.00000   pspcod,pspxc,lmax,lloc,mmax,r2well
    5.99000000000000    7.00000000000000    0.00000000000000   rchrg,fchrg,qchrg
     nproj     2     2     2
     extension_switch     1
  pspatm : epsatm=   34.48400912
         --- l  ekb(1:nproj) -->
             0    8.196957   -0.477221
             1    3.231347   -0.378736
             2   -1.047201    0.996637
 pspatm: atomic psp has been read  and splines computed

- pspini: atom type   2  psp file is /scratch/users/j/a/jabreu/pseudos/PBEsol/H.psp8
- pspatm: opening atomic psp file    /scratch/users/j/a/jabreu/pseudos/PBEsol/H.psp8
- H     ONCVPSP-3.3.0  r_core=   1.00957   0.70586
-  1.00000   1.00000    180112                znucl, zion, pspdat
    8 -116133    1    4       300   0.00000   pspcod,pspxc,lmax,lloc,mmax,r2well
    2.99000000000000    0.00000000000000    0.00000000000000   rchrg,fchrg,qchrg
     nproj     2     1
     extension_switch     1
  pspatm : epsatm=    0.35627032
         --- l  ekb(1:nproj) -->
             0   -1.674911   -0.523609
             1   -0.494138
 pspatm: atomic psp has been read  and splines computed

- pspini: atom type   3  psp file is /scratch/users/j/a/jabreu/pseudos/PBEsol/O.psp8
- pspatm: opening atomic psp file    /scratch/users/j/a/jabreu/pseudos/PBEsol/O.psp8
- O     ONCVPSP-3.3.0  r_core=   1.35509   1.45563   1.26150
-  8.00000   6.00000    180112                znucl, zion, pspdat
    8 -116133    2    4       600   0.00000   pspcod,pspxc,lmax,lloc,mmax,r2well
    5.99000000000000    4.00000000000000    0.00000000000000   rchrg,fchrg,qchrg
     nproj     2     2     1
     extension_switch     1
  pspatm : epsatm=    6.22910522
         --- l  ekb(1:nproj) -->
             0    6.050032    0.820363
             1   -4.739617   -1.153841
             2   -1.335834
 pspatm: atomic psp has been read  and splines computed

   4.60905893E+03                                ecore*ucvol(ha*bohr**3)

 ==>  initialize data related to q vector <==

 The list of irreducible perturbations for this q vector is:
    1)    idir= 1    ipert=  13
    2)    idir= 2    ipert=  13
    3)    idir= 3    ipert=  13

 Perturbation wavevector (in red.coord.)   0.000000  0.000000  0.000000
 Perturbation : derivative vs k along direction   1

 dfpt_looppert : COMMENT -
  In a d/dk calculation, iscf is set to -3 automatically.
 The set of symmetries contains only one element for this perturbation.
 symkpt : not enough symmetry to change the number of k points.

 Initialisation of the first-order wave-functions :
  ireadwf=   0

--- !BeginCycle
iteration_state: {dtset: 1, }
solver: {iscf: 7, nstep: 2000, nline: 4, wfoptalg: 0, }
tolerances: {tolwfr: 1.00E-20, }
...

     iter   2DEtotal(Ha)        deltaE(Ha) residm    vres2
-ETOT  1  -36.577086722418     -3.658E+01 1.711E-01 0.000E+00
 ETOT  2  -36.633044831335     -5.596E-02 2.551E-03 0.000E+00
 ETOT  3  -36.633387552161     -3.427E-04 4.282E-04 0.000E+00
 ETOT  4  -36.633390915536     -3.363E-06 1.213E-05 0.000E+00
 ETOT  5  -36.633390954895     -3.936E-08 3.596E-06 0.000E+00
 ETOT  6  -36.633390955398     -5.032E-10 9.932E-08 0.000E+00
 ETOT  7  -36.633390955405     -6.779E-12 3.187E-08 0.000E+00
 ETOT  8  -36.633390955405     -1.208E-13 8.668E-10 0.000E+00
 ETOT  9  -36.633390955405      0.000E+00 2.862E-10 0.000E+00
 ETOT 10  -36.633390955405      0.000E+00 7.705E-12 0.000E+00
 ETOT 11  -36.633390955405      1.421E-14 2.603E-12 0.000E+00
 ETOT 12  -36.633390955405     -7.105E-15 6.976E-14 0.000E+00
 ETOT 13  -36.633390955405      0.000E+00 2.384E-14 0.000E+00
 ETOT 14  -36.633390955405      0.000E+00 6.423E-16 0.000E+00
 ETOT 15  -36.633390955405     -1.421E-14 2.193E-16 0.000E+00
 ETOT 16  -36.633390955405      1.421E-14 5.994E-18 0.000E+00
 ETOT 17  -36.633390955405     -7.105E-15 2.027E-18 0.000E+00
 ETOT 18  -36.633390955405      0.000E+00 5.648E-20 0.000E+00
 ETOT 19  -36.633390955405      7.105E-15 1.879E-20 0.000E+00
 ETOT 20  -36.633390955405     -7.105E-15 9.947E-21 0.000E+00

 At SCF step   20   max residual=  9.95E-21 < tolwfr=  1.00E-20 =>converged.

 ----iterations are completed or convergence reached----

 dfpt_looppert: DFPT cycle converged with prtwf=-1. Will skip output of the 1st-order WFK file.
 dfpt_looppert : ek2=    6.9629530958E+01
          f-sum rule ratio=    1.0412345855E+00
 prteigrs : about to open file /scratch/users/j/a/jabreu/flow_simple_11atoms/flow/w252/t1/tmpdata/tmp_1WF1_EIG
 Expectation of eigenvalue derivatives (hartree) for nkpt=   2  k points:
  (in case of degenerate eigenvalues, averaged derivative)
 kpt#   1, nband= 33, wtk=  0.50000, kpt= -0.3496  0.6504  0.0000 (reduced coord)
   0.00434    0.00019    0.04869    0.03367   -0.05958   -0.04268   -0.01178    0.00667
  -0.02590   -0.01463   -0.01900   -0.01045   -0.03660    0.00036    0.11738   -0.00265
  -0.08925   -0.01160    0.02747    0.03183    0.04735    0.02869   -0.00796    0.00290
   0.13073   -0.08782    0.13620   -0.00557   -0.03620   -0.03809    0.03697    0.06778
   0.07759
 prteigrs : prtvol=0 or 1, do not print more k-points.

 Eight components of 2nd-order total energy (hartree) are
 1,2,3: 0th-order hamiltonian combined with 1st-order wavefunctions
     kin0=   5.04982318E+01 eigvalue=   4.76498298E+00  local=  -2.37833517E+01
 4,5,6: 1st-order hamiltonian combined with 1st and 0th-order wfs
     kin1=  -7.25006758E+01  Hartree=   0.00000000E+00     xc=   0.00000000E+00
 7,8,9: eventually, occupation + non-local contributions
    edocc=   8.95124164E+00     enl0=  -3.79771368E+00   enl1=  -7.66106106E-01
 1-9 gives the relaxation energy (to be shifted if some occ is /=2.0)
   erelax=  -3.66333910E+01
  No Ewald or frozen-wf contrib.: the relaxation energy is the total one
 2DEtotal=   -0.3663339096E+02 Ha. Also 2DEtotal=   -0.996845263381E+03 eV
    (  non-var. 2DEtotal :   -3.6633390955E+01 Ha)

 Perturbation wavevector (in red.coord.)   0.000000  0.000000  0.000000
 Perturbation : derivative vs k along direction   2
 The set of symmetries contains only one element for this perturbation.
 symkpt : not enough symmetry to change the number of k points.

[...]

 Perturbation wavevector (in red.coord.)   0.000000  0.000000  0.000000
 Perturbation : derivative vs k along direction   3
 The set of symmetries contains only one element for this perturbation.
 symkpt : not enough symmetry to change the number of k points.

 Initialisation of the first-order wave-functions :
  ireadwf=   0

--- !BeginCycle
iteration_state: {dtset: 1, }
solver: {iscf: 7, nstep: 2000, nline: 4, wfoptalg: 0, }
tolerances: {tolwfr: 1.00E-20, }
...

     iter   2DEtotal(Ha)        deltaE(Ha) residm    vres2
-ETOT  1  -17.237922140636     -1.724E+01 1.922E-02 0.000E+00
 ETOT  2  -17.255829885935     -1.791E-02 1.311E-03 0.000E+00
 ETOT  3  -17.255906393528     -7.651E-05 2.660E-05 0.000E+00
 ETOT  4  -17.255906959571     -5.660E-07 1.876E-06 0.000E+00
 ETOT  5  -17.255906964744     -5.174E-09 1.294E-07 0.000E+00
 ETOT  6  -17.255906964798     -5.397E-11 9.993E-09 0.000E+00
 ETOT  7  -17.255906964799     -5.826E-13 7.286E-10 0.000E+00
 ETOT  8  -17.255906964799     -1.066E-14 7.669E-11 0.000E+00
 ETOT  9  -17.255906964799     -3.553E-15 4.578E-12 0.000E+00
 ETOT 10  -17.255906964799      7.105E-15 6.495E-13 0.000E+00
 ETOT 11  -17.255906964799     -7.105E-15 3.316E-14 0.000E+00
 ETOT 12  -17.255906964799     -3.553E-15 5.687E-15 0.000E+00
 ETOT 13  -17.255906964799      0.000E+00 2.758E-16 0.000E+00
 ETOT 14  -17.255906964799      7.105E-15 5.061E-17 0.000E+00
 ETOT 15  -17.255906964799      0.000E+00 2.510E-18 0.000E+00
 ETOT 16  -17.255906964799     -3.553E-15 4.546E-19 0.000E+00
 ETOT 17  -17.255906964799      3.553E-15 2.382E-20 0.000E+00
 ETOT 18  -17.255906964799      0.000E+00 9.439E-21 0.000E+00

 At SCF step   18   max residual=  9.44E-21 < tolwfr=  1.00E-20 =>converged.

 ----iterations are completed or convergence reached----

 dfpt_looppert: DFPT cycle converged with prtwf=-1. Will skip output of the 1st-order WFK file.
 dfpt_looppert : ek2=    3.1050647073E+01
          f-sum rule ratio=    1.1034479742E+00
 prteigrs : about to open file /scratch/users/j/a/jabreu/flow_simple_11atoms/flow/w252/t1/tmpdata/tmp_1WF1_EIG
 Expectation of eigenvalue derivatives (hartree) for nkpt=   2  k points:
  (in case of degenerate eigenvalues, averaged derivative)
 kpt#   1, nband= 33, wtk=  0.50000, kpt= -0.3496  0.6504  0.0000 (reduced coord)
  -0.00000    0.00000   -0.00000   -0.00000   -0.00000   -0.00000   -0.00000    0.00000
  -0.00000    0.00000    0.00000   -0.00000    0.00000    0.00000    0.00000    0.00000
   0.00000    0.00000   -0.00000   -0.00000   -0.00000    0.00000   -0.00000   -0.00000
  -0.00000   -0.00000   -0.00000    0.00000   -0.00000   -0.00000    0.00206    0.00094
   0.00126
 prteigrs : prtvol=0 or 1, do not print more k-points.

 Eight components of 2nd-order total energy (hartree) are
 1,2,3: 0th-order hamiltonian combined with 1st-order wavefunctions
     kin0=   2.05921839E+01 eigvalue=   2.10418405E+00  local=  -9.20923833E+00
 4,5,6: 1st-order hamiltonian combined with 1st and 0th-order wfs
     kin1=  -3.42627736E+01  Hartree=   0.00000000E+00     xc=   0.00000000E+00
 7,8,9: eventually, occupation + non-local contributions
    edocc=   4.96093559E+00     enl0=  -1.19215821E+00   enl1=  -2.49040320E-01
 1-9 gives the relaxation energy (to be shifted if some occ is /=2.0)
   erelax=  -1.72559070E+01
  No Ewald or frozen-wf contrib.: the relaxation energy is the total one
 2DEtotal=   -0.1725590696E+02 Ha. Also 2DEtotal=   -0.469557108272E+03 eV
    (  non-var. 2DEtotal :   -1.7255906965E+01 Ha)

 CALCULATION OF EFFECTIVE MASSES
 NOTE : Additional infos (eff. mass eigenvalues, eigenvectors and, if degenerate, average mass) are available in stdout.

 K-point (-0.350, 0.650, 0.000) | band =    24
 Effective mass tensor:
             -3.3367512833              0.4628073005              0.0014876467
              0.4628073005             -2.2767166784             -0.0003892052
              0.0014876467             -0.0003892052            -10.6221710229
 Effective mass tensor eigenvalues:
            -10.6221713548             -3.5103734307             -2.1030941991
 Angular average effective mass 1/(<1/m>)=  -3.5108145106
 Angular average effective mass for Frohlich model (<m**0.5>)**2=  -3.9174457053
 Effective masses along directions: (cart. coord. / red. coord. -> eff. mass)
    1:   1.000000  0.000000  0.000000 /   0.798802 -0.601594  0.000000 ->  -3.2426723737
    2:   0.000000  1.000000  0.000000 /   0.000000  1.000000  0.000000 ->  -2.2125253168
    3:   0.000000  0.000000  1.000000 /   0.000000  0.000000  1.000000 -> -10.6221703445
    4:   0.577350  0.577350  0.577350 /   0.710736 -0.067687  0.700195 ->  -3.0613936490
    5:   0.000000  0.707107  0.707107 /   0.000000  0.555346  0.831620 ->  -3.6623370205
    6:   0.707107  0.000000  0.707107 /   0.627734 -0.472759  0.618424 ->  -4.9675603350
    7:   0.707107  0.707107  0.000000 /   0.995496 -0.094807  0.000000 ->  -2.2580068482

 K-point ( 0.000, 0.000, 0.000) | band =    25
 Effective mass tensor:
              0.4473659520             -0.0008972012             -0.0000000179
             -0.0008972012              0.4453123413              0.0000000355
             -0.0000000179              0.0000000355              0.4275340941
 Effective mass tensor eigenvalues:
              0.4275340941              0.4449755854              0.4477027079
 Angular average effective mass 1/(<1/m>)=   0.4398869457
 Angular average effective mass for Frohlich model (<m**0.5>)**2=   0.4399424811
 Effective masses along directions: (cart. coord. / red. coord. -> eff. mass)
    1:   1.000000  0.000000  0.000000 /   0.798802 -0.601594  0.000000 ->   0.4473641443
    2:   0.000000  1.000000  0.000000 /   0.000000  1.000000  0.000000 ->   0.4453105419
    3:   0.000000  0.000000  1.000000 /   0.000000  0.000000  1.000000 ->   0.4275340941
    4:   0.577350  0.577350  0.577350 /   0.710736 -0.067687  0.700195 ->   0.4393067525
    5:   0.000000  0.707107  0.707107 /   0.000000  0.555346  0.831620 ->   0.4362413350
    6:   0.707107  0.000000  0.707107 /   0.627734 -0.472759  0.618424 ->   0.4372243719
    7:   0.707107  0.707107  0.000000 /   0.995496 -0.094807  0.000000 ->   0.4454395880

 END OF EFFECTIVE MASSES SECTION

 ---- first-order wavefunction calculations are completed ----

 Total localisation tensor (bohr^2) in cartesian coordinates
  WARNING : still subject to testing - especially symmetries.
      direction              matrix element
   alpha     beta       real part   imaginary part
     1        1       2.7286686538    0.0000000000
     1        2      -0.8626187065    0.0000000000
     1        3       0.0000000000    0.0000000000
     2        1      -0.8626187065    0.0000000000
     2        2       0.7535363053    0.0000000000
     2        3       0.0000000000    0.0000000000
     3        1       0.0000000000    0.0000000000
     3        2       0.0000000000    0.0000000000
     3        3       0.7993173187    0.0000000000

 respfn : d/dk was computed, but no 2DTE, so no DDB output.

== END DATASET(S) ==============================================================

 -outvars: echo values of variables after computation  --------
            acell      1.0000000000E+00  1.0000000000E+00  1.0000000000E+00 Bohr
              amu      8.54678000E+01  1.00794000E+00  1.59994000E+01
             ecut      4.40000000E+01 Hartree
           etotal     -1.7255906965E+01
            fcart      0.0000000000E+00  0.0000000000E+00  0.0000000000E+00
                       0.0000000000E+00  0.0000000000E+00  0.0000000000E+00
                       0.0000000000E+00  0.0000000000E+00  0.0000000000E+00
                       0.0000000000E+00  0.0000000000E+00  0.0000000000E+00
                       0.0000000000E+00  0.0000000000E+00  0.0000000000E+00
                       0.0000000000E+00  0.0000000000E+00  0.0000000000E+00
                       0.0000000000E+00  0.0000000000E+00  0.0000000000E+00
                       0.0000000000E+00  0.0000000000E+00  0.0000000000E+00
                       0.0000000000E+00  0.0000000000E+00  0.0000000000E+00
                       0.0000000000E+00  0.0000000000E+00  0.0000000000E+00
                       0.0000000000E+00  0.0000000000E+00  0.0000000000E+00
                       0.0000000000E+00  0.0000000000E+00  0.0000000000E+00
-          fftalg         512
           irdden           1
           irdwfk           1
           istwfk        0    1
              ixc     -116133
              kpt     -3.49644124E-01  6.50355876E-01  0.00000000E+00
                       0.00000000E+00  0.00000000E+00  0.00000000E+00
           kptopt           0
P           mkmem           2
P          mkqmem           2
P          mk1mem           2
            natom          12
            nband          33
           nbdbuf           4
            ngfft          72      72      72
             nkpt           2
            nstep        2000
             nsym           4
           ntypat           3
              occ      2.000000  2.000000  2.000000  2.000000  2.000000  2.000000
                       2.000000  2.000000  2.000000  2.000000  2.000000  2.000000
                       2.000000  2.000000  2.000000  2.000000  2.000000  2.000000
                       2.000000  2.000000  2.000000  2.000000  2.000000  2.000000
                       0.000000  0.000000  0.000000  0.000000  0.000000  0.000000
                       0.000000  0.000000  0.000000
        optdriver           1
            prtwf          -1
            rfdir           1       1       1
           rfelfd           2
            rprim      1.1214232827E+01  0.0000000000E+00  0.0000000000E+00
                      -8.4456570177E+00  7.3776619227E+00  0.0000000000E+00
                       0.0000000000E+00  0.0000000000E+00  1.1047910756E+01
          spgroup          36
           strten      0.0000000000E+00  0.0000000000E+00  0.0000000000E+00
                       0.0000000000E+00  0.0000000000E+00  0.0000000000E+00
           symrel      1  0  0   0  1  0   0  0  1       0 -1  0  -1  0  0   0  0  1
                      -1  0  0   0 -1  0   0  0  1       0  1  0   1  0  0   0  0  1
            tnons      0.0000000  0.0000000  0.0000000     0.0000000  0.0000000  0.0000000
                      -0.0000000  0.0000000  0.5000000    -0.0000000  0.0000000  0.5000000
           tolwfr      1.00000000E-20
            typat      1  1  2  2  2  2  2  2  3  3  3  3
           useylm           1
              wtk        0.50000    0.50000
           xangst     -8.8817545864E-01  2.5602401121E+00  1.6010099600E+00
                       2.3532426774E+00  1.3438504301E+00  4.5241612472E+00
                       5.8258280417E+00  4.0711856174E-02  7.6124705822E-02
                      -4.3607608230E+00  3.8633786860E+00  2.9992759930E+00
                       1.5489346977E+00  7.6260162197E-01  1.7569542349E+00
                      -8.3867478924E-02  3.1414889202E+00  4.6801055221E+00
                      -6.6482962905E-01  1.5933491443E+00  4.6801055221E+00
                       2.1298968478E+00  2.3107413978E+00  1.7569542349E+00
                      -9.2785465795E-01  2.5751303134E+00  4.4799281220E+00
                       5.6131271424E+00  1.2053098731E-01  4.9687550191E+00
                       2.3929218767E+00  1.3289602287E+00  1.5567768347E+00
                      -4.1480599237E+00  3.7835595549E+00  2.0456037319E+00
            xcart     -1.6784083748E+00  4.8381526463E+00  3.0254703604E+00
                       4.4469841845E+00  2.5395092764E+00  8.5494257383E+00
                       1.1009219496E+01  7.6934258530E-02  1.4385484595E-01
                      -8.2406436864E+00  7.3007276642E+00  5.6678102238E+00
                       2.9270623763E+00  1.4411082140E+00  3.3201623319E+00
                      -1.5848656662E-01  5.9365537087E+00  8.8441177098E+00
                      -1.2563459239E+00  3.0109935169E+00  8.8441177098E+00
                       4.0249217336E+00  4.3666684058E+00  3.3201623319E+00
                      -1.7533911946E+00  4.8662910489E+00  8.4658372455E+00
                       1.0607273048E+01  2.2777055654E-01  9.3895862075E+00
                       4.5219670043E+00  2.5113708738E+00  2.9418818677E+00
                      -7.8386972385E+00  7.1498913662E+00  3.8656308297E+00
             xred      3.4421600000E-01  6.5578400000E-01  2.7385000000E-01
                       6.5578400000E-01  3.4421600000E-01  7.7385000000E-01
                       9.8957200000E-01  1.0428000000E-02  1.3021000000E-02
                       1.0428000000E-02  9.8957200000E-01  5.1302100000E-01
                       4.0812300000E-01  1.9533400000E-01  3.0052400000E-01
                       5.9187700000E-01  8.0466600000E-01  8.0052400000E-01
                       1.9533400000E-01  4.0812300000E-01  8.0052400000E-01
                       8.0466600000E-01  5.9187700000E-01  3.0052400000E-01
                       3.4040200000E-01  6.5959800000E-01  7.6628400000E-01
                       9.6912700000E-01  3.0873000000E-02  8.4989700000E-01
                       6.5959800000E-01  3.4040200000E-01  2.6628400000E-01
                       3.0873000000E-02  9.6912700000E-01  3.4989700000E-01
            znucl       37.00000    1.00000    8.00000

- Timing analysis has been suppressed with timopt=0

 Suggested references for the acknowledgment of ABINIT usage.

 Calculation completed.
.Delivered   2 WARNINGs and   5 COMMENTs to log file.