.Version 9.5.2 of ABINIT

 ABINIT is a project of the Universite Catholique de Louvain,
 Corning Inc. and other collaborators, see ~abinit/doc/developers/contributors.txt .
 acknowledgments of the ABINIT effort.

.Starting date : Mon 24 May 2021.
- ( at 20h53 )

- input  file    -> /scratch/users/j/a/jabreu/flow_simple_10atoms/flow/w383/t1/run.abi
- output file    -> /scratch/users/j/a/jabreu/flow_simple_10atoms/flow/w383/t1/run.abo
- root for input  files -> /scratch/users/j/a/jabreu/flow_simple_10atoms/flow/w383/t1/indata/in
- root for output files -> /scratch/users/j/a/jabreu/flow_simple_10atoms/flow/w383/t1/outdata/out

 Symmetries : space group I4_1 m d (#109); Bravais tI (body-center tetrag.)
     intxc =       0      iscf =       7    lmnmax =      18     lnmax =       6
     mgfft =      90  mpssoang =       3    mqgrid =    3354     natom =      10
  nloc_mem =       1    nspden =       1   nspinor =       1    nsppol =       1
      nsym =       8    n1xccc =    2501    ntypat =       3    occopt =       1
   xclevel =       2
-    mband =          83        mffmem =           1         mkmem =           2
-   mkqmem =           2        mk1mem =           2           mpw =       25709
      nfft =      729000          nkpt =           2
  Rough estimation (10% accuracy) of disk space for files :

------------- Echo of variables that govern the present computation ------------
-
- outvars: echo of selected default values
-   iomode0 =  0 , fftalg0 =512 , wfoptalg0 =  0
-
- outvars: echo of global parameters not present in the input file
-  max_nthreads =    0
-
 -outvars: echo values of preprocessed input variables --------
            acell      1.0000000000E+00  1.0000000000E+00  1.0000000000E+00 Bohr
              amu      6.97230000E+01  1.27600000E+02  7.89600000E+01
             ecut      4.30000000E+01 Hartree
-          fftalg         512
           irdden           1
           irdwfk           1
           istwfk        1    1
              ixc     -116133
              kpt      0.00000000E+00  0.00000000E+00  0.00000000E+00
                       0.00000000E+00  5.00000000E-01  0.00000000E+00
           kptopt           0
P           mkmem           2
P          mkqmem           2
P          mk1mem           2
            natom          10
            nband          83
           nbdbuf           4
            ngfft          90      90      90
             nkpt           2
            nstep        2000
             nsym           8
           ntypat           3
              occ      2.000000  2.000000  2.000000  2.000000  2.000000  2.000000
                       2.000000  2.000000  2.000000  2.000000  2.000000  2.000000
                       2.000000  2.000000  2.000000  2.000000  2.000000  2.000000
                       2.000000  2.000000  2.000000  2.000000  2.000000  2.000000
                       2.000000  2.000000  2.000000  2.000000  2.000000  2.000000
                       2.000000  2.000000  2.000000  2.000000  2.000000  2.000000
                       2.000000  2.000000  2.000000  2.000000  2.000000  2.000000
                       2.000000  2.000000  2.000000  2.000000  2.000000  2.000000
                       2.000000  2.000000  2.000000  2.000000  2.000000  2.000000
                       2.000000  2.000000  2.000000  2.000000  2.000000  2.000000
                       2.000000  2.000000  2.000000  2.000000  2.000000  2.000000
                       2.000000  2.000000  2.000000  2.000000  2.000000  2.000000
                       2.000000  2.000000  0.000000  0.000000  0.000000  0.000000
                       0.000000  0.000000  0.000000  0.000000  0.000000
        optdriver           1
            prtwf          -1
            rfdir           1       1       1
           rfelfd           2
            rprim      1.1970626676E+01  0.0000000000E+00 -7.2967722701E+00
                      -3.7751931465E+00  1.1359745584E+01 -7.2967722701E+00
                       0.0000000000E+00  0.0000000000E+00  1.4019229243E+01
          spgroup         109
           symrel      1  0  0   0  1  0   0  0  1       1  1  1   0  0 -1   0 -1  0
                       0  1  0   1  0  0  -1 -1 -1       0  0 -1   1  1  1  -1  0  0
                       0  1  0   1  0  0   0  0  1       1  1  1   0  0 -1  -1  0  0
                       1  0  0   0  1  0  -1 -1 -1       0  0 -1   1  1  1   0 -1  0
            tnons      0.0000000  0.0000000  0.0000000     0.0000000  0.0000000  0.0000000
                       0.0000000  0.0000000  0.0000000     0.0000000  0.0000000  0.0000000
                      -0.2500000  0.2500000  0.5000000    -0.2500000  0.2500000  0.5000000
                      -0.2500000  0.2500000  0.5000000    -0.2500000  0.2500000  0.5000000
           tolwfr      1.00000000E-20
            typat      1  1  1  1  2  2  3  3  3  3
           useylm           1
              wtk        0.50000    0.50000
           xangst      4.5653755952E+00  3.9156105381E+00 -7.1087210201E-01
                       2.1906654751E+00  1.0587795314E+00 -5.5891481918E-01
                       5.6716200823E+00  1.0587795314E+00  1.3959174720E+00
                       5.4653282813E+00  1.2076077537E+00 -2.3134108268E+00
                       3.2763888672E+00  1.5122072713E-01  1.5844165078E+00
                       3.3617249412E+00  4.6597095708E+00 -5.9861973726E+00
                      -8.3597600247E-01  5.4087889808E+00  1.4886159423E+00
                       3.3133301032E+00  2.4152921518E+00 -2.2207123565E+00
                       1.7167158784E-01  2.4152921518E+00  3.4336536349E+00
                       1.5481320323E-01  2.4274545519E+00 -2.7567466390E-01
            xcart      8.6273095687E+00  7.3994315600E+00 -1.3433535883E+00
                       4.1397577967E+00  2.0008033494E+00 -1.0561959399E+00
                       1.0717808685E+01  2.0008033494E+00  2.6379017262E+00
                       1.0327973678E+01  2.2820479305E+00 -4.3717128954E+00
                       6.1914776639E+00  2.8576575990E-01  2.9941132801E+00
                       6.3527394730E+00  8.8055749475E+00 -1.1312273612E+01
                      -1.5797656983E+00  1.0221129884E+01  2.8130764479E+00
                       6.2612864830E+00  4.5642406978E+00 -4.1965381737E+00
                       3.2441228582E-01  4.5642406978E+00  6.4886650051E+00
                       2.9255455586E-01  4.5872243031E+00 -5.2094961654E-01
             xred      9.2613100000E-01  6.5137300000E-01  7.2524200000E-01
                       4.0137300000E-01  1.7613100000E-01  2.2524200000E-01
                       9.5088900000E-01  1.7613100000E-01  7.7475800000E-01
                       9.2613100000E-01  2.0088900000E-01  2.7475800000E-01
                       5.2515600000E-01  2.5156000000E-02  5.0000000000E-01
                       7.7515600000E-01  7.7515600000E-01  0.0000000000E+00
                       1.5179075000E-01  8.9976750000E-01  7.4797675000E-01
                       6.4976750000E-01  4.0179075000E-01  2.4797675000E-01
                       1.5381400000E-01  4.0179075000E-01  7.5202325000E-01
                       1.5179075000E-01  4.0381400000E-01  2.5202325000E-01
            znucl       31.00000   52.00000   34.00000

 chkinp: Checking input parameters for consistency.

== DATASET  1 ==================================================================
-   mpi_nproc: 1, omp_nthreads: -1 (-1 if OMP is not activated)

--- !DatasetInfo
iteration_state: {dtset: 1, }
dimensions: {natom: 10, nkpt: 2, mband: 83, nsppol: 1, nspinor: 1, nspden: 1, mpw: 25709, }
cutoff_energies: {ecut:  43.0, pawecutdg:  -1.0, }
electrons: {nelect:   1.48000000E+02, charge:   0.00000000E+00, occopt:   1.00000000E+00, tsmear:   1.00000000E-02, }
meta: {optdriver: 1, rfelfd: 2, }
...

 Real(R)+Recip(G) space primitive vectors, cartesian coordinates (Bohr,Bohr^-1):
 R(1)= 11.9706267  0.0000000 -7.2967723  G(1)=  0.0835378  0.0277622  0.0000000
 R(2)= -3.7751931 11.3597456 -7.2967723  G(2)=  0.0000000  0.0880301  0.0000000
 R(3)=  0.0000000  0.0000000 14.0192292  G(3)=  0.0434800  0.0602680  0.0713306
 Unit cell volume ucvol=  1.9063807E+03 bohr^3
 Angles (23,13,12)=  1.21364664E+02  1.21364664E+02  8.76521496E+01 degrees

 getcut: wavevector=  0.0000  0.0000  0.0000  ngfft=  90  90  90
         ecut(hartree)=     43.000   => boxcut(ratio)=   2.17509

--- Pseudopotential description ------------------------------------------------
- pspini: atom type   1  psp file is /scratch/users/j/a/jabreu/pseudos/PBEsol/Ga.psp8
- pspatm: opening atomic psp file    /scratch/users/j/a/jabreu/pseudos/PBEsol/Ga.psp8
- Ga    ONCVPSP-3.3.0  r_core=   1.66857   1.75011   1.90252
- 31.00000  13.00000    180112                znucl, zion, pspdat
    8 -116133    2    4       600   0.00000   pspcod,pspxc,lmax,lloc,mmax,r2well
    5.99000000000000    5.00000000000000    0.00000000000000   rchrg,fchrg,qchrg
     nproj     2     2     2
     extension_switch     1
  pspatm : epsatm=   24.50969055
         --- l  ekb(1:nproj) -->
             0    7.053021    1.156713
             1    6.846070    1.293139
             2   -8.368667   -2.819170
 pspatm: atomic psp has been read  and splines computed

- pspini: atom type   2  psp file is /scratch/users/j/a/jabreu/pseudos/PBEsol/Te.psp8
- pspatm: opening atomic psp file    /scratch/users/j/a/jabreu/pseudos/PBEsol/Te.psp8
- Te    ONCVPSP-3.3.0  r_core=   2.26547   1.91704   1.80604
- 52.00000  16.00000    180112                znucl, zion, pspdat
    8 -116133    2    4       600   0.00000   pspcod,pspxc,lmax,lloc,mmax,r2well
    5.99000000000000    5.00000000000000    0.00000000000000   rchrg,fchrg,qchrg
     nproj     2     2     2
     extension_switch     1
  pspatm : epsatm=   36.82679836
         --- l  ekb(1:nproj) -->
             0    6.345999    0.785432
             1    5.709019    1.070069
             2   -6.035173   -1.870937
 pspatm: atomic psp has been read  and splines computed

- pspini: atom type   3  psp file is /scratch/users/j/a/jabreu/pseudos/PBEsol/Se.psp8
- pspatm: opening atomic psp file    /scratch/users/j/a/jabreu/pseudos/PBEsol/Se.psp8
- Se    ONCVPSP-3.3.0  r_core=   1.81943   1.50330   1.90835
- 34.00000  16.00000    180112                znucl, zion, pspdat
    8 -116133    2    4       600   0.00000   pspcod,pspxc,lmax,lloc,mmax,r2well
    5.99000000000000    5.00000000000000    0.00000000000000   rchrg,fchrg,qchrg
     nproj     2     2     2
     extension_switch     1
  pspatm : epsatm=   29.17862020
         --- l  ekb(1:nproj) -->
             0    8.973804    1.019550
             1    6.849857    1.297308
             2   -9.203962   -3.731027
 pspatm: atomic psp has been read  and splines computed

   4.26842123E+04                                ecore*ucvol(ha*bohr**3)

 ==>  initialize data related to q vector <==

 The list of irreducible perturbations for this q vector is:
    1)    idir= 1    ipert=  11
    2)    idir= 2    ipert=  11
    3)    idir= 3    ipert=  11

 Perturbation wavevector (in red.coord.)   0.000000  0.000000  0.000000
 Perturbation : derivative vs k along direction   1

 dfpt_looppert : COMMENT -
[...]
 Perturbation : derivative vs k along direction   2
 The set of symmetries contains only one element for this perturbation.
 symkpt : not enough symmetry to change the number of k points.

[...]

 Perturbation wavevector (in red.coord.)   0.000000  0.000000  0.000000
 Perturbation : derivative vs k along direction   3
 The set of symmetries contains only one element for this perturbation.
 symkpt : not enough symmetry to change the number of k points.

 Initialisation of the first-order wave-functions :
  ireadwf=   0

--- !BeginCycle
iteration_state: {dtset: 1, }
solver: {iscf: 7, nstep: 2000, nline: 4, wfoptalg: 0, }
tolerances: {tolwfr: 1.00E-20, }
...

     iter   2DEtotal(Ha)        deltaE(Ha) residm    vres2
-ETOT  1  -160.35079559550     -1.604E+02 8.036E-02 0.000E+00
 ETOT  2  -160.52635307964     -1.756E-01 5.838E-03 0.000E+00
 ETOT  3  -160.52724446212     -8.914E-04 2.788E-04 0.000E+00
 ETOT  4  -160.52725539516     -1.093E-05 6.278E-05 0.000E+00
 ETOT  5  -160.52725556085     -1.657E-07 3.036E-06 0.000E+00
 ETOT  6  -160.52725556358     -2.735E-09 7.626E-07 0.000E+00
 ETOT  7  -160.52725556363     -4.738E-11 3.676E-08 0.000E+00
 ETOT  8  -160.52725556363     -7.674E-13 9.515E-09 0.000E+00
 ETOT  9  -160.52725556363      5.684E-14 4.604E-10 0.000E+00
 ETOT 10  -160.52725556363     -1.137E-13 1.206E-10 0.000E+00
 ETOT 11  -160.52725556363      2.842E-14 5.860E-12 0.000E+00
 ETOT 12  -160.52725556363      2.842E-14 1.545E-12 0.000E+00
 ETOT 13  -160.52725556363      0.000E+00 7.526E-14 0.000E+00
 ETOT 14  -160.52725556363      0.000E+00 1.993E-14 0.000E+00
 ETOT 15  -160.52725556363      2.842E-14 9.724E-16 0.000E+00
 ETOT 16  -160.52725556363      0.000E+00 2.586E-16 0.000E+00
 ETOT 17  -160.52725556363     -8.527E-14 1.262E-17 0.000E+00
 ETOT 18  -160.52725556363      5.684E-14 3.368E-18 0.000E+00
 ETOT 19  -160.52725556363      0.000E+00 1.643E-19 0.000E+00
 ETOT 20  -160.52725556363     -2.842E-14 4.401E-20 0.000E+00
 ETOT 21  -160.52725556363      0.000E+00 9.971E-21 0.000E+00

 At SCF step   21   max residual=  9.97E-21 < tolwfr=  1.00E-20 =>converged.

 ----iterations are completed or convergence reached----

 dfpt_looppert: DFPT cycle converged with prtwf=-1. Will skip output of the 1st-order WFK file.
 dfpt_looppert : ek2=    1.2399360280E+02
          f-sum rule ratio=    1.0788430167E+00
 prteigrs : about to open file /scratch/users/j/a/jabreu/flow_simple_10atoms/flow/w383/t1/tmpdata/tmp_1WF1_EIG
 Expectation of eigenvalue derivatives (hartree) for nkpt=   2  k points:
  (in case of degenerate eigenvalues, averaged derivative)
 kpt#   1, nband= 83, wtk=  0.50000, kpt=  0.0000  0.0000  0.0000 (reduced coord)
   0.00000    0.00000    0.00000   -0.00000    0.00000    0.00000    0.00000   -0.00000
   0.00000   -0.00000   -0.00000   -0.00000   -0.00000   -0.00000    0.00000    0.00000
   0.00000    0.00000    0.00000    0.00000    0.00000    0.00000   -0.00000    0.00000
  -0.00000    0.00000   -0.00000   -0.00000   -0.00000    0.00000   -0.00000   -0.00000
  -0.00000    0.00000    0.00000    0.00000    0.00000    0.00000    0.00000    0.00000
  -0.00000   -0.00000    0.00000    0.00000    0.00000   -0.00000   -0.00000   -0.00000
  -0.00000   -0.00000    0.00000    0.00000   -0.00000   -0.00000   -0.00000    0.00000
   0.00000   -0.00000   -0.00000    0.00000   -0.00000    0.00000   -0.00000   -0.00000
  -0.00000    0.00000   -0.00000   -0.00000   -0.00000   -0.00000   -0.00000   -0.00000
   0.00000    0.00000    0.00000    0.00000    0.00000    0.00000    0.00000   -0.00000
  -0.00000    0.00000   -0.00003
 prteigrs : prtvol=0 or 1, do not print more k-points.

 Eight components of 2nd-order total energy (hartree) are
 1,2,3: 0th-order hamiltonian combined with 1st-order wavefunctions
     kin0=   1.82189017E+02 eigvalue=   2.40090977E+01  local=  -8.01189709E+01
 4,5,6: 1st-order hamiltonian combined with 1st and 0th-order wfs
     kin1=  -1.33769632E+02  Hartree=   0.00000000E+00     xc=   0.00000000E+00
 7,8,9: eventually, occupation + non-local contributions
    edocc=   1.49571135E+01     enl0=   1.94909983E+01   enl1=  -1.87284879E+02
 1-9 gives the relaxation energy (to be shifted if some occ is /=2.0)
   erelax=  -1.60527256E+02
  No Ewald or frozen-wf contrib.: the relaxation energy is the total one
 2DEtotal=   -0.1605272556E+03 Ha. Also 2DEtotal=   -0.436816877113E+04 eV
    (  non-var. 2DEtotal :   -1.6052725556E+02 Ha)

 CALCULATION OF EFFECTIVE MASSES
 NOTE : Additional infos (eff. mass eigenvalues, eigenvectors and, if degenerate, average mass) are available in stdout.

 COMMENTS:
 - At k-point ( 0.000, 0.000, 0.000), bands    73 through    74
   are DEGENERATE (effective mass tensor is therefore not defined).
   See Section IIIB Eqs. (67)-(70) and Appendix E of PRB 93 205147 (2016).
 - Angular average effective mass for Frohlich model is to be averaged over degenerate bands. See later.
 - Associated theta integrals calculated with ntheta=   1000 points.

 K-point ( 0.000, 0.000, 0.000) | band =    73
 Transport equivalent effective mass tensor:
             -0.3207717519             -0.2392518130              0.3073597831
             -0.2392518130             -0.4797996523              0.4260388545
              0.3073597831              0.4260388545             -0.6954853156
 Transport equivalent effective mass tensor eigenvalues:
             -1.1997235123             -0.1481668846             -0.1481663229
 Angular average effective mass 1/(<1/m>)=  -0.2090563384
 Angular average effective mass for Frohlich model (<m**0.5>)**2=  -0.2478896972
 Effective masses along directions: (cart. coord. / red. coord. -> eff. mass)
    1:   1.000000  0.000000  0.000000 /   0.953697 -0.300769  0.000000 ->  -0.1715430018
    2:   0.000000  1.000000  0.000000 /   0.000000  1.000000  0.000000 ->  -0.2003451250
    3:   0.000000  0.000000  1.000000 /  -0.419172 -0.419172  0.805351 ->  -0.2776146792
    4:   0.577350  0.577350  0.577350 /   0.316215  0.019470  0.948488 ->  -0.1535915857
    5:   0.000000  0.707107  0.707107 /  -0.447151  0.248981  0.859107 ->  -0.1491364672
    6:   0.707107  0.000000  0.707107 /   0.253114 -0.599605  0.759215 ->  -0.1520592554
    7:   0.707107  0.707107  0.000000 /   0.844718  0.535211  0.000000 ->  -0.2538384228

 K-point ( 0.000, 0.000, 0.000) | band =    74
 Transport equivalent effective mass tensor:
             -2.0936522700              0.1335687949             -0.1715906347
              0.1335687949             -2.0048771832             -0.2378442622
             -0.1715906347             -0.2378442622             -1.8844608318
 Transport equivalent effective mass tensor eigenvalues:
             -2.1900166867             -2.1900129915             -1.6029606068
 Angular average effective mass 1/(<1/m>)=  -1.5515830201
 Angular average effective mass for Frohlich model (<m**0.5>)**2=  -1.5934214206
 Effective masses along directions: (cart. coord. / red. coord. -> eff. mass)
    1:   1.000000  0.000000  0.000000 /   0.953697 -0.300769  0.000000 ->  -1.8113662600
    2:   0.000000  1.000000  0.000000 /   0.000000  1.000000  0.000000 ->  -1.8596249118
    3:   0.000000  0.000000  1.000000 /  -0.419172 -0.419172  0.805351 ->  -1.2970980848
    4:   0.577350  0.577350  0.577350 /   0.316215  0.019470  0.948488 ->  -1.4643717008
    5:   0.000000  0.707107  0.707107 /  -0.447151  0.248981  0.859107 ->  -1.8889458323
    6:   0.707107  0.000000  0.707107 /   0.253114 -0.599605  0.759215 ->  -2.2303943043
    7:   0.707107  0.707107  0.000000 /   0.844718  0.535211  0.000000 ->  -1.3634541820

 Angular average effective mass for Frohlich model, averaged over degenerate bands.
 Value of     (<<m**0.5>>)**2 =     7.745700E-01
 Absolute Value of <<m**0.5>> =     8.800966E-01

 K-point ( 0.000, 0.500, 0.000) | band =    75
 Effective mass tensor:
              0.3705296275              0.0135117280              0.0141513219
              0.0135117280              0.3275787445             -0.0240637475
              0.0141513219             -0.0240637475              0.3532761304
 Effective mass tensor eigenvalues:
              0.3074643762              0.3654437532              0.3784763730
 Angular average effective mass 1/(<1/m>)=   0.3475850388
 Angular average effective mass for Frohlich model (<m**0.5>)**2=   0.3484708089
 Effective masses along directions: (cart. coord. / red. coord. -> eff. mass)
    1:   1.000000  0.000000  0.000000 /   0.953697 -0.300769  0.000000 ->   0.3693198681
    2:   0.000000  1.000000  0.000000 /   0.000000  1.000000  0.000000 ->   0.3253732249
    3:   0.000000  0.000000  1.000000 /  -0.419172 -0.419172  0.805351 ->   0.3508885444
    4:   0.577350  0.577350  0.577350 /   0.316215  0.019470  0.948488 ->   0.3494265688
    5:   0.000000  0.707107  0.707107 /  -0.447151  0.248981  0.859107 ->   0.3148798054
    6:   0.707107  0.000000  0.707107 /   0.253114 -0.599605  0.759215 ->   0.3756376357
    7:   0.707107  0.707107  0.000000 /   0.844718  0.535211  0.000000 ->   0.3609739416

 END OF EFFECTIVE MASSES SECTION

 ---- first-order wavefunction calculations are completed ----

 Total localisation tensor (bohr^2) in cartesian coordinates
  WARNING : still subject to testing - especially symmetries.
      direction              matrix element
   alpha     beta       real part   imaginary part
     1        1       1.6778730667    0.0000000000
     1        2      -0.4414203622    0.0000000000
     1        3      -0.6497977017    0.0000000000
     2        1      -0.4414203622    0.0000000000
     2        2       1.3282560163    0.0000000000
     2        3      -0.8531865081    0.0000000000
     3        1      -0.6497977017    0.0000000000
     3        2      -0.8531865081    0.0000000000
     3        3       4.0220050515    0.0000000000

 respfn : d/dk was computed, but no 2DTE, so no DDB output.

== END DATASET(S) ==============================================================

 -outvars: echo values of variables after computation  --------
            acell      1.0000000000E+00  1.0000000000E+00  1.0000000000E+00 Bohr
              amu      6.97230000E+01  1.27600000E+02  7.89600000E+01
             ecut      4.30000000E+01 Hartree
           etotal     -1.6052725556E+02
            fcart      0.0000000000E+00  0.0000000000E+00  0.0000000000E+00
                       0.0000000000E+00  0.0000000000E+00  0.0000000000E+00
                       0.0000000000E+00  0.0000000000E+00  0.0000000000E+00
                       0.0000000000E+00  0.0000000000E+00  0.0000000000E+00
                       0.0000000000E+00  0.0000000000E+00  0.0000000000E+00
                       0.0000000000E+00  0.0000000000E+00  0.0000000000E+00
                       0.0000000000E+00  0.0000000000E+00  0.0000000000E+00
                       0.0000000000E+00  0.0000000000E+00  0.0000000000E+00
                       0.0000000000E+00  0.0000000000E+00  0.0000000000E+00
                       0.0000000000E+00  0.0000000000E+00  0.0000000000E+00
-          fftalg         512
           irdden           1
           irdwfk           1
           istwfk        1    1
              ixc     -116133
              kpt      0.00000000E+00  0.00000000E+00  0.00000000E+00
                       0.00000000E+00  5.00000000E-01  0.00000000E+00
           kptopt           0
P           mkmem           2
P          mkqmem           2
P          mk1mem           2
            natom          10
            nband          83
           nbdbuf           4
            ngfft          90      90      90
             nkpt           2
            nstep        2000
             nsym           8
           ntypat           3
              occ      2.000000  2.000000  2.000000  2.000000  2.000000  2.000000
                       2.000000  2.000000  2.000000  2.000000  2.000000  2.000000
                       2.000000  2.000000  2.000000  2.000000  2.000000  2.000000
                       2.000000  2.000000  2.000000  2.000000  2.000000  2.000000
                       2.000000  2.000000  2.000000  2.000000  2.000000  2.000000
                       2.000000  2.000000  2.000000  2.000000  2.000000  2.000000
                       2.000000  2.000000  2.000000  2.000000  2.000000  2.000000
                       2.000000  2.000000  2.000000  2.000000  2.000000  2.000000
                       2.000000  2.000000  2.000000  2.000000  2.000000  2.000000
                       2.000000  2.000000  2.000000  2.000000  2.000000  2.000000
                       2.000000  2.000000  2.000000  2.000000  2.000000  2.000000
                       2.000000  2.000000  2.000000  2.000000  2.000000  2.000000
                       2.000000  2.000000  0.000000  0.000000  0.000000  0.000000
                       0.000000  0.000000  0.000000  0.000000  0.000000
        optdriver           1
            prtwf          -1
            rfdir           1       1       1
           rfelfd           2
            rprim      1.1970626676E+01  0.0000000000E+00 -7.2967722701E+00
                      -3.7751931465E+00  1.1359745584E+01 -7.2967722701E+00
                       0.0000000000E+00  0.0000000000E+00  1.4019229243E+01
          spgroup         109
           strten      0.0000000000E+00  0.0000000000E+00  0.0000000000E+00
                       0.0000000000E+00  0.0000000000E+00  0.0000000000E+00
           symrel      1  0  0   0  1  0   0  0  1       1  1  1   0  0 -1   0 -1  0
                       0  1  0   1  0  0  -1 -1 -1       0  0 -1   1  1  1  -1  0  0
                       0  1  0   1  0  0   0  0  1       1  1  1   0  0 -1  -1  0  0
                       1  0  0   0  1  0  -1 -1 -1       0  0 -1   1  1  1   0 -1  0
            tnons      0.0000000  0.0000000  0.0000000     0.0000000  0.0000000  0.0000000
                       0.0000000  0.0000000  0.0000000     0.0000000  0.0000000  0.0000000
                      -0.2500000  0.2500000  0.5000000    -0.2500000  0.2500000  0.5000000
                      -0.2500000  0.2500000  0.5000000    -0.2500000  0.2500000  0.5000000
           tolwfr      1.00000000E-20
            typat      1  1  1  1  2  2  3  3  3  3
           useylm           1
              wtk        0.50000    0.50000
           xangst      4.5653755952E+00  3.9156105381E+00 -7.1087210201E-01
                       2.1906654751E+00  1.0587795314E+00 -5.5891481918E-01
                       5.6716200823E+00  1.0587795314E+00  1.3959174720E+00
                       5.4653282813E+00  1.2076077537E+00 -2.3134108268E+00
                       3.2763888672E+00  1.5122072713E-01  1.5844165078E+00
                       3.3617249412E+00  4.6597095708E+00 -5.9861973726E+00
                      -8.3597600247E-01  5.4087889808E+00  1.4886159423E+00
                       3.3133301032E+00  2.4152921518E+00 -2.2207123565E+00
                       1.7167158784E-01  2.4152921518E+00  3.4336536349E+00
                       1.5481320323E-01  2.4274545519E+00 -2.7567466390E-01
            xcart      8.6273095687E+00  7.3994315600E+00 -1.3433535883E+00
                       4.1397577967E+00  2.0008033494E+00 -1.0561959399E+00
                       1.0717808685E+01  2.0008033494E+00  2.6379017262E+00
                       1.0327973678E+01  2.2820479305E+00 -4.3717128954E+00
                       6.1914776639E+00  2.8576575990E-01  2.9941132801E+00
                       6.3527394730E+00  8.8055749475E+00 -1.1312273612E+01
                      -1.5797656983E+00  1.0221129884E+01  2.8130764479E+00
                       6.2612864830E+00  4.5642406978E+00 -4.1965381737E+00
                       3.2441228582E-01  4.5642406978E+00  6.4886650051E+00
                       2.9255455586E-01  4.5872243031E+00 -5.2094961654E-01
             xred      9.2613100000E-01  6.5137300000E-01  7.2524200000E-01
                       4.0137300000E-01  1.7613100000E-01  2.2524200000E-01
                       9.5088900000E-01  1.7613100000E-01  7.7475800000E-01
                       9.2613100000E-01  2.0088900000E-01  2.7475800000E-01
                       5.2515600000E-01  2.5156000000E-02  5.0000000000E-01
                       7.7515600000E-01  7.7515600000E-01  0.0000000000E+00
                       1.5179075000E-01  8.9976750000E-01  7.4797675000E-01
                       6.4976750000E-01  4.0179075000E-01  2.4797675000E-01
                       1.5381400000E-01  4.0179075000E-01  7.5202325000E-01
                       1.5179075000E-01  4.0381400000E-01  2.5202325000E-01
            znucl       31.00000   52.00000   34.00000

- Timing analysis has been suppressed with timopt=0

 Suggested references for the acknowledgment of ABINIT usage.

 Calculation completed.
.Delivered   2 WARNINGs and   7 COMMENTs to log file.