.Version 9.5.2 of ABINIT

 ABINIT is a project of the Universite Catholique de Louvain,
 Corning Inc. and other collaborators, see ~abinit/doc/developers/contributors.txt .
 acknowledgments of the ABINIT effort.

.Starting date : Wed 26 May 2021.
- ( at 02h19 )

- input  file    -> /scratch/users/j/a/jabreu/flow_simple_11atoms/flow/w228/t1/run.abi
- output file    -> /scratch/users/j/a/jabreu/flow_simple_11atoms/flow/w228/t1/run.abo
- root for input  files -> /scratch/users/j/a/jabreu/flow_simple_11atoms/flow/w228/t1/indata/in
- root for output files -> /scratch/users/j/a/jabreu/flow_simple_11atoms/flow/w228/t1/outdata/out

 Symmetries : space group P2_1/c (# 14); Bravais mP (primitive monocl.)
     intxc =       0      iscf =       7    lmnmax =       8     lnmax =       4
     mgfft =      72  mpssoang =       2    mqgrid =    3001     natom =      12
  nloc_mem =       1    nspden =       1   nspinor =       1    nsppol =       1
      nsym =       4    n1xccc =    2501    ntypat =       3    occopt =       1
   xclevel =       2
-    mband =          33        mffmem =           1         mkmem =           2
-   mkqmem =           2        mk1mem =           2           mpw =        9469
      nfft =      209952          nkpt =           2
  Rough estimation (10% accuracy) of disk space for files :

------------- Echo of variables that govern the present computation ------------
-
- outvars: echo of selected default values
-   iomode0 =  0 , fftalg0 =512 , wfoptalg0 =  0
-
- outvars: echo of global parameters not present in the input file
-  max_nthreads =    0
-
 -outvars: echo values of preprocessed input variables --------
            acell      1.0000000000E+00  1.0000000000E+00  1.0000000000E+00 Bohr
              amu      6.94100000E+00  9.01218200E+00  1.40067400E+01
             ecut      4.40000000E+01 Hartree
-          fftalg         512
           irdden           1
           irdwfk           1
           istwfk        0    1
              ixc     -116133
              kpt      1.42857143E-01  5.00000000E-01  0.00000000E+00
                       0.00000000E+00  0.00000000E+00  0.00000000E+00
           kptopt           0
P           mkmem           2
P          mkqmem           2
P          mk1mem           2
            natom          12
            nband          33
           nbdbuf           4
            ngfft          54      54      72
             nkpt           2
            nstep        2000
             nsym           4
           ntypat           3
              occ      2.000000  2.000000  2.000000  2.000000  2.000000  2.000000
                       2.000000  2.000000  2.000000  2.000000  2.000000  2.000000
                       2.000000  2.000000  2.000000  2.000000  2.000000  2.000000
                       2.000000  2.000000  2.000000  2.000000  2.000000  2.000000
                       0.000000  0.000000  0.000000  0.000000  0.000000  0.000000
                       0.000000  0.000000  0.000000
        optdriver           1
            prtwf          -1
            rfdir           1       1       1
           rfelfd           2
            rprim      8.9022082262E+00  0.0000000000E+00  0.0000000000E+00
                       0.0000000000E+00  6.9589478266E+00  4.9276095554E+00
                       0.0000000000E+00  0.0000000000E+00  1.0945131462E+01
          spgroup          14
           symrel      1  0  0   0  1  0   0  0  1      -1  0  0   0 -1  0   0  0 -1
                       1  0  0   0 -1  0   0  0 -1      -1  0  0   0  1  0   0  0  1
            tnons      0.0000000  0.0000000  0.0000000     0.0000000  0.0000000  0.0000000
                       0.5000000  0.0000000  0.5000000     0.5000000  0.0000000  0.5000000
           tolwfr      1.00000000E-20
            typat      1  1  1  1  2  2  2  2  3  3  3  3
           useylm           1
              wtk        0.50000    0.50000
           xangst      2.5647681218E+00  1.1917654776E+00  3.2267773990E+00
                       2.0934527204E-01  2.4907511080E+00  2.2767583279E+00
                       2.1460775777E+00  2.4907511080E+00  5.1727153852E+00
                       4.5015004274E+00  1.1917654776E+00  6.1227344563E+00
                       1.8549661568E+00  3.0908466458E-01  8.3447286789E-01
                       4.2103890065E+00  3.3734319210E+00  4.6690628590E+00
                       2.8558795426E+00  3.3734319210E+00  7.5650199163E+00
                       5.0045669288E-01  3.0908466458E-01  3.7304299252E+00
                       9.2832396437E-01  5.6317094395E-01  2.1394061866E+00
                       3.2837468141E+00  3.1193456417E+00  3.3641295402E+00
                       3.7825217351E+00  3.1193456417E+00  6.2600865976E+00
                       1.4270988853E+00  5.6317094395E-01  5.0353632440E+00
            xcart      4.8467093445E+00  2.2521103672E+00  6.0977255759E+00
                       3.9560523136E-01  4.7068374594E+00  4.3024497105E+00
                       4.0554988817E+00  4.7068374594E+00  9.7750154414E+00
                       8.5066029948E+00  2.2521103672E+00  1.1570291307E+01
                       3.5053780222E+00  5.8408536793E-01  1.5769251856E+00
                       7.9564821353E+00  6.3748624587E+00  8.8232501007E+00
                       5.3968302040E+00  6.3748624587E+00  1.4295815832E+01
                       9.4572609091E-01  5.8408536793E-01  7.0494909166E+00
                       1.7542780553E+00  1.0642388501E+00  4.0428917798E+00
                       6.2053821684E+00  5.8947089765E+00  6.3572835066E+00
                       7.1479301709E+00  5.8947089765E+00  1.1829849238E+01
                       2.6968260578E+00  1.0642388501E+00  9.5154575107E+00
             xred      5.4443900000E-01  3.2362800000E-01  4.1141700000E-01
                       4.4439000000E-02  6.7637200000E-01  8.8583000000E-02
                       4.5556100000E-01  6.7637200000E-01  5.8858300000E-01
                       9.5556100000E-01  3.2362800000E-01  9.1141700000E-01
                       3.9376500000E-01  8.3933000000E-02  1.0628800000E-01
                       8.9376500000E-01  9.1606700000E-01  3.9371200000E-01
                       6.0623500000E-01  9.1606700000E-01  8.9371200000E-01
                       1.0623500000E-01  8.3933000000E-02  6.0628800000E-01
                       1.9706100000E-01  1.5293100000E-01  3.0052700000E-01
                       6.9706100000E-01  8.4706900000E-01  1.9947300000E-01
                       8.0293900000E-01  8.4706900000E-01  6.9947300000E-01
                       3.0293900000E-01  1.5293100000E-01  8.0052700000E-01
            znucl        3.00000    4.00000    7.00000

 chkinp: Checking input parameters for consistency.

== DATASET  1 ==================================================================
-   mpi_nproc: 1, omp_nthreads: -1 (-1 if OMP is not activated)

--- !DatasetInfo
iteration_state: {dtset: 1, }
dimensions: {natom: 12, nkpt: 2, mband: 33, nsppol: 1, nspinor: 1, nspden: 1, mpw: 9469, }
cutoff_energies: {ecut:  44.0, pawecutdg:  -1.0, }
electrons: {nelect:   4.80000000E+01, charge:   0.00000000E+00, occopt:   1.00000000E+00, tsmear:   1.00000000E-02, }
meta: {optdriver: 1, rfelfd: 2, }
...

 Real(R)+Recip(G) space primitive vectors, cartesian coordinates (Bohr,Bohr^-1):
 R(1)=  8.9022082  0.0000000  0.0000000  G(1)=  0.1123317  0.0000000  0.0000000
 R(2)=  0.0000000  6.9589478  4.9276096  G(2)=  0.0000000  0.1436999  0.0000000
 R(3)=  0.0000000  0.0000000 10.9451315  G(3)=  0.0000000 -0.0646952  0.0913648
 Unit cell volume ucvol=  6.7805092E+02 bohr^3
 Angles (23,13,12)=  5.46978073E+01  9.00000000E+01  9.00000000E+01 degrees

 getcut: wavevector=  0.0000  0.0000  0.0000  ngfft=  54  54  72
         ecut(hartree)=     44.000   => boxcut(ratio)=   2.03144

--- Pseudopotential description ------------------------------------------------
- pspini: atom type   1  psp file is /scratch/users/j/a/jabreu/pseudos/PBEsol/Li.psp8
- pspatm: opening atomic psp file    /scratch/users/j/a/jabreu/pseudos/PBEsol/Li.psp8
- Li    ONCVPSP-3.3.0  r_core=   1.40824   1.10935
-  3.00000   3.00000    180112                znucl, zion, pspdat
    8 -116133    1    4       400   0.00000   pspcod,pspxc,lmax,lloc,mmax,r2well
    3.99000000000000    0.00000000000000    0.00000000000000   rchrg,fchrg,qchrg
     nproj     2     2
     extension_switch     1
  pspatm : epsatm=    2.60859637
         --- l  ekb(1:nproj) -->
             0   -4.855856   -1.482423
             1   -2.171544   -0.427615
 pspatm: atomic psp has been read  and splines computed

- pspini: atom type   2  psp file is /scratch/users/j/a/jabreu/pseudos/PBEsol/Be.psp8
- pspatm: opening atomic psp file    /scratch/users/j/a/jabreu/pseudos/PBEsol/Be.psp8
- Be    ONCVPSP-3.3.0  r_core=   1.35684   1.10780
-  4.00000   4.00000    180112                znucl, zion, pspdat
    8 -116133    1    4       400   0.00000   pspcod,pspxc,lmax,lloc,mmax,r2well
    3.99000000000000    0.00000000000000    0.00000000000000   rchrg,fchrg,qchrg
     nproj     2     2
     extension_switch     1
  pspatm : epsatm=    3.86293307
         --- l  ekb(1:nproj) -->
             0   -7.966826   -2.672546
             1   -3.431835   -0.651830
 pspatm: atomic psp has been read  and splines computed

- pspini: atom type   3  psp file is /scratch/users/j/a/jabreu/pseudos/PBEsol/N.psp8
- pspatm: opening atomic psp file    /scratch/users/j/a/jabreu/pseudos/PBEsol/N.psp8
- N     ONCVPSP-3.3.0  r_core=   1.20551   1.35824
-  7.00000   5.00000    180112                znucl, zion, pspdat
    8 -116133    1    4       600   0.00000   pspcod,pspxc,lmax,lloc,mmax,r2well
    5.99000000000000    4.00000000000000    0.00000000000000   rchrg,fchrg,qchrg
     nproj     2     2
     extension_switch     1
  pspatm : epsatm=    5.26508895
         --- l  ekb(1:nproj) -->
             0    7.464189    0.625868
             1   -4.309714   -1.012941
 pspatm: atomic psp has been read  and splines computed

   2.25343073E+03                                ecore*ucvol(ha*bohr**3)

 ==>  initialize data related to q vector <==

 The list of irreducible perturbations for this q vector is:
    1)    idir= 1    ipert=  13
    2)    idir= 2    ipert=  13
    3)    idir= 3    ipert=  13

 Perturbation wavevector (in red.coord.)   0.000000  0.000000  0.000000
 Perturbation : derivative vs k along direction   1

 dfpt_looppert : COMMENT -
  In a d/dk calculation, iscf is set to -3 automatically.
 The set of symmetries contains only one element for this perturbation.
 symkpt : not enough symmetry to change the number of k points.

 Initialisation of the first-order wave-functions :
  ireadwf=   0

--- !BeginCycle
iteration_state: {dtset: 1, }
solver: {iscf: 7, nstep: 2000, nline: 4, wfoptalg: 0, }
tolerances: {tolwfr: 1.00E-20, }
...

     iter   2DEtotal(Ha)        deltaE(Ha) residm    vres2
-ETOT  1  -26.195744165855     -2.620E+01 3.320E-02 0.000E+00
 ETOT  2  -26.206314672597     -1.057E-02 4.092E-04 0.000E+00
 ETOT  3  -26.206320380658     -5.708E-06 7.030E-06 0.000E+00
 ETOT  4  -26.206320389026     -8.368E-09 2.127E-07 0.000E+00
 ETOT  5  -26.206320389045     -1.839E-11 9.603E-09 0.000E+00
 ETOT  6  -26.206320389045     -3.553E-14 5.162E-10 0.000E+00
 ETOT  7  -26.206320389045      3.553E-15 2.609E-11 0.000E+00
 ETOT  8  -26.206320389045     -7.105E-15 1.427E-12 0.000E+00
 ETOT  9  -26.206320389045     -1.066E-14 7.467E-14 0.000E+00
 ETOT 10  -26.206320389045     -7.105E-15 4.086E-15 0.000E+00
 ETOT 11  -26.206320389045      1.066E-14 2.176E-16 0.000E+00
 ETOT 12  -26.206320389045     -3.553E-15 1.192E-17 0.000E+00
 ETOT 13  -26.206320389045     -7.105E-15 6.415E-19 0.000E+00
 ETOT 14  -26.206320389045      3.553E-15 3.529E-20 0.000E+00
 ETOT 15  -26.206320389045      7.105E-15 9.689E-21 0.000E+00

 At SCF step   15   max residual=  9.69E-21 < tolwfr=  1.00E-20 =>converged.

 ----iterations are completed or convergence reached----

 dfpt_looppert: DFPT cycle converged with prtwf=-1. Will skip output of the 1st-order WFK file.
 dfpt_looppert : ek2=    4.7822852057E+01
          f-sum rule ratio=    1.0289312176E+00
 prteigrs : about to open file /scratch/users/j/a/jabreu/flow_simple_11atoms/flow/w228/t1/tmpdata/tmp_1WF1_EIG
 Expectation of eigenvalue derivatives (hartree) for nkpt=   2  k points:
  (in case of degenerate eigenvalues, averaged derivative)
 kpt#   1, nband= 33, wtk=  0.50000, kpt=  0.1429  0.5000  0.0000 (reduced coord)
   0.00002   -0.00002    0.00002   -0.00002    0.00046   -0.00046    0.00037   -0.00036
   0.01946   -0.02002    0.00317   -0.00174   -0.11268   -0.10887   -0.05581    0.14191
   0.18192   -0.16060    0.09854    0.14901   -0.00420   -0.03396   -0.00671   -0.00129
  -0.00505   -0.03942    0.06778   -0.03306    0.10250   -0.02204   -0.00962   -0.05972
  -0.05091
 prteigrs : prtvol=0 or 1, do not print more k-points.

 Eight components of 2nd-order total energy (hartree) are
 1,2,3: 0th-order hamiltonian combined with 1st-order wavefunctions
     kin0=   3.26131003E+01 eigvalue=   3.92171719E+00  local=  -1.27821583E+01
 4,5,6: 1st-order hamiltonian combined with 1st and 0th-order wfs
     kin1=  -4.92064254E+01  Hartree=   0.00000000E+00     xc=   0.00000000E+00
 7,8,9: eventually, occupation + non-local contributions
    edocc=   6.03306853E+00     enl0=  -3.57940734E+00   enl1=  -3.20621538E+00
 1-9 gives the relaxation energy (to be shifted if some occ is /=2.0)
   erelax=  -2.62063204E+01
  No Ewald or frozen-wf contrib.: the relaxation energy is the total one
 2DEtotal=   -0.2620632039E+02 Ha. Also 2DEtotal=   -0.713110243664E+03 eV
    (  non-var. 2DEtotal :   -2.6206320389E+01 Ha)

 Perturbation wavevector (in red.coord.)   0.000000  0.000000  0.000000
 Perturbation : derivative vs k along direction   2
 The set of symmetries contains only one element for this perturbation.
 symkpt : not enough symmetry to change the number of k points.

[...]

 Perturbation wavevector (in red.coord.)   0.000000  0.000000  0.000000
 Perturbation : derivative vs k along direction   3
 The set of symmetries contains only one element for this perturbation.
 symkpt : not enough symmetry to change the number of k points.

 Initialisation of the first-order wave-functions :
  ireadwf=   0

--- !BeginCycle
iteration_state: {dtset: 1, }
solver: {iscf: 7, nstep: 2000, nline: 4, wfoptalg: 0, }
tolerances: {tolwfr: 1.00E-20, }
...

     iter   2DEtotal(Ha)        deltaE(Ha) residm    vres2
-ETOT  1  -27.653187483796     -2.765E+01 8.387E-02 0.000E+00
 ETOT  2  -27.664329563092     -1.114E-02 2.948E-03 0.000E+00
 ETOT  3  -27.664335783685     -6.221E-06 4.610E-05 0.000E+00
 ETOT  4  -27.664335794200     -1.052E-08 3.490E-06 0.000E+00
 ETOT  5  -27.664335794226     -2.538E-11 8.661E-08 0.000E+00
 ETOT  6  -27.664335794226     -8.171E-14 6.929E-09 0.000E+00
 ETOT  7  -27.664335794226      1.421E-14 1.890E-10 0.000E+00
 ETOT  8  -27.664335794226     -3.553E-15 1.540E-11 0.000E+00
 ETOT  9  -27.664335794226     -1.421E-14 4.346E-13 0.000E+00
 ETOT 10  -27.664335794226      1.776E-14 3.642E-14 0.000E+00
 ETOT 11  -27.664335794226     -7.105E-15 1.043E-15 0.000E+00
 ETOT 12  -27.664335794226      0.000E+00 9.013E-17 0.000E+00
 ETOT 13  -27.664335794226     -1.066E-14 2.598E-18 0.000E+00
 ETOT 14  -27.664335794226     -3.553E-15 2.302E-19 0.000E+00
 ETOT 15  -27.664335794226      1.421E-14 9.559E-21 0.000E+00

 At SCF step   15   max residual=  9.56E-21 < tolwfr=  1.00E-20 =>converged.

 ----iterations are completed or convergence reached----

 dfpt_looppert: DFPT cycle converged with prtwf=-1. Will skip output of the 1st-order WFK file.
 dfpt_looppert : ek2=    4.7499143634E+01
          f-sum rule ratio=    1.1024448169E+00
 prteigrs : about to open file /scratch/users/j/a/jabreu/flow_simple_11atoms/flow/w228/t1/tmpdata/tmp_1WF1_EIG
 Expectation of eigenvalue derivatives (hartree) for nkpt=   2  k points:
  (in case of degenerate eigenvalues, averaged derivative)
 kpt#   1, nband= 33, wtk=  0.50000, kpt=  0.1429  0.5000  0.0000 (reduced coord)
  -0.00000   -0.00000    0.00000   -0.00000   -0.00000   -0.00000    0.00000    0.00000
   0.00000    0.00000   -0.00000    0.00000   -0.00000   -0.00000    0.00000   -0.00000
  -0.00000   -0.00000    0.00000   -0.00000    0.00000   -0.00000    0.00000    0.00000
  -0.00000    0.00000    0.00000    0.00000    0.00000   -0.00000   -0.00000   -0.00004
  -0.00355
 prteigrs : prtvol=0 or 1, do not print more k-points.

 Eight components of 2nd-order total energy (hartree) are
 1,2,3: 0th-order hamiltonian combined with 1st-order wavefunctions
     kin0=   3.18795716E+01 eigvalue=   3.86489567E+00  local=  -1.23249857E+01
 4,5,6: 1st-order hamiltonian combined with 1st and 0th-order wfs
     kin1=  -5.23651847E+01  Hartree=   0.00000000E+00     xc=   0.00000000E+00
 7,8,9: eventually, occupation + non-local contributions
    edocc=   7.74646514E+00     enl0=  -3.50161087E+00   enl1=  -2.96348688E+00
 1-9 gives the relaxation energy (to be shifted if some occ is /=2.0)
   erelax=  -2.76643358E+01
  No Ewald or frozen-wf contrib.: the relaxation energy is the total one
 2DEtotal=   -0.2766433579E+02 Ha. Also 2DEtotal=   -0.752784860529E+03 eV
    (  non-var. 2DEtotal :   -2.7664335794E+01 Ha)

 CALCULATION OF EFFECTIVE MASSES
 NOTE : Additional infos (eff. mass eigenvalues, eigenvectors and, if degenerate, average mass) are available in stdout.

 K-point ( 0.143, 0.500, 0.000) | band =    24
 Effective mass tensor:
             -3.3239254718             -0.0007112195              0.0005343445
             -0.0007112195             -6.4339310053              2.4086019258
              0.0005343445              2.4086019258             -2.3074077254
 Effective mass tensor eigenvalues:
             -7.5421694786             -3.3239253093             -1.1991694146
 Angular average effective mass 1/(<1/m>)=  -2.3671487246
 Angular average effective mass for Frohlich model (<m**0.5>)**2=  -2.7819400332
 Effective masses along directions: (cart. coord. / red. coord. -> eff. mass)
    1:   1.000000  0.000000  0.000000 /   1.000000  0.000000  0.000000 ->  -3.3239253421
    2:   0.000000  1.000000  0.000000 /   0.000000  1.000000  0.000000 ->  -3.9196968760
    3:   0.000000  0.000000  1.000000 /   0.000000  0.410524  0.911850 ->  -1.4057251659
    4:   0.577350  0.577350  0.577350 /   0.482552  0.644321  0.593290 ->  -1.6666115016
    5:   0.000000  0.707107  0.707107 /   0.000000  0.735638  0.677375 ->  -1.3341166681
    6:   0.707107  0.000000  0.707107 /   0.595700  0.329736  0.732404 ->  -1.9756199092
    7:   0.707107  0.707107  0.000000 /   0.787848  0.615869  0.000000 ->  -3.5974630880

 K-point ( 0.000, 0.000, 0.000) | band =    25
 Effective mass tensor:
              0.8296451140             -0.0000002476             -0.0000000961
             -0.0000002476              0.6927168125              0.0353950209
             -0.0000000961              0.0353950209              0.3996055680
 Effective mass tensor eigenvalues:
              0.3953919695              0.6969304110              0.8296451140
 Angular average effective mass 1/(<1/m>)=   0.5803455565
 Angular average effective mass for Frohlich model (<m**0.5>)**2=   0.5992905540
 Effective masses along directions: (cart. coord. / red. coord. -> eff. mass)
    1:   1.000000  0.000000  0.000000 /   1.000000  0.000000  0.000000 ->   0.8296451140
    2:   0.000000  1.000000  0.000000 /   0.000000  1.000000  0.000000 ->   0.6895817023
    3:   0.000000  0.000000  1.000000 /   0.000000  0.410524  0.911850 ->   0.3977970259
    4:   0.577350  0.577350  0.577350 /   0.482552  0.644321  0.593290 ->   0.6106943883
    5:   0.000000  0.707107  0.707107 /   0.000000  0.735638  0.677375 ->   0.5395045803
    6:   0.707107  0.000000  0.707107 /   0.595700  0.329736  0.732404 ->   0.5377529471
    7:   0.707107  0.707107  0.000000 /   0.787848  0.615869  0.000000 ->   0.7531566766

 END OF EFFECTIVE MASSES SECTION

 ---- first-order wavefunction calculations are completed ----

 Total localisation tensor (bohr^2) in cartesian coordinates
  WARNING : still subject to testing - especially symmetries.
      direction              matrix element
   alpha     beta       real part   imaginary part
     1        1       0.8566569944    0.0000000000
     1        2       0.0000000000    0.0000000000
     1        3       0.0000000000    0.0000000000
     2        1       0.0000000000    0.0000000000
     2        2       0.8124438189    0.0000000000
     2        3       0.5752889697    0.0000000000
     3        1       0.0000000000    0.0000000000
     3        2       0.5752889697    0.0000000000
     3        3       1.8906724914    0.0000000000

 respfn : d/dk was computed, but no 2DTE, so no DDB output.

== END DATASET(S) ==============================================================

 -outvars: echo values of variables after computation  --------
            acell      1.0000000000E+00  1.0000000000E+00  1.0000000000E+00 Bohr
              amu      6.94100000E+00  9.01218200E+00  1.40067400E+01
             ecut      4.40000000E+01 Hartree
           etotal     -2.7664335794E+01
            fcart      0.0000000000E+00  0.0000000000E+00  0.0000000000E+00
                       0.0000000000E+00  0.0000000000E+00  0.0000000000E+00
                       0.0000000000E+00  0.0000000000E+00  0.0000000000E+00
                       0.0000000000E+00  0.0000000000E+00  0.0000000000E+00
                       0.0000000000E+00  0.0000000000E+00  0.0000000000E+00
                       0.0000000000E+00  0.0000000000E+00  0.0000000000E+00
                       0.0000000000E+00  0.0000000000E+00  0.0000000000E+00
                       0.0000000000E+00  0.0000000000E+00  0.0000000000E+00
                       0.0000000000E+00  0.0000000000E+00  0.0000000000E+00
                       0.0000000000E+00  0.0000000000E+00  0.0000000000E+00
                       0.0000000000E+00  0.0000000000E+00  0.0000000000E+00
                       0.0000000000E+00  0.0000000000E+00  0.0000000000E+00
-          fftalg         512
           irdden           1
           irdwfk           1
           istwfk        0    1
              ixc     -116133
              kpt      1.42857143E-01  5.00000000E-01  0.00000000E+00
                       0.00000000E+00  0.00000000E+00  0.00000000E+00
           kptopt           0
P           mkmem           2
P          mkqmem           2
P          mk1mem           2
            natom          12
            nband          33
           nbdbuf           4
            ngfft          54      54      72
             nkpt           2
            nstep        2000
             nsym           4
           ntypat           3
              occ      2.000000  2.000000  2.000000  2.000000  2.000000  2.000000
                       2.000000  2.000000  2.000000  2.000000  2.000000  2.000000
                       2.000000  2.000000  2.000000  2.000000  2.000000  2.000000
                       2.000000  2.000000  2.000000  2.000000  2.000000  2.000000
                       0.000000  0.000000  0.000000  0.000000  0.000000  0.000000
                       0.000000  0.000000  0.000000
        optdriver           1
            prtwf          -1
            rfdir           1       1       1
           rfelfd           2
            rprim      8.9022082262E+00  0.0000000000E+00  0.0000000000E+00
                       0.0000000000E+00  6.9589478266E+00  4.9276095554E+00
                       0.0000000000E+00  0.0000000000E+00  1.0945131462E+01
          spgroup          14
           strten      0.0000000000E+00  0.0000000000E+00  0.0000000000E+00
                       0.0000000000E+00  0.0000000000E+00  0.0000000000E+00
           symrel      1  0  0   0  1  0   0  0  1      -1  0  0   0 -1  0   0  0 -1
                       1  0  0   0 -1  0   0  0 -1      -1  0  0   0  1  0   0  0  1
            tnons      0.0000000  0.0000000  0.0000000     0.0000000  0.0000000  0.0000000
                       0.5000000  0.0000000  0.5000000     0.5000000  0.0000000  0.5000000
           tolwfr      1.00000000E-20
            typat      1  1  1  1  2  2  2  2  3  3  3  3
           useylm           1
              wtk        0.50000    0.50000
           xangst      2.5647681218E+00  1.1917654776E+00  3.2267773990E+00
                       2.0934527204E-01  2.4907511080E+00  2.2767583279E+00
                       2.1460775777E+00  2.4907511080E+00  5.1727153852E+00
                       4.5015004274E+00  1.1917654776E+00  6.1227344563E+00
                       1.8549661568E+00  3.0908466458E-01  8.3447286789E-01
                       4.2103890065E+00  3.3734319210E+00  4.6690628590E+00
                       2.8558795426E+00  3.3734319210E+00  7.5650199163E+00
                       5.0045669288E-01  3.0908466458E-01  3.7304299252E+00
                       9.2832396437E-01  5.6317094395E-01  2.1394061866E+00
                       3.2837468141E+00  3.1193456417E+00  3.3641295402E+00
                       3.7825217351E+00  3.1193456417E+00  6.2600865976E+00
                       1.4270988853E+00  5.6317094395E-01  5.0353632440E+00
            xcart      4.8467093445E+00  2.2521103672E+00  6.0977255759E+00
                       3.9560523136E-01  4.7068374594E+00  4.3024497105E+00
                       4.0554988817E+00  4.7068374594E+00  9.7750154414E+00
                       8.5066029948E+00  2.2521103672E+00  1.1570291307E+01
                       3.5053780222E+00  5.8408536793E-01  1.5769251856E+00
                       7.9564821353E+00  6.3748624587E+00  8.8232501007E+00
                       5.3968302040E+00  6.3748624587E+00  1.4295815832E+01
                       9.4572609091E-01  5.8408536793E-01  7.0494909166E+00
                       1.7542780553E+00  1.0642388501E+00  4.0428917798E+00
                       6.2053821684E+00  5.8947089765E+00  6.3572835066E+00
                       7.1479301709E+00  5.8947089765E+00  1.1829849238E+01
                       2.6968260578E+00  1.0642388501E+00  9.5154575107E+00
             xred      5.4443900000E-01  3.2362800000E-01  4.1141700000E-01
                       4.4439000000E-02  6.7637200000E-01  8.8583000000E-02
                       4.5556100000E-01  6.7637200000E-01  5.8858300000E-01
                       9.5556100000E-01  3.2362800000E-01  9.1141700000E-01
                       3.9376500000E-01  8.3933000000E-02  1.0628800000E-01
                       8.9376500000E-01  9.1606700000E-01  3.9371200000E-01
                       6.0623500000E-01  9.1606700000E-01  8.9371200000E-01
                       1.0623500000E-01  8.3933000000E-02  6.0628800000E-01
                       1.9706100000E-01  1.5293100000E-01  3.0052700000E-01
                       6.9706100000E-01  8.4706900000E-01  1.9947300000E-01
                       8.0293900000E-01  8.4706900000E-01  6.9947300000E-01
                       3.0293900000E-01  1.5293100000E-01  8.0052700000E-01
            znucl        3.00000    4.00000    7.00000

- Timing analysis has been suppressed with timopt=0

 Suggested references for the acknowledgment of ABINIT usage.

 Calculation completed.
.Delivered   2 WARNINGs and   5 COMMENTs to log file.