.Version 9.5.1 of ABINIT

 ABINIT is a project of the Universite Catholique de Louvain,
 Corning Inc. and other collaborators, see ~abinit/doc/developers/contributors.txt .
 acknowledgments of the ABINIT effort.

.Starting date : Mon 26 Apr 2021.
- ( at 00h47 )

- input  file    -> /scratch/users/j/a/jabreu/flow_simple/flow/w101/t1/run.abi
- output file    -> /scratch/users/j/a/jabreu/flow_simple/flow/w101/t1/run.abo
- root for input  files -> /scratch/users/j/a/jabreu/flow_simple/flow/w101/t1/indata/in
- root for output files -> /scratch/users/j/a/jabreu/flow_simple/flow/w101/t1/outdata/out

 Symmetries : space group Fm -3 m (#225); Bravais cF (face-center cubic)
     intxc =       0      iscf =       7    lmnmax =      18     lnmax =       6
     mgfft =      48  mpssoang =       3    mqgrid =    3001     natom =       3
  nloc_mem =       1    nspden =       1   nspinor =       1    nsppol =       1
      nsym =      48    n1xccc =    2501    ntypat =       2    occopt =       1
   xclevel =       2
-    mband =          20        mffmem =           1         mkmem =           2
-   mkqmem =           2        mk1mem =           2           mpw =        4800
      nfft =      110592          nkpt =           2
  Rough estimation (10% accuracy) of disk space for files :

------------- Echo of variables that govern the present computation ------------
-
- outvars: echo of selected default values
-   iomode0 =  0 , fftalg0 =512 , wfoptalg0 =  0
-
- outvars: echo of global parameters not present in the input file
-  max_nthreads =    0
-
 -outvars: echo values of preprocessed input variables --------
            acell      1.0000000000E+00  1.0000000000E+00  1.0000000000E+00 Bohr
              amu      6.94100000E+00  7.89600000E+01
             ecut      4.30000000E+01 Hartree
-          fftalg         512
           irdden           1
           irdwfk           1
           istwfk        1    1
              ixc     -116133
              kpt      0.00000000E+00  0.00000000E+00  0.00000000E+00
                       5.00000000E-01  0.00000000E+00  5.00000000E-01
           kptopt           0
P           mkmem           2
P          mkqmem           2
P          mk1mem           2
            natom           3
            nband          20
           nbdbuf           4
            ngfft          48      48      48
             nkpt           2
            nstep         100
             nsym          48
           ntypat           2
              occ      2.000000  2.000000  2.000000  2.000000  2.000000  2.000000
                       2.000000  2.000000  2.000000  2.000000  2.000000  0.000000
                       0.000000  0.000000  0.000000  0.000000  0.000000  0.000000
                       0.000000  0.000000
        optdriver           1
            prtwf          -1
            rfdir           1       1       1
           rfelfd           2
            rprim      6.8796875873E+00  0.0000000000E+00  3.9719894804E+00
                       2.2932291958E+00  6.4862316605E+00  3.9719894804E+00
                       0.0000000000E+00  0.0000000000E+00  7.9439789609E+00
          spgroup         225
           symrel      1  0  0   0  1  0   0  0  1      -1  0  0   0 -1  0   0  0 -1
                       0 -1  1   0 -1  0   1 -1  0       0  1 -1   0  1  0  -1  1  0
                      -1  0  0  -1  0  1  -1  1  0       1  0  0   1  0 -1   1 -1  0
                       0  1 -1   1  0 -1   0  0 -1       0 -1  1  -1  0  1   0  0  1
                      -1  0  0  -1  1  0  -1  0  1       1  0  0   1 -1  0   1  0 -1
                       0 -1  1   1 -1  0   0 -1  0       0  1 -1  -1  1  0   0  1  0
                       1  0  0   0  0  1   0  1  0      -1  0  0   0  0 -1   0 -1  0
                       0  1 -1   0  0 -1   1  0 -1       0 -1  1   0  0  1  -1  0  1
                      -1  0  1  -1  1  0  -1  0  0       1  0 -1   1 -1  0   1  0  0
                       0 -1  0   1 -1  0   0 -1  1       0  1  0  -1  1  0   0  1 -1
                       1  0 -1   0  0 -1   0  1 -1      -1  0  1   0  0  1   0 -1  1
                       0  1  0   0  0  1   1  0  0       0 -1  0   0  0 -1  -1  0  0
                       1  0 -1   0  1 -1   0  0 -1      -1  0  1   0 -1  1   0  0  1
                       0 -1  0   0 -1  1   1 -1  0       0  1  0   0  1 -1  -1  1  0
                      -1  0  1  -1  0  0  -1  1  0       1  0 -1   1  0  0   1 -1  0
                       0  1  0   1  0  0   0  0  1       0 -1  0  -1  0  0   0  0 -1
                       0  0 -1   0  1 -1   1  0 -1       0  0  1   0 -1  1  -1  0  1
                       1 -1  0   0 -1  1   0 -1  0      -1  1  0   0  1 -1   0  1  0
                       0  0  1   1  0  0   0  1  0       0  0 -1  -1  0  0   0 -1  0
                      -1  1  0  -1  0  0  -1  0  1       1 -1  0   1  0  0   1  0 -1
                       0  0  1   0  1  0   1  0  0       0  0 -1   0 -1  0  -1  0  0
                       1 -1  0   0 -1  0   0 -1  1      -1  1  0   0  1  0   0  1 -1
                       0  0 -1   1  0 -1   0  1 -1       0  0  1  -1  0  1   0 -1  1
                      -1  1  0  -1  0  1  -1  0  0       1 -1  0   1  0 -1   1  0  0
           tolwfr      1.00000000E-20
            typat      1  1  2
           useylm           1
              wtk        0.50000    0.50000
           xangst      1.2135246245E+00  8.5809149109E-01  2.1018863058E+00
                       3.6405738734E+00  2.5742744733E+00  6.3056589174E+00
                       0.0000000000E+00  0.0000000000E+00  0.0000000000E+00
            xcart      2.2932291958E+00  1.6215579151E+00  3.9719894804E+00
                       6.8796875873E+00  4.8646737454E+00  1.1915968441E+01
                       0.0000000000E+00  0.0000000000E+00  0.0000000000E+00
             xred      2.5000000000E-01  2.5000000000E-01  2.5000000000E-01
                       7.5000000000E-01  7.5000000000E-01  7.5000000000E-01
                       0.0000000000E+00  0.0000000000E+00  0.0000000000E+00
            znucl        3.00000   34.00000

 chkinp: Checking input parameters for consistency.

== DATASET  1 ==================================================================
-   mpi_nproc: 1, omp_nthreads: -1 (-1 if OMP is not activated)

--- !DatasetInfo
iteration_state: {dtset: 1, }
dimensions: {natom: 3, nkpt: 2, mband: 20, nsppol: 1, nspinor: 1, nspden: 1, mpw: 4800, }
cutoff_energies: {ecut:  43.0, pawecutdg:  -1.0, }
electrons: {nelect:   2.20000000E+01, charge:   0.00000000E+00, occopt:   1.00000000E+00, tsmear:   1.00000000E-02, }
meta: {optdriver: 1, rfelfd: 2, }
...

 Real(R)+Recip(G) space primitive vectors, cartesian coordinates (Bohr,Bohr^-1):
 R(1)=  6.8796876  0.0000000  3.9719895  G(1)=  0.1453554 -0.0513909  0.0000000
 R(2)=  2.2932292  6.4862317  3.9719895  G(2)=  0.0000000  0.1541727  0.0000000
 R(3)=  0.0000000  0.0000000  7.9439790  G(3)= -0.0726777 -0.0513909  0.1258815
 Unit cell volume ucvol=  3.5448614E+02 bohr^3
 Angles (23,13,12)=  6.00000000E+01  6.00000000E+01  6.00000000E+01 degrees

 getcut: wavevector=  0.0000  0.0000  0.0000  ngfft=  48  48  48
         ecut(hartree)=     43.000   => boxcut(ratio)=   2.04693

--- Pseudopotential description ------------------------------------------------
- pspini: atom type   1  psp file is /scratch/users/j/a/jabreu/pseudos/PBEsol/Li.psp8
- pspatm: opening atomic psp file    /scratch/users/j/a/jabreu/pseudos/PBEsol/Li.psp8
- Li    ONCVPSP-3.3.0  r_core=   1.40824   1.10935
-  3.00000   3.00000    180112                znucl, zion, pspdat
    8 -116133    1    4       400   0.00000   pspcod,pspxc,lmax,lloc,mmax,r2well
    3.99000000000000    0.00000000000000    0.00000000000000   rchrg,fchrg,qchrg
     nproj     2     2
     extension_switch     1
  pspatm : epsatm=    2.60859637
         --- l  ekb(1:nproj) -->
             0   -4.855856   -1.482423
             1   -2.171544   -0.427615
 pspatm: atomic psp has been read  and splines computed

- pspini: atom type   2  psp file is /scratch/users/j/a/jabreu/pseudos/PBEsol/Se.psp8
- pspatm: opening atomic psp file    /scratch/users/j/a/jabreu/pseudos/PBEsol/Se.psp8
- Se    ONCVPSP-3.3.0  r_core=   1.81943   1.50330   1.90835
- 34.00000  16.00000    180112                znucl, zion, pspdat
    8 -116133    2    4       600   0.00000   pspcod,pspxc,lmax,lloc,mmax,r2well
    5.99000000000000    5.00000000000000    0.00000000000000   rchrg,fchrg,qchrg
     nproj     2     2     2
     extension_switch     1
  pspatm : epsatm=   29.17862020
         --- l  ekb(1:nproj) -->
             0    8.973804    1.019550
             1    6.849857    1.297308
             2   -9.203962   -3.731027
 pspatm: atomic psp has been read  and splines computed

   7.56707885E+02                                ecore*ucvol(ha*bohr**3)

-inwffil : will read wavefunctions from disk file /scratch/users/j/a/jabreu/flow_simple/flow/w101/t1/indata/in_WFK

 ==>  initialize data related to q vector <==

 The list of irreducible perturbations for this q vector is:
    1)    idir= 1    ipert=   4
    2)    idir= 2    ipert=   4
    3)    idir= 3    ipert=   4

 Perturbation wavevector (in red.coord.)   0.000000  0.000000  0.000000
 Perturbation : derivative vs k along direction   1

 dfpt_looppert : COMMENT -
  In a d/dk calculation, iscf is set to -3 automatically.
 The set of symmetries contains only one element for this perturbation.
 symkpt : not enough symmetry to change the number of k points.

[...]

 Initialisation of the first-order wave-functions :
  ireadwf=   0

--- !BeginCycle
iteration_state: {dtset: 1, }
solver: {iscf: 7, nstep: 100, nline: 4, wfoptalg: 0, }
tolerances: {tolwfr: 1.00E-20, }
...

     iter   2DEtotal(Ha)        deltaE(Ha) residm    vres2
-ETOT  1  -49.460262874607     -4.946E+01 8.083E-02 0.000E+00
 ETOT  2  -49.477867038514     -1.760E-02 4.830E-05 0.000E+00
 ETOT  3  -49.477871252863     -4.214E-06 5.261E-07 0.000E+00
 ETOT  4  -49.477871255382     -2.519E-09 7.798E-10 0.000E+00
 ETOT  5  -49.477871255385     -3.006E-12 1.376E-11 0.000E+00
 ETOT  6  -49.477871255385      4.263E-14 2.351E-14 0.000E+00
 ETOT  7  -49.477871255385     -2.132E-14 4.452E-16 0.000E+00
 ETOT  8  -49.477871255385      1.421E-14 7.667E-19 0.000E+00
 ETOT  9  -49.477871255385      7.105E-15 1.540E-20 0.000E+00
 ETOT 10  -49.477871255385     -7.105E-15 9.956E-21 0.000E+00

 At SCF step   10   max residual=  9.96E-21 < tolwfr=  1.00E-20 =>converged.

 ----iterations are completed or convergence reached----

 dfpt_looppert: DFPT cycle converged with prtwf=-1. Will skip output of the 1st-order WFK file.
 dfpt_looppert : ek2=    4.1288347538E+01
          f-sum rule ratio=    1.2338671399E+00
 prteigrs : about to open file /scratch/users/j/a/jabreu/flow_simple/flow/w101/t1/tmpdata/tmp_1WF1_EIG
 Expectation of eigenvalue derivatives (hartree) for nkpt=   2  k points:
  (in case of degenerate eigenvalues, averaged derivative)
 kpt#   1, nband= 20, wtk=  0.50000, kpt=  0.0000  0.0000  0.0000 (reduced coord)
  -0.00000   -0.00000   -0.00000    0.00000    0.00000   -0.00000    0.00000    0.00000
   0.00000    0.00000    0.00000    0.00000    0.00000    0.00000    0.00000   -0.00000
  -0.00000   -0.00000   -0.00000   -0.00000
 prteigrs : prtvol=0 or 1, do not print more k-points.

 Eight components of 2nd-order total energy (hartree) are
 1,2,3: 0th-order hamiltonian combined with 1st-order wavefunctions
     kin0=   3.91035503E+01 eigvalue=   8.69692769E+00  local=  -1.51118057E+01
 4,5,6: 1st-order hamiltonian combined with 1st and 0th-order wfs
     kin1=  -5.09443353E+01  Hartree=   0.00000000E+00     xc=   0.00000000E+00
 7,8,9: eventually, occupation + non-local contributions
    edocc=   1.27779271E+01     enl0=   4.01127176E+00   enl1=  -4.80114072E+01
 1-9 gives the relaxation energy (to be shifted if some occ is /=2.0)
   erelax=  -4.94778713E+01
  No Ewald or frozen-wf contrib.: the relaxation energy is the total one
 2DEtotal=   -0.4947787126E+02 Ha. Also 2DEtotal=   -0.134636134731E+04 eV
    (  non-var. 2DEtotal :   -4.9477871255E+01 Ha)

 Perturbation wavevector (in red.coord.)   0.000000  0.000000  0.000000
 Perturbation : derivative vs k along direction   2
 The set of symmetries contains only one element for this perturbation.
 symkpt : not enough symmetry to change the number of k points.

[...]

 Perturbation wavevector (in red.coord.)   0.000000  0.000000  0.000000
 Perturbation : derivative vs k along direction   3
 The set of symmetries contains only one element for this perturbation.
 symkpt : not enough symmetry to change the number of k points.

-inwffil : will read wavefunctions from disk file /scratch/users/j/a/jabreu/flow_simple/flow/w101/t1/indata/in_WFK

 Initialisation of the first-order wave-functions :
  ireadwf=   0

--- !BeginCycle
iteration_state: {dtset: 1, }
solver: {iscf: 7, nstep: 100, nline: 4, wfoptalg: 0, }
tolerances: {tolwfr: 1.00E-20, }
...

     iter   2DEtotal(Ha)        deltaE(Ha) residm    vres2
-ETOT  1  -49.459917139354     -4.946E+01 8.083E-02 0.000E+00
 ETOT  2  -49.477867058497     -1.795E-02 4.830E-05 0.000E+00
 ETOT  3  -49.477871296889     -4.238E-06 5.261E-07 0.000E+00
 ETOT  4  -49.477871299391     -2.502E-09 7.798E-10 0.000E+00
 ETOT  5  -49.477871299393     -2.970E-12 1.376E-11 0.000E+00
 ETOT  6  -49.477871299393      2.842E-14 2.351E-14 0.000E+00
 ETOT  7  -49.477871299393      2.132E-14 4.452E-16 0.000E+00
 ETOT  8  -49.477871299393      2.132E-14 7.668E-19 0.000E+00
 ETOT  9  -49.477871299393     -2.132E-14 1.540E-20 0.000E+00
 ETOT 10  -49.477871299393      0.000E+00 9.348E-21 0.000E+00

 At SCF step   10   max residual=  9.35E-21 < tolwfr=  1.00E-20 =>converged.

 ----iterations are completed or convergence reached----

 dfpt_looppert: DFPT cycle converged with prtwf=-1. Will skip output of the 1st-order WFK file.
 dfpt_looppert : ek2=    4.1288347538E+01
          f-sum rule ratio=    1.2338671413E+00
 prteigrs : about to open file /scratch/users/j/a/jabreu/flow_simple/flow/w101/t1/tmpdata/tmp_1WF1_EIG
 Expectation of eigenvalue derivatives (hartree) for nkpt=   2  k points:
  (in case of degenerate eigenvalues, averaged derivative)
 kpt#   1, nband= 20, wtk=  0.50000, kpt=  0.0000  0.0000  0.0000 (reduced coord)
   0.00000    0.00000    0.00000    0.00000    0.00000   -0.00000   -0.00000    0.00000
  -0.00000   -0.00000   -0.00000    0.00000   -0.00000   -0.00000   -0.00000    0.00000
   0.00000    0.00000    0.00000    0.00000
 prteigrs : prtvol=0 or 1, do not print more k-points.

 Eight components of 2nd-order total energy (hartree) are
 1,2,3: 0th-order hamiltonian combined with 1st-order wavefunctions
     kin0=   3.91035503E+01 eigvalue=   8.69692769E+00  local=  -1.51118057E+01
 4,5,6: 1st-order hamiltonian combined with 1st and 0th-order wfs
     kin1=  -5.09443353E+01  Hartree=   0.00000000E+00     xc=   0.00000000E+00
 7,8,9: eventually, occupation + non-local contributions
    edocc=   1.27779272E+01     enl0=   4.01127176E+00   enl1=  -4.80114073E+01
 1-9 gives the relaxation energy (to be shifted if some occ is /=2.0)
   erelax=  -4.94778713E+01
  No Ewald or frozen-wf contrib.: the relaxation energy is the total one
 2DEtotal=   -0.4947787130E+02 Ha. Also 2DEtotal=   -0.134636134850E+04 eV
    (  non-var. 2DEtotal :   -4.9477871299E+01 Ha)

 CALCULATION OF EFFECTIVE MASSES
 NOTE : Additional infos (eff. mass eigenvalues, eigenvectors and, if degenerate, average mass) are available in stdout.

 COMMENTS:
 - At k-point ( 0.000, 0.000, 0.000), bands     9 through    11
   are DEGENERATE (effective mass tensor is therefore not defined).
   See Section IIIB Eqs. (67)-(70) and Appendix E of PRB 93 205147 (2016).
 - Angular average effective mass for Frohlich model is to be averaged over degenerate bands. See later.
 - Associated theta integrals calculated with ntheta=   1000 points.

 K-point ( 0.000, 0.000, 0.000) | band =     9
 Transport equivalent effective mass tensor:
             -0.2923940226              0.0000000000              0.0000000000
              0.0000000000             -0.2923940226              0.0000000000
              0.0000000000              0.0000000000             -0.2923940225
 Transport equivalent effective mass tensor eigenvalues:
             -0.2923940226             -0.2923940226             -0.2923940225
 Angular average effective mass 1/(<1/m>)=  -0.2618623355
 Angular average effective mass for Frohlich model (<m**0.5>)**2=  -0.2637628971
 Effective masses along directions: (cart. coord. / red. coord. -> eff. mass)
    1:   1.000000  0.000000  0.000000 /   0.948683  0.316228  0.000000 ->  -0.2466541656
    2:   0.000000  1.000000  0.000000 /   0.000000  1.000000  0.000000 ->  -0.2300929001
    3:   0.000000  0.000000  1.000000 /   0.408248  0.408248  0.816497 ->  -0.2514622115
    4:   0.577350  0.577350  0.577350 /   0.585539  0.688047  0.428644 ->  -0.2467495030
    5:   0.000000  0.707107  0.707107 /   0.289489  0.762222  0.578977 ->  -0.2760783753
    6:   0.707107  0.000000  0.707107 /   0.731423  0.422287  0.535439 ->  -0.2489778883
    7:   0.707107  0.707107  0.000000 /   0.616798  0.787122  0.000000 ->  -0.3268718336

[...]

 K-point ( 0.000, 0.000, 0.000) | band =    11
 Transport equivalent effective mass tensor:
            -19.9223529875              0.0000219239             -0.0000000031
              0.0000219239            -19.9223464240             -0.0000000023
             -0.0000000031             -0.0000000023            -19.9223207621
 Transport equivalent effective mass tensor eigenvalues:
            -19.9223718739            -19.9223275376            -19.9223207621
 Angular average effective mass 1/(<1/m>)=  -1.9899435732
 Angular average effective mass for Frohlich model (<m**0.5>)**2=  -2.4016145600
 Effective masses along directions: (cart. coord. / red. coord. -> eff. mass)
    1:   1.000000  0.000000  0.000000 /   0.948683  0.316228  0.000000 ->  -2.1858992740
    2:   0.000000  1.000000  0.000000 /   0.000000  1.000000  0.000000 ->  -1.8691711409
    3:   0.000000  0.000000  1.000000 /   0.408248  0.408248  0.816497 ->  -6.0362235547
    4:   0.577350  0.577350  0.577350 /   0.585539  0.688047  0.428644 ->  -2.6199498892
    5:   0.000000  0.707107  0.707107 /   0.289489  0.762222  0.578977 ->  -1.8144884044
    6:   0.707107  0.000000  0.707107 /   0.731423  0.422287  0.535439 ->  -3.5750437375
    7:   0.707107  0.707107  0.000000 /   0.616798  0.787122  0.000000 ->  -0.8970318674

 Angular average effective mass for Frohlich model, averaged over degenerate bands.
 Value of     (<<m**0.5>>)**2 =     1.020603E+00
 Absolute Value of <<m**0.5>> =     1.010249E+00

 K-point ( 0.500, 0.000, 0.500) | band =    12
 Effective mass tensor:
              0.3566871479             -0.0725653384              0.0888740260
             -0.0725653384              0.4079985907             -0.1256868529
              0.0888740260             -0.1256868529              0.4593100336
 Effective mass tensor eigenvalues:
              0.3053757050              0.3053757050              0.6132443621
 Angular average effective mass 1/(<1/m>)=   0.3667490266
 Angular average effective mass for Frohlich model (<m**0.5>)**2=   0.3771614731
 Effective masses along directions: (cart. coord. / red. coord. -> eff. mass)
    1:   1.000000  0.000000  0.000000 /   0.948683  0.316228  0.000000 ->   0.3332602932
    2:   0.000000  1.000000  0.000000 /   0.000000  1.000000  0.000000 ->   0.3667490266
    3:   0.000000  0.000000  1.000000 /   0.408248  0.408248  0.816497 ->   0.4077200926
    4:   0.577350  0.577350  0.577350 /   0.585539  0.688047  0.428644 ->   0.3209203279
    5:   0.000000  0.707107  0.707107 /   0.289489  0.762222  0.578977 ->   0.3066717918
    6:   0.707107  0.000000  0.707107 /   0.731423  0.422287  0.535439 ->   0.4440333409
    7:   0.707107  0.707107  0.000000 /   0.616798  0.787122  0.000000 ->   0.3075835184

 END OF EFFECTIVE MASSES SECTION

 ---- first-order wavefunction calculations are completed ----

 Total localisation tensor (bohr^2) in cartesian coordinates
  WARNING : still subject to testing - especially symmetries.
      direction              matrix element
   alpha     beta       real part   imaginary part
     1        1       2.0281192741    0.0000000000
     1        2       0.5736387572    0.0000000000
     1        3       1.4051222508    0.0000000000
     2        1       0.5736387572    0.0000000000
     2        2       1.6224954205    0.0000000000
     2        3       0.9935714726    0.0000000000
     3        1       1.4051222508    0.0000000000
     3        2       0.9935714726    0.0000000000
     3        3       3.6506146967    0.0000000000

 respfn : d/dk was computed, but no 2DTE, so no DDB output.

== END DATASET(S) ==============================================================

 -outvars: echo values of variables after computation  --------
            acell      1.0000000000E+00  1.0000000000E+00  1.0000000000E+00 Bohr
              amu      6.94100000E+00  7.89600000E+01
             ecut      4.30000000E+01 Hartree
           etotal     -4.9477871299E+01
            fcart      0.0000000000E+00  0.0000000000E+00  0.0000000000E+00
                       0.0000000000E+00  0.0000000000E+00  0.0000000000E+00
                       0.0000000000E+00  0.0000000000E+00  0.0000000000E+00
-          fftalg         512
           irdden           1
           irdwfk           1
           istwfk        1    1
              ixc     -116133
              kpt      0.00000000E+00  0.00000000E+00  0.00000000E+00
                       5.00000000E-01  0.00000000E+00  5.00000000E-01
           kptopt           0
P           mkmem           2
P          mkqmem           2
P          mk1mem           2
            natom           3
            nband          20
           nbdbuf           4
            ngfft          48      48      48
             nkpt           2
            nstep         100
             nsym          48
           ntypat           2
              occ      2.000000  2.000000  2.000000  2.000000  2.000000  2.000000
                       2.000000  2.000000  2.000000  2.000000  2.000000  0.000000
                       0.000000  0.000000  0.000000  0.000000  0.000000  0.000000
                       0.000000  0.000000
        optdriver           1
            prtwf          -1
            rfdir           1       1       1
           rfelfd           2
            rprim      6.8796875873E+00  0.0000000000E+00  3.9719894804E+00
                       2.2932291958E+00  6.4862316605E+00  3.9719894804E+00
                       0.0000000000E+00  0.0000000000E+00  7.9439789609E+00
          spgroup         225
           strten      0.0000000000E+00  0.0000000000E+00  0.0000000000E+00
                       0.0000000000E+00  0.0000000000E+00  0.0000000000E+00
           symrel      1  0  0   0  1  0   0  0  1      -1  0  0   0 -1  0   0  0 -1
                       0 -1  1   0 -1  0   1 -1  0       0  1 -1   0  1  0  -1  1  0
                      -1  0  0  -1  0  1  -1  1  0       1  0  0   1  0 -1   1 -1  0
                       0  1 -1   1  0 -1   0  0 -1       0 -1  1  -1  0  1   0  0  1
                      -1  0  0  -1  1  0  -1  0  1       1  0  0   1 -1  0   1  0 -1
                       0 -1  1   1 -1  0   0 -1  0       0  1 -1  -1  1  0   0  1  0
                       1  0  0   0  0  1   0  1  0      -1  0  0   0  0 -1   0 -1  0
                       0  1 -1   0  0 -1   1  0 -1       0 -1  1   0  0  1  -1  0  1
                      -1  0  1  -1  1  0  -1  0  0       1  0 -1   1 -1  0   1  0  0
                       0 -1  0   1 -1  0   0 -1  1       0  1  0  -1  1  0   0  1 -1
                       1  0 -1   0  0 -1   0  1 -1      -1  0  1   0  0  1   0 -1  1
                       0  1  0   0  0  1   1  0  0       0 -1  0   0  0 -1  -1  0  0
                       1  0 -1   0  1 -1   0  0 -1      -1  0  1   0 -1  1   0  0  1
                       0 -1  0   0 -1  1   1 -1  0       0  1  0   0  1 -1  -1  1  0
                      -1  0  1  -1  0  0  -1  1  0       1  0 -1   1  0  0   1 -1  0
                       0  1  0   1  0  0   0  0  1       0 -1  0  -1  0  0   0  0 -1
                       0  0 -1   0  1 -1   1  0 -1       0  0  1   0 -1  1  -1  0  1
                       1 -1  0   0 -1  1   0 -1  0      -1  1  0   0  1 -1   0  1  0
                       0  0  1   1  0  0   0  1  0       0  0 -1  -1  0  0   0 -1  0
                      -1  1  0  -1  0  0  -1  0  1       1 -1  0   1  0  0   1  0 -1
                       0  0  1   0  1  0   1  0  0       0  0 -1   0 -1  0  -1  0  0
                       1 -1  0   0 -1  0   0 -1  1      -1  1  0   0  1  0   0  1 -1
                       0  0 -1   1  0 -1   0  1 -1       0  0  1  -1  0  1   0 -1  1
                      -1  1  0  -1  0  1  -1  0  0       1 -1  0   1  0 -1   1  0  0
           tolwfr      1.00000000E-20
            typat      1  1  2
           useylm           1
              wtk        0.50000    0.50000
           xangst      1.2135246245E+00  8.5809149109E-01  2.1018863058E+00
                       3.6405738734E+00  2.5742744733E+00  6.3056589174E+00
                       0.0000000000E+00  0.0000000000E+00  0.0000000000E+00
            xcart      2.2932291958E+00  1.6215579151E+00  3.9719894804E+00
                       6.8796875873E+00  4.8646737454E+00  1.1915968441E+01
                       0.0000000000E+00  0.0000000000E+00  0.0000000000E+00
             xred      2.5000000000E-01  2.5000000000E-01  2.5000000000E-01
                       7.5000000000E-01  7.5000000000E-01  7.5000000000E-01
                       0.0000000000E+00  0.0000000000E+00  0.0000000000E+00
            znucl        3.00000   34.00000

- Timing analysis has been suppressed with timopt=0

 Suggested references for the acknowledgment of ABINIT usage.

 Calculation completed.
.Delivered  14 WARNINGs and   9 COMMENTs to log file.