.Version 9.5.2 of ABINIT

 ABINIT is a project of the Universite Catholique de Louvain,
 Corning Inc. and other collaborators, see ~abinit/doc/developers/contributors.txt .
 acknowledgments of the ABINIT effort.

.Starting date : Wed 26 May 2021.
- ( at 02h13 )

- input  file    -> /scratch/users/j/a/jabreu/flow_simple_11atoms/flow/w219/t1/run.abi
- output file    -> /scratch/users/j/a/jabreu/flow_simple_11atoms/flow/w219/t1/run.abo
- root for input  files -> /scratch/users/j/a/jabreu/flow_simple_11atoms/flow/w219/t1/indata/in
- root for output files -> /scratch/users/j/a/jabreu/flow_simple_11atoms/flow/w219/t1/outdata/out

 Symmetries : space group I4/m c m (#140); Bravais tI (body-center tetrag.)
     intxc =       0      iscf =       7    lmnmax =      18     lnmax =       6
     mgfft =      80  mpssoang =       3    mqgrid =    3001     natom =      12
  nloc_mem =       1    nspden =       1   nspinor =       1    nsppol =       1
      nsym =      16    n1xccc =    2501    ntypat =       3    occopt =       1
   xclevel =       2
-    mband =          53        mffmem =           1         mkmem =           2
-   mkqmem =           2        mk1mem =           2           mpw =       18703
      nfft =      512000          nkpt =           2
  Rough estimation (10% accuracy) of disk space for files :

------------- Echo of variables that govern the present computation ------------
-
- outvars: echo of selected default values
-   iomode0 =  0 , fftalg0 =512 , wfoptalg0 =  0
-
- outvars: echo of global parameters not present in the input file
-  max_nthreads =    0
-
 -outvars: echo values of preprocessed input variables --------
            acell      1.0000000000E+00  1.0000000000E+00  1.0000000000E+00 Bohr
              amu      3.90983000E+01  7.99040000E+01  1.89984032E+01
             ecut      4.20000000E+01 Hartree
-          fftalg         512
           irdden           1
           irdwfk           1
              ixc     -116133
              kpt     -1.14759310E-01  1.14759310E-01  1.14759310E-01
                       5.00000000E-01  5.00000000E-01 -5.00000000E-01
           kptopt           0
P           mkmem           2
P          mkqmem           2
P          mk1mem           2
            natom          12
            nband          53
           nbdbuf           4
            ngfft          80      80      80
             nkpt           2
            nstep        2000
             nsym          16
           ntypat           3
              occ      2.000000  2.000000  2.000000  2.000000  2.000000  2.000000
                       2.000000  2.000000  2.000000  2.000000  2.000000  2.000000
                       2.000000  2.000000  2.000000  2.000000  2.000000  2.000000
                       2.000000  2.000000  2.000000  2.000000  2.000000  2.000000
                       2.000000  2.000000  2.000000  2.000000  2.000000  2.000000
                       2.000000  2.000000  2.000000  2.000000  2.000000  2.000000
                       2.000000  2.000000  2.000000  2.000000  2.000000  2.000000
                       2.000000  2.000000  0.000000  0.000000  0.000000  0.000000
                       0.000000  0.000000  0.000000  0.000000  0.000000
        optdriver           1
            prtwf          -1
            rfdir           1       1       1
           rfelfd           2
            rprim      1.0522829028E+01  0.0000000000E+00 -8.2311246056E+00
                      -2.4995362876E+00  1.0221655888E+01 -8.2311246056E+00
                       0.0000000000E+00  0.0000000000E+00  1.3359690977E+01
          spgroup         140
           symrel      1  0  0   0  1  0   0  0  1      -1  0  0   0 -1  0   0  0 -1
                       0  0  1  -1 -1 -1   1  0  0       0  0 -1   1  1  1  -1  0  0
                       0  1  0   1  0  0  -1 -1 -1       0 -1  0  -1  0  0   1  1  1
                      -1 -1 -1   0  0  1   0  1  0       1  1  1   0  0 -1   0 -1  0
                       0  1  0   1  0  0   0  0  1       0 -1  0  -1  0  0   0  0 -1
                       0  0  1  -1 -1 -1   0  1  0       0  0 -1   1  1  1   0 -1  0
                       1  0  0   0  1  0  -1 -1 -1      -1  0  0   0 -1  0   1  1  1
                      -1 -1 -1   0  0  1   1  0  0       1  1  1   0  0 -1  -1  0  0
            tnons      0.0000000  0.0000000  0.0000000     0.0000000 -0.0000000  0.0000000
                       0.5000000  0.5000000 -0.0000000     0.5000000  0.5000000  0.0000000
                       0.0000000 -0.0000000  0.0000000     0.0000000 -0.0000000  0.0000000
                       0.5000000  0.5000000  0.0000000     0.5000000  0.5000000  0.0000000
                       0.5000000  0.5000000  0.0000000     0.5000000  0.5000000  0.0000000
                       0.0000000 -0.0000000  0.0000000     0.0000000  0.0000000  0.0000000
                       0.5000000  0.5000000  0.0000000     0.5000000  0.5000000  0.0000000
                       0.0000000 -0.0000000  0.0000000     0.0000000 -0.0000000 -0.0000000
           tolwfr      1.00000000E-20
            typat      1  1  2  2  3  3  3  3  3  3  3  3
           useylm           1
              wtk        0.50000    0.50000
           xangst      1.0614359140E+00  1.3522668325E+00 -2.1778617712E+00
                       3.1843077419E+00  4.0568004974E+00 -6.5335853135E+00
                       2.7842206456E+00  0.0000000000E+00  1.3569602184E+00
                      -6.6134881772E-01  2.7045336649E+00  1.3569602184E+00
                       3.9592089736E+00  1.4969323382E+00  1.1329354884E+00
                       2.9225512197E+00  1.7623282267E-01  3.2599572544E+00
                       2.8653468215E-01  3.9121349917E+00 -2.7747385940E+00
                       3.3229593767E+00  2.8807664876E+00 -1.9352524410E+00
                       1.3231924361E+00  5.2328345072E+00 -4.9017603600E+00
                       4.3596171307E+00  4.2014660031E+00 -4.0622742070E+00
                       9.2278427908E-01  2.5283008423E+00  2.9344933538E-01
                      -1.1387347489E-01  1.2076013267E+00  2.4204711014E+00
            xcart      2.0058231850E+00  2.5554139719E+00 -4.1155623028E+00
                       6.0174695549E+00  7.6662419158E+00 -1.2346686908E+01
                       5.2614145138E+00  0.0000000000E+00  2.5642831859E+00
                      -1.2497681438E+00  5.1108279439E+00  2.5642831860E+00
                       7.4818206631E+00  2.8287921587E+00  2.1409377993E+00
                       5.5228214145E+00  3.3303177048E-01  6.1604264157E+00
                       5.4147207685E-01  7.3928637291E+00 -5.2434960330E+00
                       6.2794831727E+00  5.4438597144E+00 -3.6570971114E+00
                       2.5004713254E+00  9.8886241173E+00 -9.2629846494E+00
                       8.2384824212E+00  7.9396201026E+00 -7.6765857279E+00
                       1.7438095672E+00  4.7777961734E+00  5.5453887775E-01
                      -2.1518968134E-01  2.2820357852E+00  4.5740274942E+00
             xred      2.5000000000E-01  2.5000000000E-01  1.3877787808E-17
                       7.5000000000E-01  7.5000000000E-01  1.6653345369E-16
                       5.0000000000E-01  0.0000000000E+00  5.0000000000E-01
                      -1.3877787808E-17  5.0000000000E-01  5.0000000000E-01
                       7.7674500000E-01  2.7674500000E-01  8.0932600000E-01
                       5.3258100000E-01  3.2581000000E-02  8.0932600000E-01
                       2.2325500000E-01  7.2325500000E-01  1.9067400000E-01
                       7.2325500000E-01  5.3258100000E-01  5.0000000000E-01
                       4.6741900000E-01  9.6741900000E-01  1.9067400000E-01
                       9.6741900000E-01  7.7674500000E-01  5.0000000000E-01
                       2.7674500000E-01  4.6741900000E-01  5.0000000000E-01
                       3.2581000000E-02  2.2325500000E-01  5.0000000000E-01
            znucl       19.00000   35.00000    9.00000

 chkinp: Checking input parameters for consistency.

== DATASET  1 ==================================================================
-   mpi_nproc: 1, omp_nthreads: -1 (-1 if OMP is not activated)

--- !DatasetInfo
iteration_state: {dtset: 1, }
dimensions: {natom: 12, nkpt: 2, mband: 53, nsppol: 1, nspinor: 1, nspden: 1, mpw: 18703, }
cutoff_energies: {ecut:  42.0, pawecutdg:  -1.0, }
electrons: {nelect:   8.80000000E+01, charge:   0.00000000E+00, occopt:   1.00000000E+00, tsmear:   1.00000000E-02, }
meta: {optdriver: 1, rfelfd: 2, }
...

 Real(R)+Recip(G) space primitive vectors, cartesian coordinates (Bohr,Bohr^-1):
 R(1)= 10.5228290  0.0000000 -8.2311246  G(1)=  0.0950315  0.0232384  0.0000000
 R(2)= -2.4995363 10.2216559 -8.2311246  G(2)=  0.0000000  0.0978315  0.0000000
 R(3)=  0.0000000  0.0000000 13.3596910  G(3)=  0.0585505  0.0745931  0.0748520
 Unit cell volume ucvol=  1.4369782E+03 bohr^3
 Angles (23,13,12)=  1.28033084E+02  1.28033084E+02  7.65714392E+01 degrees

 getcut: wavevector=  0.0000  0.0000  0.0000  ngfft=  80  80  80
         ecut(hartree)=     42.000   => boxcut(ratio)=   2.05294

--- Pseudopotential description ------------------------------------------------
- pspini: atom type   1  psp file is /scratch/users/j/a/jabreu/pseudos/PBEsol/K.psp8
- pspatm: opening atomic psp file    /scratch/users/j/a/jabreu/pseudos/PBEsol/K.psp8
- K     ONCVPSP-3.3.0  r_core=   1.36296   1.46408   1.61068
- 19.00000   9.00000    180112                znucl, zion, pspdat
    8 -116133    2    4       400   0.00000   pspcod,pspxc,lmax,lloc,mmax,r2well
    3.99000000000000    5.00000000000000    0.00000000000000   rchrg,fchrg,qchrg
     nproj     2     2     2
     extension_switch     1
  pspatm : epsatm=    8.32487830
         --- l  ekb(1:nproj) -->
             0   10.921326    0.816676
             1    4.431000    0.560368
             2   -3.384038   -1.043186
 pspatm: atomic psp has been read  and splines computed

- pspini: atom type   2  psp file is /scratch/users/j/a/jabreu/pseudos/PBEsol/Br.psp8
- pspatm: opening atomic psp file    /scratch/users/j/a/jabreu/pseudos/PBEsol/Br.psp8
- Br    ONCVPSP-3.3.0  r_core=   1.81012   1.51356   1.92136
- 35.00000   7.00000    180112                znucl, zion, pspdat
    8 -116133    2    4       600   0.00000   pspcod,pspxc,lmax,lloc,mmax,r2well
    5.99000000000000    8.00000000000000    0.00000000000000   rchrg,fchrg,qchrg
     nproj     2     2     2
     extension_switch     1
  pspatm : epsatm=   10.94933070
         --- l  ekb(1:nproj) -->
             0    8.508690    0.897946
             1    5.393311    0.892021
             2    2.527513    0.394763
 pspatm: atomic psp has been read  and splines computed

- pspini: atom type   3  psp file is /scratch/users/j/a/jabreu/pseudos/PBEsol/F.psp8
- pspatm: opening atomic psp file    /scratch/users/j/a/jabreu/pseudos/PBEsol/F.psp8
- F     ONCVPSP-3.3.0  r_core=   1.30942   1.45782   1.60379
-  9.00000   7.00000    180112                znucl, zion, pspdat
    8 -116133    2    4       600   0.00000   pspcod,pspxc,lmax,lloc,mmax,r2well
    5.99000000000000    2.50000000000000    0.00000000000000   rchrg,fchrg,qchrg
     nproj     2     2     1
[...]
  -0.00000    0.00000   -0.00000    0.00000   -0.00000   -0.00000    0.00000   -0.00000
  -0.00000    0.00000    0.00000    0.00000   -0.00000   -0.00000   -0.00000    0.00000
  -0.00000    0.00000   -0.00000    0.00000    0.00000   -0.00000    0.00000   -0.00000
   0.00000   -0.00000    0.00000   -0.00000    0.00000    0.00000    0.00000   -0.00000
  -0.00000    0.00000    0.00000   -0.00000   -0.00000   -0.00000    0.00000    0.00000
  -0.00000    0.00000   -0.00000    0.00000   -0.00001
 prteigrs : prtvol=0 or 1, do not print more k-points.

 Eight components of 2nd-order total energy (hartree) are
 1,2,3: 0th-order hamiltonian combined with 1st-order wavefunctions
     kin0=   4.68881331E+01 eigvalue=   4.02600936E+00  local=  -2.19871031E+01
 4,5,6: 1st-order hamiltonian combined with 1st and 0th-order wfs
     kin1=  -6.66661529E+01  Hartree=   0.00000000E+00     xc=   0.00000000E+00
 7,8,9: eventually, occupation + non-local contributions
    edocc=   4.23225785E+00     enl0=   7.54704534E-01   enl1=  -1.16185045E+00
 1-9 gives the relaxation energy (to be shifted if some occ is /=2.0)
   erelax=  -3.39140017E+01
  No Ewald or frozen-wf contrib.: the relaxation energy is the total one
 2DEtotal=   -0.3391400168E+02 Ha. Also 2DEtotal=   -0.922846918079E+03 eV
    (  non-var. 2DEtotal :   -3.3914001685E+01 Ha)

 Perturbation wavevector (in red.coord.)   0.000000  0.000000  0.000000
 Perturbation : derivative vs k along direction   2
 The set of symmetries contains only one element for this perturbation.
 symkpt : not enough symmetry to change the number of k points.

[...]

 Perturbation wavevector (in red.coord.)   0.000000  0.000000  0.000000
 Perturbation : derivative vs k along direction   3
 The set of symmetries contains only one element for this perturbation.
 symkpt : not enough symmetry to change the number of k points.

 Initialisation of the first-order wave-functions :
  ireadwf=   0

--- !BeginCycle
iteration_state: {dtset: 1, }
solver: {iscf: 7, nstep: 2000, nline: 4, wfoptalg: 0, }
tolerances: {tolwfr: 1.00E-20, }
...

     iter   2DEtotal(Ha)        deltaE(Ha) residm    vres2
-ETOT  1  -51.652961673866     -5.165E+01 3.850E-02 0.000E+00
 ETOT  2  -51.725658732789     -7.270E-02 1.064E-03 0.000E+00
 ETOT  3  -51.726137459022     -4.787E-04 4.543E-05 0.000E+00
 ETOT  4  -51.726143693830     -6.235E-06 6.178E-06 0.000E+00
 ETOT  5  -51.726143805631     -1.118E-07 3.575E-07 0.000E+00
 ETOT  6  -51.726143807957     -2.326E-09 5.442E-08 0.000E+00
 ETOT  7  -51.726143808010     -5.299E-11 4.821E-09 0.000E+00
 ETOT  8  -51.726143808011     -1.286E-12 7.947E-10 0.000E+00
 ETOT  9  -51.726143808011      7.816E-14 6.817E-11 0.000E+00
 ETOT 10  -51.726143808011     -2.132E-14 1.240E-11 0.000E+00
 ETOT 11  -51.726143808011      0.000E+00 1.007E-12 0.000E+00
 ETOT 12  -51.726143808011     -1.421E-14 2.040E-13 0.000E+00
 ETOT 13  -51.726143808011      7.105E-15 1.533E-14 0.000E+00
 ETOT 14  -51.726143808011     -1.421E-14 3.415E-15 0.000E+00
 ETOT 15  -51.726143808011      1.421E-14 2.355E-16 0.000E+00
 ETOT 16  -51.726143808011      0.000E+00 5.740E-17 0.000E+00
 ETOT 17  -51.726143808011     -1.421E-14 3.709E-18 0.000E+00
 ETOT 18  -51.726143808011      1.421E-14 9.818E-19 0.000E+00
 ETOT 19  -51.726143808011     -1.421E-14 6.102E-20 0.000E+00
 ETOT 20  -51.726143808011      1.421E-14 1.719E-20 0.000E+00
 ETOT 21  -51.726143808011      0.000E+00 9.974E-21 0.000E+00

 At SCF step   21   max residual=  9.97E-21 < tolwfr=  1.00E-20 =>converged.

 ----iterations are completed or convergence reached----

 dfpt_looppert: DFPT cycle converged with prtwf=-1. Will skip output of the 1st-order WFK file.
 dfpt_looppert : ek2=    1.0140981991E+02
          f-sum rule ratio=    1.0021791158E+00
 prteigrs : about to open file /scratch/users/j/a/jabreu/flow_simple_11atoms/flow/w219/t1/tmpdata/tmp_1WF1_EIG
 Expectation of eigenvalue derivatives (hartree) for nkpt=   2  k points:
  (in case of degenerate eigenvalues, averaged derivative)
 kpt#   1, nband= 53, wtk=  0.50000, kpt= -0.1148  0.1148  0.1148 (reduced coord)
   0.00086   -0.00074    0.00344   -0.00460    0.00317   -0.00102    0.00027   -0.00506
   0.00109    0.00274    0.00513   -0.00505    0.00182   -0.00178    0.00067   -0.00065
   0.00076    0.00138    0.01023   -0.00602   -0.00161   -0.01836   -0.01586   -0.00260
  -0.00080    0.00692    0.01347    0.01735   -0.01021    0.00901    0.00204    0.01067
  -0.01473    0.02580   -0.01491   -0.01228   -0.01181    0.00073   -0.00512   -0.00420
   0.02901    0.01438   -0.00650   -0.00004    0.01474   -0.01829   -0.01210   -0.03092
   0.10004   -0.01177    0.01812    0.01335    0.03365
 prteigrs : prtvol=0 or 1, do not print more k-points.

 Eight components of 2nd-order total energy (hartree) are
 1,2,3: 0th-order hamiltonian combined with 1st-order wavefunctions
     kin0=   7.21540392E+01 eigvalue=   6.32916738E+00  local=  -3.39519391E+01
 4,5,6: 1st-order hamiltonian combined with 1st and 0th-order wfs
     kin1=  -1.01630804E+02  Hartree=   0.00000000E+00     xc=   0.00000000E+00
 7,8,9: eventually, occupation + non-local contributions
    edocc=   5.76238686E+00     enl0=   1.43248949E+00   enl1=  -1.82148397E+00
 1-9 gives the relaxation energy (to be shifted if some occ is /=2.0)
   erelax=  -5.17261438E+01
  No Ewald or frozen-wf contrib.: the relaxation energy is the total one
 2DEtotal=   -0.5172614381E+02 Ha. Also 2DEtotal=   -0.140753995476E+04 eV
    (  non-var. 2DEtotal :   -5.1726143808E+01 Ha)

 CALCULATION OF EFFECTIVE MASSES
 NOTE : Additional infos (eff. mass eigenvalues, eigenvectors and, if degenerate, average mass) are available in stdout.

 K-point (-0.115, 0.115, 0.115) | band =    44
 Effective mass tensor:
            -42.2015524293             18.9338069727             -3.2906068854
             18.9338069727            -88.7777926564            -38.8658791111
             -3.2906068854            -38.8658791111            -37.0639970597
 Effective mass tensor eigenvalues:
           -112.9096441809            -43.8073030741            -11.3263948904
 Angular average effective mass 1/(<1/m>)= -25.0055783934
 Angular average effective mass for Frohlich model (<m**0.5>)**2= -32.1563417727
 Effective masses along directions: (cart. coord. / red. coord. -> eff. mass)
    1:   1.000000  0.000000  0.000000 /   0.972929 -0.231104  0.000000 -> -31.4755153930
    2:   0.000000  1.000000  0.000000 /   0.000000  1.000000  0.000000 -> -36.0666239136
    3:   0.000000  0.000000  1.000000 /  -0.464521 -0.464521  0.753950 -> -16.5354748978
    4:   0.577350  0.577350  0.577350 /   0.168950 -0.037525  0.984910 -> -57.5664854431
    5:   0.000000  0.707107  0.707107 /  -0.520379  0.125843  0.844612 -> -72.9284201031
    6:   0.707107  0.000000  0.707107 /   0.132559 -0.620694  0.772766 -> -36.0053035320
    7:   0.707107  0.707107  0.000000 /   0.806208  0.591632  0.000000 -> -22.4428196494

 K-point ( 0.500, 0.500,-0.500) | band =    45
 Effective mass tensor:
              1.3191064365             -0.0024654438              0.0037374442
             -0.0024654438              1.3181071908              0.0049477881
              0.0037374442              0.0049477881              1.3131603990
 Effective mass tensor eigenvalues:
              1.3082560304              1.3208968776              1.3212211183
 Angular average effective mass 1/(<1/m>)=   1.3167635765
 Angular average effective mass for Frohlich model (<m**0.5>)**2=   1.3167719202
 Effective masses along directions: (cart. coord. / red. coord. -> eff. mass)
    1:   1.000000  0.000000  0.000000 /   0.972929 -0.231104  0.000000 ->   1.3190911348
    2:   0.000000  1.000000  0.000000 /   0.000000  1.000000  0.000000 ->   1.3180838874
    3:   0.000000  0.000000  1.000000 /  -0.464521 -0.464521  0.753950 ->   1.3131311846
    4:   0.577350  0.577350  0.577350 /   0.168950 -0.037525  0.984910 ->   1.3209375473
    5:   0.000000  0.707107  0.707107 /  -0.520379  0.125843  0.844612 ->   1.3205762908
    6:   0.707107  0.000000  0.707107 /   0.132559 -0.620694  0.772766 ->   1.3198617578
    7:   0.707107  0.707107  0.000000 /   0.806208  0.591632  0.000000 ->   1.3161124558

 END OF EFFECTIVE MASSES SECTION

 ---- first-order wavefunction calculations are completed ----

 Total localisation tensor (bohr^2) in cartesian coordinates
  WARNING : still subject to testing - especially symmetries.
      direction              matrix element
   alpha     beta       real part   imaginary part
     1        1       0.6404051675    0.0000000000
     1        2      -0.1401125246    0.0000000000
     1        3      -0.3613072201    0.0000000000
     2        1      -0.1401125246    0.0000000000
     2        2       0.5729790840    0.0000000000
     2        3      -0.4613990422    0.0000000000
     3        1      -0.3613072201    0.0000000000
     3        2      -0.4613990422    0.0000000000
     3        3       2.1803038465    0.0000000000

 respfn : d/dk was computed, but no 2DTE, so no DDB output.

== END DATASET(S) ==============================================================

 -outvars: echo values of variables after computation  --------
            acell      1.0000000000E+00  1.0000000000E+00  1.0000000000E+00 Bohr
              amu      3.90983000E+01  7.99040000E+01  1.89984032E+01
             ecut      4.20000000E+01 Hartree
           etotal     -5.1726143808E+01
            fcart      0.0000000000E+00  0.0000000000E+00  0.0000000000E+00
                       0.0000000000E+00  0.0000000000E+00  0.0000000000E+00
                       0.0000000000E+00  0.0000000000E+00  0.0000000000E+00
                       0.0000000000E+00  0.0000000000E+00  0.0000000000E+00
                       0.0000000000E+00  0.0000000000E+00  0.0000000000E+00
                       0.0000000000E+00  0.0000000000E+00  0.0000000000E+00
                       0.0000000000E+00  0.0000000000E+00  0.0000000000E+00
                       0.0000000000E+00  0.0000000000E+00  0.0000000000E+00
                       0.0000000000E+00  0.0000000000E+00  0.0000000000E+00
                       0.0000000000E+00  0.0000000000E+00  0.0000000000E+00
                       0.0000000000E+00  0.0000000000E+00  0.0000000000E+00
                       0.0000000000E+00  0.0000000000E+00  0.0000000000E+00
-          fftalg         512
           irdden           1
           irdwfk           1
              ixc     -116133
              kpt     -1.14759310E-01  1.14759310E-01  1.14759310E-01
                       5.00000000E-01  5.00000000E-01 -5.00000000E-01
           kptopt           0
P           mkmem           2
P          mkqmem           2
P          mk1mem           2
            natom          12
            nband          53
           nbdbuf           4
            ngfft          80      80      80
             nkpt           2
            nstep        2000
             nsym          16
           ntypat           3
              occ      2.000000  2.000000  2.000000  2.000000  2.000000  2.000000
                       2.000000  2.000000  2.000000  2.000000  2.000000  2.000000
                       2.000000  2.000000  2.000000  2.000000  2.000000  2.000000
                       2.000000  2.000000  2.000000  2.000000  2.000000  2.000000
                       2.000000  2.000000  2.000000  2.000000  2.000000  2.000000
                       2.000000  2.000000  2.000000  2.000000  2.000000  2.000000
                       2.000000  2.000000  2.000000  2.000000  2.000000  2.000000
                       2.000000  2.000000  0.000000  0.000000  0.000000  0.000000
                       0.000000  0.000000  0.000000  0.000000  0.000000
        optdriver           1
            prtwf          -1
            rfdir           1       1       1
           rfelfd           2
            rprim      1.0522829028E+01  0.0000000000E+00 -8.2311246056E+00
                      -2.4995362876E+00  1.0221655888E+01 -8.2311246056E+00
                       0.0000000000E+00  0.0000000000E+00  1.3359690977E+01
          spgroup         140
           strten      0.0000000000E+00  0.0000000000E+00  0.0000000000E+00
                       0.0000000000E+00  0.0000000000E+00  0.0000000000E+00
           symrel      1  0  0   0  1  0   0  0  1      -1  0  0   0 -1  0   0  0 -1
                       0  0  1  -1 -1 -1   1  0  0       0  0 -1   1  1  1  -1  0  0
                       0  1  0   1  0  0  -1 -1 -1       0 -1  0  -1  0  0   1  1  1
                      -1 -1 -1   0  0  1   0  1  0       1  1  1   0  0 -1   0 -1  0
                       0  1  0   1  0  0   0  0  1       0 -1  0  -1  0  0   0  0 -1
                       0  0  1  -1 -1 -1   0  1  0       0  0 -1   1  1  1   0 -1  0
                       1  0  0   0  1  0  -1 -1 -1      -1  0  0   0 -1  0   1  1  1
                      -1 -1 -1   0  0  1   1  0  0       1  1  1   0  0 -1  -1  0  0
            tnons      0.0000000  0.0000000  0.0000000     0.0000000 -0.0000000  0.0000000
                       0.5000000  0.5000000 -0.0000000     0.5000000  0.5000000  0.0000000
                       0.0000000 -0.0000000  0.0000000     0.0000000 -0.0000000  0.0000000
                       0.5000000  0.5000000  0.0000000     0.5000000  0.5000000  0.0000000
                       0.5000000  0.5000000  0.0000000     0.5000000  0.5000000  0.0000000
                       0.0000000 -0.0000000  0.0000000     0.0000000  0.0000000  0.0000000
                       0.5000000  0.5000000  0.0000000     0.5000000  0.5000000  0.0000000
                       0.0000000 -0.0000000  0.0000000     0.0000000 -0.0000000 -0.0000000
           tolwfr      1.00000000E-20
            typat      1  1  2  2  3  3  3  3  3  3  3  3
           useylm           1
              wtk        0.50000    0.50000
           xangst      1.0614359140E+00  1.3522668325E+00 -2.1778617712E+00
                       3.1843077419E+00  4.0568004974E+00 -6.5335853135E+00
                       2.7842206456E+00  0.0000000000E+00  1.3569602184E+00
                      -6.6134881772E-01  2.7045336649E+00  1.3569602184E+00
                       3.9592089736E+00  1.4969323382E+00  1.1329354884E+00
                       2.9225512197E+00  1.7623282267E-01  3.2599572544E+00
                       2.8653468215E-01  3.9121349917E+00 -2.7747385940E+00
                       3.3229593767E+00  2.8807664876E+00 -1.9352524410E+00
                       1.3231924361E+00  5.2328345072E+00 -4.9017603600E+00
                       4.3596171307E+00  4.2014660031E+00 -4.0622742070E+00
                       9.2278427908E-01  2.5283008423E+00  2.9344933538E-01
                      -1.1387347489E-01  1.2076013267E+00  2.4204711014E+00
            xcart      2.0058231850E+00  2.5554139719E+00 -4.1155623028E+00
                       6.0174695549E+00  7.6662419158E+00 -1.2346686908E+01
                       5.2614145138E+00  0.0000000000E+00  2.5642831859E+00
                      -1.2497681438E+00  5.1108279439E+00  2.5642831860E+00
                       7.4818206631E+00  2.8287921587E+00  2.1409377993E+00
                       5.5228214145E+00  3.3303177048E-01  6.1604264157E+00
                       5.4147207685E-01  7.3928637291E+00 -5.2434960330E+00
                       6.2794831727E+00  5.4438597144E+00 -3.6570971114E+00
                       2.5004713254E+00  9.8886241173E+00 -9.2629846494E+00
                       8.2384824212E+00  7.9396201026E+00 -7.6765857279E+00
                       1.7438095672E+00  4.7777961734E+00  5.5453887775E-01
                      -2.1518968134E-01  2.2820357852E+00  4.5740274942E+00
             xred      2.5000000000E-01  2.5000000000E-01  1.3877787808E-17
                       7.5000000000E-01  7.5000000000E-01  1.6653345369E-16
                       5.0000000000E-01  0.0000000000E+00  5.0000000000E-01
                      -1.3877787808E-17  5.0000000000E-01  5.0000000000E-01
                       7.7674500000E-01  2.7674500000E-01  8.0932600000E-01
                       5.3258100000E-01  3.2581000000E-02  8.0932600000E-01
                       2.2325500000E-01  7.2325500000E-01  1.9067400000E-01
                       7.2325500000E-01  5.3258100000E-01  5.0000000000E-01
                       4.6741900000E-01  9.6741900000E-01  1.9067400000E-01
                       9.6741900000E-01  7.7674500000E-01  5.0000000000E-01
                       2.7674500000E-01  4.6741900000E-01  5.0000000000E-01
                       3.2581000000E-02  2.2325500000E-01  5.0000000000E-01
            znucl       19.00000   35.00000    9.00000

- Timing analysis has been suppressed with timopt=0

 Suggested references for the acknowledgment of ABINIT usage.

 Calculation completed.
.Delivered   2 WARNINGs and   5 COMMENTs to log file.