.Version 9.5.1 of ABINIT

 ABINIT is a project of the Universite Catholique de Louvain,
 Corning Inc. and other collaborators, see ~abinit/doc/developers/contributors.txt .
 acknowledgments of the ABINIT effort.

.Starting date : Tue  4 May 2021.
- ( at 19h49 )

- input  file    -> /scratch/users/j/a/jabreu/flow_simple_6atoms/flow/w236/t1/run.abi
- output file    -> /scratch/users/j/a/jabreu/flow_simple_6atoms/flow/w236/t1/run.abo
- root for input  files -> /scratch/users/j/a/jabreu/flow_simple_6atoms/flow/w236/t1/indata/in
- root for output files -> /scratch/users/j/a/jabreu/flow_simple_6atoms/flow/w236/t1/outdata/out

 Symmetries : space group Pn n m (# 58); Bravais oP (primitive ortho.)
     intxc =       0      iscf =       7    lmnmax =      18     lnmax =       6
     mgfft =      72  mpssoang =       3    mqgrid =    3274     natom =       6
  nloc_mem =       1    nspden =       1   nspinor =       1    nsppol =       1
      nsym =       8    n1xccc =    2501    ntypat =       2    occopt =       1
   xclevel =       2
-    mband =          33        mffmem =           1         mkmem =           2
-   mkqmem =           2        mk1mem =           2           mpw =       11419
      nfft =      207360          nkpt =           2
  Rough estimation (10% accuracy) of disk space for files :

------------- Echo of variables that govern the present computation ------------
-
- outvars: echo of selected default values
-   iomode0 =  0 , fftalg0 =512 , wfoptalg0 =  0
-
- outvars: echo of global parameters not present in the input file
-  max_nthreads =    0
-
 -outvars: echo values of preprocessed input variables --------
            acell      1.0000000000E+00  1.0000000000E+00  1.0000000000E+00 Bohr
              amu      4.00780000E+01  3.54527000E+01
             ecut      3.60000000E+01 Hartree
-          fftalg         512
           irdden           1
           irdwfk           1
           istwfk        0    1
              ixc     -116133
              kpt      0.00000000E+00  9.37500000E-02  0.00000000E+00
                       0.00000000E+00  0.00000000E+00  0.00000000E+00
           kptopt           0
P           mkmem           2
P          mkqmem           2
P          mk1mem           2
            natom           6
            nband          33
           nbdbuf           4
            ngfft          45      64      72
             nkpt           2
            nstep        1000
             nsym           8
           ntypat           2
              occ      2.000000  2.000000  2.000000  2.000000  2.000000  2.000000
                       2.000000  2.000000  2.000000  2.000000  2.000000  2.000000
                       2.000000  2.000000  2.000000  2.000000  2.000000  2.000000
                       2.000000  2.000000  2.000000  2.000000  2.000000  2.000000
                       0.000000  0.000000  0.000000  0.000000  0.000000  0.000000
                       0.000000  0.000000  0.000000
        optdriver           1
            prtwf          -1
            rfdir           1       1       1
           rfelfd           2
            rprim      7.7943968769E+00  0.0000000000E+00  0.0000000000E+00
                       0.0000000000E+00  1.1707100046E+01  0.0000000000E+00
                       0.0000000000E+00  0.0000000000E+00  1.2121259056E+01
          spgroup          58
           symrel      1  0  0   0  1  0   0  0  1      -1  0  0   0 -1  0   0  0 -1
                      -1  0  0   0  1  0   0  0 -1       1  0  0   0 -1  0   0  0  1
                      -1  0  0   0 -1  0   0  0  1       1  0  0   0  1  0   0  0 -1
                       1  0  0   0 -1  0   0  0 -1      -1  0  0   0  1  0   0  0  1
            tnons      0.0000000  0.0000000  0.0000000    -0.0000000  0.0000000  0.0000000
                       0.5000000  0.5000000  0.5000000     0.5000000  0.5000000  0.5000000
                       0.5000000  0.5000000  0.5000000     0.5000000  0.5000000  0.5000000
                       0.0000000  0.0000000  0.0000000    -0.0000000  0.0000000  0.0000000
           tolwfr      1.00000000E-20
            typat      1  1  2  2  2  2
           useylm           1
              wtk        0.50000    0.50000
           xangst      2.0623085910E+00  3.0975652615E+00  3.2071470160E+00
                       0.0000000000E+00  0.0000000000E+00  0.0000000000E+00
                       2.0623085910E+00  4.7856330117E+00  1.0684289569E+00
                       2.0623085910E+00  1.4094975112E+00  5.3458650751E+00
                       0.0000000000E+00  4.5070627726E+00  4.2755759729E+00
                       0.0000000000E+00  1.6880677503E+00  2.1387180591E+00
            xcart      3.8971984384E+00  5.8535500229E+00  6.0606295281E+00
                       0.0000000000E+00  0.0000000000E+00  0.0000000000E+00
                       3.8971984384E+00  9.0435357647E+00  2.0190381210E+00
                       3.8971984384E+00  2.6635642811E+00  1.0102220935E+01
                       0.0000000000E+00  8.5171143040E+00  8.0796676491E+00
                       0.0000000000E+00  3.1899857418E+00  4.0415914071E+00
             xred      5.0000000000E-01  5.0000000000E-01  5.0000000000E-01
                       0.0000000000E+00  0.0000000000E+00  0.0000000000E+00
                       5.0000000000E-01  7.7248300000E-01  1.6657000000E-01
                       5.0000000000E-01  2.2751700000E-01  8.3343000000E-01
                       0.0000000000E+00  7.2751700000E-01  6.6657000000E-01
                       0.0000000000E+00  2.7248300000E-01  3.3343000000E-01
            znucl       20.00000   17.00000

 chkinp: Checking input parameters for consistency.

== DATASET  1 ==================================================================
-   mpi_nproc: 1, omp_nthreads: -1 (-1 if OMP is not activated)

--- !DatasetInfo
iteration_state: {dtset: 1, }
dimensions: {natom: 6, nkpt: 2, mband: 33, nsppol: 1, nspinor: 1, nspden: 1, mpw: 11419, }
cutoff_energies: {ecut:  36.0, pawecutdg:  -1.0, }
electrons: {nelect:   4.80000000E+01, charge:   0.00000000E+00, occopt:   1.00000000E+00, tsmear:   1.00000000E-02, }
meta: {optdriver: 1, rfelfd: 2, }
...

 Real(R)+Recip(G) space primitive vectors, cartesian coordinates (Bohr,Bohr^-1):
 R(1)=  7.7943969  0.0000000  0.0000000  G(1)=  0.1282973  0.0000000  0.0000000
 R(2)=  0.0000000 11.7071000  0.0000000  G(2)=  0.0000000  0.0854183  0.0000000
 R(3)=  0.0000000  0.0000000 12.1212591  G(3)=  0.0000000  0.0000000  0.0824997
 Unit cell volume ucvol=  1.1060623E+03 bohr^3
 Angles (23,13,12)=  9.00000000E+01  9.00000000E+01  9.00000000E+01 degrees

 getcut: wavevector=  0.0000  0.0000  0.0000  ngfft=  45  64  72
         ecut(hartree)=     36.000   => boxcut(ratio)=   2.02402

--- Pseudopotential description ------------------------------------------------
- pspini: atom type   1  psp file is /scratch/users/j/a/jabreu/pseudos/PBEsol/Ca.psp8
- pspatm: opening atomic psp file    /scratch/users/j/a/jabreu/pseudos/PBEsol/Ca.psp8
- Ca    ONCVPSP-3.3.0  r_core=   1.45885   1.45885   1.85192
- 20.00000  10.00000    180112                znucl, zion, pspdat
    8 -116133    2    4       400   0.00000   pspcod,pspxc,lmax,lloc,mmax,r2well
    3.99000000000000    6.00000000000000    0.00000000000000   rchrg,fchrg,qchrg
     nproj     2     2     2
     extension_switch     1
  pspatm : epsatm=   12.46045226
         --- l  ekb(1:nproj) -->
             0   10.054847    0.973777
             1    2.998958    0.458102
             2   -3.447298   -1.091650
 pspatm: atomic psp has been read  and splines computed

- pspini: atom type   2  psp file is /scratch/users/j/a/jabreu/pseudos/PBEsol/Cl.psp8
- pspatm: opening atomic psp file    /scratch/users/j/a/jabreu/pseudos/PBEsol/Cl.psp8
- Cl    ONCVPSP-3.3.0  r_core=   1.56009   1.35202   1.75774
- 17.00000   7.00000    180112                znucl, zion, pspdat
    8 -116133    2    4       600   0.00000   pspcod,pspxc,lmax,lloc,mmax,r2well
    5.99000000000000    8.00000000000000    0.00000000000000   rchrg,fchrg,qchrg
     nproj     2     2     2
     extension_switch     1
  pspatm : epsatm=    8.95520722
         --- l  ekb(1:nproj) -->
             0    8.193503    0.707970
             1    3.869736    1.114731
             2   -2.915303   -0.810552
 pspatm: atomic psp has been read  and splines computed

   2.91560320E+03                                ecore*ucvol(ha*bohr**3)

-inwffil : will read wavefunctions from disk file /scratch/users/j/a/jabreu/flow_simple_6atoms/flow/w236/t1/indata/in_WFK

 ==>  initialize data related to q vector <==

 The list of irreducible perturbations for this q vector is:
    1)    idir= 1    ipert=   7
    2)    idir= 2    ipert=   7
    3)    idir= 3    ipert=   7

 Perturbation wavevector (in red.coord.)   0.000000  0.000000  0.000000
 Perturbation : derivative vs k along direction   1

 dfpt_looppert : COMMENT -
  In a d/dk calculation, iscf is set to -3 automatically.
 The set of symmetries contains only one element for this perturbation.
 symkpt : not enough symmetry to change the number of k points.

[...]

 Initialisation of the first-order wave-functions :
  ireadwf=   0

--- !BeginCycle
iteration_state: {dtset: 1, }
solver: {iscf: 7, nstep: 1000, nline: 4, wfoptalg: 0, }
tolerances: {tolwfr: 1.00E-20, }
...

     iter   2DEtotal(Ha)        deltaE(Ha) residm    vres2
-ETOT  1  -31.404857320741     -3.140E+01 4.322E-02 0.000E+00
 ETOT  2  -31.501845731886     -9.699E-02 2.074E-03 0.000E+00
 ETOT  3  -31.503442652613     -1.597E-03 2.744E-05 0.000E+00
 ETOT  4  -31.503481304256     -3.865E-05 9.247E-06 0.000E+00
 ETOT  5  -31.503482580160     -1.276E-06 4.398E-07 0.000E+00
 ETOT  6  -31.503482627740     -4.758E-08 2.187E-07 0.000E+00
 ETOT  7  -31.503482629656     -1.917E-09 1.064E-08 0.000E+00
 ETOT  8  -31.503482629736     -7.975E-11 6.134E-09 0.000E+00
 ETOT  9  -31.503482629740     -3.446E-12 8.341E-10 0.000E+00
 ETOT 10  -31.503482629740     -1.208E-13 4.458E-10 0.000E+00
 ETOT 11  -31.503482629740      0.000E+00 7.843E-11 0.000E+00
 ETOT 12  -31.503482629740     -7.105E-15 4.329E-11 0.000E+00
 ETOT 13  -31.503482629740      7.105E-15 7.530E-12 0.000E+00
 ETOT 14  -31.503482629740      0.000E+00 4.251E-12 0.000E+00
 ETOT 15  -31.503482629740      0.000E+00 7.337E-13 0.000E+00
 ETOT 16  -31.503482629740      3.553E-15 4.212E-13 0.000E+00
 ETOT 17  -31.503482629740      2.132E-14 7.258E-14 0.000E+00
 ETOT 18  -31.503482629740     -3.908E-14 4.216E-14 0.000E+00
 ETOT 19  -31.503482629740      1.421E-14 7.303E-15 0.000E+00
 ETOT 20  -31.503482629740     -7.105E-15 4.279E-15 0.000E+00
 ETOT 21  -31.503482629740     -3.553E-15 7.476E-16 0.000E+00
 ETOT 22  -31.503482629740     -3.553E-15 4.397E-16 0.000E+00
 ETOT 23  -31.503482629740      1.066E-14 7.737E-17 0.000E+00
 ETOT 24  -31.503482629740     -7.105E-15 4.564E-17 0.000E+00
 ETOT 25  -31.503482629740      3.553E-15 8.077E-18 0.000E+00
 ETOT 26  -31.503482629740      1.066E-14 4.763E-18 0.000E+00
 ETOT 27  -31.503482629740     -1.421E-14 8.477E-19 0.000E+00
 ETOT 28  -31.503482629740      7.105E-15 4.985E-19 0.000E+00
 ETOT 29  -31.503482629740      3.553E-15 8.922E-20 0.000E+00
 ETOT 30  -31.503482629740     -7.105E-15 5.226E-20 0.000E+00
 ETOT 31  -31.503482629740      3.553E-15 9.907E-21 0.000E+00

 At SCF step   31   max residual=  9.91E-21 < tolwfr=  1.00E-20 =>converged.

 ----iterations are completed or convergence reached----

 dfpt_looppert: DFPT cycle converged with prtwf=-1. Will skip output of the 1st-order WFK file.
 dfpt_looppert : ek2=    6.2382954400E+01
          f-sum rule ratio=    1.1164117170E+00
 prteigrs : about to open file /scratch/users/j/a/jabreu/flow_simple_6atoms/flow/w236/t1/tmpdata/tmp_1WF1_EIG
 Expectation of eigenvalue derivatives (hartree) for nkpt=   2  k points:
  (in case of degenerate eigenvalues, averaged derivative)
 kpt#   1, nband= 33, wtk=  0.50000, kpt=  0.0000  0.0938  0.0000 (reduced coord)
   0.00000   -0.00000    0.00000   -0.00000    0.00000   -0.00000   -0.00000   -0.00000
   0.00000    0.00000   -0.00000    0.00000    0.00000   -0.00000   -0.00000    0.00000
   0.00000    0.00000    0.00000   -0.00000   -0.00000    0.00000    0.00000    0.00000
  -0.00000    0.00000   -0.00000   -0.00000   -0.00000    0.00000   -0.00000   -0.00000
   0.00001
 prteigrs : prtvol=0 or 1, do not print more k-points.

 Eight components of 2nd-order total energy (hartree) are
 1,2,3: 0th-order hamiltonian combined with 1st-order wavefunctions
     kin0=   4.60432246E+01 eigvalue=   3.17996070E+00  local=  -2.88278480E+01
 4,5,6: 1st-order hamiltonian combined with 1st and 0th-order wfs
     kin1=  -6.96450612E+01  Hartree=   0.00000000E+00     xc=   0.00000000E+00
 7,8,9: eventually, occupation + non-local contributions
    edocc=   1.08090720E+01     enl0=   2.99073355E-01   enl1=   6.63809597E+00
 1-9 gives the relaxation energy (to be shifted if some occ is /=2.0)
   erelax=  -3.15034826E+01
  No Ewald or frozen-wf contrib.: the relaxation energy is the total one
 2DEtotal=   -0.3150348263E+02 Ha. Also 2DEtotal=   -0.857253358765E+03 eV
    (  non-var. 2DEtotal :   -3.1503482629E+01 Ha)

 Perturbation wavevector (in red.coord.)   0.000000  0.000000  0.000000
 Perturbation : derivative vs k along direction   2
 The set of symmetries contains only one element for this perturbation.
 symkpt : not enough symmetry to change the number of k points.

[...]

 Perturbation wavevector (in red.coord.)   0.000000  0.000000  0.000000
 Perturbation : derivative vs k along direction   3
 The set of symmetries contains only one element for this perturbation.
 symkpt : not enough symmetry to change the number of k points.

-inwffil : will read wavefunctions from disk file /scratch/users/j/a/jabreu/flow_simple_6atoms/flow/w236/t1/indata/in_WFK

 Initialisation of the first-order wave-functions :
  ireadwf=   0

--- !BeginCycle
iteration_state: {dtset: 1, }
solver: {iscf: 7, nstep: 1000, nline: 4, wfoptalg: 0, }
tolerances: {tolwfr: 1.00E-20, }
...

     iter   2DEtotal(Ha)        deltaE(Ha) residm    vres2
-ETOT  1  -12.375882245184     -1.238E+01 1.272E-02 0.000E+00
 ETOT  2  -12.402029988086     -2.615E-02 6.754E-04 0.000E+00
 ETOT  3  -12.402428712307     -3.987E-04 1.057E-04 0.000E+00
 ETOT  4  -12.402439013242     -1.030E-05 2.235E-05 0.000E+00
 ETOT  5  -12.402439377696     -3.645E-07 8.322E-06 0.000E+00
 ETOT  6  -12.402439391951     -1.425E-08 2.175E-06 0.000E+00
 ETOT  7  -12.402439392559     -6.076E-10 8.747E-07 0.000E+00
 ETOT  8  -12.402439392585     -2.693E-11 2.238E-07 0.000E+00
 ETOT  9  -12.402439392587     -1.268E-12 9.194E-08 0.000E+00
 ETOT 10  -12.402439392587     -6.750E-14 2.347E-08 0.000E+00
 ETOT 11  -12.402439392587      1.421E-14 9.677E-09 0.000E+00
 ETOT 12  -12.402439392587     -7.105E-15 2.481E-09 0.000E+00
 ETOT 13  -12.402439392587     -3.553E-15 1.020E-09 0.000E+00
 ETOT 14  -12.402439392587      0.000E+00 2.632E-10 0.000E+00
 ETOT 15  -12.402439392587     -1.776E-15 1.075E-10 0.000E+00
 ETOT 16  -12.402439392587      1.776E-15 2.804E-11 0.000E+00
 ETOT 17  -12.402439392587     -1.776E-15 1.137E-11 0.000E+00
 ETOT 18  -12.402439392587      1.776E-15 3.018E-12 0.000E+00
 ETOT 19  -12.402439392587     -1.776E-15 1.211E-12 0.000E+00
 ETOT 20  -12.402439392587     -1.776E-15 3.329E-13 0.000E+00
 ETOT 21  -12.402439392587      1.066E-14 1.305E-13 0.000E+00
 ETOT 22  -12.402439392587     -1.776E-15 3.716E-14 0.000E+00
 ETOT 23  -12.402439392587     -8.882E-15 1.446E-14 0.000E+00
 ETOT 24  -12.402439392587      1.776E-15 4.207E-15 0.000E+00
 ETOT 25  -12.402439392587      0.000E+00 1.612E-15 0.000E+00
 ETOT 26  -12.402439392587     -5.329E-15 4.779E-16 0.000E+00
 ETOT 27  -12.402439392587      3.553E-15 1.813E-16 0.000E+00
 ETOT 28  -12.402439392587      1.776E-15 5.442E-17 0.000E+00
 ETOT 29  -12.402439392587      0.000E+00 2.053E-17 0.000E+00
 ETOT 30  -12.402439392587      0.000E+00 6.213E-18 0.000E+00
 ETOT 31  -12.402439392587      0.000E+00 2.337E-18 0.000E+00
 ETOT 32  -12.402439392587      0.000E+00 7.109E-19 0.000E+00
 ETOT 33  -12.402439392587     -1.776E-15 2.671E-19 0.000E+00
 ETOT 34  -12.402439392587     -1.776E-15 8.152E-20 0.000E+00
 ETOT 35  -12.402439392587      0.000E+00 3.060E-20 0.000E+00
 ETOT 36  -12.402439392587      3.553E-15 9.730E-21 0.000E+00

 At SCF step   36   max residual=  9.73E-21 < tolwfr=  1.00E-20 =>converged.

 ----iterations are completed or convergence reached----

 dfpt_looppert: DFPT cycle converged with prtwf=-1. Will skip output of the 1st-order WFK file.
 dfpt_looppert : ek2=    2.5794998299E+01
          f-sum rule ratio=    1.0705222999E+00
 prteigrs : about to open file /scratch/users/j/a/jabreu/flow_simple_6atoms/flow/w236/t1/tmpdata/tmp_1WF1_EIG
 Expectation of eigenvalue derivatives (hartree) for nkpt=   2  k points:
  (in case of degenerate eigenvalues, averaged derivative)
 kpt#   1, nband= 33, wtk=  0.50000, kpt=  0.0000  0.0938  0.0000 (reduced coord)
  -0.00000    0.00000    0.00000   -0.00000    0.00000   -0.00000    0.00000   -0.00000
   0.00000   -0.00000   -0.00000    0.00000   -0.00000    0.00000    0.00000   -0.00000
  -0.00000    0.00000   -0.00000   -0.00000    0.00000   -0.00000    0.00000   -0.00000
  -0.00000    0.00000    0.00000   -0.00000    0.00000    0.00000    0.00000   -0.00000
   0.00027
 prteigrs : prtvol=0 or 1, do not print more k-points.

 Eight components of 2nd-order total energy (hartree) are
 1,2,3: 0th-order hamiltonian combined with 1st-order wavefunctions
     kin0=   1.51742997E+01 eigvalue=   1.01422944E+00  local=  -8.77047866E+00
 4,5,6: 1st-order hamiltonian combined with 1st and 0th-order wfs
     kin1=  -2.76141209E+01  Hartree=   0.00000000E+00     xc=   0.00000000E+00
 7,8,9: eventually, occupation + non-local contributions
    edocc=   4.80737680E+00     enl0=   1.77012066E-01   enl1=   2.80924212E+00
 1-9 gives the relaxation energy (to be shifted if some occ is /=2.0)
   erelax=  -1.24024394E+01
  No Ewald or frozen-wf contrib.: the relaxation energy is the total one
 2DEtotal=   -0.1240243939E+02 Ha. Also 2DEtotal=   -0.337487539112E+03 eV
    (  non-var. 2DEtotal :   -1.2402439392E+01 Ha)

 CALCULATION OF EFFECTIVE MASSES
 NOTE : Additional infos (eff. mass eigenvalues, eigenvectors and, if degenerate, average mass) are available in stdout.

 K-point ( 0.000, 0.094, 0.000) | band =    24
 Effective mass tensor:
             -2.6799502659              0.0000000552             -0.0000033649
              0.0000000552            -18.3674433435              0.0005498093
             -0.0000033649              0.0005498093             -1.6681459101
 Effective mass tensor eigenvalues:
            -18.3674433616             -2.6799502659             -1.6681458920
 Angular average effective mass 1/(<1/m>)=  -2.9209777302
 Angular average effective mass for Frohlich model (<m**0.5>)**2=  -3.5560134218
 Effective masses along directions: (cart. coord. / red. coord. -> eff. mass)
    1:   1.000000  0.000000  0.000000 /   1.000000  0.000000  0.000000 ->  -2.6799502659
    2:   0.000000  1.000000  0.000000 /   0.000000  1.000000  0.000000 -> -18.3674431623
    3:   0.000000  0.000000  1.000000 /   0.000000  0.000000  1.000000 ->  -1.6681458936
    4:   0.577350  0.577350  0.577350 /   0.419798  0.630532  0.652839 ->  -2.9208799393
    5:   0.000000  0.707107  0.707107 /   0.000000  0.694712  0.719288 ->  -3.0583471536
    6:   0.707107  0.000000  0.707107 /   0.540864  0.000000  0.841110 ->  -2.0563275450
    7:   0.707107  0.707107  0.000000 /   0.554191  0.832389  0.000000 ->  -4.6774280247

 K-point ( 0.000, 0.000, 0.000) | band =    25
 Effective mass tensor:
              0.6248194070              0.0000000004              0.0000000004
              0.0000000004              1.1463968474              0.0000004007
              0.0000000004              0.0000004007              1.0955713180
 Effective mass tensor eigenvalues:
              0.6248194070              1.0955713180              1.1463968474
 Angular average effective mass 1/(<1/m>)=   0.8861250961
 Angular average effective mass for Frohlich model (<m**0.5>)**2=   0.9083462027
 Effective masses along directions: (cart. coord. / red. coord. -> eff. mass)
    1:   1.000000  0.000000  0.000000 /   1.000000  0.000000  0.000000 ->   0.6248194070
    2:   0.000000  1.000000  0.000000 /   0.000000  1.000000  0.000000 ->   1.1463968474
    3:   0.000000  0.000000  1.000000 /   0.000000  0.000000  1.000000 ->   1.0955713180
    4:   0.577350  0.577350  0.577350 /   0.419798  0.630532  0.652839 ->   0.8861252637
    5:   0.000000  0.707107  0.707107 /   0.000000  0.694712  0.719288 ->   1.1204083746
    6:   0.707107  0.000000  0.707107 /   0.540864  0.000000  0.841110 ->   0.7957892491
    7:   0.707107  0.707107  0.000000 /   0.554191  0.832389  0.000000 ->   0.8088125850

 END OF EFFECTIVE MASSES SECTION

 ---- first-order wavefunction calculations are completed ----

 Total localisation tensor (bohr^2) in cartesian coordinates
  WARNING : still subject to testing - especially symmetries.
      direction              matrix element
   alpha     beta       real part   imaginary part
     1        1       1.0824444604    0.0000000000
     1        2       0.0000000000    0.0000000000
     1        3       0.0000000000    0.0000000000
     2        1       0.0000000000    0.0000000000
     2        2       0.9156607401    0.0000000000
     2        3       0.0000000000    0.0000000000
     3        1       0.0000000000    0.0000000000
     3        2       0.0000000000    0.0000000000
     3        3       0.9677793791    0.0000000000

 respfn : d/dk was computed, but no 2DTE, so no DDB output.

== END DATASET(S) ==============================================================

 -outvars: echo values of variables after computation  --------
            acell      1.0000000000E+00  1.0000000000E+00  1.0000000000E+00 Bohr
              amu      4.00780000E+01  3.54527000E+01
             ecut      3.60000000E+01 Hartree
           etotal     -1.2402439393E+01
            fcart      0.0000000000E+00  0.0000000000E+00  0.0000000000E+00
                       0.0000000000E+00  0.0000000000E+00  0.0000000000E+00
                       0.0000000000E+00  0.0000000000E+00  0.0000000000E+00
                       0.0000000000E+00  0.0000000000E+00  0.0000000000E+00
                       0.0000000000E+00  0.0000000000E+00  0.0000000000E+00
                       0.0000000000E+00  0.0000000000E+00  0.0000000000E+00
-          fftalg         512
           irdden           1
           irdwfk           1
           istwfk        0    1
              ixc     -116133
              kpt      0.00000000E+00  9.37500000E-02  0.00000000E+00
                       0.00000000E+00  0.00000000E+00  0.00000000E+00
           kptopt           0
P           mkmem           2
P          mkqmem           2
P          mk1mem           2
            natom           6
            nband          33
           nbdbuf           4
            ngfft          45      64      72
             nkpt           2
            nstep        1000
             nsym           8
           ntypat           2
              occ      2.000000  2.000000  2.000000  2.000000  2.000000  2.000000
                       2.000000  2.000000  2.000000  2.000000  2.000000  2.000000
                       2.000000  2.000000  2.000000  2.000000  2.000000  2.000000
                       2.000000  2.000000  2.000000  2.000000  2.000000  2.000000
                       0.000000  0.000000  0.000000  0.000000  0.000000  0.000000
                       0.000000  0.000000  0.000000
        optdriver           1
            prtwf          -1
            rfdir           1       1       1
           rfelfd           2
            rprim      7.7943968769E+00  0.0000000000E+00  0.0000000000E+00
                       0.0000000000E+00  1.1707100046E+01  0.0000000000E+00
                       0.0000000000E+00  0.0000000000E+00  1.2121259056E+01
          spgroup          58
           strten      0.0000000000E+00  0.0000000000E+00  0.0000000000E+00
                       0.0000000000E+00  0.0000000000E+00  0.0000000000E+00
           symrel      1  0  0   0  1  0   0  0  1      -1  0  0   0 -1  0   0  0 -1
                      -1  0  0   0  1  0   0  0 -1       1  0  0   0 -1  0   0  0  1
                      -1  0  0   0 -1  0   0  0  1       1  0  0   0  1  0   0  0 -1
                       1  0  0   0 -1  0   0  0 -1      -1  0  0   0  1  0   0  0  1
            tnons      0.0000000  0.0000000  0.0000000    -0.0000000  0.0000000  0.0000000
                       0.5000000  0.5000000  0.5000000     0.5000000  0.5000000  0.5000000
                       0.5000000  0.5000000  0.5000000     0.5000000  0.5000000  0.5000000
                       0.0000000  0.0000000  0.0000000    -0.0000000  0.0000000  0.0000000
           tolwfr      1.00000000E-20
            typat      1  1  2  2  2  2
           useylm           1
              wtk        0.50000    0.50000
           xangst      2.0623085910E+00  3.0975652615E+00  3.2071470160E+00
                       0.0000000000E+00  0.0000000000E+00  0.0000000000E+00
                       2.0623085910E+00  4.7856330117E+00  1.0684289569E+00
                       2.0623085910E+00  1.4094975112E+00  5.3458650751E+00
                       0.0000000000E+00  4.5070627726E+00  4.2755759729E+00
                       0.0000000000E+00  1.6880677503E+00  2.1387180591E+00
            xcart      3.8971984384E+00  5.8535500229E+00  6.0606295281E+00
                       0.0000000000E+00  0.0000000000E+00  0.0000000000E+00
                       3.8971984384E+00  9.0435357647E+00  2.0190381210E+00
                       3.8971984384E+00  2.6635642811E+00  1.0102220935E+01
                       0.0000000000E+00  8.5171143040E+00  8.0796676491E+00
                       0.0000000000E+00  3.1899857418E+00  4.0415914071E+00
             xred      5.0000000000E-01  5.0000000000E-01  5.0000000000E-01
                       0.0000000000E+00  0.0000000000E+00  0.0000000000E+00
                       5.0000000000E-01  7.7248300000E-01  1.6657000000E-01
                       5.0000000000E-01  2.2751700000E-01  8.3343000000E-01
                       0.0000000000E+00  7.2751700000E-01  6.6657000000E-01
                       0.0000000000E+00  2.7248300000E-01  3.3343000000E-01
            znucl       20.00000   17.00000

- Timing analysis has been suppressed with timopt=0

 Suggested references for the acknowledgment of ABINIT usage.

 Calculation completed.
.Delivered  14 WARNINGs and   9 COMMENTs to log file.