.Version 9.5.1 of ABINIT

 ABINIT is a project of the Universite Catholique de Louvain,
 Corning Inc. and other collaborators, see ~abinit/doc/developers/contributors.txt .
 acknowledgments of the ABINIT effort.

.Starting date : Tue  4 May 2021.
- ( at 19h33 )

- input  file    -> /scratch/users/j/a/jabreu/flow_simple_6atoms/flow/w221/t1/run.abi
- output file    -> /scratch/users/j/a/jabreu/flow_simple_6atoms/flow/w221/t1/run.abo
- root for input  files -> /scratch/users/j/a/jabreu/flow_simple_6atoms/flow/w221/t1/indata/in
- root for output files -> /scratch/users/j/a/jabreu/flow_simple_6atoms/flow/w221/t1/outdata/out

 Symmetries : space group P4/n m m (#129); Bravais tP (primitive tetrag.)
     intxc =       0      iscf =       7    lmnmax =      18     lnmax =       6
     mgfft =      80  mpssoang =       3    mqgrid =    3809     natom =       6
  nloc_mem =       1    nspden =       1   nspinor =       1    nsppol =       1
      nsym =      16    n1xccc =    2501    ntypat =       3    occopt =       1
   xclevel =       2
-    mband =          33        mffmem =           1         mkmem =           1
-   mkqmem =           1        mk1mem =           1           mpw =       10135
      nfft =      184320          nkpt =           1
  Rough estimation (10% accuracy) of disk space for files :

------------- Echo of variables that govern the present computation ------------
-
- outvars: echo of selected default values
-   iomode0 =  0 , fftalg0 =512 , wfoptalg0 =  0
-
- outvars: echo of global parameters not present in the input file
-  max_nthreads =    0
-
 -outvars: echo values of preprocessed input variables --------
            acell      1.0000000000E+00  1.0000000000E+00  1.0000000000E+00 Bohr
              amu      8.76200000E+01  3.54527000E+01  1.89984032E+01
             ecut      4.20000000E+01 Hartree
-          fftalg         512
           irdden           1
           irdwfk           1
           istwfk        1
              ixc     -116133
           kptopt           0
P           mkmem           1
P          mkqmem           1
P          mk1mem           1
            natom           6
            nband          33
           nbdbuf           4
            ngfft          48      48      80
             nkpt           1
            nstep        1000
             nsym          16
           ntypat           3
              occ      2.000000  2.000000  2.000000  2.000000  2.000000  2.000000
                       2.000000  2.000000  2.000000  2.000000  2.000000  2.000000
                       2.000000  2.000000  2.000000  2.000000  2.000000  2.000000
                       2.000000  2.000000  2.000000  2.000000  2.000000  2.000000
                       0.000000  0.000000  0.000000  0.000000  0.000000  0.000000
                       0.000000  0.000000  0.000000
        optdriver           1
            prtwf          -1
            rfdir           1       1       1
           rfelfd           2
            rprim      7.7168609605E+00  0.0000000000E+00  0.0000000000E+00
                       0.0000000000E+00  7.7168609605E+00  0.0000000000E+00
                       0.0000000000E+00  0.0000000000E+00  1.3053969762E+01
          spgroup         129
           symrel      1  0  0   0  1  0   0  0  1      -1  0  0   0 -1  0   0  0 -1
                      -1  0  0   0  1  0   0  0 -1       1  0  0   0 -1  0   0  0  1
                      -1  0  0   0 -1  0   0  0  1       1  0  0   0  1  0   0  0 -1
                       1  0  0   0 -1  0   0  0 -1      -1  0  0   0  1  0   0  0  1
                       0  1  0   1  0  0   0  0  1       0 -1  0  -1  0  0   0  0 -1
                       0 -1  0   1  0  0   0  0 -1       0  1  0  -1  0  0   0  0  1
                       0 -1  0  -1  0  0   0  0  1       0  1  0   1  0  0   0  0 -1
                       0  1  0  -1  0  0   0  0 -1       0 -1  0   1  0  0   0  0  1
            tnons      0.0000000  0.0000000  0.0000000     0.5000000  0.5000000  0.0000000
                       0.5000000  0.5000000  0.0000000     0.0000000 -0.0000000  0.0000000
                       0.0000000 -0.0000000  0.0000000     0.5000000  0.5000000  0.0000000
                       0.5000000  0.5000000  0.0000000     0.0000000  0.0000000  0.0000000
                       0.5000000  0.5000000  0.0000000    -0.0000000  0.0000000  0.0000000
                       0.0000000  0.0000000  0.0000000     0.5000000  0.5000000  0.0000000
                       0.5000000  0.5000000  0.0000000     0.0000000  0.0000000  0.0000000
                      -0.0000000  0.0000000  0.0000000     0.5000000  0.5000000  0.0000000
           tolwfr      1.00000000E-20
            typat      1  1  2  2  3  3
           useylm           1
           xangst      0.0000000000E+00  2.0417934711E+00  5.5182153317E+00
                       2.0417934711E+00  0.0000000000E+00  1.3896479481E+00
                       2.0417934711E+00  0.0000000000E+00  4.4466813955E+00
                       0.0000000000E+00  2.0417934711E+00  2.4611818844E+00
                       2.0417934711E+00  2.0417934711E+00  0.0000000000E+00
                       0.0000000000E+00  0.0000000000E+00  0.0000000000E+00
            xcart      0.0000000000E+00  3.8584304802E+00  1.0427915719E+01
                       3.8584304802E+00  0.0000000000E+00  2.6260540431E+00
                       3.8584304802E+00  0.0000000000E+00  8.4030100376E+00
                       0.0000000000E+00  3.8584304802E+00  4.6509597247E+00
                       3.8584304802E+00  3.8584304802E+00  0.0000000000E+00
                       0.0000000000E+00  0.0000000000E+00  0.0000000000E+00
             xred      0.0000000000E+00  5.0000000000E-01  7.9883100000E-01
                       5.0000000000E-01  0.0000000000E+00  2.0116900000E-01
                       5.0000000000E-01  0.0000000000E+00  6.4371300000E-01
                       0.0000000000E+00  5.0000000000E-01  3.5628700000E-01
                       5.0000000000E-01  5.0000000000E-01  0.0000000000E+00
                       0.0000000000E+00  0.0000000000E+00  0.0000000000E+00
            znucl       38.00000   17.00000    9.00000

 chkinp: Checking input parameters for consistency.

== DATASET  1 ==================================================================
-   mpi_nproc: 1, omp_nthreads: -1 (-1 if OMP is not activated)

--- !DatasetInfo
iteration_state: {dtset: 1, }
dimensions: {natom: 6, nkpt: 1, mband: 33, nsppol: 1, nspinor: 1, nspden: 1, mpw: 10135, }
cutoff_energies: {ecut:  42.0, pawecutdg:  -1.0, }
electrons: {nelect:   4.80000000E+01, charge:   0.00000000E+00, occopt:   1.00000000E+00, tsmear:   1.00000000E-02, }
meta: {optdriver: 1, rfelfd: 2, }
...

 Real(R)+Recip(G) space primitive vectors, cartesian coordinates (Bohr,Bohr^-1):
 R(1)=  7.7168610  0.0000000  0.0000000  G(1)=  0.1295864  0.0000000  0.0000000
 R(2)=  0.0000000  7.7168610  0.0000000  G(2)=  0.0000000  0.1295864  0.0000000
 R(3)=  0.0000000  0.0000000 13.0539698  G(3)=  0.0000000  0.0000000  0.0766050
 Unit cell volume ucvol=  7.7736316E+02 bohr^3
 Angles (23,13,12)=  9.00000000E+01  9.00000000E+01  9.00000000E+01 degrees

 getcut: wavevector=  0.0000  0.0000  0.0000  ngfft=  48  48  80
         ecut(hartree)=     42.000   => boxcut(ratio)=   2.10067

--- Pseudopotential description ------------------------------------------------
- pspini: atom type   1  psp file is /scratch/users/j/a/jabreu/pseudos/PBEsol/Sr.psp8
- pspatm: opening atomic psp file    /scratch/users/j/a/jabreu/pseudos/PBEsol/Sr.psp8
- Sr    ONCVPSP-3.3.0  r_core=   1.66721   1.31335   1.51547
- 38.00000  10.00000    180112                znucl, zion, pspdat
    8 -116133    2    4       600   0.00000   pspcod,pspxc,lmax,lloc,mmax,r2well
    5.99000000000000    6.00000000000000    0.00000000000000   rchrg,fchrg,qchrg
     nproj     2     2     2
     extension_switch     1
  pspatm : epsatm=   12.46450977
         --- l  ekb(1:nproj) -->
             0   10.029206    1.044171
             1    7.472414    1.670829
             2    4.142950    0.968140
 pspatm: atomic psp has been read  and splines computed

- pspini: atom type   2  psp file is /scratch/users/j/a/jabreu/pseudos/PBEsol/Cl.psp8
- pspatm: opening atomic psp file    /scratch/users/j/a/jabreu/pseudos/PBEsol/Cl.psp8
- Cl    ONCVPSP-3.3.0  r_core=   1.56009   1.35202   1.75774
- 17.00000   7.00000    180112                znucl, zion, pspdat
    8 -116133    2    4       600   0.00000   pspcod,pspxc,lmax,lloc,mmax,r2well
    5.99000000000000    8.00000000000000    0.00000000000000   rchrg,fchrg,qchrg
     nproj     2     2     2
     extension_switch     1
  pspatm : epsatm=    8.95520722
         --- l  ekb(1:nproj) -->
             0    8.193503    0.707970
             1    3.869736    1.114731
             2   -2.915303   -0.810552
 pspatm: atomic psp has been read  and splines computed

- pspini: atom type   3  psp file is /scratch/users/j/a/jabreu/pseudos/PBEsol/F.psp8
- pspatm: opening atomic psp file    /scratch/users/j/a/jabreu/pseudos/PBEsol/F.psp8
- F     ONCVPSP-3.3.0  r_core=   1.30942   1.45782   1.60379
-  9.00000   7.00000    180112                znucl, zion, pspdat
    8 -116133    2    4       600   0.00000   pspcod,pspxc,lmax,lloc,mmax,r2well
    5.99000000000000    2.50000000000000    0.00000000000000   rchrg,fchrg,qchrg
     nproj     2     2     1
     extension_switch     1
  pspatm : epsatm=    4.89824824
         --- l  ekb(1:nproj) -->
             0    6.506434    1.065875
             1   -3.978753   -1.295852
             2   -2.394754
 pspatm: atomic psp has been read  and splines computed

   2.52652466E+03                                ecore*ucvol(ha*bohr**3)

-inwffil : will read wavefunctions from disk file /scratch/users/j/a/jabreu/flow_simple_6atoms/flow/w221/t1/indata/in_WFK

 ==>  initialize data related to q vector <==

 The list of irreducible perturbations for this q vector is:
    1)    idir= 1    ipert=   7
    2)    idir= 2    ipert=   7
    3)    idir= 3    ipert=   7

 Perturbation wavevector (in red.coord.)   0.000000  0.000000  0.000000
 Perturbation : derivative vs k along direction   1

 dfpt_looppert : COMMENT -
  In a d/dk calculation, iscf is set to -3 automatically.
 The set of symmetries contains only one element for this perturbation.
 symkpt : not enough symmetry to change the number of k points.

[...]

 Initialisation of the first-order wave-functions :
  ireadwf=   0

--- !BeginCycle
iteration_state: {dtset: 1, }
solver: {iscf: 7, nstep: 1000, nline: 4, wfoptalg: 0, }
tolerances: {tolwfr: 1.00E-20, }
...

     iter   2DEtotal(Ha)        deltaE(Ha) residm    vres2
-ETOT  1  -34.595852067327     -3.460E+01 7.507E-02 0.000E+00
 ETOT  2  -34.612138491449     -1.629E-02 3.154E-03 0.000E+00
 ETOT  3  -34.612172877307     -3.439E-05 9.021E-05 0.000E+00
 ETOT  4  -34.612173021028     -1.437E-07 1.583E-05 0.000E+00
 ETOT  5  -34.612173021790     -7.620E-10 5.700E-07 0.000E+00
 ETOT  6  -34.612173021795     -4.562E-12 1.931E-07 0.000E+00
 ETOT  7  -34.612173021795     -4.974E-14 6.886E-09 0.000E+00
 ETOT  8  -34.612173021795      2.842E-14 2.457E-09 0.000E+00
[...]
 ETOT 15  -34.612173021795     -1.421E-14 2.006E-16 0.000E+00
 ETOT 16  -34.612173021795      7.105E-15 7.464E-17 0.000E+00
 ETOT 17  -34.612173021795     -7.105E-15 2.690E-18 0.000E+00
 ETOT 18  -34.612173021795     -7.105E-15 1.005E-18 0.000E+00
 ETOT 19  -34.612173021795      1.421E-14 3.619E-20 0.000E+00
 ETOT 20  -34.612173021795     -2.132E-14 1.357E-20 0.000E+00
 ETOT 21  -34.612173021795      7.105E-15 9.908E-21 0.000E+00

 At SCF step   21   max residual=  9.91E-21 < tolwfr=  1.00E-20 =>converged.

 ----iterations are completed or convergence reached----

 dfpt_looppert: DFPT cycle converged with prtwf=-1. Will skip output of the 1st-order WFK file.
 dfpt_looppert : ek2=    6.3642849913E+01
          f-sum rule ratio=    1.0999844305E+00
 prteigrs : about to open file /scratch/users/j/a/jabreu/flow_simple_6atoms/flow/w221/t1/tmpdata/tmp_1WF1_EIG
 Expectation of eigenvalue derivatives (hartree) for nkpt=   1  k points:
  (in case of degenerate eigenvalues, averaged derivative)
 kpt#   1, nband= 33, wtk=  1.00000, kpt=  0.0000  0.0000  0.0000 (reduced coord)
  -0.00000   -0.00000   -0.00000    0.00000   -0.00000    0.00000    0.00000   -0.00000
  -0.00000   -0.00000    0.00000   -0.00000   -0.00000    0.00000    0.00000   -0.00000
  -0.00000   -0.00000    0.00000    0.00000    0.00000   -0.00000    0.00000    0.00000
  -0.00000    0.00000   -0.00000   -0.00000   -0.00000    0.00000    0.00000    0.00000
  -0.00005

 Eight components of 2nd-order total energy (hartree) are
 1,2,3: 0th-order hamiltonian combined with 1st-order wavefunctions
     kin0=   3.52142089E+01 eigvalue=   7.29076369E-01  local=  -1.73883674E+01
 4,5,6: 1st-order hamiltonian combined with 1st and 0th-order wfs
     kin1=  -7.00061440E+01  Hartree=   0.00000000E+00     xc=   0.00000000E+00
 7,8,9: eventually, occupation + non-local contributions
    edocc=   1.36908099E+01     enl0=   2.36644530E+00   enl1=   7.81797974E-01
 1-9 gives the relaxation energy (to be shifted if some occ is /=2.0)
   erelax=  -3.46121730E+01
  No Ewald or frozen-wf contrib.: the relaxation energy is the total one
 2DEtotal=   -0.3461217302E+02 Ha. Also 2DEtotal=   -0.941845126325E+03 eV
    (  non-var. 2DEtotal :   -3.4612173022E+01 Ha)

 Perturbation wavevector (in red.coord.)   0.000000  0.000000  0.000000
 Perturbation : derivative vs k along direction   2
 The set of symmetries contains only one element for this perturbation.
 symkpt : not enough symmetry to change the number of k points.

[...]

 Perturbation wavevector (in red.coord.)   0.000000  0.000000  0.000000
 Perturbation : derivative vs k along direction   3
 The set of symmetries contains only one element for this perturbation.
 symkpt : not enough symmetry to change the number of k points.

-inwffil : will read wavefunctions from disk file /scratch/users/j/a/jabreu/flow_simple_6atoms/flow/w221/t1/indata/in_WFK

 Initialisation of the first-order wave-functions :
  ireadwf=   0

--- !BeginCycle
iteration_state: {dtset: 1, }
solver: {iscf: 7, nstep: 1000, nline: 4, wfoptalg: 0, }
tolerances: {tolwfr: 1.00E-20, }
...

     iter   2DEtotal(Ha)        deltaE(Ha) residm    vres2
-ETOT  1  -11.480893991023     -1.148E+01 2.754E-02 0.000E+00
 ETOT  2  -11.486464500962     -5.571E-03 7.417E-05 0.000E+00
 ETOT  3  -11.486472691878     -8.191E-06 9.898E-07 0.000E+00
 ETOT  4  -11.486472724969     -3.309E-08 3.600E-08 0.000E+00
 ETOT  5  -11.486472725194     -2.251E-10 7.303E-10 0.000E+00
 ETOT  6  -11.486472725196     -1.959E-12 2.850E-11 0.000E+00
 ETOT  7  -11.486472725196     -2.842E-14 5.802E-13 0.000E+00
 ETOT  8  -11.486472725196     -8.882E-15 2.332E-14 0.000E+00
 ETOT  9  -11.486472725196      3.553E-15 4.748E-16 0.000E+00
 ETOT 10  -11.486472725196      0.000E+00 1.960E-17 0.000E+00
 ETOT 11  -11.486472725196      1.776E-15 1.305E-18 0.000E+00
 ETOT 12  -11.486472725196     -1.776E-15 6.126E-20 0.000E+00
 ETOT 13  -11.486472725196      0.000E+00 1.430E-20 0.000E+00
 ETOT 14  -11.486472725196      3.553E-15 9.144E-21 0.000E+00

 At SCF step   14   max residual=  9.14E-21 < tolwfr=  1.00E-20 =>converged.

 ----iterations are completed or convergence reached----

 dfpt_looppert: DFPT cycle converged with prtwf=-1. Will skip output of the 1st-order WFK file.
 dfpt_looppert : ek2=    2.2240562394E+01
          f-sum rule ratio=    1.0423289027E+00
 prteigrs : about to open file /scratch/users/j/a/jabreu/flow_simple_6atoms/flow/w221/t1/tmpdata/tmp_1WF1_EIG
 Expectation of eigenvalue derivatives (hartree) for nkpt=   1  k points:
  (in case of degenerate eigenvalues, averaged derivative)
 kpt#   1, nband= 33, wtk=  1.00000, kpt=  0.0000  0.0000  0.0000 (reduced coord)
  -0.00000    0.00000   -0.00000   -0.00000   -0.00000    0.00000    0.00000   -0.00000
   0.00000    0.00000    0.00000    0.00000   -0.00000    0.00000    0.00000   -0.00000
   0.00000    0.00000    0.00000    0.00000    0.00000   -0.00000   -0.00000   -0.00000
  -0.00000   -0.00000    0.00000    0.00000    0.00000   -0.00000   -0.00000    0.00000
  -0.00238

 Eight components of 2nd-order total energy (hartree) are
 1,2,3: 0th-order hamiltonian combined with 1st-order wavefunctions
     kin0=   1.38934811E+01 eigvalue=   3.53624477E-01  local=  -6.94438301E+00
 4,5,6: 1st-order hamiltonian combined with 1st and 0th-order wfs
     kin1=  -2.31819810E+01  Hartree=   0.00000000E+00     xc=   0.00000000E+00
 7,8,9: eventually, occupation + non-local contributions
    edocc=   3.44198397E+00     enl0=   7.41766153E-01   enl1=   2.09035546E-01
 1-9 gives the relaxation energy (to be shifted if some occ is /=2.0)
   erelax=  -1.14864727E+01
  No Ewald or frozen-wf contrib.: the relaxation energy is the total one
 2DEtotal=   -0.1148647273E+02 Ha. Also 2DEtotal=   -0.312562818523E+03 eV
    (  non-var. 2DEtotal :   -1.1486472725E+01 Ha)

 CALCULATION OF EFFECTIVE MASSES
 NOTE : Additional infos (eff. mass eigenvalues, eigenvectors and, if degenerate, average mass) are available in stdout.

 COMMENTS:
 - At k-point ( 0.000, 0.000, 0.000), bands    23 through    24
   are DEGENERATE (effective mass tensor is therefore not defined).
   See Section IIIB Eqs. (67)-(70) and Appendix E of PRB 93 205147 (2016).
 - Angular average effective mass for Frohlich model is to be averaged over degenerate bands. See later.
 - Associated theta integrals calculated with ntheta=   1000 points.

 K-point ( 0.000, 0.000, 0.000) | band =    23
 Transport equivalent effective mass tensor:
             -0.5747844950              0.0000541552              0.0000796033
              0.0000541552             -0.5747578528             -0.0001242579
              0.0000796033             -0.0001242579             -6.0187468718
 Transport equivalent effective mass tensor eigenvalues:
             -6.0187468758             -0.5748269398             -0.5747154040
 Angular average effective mass 1/(<1/m>)=  -0.8055152031
 Angular average effective mass for Frohlich model (<m**0.5>)**2=  -0.9832805179
 Effective masses along directions: (cart. coord. / red. coord. -> eff. mass)
    1:   1.000000  0.000000  0.000000 /   1.000000  0.000000  0.000000 ->  -0.6225396902
    2:   0.000000  1.000000  0.000000 /   0.000000  1.000000  0.000000 ->  -0.6225396648
    3:   0.000000  0.000000  1.000000 /   0.000000  0.000000  1.000000 ->  -5.8187485737
    4:   0.577350  0.577350  0.577350 /   0.453536  0.453536  0.767209 ->  -0.7447927440
    5:   0.000000  0.707107  0.707107 /   0.000000  0.508883  0.860835 ->  -1.1248287648
    6:   0.707107  0.000000  0.707107 /   0.508883  0.000000  0.860835 ->  -1.1247878166
    7:   0.707107  0.707107  0.000000 /   0.707107  0.707107  0.000000 ->  -0.5186521549

 K-point ( 0.000, 0.000, 0.000) | band =    24
 Transport equivalent effective mass tensor:
             -5.3162374478             -0.0016603316              0.0003074234
             -0.0016603316             -5.3161471713             -0.0005187031
              0.0003074234             -0.0005187031            -13.7110709855
 Transport equivalent effective mass tensor eigenvalues:
            -13.7110710288             -5.3178532522             -5.3145313236
 Angular average effective mass 1/(<1/m>)=  -3.6195849290
 Angular average effective mass for Frohlich model (<m**0.5>)**2=  -3.9269169759
 Effective masses along directions: (cart. coord. / red. coord. -> eff. mass)
    1:   1.000000  0.000000  0.000000 /   1.000000  0.000000  0.000000 ->  -2.0060729378
    2:   0.000000  1.000000  0.000000 /   0.000000  1.000000  0.000000 ->  -2.0060729330
    3:   0.000000  0.000000  1.000000 /   0.000000  0.000000  1.000000 ->  -5.8250892550
    4:   0.577350  0.577350  0.577350 /   0.453536  0.453536  0.767209 ->  -5.7126972085
    5:   0.000000  0.707107  0.707107 /   0.000000  0.508883  0.860835 ->  -2.9842241894
    6:   0.707107  0.000000  0.707107 /   0.508883  0.000000  0.860835 ->  -2.9837865415
    7:   0.707107  0.707107  0.000000 /   0.707107  0.707107  0.000000 ->  -5.6581848955

 Angular average effective mass for Frohlich model, averaged over degenerate bands.
 Value of     (<<m**0.5>>)**2 =     2.210054E+00
 Absolute Value of <<m**0.5>> =     1.486625E+00

 K-point ( 0.000, 0.000, 0.000) | band =    25
 Effective mass tensor:
              0.4586428160             -0.0000133461              0.0000022200
             -0.0000133461              0.4586474103              0.0000034339
              0.0000022200              0.0000034339              0.8657024438
 Effective mass tensor eigenvalues:
              0.4586315708              0.4586586556              0.8657024439
 Angular average effective mass 1/(<1/m>)=   0.5438919589
 Angular average effective mass for Frohlich model (<m**0.5>)**2=   0.5568736695
 Effective masses along directions: (cart. coord. / red. coord. -> eff. mass)
    1:   1.000000  0.000000  0.000000 /   1.000000  0.000000  0.000000 ->   0.4586428156
    2:   0.000000  1.000000  0.000000 /   0.000000  1.000000  0.000000 ->   0.4586474099
    3:   0.000000  0.000000  1.000000 /   0.000000  0.000000  1.000000 ->   0.8657024438
    4:   0.577350  0.577350  0.577350 /   0.453536  0.453536  0.767209 ->   0.5438822552
    5:   0.000000  0.707107  0.707107 /   0.000000  0.508883  0.860835 ->   0.5996213789
    6:   0.707107  0.000000  0.707107 /   0.508883  0.000000  0.860835 ->   0.5996163534
    7:   0.707107  0.707107  0.000000 /   0.707107  0.707107  0.000000 ->   0.4586317670

 END OF EFFECTIVE MASSES SECTION

 ---- first-order wavefunction calculations are completed ----

 Total localisation tensor (bohr^2) in cartesian coordinates
  WARNING : still subject to testing - especially symmetries.
      direction              matrix element
   alpha     beta       real part   imaginary part
     1        1       0.8991558943    0.0000000000
     1        2       0.0000000000    0.0000000000
     1        3       0.0000000000    0.0000000000
     2        1       0.0000000000    0.0000000000
     2        2       0.8992033263    0.0000000000
     2        3       0.0000000000    0.0000000000
     3        1       0.0000000000    0.0000000000
     3        2       0.0000000000    0.0000000000
     3        3       0.7856591046    0.0000000000

 respfn : d/dk was computed, but no 2DTE, so no DDB output.

== END DATASET(S) ==============================================================

 -outvars: echo values of variables after computation  --------
            acell      1.0000000000E+00  1.0000000000E+00  1.0000000000E+00 Bohr
              amu      8.76200000E+01  3.54527000E+01  1.89984032E+01
             ecut      4.20000000E+01 Hartree
           etotal     -1.1486472725E+01
            fcart      0.0000000000E+00  0.0000000000E+00  0.0000000000E+00
                       0.0000000000E+00  0.0000000000E+00  0.0000000000E+00
                       0.0000000000E+00  0.0000000000E+00  0.0000000000E+00
                       0.0000000000E+00  0.0000000000E+00  0.0000000000E+00
                       0.0000000000E+00  0.0000000000E+00  0.0000000000E+00
                       0.0000000000E+00  0.0000000000E+00  0.0000000000E+00
-          fftalg         512
           irdden           1
           irdwfk           1
           istwfk        1
              ixc     -116133
           kptopt           0
P           mkmem           1
P          mkqmem           1
P          mk1mem           1
            natom           6
            nband          33
           nbdbuf           4
            ngfft          48      48      80
             nkpt           1
            nstep        1000
             nsym          16
           ntypat           3
              occ      2.000000  2.000000  2.000000  2.000000  2.000000  2.000000
                       2.000000  2.000000  2.000000  2.000000  2.000000  2.000000
                       2.000000  2.000000  2.000000  2.000000  2.000000  2.000000
                       2.000000  2.000000  2.000000  2.000000  2.000000  2.000000
                       0.000000  0.000000  0.000000  0.000000  0.000000  0.000000
                       0.000000  0.000000  0.000000
        optdriver           1
            prtwf          -1
            rfdir           1       1       1
           rfelfd           2
            rprim      7.7168609605E+00  0.0000000000E+00  0.0000000000E+00
                       0.0000000000E+00  7.7168609605E+00  0.0000000000E+00
                       0.0000000000E+00  0.0000000000E+00  1.3053969762E+01
          spgroup         129
           strten      0.0000000000E+00  0.0000000000E+00  0.0000000000E+00
                       0.0000000000E+00  0.0000000000E+00  0.0000000000E+00
           symrel      1  0  0   0  1  0   0  0  1      -1  0  0   0 -1  0   0  0 -1
                      -1  0  0   0  1  0   0  0 -1       1  0  0   0 -1  0   0  0  1
                      -1  0  0   0 -1  0   0  0  1       1  0  0   0  1  0   0  0 -1
                       1  0  0   0 -1  0   0  0 -1      -1  0  0   0  1  0   0  0  1
                       0  1  0   1  0  0   0  0  1       0 -1  0  -1  0  0   0  0 -1
                       0 -1  0   1  0  0   0  0 -1       0  1  0  -1  0  0   0  0  1
                       0 -1  0  -1  0  0   0  0  1       0  1  0   1  0  0   0  0 -1
                       0  1  0  -1  0  0   0  0 -1       0 -1  0   1  0  0   0  0  1
            tnons      0.0000000  0.0000000  0.0000000     0.5000000  0.5000000  0.0000000
                       0.5000000  0.5000000  0.0000000     0.0000000 -0.0000000  0.0000000
                       0.0000000 -0.0000000  0.0000000     0.5000000  0.5000000  0.0000000
                       0.5000000  0.5000000  0.0000000     0.0000000  0.0000000  0.0000000
                       0.5000000  0.5000000  0.0000000    -0.0000000  0.0000000  0.0000000
                       0.0000000  0.0000000  0.0000000     0.5000000  0.5000000  0.0000000
                       0.5000000  0.5000000  0.0000000     0.0000000  0.0000000  0.0000000
                      -0.0000000  0.0000000  0.0000000     0.5000000  0.5000000  0.0000000
           tolwfr      1.00000000E-20
            typat      1  1  2  2  3  3
           useylm           1
           xangst      0.0000000000E+00  2.0417934711E+00  5.5182153317E+00
                       2.0417934711E+00  0.0000000000E+00  1.3896479481E+00
                       2.0417934711E+00  0.0000000000E+00  4.4466813955E+00
                       0.0000000000E+00  2.0417934711E+00  2.4611818844E+00
                       2.0417934711E+00  2.0417934711E+00  0.0000000000E+00
                       0.0000000000E+00  0.0000000000E+00  0.0000000000E+00
            xcart      0.0000000000E+00  3.8584304802E+00  1.0427915719E+01
                       3.8584304802E+00  0.0000000000E+00  2.6260540431E+00
                       3.8584304802E+00  0.0000000000E+00  8.4030100376E+00
                       0.0000000000E+00  3.8584304802E+00  4.6509597247E+00
                       3.8584304802E+00  3.8584304802E+00  0.0000000000E+00
                       0.0000000000E+00  0.0000000000E+00  0.0000000000E+00
             xred      0.0000000000E+00  5.0000000000E-01  7.9883100000E-01
                       5.0000000000E-01  0.0000000000E+00  2.0116900000E-01
                       5.0000000000E-01  0.0000000000E+00  6.4371300000E-01
                       0.0000000000E+00  5.0000000000E-01  3.5628700000E-01
                       5.0000000000E-01  5.0000000000E-01  0.0000000000E+00
                       0.0000000000E+00  0.0000000000E+00  0.0000000000E+00
            znucl       38.00000   17.00000    9.00000

- Timing analysis has been suppressed with timopt=0

 Suggested references for the acknowledgment of ABINIT usage.

 Calculation completed.
.Delivered   6 WARNINGs and   5 COMMENTs to log file.