.Version 9.5.1 of ABINIT

 ABINIT is a project of the Universite Catholique de Louvain,
 Corning Inc. and other collaborators, see ~abinit/doc/developers/contributors.txt .
 acknowledgments of the ABINIT effort.

.Starting date : Tue 27 Apr 2021.
- ( at 18h47 )

- input  file    -> /scratch/users/j/a/jabreu/flow_simple_4atoms/flow/w263/t1/run.abi
- output file    -> /scratch/users/j/a/jabreu/flow_simple_4atoms/flow/w263/t1/run.abo
- root for input  files -> /scratch/users/j/a/jabreu/flow_simple_4atoms/flow/w263/t1/indata/in
- root for output files -> /scratch/users/j/a/jabreu/flow_simple_4atoms/flow/w263/t1/outdata/out

 Symmetries : space group R-3 m (#166); Bravais hR (rhombohedral)
     intxc =       0      iscf =       7    lmnmax =      18     lnmax =       6
     mgfft =      72  mpssoang =       3    mqgrid =    3001     natom =       4
  nloc_mem =       1    nspden =       1   nspinor =       1    nsppol =       1
      nsym =      12    n1xccc =    2501    ntypat =       3    occopt =       1
   xclevel =       2
-    mband =          25        mffmem =           1         mkmem =           1
-   mkqmem =           1        mk1mem =           1           mpw =        6536
      nfft =      373248          nkpt =           1
  Rough estimation (10% accuracy) of disk space for files :

------------- Echo of variables that govern the present computation ------------
-
- outvars: echo of selected default values
-   iomode0 =  0 , fftalg0 =512 , wfoptalg0 =  0
-
- outvars: echo of global parameters not present in the input file
-  max_nthreads =    0
-
 -outvars: echo values of preprocessed input variables --------
            acell      1.0000000000E+00  1.0000000000E+00  1.0000000000E+00 Bohr
              amu      1.37327000E+02  3.09737620E+01  3.54527000E+01
             ecut      2.80000000E+01 Hartree
-          fftalg         512
           irdden           1
           irdwfk           1
           istwfk        1
              ixc     -116133
              kpt      5.00000000E-01  5.00000000E-01  0.00000000E+00
           kptopt           0
P           mkmem           1
P          mkqmem           1
P          mk1mem           1
            natom           4
            nband          25
           nbdbuf           4
            ngfft          72      72      72
             nkpt           1
            nstep         100
             nsym          12
           ntypat           3
              occ      2.000000  2.000000  2.000000  2.000000  2.000000  2.000000
                       2.000000  2.000000  2.000000  2.000000  2.000000  2.000000
                       2.000000  2.000000  2.000000  2.000000  0.000000  0.000000
                       0.000000  0.000000  0.000000  0.000000  0.000000  0.000000
                       0.000000
        optdriver           1
            prtwf          -1
            rfdir           1       1       1
           rfelfd           2
            rprim      8.3121395909E+00  0.0000000000E+00  1.2459688890E+01
                       3.7746364228E+00  7.4056589480E+00  1.2459688890E+01
                       0.0000000000E+00  0.0000000000E+00  1.4977834016E+01
          spgroup         166
           symrel      1  0  0   0  1  0   0  0  1      -1  0  0   0 -1  0   0  0 -1
                       0  1  0   1  0  0   0  0  1       0 -1  0  -1  0  0   0  0 -1
                       0  0  1   1  0  0   0  1  0       0  0 -1  -1  0  0   0 -1  0
                       1  0  0   0  0  1   0  1  0      -1  0  0   0  0 -1   0 -1  0
                       0  1  0   0  0  1   1  0  0       0 -1  0   0  0 -1  -1  0  0
                       0  0  1   0  1  0   1  0  0       0  0 -1   0 -1  0  -1  0  0
           tolwfr      1.00000000E-20
            typat      1  1  2  3
           useylm           1
           xangst      1.5472356024E+00  9.4800293897E-01  5.1072665248E+00
                       4.8488107894E+00  2.9709029909E+00  1.6005428644E+01
                       3.1980231959E+00  1.9594529649E+00  1.0556347584E+01
                       0.0000000000E+00  0.0000000000E+00  0.0000000000E+00
            xcart      2.9238515516E+00  1.7914659278E+00  9.6513350195E+00
                       9.1629244621E+00  5.6141930202E+00  3.0245876777E+01
                       6.0433880068E+00  3.7028294740E+00  1.9948605898E+01
                       0.0000000000E+00  0.0000000000E+00  0.0000000000E+00
             xred      2.4190500000E-01  2.4190500000E-01  2.4190500000E-01
                       7.5809500000E-01  7.5809500000E-01  7.5809500000E-01
                       5.0000000000E-01  5.0000000000E-01  5.0000000000E-01
                       0.0000000000E+00  0.0000000000E+00  0.0000000000E+00
            znucl       56.00000   15.00000   17.00000

 chkinp: Checking input parameters for consistency.

== DATASET  1 ==================================================================
-   mpi_nproc: 1, omp_nthreads: -1 (-1 if OMP is not activated)

--- !DatasetInfo
iteration_state: {dtset: 1, }
dimensions: {natom: 4, nkpt: 1, mband: 25, nsppol: 1, nspinor: 1, nspden: 1, mpw: 6536, }
cutoff_energies: {ecut:  28.0, pawecutdg:  -1.0, }
electrons: {nelect:   3.20000000E+01, charge:   0.00000000E+00, occopt:   1.00000000E+00, tsmear:   1.00000000E-02, }
meta: {optdriver: 1, rfelfd: 2, }
...

 Real(R)+Recip(G) space primitive vectors, cartesian coordinates (Bohr,Bohr^-1):
 R(1)=  8.3121396  0.0000000 12.4596889  G(1)=  0.1203060 -0.0613195  0.0000000
 R(2)=  3.7746364  7.4056589 12.4596889  G(2)=  0.0000000  0.1350319  0.0000000
 R(3)=  0.0000000  0.0000000 14.9778340  G(3)= -0.1000796 -0.0613195  0.0667653
 Unit cell volume ucvol=  9.2198860E+02 bohr^3
 Angles (23,13,12)=  3.37081475E+01  3.37081475E+01  3.37081475E+01 degrees

 getcut: wavevector=  0.0000  0.0000  0.0000  ngfft=  72  72  72
         ecut(hartree)=     28.000   => boxcut(ratio)=   2.01809

--- Pseudopotential description ------------------------------------------------
- pspini: atom type   1  psp file is /scratch/users/j/a/jabreu/pseudos/PBEsol/Ba.psp8
- pspatm: opening atomic psp file    /scratch/users/j/a/jabreu/pseudos/PBEsol/Ba.psp8
- Ba    ONCVPSP-3.3.0  r_core=   2.15444   1.91218   2.15444
- 56.00000  10.00000    180112                znucl, zion, pspdat
    8 -116133    2    4       600   0.00000   pspcod,pspxc,lmax,lloc,mmax,r2well
    5.99000000000000    5.00000000000000    0.00000000000000   rchrg,fchrg,qchrg
     nproj     2     2     2
     extension_switch     1
  pspatm : epsatm=   26.37418029
         --- l  ekb(1:nproj) -->
             0    6.652372    0.677024
             1    5.027722    0.408462
             2    2.543237    0.416854
 pspatm: atomic psp has been read  and splines computed

- pspini: atom type   2  psp file is /scratch/users/j/a/jabreu/pseudos/PBEsol/P.psp8
- pspatm: opening atomic psp file    /scratch/users/j/a/jabreu/pseudos/PBEsol/P.psp8
- P     ONCVPSP-3.3.0  r_core=   1.46089   1.55067   1.70594
- 15.00000   5.00000    180112                znucl, zion, pspdat
    8 -116133    2    4       600   0.00000   pspcod,pspxc,lmax,lloc,mmax,r2well
    5.99000000000000    5.00000000000000    0.00000000000000   rchrg,fchrg,qchrg
     nproj     2     2     2
     extension_switch     1
  pspatm : epsatm=    7.31221086
         --- l  ekb(1:nproj) -->
             0    6.742364    1.063650
             1    3.449117    0.910422
             2   -3.077645   -0.799176
 pspatm: atomic psp has been read  and splines computed

- pspini: atom type   3  psp file is /scratch/users/j/a/jabreu/pseudos/PBEsol/Cl.psp8
- pspatm: opening atomic psp file    /scratch/users/j/a/jabreu/pseudos/PBEsol/Cl.psp8
- Cl    ONCVPSP-3.3.0  r_core=   1.56009   1.35202   1.75774
- 17.00000   7.00000    180112                znucl, zion, pspdat
    8 -116133    2    4       600   0.00000   pspcod,pspxc,lmax,lloc,mmax,r2well
    5.99000000000000    8.00000000000000    0.00000000000000   rchrg,fchrg,qchrg
     nproj     2     2     2
     extension_switch     1
  pspatm : epsatm=    8.95520722
         --- l  ekb(1:nproj) -->
             0    8.193503    0.707970
             1    3.869736    1.114731
             2   -2.915303   -0.810552
 pspatm: atomic psp has been read  and splines computed

   2.20850492E+03                                ecore*ucvol(ha*bohr**3)

-inwffil : will read wavefunctions from disk file /scratch/users/j/a/jabreu/flow_simple_4atoms/flow/w263/t1/indata/in_WFK

 ==>  initialize data related to q vector <==

 The list of irreducible perturbations for this q vector is:
    1)    idir= 1    ipert=   5
    2)    idir= 2    ipert=   5
    3)    idir= 3    ipert=   5

 Perturbation wavevector (in red.coord.)   0.000000  0.000000  0.000000
 Perturbation : derivative vs k along direction   1

 dfpt_looppert : COMMENT -
  In a d/dk calculation, iscf is set to -3 automatically.
 The set of symmetries contains only one element for this perturbation.
 symkpt : not enough symmetry to change the number of k points.

[...]

 Initialisation of the first-order wave-functions :
  ireadwf=   0

--- !BeginCycle
iteration_state: {dtset: 1, }
solver: {iscf: 7, nstep: 100, nline: 4, wfoptalg: 0, }
tolerances: {tolwfr: 1.00E-20, }
...

     iter   2DEtotal(Ha)        deltaE(Ha) residm    vres2
-ETOT  1  -26.108011841337     -2.611E+01 1.326E-01 0.000E+00
 ETOT  2  -26.125972651557     -1.796E-02 1.114E-02 0.000E+00
 ETOT  3  -26.126075828593     -1.032E-04 9.150E-04 0.000E+00
 ETOT  4  -26.126076617926     -7.893E-07 1.635E-04 0.000E+00
 ETOT  5  -26.126076624807     -6.882E-09 2.156E-05 0.000E+00
 ETOT  6  -26.126076624872     -6.489E-11 4.621E-06 0.000E+00
 ETOT  7  -26.126076624873     -6.573E-13 6.111E-07 0.000E+00
 ETOT  8  -26.126076624873     -3.553E-14 1.357E-07 0.000E+00
 ETOT  9  -26.126076624873      0.000E+00 1.770E-08 0.000E+00
 ETOT 10  -26.126076624873      3.197E-14 4.013E-09 0.000E+00
 ETOT 11  -26.126076624873     -3.553E-15 5.212E-10 0.000E+00
 ETOT 12  -26.126076624873     -1.066E-14 1.193E-10 0.000E+00
 ETOT 13  -26.126076624873      7.105E-15 1.541E-11 0.000E+00
 ETOT 14  -26.126076624873      3.553E-15 3.566E-12 0.000E+00
 ETOT 15  -26.126076624873     -3.553E-15 4.595E-13 0.000E+00
 ETOT 16  -26.126076624873      0.000E+00 1.071E-13 0.000E+00
 ETOT 17  -26.126076624873      1.066E-14 1.374E-14 0.000E+00
 ETOT 18  -26.126076624873     -7.105E-15 3.229E-15 0.000E+00
 ETOT 19  -26.126076624873      0.000E+00 4.140E-16 0.000E+00
 ETOT 20  -26.126076624873      0.000E+00 9.774E-17 0.000E+00
 ETOT 21  -26.126076624873      7.105E-15 1.251E-17 0.000E+00
 ETOT 22  -26.126076624873     -1.066E-14 2.969E-18 0.000E+00
 ETOT 23  -26.126076624873      7.105E-15 3.800E-19 0.000E+00
 ETOT 24  -26.126076624873      0.000E+00 9.041E-20 0.000E+00
 ETOT 25  -26.126076624873     -3.553E-15 1.157E-20 0.000E+00
 ETOT 26  -26.126076624873     -3.553E-15 8.710E-21 0.000E+00

 At SCF step   26   max residual=  8.71E-21 < tolwfr=  1.00E-20 =>converged.

 ----iterations are completed or convergence reached----

 dfpt_looppert: DFPT cycle converged with prtwf=-1. Will skip output of the 1st-order WFK file.
 dfpt_looppert : ek2=    4.6069372342E+01
          f-sum rule ratio=    1.0960806556E+00
 prteigrs : about to open file /scratch/users/j/a/jabreu/flow_simple_4atoms/flow/w263/t1/tmpdata/tmp_1WF1_EIG
 Expectation of eigenvalue derivatives (hartree) for nkpt=   1  k points:
  (in case of degenerate eigenvalues, averaged derivative)
 kpt#   1, nband= 25, wtk=  1.00000, kpt=  0.5000  0.5000  0.0000 (reduced coord)
  -0.00000   -0.00000    0.00000   -0.00000   -0.00000    0.00000   -0.00000    0.00000
  -0.00000   -0.00000    0.00000   -0.00000   -0.00000    0.00000   -0.00000   -0.00000
   0.00000   -0.00000    0.00000   -0.00000    0.00000   -0.00000    0.00000   -0.00093
  -0.00001

 Eight components of 2nd-order total energy (hartree) are
 1,2,3: 0th-order hamiltonian combined with 1st-order wavefunctions
     kin0=   2.23619469E+01 eigvalue=   4.11605321E-01  local=  -1.46388762E+01
 4,5,6: 1st-order hamiltonian combined with 1st and 0th-order wfs
     kin1=  -5.04957478E+01  Hartree=   0.00000000E+00     xc=   0.00000000E+00
 7,8,9: eventually, occupation + non-local contributions
    edocc=   1.39726714E+01     enl0=   4.01872922E+00   enl1=  -1.75640541E+00
 1-9 gives the relaxation energy (to be shifted if some occ is /=2.0)
   erelax=  -2.61260766E+01
  No Ewald or frozen-wf contrib.: the relaxation energy is the total one
 2DEtotal=   -0.2612607662E+02 Ha. Also 2DEtotal=   -0.710926699795E+03 eV
    (  non-var. 2DEtotal :   -2.6126076625E+01 Ha)

 Perturbation wavevector (in red.coord.)   0.000000  0.000000  0.000000
 Perturbation : derivative vs k along direction   2
 The set of symmetries contains only one element for this perturbation.
 symkpt : not enough symmetry to change the number of k points.

[...]

 Perturbation wavevector (in red.coord.)   0.000000  0.000000  0.000000
 Perturbation : derivative vs k along direction   3
 The set of symmetries contains only one element for this perturbation.
 symkpt : not enough symmetry to change the number of k points.

-inwffil : will read wavefunctions from disk file /scratch/users/j/a/jabreu/flow_simple_4atoms/flow/w263/t1/indata/in_WFK

 Initialisation of the first-order wave-functions :
  ireadwf=   0

--- !BeginCycle
iteration_state: {dtset: 1, }
solver: {iscf: 7, nstep: 100, nline: 4, wfoptalg: 0, }
tolerances: {tolwfr: 1.00E-20, }
...

     iter   2DEtotal(Ha)        deltaE(Ha) residm    vres2
-ETOT  1  -24.098880412229     -2.410E+01 1.209E-01 0.000E+00
 ETOT  2  -24.124728670092     -2.585E-02 3.789E-03 0.000E+00
 ETOT  3  -24.124886149937     -1.575E-04 9.719E-05 0.000E+00
 ETOT  4  -24.124887521273     -1.371E-06 7.960E-06 0.000E+00
 ETOT  5  -24.124887535206     -1.393E-08 1.267E-06 0.000E+00
 ETOT  6  -24.124887535357     -1.518E-10 9.251E-08 0.000E+00
 ETOT  7  -24.124887535359     -1.794E-12 2.405E-08 0.000E+00
 ETOT  8  -24.124887535359     -3.553E-15 1.978E-09 0.000E+00
 ETOT  9  -24.124887535359     -3.553E-15 5.346E-10 0.000E+00
 ETOT 10  -24.124887535359      3.553E-15 4.346E-11 0.000E+00
 ETOT 11  -24.124887535359     -4.263E-14 1.227E-11 0.000E+00
 ETOT 12  -24.124887535359      3.553E-15 9.992E-13 0.000E+00
 ETOT 13  -24.124887535359     -7.105E-15 2.880E-13 0.000E+00
 ETOT 14  -24.124887535359      1.066E-14 2.340E-14 0.000E+00
 ETOT 15  -24.124887535359      3.553E-15 6.807E-15 0.000E+00
 ETOT 16  -24.124887535359     -1.066E-14 5.514E-16 0.000E+00
 ETOT 17  -24.124887535359      7.105E-15 1.613E-16 0.000E+00
 ETOT 18  -24.124887535359      3.553E-15 1.303E-17 0.000E+00
 ETOT 19  -24.124887535359      7.105E-15 3.829E-18 0.000E+00
 ETOT 20  -24.124887535359     -1.066E-14 3.083E-19 0.000E+00
 ETOT 21  -24.124887535359      0.000E+00 9.098E-20 0.000E+00
 ETOT 22  -24.124887535359     -3.553E-15 9.825E-21 0.000E+00

 At SCF step   22   max residual=  9.83E-21 < tolwfr=  1.00E-20 =>converged.

 ----iterations are completed or convergence reached----

 dfpt_looppert: DFPT cycle converged with prtwf=-1. Will skip output of the 1st-order WFK file.
 dfpt_looppert : ek2=    4.6069372342E+01
          f-sum rule ratio=    9.9397343925E-01
 prteigrs : about to open file /scratch/users/j/a/jabreu/flow_simple_4atoms/flow/w263/t1/tmpdata/tmp_1WF1_EIG
 Expectation of eigenvalue derivatives (hartree) for nkpt=   1  k points:
  (in case of degenerate eigenvalues, averaged derivative)
 kpt#   1, nband= 25, wtk=  1.00000, kpt=  0.5000  0.5000  0.0000 (reduced coord)
   0.00000    0.00000   -0.00000    0.00000    0.00000   -0.00000    0.00000   -0.00000
  -0.00000   -0.00000    0.00000   -0.00000    0.00000   -0.00000    0.00000    0.00000
  -0.00000   -0.00000   -0.00000    0.00000   -0.00000    0.00000   -0.00000    0.00122
   0.00001

 Eight components of 2nd-order total energy (hartree) are
 1,2,3: 0th-order hamiltonian combined with 1st-order wavefunctions
     kin0=   3.34042501E+01 eigvalue=  -4.85009730E-01  local=  -2.34781417E+01
 4,5,6: 1st-order hamiltonian combined with 1st and 0th-order wfs
     kin1=  -4.57917325E+01  Hartree=   0.00000000E+00     xc=   0.00000000E+00
 7,8,9: eventually, occupation + non-local contributions
    edocc=   7.89766886E+00     enl0=   6.78611998E+00   enl1=  -2.45804260E+00
 1-9 gives the relaxation energy (to be shifted if some occ is /=2.0)
   erelax=  -2.41248875E+01
  No Ewald or frozen-wf contrib.: the relaxation energy is the total one
 2DEtotal=   -0.2412488754E+02 Ha. Also 2DEtotal=   -0.656471575304E+03 eV
    (  non-var. 2DEtotal :   -2.4124887535E+01 Ha)

 CALCULATION OF EFFECTIVE MASSES
 NOTE : Additional infos (eff. mass eigenvalues, eigenvectors and, if degenerate, average mass) are available in stdout.

 K-point ( 0.500, 0.500, 0.000) | band =    16
 Effective mass tensor:
             -9.5689705173             -5.5399443293             18.8944943044
             -5.5399443293             -3.9215966271             11.5768028465
             18.8944943044             11.5768028465            -46.8941343394
 Effective mass tensor eigenvalues:
            -57.8366025456             -2.0208690112             -0.5272299270
 Angular average effective mass 1/(<1/m>)=  -1.2454166597
 Angular average effective mass for Frohlich model (<m**0.5>)**2=  -2.0448394282
 Effective masses along directions: (cart. coord. / red. coord. -> eff. mass)
    1:   1.000000  0.000000  0.000000 /   0.910515  0.413475  0.000000 ->  -1.2354813237
    2:   0.000000  1.000000  0.000000 /   0.000000  1.000000  0.000000 ->  -0.6718082704
    3:   0.000000  0.000000  1.000000 /   0.538768  0.538768  0.647655 ->  -9.0162120937
    4:   0.577350  0.577350  0.577350 /   0.596003  0.678299  0.429757 ->  -1.8775305395
    5:   0.000000  0.707107  0.707107 /   0.447793  0.713948  0.538294 ->  -1.1126390042
    6:   0.707107  0.000000  0.707107 /   0.685066  0.535417  0.493977 ->  -1.6082001457
    7:   0.707107  0.707107  0.000000 /   0.596637  0.802511  0.000000 ->  -2.0714196466

 K-point ( 0.500, 0.500, 0.000) | band =    17
 Effective mass tensor:
              0.5769443866              0.1531961767             -0.3796192053
              0.1531961767              0.4207774686             -0.2325955499
             -0.3796192053             -0.2325955499              0.9509290296
 Effective mass tensor eigenvalues:
              0.3269129845              0.3441482020              1.2775896982
 Angular average effective mass 1/(<1/m>)=   0.4446178936
 Angular average effective mass for Frohlich model (<m**0.5>)**2=   0.4851456054
 Effective masses along directions: (cart. coord. / red. coord. -> eff. mass)
    1:   1.000000  0.000000  0.000000 /   0.910515  0.413475  0.000000 ->   0.4153907342
    2:   0.000000  1.000000  0.000000 /   0.000000  1.000000  0.000000 ->   0.3553255811
    3:   0.000000  0.000000  1.000000 /   0.538768  0.538768  0.647655 ->   0.6554477986
    4:   0.577350  0.577350  0.577350 /   0.596003  0.678299  0.429757 ->   0.3434942722
    5:   0.000000  0.707107  0.707107 /   0.447793  0.713948  0.538294 ->   0.3705064939
    6:   0.707107  0.000000  0.707107 /   0.685066  0.535417  0.493977 ->   0.3533666585
    7:   0.707107  0.707107  0.000000 /   0.596637  0.802511  0.000000 ->   0.4521534327

 END OF EFFECTIVE MASSES SECTION

 ---- first-order wavefunction calculations are completed ----

 Total localisation tensor (bohr^2) in cartesian coordinates
  WARNING : still subject to testing - especially symmetries.
      direction              matrix element
   alpha     beta       real part   imaginary part
     1        1       3.3414044999    0.0000000000
     1        2       1.1207706805    0.0000000000
     1        3       6.0380346606    0.0000000000
     2        1       1.1207706805    0.0000000000
     2        2       2.1988993083    0.0000000000
     2        3       3.6995494221    0.0000000000
     3        1       6.0380346606    0.0000000000
     3        2       3.6995494221    0.0000000000
     3        3      17.8978248504    0.0000000000

 respfn : d/dk was computed, but no 2DTE, so no DDB output.

== END DATASET(S) ==============================================================

 -outvars: echo values of variables after computation  --------
            acell      1.0000000000E+00  1.0000000000E+00  1.0000000000E+00 Bohr
              amu      1.37327000E+02  3.09737620E+01  3.54527000E+01
             ecut      2.80000000E+01 Hartree
           etotal     -2.4124887535E+01
            fcart      0.0000000000E+00  0.0000000000E+00  0.0000000000E+00
                       0.0000000000E+00  0.0000000000E+00  0.0000000000E+00
                       0.0000000000E+00  0.0000000000E+00  0.0000000000E+00
                       0.0000000000E+00  0.0000000000E+00  0.0000000000E+00
-          fftalg         512
           irdden           1
           irdwfk           1
           istwfk        1
              ixc     -116133
              kpt      5.00000000E-01  5.00000000E-01  0.00000000E+00
           kptopt           0
P           mkmem           1
P          mkqmem           1
P          mk1mem           1
            natom           4
            nband          25
           nbdbuf           4
            ngfft          72      72      72
             nkpt           1
            nstep         100
             nsym          12
           ntypat           3
              occ      2.000000  2.000000  2.000000  2.000000  2.000000  2.000000
                       2.000000  2.000000  2.000000  2.000000  2.000000  2.000000
                       2.000000  2.000000  2.000000  2.000000  0.000000  0.000000
                       0.000000  0.000000  0.000000  0.000000  0.000000  0.000000
                       0.000000
        optdriver           1
            prtwf          -1
            rfdir           1       1       1
           rfelfd           2
            rprim      8.3121395909E+00  0.0000000000E+00  1.2459688890E+01
                       3.7746364228E+00  7.4056589480E+00  1.2459688890E+01
                       0.0000000000E+00  0.0000000000E+00  1.4977834016E+01
          spgroup         166
           strten      0.0000000000E+00  0.0000000000E+00  0.0000000000E+00
                       0.0000000000E+00  0.0000000000E+00  0.0000000000E+00
           symrel      1  0  0   0  1  0   0  0  1      -1  0  0   0 -1  0   0  0 -1
                       0  1  0   1  0  0   0  0  1       0 -1  0  -1  0  0   0  0 -1
                       0  0  1   1  0  0   0  1  0       0  0 -1  -1  0  0   0 -1  0
                       1  0  0   0  0  1   0  1  0      -1  0  0   0  0 -1   0 -1  0
                       0  1  0   0  0  1   1  0  0       0 -1  0   0  0 -1  -1  0  0
                       0  0  1   0  1  0   1  0  0       0  0 -1   0 -1  0  -1  0  0
           tolwfr      1.00000000E-20
            typat      1  1  2  3
           useylm           1
           xangst      1.5472356024E+00  9.4800293897E-01  5.1072665248E+00
                       4.8488107894E+00  2.9709029909E+00  1.6005428644E+01
                       3.1980231959E+00  1.9594529649E+00  1.0556347584E+01
                       0.0000000000E+00  0.0000000000E+00  0.0000000000E+00
            xcart      2.9238515516E+00  1.7914659278E+00  9.6513350195E+00
                       9.1629244621E+00  5.6141930202E+00  3.0245876777E+01
                       6.0433880068E+00  3.7028294740E+00  1.9948605898E+01
                       0.0000000000E+00  0.0000000000E+00  0.0000000000E+00
             xred      2.4190500000E-01  2.4190500000E-01  2.4190500000E-01
                       7.5809500000E-01  7.5809500000E-01  7.5809500000E-01
                       5.0000000000E-01  5.0000000000E-01  5.0000000000E-01
                       0.0000000000E+00  0.0000000000E+00  0.0000000000E+00
            znucl       56.00000   15.00000   17.00000

- Timing analysis has been suppressed with timopt=0

 Suggested references for the acknowledgment of ABINIT usage.

 Calculation completed.
.Delivered   6 WARNINGs and   5 COMMENTs to log file.