.Version 9.5.2 of ABINIT

 ABINIT is a project of the Universite Catholique de Louvain,
 Corning Inc. and other collaborators, see ~abinit/doc/developers/contributors.txt .
 acknowledgments of the ABINIT effort.

.Starting date : Mon 24 May 2021.
- ( at 18h25 )

- input  file    -> /scratch/users/j/a/jabreu/flow_simple_10atoms/flow/w411/t1/run.abi
- output file    -> /scratch/users/j/a/jabreu/flow_simple_10atoms/flow/w411/t1/run.abo
- root for input  files -> /scratch/users/j/a/jabreu/flow_simple_10atoms/flow/w411/t1/indata/in
- root for output files -> /scratch/users/j/a/jabreu/flow_simple_10atoms/flow/w411/t1/outdata/out

 Symmetries : space group C2 (#  5); Bravais mC (1-face-center monocl.)
     intxc =       0      iscf =       7    lmnmax =      18     lnmax =       6
     mgfft =      80  mpssoang =       3    mqgrid =    3582     natom =      10
  nloc_mem =       1    nspden =       1   nspinor =       1    nsppol =       1
      nsym =       2    n1xccc =    2501    ntypat =       3    occopt =       1
   xclevel =       2
-    mband =          39        mffmem =           1         mkmem =           2
-   mkqmem =           2        mk1mem =           2           mpw =       11018
      nfft =      200000          nkpt =           2
  Rough estimation (10% accuracy) of disk space for files :

------------- Echo of variables that govern the present computation ------------
-
- outvars: echo of selected default values
-   iomode0 =  0 , fftalg0 =512 , wfoptalg0 =  0
-
- outvars: echo of global parameters not present in the input file
-  max_nthreads =    0
-
 -outvars: echo values of preprocessed input variables --------
            acell      1.0000000000E+00  1.0000000000E+00  1.0000000000E+00 Bohr
              amu      2.08980370E+02  1.08110000E+01  1.59994000E+01
             ecut      4.40000000E+01 Hartree
-          fftalg         512
           irdden           1
           irdwfk           1
           istwfk        1    1
              ixc     -116133
              kpt      5.00000000E-01  5.00000000E-01  5.00000000E-01
                       0.00000000E+00  0.00000000E+00  5.00000000E-01
           kptopt           0
P           mkmem           2
P          mkqmem           2
P          mk1mem           2
            natom          10
            nband          39
           nbdbuf           4
            ngfft          50      50      80
             nkpt           2
            nstep        2000
             nsym           2
           ntypat           3
              occ      2.000000  2.000000  2.000000  2.000000  2.000000  2.000000
                       2.000000  2.000000  2.000000  2.000000  2.000000  2.000000
                       2.000000  2.000000  2.000000  2.000000  2.000000  2.000000
                       2.000000  2.000000  2.000000  2.000000  2.000000  2.000000
                       2.000000  2.000000  2.000000  2.000000  2.000000  2.000000
                       0.000000  0.000000  0.000000  0.000000  0.000000  0.000000
                       0.000000  0.000000  0.000000
        optdriver           1
            prtwf          -1
            rfdir           1       1       1
           rfelfd           2
            rprim      8.0799886339E+00  0.0000000000E+00  1.7264115888E+00
                       1.9052559253E+00  7.8521472339E+00  1.7264115888E+00
                       0.0000000000E+00  0.0000000000E+00  1.2427873110E+01
          spgroup           5
           symrel      1  0  0   0  1  0   0  0  1       0 -1  0  -1  0  0   0  0 -1
           tolwfr      1.00000000E-20
            typat      1  2  2  2  3  3  3  3  3  3
           useylm           1
              wtk        0.50000    0.50000
           xangst      4.2048078018E+00  9.0208900370E-02  9.1357766544E-01
                       3.3377333523E+00  1.1928309184E+00  4.2018512661E+00
                       1.4844565281E+00  8.2017799251E-01  2.4642568807E+00
                       4.1368795621E+00  2.9059773003E+00  5.9394456514E+00
                       2.1266896942E+00  3.9984440649E-01  1.3261432194E+00
                       3.6225505026E+00  2.4873057852E+00  4.7725725730E+00
                       2.0126006952E+00  1.2212814177E+00  3.6311299591E+00
                       4.3717422218E+00  8.8121339267E-01  3.1675807103E+00
                       3.3967452135E+00  1.1450006719E-01  5.2361218218E+00
                       4.3939223320E+00  2.1827395955E+00  7.0775593127E+00
            xcart      7.9459351868E+00  1.7047011645E-01  1.7264115888E+00
                       6.3074019405E+00  2.2541237586E+00  7.9403481440E+00
                       2.8052162943E+00  1.5499117861E+00  4.6567706257E+00
                       7.8175694171E+00  5.4915012459E+00  1.1223925662E+01
                       4.0188610918E+00  7.5559642402E-01  2.5060474977E+00
                       6.8456283525E+00  4.7003267428E+00  9.0188551123E+00
                       3.8032641287E+00  2.3078874107E+00  6.8618411757E+00
                       8.2613955227E+00  1.6652519768E+00  5.9858600463E+00
                       6.4189181967E+00  2.1637376918E-01  9.8948362417E+00
                       8.3033098567E+00  4.1247800549E+00  1.3374648790E+01
             xred      9.7829000000E-01  2.1710000000E-02  0.0000000000E+00
                       7.1292900000E-01  2.8707100000E-01  5.0000000000E-01
                       3.0063700000E-01  1.9738700000E-01  3.0552100000E-01
                       8.0261300000E-01  6.9936300000E-01  6.9447900000E-01
                       4.7469400000E-01  9.6228000000E-02  1.2233800000E-01
                       7.0608200000E-01  5.9860400000E-01  5.4445600000E-01
                       4.0139600000E-01  2.9391800000E-01  4.5554400000E-01
                       9.7244400000E-01  2.1207600000E-01  3.1710100000E-01
                       7.8792400000E-01  2.7556000000E-02  6.8289900000E-01
                       9.0377200000E-01  5.2530600000E-01  8.7766200000E-01
            znucl       83.00000    5.00000    8.00000

 chkinp: Checking input parameters for consistency.

== DATASET  1 ==================================================================
-   mpi_nproc: 1, omp_nthreads: -1 (-1 if OMP is not activated)

--- !DatasetInfo
iteration_state: {dtset: 1, }
dimensions: {natom: 10, nkpt: 2, mband: 39, nsppol: 1, nspinor: 1, nspden: 1, mpw: 11018, }
cutoff_energies: {ecut:  44.0, pawecutdg:  -1.0, }
electrons: {nelect:   6.00000000E+01, charge:   0.00000000E+00, occopt:   1.00000000E+00, tsmear:   1.00000000E-02, }
meta: {optdriver: 1, rfelfd: 2, }
...

 Real(R)+Recip(G) space primitive vectors, cartesian coordinates (Bohr,Bohr^-1):
 R(1)=  8.0799886  0.0000000  1.7264116  G(1)=  0.1237626 -0.0300299  0.0000000
 R(2)=  1.9052559  7.8521472  1.7264116  G(2)=  0.0000000  0.1273537  0.0000000
 R(3)=  0.0000000  0.0000000 12.4278731  G(3)= -0.0171924 -0.0135197  0.0804643
 Unit cell volume ucvol=  7.8848965E+02 bohr^3
 Angles (23,13,12)=  7.79392446E+01  7.79392446E+01  7.43854726E+01 degrees

 getcut: wavevector=  0.0000  0.0000  0.0000  ngfft=  50  50  80
         ecut(hartree)=     44.000   => boxcut(ratio)=   2.02676

--- Pseudopotential description ------------------------------------------------
- pspini: atom type   1  psp file is /scratch/users/j/a/jabreu/pseudos/PBEsol/Bi.psp8
- pspatm: opening atomic psp file    /scratch/users/j/a/jabreu/pseudos/PBEsol/Bi.psp8
- Bi    ONCVPSP-3.3.0  r_core=   2.42776   2.51622   2.10397
- 83.00000  15.00000    180112                znucl, zion, pspdat
    8 -116133    2    4       600   0.00000   pspcod,pspxc,lmax,lloc,mmax,r2well
    5.99000000000000    6.00000000000000    0.00000000000000   rchrg,fchrg,qchrg
     nproj     2     2     2
     extension_switch     1
  pspatm : epsatm=   42.90078186
         --- l  ekb(1:nproj) -->
             0    6.017688    0.961606
             1    4.379371    0.528498
             2   -3.458170   -0.753782
 pspatm: atomic psp has been read  and splines computed

- pspini: atom type   2  psp file is /scratch/users/j/a/jabreu/pseudos/PBEsol/B.psp8
- pspatm: opening atomic psp file    /scratch/users/j/a/jabreu/pseudos/PBEsol/B.psp8
- B     ONCVPSP-3.3.0  r_core=   1.20849   1.20849
-  5.00000   3.00000    180112                znucl, zion, pspdat
    8 -116133    1    4       600   0.00000   pspcod,pspxc,lmax,lloc,mmax,r2well
    5.99000000000000    2.90000000000000    0.00000000000000   rchrg,fchrg,qchrg
     nproj     2     2
     extension_switch     1
  pspatm : epsatm=    3.20154566
         --- l  ekb(1:nproj) -->
             0    8.466603    1.247630
             1   -3.609180   -0.822621
 pspatm: atomic psp has been read  and splines computed

- pspini: atom type   3  psp file is /scratch/users/j/a/jabreu/pseudos/PBEsol/O.psp8
- pspatm: opening atomic psp file    /scratch/users/j/a/jabreu/pseudos/PBEsol/O.psp8
- O     ONCVPSP-3.3.0  r_core=   1.35509   1.45563   1.26150
-  8.00000   6.00000    180112                znucl, zion, pspdat
    8 -116133    2    4       600   0.00000   pspcod,pspxc,lmax,lloc,mmax,r2well
    5.99000000000000    4.00000000000000    0.00000000000000   rchrg,fchrg,qchrg
     nproj     2     2     1
     extension_switch     1
  pspatm : epsatm=    6.22910522
         --- l  ekb(1:nproj) -->
             0    6.050032    0.820363
             1   -4.739617   -1.153841
             2   -1.335834
 pspatm: atomic psp has been read  and splines computed

   5.39280301E+03                                ecore*ucvol(ha*bohr**3)

 ==>  initialize data related to q vector <==

 The list of irreducible perturbations for this q vector is:
    1)    idir= 1    ipert=  11
    2)    idir= 2    ipert=  11
    3)    idir= 3    ipert=  11

 Perturbation wavevector (in red.coord.)   0.000000  0.000000  0.000000
 Perturbation : derivative vs k along direction   1

 dfpt_looppert : COMMENT -
  In a d/dk calculation, iscf is set to -3 automatically.
 The set of symmetries contains only one element for this perturbation.
 symkpt : not enough symmetry to change the number of k points.

 Initialisation of the first-order wave-functions :
  ireadwf=   0

--- !BeginCycle
iteration_state: {dtset: 1, }
solver: {iscf: 7, nstep: 2000, nline: 4, wfoptalg: 0, }
tolerances: {tolwfr: 1.00E-20, }
...

     iter   2DEtotal(Ha)        deltaE(Ha) residm    vres2
-ETOT  1  -51.355624129879     -5.136E+01 4.861E-02 0.000E+00
 ETOT  2  -51.415141398660     -5.952E-02 3.003E-03 0.000E+00
 ETOT  3  -51.415487014887     -3.456E-04 9.905E-05 0.000E+00
 ETOT  4  -51.415490432075     -3.417E-06 1.118E-05 0.000E+00
 ETOT  5  -51.415490473154     -4.108E-08 5.404E-07 0.000E+00
 ETOT  6  -51.415490473708     -5.533E-10 7.388E-08 0.000E+00
 ETOT  7  -51.415490473716     -8.050E-12 3.939E-09 0.000E+00
 ETOT  8  -51.415490473716     -1.634E-13 6.113E-10 0.000E+00
 ETOT  9  -51.415490473716      2.842E-14 3.335E-11 0.000E+00
 ETOT 10  -51.415490473716      0.000E+00 5.655E-12 0.000E+00
 ETOT 11  -51.415490473716      0.000E+00 3.051E-13 0.000E+00
 ETOT 12  -51.415490473716     -7.105E-15 5.475E-14 0.000E+00
 ETOT 13  -51.415490473716      1.421E-14 2.891E-15 0.000E+00
 ETOT 14  -51.415490473716     -7.105E-15 5.389E-16 0.000E+00
 ETOT 15  -51.415490473716      0.000E+00 2.783E-17 0.000E+00
 ETOT 16  -51.415490473716      0.000E+00 5.342E-18 0.000E+00
 ETOT 17  -51.415490473716      0.000E+00 2.702E-19 0.000E+00
 ETOT 18  -51.415490473716      0.000E+00 5.321E-20 0.000E+00
 ETOT 19  -51.415490473716      0.000E+00 9.688E-21 0.000E+00

 At SCF step   19   max residual=  9.69E-21 < tolwfr=  1.00E-20 =>converged.

 ----iterations are completed or convergence reached----

 dfpt_looppert: DFPT cycle converged with prtwf=-1. Will skip output of the 1st-order WFK file.
 dfpt_looppert : ek2=    7.6835887860E+01
          f-sum rule ratio=    1.0062654417E+00
 prteigrs : about to open file /scratch/users/j/a/jabreu/flow_simple_10atoms/flow/w411/t1/tmpdata/tmp_1WF1_EIG
 Expectation of eigenvalue derivatives (hartree) for nkpt=   2  k points:
  (in case of degenerate eigenvalues, averaged derivative)
 kpt#   1, nband= 39, wtk=  0.50000, kpt=  0.5000  0.5000  0.5000 (reduced coord)
  -0.00000    0.00000   -0.00000    0.00000   -0.00000   -0.00000   -0.00000   -0.00000
  -0.00000   -0.00000    0.00000   -0.00000    0.00000   -0.00000   -0.00000   -0.00000
  -0.00000   -0.00000   -0.00000    0.00000   -0.00000   -0.00000    0.00000   -0.00000
  -0.00000    0.00000   -0.00000   -0.00000   -0.00000   -0.00000    0.00000   -0.00000
   0.00000   -0.00000    0.00000    0.00000    0.00000    0.00000    0.00000
 prteigrs : prtvol=0 or 1, do not print more k-points.

 Eight components of 2nd-order total energy (hartree) are
 1,2,3: 0th-order hamiltonian combined with 1st-order wavefunctions
     kin0=   6.78682348E+01 eigvalue=   5.53223751E+00  local=  -3.14049375E+01
 4,5,6: 1st-order hamiltonian combined with 1st and 0th-order wfs
     kin1=  -7.73172986E+01  Hartree=   0.00000000E+00     xc=   0.00000000E+00
 7,8,9: eventually, occupation + non-local contributions
    edocc=   9.09949247E+00     enl0=   3.20463177E-01   enl1=  -2.55136823E+01
 1-9 gives the relaxation energy (to be shifted if some occ is /=2.0)
   erelax=  -5.14154905E+01
  No Ewald or frozen-wf contrib.: the relaxation energy is the total one
 2DEtotal=   -0.5141549047E+02 Ha. Also 2DEtotal=   -0.139908664763E+04 eV
    (  non-var. 2DEtotal :   -5.1415490474E+01 Ha)

 Perturbation wavevector (in red.coord.)   0.000000  0.000000  0.000000
 Perturbation : derivative vs k along direction   2
 The set of symmetries contains only one element for this perturbation.
 symkpt : not enough symmetry to change the number of k points.

[...]

 Perturbation wavevector (in red.coord.)   0.000000  0.000000  0.000000
 Perturbation : derivative vs k along direction   3
 The set of symmetries contains only one element for this perturbation.
 symkpt : not enough symmetry to change the number of k points.

 Initialisation of the first-order wave-functions :
  ireadwf=   0

--- !BeginCycle
iteration_state: {dtset: 1, }
solver: {iscf: 7, nstep: 2000, nline: 4, wfoptalg: 0, }
tolerances: {tolwfr: 1.00E-20, }
...

     iter   2DEtotal(Ha)        deltaE(Ha) residm    vres2
-ETOT  1  -22.124109848342     -2.212E+01 1.842E-02 0.000E+00
 ETOT  2  -22.152540039813     -2.843E-02 9.215E-04 0.000E+00
 ETOT  3  -22.152714161933     -1.741E-04 2.567E-05 0.000E+00
 ETOT  4  -22.152715799194     -1.637E-06 2.172E-06 0.000E+00
 ETOT  5  -22.152715817234     -1.804E-08 7.977E-08 0.000E+00
 ETOT  6  -22.152715817450     -2.160E-10 1.075E-08 0.000E+00
 ETOT  7  -22.152715817453     -2.739E-12 7.215E-10 0.000E+00
 ETOT  8  -22.152715817453     -2.842E-14 9.734E-11 0.000E+00
 ETOT  9  -22.152715817453      1.066E-14 7.072E-12 0.000E+00
 ETOT 10  -22.152715817453     -3.553E-15 9.539E-13 0.000E+00
 ETOT 11  -22.152715817453      0.000E+00 7.208E-14 0.000E+00
 ETOT 12  -22.152715817453      7.105E-15 9.702E-15 0.000E+00
 ETOT 13  -22.152715817453      0.000E+00 7.497E-16 0.000E+00
 ETOT 14  -22.152715817453     -7.105E-15 9.605E-17 0.000E+00
 ETOT 15  -22.152715817453      0.000E+00 8.347E-18 0.000E+00
 ETOT 16  -22.152715817453      3.553E-15 9.225E-19 0.000E+00
 ETOT 17  -22.152715817453      3.553E-15 1.005E-19 0.000E+00
 ETOT 18  -22.152715817453      0.000E+00 1.166E-20 0.000E+00
 ETOT 19  -22.152715817453     -1.066E-14 9.877E-21 0.000E+00

 At SCF step   19   max residual=  9.88E-21 < tolwfr=  1.00E-20 =>converged.

 ----iterations are completed or convergence reached----

 dfpt_looppert: DFPT cycle converged with prtwf=-1. Will skip output of the 1st-order WFK file.
 dfpt_looppert : ek2=    3.2938563339E+01
          f-sum rule ratio=    1.0140400812E+00
 prteigrs : about to open file /scratch/users/j/a/jabreu/flow_simple_10atoms/flow/w411/t1/tmpdata/tmp_1WF1_EIG
 Expectation of eigenvalue derivatives (hartree) for nkpt=   2  k points:
  (in case of degenerate eigenvalues, averaged derivative)
 kpt#   1, nband= 39, wtk=  0.50000, kpt=  0.5000  0.5000  0.5000 (reduced coord)
  -0.00000   -0.00000   -0.00000   -0.00000    0.00000   -0.00000   -0.00000   -0.00000
   0.00000   -0.00000   -0.00000   -0.00000    0.00000   -0.00000   -0.00000    0.00000
  -0.00000   -0.00000    0.00000   -0.00000    0.00000    0.00000   -0.00000    0.00000
  -0.00000   -0.00000   -0.00000    0.00000   -0.00000    0.00000    0.00000    0.00000
  -0.00000   -0.00000   -0.00000    0.00000   -0.00000   -0.00000   -0.00000
 prteigrs : prtvol=0 or 1, do not print more k-points.

 Eight components of 2nd-order total energy (hartree) are
 1,2,3: 0th-order hamiltonian combined with 1st-order wavefunctions
     kin0=   2.95483740E+01 eigvalue=   2.38930889E+00  local=  -1.38989863E+01
 4,5,6: 1st-order hamiltonian combined with 1st and 0th-order wfs
     kin1=  -3.34010234E+01  Hartree=   0.00000000E+00     xc=   0.00000000E+00
 7,8,9: eventually, occupation + non-local contributions
    edocc=   4.08598350E+00     enl0=   2.80356863E-02   enl1=  -1.09044082E+01
 1-9 gives the relaxation energy (to be shifted if some occ is /=2.0)
   erelax=  -2.21527158E+01
  No Ewald or frozen-wf contrib.: the relaxation energy is the total one
 2DEtotal=   -0.2215271582E+02 Ha. Also 2DEtotal=   -0.602806053650E+03 eV
    (  non-var. 2DEtotal :   -2.2152715817E+01 Ha)

 CALCULATION OF EFFECTIVE MASSES
 NOTE : Additional infos (eff. mass eigenvalues, eigenvectors and, if degenerate, average mass) are available in stdout.

--- !WARNING
src_file: m_efmas.F90
src_line: 0
message: |

    Band(s)    30,
    are not band extrema, but saddle points;
    the transport equivalent formalism breaks down in these conditions.
    The associated tensor(s) will therefore not be printed.
...

 K-point ( 0.500, 0.500, 0.500) | band =    30
 Effective mass tensor:
     *** SADDLE POINT: TRANSPORT EQV. EFF. MASS NOT DEFINED (see WARNING above) ***
 Angular average effective mass 1/(<1/m>)=  -1.9004551338
 Angular average effective mass for Frohlich model (<m**0.5>)**2=  -3.8360394542
 Effective masses along directions: (cart. coord. / red. coord. -> eff. mass)
    1:   1.000000  0.000000  0.000000 /   0.973307  0.229505  0.000000 ->  -1.1951315082
    2:   0.000000  1.000000  0.000000 /   0.000000  1.000000  0.000000 ->  -1.2516438879
    3:   0.000000  0.000000  1.000000 /   0.136309  0.136309  0.981244 ->  17.5106616022
    4:   0.577350  0.577350  0.577350 /   0.501414  0.587182  0.635453 ->  -1.7795814682
    5:   0.000000  0.707107  0.707107 /   0.109367  0.606796  0.787298 ->  -2.7758444051
    6:   0.707107  0.000000  0.707107 /   0.603763  0.223596  0.765163 ->  -2.6578657581
    7:   0.707107  0.707107  0.000000 /   0.637797  0.770204  0.000000 ->  -1.1164614805

 K-point ( 0.000, 0.000, 0.500) | band =    31
 Effective mass tensor:
              1.1235024282             -0.1040381967              0.0727897478
             -0.1040381967              1.1739872146              0.0572520412
              0.0727897478              0.0572520412              0.6169536597
 Effective mass tensor eigenvalues:
              0.5976401119              1.0610017263              1.2558014644
 Angular average effective mass 1/(<1/m>)=   0.8792348777
 Angular average effective mass for Frohlich model (<m**0.5>)**2=   0.9082617808
 Effective masses along directions: (cart. coord. / red. coord. -> eff. mass)
    1:   1.000000  0.000000  0.000000 /   0.973307  0.229505  0.000000 ->   1.1044110925
    2:   0.000000  1.000000  0.000000 /   0.000000  1.000000  0.000000 ->   1.1576644621
    3:   0.000000  0.000000  1.000000 /   0.136309  0.136309  0.981244 ->   0.6087207319
    4:   0.577350  0.577350  0.577350 /   0.501414  0.587182  0.635453 ->   0.9453064591
    5:   0.000000  0.707107  0.707107 /   0.109367  0.606796  0.787298 ->   0.8598366558
    6:   0.707107  0.000000  0.707107 /   0.603763  0.223596  0.765163 ->   0.8625667933
    7:   0.707107  0.707107  0.000000 /   0.637797  0.770204  0.000000 ->   1.0304246594

 END OF EFFECTIVE MASSES SECTION

 ---- first-order wavefunction calculations are completed ----

 Total localisation tensor (bohr^2) in cartesian coordinates
  WARNING : still subject to testing - especially symmetries.
      direction              matrix element
   alpha     beta       real part   imaginary part
     1        1       0.7823745353    0.0000000000
     1        2       0.1698381670    0.0000000000
     1        3       0.1957024968    0.0000000000
     2        1       0.1698381670    0.0000000000
     2        2       0.6999554630    0.0000000000
     2        3       0.1538956399    0.0000000000
     3        1       0.1957024968    0.0000000000
     3        2       0.1538956399    0.0000000000
     3        3       0.8626612046    0.0000000000

 respfn : d/dk was computed, but no 2DTE, so no DDB output.

== END DATASET(S) ==============================================================

 -outvars: echo values of variables after computation  --------
            acell      1.0000000000E+00  1.0000000000E+00  1.0000000000E+00 Bohr
              amu      2.08980370E+02  1.08110000E+01  1.59994000E+01
             ecut      4.40000000E+01 Hartree
           etotal     -2.2152715817E+01
            fcart      0.0000000000E+00  0.0000000000E+00  0.0000000000E+00
                       0.0000000000E+00  0.0000000000E+00  0.0000000000E+00
                       0.0000000000E+00  0.0000000000E+00  0.0000000000E+00
                       0.0000000000E+00  0.0000000000E+00  0.0000000000E+00
                       0.0000000000E+00  0.0000000000E+00  0.0000000000E+00
                       0.0000000000E+00  0.0000000000E+00  0.0000000000E+00
                       0.0000000000E+00  0.0000000000E+00  0.0000000000E+00
                       0.0000000000E+00  0.0000000000E+00  0.0000000000E+00
                       0.0000000000E+00  0.0000000000E+00  0.0000000000E+00
                       0.0000000000E+00  0.0000000000E+00  0.0000000000E+00
-          fftalg         512
           irdden           1
           irdwfk           1
           istwfk        1    1
              ixc     -116133
              kpt      5.00000000E-01  5.00000000E-01  5.00000000E-01
                       0.00000000E+00  0.00000000E+00  5.00000000E-01
           kptopt           0
P           mkmem           2
P          mkqmem           2
P          mk1mem           2
            natom          10
            nband          39
           nbdbuf           4
            ngfft          50      50      80
             nkpt           2
            nstep        2000
             nsym           2
           ntypat           3
              occ      2.000000  2.000000  2.000000  2.000000  2.000000  2.000000
                       2.000000  2.000000  2.000000  2.000000  2.000000  2.000000
                       2.000000  2.000000  2.000000  2.000000  2.000000  2.000000
                       2.000000  2.000000  2.000000  2.000000  2.000000  2.000000
                       2.000000  2.000000  2.000000  2.000000  2.000000  2.000000
                       0.000000  0.000000  0.000000  0.000000  0.000000  0.000000
                       0.000000  0.000000  0.000000
        optdriver           1
            prtwf          -1
            rfdir           1       1       1
           rfelfd           2
            rprim      8.0799886339E+00  0.0000000000E+00  1.7264115888E+00
                       1.9052559253E+00  7.8521472339E+00  1.7264115888E+00
                       0.0000000000E+00  0.0000000000E+00  1.2427873110E+01
          spgroup           5
           strten      0.0000000000E+00  0.0000000000E+00  0.0000000000E+00
                       0.0000000000E+00  0.0000000000E+00  0.0000000000E+00
           symrel      1  0  0   0  1  0   0  0  1       0 -1  0  -1  0  0   0  0 -1
           tolwfr      1.00000000E-20
            typat      1  2  2  2  3  3  3  3  3  3
           useylm           1
              wtk        0.50000    0.50000
           xangst      4.2048078018E+00  9.0208900370E-02  9.1357766544E-01
                       3.3377333523E+00  1.1928309184E+00  4.2018512661E+00
                       1.4844565281E+00  8.2017799251E-01  2.4642568807E+00
                       4.1368795621E+00  2.9059773003E+00  5.9394456514E+00
                       2.1266896942E+00  3.9984440649E-01  1.3261432194E+00
                       3.6225505026E+00  2.4873057852E+00  4.7725725730E+00
                       2.0126006952E+00  1.2212814177E+00  3.6311299591E+00
                       4.3717422218E+00  8.8121339267E-01  3.1675807103E+00
                       3.3967452135E+00  1.1450006719E-01  5.2361218218E+00
                       4.3939223320E+00  2.1827395955E+00  7.0775593127E+00
            xcart      7.9459351868E+00  1.7047011645E-01  1.7264115888E+00
                       6.3074019405E+00  2.2541237586E+00  7.9403481440E+00
                       2.8052162943E+00  1.5499117861E+00  4.6567706257E+00
                       7.8175694171E+00  5.4915012459E+00  1.1223925662E+01
                       4.0188610918E+00  7.5559642402E-01  2.5060474977E+00
                       6.8456283525E+00  4.7003267428E+00  9.0188551123E+00
                       3.8032641287E+00  2.3078874107E+00  6.8618411757E+00
                       8.2613955227E+00  1.6652519768E+00  5.9858600463E+00
                       6.4189181967E+00  2.1637376918E-01  9.8948362417E+00
                       8.3033098567E+00  4.1247800549E+00  1.3374648790E+01
             xred      9.7829000000E-01  2.1710000000E-02  0.0000000000E+00
                       7.1292900000E-01  2.8707100000E-01  5.0000000000E-01
                       3.0063700000E-01  1.9738700000E-01  3.0552100000E-01
                       8.0261300000E-01  6.9936300000E-01  6.9447900000E-01
                       4.7469400000E-01  9.6228000000E-02  1.2233800000E-01
                       7.0608200000E-01  5.9860400000E-01  5.4445600000E-01
                       4.0139600000E-01  2.9391800000E-01  4.5554400000E-01
                       9.7244400000E-01  2.1207600000E-01  3.1710100000E-01
                       7.8792400000E-01  2.7556000000E-02  6.8289900000E-01
                       9.0377200000E-01  5.2530600000E-01  8.7766200000E-01
            znucl       83.00000    5.00000    8.00000

- Timing analysis has been suppressed with timopt=0

 Suggested references for the acknowledgment of ABINIT usage.

 Calculation completed.
.Delivered   3 WARNINGs and   5 COMMENTs to log file.