.Version 9.5.1 of ABINIT

 ABINIT is a project of the Universite Catholique de Louvain,
 Corning Inc. and other collaborators, see ~abinit/doc/developers/contributors.txt .
 acknowledgments of the ABINIT effort.

.Starting date : Wed 19 May 2021.
- ( at 01h33 )

- input  file    -> /scratch/users/j/a/jabreu/flow_simple_8atoms/flow/w438/t1/run.abi
- output file    -> /scratch/users/j/a/jabreu/flow_simple_8atoms/flow/w438/t1/run.abo
- root for input  files -> /scratch/users/j/a/jabreu/flow_simple_8atoms/flow/w438/t1/indata/in
- root for output files -> /scratch/users/j/a/jabreu/flow_simple_8atoms/flow/w438/t1/outdata/out

 Symmetries : space group P6_3/m m c (#194); Bravais hP (primitive hexag.)
     intxc =       0      iscf =       7    lmnmax =      18     lnmax =       6
     mgfft =     160  mpssoang =       3    mqgrid =    7933     natom =       8
  nloc_mem =       1    nspden =       1   nspinor =       1    nsppol =       1
      nsym =      24    n1xccc =    2501    ntypat =       3    occopt =       1
   xclevel =       2
-    mband =          41        mffmem =           1         mkmem =           2
-   mkqmem =           2        mk1mem =           2           mpw =       15517
      nfft =      324000          nkpt =           2
  Rough estimation (10% accuracy) of disk space for files :

------------- Echo of variables that govern the present computation ------------
-
- outvars: echo of selected default values
-   iomode0 =  0 , fftalg0 =512 , wfoptalg0 =  0
-
- outvars: echo of global parameters not present in the input file
-  max_nthreads =    0
-
 -outvars: echo values of preprocessed input variables --------
            acell      1.0000000000E+00  1.0000000000E+00  1.0000000000E+00 Bohr
              amu      4.00780000E+01  1.26904470E+02  1.40067400E+01
             ecut      4.20000000E+01 Hartree
-          fftalg         512
           irdden           1
           irdwfk           1
           istwfk        1    1
              ixc     -116133
              kpt      0.00000000E+00  0.00000000E+00  0.00000000E+00
                       5.00000000E-01  0.00000000E+00  0.00000000E+00
           kptopt           0
P           mkmem           2
P          mkqmem           2
P          mk1mem           2
            natom           8
            nband          41
           nbdbuf           4
            ngfft          45      45     160
             nkpt           2
            nstep        2000
             nsym          24
           ntypat           3
              occ      2.000000  2.000000  2.000000  2.000000  2.000000  2.000000
                       2.000000  2.000000  2.000000  2.000000  2.000000  2.000000
                       2.000000  2.000000  2.000000  2.000000  2.000000  2.000000
                       2.000000  2.000000  2.000000  2.000000  2.000000  2.000000
                       2.000000  2.000000  2.000000  2.000000  2.000000  2.000000
                       2.000000  2.000000  0.000000  0.000000  0.000000  0.000000
                       0.000000  0.000000  0.000000  0.000000  0.000000
        optdriver           1
            prtwf          -1
            rfdir           1       1       1
           rfelfd           2
            rprim      7.0993863919E+00  0.0000000000E+00  0.0000000000E+00
                      -3.5496931960E+00  6.1482489667E+00  0.0000000000E+00
                       0.0000000000E+00  0.0000000000E+00  2.7191634548E+01
          spgroup         194
           symrel      1  0  0   0  1  0   0  0  1      -1  0  0   0 -1  0   0  0 -1
                       0  1  0   1  0  0   0  0  1       0 -1  0  -1  0  0   0  0 -1
                       1  1  0  -1  0  0   0  0  1      -1 -1  0   1  0  0   0  0 -1
                      -1  0  0   1  1  0   0  0  1       1  0  0  -1 -1  0   0  0 -1
                       0  1  0  -1 -1  0   0  0  1       0 -1  0   1  1  0   0  0 -1
                      -1 -1  0   0  1  0   0  0  1       1  1  0   0 -1  0   0  0 -1
                      -1  0  0   0 -1  0   0  0  1       1  0  0   0  1  0   0  0 -1
                       0 -1  0  -1  0  0   0  0  1       0  1  0   1  0  0   0  0 -1
                      -1 -1  0   1  0  0   0  0  1       1  1  0  -1  0  0   0  0 -1
                       1  0  0  -1 -1  0   0  0  1      -1  0  0   1  1  0   0  0 -1
                       0 -1  0   1  1  0   0  0  1       0  1  0  -1 -1  0   0  0 -1
                       1  1  0   0 -1  0   0  0  1      -1 -1  0   0  1  0   0  0 -1
            tnons      0.0000000  0.0000000  0.0000000    -0.0000000 -0.0000000  0.0000000
                       0.0000000  0.0000000  0.5000000    -0.0000000 -0.0000000  0.5000000
                      -0.0000000  0.0000000  0.5000000     0.0000000 -0.0000000  0.5000000
                       0.0000000  0.0000000  0.0000000    -0.0000000 -0.0000000  0.0000000
                      -0.0000000 -0.0000000  0.0000000     0.0000000  0.0000000  0.0000000
                      -0.0000000  0.0000000  0.5000000     0.0000000 -0.0000000  0.5000000
                      -0.0000000 -0.0000000  0.5000000     0.0000000  0.0000000  0.5000000
                      -0.0000000 -0.0000000  0.0000000     0.0000000  0.0000000  0.0000000
                       0.0000000 -0.0000000  0.0000000    -0.0000000  0.0000000  0.0000000
                      -0.0000000 -0.0000000  0.5000000     0.0000000  0.0000000  0.5000000
                       0.0000000  0.0000000  0.5000000    -0.0000000 -0.0000000  0.5000000
                       0.0000000 -0.0000000  0.0000000    -0.0000000  0.0000000  0.0000000
           tolwfr      1.00000000E-20
            typat      1  1  1  1  2  2  3  3
           useylm           1
              wtk        0.50000    0.50000
           xangst     -1.7639241746E-11  2.1690088173E+00  1.3200314952E+01
                      -1.7639241746E-11  2.1690088173E+00  8.3834749489E+00
                       1.8784167368E+00  1.0845044086E+00  6.0057183182E+00
                       1.8784167368E+00  1.0845044086E+00  1.1888783153E+00
                      -1.7639241746E-11  2.1690088173E+00  3.5972983168E+00
                       1.8784167368E+00  1.0845044086E+00  1.0791894950E+01
                      -3.4757691850E-17 -6.0202088239E-17  0.0000000000E+00
                      -3.4757691850E-17 -6.0202088239E-17  7.1945966336E+00
            xcart     -3.3333336091E-11  4.0988326445E+00  2.4944980127E+01
                      -3.3333336091E-11  4.0988326445E+00  1.5842471695E+01
                       3.5496931959E+00  2.0494163222E+00  1.1349162853E+01
                       3.5496931959E+00  2.0494163222E+00  2.2466544213E+00
                      -3.3333336091E-11  4.0988326445E+00  6.7979086370E+00
                       3.5496931959E+00  2.0494163222E+00  2.0393725911E+01
                      -6.5682518607E-17 -1.1376545940E-16  0.0000000000E+00
                      -6.5682518607E-17 -1.1376545940E-16  1.3595817274E+01
             xred      3.3333333333E-01  6.6666666667E-01  9.1737700000E-01
                       3.3333333333E-01  6.6666666667E-01  5.8262300000E-01
                       6.6666666667E-01  3.3333333333E-01  4.1737700000E-01
                       6.6666666667E-01  3.3333333333E-01  8.2623000000E-02
                       3.3333333333E-01  6.6666666667E-01  2.5000000000E-01
                       6.6666666667E-01  3.3333333333E-01  7.5000000000E-01
                      -1.8503717077E-17 -1.8503717077E-17  0.0000000000E+00
                      -1.8503717077E-17 -1.8503717077E-17  5.0000000000E-01
            znucl       20.00000   53.00000    7.00000

 chkinp: Checking input parameters for consistency.

== DATASET  1 ==================================================================
-   mpi_nproc: 1, omp_nthreads: -1 (-1 if OMP is not activated)

--- !DatasetInfo
iteration_state: {dtset: 1, }
dimensions: {natom: 8, nkpt: 2, mband: 41, nsppol: 1, nspinor: 1, nspden: 1, mpw: 15517, }
cutoff_energies: {ecut:  42.0, pawecutdg:  -1.0, }
electrons: {nelect:   6.40000000E+01, charge:   0.00000000E+00, occopt:   1.00000000E+00, tsmear:   1.00000000E-02, }
meta: {optdriver: 1, rfelfd: 2, }
...

 Real(R)+Recip(G) space primitive vectors, cartesian coordinates (Bohr,Bohr^-1):
 R(1)=  7.0993864  0.0000000  0.0000000  G(1)=  0.1408572  0.0813240  0.0000000
 R(2)= -3.5496932  6.1482490  0.0000000  G(2)=  0.0000000  0.1626479  0.0000000
 R(3)=  0.0000000  0.0000000 27.1916345  G(3)=  0.0000000  0.0000000  0.0367760
 Unit cell volume ucvol=  1.1868821E+03 bohr^3
 Angles (23,13,12)=  9.00000000E+01  9.00000000E+01  1.20000000E+02 degrees

 getcut: wavevector=  0.0000  0.0000  0.0000  ngfft=  45  45 160
         ecut(hartree)=     42.000   => boxcut(ratio)=   2.01695

--- Pseudopotential description ------------------------------------------------
- pspini: atom type   1  psp file is /scratch/users/j/a/jabreu/pseudos/PBEsol/Ca.psp8
- pspatm: opening atomic psp file    /scratch/users/j/a/jabreu/pseudos/PBEsol/Ca.psp8
- Ca    ONCVPSP-3.3.0  r_core=   1.45885   1.45885   1.85192
- 20.00000  10.00000    180112                znucl, zion, pspdat
    8 -116133    2    4       400   0.00000   pspcod,pspxc,lmax,lloc,mmax,r2well
    3.99000000000000    6.00000000000000    0.00000000000000   rchrg,fchrg,qchrg
     nproj     2     2     2
     extension_switch     1
  pspatm : epsatm=   12.46045226
         --- l  ekb(1:nproj) -->
             0   10.054847    0.973777
             1    2.998958    0.458102
             2   -3.447298   -1.091650
 pspatm: atomic psp has been read  and splines computed

- pspini: atom type   2  psp file is /scratch/users/j/a/jabreu/pseudos/PBEsol/I.psp8
- pspatm: opening atomic psp file    /scratch/users/j/a/jabreu/pseudos/PBEsol/I.psp8
- I     ONCVPSP-3.3.0  r_core=   2.02042   2.17032   2.27639
- 53.00000   7.00000    180112                znucl, zion, pspdat
    8 -116133    2    4       600   0.00000   pspcod,pspxc,lmax,lloc,mmax,r2well
    5.99000000000000    4.00000000000000    0.00000000000000   rchrg,fchrg,qchrg
     nproj     2     2     2
     extension_switch     1
  pspatm : epsatm=   18.14229533
         --- l  ekb(1:nproj) -->
             0    6.015861    0.935228
             1    4.063749    0.754139
             2    4.149534    0.722940
 pspatm: atomic psp has been read  and splines computed

- pspini: atom type   3  psp file is /scratch/users/j/a/jabreu/pseudos/PBEsol/N.psp8
- pspatm: opening atomic psp file    /scratch/users/j/a/jabreu/pseudos/PBEsol/N.psp8
- N     ONCVPSP-3.3.0  r_core=   1.20551   1.35824
-  7.00000   5.00000    180112                znucl, zion, pspdat
    8 -116133    1    4       600   0.00000   pspcod,pspxc,lmax,lloc,mmax,r2well
    5.99000000000000    4.00000000000000    0.00000000000000   rchrg,fchrg,qchrg
     nproj     2     2
     extension_switch     1
  pspatm : epsatm=    5.26508895
         --- l  ekb(1:nproj) -->
             0    7.464189    0.625868
             1   -4.309714   -1.012941
 pspatm: atomic psp has been read  and splines computed

   6.18602097E+03                                ecore*ucvol(ha*bohr**3)

[...]
 ETOT 11  -3.3771250853358     -6.373E-13 3.146E-07 0.000E+00
 ETOT 12  -3.3771250853358     -5.151E-14 6.347E-08 0.000E+00
 ETOT 13  -3.3771250853358     -5.773E-15 5.569E-08 0.000E+00
 ETOT 14  -3.3771250853358     -5.773E-15 1.132E-08 0.000E+00
 ETOT 15  -3.3771250853358      4.441E-16 9.956E-09 0.000E+00
 ETOT 16  -3.3771250853358      6.661E-15 2.028E-09 0.000E+00
 ETOT 17  -3.3771250853358     -5.773E-15 1.790E-09 0.000E+00
 ETOT 18  -3.3771250853358      1.332E-15 3.648E-10 0.000E+00
 ETOT 19  -3.3771250853358      0.000E+00 3.229E-10 0.000E+00
 ETOT 20  -3.3771250853358      0.000E+00 6.579E-11 0.000E+00
 ETOT 21  -3.3771250853358      4.441E-16 5.840E-11 0.000E+00
 ETOT 22  -3.3771250853358     -8.882E-16 1.189E-11 0.000E+00
 ETOT 23  -3.3771250853358      0.000E+00 1.058E-11 0.000E+00
 ETOT 24  -3.3771250853358      4.441E-16 2.154E-12 0.000E+00
 ETOT 25  -3.3771250853358     -4.441E-16 1.920E-12 0.000E+00
 ETOT 26  -3.3771250853358      4.441E-16 3.906E-13 0.000E+00
 ETOT 27  -3.3771250853358     -4.441E-16 3.489E-13 0.000E+00
 ETOT 28  -3.3771250853358     -4.441E-16 7.094E-14 0.000E+00
 ETOT 29  -3.3771250853358      8.882E-16 6.347E-14 0.000E+00
 ETOT 30  -3.3771250853358      8.882E-16 1.290E-14 0.000E+00
 ETOT 31  -3.3771250853358     -4.441E-16 1.156E-14 0.000E+00
 ETOT 32  -3.3771250853358      0.000E+00 2.348E-15 0.000E+00
 ETOT 33  -3.3771250853358      0.000E+00 2.106E-15 0.000E+00
 ETOT 34  -3.3771250853358      0.000E+00 4.279E-16 0.000E+00
 ETOT 35  -3.3771250853358      0.000E+00 3.840E-16 0.000E+00
 ETOT 36  -3.3771250853358      8.882E-16 7.803E-17 0.000E+00
 ETOT 37  -3.3771250853358     -4.441E-16 7.009E-17 0.000E+00
 ETOT 38  -3.3771250853358      0.000E+00 1.424E-17 0.000E+00
 ETOT 39  -3.3771250853358      4.441E-16 1.280E-17 0.000E+00
 ETOT 40  -3.3771250853358     -8.882E-16 2.602E-18 0.000E+00
 ETOT 41  -3.3771250853358      4.441E-16 2.340E-18 0.000E+00
 ETOT 42  -3.3771250853358      0.000E+00 4.756E-19 0.000E+00
 ETOT 43  -3.3771250853358      0.000E+00 4.278E-19 0.000E+00
 ETOT 44  -3.3771250853358      8.882E-16 8.699E-20 0.000E+00
 ETOT 45  -3.3771250853358     -4.441E-16 7.828E-20 0.000E+00
 ETOT 46  -3.3771250853358     -4.441E-16 1.592E-20 0.000E+00
 ETOT 47  -3.3771250853358      4.441E-16 9.835E-21 0.000E+00

 At SCF step   47   max residual=  9.83E-21 < tolwfr=  1.00E-20 =>converged.

 ----iterations are completed or convergence reached----

 dfpt_looppert: DFPT cycle converged with prtwf=-1. Will skip output of the 1st-order WFK file.
 dfpt_looppert : ek2=    6.8343792826E+00
          f-sum rule ratio=    1.0220703787E+00
 prteigrs : about to open file /scratch/users/j/a/jabreu/flow_simple_8atoms/flow/w438/t1/tmpdata/tmp_1WF1_EIG
 Expectation of eigenvalue derivatives (hartree) for nkpt=   2  k points:
  (in case of degenerate eigenvalues, averaged derivative)
 kpt#   1, nband= 41, wtk=  0.50000, kpt=  0.0000  0.0000  0.0000 (reduced coord)
   0.00000    0.00000   -0.00000    0.00000   -0.00000    0.00000   -0.00000    0.00000
   0.00000   -0.00000   -0.00000    0.00000   -0.00000   -0.00000   -0.00000   -0.00000
  -0.00000   -0.00000    0.00000   -0.00000   -0.00000    0.00000    0.00000   -0.00000
  -0.00000    0.00000   -0.00000   -0.00000   -0.00000   -0.00000   -0.00000   -0.00000
   0.00000    0.00000   -0.00000   -0.00000    0.00000    0.00000    0.00000    0.00000
   0.00000
 prteigrs : prtvol=0 or 1, do not print more k-points.

 Eight components of 2nd-order total energy (hartree) are
 1,2,3: 0th-order hamiltonian combined with 1st-order wavefunctions
     kin0=   5.41640471E+00 eigvalue=   6.95936767E-02  local=  -3.14702157E+00
 4,5,6: 1st-order hamiltonian combined with 1st and 0th-order wfs
     kin1=  -6.98521662E+00  Hartree=   0.00000000E+00     xc=   0.00000000E+00
 7,8,9: eventually, occupation + non-local contributions
    edocc=   1.07241529E+00     enl0=  -3.42670239E-02   enl1=   2.30966451E-01
 1-9 gives the relaxation energy (to be shifted if some occ is /=2.0)
   erelax=  -3.37712509E+00
  No Ewald or frozen-wf contrib.: the relaxation energy is the total one
 2DEtotal=   -0.3377125085E+01 Ha. Also 2DEtotal=   -0.918962470403E+02 eV
    (  non-var. 2DEtotal :   -3.3771250852E+00 Ha)

 CALCULATION OF EFFECTIVE MASSES
 NOTE : Additional infos (eff. mass eigenvalues, eigenvectors and, if degenerate, average mass) are available in stdout.

 COMMENTS:
 - At k-point ( 0.000, 0.000, 0.000), bands    31 through    32
   are DEGENERATE (effective mass tensor is therefore not defined).
   See Section IIIB Eqs. (67)-(70) and Appendix E of PRB 93 205147 (2016).
 - Angular average effective mass for Frohlich model is to be averaged over degenerate bands. See later.
 - Associated theta integrals calculated with ntheta=   1000 points.

 K-point ( 0.000, 0.000, 0.000) | band =    31
 Transport equivalent effective mass tensor:
             -0.2415541058              0.0000000009              0.0000000015
              0.0000000009             -0.2415541033              0.0000000002
              0.0000000015              0.0000000002             -1.2027858890
 Transport equivalent effective mass tensor eigenvalues:
             -1.2027858890             -0.2415541061             -0.2415541030
 Angular average effective mass 1/(<1/m>)=  -0.3292679093
 Angular average effective mass for Frohlich model (<m**0.5>)**2=  -0.3698060211
 Effective masses along directions: (cart. coord. / red. coord. -> eff. mass)
    1:   1.000000  0.000000  0.000000 /   0.894427 -0.447214  0.000000 ->  -0.2415541045
    2:   0.000000  1.000000  0.000000 /   0.000000  1.000000  0.000000 ->  -0.2415541046
    3:   0.000000  0.000000  1.000000 /   0.000000  0.000000  1.000000 ->  -1.2027858570
    4:   0.577350  0.577350  0.577350 /   0.251546  0.092072  0.963456 ->  -0.3292679080
    5:   0.000000  0.707107  0.707107 /   0.000000  0.220541  0.975378 ->  -0.4023122935
    6:   0.707107  0.000000  0.707107 /   0.250628 -0.125314  0.959939 ->  -0.4023122954
    7:   0.707107  0.707107  0.000000 /   0.939071  0.343724  0.000000 ->  -0.2415541045

 K-point ( 0.000, 0.000, 0.000) | band =    32
 Transport equivalent effective mass tensor:
             -1.5059518575             -0.0000000054              0.0000000085
             -0.0000000054             -1.5059518747             -0.0000000020
              0.0000000085             -0.0000000020             -1.2027858890
 Transport equivalent effective mass tensor eigenvalues:
             -1.5059518763             -1.5059518560             -1.2027858890
 Angular average effective mass 1/(<1/m>)=  -1.3892317819
 Angular average effective mass for Frohlich model (<m**0.5>)**2=  -1.3940932583
 Effective masses along directions: (cart. coord. / red. coord. -> eff. mass)
    1:   1.000000  0.000000  0.000000 /   0.894427 -0.447214  0.000000 ->  -1.5059518653
    2:   0.000000  1.000000  0.000000 /   0.000000  1.000000  0.000000 ->  -1.5059518660
    3:   0.000000  0.000000  1.000000 /   0.000000  0.000000  1.000000 ->  -1.2027859209
    4:   0.577350  0.577350  0.577350 /   0.251546  0.092072  0.963456 ->  -1.3892317933
    5:   0.000000  0.707107  0.707107 /   0.000000  0.220541  0.975378 ->  -1.3374034954
    6:   0.707107  0.000000  0.707107 /   0.250628 -0.125314  0.959939 ->  -1.3374034526
    7:   0.707107  0.707107  0.000000 /   0.939071  0.343724  0.000000 ->  -1.5059518663

 Angular average effective mass for Frohlich model, averaged over degenerate bands.
 Value of     (<<m**0.5>>)**2 =     7.999818E-01
 Absolute Value of <<m**0.5>> =     8.944170E-01

 K-point ( 0.500, 0.000, 0.000) | band =    33
 Effective mass tensor:
              1.0222741175              0.3935244016              0.0000000592
              0.3935244016              0.5678711761              0.0000000288
              0.0000000592              0.0000000288              0.9583683035
 Effective mass tensor eigenvalues:
              0.3406697827              0.9583683035              1.2494755109
 Angular average effective mass 1/(<1/m>)=   0.6277240749
 Angular average effective mass for Frohlich model (<m**0.5>)**2=   0.6963063814
 Effective masses along directions: (cart. coord. / red. coord. -> eff. mass)
    1:   1.000000  0.000000  0.000000 /   0.894427 -0.447214  0.000000 ->   0.7495688612
    2:   0.000000  1.000000  0.000000 /   0.000000  1.000000  0.000000 ->   0.4163839654
    3:   0.000000  0.000000  1.000000 /   0.000000  0.000000  1.000000 ->   0.9583683035
    4:   0.577350  0.577350  0.577350 /   0.251546  0.092072  0.963456 ->   1.0238365103
    5:   0.000000  0.707107  0.707107 /   0.000000  0.220541  0.975378 ->   0.5805397918
    6:   0.707107  0.000000  0.707107 /   0.250628 -0.125314  0.959939 ->   0.8412055029
    7:   0.707107  0.707107  0.000000 /   0.939071  0.343724  0.000000 ->   1.0600433592

 END OF EFFECTIVE MASSES SECTION

 ---- first-order wavefunction calculations are completed ----

 Total localisation tensor (bohr^2) in cartesian coordinates
  WARNING : still subject to testing - especially symmetries.
      direction              matrix element
   alpha     beta       real part   imaginary part
     1        1       2.4948076437    0.0000000000
     1        2      -1.0033792256    0.0000000000
     1        3       0.0000000000    0.0000000000
     2        1      -1.0033792256    0.0000000000
     2        2       1.7379037979    0.0000000000
     2        3       0.0000000000    0.0000000000
     3        1       0.0000000000    0.0000000000
     3        2       0.0000000000    0.0000000000
     3        3       1.1898021947    0.0000000000

 respfn : d/dk was computed, but no 2DTE, so no DDB output.

== END DATASET(S) ==============================================================

 -outvars: echo values of variables after computation  --------
            acell      1.0000000000E+00  1.0000000000E+00  1.0000000000E+00 Bohr
              amu      4.00780000E+01  1.26904470E+02  1.40067400E+01
             ecut      4.20000000E+01 Hartree
           etotal     -3.3771250853E+00
            fcart      0.0000000000E+00  0.0000000000E+00  0.0000000000E+00
                       0.0000000000E+00  0.0000000000E+00  0.0000000000E+00
                       0.0000000000E+00  0.0000000000E+00  0.0000000000E+00
                       0.0000000000E+00  0.0000000000E+00  0.0000000000E+00
                       0.0000000000E+00  0.0000000000E+00  0.0000000000E+00
                       0.0000000000E+00  0.0000000000E+00  0.0000000000E+00
                       0.0000000000E+00  0.0000000000E+00  0.0000000000E+00
                       0.0000000000E+00  0.0000000000E+00  0.0000000000E+00
-          fftalg         512
           irdden           1
           irdwfk           1
           istwfk        1    1
              ixc     -116133
              kpt      0.00000000E+00  0.00000000E+00  0.00000000E+00
                       5.00000000E-01  0.00000000E+00  0.00000000E+00
           kptopt           0
P           mkmem           2
P          mkqmem           2
P          mk1mem           2
            natom           8
            nband          41
           nbdbuf           4
            ngfft          45      45     160
             nkpt           2
            nstep        2000
             nsym          24
           ntypat           3
              occ      2.000000  2.000000  2.000000  2.000000  2.000000  2.000000
                       2.000000  2.000000  2.000000  2.000000  2.000000  2.000000
                       2.000000  2.000000  2.000000  2.000000  2.000000  2.000000
                       2.000000  2.000000  2.000000  2.000000  2.000000  2.000000
                       2.000000  2.000000  2.000000  2.000000  2.000000  2.000000
                       2.000000  2.000000  0.000000  0.000000  0.000000  0.000000
                       0.000000  0.000000  0.000000  0.000000  0.000000
        optdriver           1
            prtwf          -1
            rfdir           1       1       1
           rfelfd           2
            rprim      7.0993863919E+00  0.0000000000E+00  0.0000000000E+00
                      -3.5496931960E+00  6.1482489667E+00  0.0000000000E+00
                       0.0000000000E+00  0.0000000000E+00  2.7191634548E+01
          spgroup         194
           strten      0.0000000000E+00  0.0000000000E+00  0.0000000000E+00
                       0.0000000000E+00  0.0000000000E+00  0.0000000000E+00
           symrel      1  0  0   0  1  0   0  0  1      -1  0  0   0 -1  0   0  0 -1
                       0  1  0   1  0  0   0  0  1       0 -1  0  -1  0  0   0  0 -1
                       1  1  0  -1  0  0   0  0  1      -1 -1  0   1  0  0   0  0 -1
                      -1  0  0   1  1  0   0  0  1       1  0  0  -1 -1  0   0  0 -1
                       0  1  0  -1 -1  0   0  0  1       0 -1  0   1  1  0   0  0 -1
                      -1 -1  0   0  1  0   0  0  1       1  1  0   0 -1  0   0  0 -1
                      -1  0  0   0 -1  0   0  0  1       1  0  0   0  1  0   0  0 -1
                       0 -1  0  -1  0  0   0  0  1       0  1  0   1  0  0   0  0 -1
                      -1 -1  0   1  0  0   0  0  1       1  1  0  -1  0  0   0  0 -1
                       1  0  0  -1 -1  0   0  0  1      -1  0  0   1  1  0   0  0 -1
                       0 -1  0   1  1  0   0  0  1       0  1  0  -1 -1  0   0  0 -1
                       1  1  0   0 -1  0   0  0  1      -1 -1  0   0  1  0   0  0 -1
            tnons      0.0000000  0.0000000  0.0000000    -0.0000000 -0.0000000  0.0000000
                       0.0000000  0.0000000  0.5000000    -0.0000000 -0.0000000  0.5000000
                      -0.0000000  0.0000000  0.5000000     0.0000000 -0.0000000  0.5000000
                       0.0000000  0.0000000  0.0000000    -0.0000000 -0.0000000  0.0000000
                      -0.0000000 -0.0000000  0.0000000     0.0000000  0.0000000  0.0000000
                      -0.0000000  0.0000000  0.5000000     0.0000000 -0.0000000  0.5000000
                      -0.0000000 -0.0000000  0.5000000     0.0000000  0.0000000  0.5000000
                      -0.0000000 -0.0000000  0.0000000     0.0000000  0.0000000  0.0000000
                       0.0000000 -0.0000000  0.0000000    -0.0000000  0.0000000  0.0000000
                      -0.0000000 -0.0000000  0.5000000     0.0000000  0.0000000  0.5000000
                       0.0000000  0.0000000  0.5000000    -0.0000000 -0.0000000  0.5000000
                       0.0000000 -0.0000000  0.0000000    -0.0000000  0.0000000  0.0000000
           tolwfr      1.00000000E-20
            typat      1  1  1  1  2  2  3  3
           useylm           1
              wtk        0.50000    0.50000
           xangst     -1.7639241746E-11  2.1690088173E+00  1.3200314952E+01
                      -1.7639241746E-11  2.1690088173E+00  8.3834749489E+00
                       1.8784167368E+00  1.0845044086E+00  6.0057183182E+00
                       1.8784167368E+00  1.0845044086E+00  1.1888783153E+00
                      -1.7639241746E-11  2.1690088173E+00  3.5972983168E+00
                       1.8784167368E+00  1.0845044086E+00  1.0791894950E+01
                      -3.4757691850E-17 -6.0202088239E-17  0.0000000000E+00
                      -3.4757691850E-17 -6.0202088239E-17  7.1945966336E+00
            xcart     -3.3333336091E-11  4.0988326445E+00  2.4944980127E+01
                      -3.3333336091E-11  4.0988326445E+00  1.5842471695E+01
                       3.5496931959E+00  2.0494163222E+00  1.1349162853E+01
                       3.5496931959E+00  2.0494163222E+00  2.2466544213E+00
                      -3.3333336091E-11  4.0988326445E+00  6.7979086370E+00
                       3.5496931959E+00  2.0494163222E+00  2.0393725911E+01
                      -6.5682518607E-17 -1.1376545940E-16  0.0000000000E+00
                      -6.5682518607E-17 -1.1376545940E-16  1.3595817274E+01
             xred      3.3333333333E-01  6.6666666667E-01  9.1737700000E-01
                       3.3333333333E-01  6.6666666667E-01  5.8262300000E-01
                       6.6666666667E-01  3.3333333333E-01  4.1737700000E-01
                       6.6666666667E-01  3.3333333333E-01  8.2623000000E-02
                       3.3333333333E-01  6.6666666667E-01  2.5000000000E-01
                       6.6666666667E-01  3.3333333333E-01  7.5000000000E-01
                      -1.8503717077E-17 -1.8503717077E-17  0.0000000000E+00
                      -1.8503717077E-17 -1.8503717077E-17  5.0000000000E-01
            znucl       20.00000   53.00000    7.00000

- Timing analysis has been suppressed with timopt=0

 Suggested references for the acknowledgment of ABINIT usage.

 Calculation completed.
.Delivered  14 WARNINGs and   9 COMMENTs to log file.