.Version 9.5.1 of ABINIT

 ABINIT is a project of the Universite Catholique de Louvain,
 Corning Inc. and other collaborators, see ~abinit/doc/developers/contributors.txt .
 acknowledgments of the ABINIT effort.

.Starting date : Tue 11 May 2021.
- ( at 21h41 )

- input  file    -> /scratch/users/j/a/jabreu/flow_simple_8atoms/flow/w342/t1/run.abi
- output file    -> /scratch/users/j/a/jabreu/flow_simple_8atoms/flow/w342/t1/run.abo
- root for input  files -> /scratch/users/j/a/jabreu/flow_simple_8atoms/flow/w342/t1/indata/in
- root for output files -> /scratch/users/j/a/jabreu/flow_simple_8atoms/flow/w342/t1/outdata/out

 Symmetries : space group P6_3/m m c (#194); Bravais hP (primitive hexag.)
     intxc =       0      iscf =       7    lmnmax =      18     lnmax =       6
     mgfft =     135  mpssoang =       3    mqgrid =    6490     natom =       8
  nloc_mem =       1    nspden =       1   nspinor =       1    nsppol =       1
      nsym =      24    n1xccc =    2501    ntypat =       3    occopt =       1
   xclevel =       2
-    mband =          51        mffmem =           1         mkmem =           2
-   mkqmem =           2        mk1mem =           2           mpw =       12092
      nfft =      273375          nkpt =           2
  Rough estimation (10% accuracy) of disk space for files :

------------- Echo of variables that govern the present computation ------------
-
- outvars: echo of selected default values
-   iomode0 =  0 , fftalg0 =512 , wfoptalg0 =  0
-
- outvars: echo of global parameters not present in the input file
-  max_nthreads =    0
-
 -outvars: echo values of preprocessed input variables --------
            acell      1.0000000000E+00  1.0000000000E+00  1.0000000000E+00 Bohr
              amu      8.89058500E+01  6.35460000E+01  1.59994000E+01
             ecut      4.60000000E+01 Hartree
-          fftalg         512
           irdden           1
           irdwfk           1
           istwfk        1    1
              ixc     -116133
              kpt      0.00000000E+00  0.00000000E+00  0.00000000E+00
                       5.00000000E-01  0.00000000E+00  0.00000000E+00
           kptopt           0
P           mkmem           2
P          mkqmem           2
P          mk1mem           2
            natom           8
            nband          51
           nbdbuf           4
            ngfft          45      45     135
             nkpt           2
            nstep        2000
             nsym          24
           ntypat           3
              occ      2.000000  2.000000  2.000000  2.000000  2.000000  2.000000
                       2.000000  2.000000  2.000000  2.000000  2.000000  2.000000
                       2.000000  2.000000  2.000000  2.000000  2.000000  2.000000
                       2.000000  2.000000  2.000000  2.000000  2.000000  2.000000
                       2.000000  2.000000  2.000000  2.000000  2.000000  2.000000
                       2.000000  2.000000  2.000000  2.000000  2.000000  2.000000
                       2.000000  2.000000  2.000000  2.000000  2.000000  2.000000
                       0.000000  0.000000  0.000000  0.000000  0.000000  0.000000
                       0.000000  0.000000  0.000000
        optdriver           1
            prtwf          -1
            rfdir           1       1       1
           rfelfd           2
            rprim      6.6406084722E+00  0.0000000000E+00  0.0000000000E+00
                      -3.3203042361E+00  5.7509356335E+00  0.0000000000E+00
                       0.0000000000E+00  0.0000000000E+00  2.1256869680E+01
          spgroup         194
           symrel      1  0  0   0  1  0   0  0  1      -1  0  0   0 -1  0   0  0 -1
                       0  1  0   1  0  0   0  0  1       0 -1  0  -1  0  0   0  0 -1
                       1  1  0  -1  0  0   0  0  1      -1 -1  0   1  0  0   0  0 -1
                      -1  0  0   1  1  0   0  0  1       1  0  0  -1 -1  0   0  0 -1
                       0  1  0  -1 -1  0   0  0  1       0 -1  0   1  1  0   0  0 -1
                      -1 -1  0   0  1  0   0  0  1       1  1  0   0 -1  0   0  0 -1
                      -1  0  0   0 -1  0   0  0  1       1  0  0   0  1  0   0  0 -1
                       0 -1  0  -1  0  0   0  0  1       0  1  0   1  0  0   0  0 -1
                      -1 -1  0   1  0  0   0  0  1       1  1  0  -1  0  0   0  0 -1
                       1  0  0  -1 -1  0   0  0  1      -1  0  0   1  1  0   0  0 -1
                       0 -1  0   1  1  0   0  0  1       0  1  0  -1 -1  0   0  0 -1
                       1  1  0   0 -1  0   0  0  1      -1 -1  0   0  1  0   0  0 -1
            tnons      0.0000000  0.0000000  0.0000000     0.0000000  0.0000000  0.0000000
                       0.0000000  0.0000000  0.5000000     0.0000000  0.0000000  0.5000000
                       0.0000000  0.0000000  0.5000000     0.0000000  0.0000000  0.5000000
                       0.0000000  0.0000000  0.0000000     0.0000000  0.0000000  0.0000000
                       0.0000000  0.0000000  0.0000000     0.0000000  0.0000000  0.0000000
                       0.0000000  0.0000000  0.5000000     0.0000000  0.0000000  0.5000000
                       0.0000000  0.0000000  0.5000000     0.0000000  0.0000000  0.5000000
                       0.0000000  0.0000000  0.0000000     0.0000000  0.0000000  0.0000000
                       0.0000000  0.0000000  0.0000000     0.0000000  0.0000000  0.0000000
                       0.0000000  0.0000000  0.5000000     0.0000000  0.0000000  0.5000000
                       0.0000000  0.0000000  0.5000000     0.0000000  0.0000000  0.5000000
                       0.0000000  0.0000000  0.0000000     0.0000000  0.0000000  0.0000000
           tolwfr      1.00000000E-20
            typat      1  1  2  2  3  3  3  3
           useylm           1
              wtk        0.50000    0.50000
           xangst      0.0000000000E+00  0.0000000000E+00  0.0000000000E+00
                       0.0000000000E+00  0.0000000000E+00  5.6243254804E+00
                       1.7570293273E+00  1.0144213551E+00  8.4364882206E+00
                       0.0000000000E+00  2.0288427102E+00  2.8121627402E+00
                       0.0000000000E+00  2.0288427102E+00  4.6117669155E+00
                       1.7570293273E+00  1.0144213551E+00  1.0236092396E+01
                       0.0000000000E+00  2.0288427102E+00  1.0125585649E+00
                       1.7570293273E+00  1.0144213551E+00  6.6368840453E+00
            xcart      0.0000000000E+00  0.0000000000E+00  0.0000000000E+00
                       0.0000000000E+00  0.0000000000E+00  1.0628434840E+01
                       3.3203042361E+00  1.9169785445E+00  1.5942652260E+01
                       0.0000000000E+00  3.8339570890E+00  5.3142174201E+00
                       0.0000000000E+00  3.8339570890E+00  8.7149764590E+00
                       3.3203042361E+00  1.9169785445E+00  1.9343411299E+01
                       0.0000000000E+00  3.8339570890E+00  1.9134583812E+00
                       3.3203042361E+00  1.9169785445E+00  1.2541893221E+01
             xred      0.0000000000E+00  0.0000000000E+00  0.0000000000E+00
                       0.0000000000E+00  0.0000000000E+00  5.0000000000E-01
                       6.6666666667E-01  3.3333333333E-01  7.5000000000E-01
                       3.3333333333E-01  6.6666666667E-01  2.5000000000E-01
                       3.3333333333E-01  6.6666666667E-01  4.0998400000E-01
                       6.6666666667E-01  3.3333333333E-01  9.0998400000E-01
                       3.3333333333E-01  6.6666666667E-01  9.0016000000E-02
                       6.6666666667E-01  3.3333333333E-01  5.9001600000E-01
            znucl       39.00000   29.00000    8.00000

 chkinp: Checking input parameters for consistency.

== DATASET  1 ==================================================================
-   mpi_nproc: 1, omp_nthreads: -1 (-1 if OMP is not activated)

--- !DatasetInfo
iteration_state: {dtset: 1, }
dimensions: {natom: 8, nkpt: 2, mband: 51, nsppol: 1, nspinor: 1, nspden: 1, mpw: 12092, }
cutoff_energies: {ecut:  46.0, pawecutdg:  -1.0, }
electrons: {nelect:   8.40000000E+01, charge:   0.00000000E+00, occopt:   1.00000000E+00, tsmear:   1.00000000E-02, }
meta: {optdriver: 1, rfelfd: 2, }
...

 Real(R)+Recip(G) space primitive vectors, cartesian coordinates (Bohr,Bohr^-1):
 R(1)=  6.6406085  0.0000000  0.0000000  G(1)=  0.1505886  0.0869424  0.0000000
 R(2)= -3.3203042  5.7509356  0.0000000  G(2)=  0.0000000  0.1738847  0.0000000
 R(3)=  0.0000000  0.0000000 21.2568697  G(3)=  0.0000000  0.0000000  0.0470436
 Unit cell volume ucvol=  8.1179373E+02 bohr^3
 Angles (23,13,12)=  9.00000000E+01  9.00000000E+01  1.20000000E+02 degrees

 getcut: wavevector=  0.0000  0.0000  0.0000  ngfft=  45  45 135
         ecut(hartree)=     46.000   => boxcut(ratio)=   2.06472

--- Pseudopotential description ------------------------------------------------
- pspini: atom type   1  psp file is /scratch/users/j/a/jabreu/pseudos/PBEsol/Y.psp8
- pspatm: opening atomic psp file    /scratch/users/j/a/jabreu/pseudos/PBEsol/Y.psp8
- Y     ONCVPSP-3.3.0  r_core=   1.60520   1.51226   1.56736
- 39.00000  11.00000    180112                znucl, zion, pspdat
    8 -116133    2    4       600   0.00000   pspcod,pspxc,lmax,lloc,mmax,r2well
    5.99000000000000    4.00000000000000    0.00000000000000   rchrg,fchrg,qchrg
     nproj     2     2     2
     extension_switch     1
  pspatm : epsatm=   18.54790046
         --- l  ekb(1:nproj) -->
             0   10.130768    0.866504
             1    5.598307    0.427135
             2    1.217602    0.315447
 pspatm: atomic psp has been read  and splines computed

- pspini: atom type   2  psp file is /scratch/users/j/a/jabreu/pseudos/PBEsol/Cu.psp8
- pspatm: opening atomic psp file    /scratch/users/j/a/jabreu/pseudos/PBEsol/Cu.psp8
- Cu    ONCVPSP-3.3.0  r_core=   1.26204   1.45626   1.76249
- 29.00000  19.00000    180112                znucl, zion, pspdat
    8 -116133    2    4       600   0.00000   pspcod,pspxc,lmax,lloc,mmax,r2well
    5.99000000000000    3.50000000000000    0.00000000000000   rchrg,fchrg,qchrg
     nproj     2     2     2
     extension_switch     1
  pspatm : epsatm=   21.63488701
         --- l  ekb(1:nproj) -->
             0    5.008230   -0.401634
             1   -3.496700   -0.765945
             2   -6.895851   -2.521180
 pspatm: atomic psp has been read  and splines computed

- pspini: atom type   3  psp file is /scratch/users/j/a/jabreu/pseudos/PBEsol/O.psp8
- pspatm: opening atomic psp file    /scratch/users/j/a/jabreu/pseudos/PBEsol/O.psp8
- O     ONCVPSP-3.3.0  r_core=   1.35509   1.45563   1.26150
-  8.00000   6.00000    180112                znucl, zion, pspdat
    8 -116133    2    4       600   0.00000   pspcod,pspxc,lmax,lloc,mmax,r2well
    5.99000000000000    4.00000000000000    0.00000000000000   rchrg,fchrg,qchrg
     nproj     2     2     1
     extension_switch     1
  pspatm : epsatm=    6.22910522
         --- l  ekb(1:nproj) -->
             0    6.050032    0.820363
             1   -4.739617   -1.153841
             2   -1.335834
[...]
  ireadwf=   0

--- !BeginCycle
iteration_state: {dtset: 1, }
solver: {iscf: 7, nstep: 2000, nline: 4, wfoptalg: 0, }
tolerances: {tolwfr: 1.00E-20, }
...

     iter   2DEtotal(Ha)        deltaE(Ha) residm    vres2
-ETOT  1  -7.9417074979731     -7.942E+00 1.564E-02 0.000E+00
 ETOT  2  -7.9663005593528     -2.459E-02 1.186E-03 0.000E+00
 ETOT  3  -7.9668570128569     -5.565E-04 5.282E-05 0.000E+00
 ETOT  4  -7.9668818153350     -2.480E-05 2.340E-05 0.000E+00
 ETOT  5  -7.9668832578974     -1.443E-06 1.519E-06 0.000E+00
 ETOT  6  -7.9668833562451     -9.835E-08 1.115E-06 0.000E+00
 ETOT  7  -7.9668833637296     -7.485E-09 7.174E-08 0.000E+00
 ETOT  8  -7.9668833643425     -6.129E-10 6.043E-08 0.000E+00
 ETOT  9  -7.9668833643959     -5.337E-11 3.791E-09 0.000E+00
 ETOT 10  -7.9668833644008     -4.858E-12 3.321E-09 0.000E+00
 ETOT 11  -7.9668833644012     -4.476E-13 2.053E-10 0.000E+00
 ETOT 12  -7.9668833644013     -4.619E-14 1.835E-10 0.000E+00
 ETOT 13  -7.9668833644013      3.553E-15 1.124E-11 0.000E+00
 ETOT 14  -7.9668833644013     -6.217E-15 1.019E-11 0.000E+00
 ETOT 15  -7.9668833644013      8.882E-16 6.201E-13 0.000E+00
 ETOT 16  -7.9668833644013     -3.553E-15 5.678E-13 0.000E+00
 ETOT 17  -7.9668833644013      8.882E-16 3.437E-14 0.000E+00
 ETOT 18  -7.9668833644013      8.882E-16 3.172E-14 0.000E+00
 ETOT 19  -7.9668833644013      0.000E+00 1.911E-15 0.000E+00
 ETOT 20  -7.9668833644013      0.000E+00 1.777E-15 0.000E+00
 ETOT 21  -7.9668833644013     -8.882E-16 1.066E-16 0.000E+00
 ETOT 22  -7.9668833644013      8.882E-16 9.969E-17 0.000E+00
 ETOT 23  -7.9668833644013      0.000E+00 5.954E-18 0.000E+00
 ETOT 24  -7.9668833644013      0.000E+00 5.602E-18 0.000E+00
 ETOT 25  -7.9668833644013      0.000E+00 3.331E-19 0.000E+00
 ETOT 26  -7.9668833644013     -8.882E-16 3.152E-19 0.000E+00
 ETOT 27  -7.9668833644013      8.882E-16 1.866E-20 0.000E+00
 ETOT 28  -7.9668833644013     -8.882E-16 1.775E-20 0.000E+00
 ETOT 29  -7.9668833644013      8.882E-16 9.753E-21 0.000E+00

 At SCF step   29   max residual=  9.75E-21 < tolwfr=  1.00E-20 =>converged.

 ----iterations are completed or convergence reached----

 dfpt_looppert: DFPT cycle converged with prtwf=-1. Will skip output of the 1st-order WFK file.
 dfpt_looppert : ek2=    1.4678118800E+01
          f-sum rule ratio=    1.0068503115E+00
 prteigrs : about to open file /scratch/users/j/a/jabreu/flow_simple_8atoms/flow/w342/t1/tmpdata/tmp_1WF1_EIG
 Expectation of eigenvalue derivatives (hartree) for nkpt=   2  k points:
  (in case of degenerate eigenvalues, averaged derivative)
 kpt#   1, nband= 51, wtk=  0.50000, kpt=  0.0000  0.0000  0.0000 (reduced coord)
   0.00000    0.00000    0.00000    0.00000    0.00000    0.00000    0.00000    0.00000
   0.00000    0.00000    0.00000    0.00000   -0.00000   -0.00000   -0.00000   -0.00000
  -0.00000   -0.00000    0.00000   -0.00000    0.00000   -0.00000   -0.00000    0.00000
   0.00000    0.00000    0.00000   -0.00000   -0.00000   -0.00000   -0.00000    0.00000
   0.00000    0.00000    0.00000    0.00000    0.00000    0.00000   -0.00000   -0.00000
   0.00000    0.00000   -0.00000    0.00000   -0.00000    0.00000    0.00000   -0.00000
  -0.00000   -0.00000    0.00001
 prteigrs : prtvol=0 or 1, do not print more k-points.

 Eight components of 2nd-order total energy (hartree) are
 1,2,3: 0th-order hamiltonian combined with 1st-order wavefunctions
     kin0=   1.23039679E+01 eigvalue=  -1.12566057E-01  local=  -5.41720643E+00
 4,5,6: 1st-order hamiltonian combined with 1st and 0th-order wfs
     kin1=  -1.47786685E+01  Hartree=   0.00000000E+00     xc=   0.00000000E+00
 7,8,9: eventually, occupation + non-local contributions
    edocc=   1.57796431E+00     enl0=  -3.85276331E-01   enl1=  -1.15509824E+00
 1-9 gives the relaxation energy (to be shifted if some occ is /=2.0)
   erelax=  -7.96688336E+00
  No Ewald or frozen-wf contrib.: the relaxation energy is the total one
 2DEtotal=   -0.7966883364E+01 Ha. Also 2DEtotal=   -0.216789921397E+03 eV
    (  non-var. 2DEtotal :   -7.9668833642E+00 Ha)

 CALCULATION OF EFFECTIVE MASSES
 NOTE : Additional infos (eff. mass eigenvalues, eigenvectors and, if degenerate, average mass) are available in stdout.

 COMMENTS:
 - At k-point ( 0.000, 0.000, 0.000), bands    41 through    42
   are DEGENERATE (effective mass tensor is therefore not defined).
   See Section IIIB Eqs. (67)-(70) and Appendix E of PRB 93 205147 (2016).
 - Angular average effective mass for Frohlich model is to be averaged over degenerate bands. See later.
 - Associated theta integrals calculated with ntheta=   1000 points.

 K-point ( 0.000, 0.000, 0.000) | band =    41
 Transport equivalent effective mass tensor:
             -1.9669142079             -0.0000011748              0.0001200794
             -0.0000011748             -1.9669484093              0.0003386823
              0.0001200794              0.0003386823             -0.8744416710
 Transport equivalent effective mass tensor eigenvalues:
             -1.9669485571             -1.9669141783             -0.8744415528
 Angular average effective mass 1/(<1/m>)=  -1.3886321815
 Angular average effective mass for Frohlich model (<m**0.5>)**2=  -1.4576798354
 Effective masses along directions: (cart. coord. / red. coord. -> eff. mass)
    1:   1.000000  0.000000  0.000000 /   0.894427 -0.447214  0.000000 ->  -1.9669140025
    2:   0.000000  1.000000  0.000000 /   0.000000  1.000000  0.000000 ->  -1.9669484726
    3:   0.000000  0.000000  1.000000 /   0.000000  0.000000  1.000000 ->  -0.8744410245
    4:   0.577350  0.577350  0.577350 /   0.296426  0.108500  0.948873 ->  -1.3882895228
    5:   0.000000  0.707107  0.707107 /   0.000000  0.261156  0.965297 ->  -1.2103731637
    6:   0.707107  0.000000  0.707107 /   0.294927 -0.147463  0.944073 ->  -1.2105535281
    7:   0.707107  0.707107  0.000000 /   0.939071  0.343724  0.000000 ->  -1.9669325847

 K-point ( 0.000, 0.000, 0.000) | band =    42
 Transport equivalent effective mass tensor:
             -5.3505473887             -0.0000006090             -0.0000000776
             -0.0000006090             -5.3505484345             -0.0000000465
             -0.0000000776             -0.0000000465             -0.8744417358
 Transport equivalent effective mass tensor eigenvalues:
             -5.3505487143             -5.3505471089             -0.8744417358
 Angular average effective mass 1/(<1/m>)=  -1.9770917489
 Angular average effective mass for Frohlich model (<m**0.5>)**2=  -2.5281890848
 Effective masses along directions: (cart. coord. / red. coord. -> eff. mass)
    1:   1.000000  0.000000  0.000000 /   0.894427 -0.447214  0.000000 ->  -5.3505478895
    2:   0.000000  1.000000  0.000000 /   0.000000  1.000000  0.000000 ->  -5.3505478924
    3:   0.000000  0.000000  1.000000 /   0.000000  0.000000  1.000000 ->  -0.8744423166
    4:   0.577350  0.577350  0.577350 /   0.296426  0.108500  0.948873 ->  -1.9770924421
    5:   0.000000  0.707107  0.707107 /   0.000000  0.261156  0.965297 ->  -1.5032134742
    6:   0.707107  0.000000  0.707107 /   0.294927 -0.147463  0.944073 ->  -1.5032124564
    7:   0.707107  0.707107  0.000000 /   0.939071  0.343724  0.000000 ->  -5.3505479296

 Angular average effective mass for Frohlich model, averaged over degenerate bands.
 Value of     (<<m**0.5>>)**2 =     1.956323E+00
 Absolute Value of <<m**0.5>> =     1.398686E+00

 K-point ( 0.500, 0.000, 0.000) | band =    43
 Effective mass tensor:
              0.7002574830             -0.4383744134              0.0000005378
             -0.4383744134              1.2064486559              0.0000003105
              0.0000005378              0.0000003105              0.9002835734
 Effective mass tensor eigenvalues:
              0.4471618978              0.9002835734              1.4595442411
 Angular average effective mass 1/(<1/m>)=   0.7440046227
 Angular average effective mass for Frohlich model (<m**0.5>)**2=   0.7991329147
 Effective masses along directions: (cart. coord. / red. coord. -> eff. mass)
    1:   1.000000  0.000000  0.000000 /   0.894427 -0.447214  0.000000 ->   0.5409700360
    2:   0.000000  1.000000  0.000000 /   0.000000  1.000000  0.000000 ->   0.9320179915
    3:   0.000000  0.000000  1.000000 /   0.000000  0.000000  1.000000 ->   0.9002835734
    4:   0.577350  0.577350  0.577350 /   0.296426  0.108500  0.948873 ->   0.5580781677
    5:   0.000000  0.707107  0.707107 /   0.000000  0.261156  0.965297 ->   0.9158766184
    6:   0.707107  0.000000  0.707107 /   0.294927 -0.147463  0.944073 ->   0.6758378590
    7:   0.707107  0.707107  0.000000 /   0.939071  0.343724  0.000000 ->   0.4689514153

 END OF EFFECTIVE MASSES SECTION

 ---- first-order wavefunction calculations are completed ----

 Total localisation tensor (bohr^2) in cartesian coordinates
  WARNING : still subject to testing - especially symmetries.
      direction              matrix element
   alpha     beta       real part   imaginary part
     1        1       1.1906444178    0.0000000000
     1        2      -0.3440305271    0.0000000000
     1        3       0.0000000000    0.0000000000
     2        1      -0.3440305271    0.0000000000
     2        2       0.5958783522    0.0000000000
     2        3       0.0000000000    0.0000000000
     3        1       0.0000000000    0.0000000000
     3        2       0.0000000000    0.0000000000
     3        3       0.5818387759    0.0000000000

 respfn : d/dk was computed, but no 2DTE, so no DDB output.

== END DATASET(S) ==============================================================

 -outvars: echo values of variables after computation  --------
            acell      1.0000000000E+00  1.0000000000E+00  1.0000000000E+00 Bohr
              amu      8.89058500E+01  6.35460000E+01  1.59994000E+01
             ecut      4.60000000E+01 Hartree
           etotal     -7.9668833644E+00
            fcart      0.0000000000E+00  0.0000000000E+00  0.0000000000E+00
                       0.0000000000E+00  0.0000000000E+00  0.0000000000E+00
                       0.0000000000E+00  0.0000000000E+00  0.0000000000E+00
                       0.0000000000E+00  0.0000000000E+00  0.0000000000E+00
                       0.0000000000E+00  0.0000000000E+00  0.0000000000E+00
                       0.0000000000E+00  0.0000000000E+00  0.0000000000E+00
                       0.0000000000E+00  0.0000000000E+00  0.0000000000E+00
                       0.0000000000E+00  0.0000000000E+00  0.0000000000E+00
-          fftalg         512
           irdden           1
           irdwfk           1
           istwfk        1    1
              ixc     -116133
              kpt      0.00000000E+00  0.00000000E+00  0.00000000E+00
                       5.00000000E-01  0.00000000E+00  0.00000000E+00
           kptopt           0
P           mkmem           2
P          mkqmem           2
P          mk1mem           2
            natom           8
            nband          51
           nbdbuf           4
            ngfft          45      45     135
             nkpt           2
            nstep        2000
             nsym          24
           ntypat           3
              occ      2.000000  2.000000  2.000000  2.000000  2.000000  2.000000
                       2.000000  2.000000  2.000000  2.000000  2.000000  2.000000
                       2.000000  2.000000  2.000000  2.000000  2.000000  2.000000
                       2.000000  2.000000  2.000000  2.000000  2.000000  2.000000
                       2.000000  2.000000  2.000000  2.000000  2.000000  2.000000
                       2.000000  2.000000  2.000000  2.000000  2.000000  2.000000
                       2.000000  2.000000  2.000000  2.000000  2.000000  2.000000
                       0.000000  0.000000  0.000000  0.000000  0.000000  0.000000
                       0.000000  0.000000  0.000000
        optdriver           1
            prtwf          -1
            rfdir           1       1       1
           rfelfd           2
            rprim      6.6406084722E+00  0.0000000000E+00  0.0000000000E+00
                      -3.3203042361E+00  5.7509356335E+00  0.0000000000E+00
                       0.0000000000E+00  0.0000000000E+00  2.1256869680E+01
          spgroup         194
           strten      0.0000000000E+00  0.0000000000E+00  0.0000000000E+00
                       0.0000000000E+00  0.0000000000E+00  0.0000000000E+00
           symrel      1  0  0   0  1  0   0  0  1      -1  0  0   0 -1  0   0  0 -1
                       0  1  0   1  0  0   0  0  1       0 -1  0  -1  0  0   0  0 -1
                       1  1  0  -1  0  0   0  0  1      -1 -1  0   1  0  0   0  0 -1
                      -1  0  0   1  1  0   0  0  1       1  0  0  -1 -1  0   0  0 -1
                       0  1  0  -1 -1  0   0  0  1       0 -1  0   1  1  0   0  0 -1
                      -1 -1  0   0  1  0   0  0  1       1  1  0   0 -1  0   0  0 -1
                      -1  0  0   0 -1  0   0  0  1       1  0  0   0  1  0   0  0 -1
                       0 -1  0  -1  0  0   0  0  1       0  1  0   1  0  0   0  0 -1
                      -1 -1  0   1  0  0   0  0  1       1  1  0  -1  0  0   0  0 -1
                       1  0  0  -1 -1  0   0  0  1      -1  0  0   1  1  0   0  0 -1
                       0 -1  0   1  1  0   0  0  1       0  1  0  -1 -1  0   0  0 -1
                       1  1  0   0 -1  0   0  0  1      -1 -1  0   0  1  0   0  0 -1
            tnons      0.0000000  0.0000000  0.0000000     0.0000000  0.0000000  0.0000000
                       0.0000000  0.0000000  0.5000000     0.0000000  0.0000000  0.5000000
                       0.0000000  0.0000000  0.5000000     0.0000000  0.0000000  0.5000000
                       0.0000000  0.0000000  0.0000000     0.0000000  0.0000000  0.0000000
                       0.0000000  0.0000000  0.0000000     0.0000000  0.0000000  0.0000000
                       0.0000000  0.0000000  0.5000000     0.0000000  0.0000000  0.5000000
                       0.0000000  0.0000000  0.5000000     0.0000000  0.0000000  0.5000000
                       0.0000000  0.0000000  0.0000000     0.0000000  0.0000000  0.0000000
                       0.0000000  0.0000000  0.0000000     0.0000000  0.0000000  0.0000000
                       0.0000000  0.0000000  0.5000000     0.0000000  0.0000000  0.5000000
                       0.0000000  0.0000000  0.5000000     0.0000000  0.0000000  0.5000000
                       0.0000000  0.0000000  0.0000000     0.0000000  0.0000000  0.0000000
           tolwfr      1.00000000E-20
            typat      1  1  2  2  3  3  3  3
           useylm           1
              wtk        0.50000    0.50000
           xangst      0.0000000000E+00  0.0000000000E+00  0.0000000000E+00
                       0.0000000000E+00  0.0000000000E+00  5.6243254804E+00
                       1.7570293273E+00  1.0144213551E+00  8.4364882206E+00
                       0.0000000000E+00  2.0288427102E+00  2.8121627402E+00
                       0.0000000000E+00  2.0288427102E+00  4.6117669155E+00
                       1.7570293273E+00  1.0144213551E+00  1.0236092396E+01
                       0.0000000000E+00  2.0288427102E+00  1.0125585649E+00
                       1.7570293273E+00  1.0144213551E+00  6.6368840453E+00
            xcart      0.0000000000E+00  0.0000000000E+00  0.0000000000E+00
                       0.0000000000E+00  0.0000000000E+00  1.0628434840E+01
                       3.3203042361E+00  1.9169785445E+00  1.5942652260E+01
                       0.0000000000E+00  3.8339570890E+00  5.3142174201E+00
                       0.0000000000E+00  3.8339570890E+00  8.7149764590E+00
                       3.3203042361E+00  1.9169785445E+00  1.9343411299E+01
                       0.0000000000E+00  3.8339570890E+00  1.9134583812E+00
                       3.3203042361E+00  1.9169785445E+00  1.2541893221E+01
             xred      0.0000000000E+00  0.0000000000E+00  0.0000000000E+00
                       0.0000000000E+00  0.0000000000E+00  5.0000000000E-01
                       6.6666666667E-01  3.3333333333E-01  7.5000000000E-01
                       3.3333333333E-01  6.6666666667E-01  2.5000000000E-01
                       3.3333333333E-01  6.6666666667E-01  4.0998400000E-01
                       6.6666666667E-01  3.3333333333E-01  9.0998400000E-01
                       3.3333333333E-01  6.6666666667E-01  9.0016000000E-02
                       6.6666666667E-01  3.3333333333E-01  5.9001600000E-01
            znucl       39.00000   29.00000    8.00000

- Timing analysis has been suppressed with timopt=0

 Suggested references for the acknowledgment of ABINIT usage.

 Calculation completed.
.Delivered  14 WARNINGs and   9 COMMENTs to log file.