.Version 9.5.1 of ABINIT

 ABINIT is a project of the Universite Catholique de Louvain,
 Corning Inc. and other collaborators, see ~abinit/doc/developers/contributors.txt .
 acknowledgments of the ABINIT effort.

.Starting date : Tue 11 May 2021.
- ( at 21h50 )

- input  file    -> /scratch/users/j/a/jabreu/flow_simple_8atoms/flow/w364/t1/run.abi
- output file    -> /scratch/users/j/a/jabreu/flow_simple_8atoms/flow/w364/t1/run.abo
- root for input  files -> /scratch/users/j/a/jabreu/flow_simple_8atoms/flow/w364/t1/indata/in
- root for output files -> /scratch/users/j/a/jabreu/flow_simple_8atoms/flow/w364/t1/outdata/out

 Symmetries : space group P6_3 m c (#186); Bravais hP (primitive hexag.)
     intxc =       0      iscf =       7    lmnmax =      18     lnmax =       6
     mgfft =     120  mpssoang =       3    mqgrid =    5557     natom =       8
  nloc_mem =       1    nspden =       1   nspinor =       1    nsppol =       1
      nsym =      12    n1xccc =    2501    ntypat =       4    occopt =       1
   xclevel =       2
-    mband =          33        mffmem =           1         mkmem =           2
-   mkqmem =           2        mk1mem =           2           mpw =       13573
      nfft =      276480          nkpt =           2
  Rough estimation (10% accuracy) of disk space for files :

------------- Echo of variables that govern the present computation ------------
-
- outvars: echo of selected default values
-   iomode0 =  0 , fftalg0 =512 , wfoptalg0 =  0
-
- outvars: echo of global parameters not present in the input file
-  max_nthreads =    0
-
 -outvars: echo values of preprocessed input variables --------
            acell      1.0000000000E+00  1.0000000000E+00  1.0000000000E+00 Bohr
              amu      8.76200000E+01  1.00794000E+00  3.54527000E+01
                       1.59994000E+01
             ecut      4.40000000E+01 Hartree
-          fftalg         512
           irdden           1
           irdwfk           1
           istwfk        0    1
              ixc     -116133
              kpt      2.77777778E-01  0.00000000E+00  0.00000000E+00
                       0.00000000E+00  0.00000000E+00  0.00000000E+00
           kptopt           0
P           mkmem           2
P          mkqmem           2
P          mk1mem           2
            natom           8
            nband          33
           nbdbuf           4
            ngfft          48      48     120
             nkpt           2
            nstep        2000
             nsym          12
           ntypat           4
              occ      2.000000  2.000000  2.000000  2.000000  2.000000  2.000000
                       2.000000  2.000000  2.000000  2.000000  2.000000  2.000000
                       2.000000  2.000000  2.000000  2.000000  2.000000  2.000000
                       2.000000  2.000000  2.000000  2.000000  2.000000  2.000000
                       0.000000  0.000000  0.000000  0.000000  0.000000  0.000000
                       0.000000  0.000000  0.000000
        optdriver           1
            prtwf          -1
            rfdir           1       1       1
           rfelfd           2
            rprim      7.7599658969E+00  0.0000000000E+00  0.0000000000E+00
                      -3.8799829484E+00  6.7203275992E+00  0.0000000000E+00
                       0.0000000000E+00  0.0000000000E+00  1.8608065232E+01
          spgroup         186
           symrel      1  0  0   0  1  0   0  0  1       0  1  0   1  0  0   0  0  1
                       1  1  0  -1  0  0   0  0  1      -1  0  0   1  1  0   0  0  1
                       0  1  0  -1 -1  0   0  0  1      -1 -1  0   0  1  0   0  0  1
                      -1  0  0   0 -1  0   0  0  1       0 -1  0  -1  0  0   0  0  1
                      -1 -1  0   1  0  0   0  0  1       1  0  0  -1 -1  0   0  0  1
                       0 -1  0   1  1  0   0  0  1       1  1  0   0 -1  0   0  0  1
            tnons      0.0000000  0.0000000  0.0000000     0.0000000  0.0000000  0.5000000
                       0.0000000  0.0000000  0.5000000     0.0000000  0.0000000  0.0000000
                       0.0000000  0.0000000  0.0000000     0.0000000  0.0000000  0.5000000
                       0.0000000  0.0000000  0.5000000     0.0000000  0.0000000  0.0000000
                       0.0000000  0.0000000  0.0000000     0.0000000  0.0000000  0.5000000
                       0.0000000  0.0000000  0.5000000     0.0000000  0.0000000  0.0000000
           tolwfr      1.00000000E-20
            typat      1  1  2  2  3  3  4  4
           useylm           1
              wtk        0.50000    0.50000
           xangst      1.7639241746E-11  2.3708294665E+00  1.9387096635E+00
                       2.0531985460E+00  1.1854147333E+00  6.8621916720E+00
                       3.7991804999E-17  6.5803736529E-17  8.4927898314E+00
                       3.7991804999E-17  6.5803736529E-17  3.5693078229E+00
                       2.0531985460E+00  1.1854147333E+00  8.5205779639E-02
                       1.7639241746E-11  2.3708294665E+00  5.0086877881E+00
                       3.7991804999E-17  6.5803736529E-17  2.5945174670E+00
                       3.7991804999E-17  6.5803736529E-17  7.5179994755E+00
            xcart      3.3333336091E-11  4.4802183995E+00  3.6636303152E+00
                       3.8799829485E+00  2.2401091997E+00  1.2967662931E+01
                       7.1794106743E-17  1.2435104056E-16  1.6049046886E+01
                       7.1794106743E-17  1.2435104056E-16  6.7450142693E+00
                       3.8799829485E+00  2.2401091997E+00  1.6101558846E-01
                       3.3333336091E-11  4.4802183995E+00  9.4650482047E+00
                       7.1794106743E-17  1.2435104056E-16  4.9029274597E+00
                       7.1794106743E-17  1.2435104056E-16  1.4206960076E+01
             xred      3.3333333333E-01  6.6666666667E-01  1.9688400000E-01
                       6.6666666667E-01  3.3333333333E-01  6.9688400000E-01
                       1.8503717077E-17  1.8503717077E-17  8.6247800000E-01
                       1.8503717077E-17  1.8503717077E-17  3.6247800000E-01
                       6.6666666667E-01  3.3333333333E-01  8.6530000000E-03
                       3.3333333333E-01  6.6666666667E-01  5.0865300000E-01
                       1.8503717077E-17  1.8503717077E-17  2.6348400000E-01
                       1.8503717077E-17  1.8503717077E-17  7.6348400000E-01
            znucl       38.00000    1.00000   17.00000    8.00000

 chkinp: Checking input parameters for consistency.

== DATASET  1 ==================================================================
-   mpi_nproc: 1, omp_nthreads: -1 (-1 if OMP is not activated)

--- !DatasetInfo
iteration_state: {dtset: 1, }
dimensions: {natom: 8, nkpt: 2, mband: 33, nsppol: 1, nspinor: 1, nspden: 1, mpw: 13573, }
cutoff_energies: {ecut:  44.0, pawecutdg:  -1.0, }
electrons: {nelect:   4.80000000E+01, charge:   0.00000000E+00, occopt:   1.00000000E+00, tsmear:   1.00000000E-02, }
meta: {optdriver: 1, rfelfd: 2, }
...

 Real(R)+Recip(G) space primitive vectors, cartesian coordinates (Bohr,Bohr^-1):
 R(1)=  7.7599659  0.0000000  0.0000000  G(1)=  0.1288665  0.0744011  0.0000000
 R(2)= -3.8799829  6.7203276  0.0000000  G(2)=  0.0000000  0.1488023  0.0000000
 R(3)=  0.0000000  0.0000000 18.6080652  G(3)=  0.0000000  0.0000000  0.0537401
 Unit cell volume ucvol=  9.7040154E+02 bohr^3
 Angles (23,13,12)=  9.00000000E+01  9.00000000E+01  1.20000000E+02 degrees

 getcut: wavevector=  0.0000  0.0000  0.0000  ngfft=  48  48 120
         ecut(hartree)=     44.000   => boxcut(ratio)=   2.07152

--- Pseudopotential description ------------------------------------------------
- pspini: atom type   1  psp file is /scratch/users/j/a/jabreu/pseudos/PBEsol/Sr.psp8
- pspatm: opening atomic psp file    /scratch/users/j/a/jabreu/pseudos/PBEsol/Sr.psp8
- Sr    ONCVPSP-3.3.0  r_core=   1.66721   1.31335   1.51547
- 38.00000  10.00000    180112                znucl, zion, pspdat
    8 -116133    2    4       600   0.00000   pspcod,pspxc,lmax,lloc,mmax,r2well
    5.99000000000000    6.00000000000000    0.00000000000000   rchrg,fchrg,qchrg
     nproj     2     2     2
     extension_switch     1
  pspatm : epsatm=   12.46450977
         --- l  ekb(1:nproj) -->
             0   10.029206    1.044171
             1    7.472414    1.670829
             2    4.142950    0.968140
 pspatm: atomic psp has been read  and splines computed

- pspini: atom type   2  psp file is /scratch/users/j/a/jabreu/pseudos/PBEsol/H.psp8
- pspatm: opening atomic psp file    /scratch/users/j/a/jabreu/pseudos/PBEsol/H.psp8
- H     ONCVPSP-3.3.0  r_core=   1.00957   0.70586
-  1.00000   1.00000    180112                znucl, zion, pspdat
    8 -116133    1    4       300   0.00000   pspcod,pspxc,lmax,lloc,mmax,r2well
    2.99000000000000    0.00000000000000    0.00000000000000   rchrg,fchrg,qchrg
     nproj     2     1
     extension_switch     1
  pspatm : epsatm=    0.35627032
         --- l  ekb(1:nproj) -->
             0   -1.674911   -0.523609
             1   -0.494138
 pspatm: atomic psp has been read  and splines computed

[...]

- pspini: atom type   4  psp file is /scratch/users/j/a/jabreu/pseudos/PBEsol/O.psp8
- pspatm: opening atomic psp file    /scratch/users/j/a/jabreu/pseudos/PBEsol/O.psp8
- O     ONCVPSP-3.3.0  r_core=   1.35509   1.45563   1.26150
-  8.00000   6.00000    180112                znucl, zion, pspdat
    8 -116133    2    4       600   0.00000   pspcod,pspxc,lmax,lloc,mmax,r2well
    5.99000000000000    4.00000000000000    0.00000000000000   rchrg,fchrg,qchrg
     nproj     2     2     1
     extension_switch     1
  pspatm : epsatm=    6.22910522
         --- l  ekb(1:nproj) -->
             0    6.050032    0.820363
             1   -4.739617   -1.153841
             2   -1.335834
 pspatm: atomic psp has been read  and splines computed

   2.68848888E+03                                ecore*ucvol(ha*bohr**3)

-inwffil : will read wavefunctions from disk file /scratch/users/j/a/jabreu/flow_simple_8atoms/flow/w364/t1/indata/in_WFK

 ==>  initialize data related to q vector <==

 The list of irreducible perturbations for this q vector is:
    1)    idir= 1    ipert=   9
    2)    idir= 2    ipert=   9
    3)    idir= 3    ipert=   9

 Perturbation wavevector (in red.coord.)   0.000000  0.000000  0.000000
 Perturbation : derivative vs k along direction   1

 dfpt_looppert : COMMENT -
  In a d/dk calculation, iscf is set to -3 automatically.
 The set of symmetries contains only one element for this perturbation.
 symkpt : not enough symmetry to change the number of k points.

[...]

 Initialisation of the first-order wave-functions :
  ireadwf=   0

--- !BeginCycle
iteration_state: {dtset: 1, }
solver: {iscf: 7, nstep: 2000, nline: 4, wfoptalg: 0, }
tolerances: {tolwfr: 1.00E-20, }
...

     iter   2DEtotal(Ha)        deltaE(Ha) residm    vres2
-ETOT  1  -42.288841335571     -4.229E+01 2.211E-01 0.000E+00
 ETOT  2  -42.327250494257     -3.841E-02 2.921E-02 0.000E+00
 ETOT  3  -42.327380798286     -1.303E-04 1.283E-03 0.000E+00
 ETOT  4  -42.327381508745     -7.105E-07 2.955E-04 0.000E+00
 ETOT  5  -42.327381513443     -4.698E-09 2.059E-05 0.000E+00
 ETOT  6  -42.327381513478     -3.470E-11 4.594E-06 0.000E+00
 ETOT  7  -42.327381513478     -2.061E-13 3.678E-07 0.000E+00
 ETOT  8  -42.327381513478      4.974E-14 8.683E-08 0.000E+00
 ETOT  9  -42.327381513478     -1.421E-14 7.635E-09 0.000E+00
 ETOT 10  -42.327381513478     -7.105E-15 1.858E-09 0.000E+00
 ETOT 11  -42.327381513478      0.000E+00 1.717E-10 0.000E+00
 ETOT 12  -42.327381513478      1.421E-14 4.224E-11 0.000E+00
 ETOT 13  -42.327381513478     -1.421E-14 3.994E-12 0.000E+00
 ETOT 14  -42.327381513478     -7.105E-15 9.854E-13 0.000E+00
 ETOT 15  -42.327381513478      0.000E+00 9.418E-14 0.000E+00
 ETOT 16  -42.327381513478      1.421E-14 2.322E-14 0.000E+00
 ETOT 17  -42.327381513478      1.421E-14 2.233E-15 0.000E+00
 ETOT 18  -42.327381513478      0.000E+00 5.494E-16 0.000E+00
 ETOT 19  -42.327381513478     -7.105E-15 5.304E-17 0.000E+00
 ETOT 20  -42.327381513478      1.421E-14 1.302E-17 0.000E+00
 ETOT 21  -42.327381513478     -7.105E-15 1.261E-18 0.000E+00
 ETOT 22  -42.327381513478      0.000E+00 3.089E-19 0.000E+00
 ETOT 23  -42.327381513478      0.000E+00 3.001E-20 0.000E+00
 ETOT 24  -42.327381513478     -1.421E-14 9.767E-21 0.000E+00

 At SCF step   24   max residual=  9.77E-21 < tolwfr=  1.00E-20 =>converged.

 ----iterations are completed or convergence reached----

 dfpt_looppert: DFPT cycle converged with prtwf=-1. Will skip output of the 1st-order WFK file.
 dfpt_looppert : ek2=    8.3917025402E+01
          f-sum rule ratio=    1.0268321796E+00
 prteigrs : about to open file /scratch/users/j/a/jabreu/flow_simple_8atoms/flow/w364/t1/tmpdata/tmp_1WF1_EIG
 Expectation of eigenvalue derivatives (hartree) for nkpt=   2  k points:
  (in case of degenerate eigenvalues, averaged derivative)
 kpt#   1, nband= 33, wtk=  0.50000, kpt=  0.2778  0.0000  0.0000 (reduced coord)
   0.00320    0.00313   -0.03327   -0.03128    0.02123    0.01552   -0.01045   -0.01020
  -0.02253    0.00090    0.03750    0.00155   -0.01158    0.04161    0.00193   -0.05774
  -0.09060    0.01244   -0.06283   -0.02542    0.00521    0.04960    0.03545    0.00009
  -0.02528    0.22992    0.03826   -0.07713   -0.02671    0.06415    0.05634    0.14418
   0.18673
 prteigrs : prtvol=0 or 1, do not print more k-points.

 Eight components of 2nd-order total energy (hartree) are
 1,2,3: 0th-order hamiltonian combined with 1st-order wavefunctions
     kin0=   5.57373055E+01 eigvalue=   3.29558170E+00  local=  -3.09981093E+01
 4,5,6: 1st-order hamiltonian combined with 1st and 0th-order wfs
     kin1=  -8.61687021E+01  Hartree=   0.00000000E+00     xc=   0.00000000E+00
 7,8,9: eventually, occupation + non-local contributions
    edocc=   1.17175543E+01     enl0=   2.57504934E+00   enl1=   1.51393908E+00
 1-9 gives the relaxation energy (to be shifted if some occ is /=2.0)
   erelax=  -4.23273815E+01
  No Ewald or frozen-wf contrib.: the relaxation energy is the total one
 2DEtotal=   -0.4232738151E+02 Ha. Also 2DEtotal=   -0.115178662615E+04 eV
    (  non-var. 2DEtotal :   -4.2327381513E+01 Ha)

 Perturbation wavevector (in red.coord.)   0.000000  0.000000  0.000000
 Perturbation : derivative vs k along direction   2
 The set of symmetries contains only one element for this perturbation.
 symkpt : not enough symmetry to change the number of k points.

[...]

 Perturbation wavevector (in red.coord.)   0.000000  0.000000  0.000000
 Perturbation : derivative vs k along direction   3
 The set of symmetries contains only one element for this perturbation.
 symkpt : not enough symmetry to change the number of k points.

-inwffil : will read wavefunctions from disk file /scratch/users/j/a/jabreu/flow_simple_8atoms/flow/w364/t1/indata/in_WFK

 Initialisation of the first-order wave-functions :
  ireadwf=   0

--- !BeginCycle
iteration_state: {dtset: 1, }
solver: {iscf: 7, nstep: 2000, nline: 4, wfoptalg: 0, }
tolerances: {tolwfr: 1.00E-20, }
...

     iter   2DEtotal(Ha)        deltaE(Ha) residm    vres2
-ETOT  1  -5.3962486435572     -5.396E+00 4.132E-02 0.000E+00
 ETOT  2  -5.4001033318397     -3.855E-03 2.842E-03 0.000E+00
 ETOT  3  -5.4001121368184     -8.805E-06 1.321E-04 0.000E+00
 ETOT  4  -5.4001121708946     -3.408E-08 1.794E-05 0.000E+00
 ETOT  5  -5.4001121710707     -1.760E-10 1.401E-06 0.000E+00
 ETOT  6  -5.4001121710718     -1.117E-12 1.358E-07 0.000E+00
 ETOT  7  -5.4001121710718     -9.770E-15 1.803E-08 0.000E+00
 ETOT  8  -5.4001121710718     -4.441E-15 1.472E-09 0.000E+00
 ETOT  9  -5.4001121710718     -1.776E-15 2.999E-10 0.000E+00
 ETOT 10  -5.4001121710718      8.882E-16 2.434E-11 0.000E+00
 ETOT 11  -5.4001121710718      8.882E-16 6.184E-12 0.000E+00
 ETOT 12  -5.4001121710718      0.000E+00 5.034E-13 0.000E+00
 ETOT 13  -5.4001121710718     -8.882E-16 1.301E-13 0.000E+00
 ETOT 14  -5.4001121710718      8.882E-16 1.060E-14 0.000E+00
 ETOT 15  -5.4001121710718      0.000E+00 2.776E-15 0.000E+00
 ETOT 16  -5.4001121710718      0.000E+00 2.265E-16 0.000E+00
 ETOT 17  -5.4001121710718      0.000E+00 5.983E-17 0.000E+00
 ETOT 18  -5.4001121710718      0.000E+00 4.887E-18 0.000E+00
 ETOT 19  -5.4001121710718      0.000E+00 1.299E-18 0.000E+00
 ETOT 20  -5.4001121710718      0.000E+00 1.062E-19 0.000E+00
 ETOT 21  -5.4001121710718      8.882E-16 2.838E-20 0.000E+00
 ETOT 22  -5.4001121710718      8.882E-16 9.962E-21 0.000E+00

 At SCF step   22   max residual=  9.96E-21 < tolwfr=  1.00E-20 =>converged.

 ----iterations are completed or convergence reached----

 dfpt_looppert: DFPT cycle converged with prtwf=-1. Will skip output of the 1st-order WFK file.
 dfpt_looppert : ek2=    1.0945321684E+01
          f-sum rule ratio=    1.0041337425E+00
 prteigrs : about to open file /scratch/users/j/a/jabreu/flow_simple_8atoms/flow/w364/t1/tmpdata/tmp_1WF1_EIG
 Expectation of eigenvalue derivatives (hartree) for nkpt=   2  k points:
  (in case of degenerate eigenvalues, averaged derivative)
 kpt#   1, nband= 33, wtk=  0.50000, kpt=  0.2778  0.0000  0.0000 (reduced coord)
  -0.00000    0.00000   -0.00000    0.00000   -0.00000    0.00000    0.00000   -0.00000
  -0.00000    0.00000    0.00000    0.00000    0.00000    0.00000    0.00000    0.00000
  -0.00000    0.00000   -0.00000   -0.00000    0.00000    0.00000   -0.00000   -0.00000
  -0.00000   -0.00000   -0.00000    0.00000   -0.00000    0.00000   -0.00000   -0.00000
   0.00000
 prteigrs : prtvol=0 or 1, do not print more k-points.

 Eight components of 2nd-order total energy (hartree) are
 1,2,3: 0th-order hamiltonian combined with 1st-order wavefunctions
     kin0=   6.64356539E+00 eigvalue=   3.46347662E-01  local=  -3.55656189E+00
 4,5,6: 1st-order hamiltonian combined with 1st and 0th-order wfs
     kin1=  -1.09905668E+01  Hartree=   0.00000000E+00     xc=   0.00000000E+00
 7,8,9: eventually, occupation + non-local contributions
    edocc=   1.71557541E+00     enl0=   2.51185603E-01   enl1=   1.90342484E-01
 1-9 gives the relaxation energy (to be shifted if some occ is /=2.0)
   erelax=  -5.40011217E+00
  No Ewald or frozen-wf contrib.: the relaxation energy is the total one
 2DEtotal=   -0.5400112171E+01 Ha. Also 2DEtotal=   -0.146944525174E+03 eV
    (  non-var. 2DEtotal :   -5.4001121710E+00 Ha)

 CALCULATION OF EFFECTIVE MASSES
 NOTE : Additional infos (eff. mass eigenvalues, eigenvectors and, if degenerate, average mass) are available in stdout.

 K-point ( 0.278, 0.000, 0.000) | band =    24
 Effective mass tensor:
            -45.3927867591            -24.3830058392             -0.0000001525
            -24.3830058392            -17.2377113730             -0.0000000176
             -0.0000001525             -0.0000000176             -2.4069295515
 Effective mass tensor eigenvalues:
            -59.4703203899             -3.1601777421             -2.4069295515
 Angular average effective mass 1/(<1/m>)=  -4.0068378514
 Angular average effective mass for Frohlich model (<m**0.5>)**2=  -5.2868427956
 Effective masses along directions: (cart. coord. / red. coord. -> eff. mass)
    1:   1.000000  0.000000  0.000000 /   0.894427 -0.447214  0.000000 -> -10.9026528376
    2:   0.000000  1.000000  0.000000 /   0.000000  1.000000  0.000000 ->  -4.1402345225
    3:   0.000000  0.000000  1.000000 /   0.000000  0.000000  1.000000 ->  -2.4069295515
    4:   0.577350  0.577350  0.577350 /   0.381131  0.139504  0.913935 ->  -6.1319702852
    5:   0.000000  0.707107  0.707107 /   0.000000  0.339678  0.940542 ->  -3.0441432394
    6:   0.707107  0.000000  0.707107 /   0.377959 -0.188980  0.906330 ->  -3.9433119748
    7:   0.707107  0.707107  0.000000 /   0.939071  0.343724  0.000000 -> -27.1105292565

 K-point ( 0.000, 0.000, 0.000) | band =    25
 Effective mass tensor:
              0.3962107579             -0.0000000000             -0.0000000000
             -0.0000000000              0.3962107579              0.0000000000
             -0.0000000000              0.0000000000              0.4137894012
 Effective mass tensor eigenvalues:
              0.3962107579              0.3962107579              0.4137894012
 Angular average effective mass 1/(<1/m>)=   0.4019019714
 Angular average effective mass for Frohlich model (<m**0.5>)**2=   0.4019520803
 Effective masses along directions: (cart. coord. / red. coord. -> eff. mass)
    1:   1.000000  0.000000  0.000000 /   0.894427 -0.447214  0.000000 ->   0.3962107579
    2:   0.000000  1.000000  0.000000 /   0.000000  1.000000  0.000000 ->   0.3962107579
    3:   0.000000  0.000000  1.000000 /   0.000000  0.000000  1.000000 ->   0.4137894012
    4:   0.577350  0.577350  0.577350 /   0.381131  0.139504  0.913935 ->   0.4019019714
    5:   0.000000  0.707107  0.707107 /   0.000000  0.339678  0.940542 ->   0.4048093335
    6:   0.707107  0.000000  0.707107 /   0.377959 -0.188980  0.906330 ->   0.4048093335
    7:   0.707107  0.707107  0.000000 /   0.939071  0.343724  0.000000 ->   0.3962107579

 END OF EFFECTIVE MASSES SECTION

 ---- first-order wavefunction calculations are completed ----

 Total localisation tensor (bohr^2) in cartesian coordinates
  WARNING : still subject to testing - especially symmetries.
      direction              matrix element
   alpha     beta       real part   imaginary part
     1        1       1.4188287666    0.0000000000
     1        2      -0.5152723072    0.0000000000
     1        3       0.0000000000    0.0000000000
     2        1      -0.5152723072    0.0000000000
     2        2       0.8924778158    0.0000000000
     2        3       0.0000000000    0.0000000000
     3        1       0.0000000000    0.0000000000
     3        2       0.0000000000    0.0000000000
     3        3       0.7867338663    0.0000000000

 respfn : d/dk was computed, but no 2DTE, so no DDB output.

== END DATASET(S) ==============================================================

 -outvars: echo values of variables after computation  --------
            acell      1.0000000000E+00  1.0000000000E+00  1.0000000000E+00 Bohr
              amu      8.76200000E+01  1.00794000E+00  3.54527000E+01
                       1.59994000E+01
             ecut      4.40000000E+01 Hartree
           etotal     -5.4001121711E+00
            fcart      0.0000000000E+00  0.0000000000E+00  0.0000000000E+00
                       0.0000000000E+00  0.0000000000E+00  0.0000000000E+00
                       0.0000000000E+00  0.0000000000E+00  0.0000000000E+00
                       0.0000000000E+00  0.0000000000E+00  0.0000000000E+00
                       0.0000000000E+00  0.0000000000E+00  0.0000000000E+00
                       0.0000000000E+00  0.0000000000E+00  0.0000000000E+00
                       0.0000000000E+00  0.0000000000E+00  0.0000000000E+00
                       0.0000000000E+00  0.0000000000E+00  0.0000000000E+00
-          fftalg         512
           irdden           1
           irdwfk           1
           istwfk        0    1
              ixc     -116133
              kpt      2.77777778E-01  0.00000000E+00  0.00000000E+00
                       0.00000000E+00  0.00000000E+00  0.00000000E+00
           kptopt           0
P           mkmem           2
P          mkqmem           2
P          mk1mem           2
            natom           8
            nband          33
           nbdbuf           4
            ngfft          48      48     120
             nkpt           2
            nstep        2000
             nsym          12
           ntypat           4
              occ      2.000000  2.000000  2.000000  2.000000  2.000000  2.000000
                       2.000000  2.000000  2.000000  2.000000  2.000000  2.000000
                       2.000000  2.000000  2.000000  2.000000  2.000000  2.000000
                       2.000000  2.000000  2.000000  2.000000  2.000000  2.000000
                       0.000000  0.000000  0.000000  0.000000  0.000000  0.000000
                       0.000000  0.000000  0.000000
        optdriver           1
            prtwf          -1
            rfdir           1       1       1
           rfelfd           2
            rprim      7.7599658969E+00  0.0000000000E+00  0.0000000000E+00
                      -3.8799829484E+00  6.7203275992E+00  0.0000000000E+00
                       0.0000000000E+00  0.0000000000E+00  1.8608065232E+01
          spgroup         186
           strten      0.0000000000E+00  0.0000000000E+00  0.0000000000E+00
                       0.0000000000E+00  0.0000000000E+00  0.0000000000E+00
           symrel      1  0  0   0  1  0   0  0  1       0  1  0   1  0  0   0  0  1
                       1  1  0  -1  0  0   0  0  1      -1  0  0   1  1  0   0  0  1
                       0  1  0  -1 -1  0   0  0  1      -1 -1  0   0  1  0   0  0  1
                      -1  0  0   0 -1  0   0  0  1       0 -1  0  -1  0  0   0  0  1
                      -1 -1  0   1  0  0   0  0  1       1  0  0  -1 -1  0   0  0  1
                       0 -1  0   1  1  0   0  0  1       1  1  0   0 -1  0   0  0  1
            tnons      0.0000000  0.0000000  0.0000000     0.0000000  0.0000000  0.5000000
                       0.0000000  0.0000000  0.5000000     0.0000000  0.0000000  0.0000000
                       0.0000000  0.0000000  0.0000000     0.0000000  0.0000000  0.5000000
                       0.0000000  0.0000000  0.5000000     0.0000000  0.0000000  0.0000000
                       0.0000000  0.0000000  0.0000000     0.0000000  0.0000000  0.5000000
                       0.0000000  0.0000000  0.5000000     0.0000000  0.0000000  0.0000000
           tolwfr      1.00000000E-20
            typat      1  1  2  2  3  3  4  4
           useylm           1
              wtk        0.50000    0.50000
           xangst      1.7639241746E-11  2.3708294665E+00  1.9387096635E+00
                       2.0531985460E+00  1.1854147333E+00  6.8621916720E+00
                       3.7991804999E-17  6.5803736529E-17  8.4927898314E+00
                       3.7991804999E-17  6.5803736529E-17  3.5693078229E+00
                       2.0531985460E+00  1.1854147333E+00  8.5205779639E-02
                       1.7639241746E-11  2.3708294665E+00  5.0086877881E+00
                       3.7991804999E-17  6.5803736529E-17  2.5945174670E+00
                       3.7991804999E-17  6.5803736529E-17  7.5179994755E+00
            xcart      3.3333336091E-11  4.4802183995E+00  3.6636303152E+00
                       3.8799829485E+00  2.2401091997E+00  1.2967662931E+01
                       7.1794106743E-17  1.2435104056E-16  1.6049046886E+01
                       7.1794106743E-17  1.2435104056E-16  6.7450142693E+00
                       3.8799829485E+00  2.2401091997E+00  1.6101558846E-01
                       3.3333336091E-11  4.4802183995E+00  9.4650482047E+00
                       7.1794106743E-17  1.2435104056E-16  4.9029274597E+00
                       7.1794106743E-17  1.2435104056E-16  1.4206960076E+01
             xred      3.3333333333E-01  6.6666666667E-01  1.9688400000E-01
                       6.6666666667E-01  3.3333333333E-01  6.9688400000E-01
                       1.8503717077E-17  1.8503717077E-17  8.6247800000E-01
                       1.8503717077E-17  1.8503717077E-17  3.6247800000E-01
                       6.6666666667E-01  3.3333333333E-01  8.6530000000E-03
                       3.3333333333E-01  6.6666666667E-01  5.0865300000E-01
                       1.8503717077E-17  1.8503717077E-17  2.6348400000E-01
                       1.8503717077E-17  1.8503717077E-17  7.6348400000E-01
            znucl       38.00000    1.00000   17.00000    8.00000

- Timing analysis has been suppressed with timopt=0

 Suggested references for the acknowledgment of ABINIT usage.

 Calculation completed.
.Delivered  14 WARNINGs and   9 COMMENTs to log file.