.Version 9.5.1 of ABINIT

 ABINIT is a project of the Universite Catholique de Louvain,
 Corning Inc. and other collaborators, see ~abinit/doc/developers/contributors.txt .
 acknowledgments of the ABINIT effort.

.Starting date : Tue 27 Apr 2021.
- ( at 18h28 )

- input  file    -> /scratch/users/j/a/jabreu/flow_simple_4atoms/flow/w160/t1/run.abi
- output file    -> /scratch/users/j/a/jabreu/flow_simple_4atoms/flow/w160/t1/run.abo
- root for input  files -> /scratch/users/j/a/jabreu/flow_simple_4atoms/flow/w160/t1/indata/in
- root for output files -> /scratch/users/j/a/jabreu/flow_simple_4atoms/flow/w160/t1/outdata/out

 Symmetries : space group R-3 m (#166); Bravais hR (rhombohedral)
     intxc =       0      iscf =       7    lmnmax =      18     lnmax =       6
     mgfft =      75  mpssoang =       3    mqgrid =    3001     natom =       4
  nloc_mem =       1    nspden =       1   nspinor =       1    nsppol =       1
      nsym =      12    n1xccc =    2501    ntypat =       3    occopt =       1
   xclevel =       2
-    mband =          32        mffmem =           1         mkmem =           2
-   mkqmem =           2        mk1mem =           2           mpw =        7725
      nfft =      421875          nkpt =           2
  Rough estimation (10% accuracy) of disk space for files :

------------- Echo of variables that govern the present computation ------------
-
- outvars: echo of selected default values
-   iomode0 =  0 , fftalg0 =512 , wfoptalg0 =  0
-
- outvars: echo of global parameters not present in the input file
-  max_nthreads =    0
-
 -outvars: echo values of preprocessed input variables --------
            acell      1.0000000000E+00  1.0000000000E+00  1.0000000000E+00 Bohr
              amu      1.07868200E+02  2.08980370E+02  3.20660000E+01
             ecut      4.30000000E+01 Hartree
-          fftalg         512
           irdden           1
           irdwfk           1
           istwfk        0    1
              ixc     -116133
              kpt      2.19532283E-01 -2.77555756E-17 -2.19532283E-01
                       5.00000000E-01  5.00000000E-01  5.00000000E-01
           kptopt           0
P           mkmem           2
P          mkqmem           2
P          mk1mem           2
            natom           4
            nband          32
           nbdbuf           4
            ngfft          75      75      75
             nkpt           2
            nstep         100
             nsym          12
           ntypat           3
              occ      2.000000  2.000000  2.000000  2.000000  2.000000  2.000000
                       2.000000  2.000000  2.000000  2.000000  2.000000  2.000000
                       2.000000  2.000000  2.000000  2.000000  2.000000  2.000000
                       2.000000  2.000000  2.000000  2.000000  2.000000  0.000000
                       0.000000  0.000000  0.000000  0.000000  0.000000  0.000000
                       0.000000  0.000000
        optdriver           1
            prtwf          -1
            rfdir           1       1       1
           rfelfd           2
            rprim      7.1874997219E+00  0.0000000000E+00  1.0148983990E+01
                       3.2297915085E+00  6.4209500125E+00  1.0148983990E+01
                       0.0000000000E+00  0.0000000000E+00  1.2436318920E+01
          spgroup         166
           symrel      1  0  0   0  1  0   0  0  1      -1  0  0   0 -1  0   0  0 -1
                       0  1  0   1  0  0   0  0  1       0 -1  0  -1  0  0   0  0 -1
                       0  0  1   1  0  0   0  1  0       0  0 -1  -1  0  0   0 -1  0
                       1  0  0   0  0  1   0  1  0      -1  0  0   0  0 -1   0 -1  0
                       0  1  0   0  0  1   1  0  0       0 -1  0   0  0 -1  -1  0  0
                       0  0  1   0  1  0   1  0  0       0  0 -1   0 -1  0  -1  0  0
           tolwfr      1.00000000E-20
            typat      1  2  3  3
           useylm           1
              wtk        0.50000    0.50000
           xangst      2.7562965472E+00  1.6989102021E+00  8.6611192835E+00
                       0.0000000000E+00  0.0000000000E+00  0.0000000000E+00
                       4.1645160161E+00  2.5669004134E+00  1.3086171737E+01
                       1.3480770783E+00  8.3091999072E-01  4.2360668303E+00
            xcart      5.2086456152E+00  3.2104750062E+00  1.6367143450E+01
                       0.0000000000E+00  0.0000000000E+00  0.0000000000E+00
                       7.8697947465E+00  4.8507387917E+00  2.4729280710E+01
                       2.5474964839E+00  1.5702112208E+00  8.0050061900E+00
             xred      5.0000000000E-01  5.0000000000E-01  5.0000000000E-01
                       0.0000000000E+00  0.0000000000E+00  0.0000000000E+00
                       7.5545500000E-01  7.5545500000E-01  7.5545500000E-01
                       2.4454500000E-01  2.4454500000E-01  2.4454500000E-01
            znucl       47.00000   83.00000   16.00000

 chkinp: Checking input parameters for consistency.

== DATASET  1 ==================================================================
-   mpi_nproc: 1, omp_nthreads: -1 (-1 if OMP is not activated)

--- !DatasetInfo
iteration_state: {dtset: 1, }
dimensions: {natom: 4, nkpt: 2, mband: 32, nsppol: 1, nspinor: 1, nspden: 1, mpw: 7725, }
cutoff_energies: {ecut:  43.0, pawecutdg:  -1.0, }
electrons: {nelect:   4.60000000E+01, charge:   0.00000000E+00, occopt:   1.00000000E+00, tsmear:   1.00000000E-02, }
meta: {optdriver: 1, rfelfd: 2, }
...

 Real(R)+Recip(G) space primitive vectors, cartesian coordinates (Bohr,Bohr^-1):
 R(1)=  7.1874997  0.0000000 10.1489840  G(1)=  0.1391304 -0.0699838  0.0000000
 R(2)=  3.2297915  6.4209500 10.1489840  G(2)=  0.0000000  0.1557402  0.0000000
 R(3)=  0.0000000  0.0000000 12.4363189  G(3)= -0.1135410 -0.0699838  0.0804096
 Unit cell volume ucvol=  5.7394329E+02 bohr^3
 Angles (23,13,12)=  3.53060857E+01  3.53060857E+01  3.53060857E+01 degrees

 getcut: wavevector=  0.0000  0.0000  0.0000  ngfft=  75  75  75
         ecut(hartree)=     43.000   => boxcut(ratio)=   2.01588

--- Pseudopotential description ------------------------------------------------
- pspini: atom type   1  psp file is /scratch/users/j/a/jabreu/pseudos/PBEsol/Ag.psp8
- pspatm: opening atomic psp file    /scratch/users/j/a/jabreu/pseudos/PBEsol/Ag.psp8
- Ag    ONCVPSP-3.3.0  r_core=   1.41384   1.46535   1.61207
- 47.00000  19.00000    180112                znucl, zion, pspdat
    8 -116133    2    4       600   0.00000   pspcod,pspxc,lmax,lloc,mmax,r2well
    5.99000000000000    7.00000000000000    0.00000000000000   rchrg,fchrg,qchrg
     nproj     2     2     2
     extension_switch     1
  pspatm : epsatm=   27.64581383
         --- l  ekb(1:nproj) -->
             0    9.559407   -0.398585
             1    3.418858   -0.136622
             2   -1.644397   -0.401551
 pspatm: atomic psp has been read  and splines computed

- pspini: atom type   2  psp file is /scratch/users/j/a/jabreu/pseudos/PBEsol/Bi.psp8
- pspatm: opening atomic psp file    /scratch/users/j/a/jabreu/pseudos/PBEsol/Bi.psp8
- Bi    ONCVPSP-3.3.0  r_core=   2.42776   2.51622   2.10397
- 83.00000  15.00000    180112                znucl, zion, pspdat
    8 -116133    2    4       600   0.00000   pspcod,pspxc,lmax,lloc,mmax,r2well
    5.99000000000000    6.00000000000000    0.00000000000000   rchrg,fchrg,qchrg
     nproj     2     2     2
     extension_switch     1
  pspatm : epsatm=   42.90078186
         --- l  ekb(1:nproj) -->
             0    6.017688    0.961606
             1    4.379371    0.528498
             2   -3.458170   -0.753782
 pspatm: atomic psp has been read  and splines computed

- pspini: atom type   3  psp file is /scratch/users/j/a/jabreu/pseudos/PBEsol/S.psp8
- pspatm: opening atomic psp file    /scratch/users/j/a/jabreu/pseudos/PBEsol/S.psp8
- S     ONCVPSP-3.3.0  r_core=   1.45376   1.45376   1.61851
- 16.00000   6.00000    180112                znucl, zion, pspdat
    8 -116133    2    4       600   0.00000   pspcod,pspxc,lmax,lloc,mmax,r2well
    5.99000000000000    6.00000000000000    0.00000000000000   rchrg,fchrg,qchrg
     nproj     2     2     2
     extension_switch     1
  pspatm : epsatm=    8.71840985
         --- l  ekb(1:nproj) -->
             0    6.834532    0.579453
             1    3.282851    0.896984
             2   -3.496974   -0.974265
 pspatm: atomic psp has been read  and splines computed

   4.04723711E+03                                ecore*ucvol(ha*bohr**3)

-inwffil : will read wavefunctions from disk file /scratch/users/j/a/jabreu/flow_simple_4atoms/flow/w160/t1/indata/in_WFK

 ==>  initialize data related to q vector <==

 The list of irreducible perturbations for this q vector is:
    1)    idir= 1    ipert=   5
    2)    idir= 2    ipert=   5
    3)    idir= 3    ipert=   5

 Perturbation wavevector (in red.coord.)   0.000000  0.000000  0.000000
 Perturbation : derivative vs k along direction   1

 dfpt_looppert : COMMENT -
  In a d/dk calculation, iscf is set to -3 automatically.
 The set of symmetries contains only one element for this perturbation.
 symkpt : not enough symmetry to change the number of k points.

[...]

 Initialisation of the first-order wave-functions :
  ireadwf=   0

--- !BeginCycle
iteration_state: {dtset: 1, }
solver: {iscf: 7, nstep: 100, nline: 4, wfoptalg: 0, }
tolerances: {tolwfr: 1.00E-20, }
...

     iter   2DEtotal(Ha)        deltaE(Ha) residm    vres2
-ETOT  1  -68.303507666155     -6.830E+01 6.112E-01 0.000E+00
 ETOT  2  -68.353444434898     -4.994E-02 5.374E-03 0.000E+00
 ETOT  3  -68.353593486877     -1.491E-04 3.295E-04 0.000E+00
 ETOT  4  -68.353594380019     -8.931E-07 5.643E-06 0.000E+00
 ETOT  5  -68.353594386558     -6.539E-09 8.163E-07 0.000E+00
 ETOT  6  -68.353594386612     -5.346E-11 1.349E-08 0.000E+00
 ETOT  7  -68.353594386612     -5.116E-13 2.459E-09 0.000E+00
 ETOT  8  -68.353594386612      2.842E-14 4.128E-11 0.000E+00
 ETOT  9  -68.353594386612      0.000E+00 1.029E-11 0.000E+00
 ETOT 10  -68.353594386612      2.842E-14 1.591E-13 0.000E+00
 ETOT 11  -68.353594386612     -2.842E-14 4.941E-14 0.000E+00
 ETOT 12  -68.353594386612      2.842E-14 7.089E-16 0.000E+00
 ETOT 13  -68.353594386612     -1.421E-14 2.450E-16 0.000E+00
 ETOT 14  -68.353594386612      1.421E-14 3.289E-18 0.000E+00
 ETOT 15  -68.353594386612     -1.421E-14 1.235E-18 0.000E+00
 ETOT 16  -68.353594386612     -1.421E-14 1.554E-20 0.000E+00
 ETOT 17  -68.353594386612      2.842E-14 9.759E-21 0.000E+00

 At SCF step   17   max residual=  9.76E-21 < tolwfr=  1.00E-20 =>converged.

 ----iterations are completed or convergence reached----

 dfpt_looppert: DFPT cycle converged with prtwf=-1. Will skip output of the 1st-order WFK file.
 dfpt_looppert : ek2=    8.8094538793E+01
          f-sum rule ratio=    1.1343920852E+00
 prteigrs : about to open file /scratch/users/j/a/jabreu/flow_simple_4atoms/flow/w160/t1/tmpdata/tmp_1WF1_EIG
 Expectation of eigenvalue derivatives (hartree) for nkpt=   2  k points:
  (in case of degenerate eigenvalues, averaged derivative)
 kpt#   1, nband= 32, wtk=  0.50000, kpt=  0.2195  0.0000 -0.2195 (reduced coord)
   0.00000    0.00002   -0.00008   -0.00010   -0.00033   -0.00107    0.00068    0.00113
   0.00100    0.18928    0.00614   -0.15888    0.01953   -0.02890   -0.09932   -0.11617
   0.01411   -0.11347   -0.00069   -0.03254   -0.06771   -0.01519   -0.00106    0.02459
   0.12230   -0.00063   -0.03873    0.11809   -0.03151   -0.02547    0.17089   -0.02732
 prteigrs : prtvol=0 or 1, do not print more k-points.

 Eight components of 2nd-order total energy (hartree) are
 1,2,3: 0th-order hamiltonian combined with 1st-order wavefunctions
     kin0=   7.19893626E+01 eigvalue=   3.40531900E+00  local=  -3.58089494E+01
 4,5,6: 1st-order hamiltonian combined with 1st and 0th-order wfs
     kin1=  -9.99337476E+01  Hartree=   0.00000000E+00     xc=   0.00000000E+00
 7,8,9: eventually, occupation + non-local contributions
    edocc=   2.22305243E+01     enl0=   6.53733791E+00   enl1=  -3.67734412E+01
 1-9 gives the relaxation energy (to be shifted if some occ is /=2.0)
   erelax=  -6.83535944E+01
  No Ewald or frozen-wf contrib.: the relaxation energy is the total one
 2DEtotal=   -0.6835359439E+02 Ha. Also 2DEtotal=   -0.185999589506E+04 eV
    (  non-var. 2DEtotal :   -6.8353594386E+01 Ha)

 Perturbation wavevector (in red.coord.)   0.000000  0.000000  0.000000
 Perturbation : derivative vs k along direction   2
 The set of symmetries contains only one element for this perturbation.
 symkpt : not enough symmetry to change the number of k points.

[...]

 Perturbation wavevector (in red.coord.)   0.000000  0.000000  0.000000
 Perturbation : derivative vs k along direction   3
 The set of symmetries contains only one element for this perturbation.
 symkpt : not enough symmetry to change the number of k points.

-inwffil : will read wavefunctions from disk file /scratch/users/j/a/jabreu/flow_simple_4atoms/flow/w160/t1/indata/in_WFK

 Initialisation of the first-order wave-functions :
  ireadwf=   0

--- !BeginCycle
iteration_state: {dtset: 1, }
solver: {iscf: 7, nstep: 100, nline: 4, wfoptalg: 0, }
tolerances: {tolwfr: 1.00E-20, }
...

     iter   2DEtotal(Ha)        deltaE(Ha) residm    vres2
-ETOT  1  -68.308280146698     -6.831E+01 6.059E-01 0.000E+00
 ETOT  2  -68.353549297803     -4.527E-02 5.377E-03 0.000E+00
 ETOT  3  -68.353688425779     -1.391E-04 3.531E-04 0.000E+00
 ETOT  4  -68.353689336355     -9.106E-07 6.129E-06 0.000E+00
 ETOT  5  -68.353689343741     -7.386E-09 1.315E-06 0.000E+00
 ETOT  6  -68.353689343807     -6.635E-11 1.776E-08 0.000E+00
 ETOT  7  -68.353689343808     -6.679E-13 5.176E-09 0.000E+00
 ETOT  8  -68.353689343808      0.000E+00 7.636E-11 0.000E+00
 ETOT  9  -68.353689343808     -2.842E-14 2.646E-11 0.000E+00
 ETOT 10  -68.353689343808      0.000E+00 3.971E-13 0.000E+00
 ETOT 11  -68.353689343808      5.684E-14 1.466E-13 0.000E+00
 ETOT 12  -68.353689343808     -1.421E-14 2.136E-15 0.000E+00
 ETOT 13  -68.353689343808      1.421E-14 8.336E-16 0.000E+00
 ETOT 14  -68.353689343808      0.000E+00 1.181E-17 0.000E+00
 ETOT 15  -68.353689343808     -2.842E-14 4.810E-18 0.000E+00
 ETOT 16  -68.353689343808      1.421E-14 6.586E-20 0.000E+00
 ETOT 17  -68.353689343808     -1.421E-14 2.799E-20 0.000E+00
 ETOT 18  -68.353689343808      1.421E-14 9.991E-21 0.000E+00

 At SCF step   18   max residual=  9.99E-21 < tolwfr=  1.00E-20 =>converged.

 ----iterations are completed or convergence reached----

 dfpt_looppert: DFPT cycle converged with prtwf=-1. Will skip output of the 1st-order WFK file.
 dfpt_looppert : ek2=    8.8094538838E+01
          f-sum rule ratio=    1.1343938741E+00
 prteigrs : about to open file /scratch/users/j/a/jabreu/flow_simple_4atoms/flow/w160/t1/tmpdata/tmp_1WF1_EIG
 Expectation of eigenvalue derivatives (hartree) for nkpt=   2  k points:
  (in case of degenerate eigenvalues, averaged derivative)
 kpt#   1, nband= 32, wtk=  0.50000, kpt=  0.2195  0.0000 -0.2195 (reduced coord)
  -0.00000   -0.00002    0.00008    0.00010    0.00033    0.00107   -0.00068   -0.00113
  -0.00100   -0.18928   -0.00614    0.15888   -0.01953    0.02890    0.09932    0.11617
  -0.01411    0.11347    0.00069    0.03254    0.06771    0.01519    0.00106   -0.02459
  -0.12230    0.00063    0.03873   -0.11809    0.03151    0.02547   -0.17089   -0.13883
 prteigrs : prtvol=0 or 1, do not print more k-points.

 Eight components of 2nd-order total energy (hartree) are
 1,2,3: 0th-order hamiltonian combined with 1st-order wavefunctions
     kin0=   7.19485940E+01 eigvalue=   3.42305455E+00  local=  -3.57823956E+01
 4,5,6: 1st-order hamiltonian combined with 1st and 0th-order wfs
     kin1=  -9.99339052E+01  Hartree=   0.00000000E+00     xc=   0.00000000E+00
 7,8,9: eventually, occupation + non-local contributions
    edocc=   2.22366755E+01     enl0=   6.52776092E+00   enl1=  -3.67734735E+01
 1-9 gives the relaxation energy (to be shifted if some occ is /=2.0)
   erelax=  -6.83536893E+01
  No Ewald or frozen-wf contrib.: the relaxation energy is the total one
 2DEtotal=   -0.6835368934E+02 Ha. Also 2DEtotal=   -0.185999847898E+04 eV
    (  non-var. 2DEtotal :   -6.8353689344E+01 Ha)

 CALCULATION OF EFFECTIVE MASSES
 NOTE : Additional infos (eff. mass eigenvalues, eigenvectors and, if degenerate, average mass) are available in stdout.

 K-point ( 0.220,-0.000,-0.220) | band =    23
 Effective mass tensor:
             -0.8088879973              0.0351460812              0.1058099304
              0.0351460812             -0.1529197359              0.1104953173
              0.1058099304              0.1104953173             -0.5099960789
 Effective mass tensor eigenvalues:
             -0.8425535783             -0.5136052475             -0.1156449863
 Angular average effective mass 1/(<1/m>)=  -0.2546463906
 Angular average effective mass for Frohlich model (<m**0.5>)**2=  -0.3198465208
 Effective masses along directions: (cart. coord. / red. coord. -> eff. mass)
    1:   1.000000  0.000000  0.000000 /   0.912139  0.409881  0.000000 ->  -0.7607901264
    2:   0.000000  1.000000  0.000000 /   0.000000  1.000000  0.000000 ->  -0.1246946649
    3:   0.000000  0.000000  1.000000 /   0.534404  0.534404  0.654846 ->  -0.4086585844
    4:   0.577350  0.577350  0.577350 /   0.595603  0.680228  0.427255 ->  -0.1715552826
    5:   0.000000  0.707107  0.707107 /   0.439921  0.718245  0.539068 ->  -0.1409719846
    6:   0.707107  0.000000  0.707107 /   0.688407  0.531252  0.493829 ->  -0.4382792524
    7:   0.707107  0.707107  0.000000 /   0.597308  0.802012  0.000000 ->  -0.1901574419

 K-point ( 0.500, 0.500, 0.500) | band =    24
 Effective mass tensor:
              0.2813967941              0.0613156279              0.3125894105
              0.0613156279              0.2197124396              0.1926721377
              0.3125894105              0.1926721377              1.1641689700
 Effective mass tensor eigenvalues:
              0.1819189262              0.1819190513              1.3014402263
 Angular average effective mass 1/(<1/m>)=   0.2550525036
 Angular average effective mass for Frohlich model (<m**0.5>)**2=   0.2982767132
 Effective masses along directions: (cart. coord. / red. coord. -> eff. mass)
    1:   1.000000  0.000000  0.000000 /   0.912139  0.409881  0.000000 ->   0.1969750607
    2:   0.000000  1.000000  0.000000 /   0.000000  1.000000  0.000000 ->   0.1873599202
    3:   0.000000  0.000000  1.000000 /   0.534404  0.534404  0.654846 ->   0.7417415791
    4:   0.577350  0.577350  0.577350 /   0.595603  0.680228  0.427255 ->   0.4300379774
    5:   0.000000  0.707107  0.707107 /   0.439921  0.718245  0.539068 ->   0.3954207297
    6:   0.707107  0.000000  0.707107 /   0.688407  0.531252  0.493829 ->   0.5284900897
    7:   0.707107  0.707107  0.000000 /   0.597308  0.802012  0.000000 ->   0.2020989550

 END OF EFFECTIVE MASSES SECTION

 ---- first-order wavefunction calculations are completed ----

 Total localisation tensor (bohr^2) in cartesian coordinates
  WARNING : still subject to testing - especially symmetries.
      direction              matrix element
   alpha     beta       real part   imaginary part
     1        1       3.2007517246    0.0000000000
     1        2       1.2902037668    0.0000000000
     1        3       5.6424824452    0.0000000000
     2        1       1.2902037668    0.0000000000
     2        2       2.5649748198    0.0000000000
     2        3       4.0542113442    0.0000000000
     3        1       5.6424824452    0.0000000000
     3        2       4.0542113442    0.0000000000
     3        3      19.1355178834    0.0000000000

 respfn : d/dk was computed, but no 2DTE, so no DDB output.

== END DATASET(S) ==============================================================

 -outvars: echo values of variables after computation  --------
            acell      1.0000000000E+00  1.0000000000E+00  1.0000000000E+00 Bohr
              amu      1.07868200E+02  2.08980370E+02  3.20660000E+01
             ecut      4.30000000E+01 Hartree
           etotal     -6.8353689344E+01
            fcart      0.0000000000E+00  0.0000000000E+00  0.0000000000E+00
                       0.0000000000E+00  0.0000000000E+00  0.0000000000E+00
                       0.0000000000E+00  0.0000000000E+00  0.0000000000E+00
                       0.0000000000E+00  0.0000000000E+00  0.0000000000E+00
-          fftalg         512
           irdden           1
           irdwfk           1
           istwfk        0    1
              ixc     -116133
              kpt      2.19532283E-01 -2.77555756E-17 -2.19532283E-01
                       5.00000000E-01  5.00000000E-01  5.00000000E-01
           kptopt           0
P           mkmem           2
P          mkqmem           2
P          mk1mem           2
            natom           4
            nband          32
           nbdbuf           4
            ngfft          75      75      75
             nkpt           2
            nstep         100
             nsym          12
           ntypat           3
              occ      2.000000  2.000000  2.000000  2.000000  2.000000  2.000000
                       2.000000  2.000000  2.000000  2.000000  2.000000  2.000000
                       2.000000  2.000000  2.000000  2.000000  2.000000  2.000000
                       2.000000  2.000000  2.000000  2.000000  2.000000  0.000000
                       0.000000  0.000000  0.000000  0.000000  0.000000  0.000000
                       0.000000  0.000000
        optdriver           1
            prtwf          -1
            rfdir           1       1       1
           rfelfd           2
            rprim      7.1874997219E+00  0.0000000000E+00  1.0148983990E+01
                       3.2297915085E+00  6.4209500125E+00  1.0148983990E+01
                       0.0000000000E+00  0.0000000000E+00  1.2436318920E+01
          spgroup         166
           strten      0.0000000000E+00  0.0000000000E+00  0.0000000000E+00
                       0.0000000000E+00  0.0000000000E+00  0.0000000000E+00
           symrel      1  0  0   0  1  0   0  0  1      -1  0  0   0 -1  0   0  0 -1
                       0  1  0   1  0  0   0  0  1       0 -1  0  -1  0  0   0  0 -1
                       0  0  1   1  0  0   0  1  0       0  0 -1  -1  0  0   0 -1  0
                       1  0  0   0  0  1   0  1  0      -1  0  0   0  0 -1   0 -1  0
                       0  1  0   0  0  1   1  0  0       0 -1  0   0  0 -1  -1  0  0
                       0  0  1   0  1  0   1  0  0       0  0 -1   0 -1  0  -1  0  0
           tolwfr      1.00000000E-20
            typat      1  2  3  3
           useylm           1
              wtk        0.50000    0.50000
           xangst      2.7562965472E+00  1.6989102021E+00  8.6611192835E+00
                       0.0000000000E+00  0.0000000000E+00  0.0000000000E+00
                       4.1645160161E+00  2.5669004134E+00  1.3086171737E+01
                       1.3480770783E+00  8.3091999072E-01  4.2360668303E+00
            xcart      5.2086456152E+00  3.2104750062E+00  1.6367143450E+01
                       0.0000000000E+00  0.0000000000E+00  0.0000000000E+00
                       7.8697947465E+00  4.8507387917E+00  2.4729280710E+01
                       2.5474964839E+00  1.5702112208E+00  8.0050061900E+00
             xred      5.0000000000E-01  5.0000000000E-01  5.0000000000E-01
                       0.0000000000E+00  0.0000000000E+00  0.0000000000E+00
                       7.5545500000E-01  7.5545500000E-01  7.5545500000E-01
                       2.4454500000E-01  2.4454500000E-01  2.4454500000E-01
            znucl       47.00000   83.00000   16.00000

- Timing analysis has been suppressed with timopt=0

 Suggested references for the acknowledgment of ABINIT usage.

 Calculation completed.
.Delivered  14 WARNINGs and   9 COMMENTs to log file.