.Version 9.5.1 of ABINIT

 ABINIT is a project of the Universite Catholique de Louvain,
 Corning Inc. and other collaborators, see ~abinit/doc/developers/contributors.txt .
 acknowledgments of the ABINIT effort.

.Starting date : Tue  4 May 2021.
- ( at 19h17 )

- input  file    -> /scratch/users/j/a/jabreu/flow_simple_6atoms/flow/w176/t1/run.abi
- output file    -> /scratch/users/j/a/jabreu/flow_simple_6atoms/flow/w176/t1/run.abo
- root for input  files -> /scratch/users/j/a/jabreu/flow_simple_6atoms/flow/w176/t1/indata/in
- root for output files -> /scratch/users/j/a/jabreu/flow_simple_6atoms/flow/w176/t1/outdata/out

 Symmetries : space group Pn n m (# 58); Bravais oP (primitive ortho.)
     intxc =       0      iscf =       7    lmnmax =      32     lnmax =       8
     mgfft =      75  mpssoang =       4    mqgrid =    3690     natom =       6
  nloc_mem =       1    nspden =       1   nspinor =       1    nsppol =       1
      nsym =       8    n1xccc =    2501    ntypat =       2    occopt =       1
   xclevel =       2
-    mband =          55        mffmem =           1         mkmem =           2
-   mkqmem =           2        mk1mem =           2           mpw =       11220
      nfft =      194400          nkpt =           2
  Rough estimation (10% accuracy) of disk space for files :

------------- Echo of variables that govern the present computation ------------
-
- outvars: echo of selected default values
-   iomode0 =  0 , fftalg0 =512 , wfoptalg0 =  0
-
- outvars: echo of global parameters not present in the input file
-  max_nthreads =    0
-
 -outvars: echo values of preprocessed input variables --------
            acell      1.0000000000E+00  1.0000000000E+00  1.0000000000E+00 Bohr
              amu      1.21753000E+02  1.90200000E+02
             ecut      4.20000000E+01 Hartree
-          fftalg         512
           irdden           1
           irdwfk           1
           istwfk        1    0
              ixc     -116133
              kpt      5.00000000E-01  5.00000000E-01  5.00000000E-01
                       2.50000000E-01  0.00000000E+00  0.00000000E+00
           kptopt           0
P           mkmem           2
P          mkqmem           2
P          mk1mem           2
            natom           6
            nband          55
           nbdbuf           4
            ngfft          36      72      75
             nkpt           2
            nstep        1000
             nsym           8
           ntypat           2
              occ      2.000000  2.000000  2.000000  2.000000  2.000000  2.000000
                       2.000000  2.000000  2.000000  2.000000  2.000000  2.000000
                       2.000000  2.000000  2.000000  2.000000  2.000000  2.000000
                       2.000000  2.000000  2.000000  2.000000  2.000000  2.000000
                       2.000000  2.000000  2.000000  2.000000  2.000000  2.000000
                       2.000000  2.000000  2.000000  2.000000  2.000000  2.000000
                       2.000000  2.000000  2.000000  2.000000  2.000000  2.000000
                       2.000000  2.000000  2.000000  2.000000  0.000000  0.000000
                       0.000000  0.000000  0.000000  0.000000  0.000000  0.000000
                       0.000000
        optdriver           1
            prtwf          -1
            rfdir           1       1       1
           rfelfd           2
            rprim      6.0607695379E+00  0.0000000000E+00  0.0000000000E+00
                       0.0000000000E+00  1.1260446363E+01  0.0000000000E+00
                       0.0000000000E+00  0.0000000000E+00  1.2646218303E+01
          spgroup          58
           symrel      1  0  0   0  1  0   0  0  1      -1  0  0   0 -1  0   0  0 -1
                      -1  0  0   0  1  0   0  0 -1       1  0  0   0 -1  0   0  0  1
                      -1  0  0   0 -1  0   0  0  1       1  0  0   0  1  0   0  0 -1
                       1  0  0   0 -1  0   0  0 -1      -1  0  0   0  1  0   0  0  1
            tnons      0.0000000  0.0000000  0.0000000     0.0000000 -0.0000000  0.0000000
                       0.5000000  0.5000000  0.5000000     0.5000000  0.5000000  0.5000000
                       0.5000000  0.5000000  0.5000000     0.5000000  0.5000000  0.5000000
                       0.0000000 -0.0000000  0.0000000     0.0000000  0.0000000  0.0000000
           tolwfr      1.00000000E-20
            typat      1  1  1  1  2  2
           useylm           1
              wtk        0.50000    0.50000
           xangst      1.6036105530E+00  1.9006753277E+00  2.3935399331E+00
                       1.6036105530E+00  4.0580962462E+00  4.2985505676E+00
                       0.0000000000E+00  1.0787104593E+00  5.7395851835E+00
                       0.0000000000E+00  4.8800611147E+00  9.5250531724E-01
                       1.6036105530E+00  2.9793857870E+00  0.0000000000E+00
                       0.0000000000E+00  0.0000000000E+00  3.3460452504E+00
            xcart      3.0303847689E+00  3.5917558369E+00  4.5231349617E+00
                       3.0303847689E+00  7.6686905263E+00  8.1230833412E+00
                       0.0000000000E+00  2.0384673447E+00  1.0846244113E+01
                       0.0000000000E+00  9.2219790185E+00  1.7999741897E+00
                       3.0303847689E+00  5.6302231816E+00  0.0000000000E+00
                       0.0000000000E+00  0.0000000000E+00  6.3231091514E+00
             xred      5.0000000000E-01  3.1897100000E-01  3.5766700000E-01
                       5.0000000000E-01  6.8102900000E-01  6.4233300000E-01
                       0.0000000000E+00  1.8102900000E-01  8.5766700000E-01
                       0.0000000000E+00  8.1897100000E-01  1.4233300000E-01
                       5.0000000000E-01  5.0000000000E-01  0.0000000000E+00
                       0.0000000000E+00  0.0000000000E+00  5.0000000000E-01
            znucl       51.00000   76.00000

 chkinp: Checking input parameters for consistency.

== DATASET  1 ==================================================================
-   mpi_nproc: 1, omp_nthreads: -1 (-1 if OMP is not activated)

--- !DatasetInfo
iteration_state: {dtset: 1, }
dimensions: {natom: 6, nkpt: 2, mband: 55, nsppol: 1, nspinor: 1, nspden: 1, mpw: 11220, }
cutoff_energies: {ecut:  42.0, pawecutdg:  -1.0, }
electrons: {nelect:   9.20000000E+01, charge:   0.00000000E+00, occopt:   1.00000000E+00, tsmear:   1.00000000E-02, }
meta: {optdriver: 1, rfelfd: 2, }
...

 Real(R)+Recip(G) space primitive vectors, cartesian coordinates (Bohr,Bohr^-1):
 R(1)=  6.0607695  0.0000000  0.0000000  G(1)=  0.1649955  0.0000000  0.0000000
 R(2)=  0.0000000 11.2604464  0.0000000  G(2)=  0.0000000  0.0888064  0.0000000
 R(3)=  0.0000000  0.0000000 12.6462183  G(3)=  0.0000000  0.0000000  0.0790750
 Unit cell volume ucvol=  8.6306608E+02 bohr^3
 Angles (23,13,12)=  9.00000000E+01  9.00000000E+01  9.00000000E+01 degrees

 getcut: wavevector=  0.0000  0.0000  0.0000  ngfft=  36  72  75
         ecut(hartree)=     42.000   => boxcut(ratio)=   2.00577

--- Pseudopotential description ------------------------------------------------
- pspini: atom type   1  psp file is /scratch/users/j/a/jabreu/pseudos/PBEsol/Sb.psp8
- pspatm: opening atomic psp file    /scratch/users/j/a/jabreu/pseudos/PBEsol/Sb.psp8
- Sb    ONCVPSP-3.3.0  r_core=   1.81962   2.12485   1.81962
- 51.00000  15.00000    180112                znucl, zion, pspdat
    8 -116133    2    4       600   0.00000   pspcod,pspxc,lmax,lloc,mmax,r2well
    5.99000000000000    5.00000000000000    0.00000000000000   rchrg,fchrg,qchrg
     nproj     2     2     2
     extension_switch     1
  pspatm : epsatm=   26.35641246
         --- l  ekb(1:nproj) -->
             0    9.727814    1.485032
             1    5.505335    0.704623
             2   -4.710637   -1.436443
 pspatm: atomic psp has been read  and splines computed

- pspini: atom type   2  psp file is /scratch/users/j/a/jabreu/pseudos/PBEsol/Os.psp8
- pspatm: opening atomic psp file    /scratch/users/j/a/jabreu/pseudos/PBEsol/Os.psp8
- Os    ONCVPSP-3.3.0  r_core=   1.51352   1.55006   1.55006   2.27051
- 76.00000  16.00000    180112                znucl, zion, pspdat
    8 -116133    3    4       600   0.00000   pspcod,pspxc,lmax,lloc,mmax,r2well
    5.99000000000000    5.00000000000000    0.00000000000000   rchrg,fchrg,qchrg
     nproj     2     2     2     2
     extension_switch     1
  pspatm : epsatm=   26.11825460
         --- l  ekb(1:nproj) -->
             0    7.994989   -1.246074
             1    8.240861    1.154929
             2    2.240487    0.219183
             3    0.647575    0.186609
 pspatm: atomic psp has been read  and splines computed

   1.45049186E+04                                ecore*ucvol(ha*bohr**3)

-inwffil : will read wavefunctions from disk file /scratch/users/j/a/jabreu/flow_simple_6atoms/flow/w176/t1/indata/in_WFK

 ==>  initialize data related to q vector <==

 The list of irreducible perturbations for this q vector is:
    1)    idir= 1    ipert=   7
    2)    idir= 2    ipert=   7
    3)    idir= 3    ipert=   7

 Perturbation wavevector (in red.coord.)   0.000000  0.000000  0.000000
 Perturbation : derivative vs k along direction   1

 dfpt_looppert : COMMENT -
  In a d/dk calculation, iscf is set to -3 automatically.
 The set of symmetries contains only one element for this perturbation.
 symkpt : not enough symmetry to change the number of k points.

[...]

 Initialisation of the first-order wave-functions :
  ireadwf=   0

--- !BeginCycle
iteration_state: {dtset: 1, }
solver: {iscf: 7, nstep: 1000, nline: 4, wfoptalg: 0, }
tolerances: {tolwfr: 1.00E-20, }
...

     iter   2DEtotal(Ha)        deltaE(Ha) residm    vres2
-ETOT  1  -178.10500082481     -1.781E+02 2.442E-01 0.000E+00
 ETOT  2  -178.28615929268     -1.812E-01 1.215E-01 0.000E+00
 ETOT  3  -178.28708260051     -9.233E-04 9.737E-03 0.000E+00
 ETOT  4  -178.28709598442     -1.338E-05 5.933E-03 0.000E+00
 ETOT  5  -178.28709621750     -2.331E-07 4.814E-04 0.000E+00
 ETOT  6  -178.28709622190     -4.395E-09 3.381E-04 0.000E+00
 ETOT  7  -178.28709622198     -8.592E-11 2.550E-05 0.000E+00
 ETOT  8  -178.28709622199     -1.961E-12 1.983E-05 0.000E+00
 ETOT  9  -178.28709622199      2.842E-14 1.411E-06 0.000E+00
 ETOT 10  -178.28709622199     -5.684E-14 1.193E-06 0.000E+00
 ETOT 11  -178.28709622199      2.842E-14 8.192E-08 0.000E+00
 ETOT 12  -178.28709622199     -2.842E-14 7.335E-08 0.000E+00
 ETOT 13  -178.28709622199      0.000E+00 4.957E-09 0.000E+00
 ETOT 14  -178.28709622199      2.842E-14 4.589E-09 0.000E+00
 ETOT 15  -178.28709622199     -2.842E-14 3.085E-10 0.000E+00
 ETOT 16  -178.28709622199      5.684E-14 2.904E-10 0.000E+00
 ETOT 17  -178.28709622199     -5.684E-14 1.953E-11 0.000E+00
 ETOT 18  -178.28709622199      5.684E-14 1.852E-11 0.000E+00
 ETOT 19  -178.28709622199     -5.684E-14 1.249E-12 0.000E+00
 ETOT 20  -178.28709622199      5.684E-14 1.187E-12 0.000E+00
 ETOT 21  -178.28709622199      0.000E+00 8.036E-14 0.000E+00
 ETOT 22  -178.28709622199      0.000E+00 7.633E-14 0.000E+00
 ETOT 23  -178.28709622199      2.842E-14 5.192E-15 0.000E+00
[...]
   0.00000    0.00000    0.00000    0.00000    0.00000    0.00000    0.00000    0.00000
   0.00000    0.00000    0.00000    0.00000   -0.00000   -0.00000   -0.00000   -0.00000
  -0.00000   -0.00000    0.00000    0.00000   -0.00000   -0.00000    0.00000    0.00000
  -0.00000   -0.00000   -0.00000   -0.00000    0.00000    0.00002   -0.00000
 prteigrs : prtvol=0 or 1, do not print more k-points.

 Eight components of 2nd-order total energy (hartree) are
 1,2,3: 0th-order hamiltonian combined with 1st-order wavefunctions
     kin0=   2.15306241E+02 eigvalue=   1.06741337E+01  local=  -1.18770809E+02
 4,5,6: 1st-order hamiltonian combined with 1st and 0th-order wfs
     kin1=  -1.99422743E+02  Hartree=   0.00000000E+00     xc=   0.00000000E+00
 7,8,9: eventually, occupation + non-local contributions
    edocc=   3.50847553E+01     enl0=   3.59927749E+01   enl1=  -1.57151450E+02
 1-9 gives the relaxation energy (to be shifted if some occ is /=2.0)
   erelax=  -1.78287096E+02
  No Ewald or frozen-wf contrib.: the relaxation energy is the total one
 2DEtotal=   -0.1782870962E+03 Ha. Also 2DEtotal=   -0.485143861258E+04 eV
    (  non-var. 2DEtotal :   -1.7828709622E+02 Ha)

 Perturbation wavevector (in red.coord.)   0.000000  0.000000  0.000000
 Perturbation : derivative vs k along direction   2
 The set of symmetries contains only one element for this perturbation.
 symkpt : not enough symmetry to change the number of k points.

[...]

 Perturbation wavevector (in red.coord.)   0.000000  0.000000  0.000000
 Perturbation : derivative vs k along direction   3
 The set of symmetries contains only one element for this perturbation.
 symkpt : not enough symmetry to change the number of k points.

-inwffil : will read wavefunctions from disk file /scratch/users/j/a/jabreu/flow_simple_6atoms/flow/w176/t1/indata/in_WFK

 Initialisation of the first-order wave-functions :
  ireadwf=   0

--- !BeginCycle
iteration_state: {dtset: 1, }
solver: {iscf: 7, nstep: 1000, nline: 4, wfoptalg: 0, }
tolerances: {tolwfr: 1.00E-20, }
...

     iter   2DEtotal(Ha)        deltaE(Ha) residm    vres2
-ETOT  1  -41.852382605273     -4.185E+01 1.009E-01 0.000E+00
 ETOT  2  -41.898114519046     -4.573E-02 1.825E-02 0.000E+00
 ETOT  3  -41.898267898049     -1.534E-04 1.755E-03 0.000E+00
 ETOT  4  -41.898269264561     -1.367E-06 4.065E-04 0.000E+00
 ETOT  5  -41.898269280571     -1.601E-08 3.807E-05 0.000E+00
 ETOT  6  -41.898269280793     -2.220E-10 1.112E-05 0.000E+00
 ETOT  7  -41.898269280796     -3.517E-12 1.022E-06 0.000E+00
 ETOT  8  -41.898269280796     -4.974E-14 3.321E-07 0.000E+00
 ETOT  9  -41.898269280797     -4.263E-14 3.203E-08 0.000E+00
 ETOT 10  -41.898269280797      0.000E+00 1.185E-08 0.000E+00
 ETOT 11  -41.898269280797      7.105E-15 1.275E-09 0.000E+00
 ETOT 12  -41.898269280797      0.000E+00 5.397E-10 0.000E+00
 ETOT 13  -41.898269280797      7.105E-15 6.548E-11 0.000E+00
 ETOT 14  -41.898269280797     -7.105E-15 3.002E-11 0.000E+00
 ETOT 15  -41.898269280797      7.105E-15 3.931E-12 0.000E+00
 ETOT 16  -41.898269280797     -1.421E-14 1.837E-12 0.000E+00
 ETOT 17  -41.898269280797      1.421E-14 2.499E-13 0.000E+00
 ETOT 18  -41.898269280797      0.000E+00 1.169E-13 0.000E+00
 ETOT 19  -41.898269280797      0.000E+00 1.626E-14 0.000E+00
 ETOT 20  -41.898269280797      0.000E+00 7.575E-15 0.000E+00
 ETOT 21  -41.898269280797      0.000E+00 1.063E-15 0.000E+00
 ETOT 22  -41.898269280797      0.000E+00 4.964E-16 0.000E+00
 ETOT 23  -41.898269280797     -7.105E-15 7.029E-17 0.000E+00
 ETOT 24  -41.898269280797      7.105E-15 3.275E-17 0.000E+00
 ETOT 25  -41.898269280797      0.000E+00 4.651E-18 0.000E+00
 ETOT 26  -41.898269280797      7.105E-15 2.173E-18 0.000E+00
 ETOT 27  -41.898269280797     -7.105E-15 3.099E-19 0.000E+00
 ETOT 28  -41.898269280797      0.000E+00 1.447E-19 0.000E+00
 ETOT 29  -41.898269280797      0.000E+00 2.064E-20 0.000E+00
 ETOT 30  -41.898269280797     -7.105E-15 9.887E-21 0.000E+00

 At SCF step   30   max residual=  9.89E-21 < tolwfr=  1.00E-20 =>converged.

 ----iterations are completed or convergence reached----

 dfpt_looppert: DFPT cycle converged with prtwf=-1. Will skip output of the 1st-order WFK file.
 dfpt_looppert : ek2=    4.5420949722E+01
          f-sum rule ratio=    1.0476016148E+00
 prteigrs : about to open file /scratch/users/j/a/jabreu/flow_simple_6atoms/flow/w176/t1/tmpdata/tmp_1WF1_EIG
 Expectation of eigenvalue derivatives (hartree) for nkpt=   2  k points:
  (in case of degenerate eigenvalues, averaged derivative)
 kpt#   1, nband= 55, wtk=  0.50000, kpt=  0.5000  0.5000  0.5000 (reduced coord)
   0.00000    0.00000   -0.00000   -0.00000    0.00000    0.00000    0.00000    0.00000
  -0.00000   -0.00000   -0.00000   -0.00000   -0.00000   -0.00000   -0.00000   -0.00000
  -0.00000   -0.00000   -0.00000   -0.00000    0.00000    0.00000   -0.00000   -0.00000
  -0.00000   -0.00000    0.00000    0.00000    0.00000    0.00000   -0.00000   -0.00000
   0.00000    0.00000   -0.00000   -0.00000   -0.00000   -0.00000   -0.00000   -0.00000
   0.00000    0.00000   -0.00000   -0.00000   -0.00000   -0.00000   -0.00000   -0.00000
  -0.00000   -0.00000    0.00000    0.00000   -0.00000    0.00380    0.00000
 prteigrs : prtvol=0 or 1, do not print more k-points.

 Eight components of 2nd-order total energy (hartree) are
 1,2,3: 0th-order hamiltonian combined with 1st-order wavefunctions
     kin0=   5.17831820E+01 eigvalue=   1.73358417E+00  local=  -2.80699225E+01
 4,5,6: 1st-order hamiltonian combined with 1st and 0th-order wfs
     kin1=  -4.75830603E+01  Hartree=   0.00000000E+00     xc=   0.00000000E+00
 7,8,9: eventually, occupation + non-local contributions
    edocc=   8.13963848E+00     enl0=   8.31178715E+00   enl1=  -3.62134783E+01
 1-9 gives the relaxation energy (to be shifted if some occ is /=2.0)
   erelax=  -4.18982693E+01
  No Ewald or frozen-wf contrib.: the relaxation energy is the total one
 2DEtotal=   -0.4189826928E+02 Ha. Also 2DEtotal=   -0.114010988847E+04 eV
    (  non-var. 2DEtotal :   -4.1898269281E+01 Ha)

 CALCULATION OF EFFECTIVE MASSES
 NOTE : Additional infos (eff. mass eigenvalues, eigenvectors and, if degenerate, average mass) are available in stdout.

 COMMENTS:
 - At k-point ( 0.500, 0.500, 0.500), bands    45 through    46
   are DEGENERATE (effective mass tensor is therefore not defined).
   See Section IIIB Eqs. (67)-(70) and Appendix E of PRB 93 205147 (2016).
 - Angular average effective mass for Frohlich model is to be averaged over degenerate bands. See later.
 - Associated theta integrals calculated with ntheta=   1000 points.

 K-point ( 0.500, 0.500, 0.500) | band =    45
 Transport equivalent effective mass tensor:
             -0.6935380390              0.0001698060              0.0002686387
              0.0001698060             -0.2857856428              0.0000113110
              0.0002686387              0.0000113110             -0.4084194939
 Transport equivalent effective mass tensor eigenvalues:
             -0.6935383628             -0.4084192419             -0.2857855710
 Angular average effective mass 1/(<1/m>)=  -0.4050285868
 Angular average effective mass for Frohlich model (<m**0.5>)**2=  -0.4202150554
 Effective masses along directions: (cart. coord. / red. coord. -> eff. mass)
    1:   1.000000  0.000000  0.000000 /   1.000000  0.000000  0.000000 ->  -0.6904962354
    2:   0.000000  1.000000  0.000000 /   0.000000  1.000000  0.000000 ->  -0.2973117205
    3:   0.000000  0.000000  1.000000 /   0.000000  0.000000  1.000000 ->  -0.4248872946
    4:   0.577350  0.577350  0.577350 /   0.336992  0.626105  0.703157 ->  -0.3973734817
    5:   0.000000  0.707107  0.707107 /   0.000000  0.665002  0.746841 ->  -0.3280243320
    6:   0.707107  0.000000  0.707107 /   0.432185  0.000000  0.901785 ->  -0.5257782618
    7:   0.707107  0.707107  0.000000 /   0.473945  0.880554  0.000000 ->  -0.4154140545

 K-point ( 0.500, 0.500, 0.500) | band =    46
 Transport equivalent effective mass tensor:
             -0.6939219614              0.0000415011              0.0000803115
              0.0000415011             -0.3115675961             -0.0000015601
              0.0000803115             -0.0000015601             -0.4452622767
 Transport equivalent effective mass tensor eigenvalues:
             -0.6939219918             -0.4452622508             -0.3115675915
 Angular average effective mass 1/(<1/m>)=  -0.4333403311
 Angular average effective mass for Frohlich model (<m**0.5>)**2=  -0.4471626788
 Effective masses along directions: (cart. coord. / red. coord. -> eff. mass)
    1:   1.000000  0.000000  0.000000 /   1.000000  0.000000  0.000000 ->  -0.6906888556
    2:   0.000000  1.000000  0.000000 /   0.000000  1.000000  0.000000 ->  -0.2973265298
    3:   0.000000  0.000000  1.000000 /   0.000000  0.000000  1.000000 ->  -0.4249095927
    4:   0.577350  0.577350  0.577350 /   0.336992  0.626105  0.703157 ->  -0.4421602067
    5:   0.000000  0.707107  0.707107 /   0.000000  0.665002  0.746841 ->  -0.3747526882
    6:   0.707107  0.000000  0.707107 /   0.432185  0.000000  0.901785 ->  -0.5261005563
    7:   0.707107  0.707107  0.000000 /   0.473945  0.880554  0.000000 ->  -0.4157642212

 Angular average effective mass for Frohlich model, averaged over degenerate bands.
 Value of     (<<m**0.5>>)**2 =     4.335842E-01
 Absolute Value of <<m**0.5>> =     6.584711E-01

 K-point ( 0.250, 0.000, 0.000) | band =    47
 Effective mass tensor:
              0.5758873341             -0.0000000001             -0.0000000008
             -0.0000000001              0.4326794747              0.0000000371
             -0.0000000008              0.0000000371              2.0796594369
 Effective mass tensor eigenvalues:
              0.4326794747              0.5758873341              2.0796594369
 Angular average effective mass 1/(<1/m>)=   0.6624741797
 Angular average effective mass for Frohlich model (<m**0.5>)**2=   0.7342641535
 Effective masses along directions: (cart. coord. / red. coord. -> eff. mass)
    1:   1.000000  0.000000  0.000000 /   1.000000  0.000000  0.000000 ->   0.5758873341
    2:   0.000000  1.000000  0.000000 /   0.000000  1.000000  0.000000 ->   0.4326794747
    3:   0.000000  0.000000  1.000000 /   0.000000  0.000000  1.000000 ->   2.0796594369
    4:   0.577350  0.577350  0.577350 /   0.336992  0.626105  0.703157 ->   0.6624741915
    5:   0.000000  0.707107  0.707107 /   0.000000  0.665002  0.746841 ->   0.7163253136
    6:   0.707107  0.000000  0.707107 /   0.432185  0.000000  0.901785 ->   0.9019984444
    7:   0.707107  0.707107  0.000000 /   0.473945  0.880554  0.000000 ->   0.4941162588

 END OF EFFECTIVE MASSES SECTION

 ---- first-order wavefunction calculations are completed ----

 Total localisation tensor (bohr^2) in cartesian coordinates
  WARNING : still subject to testing - especially symmetries.
      direction              matrix element
   alpha     beta       real part   imaginary part
     1        1       1.1630588350    0.0000000000
     1        2       0.0000000000    0.0000000000
     1        3       0.0000000000    0.0000000000
     2        1       0.0000000000    0.0000000000
     2        2       1.7781864316    0.0000000000
     2        3       0.0000000000    0.0000000000
     3        1       0.0000000000    0.0000000000
     3        2       0.0000000000    0.0000000000
     3        3       1.6845522288    0.0000000000

 respfn : d/dk was computed, but no 2DTE, so no DDB output.

== END DATASET(S) ==============================================================

 -outvars: echo values of variables after computation  --------
            acell      1.0000000000E+00  1.0000000000E+00  1.0000000000E+00 Bohr
              amu      1.21753000E+02  1.90200000E+02
             ecut      4.20000000E+01 Hartree
           etotal     -4.1898269281E+01
            fcart      0.0000000000E+00  0.0000000000E+00  0.0000000000E+00
                       0.0000000000E+00  0.0000000000E+00  0.0000000000E+00
                       0.0000000000E+00  0.0000000000E+00  0.0000000000E+00
                       0.0000000000E+00  0.0000000000E+00  0.0000000000E+00
                       0.0000000000E+00  0.0000000000E+00  0.0000000000E+00
                       0.0000000000E+00  0.0000000000E+00  0.0000000000E+00
-          fftalg         512
           irdden           1
           irdwfk           1
           istwfk        1    0
              ixc     -116133
              kpt      5.00000000E-01  5.00000000E-01  5.00000000E-01
                       2.50000000E-01  0.00000000E+00  0.00000000E+00
           kptopt           0
P           mkmem           2
P          mkqmem           2
P          mk1mem           2
            natom           6
            nband          55
           nbdbuf           4
            ngfft          36      72      75
             nkpt           2
            nstep        1000
             nsym           8
           ntypat           2
              occ      2.000000  2.000000  2.000000  2.000000  2.000000  2.000000
                       2.000000  2.000000  2.000000  2.000000  2.000000  2.000000
                       2.000000  2.000000  2.000000  2.000000  2.000000  2.000000
                       2.000000  2.000000  2.000000  2.000000  2.000000  2.000000
                       2.000000  2.000000  2.000000  2.000000  2.000000  2.000000
                       2.000000  2.000000  2.000000  2.000000  2.000000  2.000000
                       2.000000  2.000000  2.000000  2.000000  2.000000  2.000000
                       2.000000  2.000000  2.000000  2.000000  0.000000  0.000000
                       0.000000  0.000000  0.000000  0.000000  0.000000  0.000000
                       0.000000
        optdriver           1
            prtwf          -1
            rfdir           1       1       1
           rfelfd           2
            rprim      6.0607695379E+00  0.0000000000E+00  0.0000000000E+00
                       0.0000000000E+00  1.1260446363E+01  0.0000000000E+00
                       0.0000000000E+00  0.0000000000E+00  1.2646218303E+01
          spgroup          58
           strten      0.0000000000E+00  0.0000000000E+00  0.0000000000E+00
                       0.0000000000E+00  0.0000000000E+00  0.0000000000E+00
           symrel      1  0  0   0  1  0   0  0  1      -1  0  0   0 -1  0   0  0 -1
                      -1  0  0   0  1  0   0  0 -1       1  0  0   0 -1  0   0  0  1
                      -1  0  0   0 -1  0   0  0  1       1  0  0   0  1  0   0  0 -1
                       1  0  0   0 -1  0   0  0 -1      -1  0  0   0  1  0   0  0  1
            tnons      0.0000000  0.0000000  0.0000000     0.0000000 -0.0000000  0.0000000
                       0.5000000  0.5000000  0.5000000     0.5000000  0.5000000  0.5000000
                       0.5000000  0.5000000  0.5000000     0.5000000  0.5000000  0.5000000
                       0.0000000 -0.0000000  0.0000000     0.0000000  0.0000000  0.0000000
           tolwfr      1.00000000E-20
            typat      1  1  1  1  2  2
           useylm           1
              wtk        0.50000    0.50000
           xangst      1.6036105530E+00  1.9006753277E+00  2.3935399331E+00
                       1.6036105530E+00  4.0580962462E+00  4.2985505676E+00
                       0.0000000000E+00  1.0787104593E+00  5.7395851835E+00
                       0.0000000000E+00  4.8800611147E+00  9.5250531724E-01
                       1.6036105530E+00  2.9793857870E+00  0.0000000000E+00
                       0.0000000000E+00  0.0000000000E+00  3.3460452504E+00
            xcart      3.0303847689E+00  3.5917558369E+00  4.5231349617E+00
                       3.0303847689E+00  7.6686905263E+00  8.1230833412E+00
                       0.0000000000E+00  2.0384673447E+00  1.0846244113E+01
                       0.0000000000E+00  9.2219790185E+00  1.7999741897E+00
                       3.0303847689E+00  5.6302231816E+00  0.0000000000E+00
                       0.0000000000E+00  0.0000000000E+00  6.3231091514E+00
             xred      5.0000000000E-01  3.1897100000E-01  3.5766700000E-01
                       5.0000000000E-01  6.8102900000E-01  6.4233300000E-01
                       0.0000000000E+00  1.8102900000E-01  8.5766700000E-01
                       0.0000000000E+00  8.1897100000E-01  1.4233300000E-01
                       5.0000000000E-01  5.0000000000E-01  0.0000000000E+00
                       0.0000000000E+00  0.0000000000E+00  5.0000000000E-01
            znucl       51.00000   76.00000

- Timing analysis has been suppressed with timopt=0

 Suggested references for the acknowledgment of ABINIT usage.

 Calculation completed.
.Delivered  14 WARNINGs and   9 COMMENTs to log file.