.Version 9.5.1 of ABINIT

 ABINIT is a project of the Universite Catholique de Louvain,
 Corning Inc. and other collaborators, see ~abinit/doc/developers/contributors.txt .
 acknowledgments of the ABINIT effort.

.Starting date : Wed  5 May 2021.
- ( at 19h42 )

- input  file    -> /scratch/users/j/a/jabreu/flow_simple_7atoms/flow/w129/t1/run.abi
- output file    -> /scratch/users/j/a/jabreu/flow_simple_7atoms/flow/w129/t1/run.abo
- root for input  files -> /scratch/users/j/a/jabreu/flow_simple_7atoms/flow/w129/t1/indata/in
- root for output files -> /scratch/users/j/a/jabreu/flow_simple_7atoms/flow/w129/t1/outdata/out

 Symmetries : space group I-4 (# 82); Bravais tI (body-center tetrag.)
     intxc =       0      iscf =       7    lmnmax =      25     lnmax =       7
     mgfft =      80  mpssoang =       4    mqgrid =    3001     natom =       7
  nloc_mem =       1    nspden =       1   nspinor =       1    nsppol =       1
      nsym =       4    n1xccc =    2501    ntypat =       3    occopt =       1
   xclevel =       2
-    mband =          64        mffmem =           1         mkmem =           1
-   mkqmem =           1        mk1mem =           1           mpw =       17965
      nfft =      512000          nkpt =           1
  Rough estimation (10% accuracy) of disk space for files :

------------- Echo of variables that govern the present computation ------------
-
- outvars: echo of selected default values
-   iomode0 =  0 , fftalg0 =512 , wfoptalg0 =  0
-
- outvars: echo of global parameters not present in the input file
-  max_nthreads =    0
-
 -outvars: echo values of preprocessed input variables --------
            acell      1.0000000000E+00  1.0000000000E+00  1.0000000000E+00 Bohr
              amu      1.14820000E+02  2.00590000E+02  7.89600000E+01
             ecut      4.30000000E+01 Hartree
-          fftalg         512
           irdden           1
           irdwfk           1
           istwfk        1
              ixc     -116133
           kptopt           0
P           mkmem           1
P          mkqmem           1
P          mk1mem           1
            natom           7
            nband          64
           nbdbuf           4
            ngfft          80      80      80
             nkpt           1
            nstep        2000
             nsym           4
           ntypat           3
              occ      2.000000  2.000000  2.000000  2.000000  2.000000  2.000000
                       2.000000  2.000000  2.000000  2.000000  2.000000  2.000000
                       2.000000  2.000000  2.000000  2.000000  2.000000  2.000000
                       2.000000  2.000000  2.000000  2.000000  2.000000  2.000000
                       2.000000  2.000000  2.000000  2.000000  2.000000  2.000000
                       2.000000  2.000000  2.000000  2.000000  2.000000  2.000000
                       2.000000  2.000000  2.000000  2.000000  2.000000  2.000000
                       2.000000  2.000000  2.000000  2.000000  2.000000  2.000000
                       2.000000  2.000000  2.000000  2.000000  2.000000  2.000000
                       2.000000  0.000000  0.000000  0.000000  0.000000  0.000000
                       0.000000  0.000000  0.000000  0.000000
        optdriver           1
            prtwf          -1
            rfdir           1       1       1
           rfelfd           2
            rprim      1.0068815138E+01  0.0000000000E+00 -8.8784830486E+00
                      -2.0522100691E+00  9.8574576907E+00 -8.8784830486E+00
                       0.0000000000E+00  0.0000000000E+00  1.3424175935E+01
          spgroup          82
           symrel      1  0  0   0  1  0   0  0  1       0  1  0   1  0  0  -1 -1 -1
                       0  0  1  -1 -1 -1   0  1  0      -1 -1 -1   0  0  1   1  0  0
           tolwfr      1.00000000E-20
            typat      1  1  2  3  3  3  3
           useylm           1
           xangst      5.1755977533E-01  3.9122564584E+00 -1.1464069017E+00
                       2.1211023465E+00  2.6081709723E+00 -4.6982908762E+00
                       0.0000000000E+00  0.0000000000E+00  0.0000000000E+00
                       3.2152180812E+00  7.3248395220E-01 -3.2583770864E+00
                       1.8391210578E+00  1.9193217204E+00 -9.1444235885E-02
                       3.5898022181E+00  4.7562449360E+00 -4.8299787435E+00
                      -1.5973197128E-01  3.0246332804E+00  3.5941724590E+00
            xcart      9.7804623277E-01  7.3930932680E+00 -2.1663950810E+00
                       4.0083025346E+00  4.9287288453E+00 -8.8784830486E+00
                       0.0000000000E+00  0.0000000000E+00  0.0000000000E+00
                       6.0758816310E+00  1.3841940664E+00 -6.1574403310E+00
                       3.4754351245E+00  3.6269924125E+00 -1.7280456225E-01
                       6.7837430635E+00  8.9880003500E+00 -9.1273370528E+00
                      -3.0184968039E-01  5.7157285525E+00  6.7920016219E+00
             xred      2.5000000000E-01  7.5000000000E-01  5.0000000000E-01
                       5.0000000000E-01  5.0000000000E-01  0.0000000000E+00
                       0.0000000000E+00  0.0000000000E+00  0.0000000000E+00
                       6.3205600000E-01  1.4042100000E-01  5.2218000000E-02
                       4.2016200000E-01  3.6794400000E-01  5.0836500000E-01
                       8.5957900000E-01  9.1179700000E-01  4.9163500000E-01
                       8.8203000000E-02  5.7983800000E-01  9.4778200000E-01
            znucl       49.00000   80.00000   34.00000

 chkinp: Checking input parameters for consistency.

== DATASET  1 ==================================================================
-   mpi_nproc: 1, omp_nthreads: -1 (-1 if OMP is not activated)

--- !DatasetInfo
iteration_state: {dtset: 1, }
dimensions: {natom: 7, nkpt: 1, mband: 64, nsppol: 1, nspinor: 1, nspden: 1, mpw: 17965, }
cutoff_energies: {ecut:  43.0, pawecutdg:  -1.0, }
electrons: {nelect:   1.10000000E+02, charge:   0.00000000E+00, occopt:   1.00000000E+00, tsmear:   1.00000000E-02, }
meta: {optdriver: 1, rfelfd: 2, }
...

 Real(R)+Recip(G) space primitive vectors, cartesian coordinates (Bohr,Bohr^-1):
 R(1)= 10.0688151  0.0000000 -8.8784830  G(1)=  0.0993166  0.0206766  0.0000000
 R(2)= -2.0522101  9.8574577 -8.8784830  G(2)=  0.0000000  0.1014460  0.0000000
 R(3)=  0.0000000  0.0000000 13.4241759  G(3)=  0.0656860  0.0807695  0.0744925
 Unit cell volume ucvol=  1.3323886E+03 bohr^3
 Angles (23,13,12)=  1.31405213E+02  1.31405213E+02  7.11700655E+01 degrees

 getcut: wavevector=  0.0000  0.0000  0.0000  ngfft=  80  80  80
         ecut(hartree)=     43.000   => boxcut(ratio)=   2.01932

--- Pseudopotential description ------------------------------------------------
- pspini: atom type   1  psp file is /scratch/users/j/a/jabreu/pseudos/PBEsol/In.psp8
- pspatm: opening atomic psp file    /scratch/users/j/a/jabreu/pseudos/PBEsol/In.psp8
- In    ONCVPSP-3.3.0  r_core=   2.10853   2.37566   1.87143
- 49.00000  13.00000    180112                znucl, zion, pspdat
    8 -116133    2    4       600   0.00000   pspcod,pspxc,lmax,lloc,mmax,r2well
    5.99000000000000    5.00000000000000    0.00000000000000   rchrg,fchrg,qchrg
     nproj     2     2     2
     extension_switch     1
  pspatm : epsatm=   25.17984752
         --- l  ekb(1:nproj) -->
             0   12.999887    1.931740
             1    5.981707    1.012544
             2   -4.048011   -1.239028
 pspatm: atomic psp has been read  and splines computed

- pspini: atom type   2  psp file is /scratch/users/j/a/jabreu/pseudos/PBEsol/Hg.psp8
- pspatm: opening atomic psp file    /scratch/users/j/a/jabreu/pseudos/PBEsol/Hg.psp8
- Hg    ONCVPSP-3.3.0  r_core=   1.60079   1.60079   1.45509   1.60079
- 80.00000  20.00000    180112                znucl, zion, pspdat
    8 -116133    3    4       600   0.00000   pspcod,pspxc,lmax,lloc,mmax,r2well
    5.99000000000000    5.00000000000000    0.00000000000000   rchrg,fchrg,qchrg
     nproj     2     2     2     1
     extension_switch     1
  pspatm : epsatm=   30.52477316
         --- l  ekb(1:nproj) -->
             0   15.280580    2.063595
             1   11.999965    1.374025
             2    2.245749    0.205661
             3    0.961656
 pspatm: atomic psp has been read  and splines computed

- pspini: atom type   3  psp file is /scratch/users/j/a/jabreu/pseudos/PBEsol/Se.psp8
- pspatm: opening atomic psp file    /scratch/users/j/a/jabreu/pseudos/PBEsol/Se.psp8
- Se    ONCVPSP-3.3.0  r_core=   1.81943   1.50330   1.90835
- 34.00000  16.00000    180112                znucl, zion, pspdat
    8 -116133    2    4       600   0.00000   pspcod,pspxc,lmax,lloc,mmax,r2well
    5.99000000000000    5.00000000000000    0.00000000000000   rchrg,fchrg,qchrg
     nproj     2     2     2
     extension_switch     1
  pspatm : epsatm=   29.17862020
         --- l  ekb(1:nproj) -->
             0    8.973804    1.019550
             1    6.849857    1.297308
             2   -9.203962   -3.731027
 pspatm: atomic psp has been read  and splines computed

   2.17358844E+04                                ecore*ucvol(ha*bohr**3)

-inwffil : will read wavefunctions from disk file /scratch/users/j/a/jabreu/flow_simple_7atoms/flow/w129/t1/indata/in_WFK

 ==>  initialize data related to q vector <==

 The list of irreducible perturbations for this q vector is:
    1)    idir= 1    ipert=   8
    2)    idir= 2    ipert=   8
    3)    idir= 3    ipert=   8

 Perturbation wavevector (in red.coord.)   0.000000  0.000000  0.000000
 Perturbation : derivative vs k along direction   1

 dfpt_looppert : COMMENT -
  In a d/dk calculation, iscf is set to -3 automatically.
 The set of symmetries contains only one element for this perturbation.
 symkpt : not enough symmetry to change the number of k points.

[...]

 Initialisation of the first-order wave-functions :
  ireadwf=   0

--- !BeginCycle
iteration_state: {dtset: 1, }
solver: {iscf: 7, nstep: 2000, nline: 4, wfoptalg: 0, }
tolerances: {tolwfr: 1.00E-20, }
...

     iter   2DEtotal(Ha)        deltaE(Ha) residm    vres2
-ETOT  1  -111.66055246198     -1.117E+02 2.191E-01 0.000E+00
 ETOT  2  -111.77652041659     -1.160E-01 1.934E-02 0.000E+00
 ETOT  3  -111.77767708779     -1.157E-03 1.582E-03 0.000E+00
 ETOT  4  -111.77770583462     -2.875E-05 2.085E-04 0.000E+00
 ETOT  5  -111.77770683349     -9.989E-07 2.464E-05 0.000E+00
 ETOT  6  -111.77770689649     -6.299E-08 3.613E-06 0.000E+00
 ETOT  7  -111.77770690224     -5.758E-09 4.282E-07 0.000E+00
 ETOT  8  -111.77770690283     -5.876E-10 6.745E-08 0.000E+00
 ETOT  9  -111.77770690289     -6.033E-11 7.904E-09 0.000E+00
 ETOT 10  -111.77770690290     -6.168E-12 1.302E-09 0.000E+00
 ETOT 11  -111.77770690290     -8.100E-13 1.511E-10 0.000E+00
 ETOT 12  -111.77770690290     -2.842E-14 2.557E-11 0.000E+00
 ETOT 13  -111.77770690290     -1.137E-13 2.947E-12 0.000E+00
 ETOT 14  -111.77770690290      1.137E-13 5.066E-13 0.000E+00
 ETOT 15  -111.77770690290     -7.105E-14 5.820E-14 0.000E+00
 ETOT 16  -111.77770690290     -4.263E-14 1.010E-14 0.000E+00
 ETOT 17  -111.77770690290      1.137E-13 1.158E-15 0.000E+00
[...]

 ----iterations are completed or convergence reached----

 dfpt_looppert: DFPT cycle converged with prtwf=-1. Will skip output of the 1st-order WFK file.
 dfpt_looppert : ek2=    8.9382515755E+01
          f-sum rule ratio=    1.2620554428E+00
 prteigrs : about to open file /scratch/users/j/a/jabreu/flow_simple_7atoms/flow/w129/t1/tmpdata/tmp_1WF1_EIG
 Expectation of eigenvalue derivatives (hartree) for nkpt=   1  k points:
  (in case of degenerate eigenvalues, averaged derivative)
 kpt#   1, nband= 64, wtk=  1.00000, kpt=  0.0000  0.0000  0.0000 (reduced coord)
   0.00000    0.00000    0.00000    0.00000    0.00000    0.00000   -0.00000   -0.00000
  -0.00000   -0.00000    0.00000    0.00000    0.00000    0.00000   -0.00000   -0.00000
   0.00000   -0.00000   -0.00000   -0.00000   -0.00000    0.00000    0.00000   -0.00000
  -0.00000   -0.00000   -0.00000    0.00000   -0.00000   -0.00000   -0.00000    0.00000
  -0.00000    0.00000   -0.00000    0.00000    0.00000    0.00000    0.00000    0.00000
  -0.00000   -0.00000    0.00000    0.00000    0.00000   -0.00000   -0.00000    0.00000
   0.00000    0.00000    0.00000    0.00000    0.00000    0.00000    0.00000   -0.00000
  -0.00000   -0.00000   -0.00000    0.00000    0.00000    0.00000   -0.00000   -0.00000

 Eight components of 2nd-order total energy (hartree) are
 1,2,3: 0th-order hamiltonian combined with 1st-order wavefunctions
     kin0=   1.14013463E+02 eigvalue=   1.54190641E+01  local=  -5.30387457E+01
 4,5,6: 1st-order hamiltonian combined with 1st and 0th-order wfs
     kin1=  -1.12805690E+02  Hartree=   0.00000000E+00     xc=   0.00000000E+00
 7,8,9: eventually, occupation + non-local contributions
    edocc=   2.18762291E+01     enl0=   1.35076964E+01   enl1=  -1.10749723E+02
 1-9 gives the relaxation energy (to be shifted if some occ is /=2.0)
   erelax=  -1.11777707E+02
  No Ewald or frozen-wf contrib.: the relaxation energy is the total one
 2DEtotal=   -0.1117777069E+03 Ha. Also 2DEtotal=   -0.304162608953E+04 eV
    (  non-var. 2DEtotal :   -1.1177770690E+02 Ha)

 Perturbation wavevector (in red.coord.)   0.000000  0.000000  0.000000
 Perturbation : derivative vs k along direction   2
 The set of symmetries contains only one element for this perturbation.
 symkpt : not enough symmetry to change the number of k points.

[...]

 Perturbation wavevector (in red.coord.)   0.000000  0.000000  0.000000
 Perturbation : derivative vs k along direction   3
 The set of symmetries contains only one element for this perturbation.
 symkpt : not enough symmetry to change the number of k points.

-inwffil : will read wavefunctions from disk file /scratch/users/j/a/jabreu/flow_simple_7atoms/flow/w129/t1/indata/in_WFK

 Initialisation of the first-order wave-functions :
  ireadwf=   0

--- !BeginCycle
iteration_state: {dtset: 1, }
solver: {iscf: 7, nstep: 2000, nline: 4, wfoptalg: 0, }
tolerances: {tolwfr: 1.00E-20, }
...

     iter   2DEtotal(Ha)        deltaE(Ha) residm    vres2
-ETOT  1  -180.57311852843     -1.806E+02 2.352E-01 0.000E+00
 ETOT  2  -180.72940890342     -1.563E-01 1.279E-02 0.000E+00
 ETOT  3  -180.73038386482     -9.750E-04 4.599E-04 0.000E+00
 ETOT  4  -180.73040350439     -1.964E-05 6.354E-05 0.000E+00
 ETOT  5  -180.73040423333     -7.289E-07 3.004E-06 0.000E+00
 ETOT  6  -180.73040428781     -5.449E-08 4.506E-07 0.000E+00
 ETOT  7  -180.73040429290     -5.087E-09 2.304E-08 0.000E+00
 ETOT  8  -180.73040429340     -5.026E-10 3.725E-09 0.000E+00
 ETOT  9  -180.73040429345     -4.954E-11 1.956E-10 0.000E+00
 ETOT 10  -180.73040429346     -5.286E-12 3.384E-11 0.000E+00
 ETOT 11  -180.73040429346     -8.811E-13 1.811E-12 0.000E+00
 ETOT 12  -180.73040429346      3.126E-13 3.333E-13 0.000E+00
 ETOT 13  -180.73040429346     -2.558E-13 1.816E-14 0.000E+00
 ETOT 14  -180.73040429346      1.990E-13 3.530E-15 0.000E+00
 ETOT 15  -180.73040429346      5.684E-14 1.959E-16 0.000E+00
 ETOT 16  -180.73040429346     -1.137E-13 3.981E-17 0.000E+00
 ETOT 17  -180.73040429346     -5.684E-14 2.245E-18 0.000E+00
 ETOT 18  -180.73040429346      0.000E+00 4.721E-19 0.000E+00
 ETOT 19  -180.73040429346      2.558E-13 2.693E-20 0.000E+00
 ETOT 20  -180.73040429346     -2.842E-14 9.494E-21 0.000E+00

 At SCF step   20   max residual=  9.49E-21 < tolwfr=  1.00E-20 =>converged.

 ----iterations are completed or convergence reached----

 dfpt_looppert: DFPT cycle converged with prtwf=-1. Will skip output of the 1st-order WFK file.
 dfpt_looppert : ek2=    1.4232942386E+02
          f-sum rule ratio=    1.2985741080E+00
 prteigrs : about to open file /scratch/users/j/a/jabreu/flow_simple_7atoms/flow/w129/t1/tmpdata/tmp_1WF1_EIG
 Expectation of eigenvalue derivatives (hartree) for nkpt=   1  k points:
  (in case of degenerate eigenvalues, averaged derivative)
 kpt#   1, nband= 64, wtk=  1.00000, kpt=  0.0000  0.0000  0.0000 (reduced coord)
   0.00000   -0.00000   -0.00000   -0.00000   -0.00000   -0.00000   -0.00000   -0.00000
  -0.00000   -0.00000    0.00000    0.00000    0.00000   -0.00000   -0.00000   -0.00000
  -0.00000   -0.00000    0.00000    0.00000   -0.00000    0.00000    0.00000   -0.00000
  -0.00000   -0.00000   -0.00000   -0.00000   -0.00000   -0.00000   -0.00000    0.00000
   0.00000    0.00000   -0.00000   -0.00000   -0.00000    0.00000   -0.00000    0.00000
   0.00000    0.00000    0.00000   -0.00000    0.00000   -0.00000   -0.00000    0.00000
   0.00000   -0.00000   -0.00000   -0.00000    0.00000   -0.00000   -0.00000   -0.00000
  -0.00000   -0.00000   -0.00000   -0.00000   -0.00000    0.00000    0.00000    0.00000

 Eight components of 2nd-order total energy (hartree) are
 1,2,3: 0th-order hamiltonian combined with 1st-order wavefunctions
     kin0=   1.80843075E+02 eigvalue=   2.46618655E+01  local=  -8.41105949E+01
 4,5,6: 1st-order hamiltonian combined with 1st and 0th-order wfs
     kin1=  -1.84825305E+02  Hartree=   0.00000000E+00     xc=   0.00000000E+00
 7,8,9: eventually, occupation + non-local contributions
    edocc=   3.77898909E+01     enl0=   2.15461682E+01   enl1=  -1.76635504E+02
 1-9 gives the relaxation energy (to be shifted if some occ is /=2.0)
   erelax=  -1.80730404E+02
  No Ewald or frozen-wf contrib.: the relaxation energy is the total one
 2DEtotal=   -0.1807304043E+03 Ha. Also 2DEtotal=   -0.491792440640E+04 eV
    (  non-var. 2DEtotal :   -1.8073040429E+02 Ha)

 CALCULATION OF EFFECTIVE MASSES
 NOTE : Additional infos (eff. mass eigenvalues, eigenvectors and, if degenerate, average mass) are available in stdout.

 COMMENTS:
 - At k-point ( 0.000, 0.000, 0.000), bands    54 through    55
   are DEGENERATE (effective mass tensor is therefore not defined).
   See Section IIIB Eqs. (67)-(70) and Appendix E of PRB 93 205147 (2016).
 - Angular average effective mass for Frohlich model is to be averaged over degenerate bands. See later.
 - Associated theta integrals calculated with ntheta=   1000 points.

 K-point ( 0.000, 0.000, 0.000) | band =    54
 Transport equivalent effective mass tensor:
             -0.1328823299             -0.0945711213              0.1703579375
             -0.0945711213             -0.1722595838              0.2094772219
              0.1703579375              0.2094772219             -0.4333188738
 Transport equivalent effective mass tensor eigenvalues:
             -0.6265165862             -0.0559721008             -0.0559721006
 Angular average effective mass 1/(<1/m>)=  -0.0801373576
 Angular average effective mass for Frohlich model (<m**0.5>)**2=  -0.0984375077
 Effective masses along directions: (cart. coord. / red. coord. -> eff. mass)
    1:   1.000000  0.000000  0.000000 /   0.979855 -0.199712  0.000000 ->  -0.0650732337
    2:   0.000000  1.000000  0.000000 /   0.000000  1.000000  0.000000 ->  -0.0708935286
    3:   0.000000  0.000000  1.000000 /  -0.483023 -0.483023  0.730326 ->  -0.1364889810
    4:   0.577350  0.577350  0.577350 /   0.088045 -0.079384  0.992948 ->  -0.0541432465
    5:   0.000000  0.707107  0.707107 /  -0.550626  0.060714  0.832541 ->  -0.0599594374
    6:   0.707107  0.000000  0.707107 /   0.068598 -0.629924  0.773621 ->  -0.0630435302
    7:   0.707107  0.707107  0.000000 /   0.790342  0.612666  0.000000 ->  -0.0781783372

 K-point ( 0.000, 0.000, 0.000) | band =    55
 Transport equivalent effective mass tensor:
             -3.9892075545              0.0204408855             -0.0368216766
              0.0204408855             -3.9806964440             -0.0452770361
             -0.0368216766             -0.0452770361             -3.9242703098
 Transport equivalent effective mass tensor eigenvalues:
             -4.0058311715             -4.0058311636             -3.8825119732
 Angular average effective mass 1/(<1/m>)=  -0.9025581947
 Angular average effective mass for Frohlich model (<m**0.5>)**2=  -1.0309761338
 Effective masses along directions: (cart. coord. / red. coord. -> eff. mass)
    1:   1.000000  0.000000  0.000000 /   0.979855 -0.199712  0.000000 ->  -0.7631523570
    2:   0.000000  1.000000  0.000000 /   0.000000  1.000000  0.000000 ->  -0.6678200629
    3:   0.000000  0.000000  1.000000 /  -0.483023 -0.483023  0.730326 ->  -0.8678404106
    4:   0.577350  0.577350  0.577350 /   0.088045 -0.079384  0.992948 ->  -3.2591749538
    5:   0.000000  0.707107  0.707107 /  -0.550626  0.060714  0.832541 ->  -0.9262952260
    6:   0.707107  0.000000  0.707107 /   0.068598 -0.629924  0.773621 ->  -0.7324924834
    7:   0.707107  0.707107  0.000000 /   0.790342  0.612666  0.000000 ->  -1.3015847182

 Angular average effective mass for Frohlich model, averaged over degenerate bands.
 Value of     (<<m**0.5>>)**2 =     4.416383E-01
 Absolute Value of <<m**0.5>> =     6.645587E-01

 K-point ( 0.000, 0.000, 0.000) | band =    56
 Effective mass tensor:
              0.0622113329              0.0075174341             -0.0135417089
              0.0075174341              0.0653414207             -0.0166512909
             -0.0135417089             -0.0166512909              0.0860929579
 Effective mass tensor eigenvalues:
              0.0560977585              0.0560977586              0.1014501944
 Angular average effective mass 1/(<1/m>)=   0.0659208790
 Angular average effective mass for Frohlich model (<m**0.5>)**2=   0.0673012797
 Effective masses along directions: (cart. coord. / red. coord. -> eff. mass)
    1:   1.000000  0.000000  0.000000 /   0.979855 -0.199712  0.000000 ->   0.0596950942
    2:   0.000000  1.000000  0.000000 /   0.000000  1.000000  0.000000 ->   0.0617215329
    3:   0.000000  0.000000  1.000000 /  -0.483023 -0.483023  0.730326 ->   0.0796463355
    4:   0.577350  0.577350  0.577350 /   0.088045 -0.079384  0.992948 ->   0.0560979990
    5:   0.000000  0.707107  0.707107 /  -0.550626  0.060714  0.832541 ->   0.0577884827
    6:   0.707107  0.000000  0.707107 /   0.068598 -0.629924  0.773621 ->   0.0587092461
    7:   0.707107  0.707107  0.000000 /   0.790342  0.612666  0.000000 ->   0.0659809300

 END OF EFFECTIVE MASSES SECTION

 ---- first-order wavefunction calculations are completed ----

 Total localisation tensor (bohr^2) in cartesian coordinates
  WARNING : still subject to testing - especially symmetries.
      direction              matrix element
   alpha     beta       real part   imaginary part
     1        1       8.7645114895    0.0000000000
     1        2      -1.6791169604    0.0000000000
     1        3      -5.9077685381    0.0000000000
     2        1      -1.6791169604    0.0000000000
     2        2       8.0653655511    0.0000000000
     2        3      -7.2643691277    0.0000000000
     3        1      -5.9077685381    0.0000000000
     3        2      -7.2643691277    0.0000000000
     3        3      40.1484335237    0.0000000000

 respfn : d/dk was computed, but no 2DTE, so no DDB output.

== END DATASET(S) ==============================================================

 -outvars: echo values of variables after computation  --------
            acell      1.0000000000E+00  1.0000000000E+00  1.0000000000E+00 Bohr
              amu      1.14820000E+02  2.00590000E+02  7.89600000E+01
             ecut      4.30000000E+01 Hartree
           etotal     -1.8073040429E+02
            fcart      0.0000000000E+00  0.0000000000E+00  0.0000000000E+00
                       0.0000000000E+00  0.0000000000E+00  0.0000000000E+00
                       0.0000000000E+00  0.0000000000E+00  0.0000000000E+00
                       0.0000000000E+00  0.0000000000E+00  0.0000000000E+00
                       0.0000000000E+00  0.0000000000E+00  0.0000000000E+00
                       0.0000000000E+00  0.0000000000E+00  0.0000000000E+00
                       0.0000000000E+00  0.0000000000E+00  0.0000000000E+00
-          fftalg         512
           irdden           1
           irdwfk           1
           istwfk        1
              ixc     -116133
           kptopt           0
P           mkmem           1
P          mkqmem           1
P          mk1mem           1
            natom           7
            nband          64
           nbdbuf           4
            ngfft          80      80      80
             nkpt           1
            nstep        2000
             nsym           4
           ntypat           3
              occ      2.000000  2.000000  2.000000  2.000000  2.000000  2.000000
                       2.000000  2.000000  2.000000  2.000000  2.000000  2.000000
                       2.000000  2.000000  2.000000  2.000000  2.000000  2.000000
                       2.000000  2.000000  2.000000  2.000000  2.000000  2.000000
                       2.000000  2.000000  2.000000  2.000000  2.000000  2.000000
                       2.000000  2.000000  2.000000  2.000000  2.000000  2.000000
                       2.000000  2.000000  2.000000  2.000000  2.000000  2.000000
                       2.000000  2.000000  2.000000  2.000000  2.000000  2.000000
                       2.000000  2.000000  2.000000  2.000000  2.000000  2.000000
                       2.000000  0.000000  0.000000  0.000000  0.000000  0.000000
                       0.000000  0.000000  0.000000  0.000000
        optdriver           1
            prtwf          -1
            rfdir           1       1       1
           rfelfd           2
            rprim      1.0068815138E+01  0.0000000000E+00 -8.8784830486E+00
                      -2.0522100691E+00  9.8574576907E+00 -8.8784830486E+00
                       0.0000000000E+00  0.0000000000E+00  1.3424175935E+01
          spgroup          82
           strten      0.0000000000E+00  0.0000000000E+00  0.0000000000E+00
                       0.0000000000E+00  0.0000000000E+00  0.0000000000E+00
           symrel      1  0  0   0  1  0   0  0  1       0  1  0   1  0  0  -1 -1 -1
                       0  0  1  -1 -1 -1   0  1  0      -1 -1 -1   0  0  1   1  0  0
           tolwfr      1.00000000E-20
            typat      1  1  2  3  3  3  3
           useylm           1
           xangst      5.1755977533E-01  3.9122564584E+00 -1.1464069017E+00
                       2.1211023465E+00  2.6081709723E+00 -4.6982908762E+00
                       0.0000000000E+00  0.0000000000E+00  0.0000000000E+00
                       3.2152180812E+00  7.3248395220E-01 -3.2583770864E+00
                       1.8391210578E+00  1.9193217204E+00 -9.1444235885E-02
                       3.5898022181E+00  4.7562449360E+00 -4.8299787435E+00
                      -1.5973197128E-01  3.0246332804E+00  3.5941724590E+00
            xcart      9.7804623277E-01  7.3930932680E+00 -2.1663950810E+00
                       4.0083025346E+00  4.9287288453E+00 -8.8784830486E+00
                       0.0000000000E+00  0.0000000000E+00  0.0000000000E+00
                       6.0758816310E+00  1.3841940664E+00 -6.1574403310E+00
                       3.4754351245E+00  3.6269924125E+00 -1.7280456225E-01
                       6.7837430635E+00  8.9880003500E+00 -9.1273370528E+00
                      -3.0184968039E-01  5.7157285525E+00  6.7920016219E+00
             xred      2.5000000000E-01  7.5000000000E-01  5.0000000000E-01
                       5.0000000000E-01  5.0000000000E-01  0.0000000000E+00
                       0.0000000000E+00  0.0000000000E+00  0.0000000000E+00
                       6.3205600000E-01  1.4042100000E-01  5.2218000000E-02
                       4.2016200000E-01  3.6794400000E-01  5.0836500000E-01
                       8.5957900000E-01  9.1179700000E-01  4.9163500000E-01
                       8.8203000000E-02  5.7983800000E-01  9.4778200000E-01
            znucl       49.00000   80.00000   34.00000

- Timing analysis has been suppressed with timopt=0

 Suggested references for the acknowledgment of ABINIT usage.

 Calculation completed.
.Delivered   6 WARNINGs and   5 COMMENTs to log file.