.Version 9.5.1 of ABINIT

 ABINIT is a project of the Universite Catholique de Louvain,
 Corning Inc. and other collaborators, see ~abinit/doc/developers/contributors.txt .
 acknowledgments of the ABINIT effort.

.Starting date : Wed 19 May 2021.
- ( at 01h20 )

- input  file    -> /scratch/users/j/a/jabreu/flow_simple_8atoms/flow/w407/t1/run.abi
- output file    -> /scratch/users/j/a/jabreu/flow_simple_8atoms/flow/w407/t1/run.abo
- root for input  files -> /scratch/users/j/a/jabreu/flow_simple_8atoms/flow/w407/t1/indata/in
- root for output files -> /scratch/users/j/a/jabreu/flow_simple_8atoms/flow/w407/t1/outdata/out

 Symmetries : space group C2/c (# 15); Bravais mC (1-face-center monocl.)
     intxc =       0      iscf =       7    lmnmax =      18     lnmax =       6
     mgfft =      72  mpssoang =       3    mqgrid =    3001     natom =       8
  nloc_mem =       1    nspden =       1   nspinor =       1    nsppol =       1
      nsym =       4    n1xccc =    2501    ntypat =       3    occopt =       1
   xclevel =       2
-    mband =          45        mffmem =           1         mkmem =           1
-   mkqmem =           1        mk1mem =           1           mpw =       15754
      nfft =      373248          nkpt =           1
  Rough estimation (10% accuracy) of disk space for files :

------------- Echo of variables that govern the present computation ------------
-
- outvars: echo of selected default values
-   iomode0 =  0 , fftalg0 =512 , wfoptalg0 =  0
-
- outvars: echo of global parameters not present in the input file
-  max_nthreads =    0
-
 -outvars: echo values of preprocessed input variables --------
            acell      1.0000000000E+00  1.0000000000E+00  1.0000000000E+00 Bohr
              amu      8.54678000E+01  2.08980370E+02  1.59994000E+01
             ecut      4.40000000E+01 Hartree
-          fftalg         512
           irdden           1
           irdwfk           1
              ixc     -116133
              kpt      5.00000000E-01 -5.00000000E-01  0.00000000E+00
           kptopt           0
P           mkmem           1
P          mkqmem           1
P          mk1mem           1
            natom           8
            nband          45
           nbdbuf           4
            ngfft          72      72      72
             nkpt           1
            nstep        2000
             nsym           4
           ntypat           3
              occ      2.000000  2.000000  2.000000  2.000000  2.000000  2.000000
                       2.000000  2.000000  2.000000  2.000000  2.000000  2.000000
                       2.000000  2.000000  2.000000  2.000000  2.000000  2.000000
                       2.000000  2.000000  2.000000  2.000000  2.000000  2.000000
                       2.000000  2.000000  2.000000  2.000000  2.000000  2.000000
                       2.000000  2.000000  2.000000  2.000000  2.000000  2.000000
                       0.000000  0.000000  0.000000  0.000000  0.000000  0.000000
                       0.000000  0.000000  0.000000
        optdriver           1
            prtwf          -1
            rfdir           1       1       1
           rfelfd           2
            rprim      1.0116015417E+01  0.0000000000E+00  4.2574528996E+00
                      -2.2847718069E+00  9.8546225551E+00  4.2574528996E+00
                       0.0000000000E+00  0.0000000000E+00  1.1359410942E+01
          spgroup          15
           symrel      1  0  0   0  1  0   0  0  1      -1  0  0   0 -1  0   0  0 -1
                       0 -1  0  -1  0  0   0  0 -1       0  1  0   1  0  0   0  0  1
            tnons      0.0000000  0.0000000  0.0000000     0.0000000  0.0000000 -0.0000000
                       0.0000000  0.0000000  0.5000000     0.0000000  0.0000000  0.5000000
           tolwfr      1.00000000E-20
            typat      1  1  2  2  3  3  3  3
           useylm           1
           xangst      2.9503904695E+00  1.9094299167E+00  3.7557323845E+00
                       1.1937251637E+00  3.3054117388E+00  6.7613030714E+00
                       4.7120889934E+00  5.0944831100E-01  6.7613030714E+00
                      -5.6797336014E-01  4.7053933444E+00  3.7557323845E+00
                       3.7821223138E+00  3.9219259638E+00  7.9664132646E+00
                       1.1777487000E+00  6.4465351060E-01  5.5561928782E+00
                       2.9663669333E+00  4.5701881448E+00  4.9608425778E+00
                       3.6199331947E-01  1.2929156916E+00  2.5506221913E+00
            xcart      5.5754299725E+00  3.6082996124E+00  7.0973056352E+00
                       2.2558136374E+00  6.2463229427E+00  1.2777011106E+01
                       8.9045577113E+00  9.6271778665E-01  1.2777011106E+01
                      -1.0733141014E+00  8.8919047684E+00  7.0973056352E+00
                       7.1471753742E+00  7.4113659850E+00  1.5054339332E+01
                       2.2256224963E+00  1.2182185856E+00  1.0499682881E+01
                       5.6056211136E+00  8.6364039695E+00  9.3746338604E+00
                       6.8406823572E-01  2.4432565701E+00  4.8199774100E+00
             xred      6.3384700000E-01  3.6615300000E-01  2.5000000000E-01
                       3.6615300000E-01  6.3384700000E-01  7.5000000000E-01
                       9.0230800000E-01  9.7692000000E-02  7.5000000000E-01
                       9.7692000000E-02  9.0230800000E-01  2.5000000000E-01
                       8.7638100000E-01  7.5207000000E-01  7.1493900000E-01
                       2.4793000000E-01  1.2361900000E-01  7.8506100000E-01
                       7.5207000000E-01  8.7638100000E-01  2.1493900000E-01
                       1.2361900000E-01  2.4793000000E-01  2.8506100000E-01
            znucl       37.00000   83.00000    8.00000

 chkinp: Checking input parameters for consistency.

== DATASET  1 ==================================================================
-   mpi_nproc: 1, omp_nthreads: -1 (-1 if OMP is not activated)

--- !DatasetInfo
iteration_state: {dtset: 1, }
dimensions: {natom: 8, nkpt: 1, mband: 45, nsppol: 1, nspinor: 1, nspden: 1, mpw: 15754, }
cutoff_energies: {ecut:  44.0, pawecutdg:  -1.0, }
electrons: {nelect:   7.20000000E+01, charge:   0.00000000E+00, occopt:   1.00000000E+00, tsmear:   1.00000000E-02, }
meta: {optdriver: 1, rfelfd: 2, }
...

 Real(R)+Recip(G) space primitive vectors, cartesian coordinates (Bohr,Bohr^-1):
 R(1)= 10.1160154  0.0000000  4.2574529  G(1)=  0.0988532  0.0229189  0.0000000
 R(2)= -2.2847718  9.8546226  4.2574529  G(2)=  0.0000000  0.1014752  0.0000000
 R(3)=  0.0000000  0.0000000 11.3594109  G(3)= -0.0370497 -0.0466223  0.0880327
 Unit cell volume ucvol=  1.1324142E+03 bohr^3
 Angles (23,13,12)=  6.71755932E+01  6.71755932E+01  9.23726525E+01 degrees

 getcut: wavevector=  0.0000  0.0000  0.0000  ngfft=  72  72  72
         ecut(hartree)=     44.000   => boxcut(ratio)=   2.12310

--- Pseudopotential description ------------------------------------------------
- pspini: atom type   1  psp file is /scratch/users/j/a/jabreu/pseudos/PBEsol/Rb.psp8
- pspatm: opening atomic psp file    /scratch/users/j/a/jabreu/pseudos/PBEsol/Rb.psp8
- Rb    ONCVPSP-3.3.0  r_core=   1.71227   1.75361   1.90633
- 37.00000   9.00000    180112                znucl, zion, pspdat
    8 -116133    2    4       600   0.00000   pspcod,pspxc,lmax,lloc,mmax,r2well
    5.99000000000000    7.00000000000000    0.00000000000000   rchrg,fchrg,qchrg
     nproj     2     2     2
     extension_switch     1
  pspatm : epsatm=   34.48400912
         --- l  ekb(1:nproj) -->
             0    8.196957   -0.477221
             1    3.231347   -0.378736
             2   -1.047201    0.996637
 pspatm: atomic psp has been read  and splines computed

- pspini: atom type   2  psp file is /scratch/users/j/a/jabreu/pseudos/PBEsol/Bi.psp8
- pspatm: opening atomic psp file    /scratch/users/j/a/jabreu/pseudos/PBEsol/Bi.psp8
- Bi    ONCVPSP-3.3.0  r_core=   2.42776   2.51622   2.10397
- 83.00000  15.00000    180112                znucl, zion, pspdat
    8 -116133    2    4       600   0.00000   pspcod,pspxc,lmax,lloc,mmax,r2well
    5.99000000000000    6.00000000000000    0.00000000000000   rchrg,fchrg,qchrg
     nproj     2     2     2
     extension_switch     1
  pspatm : epsatm=   42.90078186
         --- l  ekb(1:nproj) -->
             0    6.017688    0.961606
             1    4.379371    0.528498
             2   -3.458170   -0.753782
 pspatm: atomic psp has been read  and splines computed

- pspini: atom type   3  psp file is /scratch/users/j/a/jabreu/pseudos/PBEsol/O.psp8
- pspatm: opening atomic psp file    /scratch/users/j/a/jabreu/pseudos/PBEsol/O.psp8
- O     ONCVPSP-3.3.0  r_core=   1.35509   1.45563   1.26150
-  8.00000   6.00000    180112                znucl, zion, pspdat
    8 -116133    2    4       600   0.00000   pspcod,pspxc,lmax,lloc,mmax,r2well
    5.99000000000000    4.00000000000000    0.00000000000000   rchrg,fchrg,qchrg
     nproj     2     2     1
     extension_switch     1
  pspatm : epsatm=    6.22910522
         --- l  ekb(1:nproj) -->
             0    6.050032    0.820363
             1   -4.739617   -1.153841
             2   -1.335834
 pspatm: atomic psp has been read  and splines computed

   1.29373922E+04                                ecore*ucvol(ha*bohr**3)

-inwffil : will read wavefunctions from disk file /scratch/users/j/a/jabreu/flow_simple_8atoms/flow/w407/t1/indata/in_WFK

 ==>  initialize data related to q vector <==

 The list of irreducible perturbations for this q vector is:
    1)    idir= 1    ipert=   9
    2)    idir= 2    ipert=   9
    3)    idir= 3    ipert=   9

 Perturbation wavevector (in red.coord.)   0.000000  0.000000  0.000000
 Perturbation : derivative vs k along direction   1

 dfpt_looppert : COMMENT -
  In a d/dk calculation, iscf is set to -3 automatically.
 The set of symmetries contains only one element for this perturbation.
 symkpt : not enough symmetry to change the number of k points.

[...]

 Initialisation of the first-order wave-functions :
  ireadwf=   0

--- !BeginCycle
iteration_state: {dtset: 1, }
solver: {iscf: 7, nstep: 2000, nline: 4, wfoptalg: 0, }
tolerances: {tolwfr: 1.00E-20, }
...

     iter   2DEtotal(Ha)        deltaE(Ha) residm    vres2
-ETOT  1  -46.684572693454     -4.668E+01 3.410E-02 0.000E+00
 ETOT  2  -46.732622049504     -4.805E-02 9.620E-04 0.000E+00
 ETOT  3  -46.732920509906     -2.985E-04 1.453E-05 0.000E+00
 ETOT  4  -46.732924776598     -4.267E-06 7.563E-07 0.000E+00
 ETOT  5  -46.732924849123     -7.252E-08 2.160E-08 0.000E+00
 ETOT  6  -46.732924850460     -1.337E-09 1.321E-09 0.000E+00
 ETOT  7  -46.732924850486     -2.598E-11 3.781E-11 0.000E+00
 ETOT  8  -46.732924850487     -4.974E-13 2.526E-12 0.000E+00
 ETOT  9  -46.732924850487     -3.553E-14 7.152E-14 0.000E+00
 ETOT 10  -46.732924850487      3.553E-14 5.049E-15 0.000E+00
 ETOT 11  -46.732924850487     -1.421E-14 1.409E-16 0.000E+00
 ETOT 12  -46.732924850487      0.000E+00 1.031E-17 0.000E+00
 ETOT 13  -46.732924850487     -1.421E-14 2.835E-19 0.000E+00
 ETOT 14  -46.732924850487      2.842E-14 2.134E-20 0.000E+00
 ETOT 15  -46.732924850487      0.000E+00 9.925E-21 0.000E+00

 At SCF step   15   max residual=  9.93E-21 < tolwfr=  1.00E-20 =>converged.

 ----iterations are completed or convergence reached----

 dfpt_looppert: DFPT cycle converged with prtwf=-1. Will skip output of the 1st-order WFK file.
 dfpt_looppert : ek2=    5.8538587509E+01
          f-sum rule ratio=    1.0531362022E+00
 prteigrs : about to open file /scratch/users/j/a/jabreu/flow_simple_8atoms/flow/w407/t1/tmpdata/tmp_1WF1_EIG
 Expectation of eigenvalue derivatives (hartree) for nkpt=   1  k points:
  (in case of degenerate eigenvalues, averaged derivative)
 kpt#   1, nband= 45, wtk=  1.00000, kpt=  0.5000 -0.5000  0.0000 (reduced coord)
   0.00000    0.00000   -0.00000   -0.00000   -0.00000   -0.00000   -0.00000   -0.00000
   0.00000    0.00000   -0.00000   -0.00000    0.00000    0.00000   -0.00000    0.00000
  -0.00000   -0.00000   -0.00000   -0.00000    0.00000   -0.00000    0.00000    0.00000
  -0.00000   -0.00000    0.00000   -0.00000   -0.00000   -0.00000   -0.00000   -0.00000
  -0.00000   -0.00000   -0.00000    0.00000    0.00000    0.00000   -0.00000   -0.00000
   0.00000    0.00000   -0.00002    0.00005   -0.00000

 Eight components of 2nd-order total energy (hartree) are
 1,2,3: 0th-order hamiltonian combined with 1st-order wavefunctions
     kin0=   5.63437164E+01 eigvalue=   6.79841447E+00  local=  -2.81098216E+01
 4,5,6: 1st-order hamiltonian combined with 1st and 0th-order wfs
     kin1=  -6.16491057E+01  Hartree=   0.00000000E+00     xc=   0.00000000E+00
 7,8,9: eventually, occupation + non-local contributions
    edocc=   8.61503964E+00     enl0=   3.08557594E+00   enl1=  -3.18167440E+01
 1-9 gives the relaxation energy (to be shifted if some occ is /=2.0)
   erelax=  -4.67329249E+01
  No Ewald or frozen-wf contrib.: the relaxation energy is the total one
 2DEtotal=   -0.4673292485E+02 Ha. Also 2DEtotal=   -0.127166755701E+04 eV
    (  non-var. 2DEtotal :   -4.6732924850E+01 Ha)

 Perturbation wavevector (in red.coord.)   0.000000  0.000000  0.000000
 Perturbation : derivative vs k along direction   2
 The set of symmetries contains only one element for this perturbation.
 symkpt : not enough symmetry to change the number of k points.

[...]

 Perturbation wavevector (in red.coord.)   0.000000  0.000000  0.000000
 Perturbation : derivative vs k along direction   3
 The set of symmetries contains only one element for this perturbation.
 symkpt : not enough symmetry to change the number of k points.

-inwffil : will read wavefunctions from disk file /scratch/users/j/a/jabreu/flow_simple_8atoms/flow/w407/t1/indata/in_WFK

 Initialisation of the first-order wave-functions :
  ireadwf=   0

--- !BeginCycle
iteration_state: {dtset: 1, }
solver: {iscf: 7, nstep: 2000, nline: 4, wfoptalg: 0, }
tolerances: {tolwfr: 1.00E-20, }
...

     iter   2DEtotal(Ha)        deltaE(Ha) residm    vres2
-ETOT  1  -49.713306539681     -4.971E+01 3.250E-02 0.000E+00
 ETOT  2  -49.758428752857     -4.512E-02 4.789E-04 0.000E+00
 ETOT  3  -49.758620183217     -1.914E-04 9.359E-06 0.000E+00
 ETOT  4  -49.758622273886     -2.091E-06 2.116E-07 0.000E+00
 ETOT  5  -49.758622302430     -2.854E-08 5.255E-09 0.000E+00
 ETOT  6  -49.758622302874     -4.442E-10 1.573E-10 0.000E+00
 ETOT  7  -49.758622302882     -7.560E-12 4.137E-12 0.000E+00
 ETOT  8  -49.758622302882     -8.527E-14 1.364E-13 0.000E+00
 ETOT  9  -49.758622302882     -3.553E-14 3.662E-15 0.000E+00
 ETOT 10  -49.758622302882      1.421E-14 1.244E-16 0.000E+00
 ETOT 11  -49.758622302882      7.105E-15 3.397E-18 0.000E+00
 ETOT 12  -49.758622302882     -1.421E-14 1.152E-19 0.000E+00
 ETOT 13  -49.758622302882     -7.105E-15 9.962E-21 0.000E+00

 At SCF step   13   max residual=  9.96E-21 < tolwfr=  1.00E-20 =>converged.

 ----iterations are completed or convergence reached----

 dfpt_looppert: DFPT cycle converged with prtwf=-1. Will skip output of the 1st-order WFK file.
 dfpt_looppert : ek2=    6.4217006212E+01
          f-sum rule ratio=    1.0107033238E+00
 prteigrs : about to open file /scratch/users/j/a/jabreu/flow_simple_8atoms/flow/w407/t1/tmpdata/tmp_1WF1_EIG
 Expectation of eigenvalue derivatives (hartree) for nkpt=   1  k points:
  (in case of degenerate eigenvalues, averaged derivative)
 kpt#   1, nband= 45, wtk=  1.00000, kpt=  0.5000 -0.5000  0.0000 (reduced coord)
   0.00000   -0.00000    0.00000    0.00000    0.00000    0.00000    0.00000   -0.00000
  -0.00000   -0.00000    0.00000    0.00000   -0.00000    0.00000    0.00000    0.00000
   0.00000   -0.00000    0.00000    0.00000    0.00000    0.00000    0.00000    0.00000
   0.00000    0.00000   -0.00000   -0.00000   -0.00000    0.00000    0.00000   -0.00000
   0.00000    0.00000   -0.00000   -0.00000    0.00000   -0.00000    0.00000    0.00000
  -0.00000    0.00000    0.00005   -0.00000    0.00000

 Eight components of 2nd-order total energy (hartree) are
 1,2,3: 0th-order hamiltonian combined with 1st-order wavefunctions
     kin0=   6.36773173E+01 eigvalue=   7.50394061E+00  local=  -3.22753957E+01
 4,5,6: 1st-order hamiltonian combined with 1st and 0th-order wfs
     kin1=  -6.49043416E+01  Hartree=   0.00000000E+00     xc=   0.00000000E+00
 7,8,9: eventually, occupation + non-local contributions
    edocc=   7.28728603E+00     enl0=   3.56547409E+00   enl1=  -3.46129030E+01
 1-9 gives the relaxation energy (to be shifted if some occ is /=2.0)
   erelax=  -4.97586223E+01
  No Ewald or frozen-wf contrib.: the relaxation energy is the total one
 2DEtotal=   -0.4975862230E+02 Ha. Also 2DEtotal=   -0.135400097183E+04 eV
    (  non-var. 2DEtotal :   -4.9758622303E+01 Ha)

 CALCULATION OF EFFECTIVE MASSES
 NOTE : Additional infos (eff. mass eigenvalues, eigenvectors and, if degenerate, average mass) are available in stdout.

 K-point ( 0.500,-0.500, 0.000) | band =    36
 Effective mass tensor:
             -2.8027023745             -1.0467436231              1.0522143407
             -1.0467436231             -3.2880526610              1.3240703973
              1.0522143407              1.3240703973             -1.5997441930
 Effective mass tensor eigenvalues:
             -4.9688642222             -1.9708713811             -0.7507636251
 Angular average effective mass 1/(<1/m>)=  -1.4701413013
 Angular average effective mass for Frohlich model (<m**0.5>)**2=  -1.7306102438
 Effective masses along directions: (cart. coord. / red. coord. -> eff. mass)
    1:   1.000000  0.000000  0.000000 /   0.975430 -0.220308  0.000000 ->  -2.0965133839
    2:   0.000000  1.000000  0.000000 /   0.000000  1.000000  0.000000 ->  -2.1774995662
    3:   0.000000  0.000000  1.000000 /   0.331153  0.331153  0.883558 ->  -0.9054727825
    4:   0.577350  0.577350  0.577350 /   0.659141  0.542378  0.520922 ->  -0.9264719227
    5:   0.000000  0.707107  0.707107 /   0.228779  0.758327  0.610410 ->  -0.8796962601
    6:   0.707107  0.000000  0.707107 /   0.780057  0.107059  0.616482 ->  -0.9321838641
    7:   0.707107  0.707107  0.000000 /   0.800651  0.599130  0.000000 ->  -2.3263949057

--- !WARNING
src_file: m_efmas.F90
src_line: 0
message: |

    Band(s)    37,
    are not band extrema, but saddle points;
    the transport equivalent formalism breaks down in these conditions.
    The associated tensor(s) will therefore not be printed.
...

 K-point ( 0.500,-0.500, 0.000) | band =    37
 Effective mass tensor:
     *** SADDLE POINT: TRANSPORT EQV. EFF. MASS NOT DEFINED (see WARNING above) ***
 Angular average effective mass 1/(<1/m>)=   0.9067183387
 Angular average effective mass for Frohlich model (<m**0.5>)**2=   1.8412663986
 Effective masses along directions: (cart. coord. / red. coord. -> eff. mass)
    1:   1.000000  0.000000  0.000000 /   0.975430 -0.220308  0.000000 ->   0.6747758342
    2:   0.000000  1.000000  0.000000 /   0.000000  1.000000  0.000000 ->   0.7609217192
    3:   0.000000  0.000000  1.000000 /   0.331153  0.331153  0.883558 ->   1.9513501384
    4:   0.577350  0.577350  0.577350 /   0.659141  0.542378  0.520922 ->   0.5521583535
    5:   0.000000  0.707107  0.707107 /   0.228779  0.758327  0.610410 ->   0.5858723205
    6:   0.707107  0.000000  0.707107 /   0.780057  0.107059  0.616482 ->   0.6143198028
    7:   0.707107  0.707107  0.000000 /   0.800651  0.599130  0.000000 ->   0.9650122407

 END OF EFFECTIVE MASSES SECTION

 ---- first-order wavefunction calculations are completed ----

 Total localisation tensor (bohr^2) in cartesian coordinates
  WARNING : still subject to testing - especially symmetries.
      direction              matrix element
   alpha     beta       real part   imaginary part
     1        1       1.1655920409    0.0000000000
     1        2      -0.2440070985    0.0000000000
     1        3       0.3613274857    0.0000000000
     2        1      -0.2440070985    0.0000000000
     2        2       1.0524455216    0.0000000000
     2        3       0.4546838007    0.0000000000
     3        1       0.3613274857    0.0000000000
     3        2       0.4546838007    0.0000000000
     3        3       1.8089186095    0.0000000000

 respfn : d/dk was computed, but no 2DTE, so no DDB output.

== END DATASET(S) ==============================================================

 -outvars: echo values of variables after computation  --------
            acell      1.0000000000E+00  1.0000000000E+00  1.0000000000E+00 Bohr
              amu      8.54678000E+01  2.08980370E+02  1.59994000E+01
             ecut      4.40000000E+01 Hartree
           etotal     -4.9758622303E+01
            fcart      0.0000000000E+00  0.0000000000E+00  0.0000000000E+00
                       0.0000000000E+00  0.0000000000E+00  0.0000000000E+00
                       0.0000000000E+00  0.0000000000E+00  0.0000000000E+00
                       0.0000000000E+00  0.0000000000E+00  0.0000000000E+00
                       0.0000000000E+00  0.0000000000E+00  0.0000000000E+00
                       0.0000000000E+00  0.0000000000E+00  0.0000000000E+00
                       0.0000000000E+00  0.0000000000E+00  0.0000000000E+00
                       0.0000000000E+00  0.0000000000E+00  0.0000000000E+00
-          fftalg         512
           irdden           1
           irdwfk           1
              ixc     -116133
              kpt      5.00000000E-01 -5.00000000E-01  0.00000000E+00
           kptopt           0
P           mkmem           1
P          mkqmem           1
P          mk1mem           1
            natom           8
            nband          45
           nbdbuf           4
            ngfft          72      72      72
             nkpt           1
            nstep        2000
             nsym           4
           ntypat           3
              occ      2.000000  2.000000  2.000000  2.000000  2.000000  2.000000
                       2.000000  2.000000  2.000000  2.000000  2.000000  2.000000
                       2.000000  2.000000  2.000000  2.000000  2.000000  2.000000
                       2.000000  2.000000  2.000000  2.000000  2.000000  2.000000
                       2.000000  2.000000  2.000000  2.000000  2.000000  2.000000
                       2.000000  2.000000  2.000000  2.000000  2.000000  2.000000
                       0.000000  0.000000  0.000000  0.000000  0.000000  0.000000
                       0.000000  0.000000  0.000000
        optdriver           1
            prtwf          -1
            rfdir           1       1       1
           rfelfd           2
            rprim      1.0116015417E+01  0.0000000000E+00  4.2574528996E+00
                      -2.2847718069E+00  9.8546225551E+00  4.2574528996E+00
                       0.0000000000E+00  0.0000000000E+00  1.1359410942E+01
          spgroup          15
           strten      0.0000000000E+00  0.0000000000E+00  0.0000000000E+00
                       0.0000000000E+00  0.0000000000E+00  0.0000000000E+00
           symrel      1  0  0   0  1  0   0  0  1      -1  0  0   0 -1  0   0  0 -1
                       0 -1  0  -1  0  0   0  0 -1       0  1  0   1  0  0   0  0  1
            tnons      0.0000000  0.0000000  0.0000000     0.0000000  0.0000000 -0.0000000
                       0.0000000  0.0000000  0.5000000     0.0000000  0.0000000  0.5000000
           tolwfr      1.00000000E-20
            typat      1  1  2  2  3  3  3  3
           useylm           1
           xangst      2.9503904695E+00  1.9094299167E+00  3.7557323845E+00
                       1.1937251637E+00  3.3054117388E+00  6.7613030714E+00
                       4.7120889934E+00  5.0944831100E-01  6.7613030714E+00
                      -5.6797336014E-01  4.7053933444E+00  3.7557323845E+00
                       3.7821223138E+00  3.9219259638E+00  7.9664132646E+00
                       1.1777487000E+00  6.4465351060E-01  5.5561928782E+00
                       2.9663669333E+00  4.5701881448E+00  4.9608425778E+00
                       3.6199331947E-01  1.2929156916E+00  2.5506221913E+00
            xcart      5.5754299725E+00  3.6082996124E+00  7.0973056352E+00
                       2.2558136374E+00  6.2463229427E+00  1.2777011106E+01
                       8.9045577113E+00  9.6271778665E-01  1.2777011106E+01
                      -1.0733141014E+00  8.8919047684E+00  7.0973056352E+00
                       7.1471753742E+00  7.4113659850E+00  1.5054339332E+01
                       2.2256224963E+00  1.2182185856E+00  1.0499682881E+01
                       5.6056211136E+00  8.6364039695E+00  9.3746338604E+00
                       6.8406823572E-01  2.4432565701E+00  4.8199774100E+00
             xred      6.3384700000E-01  3.6615300000E-01  2.5000000000E-01
                       3.6615300000E-01  6.3384700000E-01  7.5000000000E-01
                       9.0230800000E-01  9.7692000000E-02  7.5000000000E-01
                       9.7692000000E-02  9.0230800000E-01  2.5000000000E-01
                       8.7638100000E-01  7.5207000000E-01  7.1493900000E-01
                       2.4793000000E-01  1.2361900000E-01  7.8506100000E-01
                       7.5207000000E-01  8.7638100000E-01  2.1493900000E-01
                       1.2361900000E-01  2.4793000000E-01  2.8506100000E-01
            znucl       37.00000   83.00000    8.00000

- Timing analysis has been suppressed with timopt=0

 Suggested references for the acknowledgment of ABINIT usage.

 Calculation completed.
.Delivered   7 WARNINGs and   5 COMMENTs to log file.