.Version 9.5.1 of ABINIT

 ABINIT is a project of the Universite Catholique de Louvain,
 Corning Inc. and other collaborators, see ~abinit/doc/developers/contributors.txt .
 acknowledgments of the ABINIT effort.

.Starting date : Tue 11 May 2021.
- ( at 22h06 )

- input  file    -> /scratch/users/j/a/jabreu/flow_simple_8atoms/flow/w388/t1/run.abi
- output file    -> /scratch/users/j/a/jabreu/flow_simple_8atoms/flow/w388/t1/run.abo
- root for input  files -> /scratch/users/j/a/jabreu/flow_simple_8atoms/flow/w388/t1/indata/in
- root for output files -> /scratch/users/j/a/jabreu/flow_simple_8atoms/flow/w388/t1/outdata/out

 Symmetries : space group C2/c (# 15); Bravais mC (1-face-center monocl.)
     intxc =       0      iscf =       7    lmnmax =      32     lnmax =       8
     mgfft =      72  mpssoang =       4    mqgrid =    3121     natom =       8
  nloc_mem =       1    nspden =       1   nspinor =       1    nsppol =       1
      nsym =       4    n1xccc =    2501    ntypat =       3    occopt =       1
   xclevel =       2
-    mband =          45        mffmem =           1         mkmem =           2
-   mkqmem =           2        mk1mem =           2           mpw =       17940
      nfft =      373248          nkpt =           2
  Rough estimation (10% accuracy) of disk space for files :

------------- Echo of variables that govern the present computation ------------
-
- outvars: echo of selected default values
-   iomode0 =  0 , fftalg0 =512 , wfoptalg0 =  0
-
- outvars: echo of global parameters not present in the input file
-  max_nthreads =    0
-
 -outvars: echo values of preprocessed input variables --------
            acell      1.0000000000E+00  1.0000000000E+00  1.0000000000E+00 Bohr
              amu      1.32905430E+02  2.08980370E+02  1.59994000E+01
             ecut      4.40000000E+01 Hartree
-          fftalg         512
           irdden           1
           irdwfk           1
              ixc     -116133
              kpt      5.00000000E-01 -5.00000000E-01  0.00000000E+00
                       4.30322595E-01  4.30322595E-01  1.01288165E-01
           kptopt           0
P           mkmem           2
P          mkqmem           2
P          mk1mem           2
            natom           8
            nband          45
           nbdbuf           4
            ngfft          72      72      72
             nkpt           2
            nstep        2000
             nsym           4
           ntypat           3
              occ      2.000000  2.000000  2.000000  2.000000  2.000000  2.000000
                       2.000000  2.000000  2.000000  2.000000  2.000000  2.000000
                       2.000000  2.000000  2.000000  2.000000  2.000000  2.000000
                       2.000000  2.000000  2.000000  2.000000  2.000000  2.000000
                       2.000000  2.000000  2.000000  2.000000  2.000000  2.000000
                       2.000000  2.000000  2.000000  2.000000  2.000000  2.000000
                       0.000000  0.000000  0.000000  0.000000  0.000000  0.000000
                       0.000000  0.000000  0.000000
        optdriver           1
            prtwf          -1
            rfdir           1       1       1
           rfelfd           2
            rprim      1.0870395260E+01  0.0000000000E+00  4.2893168461E+00
                      -2.9945452693E+00  1.0449793861E+01  4.2893168461E+00
                       0.0000000000E+00  0.0000000000E+00  1.1339845455E+01
          spgroup          15
           symrel      1  0  0   0  1  0   0  0  1      -1  0  0   0 -1  0   0  0 -1
                       0 -1  0  -1  0  0   0  0 -1       0  1  0   1  0  0   0  0  1
            tnons      0.0000000  0.0000000  0.0000000     0.0000000  0.0000000 -0.0000000
                       0.0000000  0.0000000  0.5000000    -0.0000000  0.0000000  0.5000000
           tolwfr      1.00000000E-20
            typat      1  1  2  2  3  3  3  3
           useylm           1
              wtk        0.50000    0.50000
           xangst      3.1191123420E+00  1.9846426165E+00  3.7700056563E+00
                       1.0486079714E+00  3.5451501294E+00  6.7703995382E+00
                       5.1038910817E+00  4.8874520205E-01  6.7703995382E+00
                      -9.3617076822E-01  5.0410475438E+00  3.7700056563E+00
                       1.1509573036E+00  6.9158905955E-01  5.5605608437E+00
                       3.8199528892E+00  4.2328517446E+00  7.9802382327E+00
                       3.4776742426E-01  1.2969410012E+00  2.5601669618E+00
                       3.0167630098E+00  4.8382036863E+00  4.9798443508E+00
            xcart      5.8942681042E+00  3.7504310168E+00  7.1242782099E+00
                       1.9815818867E+00  6.6993628445E+00  1.2794200937E+01
                       9.6449563564E+00  9.2359458064E-01  1.2794200937E+01
                      -1.7691063655E+00  9.5261992807E+00  7.1242782099E+00
                       2.1749940945E+00  1.3069139191E+00  1.0507937140E+01
                       7.2186648011E+00  7.9989305585E+00  1.5080464735E+01
                       6.5718518979E-01  2.4508633028E+00  4.8380144123E+00
                       5.7008558964E+00  9.1428799422E+00  9.4105420075E+00
             xred      6.4110000000E-01  3.5890000000E-01  2.5000000000E-01
                       3.5890000000E-01  6.4110000000E-01  7.5000000000E-01
                       9.1161600000E-01  8.8384000000E-02  7.5000000000E-01
                       8.8384000000E-02  9.1161600000E-01  2.5000000000E-01
                       2.3453700000E-01  1.2506600000E-01  7.9061800000E-01
                       8.7493400000E-01  7.6546300000E-01  7.0938200000E-01
                       1.2506600000E-01  2.3453700000E-01  2.9061800000E-01
                       7.6546300000E-01  8.7493400000E-01  2.0938200000E-01
            znucl       55.00000   83.00000    8.00000

 chkinp: Checking input parameters for consistency.

== DATASET  1 ==================================================================
-   mpi_nproc: 1, omp_nthreads: -1 (-1 if OMP is not activated)

--- !DatasetInfo
iteration_state: {dtset: 1, }
dimensions: {natom: 8, nkpt: 2, mband: 45, nsppol: 1, nspinor: 1, nspden: 1, mpw: 17940, }
cutoff_energies: {ecut:  44.0, pawecutdg:  -1.0, }
electrons: {nelect:   7.20000000E+01, charge:   0.00000000E+00, occopt:   1.00000000E+00, tsmear:   1.00000000E-02, }
meta: {optdriver: 1, rfelfd: 2, }
...

 Real(R)+Recip(G) space primitive vectors, cartesian coordinates (Bohr,Bohr^-1):
 R(1)= 10.8703953  0.0000000  4.2893168  G(1)=  0.0919930  0.0263620  0.0000000
 R(2)= -2.9945453 10.4497939  4.2893168  G(2)=  0.0000000  0.0956957  0.0000000
 R(3)=  0.0000000  0.0000000 11.3398455  G(3)= -0.0347965 -0.0461685  0.0881846
 Unit cell volume ucvol=  1.2881315E+03 bohr^3
 Angles (23,13,12)=  6.84664515E+01  6.84664515E+01  9.59488955E+01 degrees

 getcut: wavevector=  0.0000  0.0000  0.0000  ngfft=  72  72  72
         ecut(hartree)=     44.000   => boxcut(ratio)=   2.06351

--- Pseudopotential description ------------------------------------------------
- pspini: atom type   1  psp file is /scratch/users/j/a/jabreu/pseudos/PBEsol/Cs.psp8
- pspatm: opening atomic psp file    /scratch/users/j/a/jabreu/pseudos/PBEsol/Cs.psp8
- Cs    ONCVPSP-3.3.0  r_core=   2.27353   1.85623   2.01788   1.90105
- 55.00000   9.00000    180112                znucl, zion, pspdat
    8 -116133    3    4       600   0.00000   pspcod,pspxc,lmax,lloc,mmax,r2well
    5.99000000000000    5.00000000000000    0.00000000000000   rchrg,fchrg,qchrg
     nproj     2     2     2     2
     extension_switch     1
  pspatm : epsatm=   22.12462445
         --- l  ekb(1:nproj) -->
             0    6.214110    0.767882
             1    6.311966    0.793598
             2    3.769790    0.913105
             3   -9.247129   -2.432478
 pspatm: atomic psp has been read  and splines computed

- pspini: atom type   2  psp file is /scratch/users/j/a/jabreu/pseudos/PBEsol/Bi.psp8
- pspatm: opening atomic psp file    /scratch/users/j/a/jabreu/pseudos/PBEsol/Bi.psp8
- Bi    ONCVPSP-3.3.0  r_core=   2.42776   2.51622   2.10397
- 83.00000  15.00000    180112                znucl, zion, pspdat
    8 -116133    2    4       600   0.00000   pspcod,pspxc,lmax,lloc,mmax,r2well
    5.99000000000000    6.00000000000000    0.00000000000000   rchrg,fchrg,qchrg
     nproj     2     2     2
     extension_switch     1
  pspatm : epsatm=   42.90078186
         --- l  ekb(1:nproj) -->
             0    6.017688    0.961606
             1    4.379371    0.528498
             2   -3.458170   -0.753782
 pspatm: atomic psp has been read  and splines computed

- pspini: atom type   3  psp file is /scratch/users/j/a/jabreu/pseudos/PBEsol/O.psp8
- pspatm: opening atomic psp file    /scratch/users/j/a/jabreu/pseudos/PBEsol/O.psp8
- O     ONCVPSP-3.3.0  r_core=   1.35509   1.45563   1.26150
-  8.00000   6.00000    180112                znucl, zion, pspdat
    8 -116133    2    4       600   0.00000   pspcod,pspxc,lmax,lloc,mmax,r2well
    5.99000000000000    4.00000000000000    0.00000000000000   rchrg,fchrg,qchrg
     nproj     2     2     1
     extension_switch     1
  pspatm : epsatm=    6.22910522
         --- l  ekb(1:nproj) -->
             0    6.050032    0.820363
             1   -4.739617   -1.153841
             2   -1.335834
 pspatm: atomic psp has been read  and splines computed

   1.11576408E+04                                ecore*ucvol(ha*bohr**3)

-inwffil : will read wavefunctions from disk file /scratch/users/j/a/jabreu/flow_simple_8atoms/flow/w388/t1/indata/in_WFK

 ==>  initialize data related to q vector <==

 The list of irreducible perturbations for this q vector is:
    1)    idir= 1    ipert=   9
    2)    idir= 2    ipert=   9
    3)    idir= 3    ipert=   9

 Perturbation wavevector (in red.coord.)   0.000000  0.000000  0.000000
 Perturbation : derivative vs k along direction   1

 dfpt_looppert : COMMENT -
  In a d/dk calculation, iscf is set to -3 automatically.
 The set of symmetries contains only one element for this perturbation.
 symkpt : not enough symmetry to change the number of k points.

[...]

 Initialisation of the first-order wave-functions :
  ireadwf=   0

--- !BeginCycle
iteration_state: {dtset: 1, }
solver: {iscf: 7, nstep: 2000, nline: 4, wfoptalg: 0, }
tolerances: {tolwfr: 1.00E-20, }
...

     iter   2DEtotal(Ha)        deltaE(Ha) residm    vres2
-ETOT  1  -41.324251382075     -4.132E+01 5.861E-02 0.000E+00
 ETOT  2  -41.382840278565     -5.859E-02 3.820E-03 0.000E+00
 ETOT  3  -41.384286612754     -1.446E-03 1.739E-04 0.000E+00
 ETOT  4  -41.384384780707     -9.817E-05 3.368E-05 0.000E+00
 ETOT  5  -41.384392751197     -7.970E-06 4.905E-06 0.000E+00
 ETOT  6  -41.384393454667     -7.035E-07 1.055E-06 0.000E+00
 ETOT  7  -41.384393519134     -6.447E-08 1.627E-07 0.000E+00
 ETOT  8  -41.384393525285     -6.151E-09 3.882E-08 0.000E+00
 ETOT  9  -41.384393525886     -6.013E-10 5.494E-09 0.000E+00
 ETOT 10  -41.384393525947     -6.018E-11 1.452E-09 0.000E+00
 ETOT 11  -41.384393525953     -6.125E-12 1.972E-10 0.000E+00
 ETOT 12  -41.384393525953     -6.466E-13 5.481E-11 0.000E+00
 ETOT 13  -41.384393525953     -5.684E-14 7.508E-12 0.000E+00
 ETOT 14  -41.384393525953     -1.421E-14 2.086E-12 0.000E+00
 ETOT 15  -41.384393525953      2.132E-14 2.877E-13 0.000E+00
 ETOT 16  -41.384393525953      0.000E+00 7.995E-14 0.000E+00
 ETOT 17  -41.384393525953      1.421E-14 1.108E-14 0.000E+00
 ETOT 18  -41.384393525953     -1.421E-14 3.082E-15 0.000E+00
 ETOT 19  -41.384393525953      1.421E-14 4.284E-16 0.000E+00
 ETOT 20  -41.384393525953      0.000E+00 1.194E-16 0.000E+00
 ETOT 21  -41.384393525953     -1.421E-14 1.663E-17 0.000E+00
 ETOT 22  -41.384393525953     -7.105E-15 4.646E-18 0.000E+00
 ETOT 23  -41.384393525953      7.105E-15 6.474E-19 0.000E+00
 ETOT 24  -41.384393525953      1.421E-14 1.815E-19 0.000E+00
 ETOT 25  -41.384393525953     -1.421E-14 2.527E-20 0.000E+00
 ETOT 26  -41.384393525953      1.421E-14 9.817E-21 0.000E+00

 At SCF step   26   max residual=  9.82E-21 < tolwfr=  1.00E-20 =>converged.

 ----iterations are completed or convergence reached----

 dfpt_looppert: DFPT cycle converged with prtwf=-1. Will skip output of the 1st-order WFK file.
 dfpt_looppert : ek2=    5.2060313859E+01
          f-sum rule ratio=    1.0159321073E+00
 prteigrs : about to open file /scratch/users/j/a/jabreu/flow_simple_8atoms/flow/w388/t1/tmpdata/tmp_1WF1_EIG
 Expectation of eigenvalue derivatives (hartree) for nkpt=   2  k points:
  (in case of degenerate eigenvalues, averaged derivative)
 kpt#   1, nband= 45, wtk=  0.50000, kpt=  0.5000 -0.5000  0.0000 (reduced coord)
  -0.00000    0.00000   -0.00000    0.00000    0.00000   -0.00000   -0.00000   -0.00000
   0.00000    0.00000   -0.00000    0.00000   -0.00000    0.00000   -0.00000   -0.00000
   0.00000   -0.00000    0.00000    0.00000    0.00000   -0.00000    0.00000    0.00000
   0.00000   -0.00000   -0.00000   -0.00000   -0.00000   -0.00000    0.00000    0.00000
  -0.00000    0.00000    0.00000   -0.00000   -0.00000   -0.00000    0.00000   -0.00000
  -0.00000   -0.00000    0.00000   -0.00000    0.00009
 prteigrs : prtvol=0 or 1, do not print more k-points.

 Eight components of 2nd-order total energy (hartree) are
 1,2,3: 0th-order hamiltonian combined with 1st-order wavefunctions
     kin0=   5.18484773E+01 eigvalue=   4.99822362E+00  local=  -2.76248721E+01
 4,5,6: 1st-order hamiltonian combined with 1st and 0th-order wfs
     kin1=  -5.28897444E+01  Hartree=   0.00000000E+00     xc=   0.00000000E+00
 7,8,9: eventually, occupation + non-local contributions
    edocc=   6.85642647E+00     enl0=   5.30613830E+00   enl1=  -2.98790427E+01
 1-9 gives the relaxation energy (to be shifted if some occ is /=2.0)
   erelax=  -4.13843935E+01
  No Ewald or frozen-wf contrib.: the relaxation energy is the total one
 2DEtotal=   -0.4138439353E+02 Ha. Also 2DEtotal=   -0.112612661805E+04 eV
    (  non-var. 2DEtotal :   -4.1384393526E+01 Ha)

 Perturbation wavevector (in red.coord.)   0.000000  0.000000  0.000000
 Perturbation : derivative vs k along direction   2
 The set of symmetries contains only one element for this perturbation.
 symkpt : not enough symmetry to change the number of k points.

[...]

 Perturbation wavevector (in red.coord.)   0.000000  0.000000  0.000000
 Perturbation : derivative vs k along direction   3
 The set of symmetries contains only one element for this perturbation.
 symkpt : not enough symmetry to change the number of k points.

-inwffil : will read wavefunctions from disk file /scratch/users/j/a/jabreu/flow_simple_8atoms/flow/w388/t1/indata/in_WFK

 Initialisation of the first-order wave-functions :
  ireadwf=   0

--- !BeginCycle
iteration_state: {dtset: 1, }
solver: {iscf: 7, nstep: 2000, nline: 4, wfoptalg: 0, }
tolerances: {tolwfr: 1.00E-20, }
...

     iter   2DEtotal(Ha)        deltaE(Ha) residm    vres2
-ETOT  1  -49.990344979080     -4.999E+01 4.008E-02 0.000E+00
 ETOT  2  -50.059920694421     -6.958E-02 1.675E-03 0.000E+00
 ETOT  3  -50.061307776126     -1.387E-03 1.849E-04 0.000E+00
 ETOT  4  -50.061399397656     -9.162E-05 1.911E-05 0.000E+00
 ETOT  5  -50.061406822731     -7.425E-06 3.992E-06 0.000E+00
 ETOT  6  -50.061407490197     -6.675E-07 5.699E-07 0.000E+00
 ETOT  7  -50.061407553113     -6.292E-08 9.917E-08 0.000E+00
 ETOT  8  -50.061407559281     -6.168E-09 1.832E-08 0.000E+00
 ETOT  9  -50.061407559902     -6.212E-10 2.672E-09 0.000E+00
 ETOT 10  -50.061407559966     -6.396E-11 6.044E-10 0.000E+00
 ETOT 11  -50.061407559973     -6.750E-12 8.851E-11 0.000E+00
 ETOT 12  -50.061407559974     -7.034E-13 2.021E-11 0.000E+00
 ETOT 13  -50.061407559974     -6.395E-14 2.969E-12 0.000E+00
 ETOT 14  -50.061407559974     -1.421E-14 6.814E-13 0.000E+00
 ETOT 15  -50.061407559974     -1.421E-14 1.004E-13 0.000E+00
 ETOT 16  -50.061407559974      2.132E-14 2.309E-14 0.000E+00
 ETOT 17  -50.061407559974     -2.842E-14 3.411E-15 0.000E+00
 ETOT 18  -50.061407559974      7.105E-15 7.849E-16 0.000E+00
 ETOT 19  -50.061407559974      2.132E-14 1.163E-16 0.000E+00
 ETOT 20  -50.061407559974     -3.553E-14 2.675E-17 0.000E+00
 ETOT 21  -50.061407559974      0.000E+00 3.978E-18 0.000E+00
 ETOT 22  -50.061407559974      0.000E+00 9.132E-19 0.000E+00
 ETOT 23  -50.061407559974      0.000E+00 1.363E-19 0.000E+00
 ETOT 24  -50.061407559974      1.421E-14 3.122E-20 0.000E+00
 ETOT 25  -50.061407559974      7.105E-15 9.963E-21 0.000E+00

 At SCF step   25   max residual=  9.96E-21 < tolwfr=  1.00E-20 =>converged.

 ----iterations are completed or convergence reached----

 dfpt_looppert: DFPT cycle converged with prtwf=-1. Will skip output of the 1st-order WFK file.
 dfpt_looppert : ek2=    6.3209502033E+01
          f-sum rule ratio=    1.0144117015E+00
 prteigrs : about to open file /scratch/users/j/a/jabreu/flow_simple_8atoms/flow/w388/t1/tmpdata/tmp_1WF1_EIG
 Expectation of eigenvalue derivatives (hartree) for nkpt=   2  k points:
  (in case of degenerate eigenvalues, averaged derivative)
 kpt#   1, nband= 45, wtk=  0.50000, kpt=  0.5000 -0.5000  0.0000 (reduced coord)
   0.00000   -0.00000   -0.00000   -0.00000   -0.00000   -0.00000    0.00000   -0.00000
   0.00000   -0.00000   -0.00000   -0.00000    0.00000   -0.00000    0.00000    0.00000
  -0.00000    0.00000    0.00000    0.00000   -0.00000   -0.00000    0.00000   -0.00000
  -0.00000   -0.00000   -0.00000   -0.00000   -0.00000    0.00000    0.00000    0.00000
  -0.00000    0.00000   -0.00000   -0.00000    0.00000   -0.00000   -0.00000    0.00000
   0.00000    0.00000    0.00001    0.00000    0.00001
 prteigrs : prtvol=0 or 1, do not print more k-points.

 Eight components of 2nd-order total energy (hartree) are
 1,2,3: 0th-order hamiltonian combined with 1st-order wavefunctions
     kin0=   6.52322134E+01 eigvalue=   5.83082735E+00  local=  -3.55308236E+01
 4,5,6: 1st-order hamiltonian combined with 1st and 0th-order wfs
     kin1=  -6.41204585E+01  Hartree=   0.00000000E+00     xc=   0.00000000E+00
 7,8,9: eventually, occupation + non-local contributions
    edocc=   7.75565803E+00     enl0=   6.77353234E+00   enl1=  -3.60023566E+01
 1-9 gives the relaxation energy (to be shifted if some occ is /=2.0)
   erelax=  -5.00614076E+01
  No Ewald or frozen-wf contrib.: the relaxation energy is the total one
 2DEtotal=   -0.5006140756E+02 Ha. Also 2DEtotal=   -0.136224017769E+04 eV
    (  non-var. 2DEtotal :   -5.0061407560E+01 Ha)

 CALCULATION OF EFFECTIVE MASSES
 NOTE : Additional infos (eff. mass eigenvalues, eigenvectors and, if degenerate, average mass) are available in stdout.

 K-point ( 0.500,-0.500, 0.000) | band =    36
 Effective mass tensor:
             -4.4833077816             -1.4208150036              1.7914561758
             -1.4208150036             -5.2987614432              2.3771323254
              1.7914561758              2.3771323254             -2.8539841038
 Effective mass tensor eigenvalues:
             -8.0683578602             -3.4128748483             -1.1548206202
 Angular average effective mass 1/(<1/m>)=  -2.3384803500
 Angular average effective mass for Frohlich model (<m**0.5>)**2=  -2.7981683639
 Effective masses along directions: (cart. coord. / red. coord. -> eff. mass)
    1:   1.000000  0.000000  0.000000 /   0.964088 -0.265584  0.000000 ->  -3.3572716173
    2:   0.000000  1.000000  0.000000 /   0.000000  1.000000  0.000000 ->  -3.3172927723
    3:   0.000000  0.000000  1.000000 /   0.333530  0.333530  0.881768 ->  -1.4629018277
    4:   0.577350  0.577350  0.577350 /   0.680455  0.527164  0.508998 ->  -1.3695576474
    5:   0.000000  0.707107  0.707107 /   0.224750  0.772294  0.594180 ->  -1.3375904127
    6:   0.707107  0.000000  0.707107 /   0.798892  0.068232  0.597591 ->  -1.4640930863
    7:   0.707107  0.707107  0.000000 /   0.824684  0.565594  0.000000 ->  -3.2673688316

 K-point ( 0.430, 0.430, 0.101) | band =    37
 Effective mass tensor:
              0.9375066374             -0.0106562282              0.0590473357
             -0.0106562282              0.9313970731              0.0783540455
              0.0590473357              0.0783540455              0.6295178118
 Effective mass tensor eigenvalues:
              0.5997709653              0.9455372913              0.9531132657
 Angular average effective mass 1/(<1/m>)=   0.7948923169
 Angular average effective mass for Frohlich model (<m**0.5>)**2=   0.8069435342
 Effective masses along directions: (cart. coord. / red. coord. -> eff. mass)
    1:   1.000000  0.000000  0.000000 /   0.964088 -0.265584  0.000000 ->   0.9316163653
    2:   0.000000  1.000000  0.000000 /   0.000000  1.000000  0.000000 ->   0.9212967285
    3:   0.000000  0.000000  1.000000 /   0.333530  0.333530  0.881768 ->   0.6190929750
    4:   0.577350  0.577350  0.577350 /   0.680455  0.527164  0.508998 ->   0.8994643993
    5:   0.000000  0.707107  0.707107 /   0.224750  0.772294  0.594180 ->   0.8242121052
    6:   0.707107  0.000000  0.707107 /   0.798892  0.068232  0.597591 ->   0.8057746072
    7:   0.707107  0.707107  0.000000 /   0.824684  0.565594  0.000000 ->   0.9087725060

 END OF EFFECTIVE MASSES SECTION

 ---- first-order wavefunction calculations are completed ----

 Total localisation tensor (bohr^2) in cartesian coordinates
  WARNING : still subject to testing - especially symmetries.
      direction              matrix element
   alpha     beta       real part   imaginary part
     1        1       1.1731164964    0.0000000000
     1        2      -0.2887518962    0.0000000000
     1        3       0.3117222540    0.0000000000
     2        1      -0.2887518962    0.0000000000
     2        2       1.0076313835    0.0000000000
     2        3       0.4136014859    0.0000000000
     3        1       0.3117222540    0.0000000000
     3        2       0.4136014859    0.0000000000
     3        3       1.8345468352    0.0000000000

 respfn : d/dk was computed, but no 2DTE, so no DDB output.

== END DATASET(S) ==============================================================

 -outvars: echo values of variables after computation  --------
            acell      1.0000000000E+00  1.0000000000E+00  1.0000000000E+00 Bohr
              amu      1.32905430E+02  2.08980370E+02  1.59994000E+01
             ecut      4.40000000E+01 Hartree
           etotal     -5.0061407560E+01
            fcart      0.0000000000E+00  0.0000000000E+00  0.0000000000E+00
                       0.0000000000E+00  0.0000000000E+00  0.0000000000E+00
                       0.0000000000E+00  0.0000000000E+00  0.0000000000E+00
                       0.0000000000E+00  0.0000000000E+00  0.0000000000E+00
                       0.0000000000E+00  0.0000000000E+00  0.0000000000E+00
                       0.0000000000E+00  0.0000000000E+00  0.0000000000E+00
                       0.0000000000E+00  0.0000000000E+00  0.0000000000E+00
                       0.0000000000E+00  0.0000000000E+00  0.0000000000E+00
-          fftalg         512
           irdden           1
           irdwfk           1
              ixc     -116133
              kpt      5.00000000E-01 -5.00000000E-01  0.00000000E+00
                       4.30322595E-01  4.30322595E-01  1.01288165E-01
           kptopt           0
P           mkmem           2
P          mkqmem           2
P          mk1mem           2
            natom           8
            nband          45
           nbdbuf           4
            ngfft          72      72      72
             nkpt           2
            nstep        2000
             nsym           4
           ntypat           3
              occ      2.000000  2.000000  2.000000  2.000000  2.000000  2.000000
                       2.000000  2.000000  2.000000  2.000000  2.000000  2.000000
                       2.000000  2.000000  2.000000  2.000000  2.000000  2.000000
                       2.000000  2.000000  2.000000  2.000000  2.000000  2.000000
                       2.000000  2.000000  2.000000  2.000000  2.000000  2.000000
                       2.000000  2.000000  2.000000  2.000000  2.000000  2.000000
                       0.000000  0.000000  0.000000  0.000000  0.000000  0.000000
                       0.000000  0.000000  0.000000
        optdriver           1
            prtwf          -1
            rfdir           1       1       1
           rfelfd           2
            rprim      1.0870395260E+01  0.0000000000E+00  4.2893168461E+00
                      -2.9945452693E+00  1.0449793861E+01  4.2893168461E+00
                       0.0000000000E+00  0.0000000000E+00  1.1339845455E+01
          spgroup          15
           strten      0.0000000000E+00  0.0000000000E+00  0.0000000000E+00
                       0.0000000000E+00  0.0000000000E+00  0.0000000000E+00
           symrel      1  0  0   0  1  0   0  0  1      -1  0  0   0 -1  0   0  0 -1
                       0 -1  0  -1  0  0   0  0 -1       0  1  0   1  0  0   0  0  1
            tnons      0.0000000  0.0000000  0.0000000     0.0000000  0.0000000 -0.0000000
                       0.0000000  0.0000000  0.5000000    -0.0000000  0.0000000  0.5000000
           tolwfr      1.00000000E-20
            typat      1  1  2  2  3  3  3  3
           useylm           1
              wtk        0.50000    0.50000
           xangst      3.1191123420E+00  1.9846426165E+00  3.7700056563E+00
                       1.0486079714E+00  3.5451501294E+00  6.7703995382E+00
                       5.1038910817E+00  4.8874520205E-01  6.7703995382E+00
                      -9.3617076822E-01  5.0410475438E+00  3.7700056563E+00
                       1.1509573036E+00  6.9158905955E-01  5.5605608437E+00
                       3.8199528892E+00  4.2328517446E+00  7.9802382327E+00
                       3.4776742426E-01  1.2969410012E+00  2.5601669618E+00
                       3.0167630098E+00  4.8382036863E+00  4.9798443508E+00
            xcart      5.8942681042E+00  3.7504310168E+00  7.1242782099E+00
                       1.9815818867E+00  6.6993628445E+00  1.2794200937E+01
                       9.6449563564E+00  9.2359458064E-01  1.2794200937E+01
                      -1.7691063655E+00  9.5261992807E+00  7.1242782099E+00
                       2.1749940945E+00  1.3069139191E+00  1.0507937140E+01
                       7.2186648011E+00  7.9989305585E+00  1.5080464735E+01
                       6.5718518979E-01  2.4508633028E+00  4.8380144123E+00
                       5.7008558964E+00  9.1428799422E+00  9.4105420075E+00
             xred      6.4110000000E-01  3.5890000000E-01  2.5000000000E-01
                       3.5890000000E-01  6.4110000000E-01  7.5000000000E-01
                       9.1161600000E-01  8.8384000000E-02  7.5000000000E-01
                       8.8384000000E-02  9.1161600000E-01  2.5000000000E-01
                       2.3453700000E-01  1.2506600000E-01  7.9061800000E-01
                       8.7493400000E-01  7.6546300000E-01  7.0938200000E-01
                       1.2506600000E-01  2.3453700000E-01  2.9061800000E-01
                       7.6546300000E-01  8.7493400000E-01  2.0938200000E-01
            znucl       55.00000   83.00000    8.00000

- Timing analysis has been suppressed with timopt=0

 Suggested references for the acknowledgment of ABINIT usage.

 Calculation completed.
.Delivered  14 WARNINGs and   9 COMMENTs to log file.