.Version 9.5.1 of ABINIT

 ABINIT is a project of the Universite Catholique de Louvain,
 Corning Inc. and other collaborators, see ~abinit/doc/developers/contributors.txt .
 acknowledgments of the ABINIT effort.

.Starting date : Tue  4 May 2021.
- ( at 19h14 )

- input  file    -> /scratch/users/j/a/jabreu/flow_simple_6atoms/flow/w165/t1/run.abi
- output file    -> /scratch/users/j/a/jabreu/flow_simple_6atoms/flow/w165/t1/run.abo
- root for input  files -> /scratch/users/j/a/jabreu/flow_simple_6atoms/flow/w165/t1/indata/in
- root for output files -> /scratch/users/j/a/jabreu/flow_simple_6atoms/flow/w165/t1/outdata/out

 Symmetries : space group P4/n m m (#129); Bravais tP (primitive tetrag.)
     intxc =       0      iscf =       7    lmnmax =      18     lnmax =       6
     mgfft =      75  mpssoang =       3    mqgrid =    3645     natom =       6
  nloc_mem =       1    nspden =       1   nspinor =       1    nsppol =       1
      nsym =      16    n1xccc =    2501    ntypat =       3    occopt =       1
   xclevel =       2
-    mband =          27        mffmem =           1         mkmem =           2
-   mkqmem =           2        mk1mem =           2           mpw =        8852
      nfft =      151875          nkpt =           2
  Rough estimation (10% accuracy) of disk space for files :

------------- Echo of variables that govern the present computation ------------
-
- outvars: echo of selected default values
-   iomode0 =  0 , fftalg0 =512 , wfoptalg0 =  0
-
- outvars: echo of global parameters not present in the input file
-  max_nthreads =    0
-
 -outvars: echo values of preprocessed input variables --------
            acell      1.0000000000E+00  1.0000000000E+00  1.0000000000E+00 Bohr
              amu      8.76200000E+01  1.00794000E+00  3.54527000E+01
             ecut      3.90000000E+01 Hartree
-          fftalg         512
           irdden           1
           irdwfk           1
           istwfk        0    1
              ixc     -116133
              kpt      1.21212121E-01  1.21212121E-01  5.00000000E-01
                       0.00000000E+00  3.08148791E-33  5.00000000E-01
           kptopt           0
P           mkmem           2
P          mkqmem           2
P          mk1mem           2
            natom           6
            nband          27
           nbdbuf           4
            ngfft          45      45      75
             nkpt           2
            nstep        1000
             nsym          16
           ntypat           3
              occ      2.000000  2.000000  2.000000  2.000000  2.000000  2.000000
                       2.000000  2.000000  2.000000  2.000000  2.000000  2.000000
                       2.000000  2.000000  2.000000  2.000000  2.000000  2.000000
                       0.000000  0.000000  0.000000  0.000000  0.000000  0.000000
                       0.000000  0.000000  0.000000
        optdriver           1
            prtwf          -1
            rfdir           1       1       1
           rfelfd           2
            rprim      7.6582011971E+00  0.0000000000E+00  0.0000000000E+00
                       0.0000000000E+00  7.6582011971E+00  0.0000000000E+00
                       0.0000000000E+00  0.0000000000E+00  1.2965697631E+01
          spgroup         129
           symrel      1  0  0   0  1  0   0  0  1      -1  0  0   0 -1  0   0  0 -1
                      -1  0  0   0  1  0   0  0 -1       1  0  0   0 -1  0   0  0  1
                      -1  0  0   0 -1  0   0  0  1       1  0  0   0  1  0   0  0 -1
                       1  0  0   0 -1  0   0  0 -1      -1  0  0   0  1  0   0  0  1
                       0  1  0   1  0  0   0  0  1       0 -1  0  -1  0  0   0  0 -1
                       0 -1  0   1  0  0   0  0 -1       0  1  0  -1  0  0   0  0  1
                       0 -1  0  -1  0  0   0  0  1       0  1  0   1  0  0   0  0 -1
                       0  1  0  -1  0  0   0  0 -1       0 -1  0   1  0  0   0  0  1
            tnons      0.0000000  0.0000000  0.0000000     0.5000000  0.5000000  0.0000000
                       0.5000000  0.5000000  0.0000000     0.0000000  0.0000000  0.0000000
                       0.0000000  0.0000000  0.0000000     0.5000000  0.5000000  0.0000000
                       0.5000000  0.5000000  0.0000000     0.0000000  0.0000000  0.0000000
                       0.5000000  0.5000000  0.0000000     0.0000000  0.0000000  0.0000000
                       0.0000000  0.0000000  0.0000000     0.5000000  0.5000000  0.0000000
                       0.5000000  0.5000000  0.0000000     0.0000000  0.0000000  0.0000000
                       0.0000000  0.0000000  0.0000000     0.5000000  0.5000000  0.0000000
           tolwfr      1.00000000E-20
            typat      1  1  2  2  3  3
           useylm           1
              wtk        0.50000    0.50000
           xangst      0.0000000000E+00  2.0262727662E+00  5.4686946689E+00
                       2.0262727662E+00  0.0000000000E+00  1.3924570112E+00
                       2.0262727662E+00  2.0262727662E+00  0.0000000000E+00
                       0.0000000000E+00  0.0000000000E+00  0.0000000000E+00
                       2.0262727662E+00  0.0000000000E+00  4.4600161769E+00
                       0.0000000000E+00  2.0262727662E+00  2.4011355031E+00
            xcart      0.0000000000E+00  3.8291005986E+00  1.0334335229E+01
                       3.8291005986E+00  0.0000000000E+00  2.6313624029E+00
                       3.8291005986E+00  3.8291005986E+00  0.0000000000E+00
                       0.0000000000E+00  0.0000000000E+00  0.0000000000E+00
                       3.8291005986E+00  0.0000000000E+00  8.4282091226E+00
                       0.0000000000E+00  3.8291005986E+00  4.5374885088E+00
             xred      0.0000000000E+00  5.0000000000E-01  7.9705200000E-01
                       5.0000000000E-01  0.0000000000E+00  2.0294800000E-01
                       5.0000000000E-01  5.0000000000E-01  0.0000000000E+00
                       0.0000000000E+00  0.0000000000E+00  0.0000000000E+00
                       5.0000000000E-01  0.0000000000E+00  6.5003900000E-01
                       0.0000000000E+00  5.0000000000E-01  3.4996100000E-01
            znucl       38.00000    1.00000   17.00000

 chkinp: Checking input parameters for consistency.

== DATASET  1 ==================================================================
-   mpi_nproc: 1, omp_nthreads: -1 (-1 if OMP is not activated)

--- !DatasetInfo
iteration_state: {dtset: 1, }
dimensions: {natom: 6, nkpt: 2, mband: 27, nsppol: 1, nspinor: 1, nspden: 1, mpw: 8852, }
cutoff_energies: {ecut:  39.0, pawecutdg:  -1.0, }
electrons: {nelect:   3.60000000E+01, charge:   0.00000000E+00, occopt:   1.00000000E+00, tsmear:   1.00000000E-02, }
meta: {optdriver: 1, rfelfd: 2, }
...

 Real(R)+Recip(G) space primitive vectors, cartesian coordinates (Bohr,Bohr^-1):
 R(1)=  7.6582012  0.0000000  0.0000000  G(1)=  0.1305790  0.0000000  0.0000000
 R(2)=  0.0000000  7.6582012  0.0000000  G(2)=  0.0000000  0.1305790  0.0000000
 R(3)=  0.0000000  0.0000000 12.9656976  G(3)=  0.0000000  0.0000000  0.0771266
 Unit cell volume ucvol=  7.6041283E+02 bohr^3
 Angles (23,13,12)=  9.00000000E+01  9.00000000E+01  9.00000000E+01 degrees

 getcut: wavevector=  0.0000  0.0000  0.0000  ngfft=  45  45  75
         ecut(hartree)=     39.000   => boxcut(ratio)=   2.03020

--- Pseudopotential description ------------------------------------------------
- pspini: atom type   1  psp file is /scratch/users/j/a/jabreu/pseudos/PBEsol/Sr.psp8
- pspatm: opening atomic psp file    /scratch/users/j/a/jabreu/pseudos/PBEsol/Sr.psp8
- Sr    ONCVPSP-3.3.0  r_core=   1.66721   1.31335   1.51547
- 38.00000  10.00000    180112                znucl, zion, pspdat
    8 -116133    2    4       600   0.00000   pspcod,pspxc,lmax,lloc,mmax,r2well
    5.99000000000000    6.00000000000000    0.00000000000000   rchrg,fchrg,qchrg
     nproj     2     2     2
     extension_switch     1
  pspatm : epsatm=   12.46450977
         --- l  ekb(1:nproj) -->
             0   10.029206    1.044171
             1    7.472414    1.670829
             2    4.142950    0.968140
 pspatm: atomic psp has been read  and splines computed

- pspini: atom type   2  psp file is /scratch/users/j/a/jabreu/pseudos/PBEsol/H.psp8
- pspatm: opening atomic psp file    /scratch/users/j/a/jabreu/pseudos/PBEsol/H.psp8
- H     ONCVPSP-3.3.0  r_core=   1.00957   0.70586
-  1.00000   1.00000    180112                znucl, zion, pspdat
    8 -116133    1    4       300   0.00000   pspcod,pspxc,lmax,lloc,mmax,r2well
    2.99000000000000    0.00000000000000    0.00000000000000   rchrg,fchrg,qchrg
     nproj     2     1
     extension_switch     1
  pspatm : epsatm=    0.35627032
         --- l  ekb(1:nproj) -->
             0   -1.674911   -0.523609
             1   -0.494138
 pspatm: atomic psp has been read  and splines computed

- pspini: atom type   3  psp file is /scratch/users/j/a/jabreu/pseudos/PBEsol/Cl.psp8
- pspatm: opening atomic psp file    /scratch/users/j/a/jabreu/pseudos/PBEsol/Cl.psp8
- Cl    ONCVPSP-3.3.0  r_core=   1.56009   1.35202   1.75774
- 17.00000   7.00000    180112                znucl, zion, pspdat
    8 -116133    2    4       600   0.00000   pspcod,pspxc,lmax,lloc,mmax,r2well
    5.99000000000000    8.00000000000000    0.00000000000000   rchrg,fchrg,qchrg
     nproj     2     2     2
     extension_switch     1
  pspatm : epsatm=    8.95520722
         --- l  ekb(1:nproj) -->
             0    8.193503    0.707970
             1    3.869736    1.114731
             2   -2.915303   -0.810552
 pspatm: atomic psp has been read  and splines computed

   1.56787109E+03                                ecore*ucvol(ha*bohr**3)

-inwffil : will read wavefunctions from disk file /scratch/users/j/a/jabreu/flow_simple_6atoms/flow/w165/t1/indata/in_WFK

 ==>  initialize data related to q vector <==

 The list of irreducible perturbations for this q vector is:
    1)    idir= 1    ipert=   7
    2)    idir= 2    ipert=   7
    3)    idir= 3    ipert=   7

 Perturbation wavevector (in red.coord.)   0.000000  0.000000  0.000000
 Perturbation : derivative vs k along direction   1

 dfpt_looppert : COMMENT -
  In a d/dk calculation, iscf is set to -3 automatically.
 The set of symmetries contains only one element for this perturbation.
 symkpt : not enough symmetry to change the number of k points.

[...]

 Initialisation of the first-order wave-functions :
  ireadwf=   0

--- !BeginCycle
iteration_state: {dtset: 1, }
solver: {iscf: 7, nstep: 1000, nline: 4, wfoptalg: 0, }
tolerances: {tolwfr: 1.00E-20, }
...

     iter   2DEtotal(Ha)        deltaE(Ha) residm    vres2
-ETOT  1  -25.955781412128     -2.596E+01 1.506E-01 0.000E+00
 ETOT  2  -25.969717777885     -1.394E-02 1.063E-02 0.000E+00
 ETOT  3  -25.969750260324     -3.248E-05 1.056E-03 0.000E+00
 ETOT  4  -25.969750362494     -1.022E-07 2.027E-04 0.000E+00
 ETOT  5  -25.969750362858     -3.643E-10 1.349E-05 0.000E+00
 ETOT  6  -25.969750362859     -1.332E-12 2.756E-06 0.000E+00
 ETOT  7  -25.969750362859     -2.132E-14 3.566E-07 0.000E+00
 ETOT  8  -25.969750362859      7.105E-15 1.232E-07 0.000E+00
 ETOT  9  -25.969750362859      0.000E+00 1.594E-08 0.000E+00
 ETOT 10  -25.969750362859      3.553E-15 5.666E-09 0.000E+00
 ETOT 11  -25.969750362859      0.000E+00 7.357E-10 0.000E+00
 ETOT 12  -25.969750362859      0.000E+00 2.614E-10 0.000E+00
 ETOT 13  -25.969750362859      0.000E+00 3.401E-11 0.000E+00
 ETOT 14  -25.969750362859      0.000E+00 1.208E-11 0.000E+00
 ETOT 15  -25.969750362859      0.000E+00 1.573E-12 0.000E+00
 ETOT 16  -25.969750362859     -3.553E-15 5.584E-13 0.000E+00
 ETOT 17  -25.969750362859      3.553E-15 7.283E-14 0.000E+00
 ETOT 18  -25.969750362859     -3.553E-15 2.583E-14 0.000E+00
 ETOT 19  -25.969750362859      3.553E-15 3.373E-15 0.000E+00
 ETOT 20  -25.969750362859      0.000E+00 1.195E-15 0.000E+00
 ETOT 21  -25.969750362859      0.000E+00 1.562E-16 0.000E+00
 ETOT 22  -25.969750362859      0.000E+00 5.533E-17 0.000E+00
 ETOT 23  -25.969750362859      0.000E+00 7.239E-18 0.000E+00
 ETOT 24  -25.969750362859     -3.553E-15 2.562E-18 0.000E+00
 ETOT 25  -25.969750362859      0.000E+00 3.355E-19 0.000E+00
 ETOT 26  -25.969750362859      3.553E-15 1.187E-19 0.000E+00
 ETOT 27  -25.969750362859      0.000E+00 1.555E-20 0.000E+00
 ETOT 28  -25.969750362859     -3.553E-15 9.099E-21 0.000E+00

 At SCF step   28   max residual=  9.10E-21 < tolwfr=  1.00E-20 =>converged.

 ----iterations are completed or convergence reached----

 dfpt_looppert: DFPT cycle converged with prtwf=-1. Will skip output of the 1st-order WFK file.
 dfpt_looppert : ek2=    4.8466168644E+01
          f-sum rule ratio=    1.1042882527E+00
 prteigrs : about to open file /scratch/users/j/a/jabreu/flow_simple_6atoms/flow/w165/t1/tmpdata/tmp_1WF1_EIG
 Expectation of eigenvalue derivatives (hartree) for nkpt=   2  k points:
  (in case of degenerate eigenvalues, averaged derivative)
 kpt#   1, nband= 27, wtk=  0.50000, kpt=  0.1212  0.1212  0.5000 (reduced coord)
   0.00144    0.00049   -0.01069   -0.01482   -0.01547   -0.01013    0.00597   -0.00698
   0.01765    0.02793   -0.01672    0.01185   -0.04552    0.05527   -0.09083   -0.02890
  -0.02338    0.00117    0.15990    0.15430   -0.04113    0.00120   -0.06644   -0.03163
  -0.03995    0.01113   -0.08755
 prteigrs : prtvol=0 or 1, do not print more k-points.

 Eight components of 2nd-order total energy (hartree) are
 1,2,3: 0th-order hamiltonian combined with 1st-order wavefunctions
     kin0=   2.28572647E+01 eigvalue=   5.04510860E-01  local=  -1.33075300E+01
 4,5,6: 1st-order hamiltonian combined with 1st and 0th-order wfs
     kin1=  -5.35206207E+01  Hartree=   0.00000000E+00     xc=   0.00000000E+00
 7,8,9: eventually, occupation + non-local contributions
    edocc=   1.34265966E+01     enl0=   2.48890813E+00   enl1=   1.58111996E+00
 1-9 gives the relaxation energy (to be shifted if some occ is /=2.0)
   erelax=  -2.59697504E+01
  No Ewald or frozen-wf contrib.: the relaxation energy is the total one
 2DEtotal=   -0.2596975036E+02 Ha. Also 2DEtotal=   -0.706672845872E+03 eV
    (  non-var. 2DEtotal :   -2.5969750363E+01 Ha)

 Perturbation wavevector (in red.coord.)   0.000000  0.000000  0.000000
 Perturbation : derivative vs k along direction   2
 The set of symmetries contains only one element for this perturbation.
 symkpt : not enough symmetry to change the number of k points.

[...]

 Perturbation wavevector (in red.coord.)   0.000000  0.000000  0.000000
 Perturbation : derivative vs k along direction   3
 The set of symmetries contains only one element for this perturbation.
 symkpt : not enough symmetry to change the number of k points.

-inwffil : will read wavefunctions from disk file /scratch/users/j/a/jabreu/flow_simple_6atoms/flow/w165/t1/indata/in_WFK

 Initialisation of the first-order wave-functions :
  ireadwf=   0

--- !BeginCycle
iteration_state: {dtset: 1, }
solver: {iscf: 7, nstep: 1000, nline: 4, wfoptalg: 0, }
tolerances: {tolwfr: 1.00E-20, }
...

     iter   2DEtotal(Ha)        deltaE(Ha) residm    vres2
-ETOT  1  -8.4803415024372     -8.480E+00 4.163E-02 0.000E+00
 ETOT  2  -8.4859915694034     -5.650E-03 1.859E-03 0.000E+00
 ETOT  3  -8.4860079105439     -1.634E-05 9.903E-05 0.000E+00
 ETOT  4  -8.4860079750977     -6.455E-08 1.270E-05 0.000E+00
 ETOT  5  -8.4860079753840     -2.863E-10 1.074E-06 0.000E+00
 ETOT  6  -8.4860079753854     -1.364E-12 1.448E-07 0.000E+00
 ETOT  7  -8.4860079753854     -1.776E-15 1.378E-08 0.000E+00
 ETOT  8  -8.4860079753854      3.553E-15 1.919E-09 0.000E+00
 ETOT  9  -8.4860079753854     -3.553E-15 1.876E-10 0.000E+00
 ETOT 10  -8.4860079753854      1.776E-15 2.673E-11 0.000E+00
 ETOT 11  -8.4860079753854      0.000E+00 2.626E-12 0.000E+00
 ETOT 12  -8.4860079753854      0.000E+00 3.797E-13 0.000E+00
 ETOT 13  -8.4860079753854      0.000E+00 3.765E-14 0.000E+00
 ETOT 14  -8.4860079753854      1.776E-15 5.454E-15 0.000E+00
 ETOT 15  -8.4860079753854      0.000E+00 5.542E-16 0.000E+00
 ETOT 16  -8.4860079753854      0.000E+00 7.880E-17 0.000E+00
 ETOT 17  -8.4860079753854     -3.553E-15 8.430E-18 0.000E+00
 ETOT 18  -8.4860079753854      5.329E-15 1.141E-18 0.000E+00
 ETOT 19  -8.4860079753854      0.000E+00 1.330E-19 0.000E+00
 ETOT 20  -8.4860079753854      1.776E-15 1.651E-20 0.000E+00
 ETOT 21  -8.4860079753854      1.776E-15 9.840E-21 0.000E+00

 At SCF step   21   max residual=  9.84E-21 < tolwfr=  1.00E-20 =>converged.

 ----iterations are completed or convergence reached----

 dfpt_looppert: DFPT cycle converged with prtwf=-1. Will skip output of the 1st-order WFK file.
 dfpt_looppert : ek2=    1.6908319841E+01
          f-sum rule ratio=    1.0322060856E+00
 prteigrs : about to open file /scratch/users/j/a/jabreu/flow_simple_6atoms/flow/w165/t1/tmpdata/tmp_1WF1_EIG
 Expectation of eigenvalue derivatives (hartree) for nkpt=   2  k points:
  (in case of degenerate eigenvalues, averaged derivative)
 kpt#   1, nband= 27, wtk=  0.50000, kpt=  0.1212  0.1212  0.5000 (reduced coord)
  -0.00000   -0.00000   -0.00000   -0.00000    0.00000    0.00000    0.00000    0.00000
   0.00000    0.00000   -0.00000    0.00000    0.00000    0.00000   -0.00000    0.00000
   0.00000    0.00000   -0.00000    0.00000    0.00000   -0.00000    0.00000   -0.00000
  -0.00000   -0.00000   -0.00001
 prteigrs : prtvol=0 or 1, do not print more k-points.

 Eight components of 2nd-order total energy (hartree) are
 1,2,3: 0th-order hamiltonian combined with 1st-order wavefunctions
     kin0=   9.92628206E+00 eigvalue=   2.58380852E-01  local=  -6.05332292E+00
 4,5,6: 1st-order hamiltonian combined with 1st and 0th-order wfs
     kin1=  -1.74528706E+01  Hartree=   0.00000000E+00     xc=   0.00000000E+00
 7,8,9: eventually, occupation + non-local contributions
    edocc=   3.20752875E+00     enl0=   1.14713923E+00   enl1=   4.80854687E-01
 1-9 gives the relaxation energy (to be shifted if some occ is /=2.0)
   erelax=  -8.48600798E+00
  No Ewald or frozen-wf contrib.: the relaxation energy is the total one
 2DEtotal=   -0.8486007975E+01 Ha. Also 2DEtotal=   -0.230916020457E+03 eV
    (  non-var. 2DEtotal :   -8.4860079753E+00 Ha)

 CALCULATION OF EFFECTIVE MASSES
 NOTE : Additional infos (eff. mass eigenvalues, eigenvectors and, if degenerate, average mass) are available in stdout.

 K-point ( 0.121, 0.121, 0.500) | band =    18
 Effective mass tensor:
            -40.6652873778             37.6239846773              0.0027909506
             37.6239846773            -40.6652840915             -0.0027493789
              0.0027909506             -0.0027493789             -4.6137034374
 Effective mass tensor eigenvalues:
            -78.2892706203             -4.6137032296             -3.0413010568
 Angular average effective mass 1/(<1/m>)=  -5.3732105265
 Angular average effective mass for Frohlich model (<m**0.5>)**2=  -7.1308591303
 Effective masses along directions: (cart. coord. / red. coord. -> eff. mass)
    1:   1.000000  0.000000  0.000000 /   1.000000  0.000000  0.000000 ->  -5.8551475949
    2:   0.000000  1.000000  0.000000 /   0.000000  1.000000  0.000000 ->  -5.8551471289
    3:   0.000000  0.000000  1.000000 /   0.000000  0.000000  1.000000 ->  -4.6137032411
    4:   0.577350  0.577350  0.577350 /   0.453310  0.453310  0.767476 ->  -3.4310620111
    5:   0.000000  0.707107  0.707107 /   0.000000  0.508565  0.861024 ->  -5.1609819683
    6:   0.707107  0.000000  0.707107 /   0.508565  0.000000  0.861024 ->  -5.1605736287
    7:   0.707107  0.707107  0.000000 /   0.707107  0.707107  0.000000 ->  -3.0413010572

 K-point ( 0.000, 0.000, 0.500) | band =    19
 Effective mass tensor:
              0.4630901829             -0.0000000000             -0.0000000002
             -0.0000000000              0.4630901829              0.0000000002
             -0.0000000002              0.0000000002              0.7337947479
 Effective mass tensor eigenvalues:
              0.4630901829              0.4630901829              0.7337947479
 Angular average effective mass 1/(<1/m>)=   0.5280210090
 Angular average effective mass for Frohlich model (<m**0.5>)**2=   0.5348715634
 Effective masses along directions: (cart. coord. / red. coord. -> eff. mass)
    1:   1.000000  0.000000  0.000000 /   1.000000  0.000000  0.000000 ->   0.4630901829
    2:   0.000000  1.000000  0.000000 /   0.000000  1.000000  0.000000 ->   0.4630901829
    3:   0.000000  0.000000  1.000000 /   0.000000  0.000000  1.000000 ->   0.7337947479
    4:   0.577350  0.577350  0.577350 /   0.453310  0.453310  0.767476 ->   0.5280210091
    5:   0.000000  0.707107  0.707107 /   0.000000  0.508565  0.861024 ->   0.5678292631
    6:   0.707107  0.000000  0.707107 /   0.508565  0.000000  0.861024 ->   0.5678292628
    7:   0.707107  0.707107  0.000000 /   0.707107  0.707107  0.000000 ->   0.4630901829

 END OF EFFECTIVE MASSES SECTION

 ---- first-order wavefunction calculations are completed ----

 Total localisation tensor (bohr^2) in cartesian coordinates
  WARNING : still subject to testing - especially symmetries.
      direction              matrix element
   alpha     beta       real part   imaginary part
     1        1       1.1345515182    0.0000000000
     1        2       0.0000000000    0.0000000000
     1        3       0.0000000000    0.0000000000
     2        1       0.0000000000    0.0000000000
     2        2       1.1345514772    0.0000000000
     2        3       0.0000000000    0.0000000000
     3        1       0.0000000000    0.0000000000
     3        2       0.0000000000    0.0000000000
     3        3       1.0661634632    0.0000000000

 respfn : d/dk was computed, but no 2DTE, so no DDB output.

== END DATASET(S) ==============================================================

 -outvars: echo values of variables after computation  --------
            acell      1.0000000000E+00  1.0000000000E+00  1.0000000000E+00 Bohr
              amu      8.76200000E+01  1.00794000E+00  3.54527000E+01
             ecut      3.90000000E+01 Hartree
           etotal     -8.4860079754E+00
            fcart      0.0000000000E+00  0.0000000000E+00  0.0000000000E+00
                       0.0000000000E+00  0.0000000000E+00  0.0000000000E+00
                       0.0000000000E+00  0.0000000000E+00  0.0000000000E+00
                       0.0000000000E+00  0.0000000000E+00  0.0000000000E+00
                       0.0000000000E+00  0.0000000000E+00  0.0000000000E+00
                       0.0000000000E+00  0.0000000000E+00  0.0000000000E+00
-          fftalg         512
           irdden           1
           irdwfk           1
           istwfk        0    1
              ixc     -116133
              kpt      1.21212121E-01  1.21212121E-01  5.00000000E-01
                       0.00000000E+00  3.08148791E-33  5.00000000E-01
           kptopt           0
P           mkmem           2
P          mkqmem           2
P          mk1mem           2
            natom           6
            nband          27
           nbdbuf           4
            ngfft          45      45      75
             nkpt           2
            nstep        1000
             nsym          16
           ntypat           3
              occ      2.000000  2.000000  2.000000  2.000000  2.000000  2.000000
                       2.000000  2.000000  2.000000  2.000000  2.000000  2.000000
                       2.000000  2.000000  2.000000  2.000000  2.000000  2.000000
                       0.000000  0.000000  0.000000  0.000000  0.000000  0.000000
                       0.000000  0.000000  0.000000
        optdriver           1
            prtwf          -1
            rfdir           1       1       1
           rfelfd           2
            rprim      7.6582011971E+00  0.0000000000E+00  0.0000000000E+00
                       0.0000000000E+00  7.6582011971E+00  0.0000000000E+00
                       0.0000000000E+00  0.0000000000E+00  1.2965697631E+01
          spgroup         129
           strten      0.0000000000E+00  0.0000000000E+00  0.0000000000E+00
                       0.0000000000E+00  0.0000000000E+00  0.0000000000E+00
           symrel      1  0  0   0  1  0   0  0  1      -1  0  0   0 -1  0   0  0 -1
                      -1  0  0   0  1  0   0  0 -1       1  0  0   0 -1  0   0  0  1
                      -1  0  0   0 -1  0   0  0  1       1  0  0   0  1  0   0  0 -1
                       1  0  0   0 -1  0   0  0 -1      -1  0  0   0  1  0   0  0  1
                       0  1  0   1  0  0   0  0  1       0 -1  0  -1  0  0   0  0 -1
                       0 -1  0   1  0  0   0  0 -1       0  1  0  -1  0  0   0  0  1
                       0 -1  0  -1  0  0   0  0  1       0  1  0   1  0  0   0  0 -1
                       0  1  0  -1  0  0   0  0 -1       0 -1  0   1  0  0   0  0  1
            tnons      0.0000000  0.0000000  0.0000000     0.5000000  0.5000000  0.0000000
                       0.5000000  0.5000000  0.0000000     0.0000000  0.0000000  0.0000000
                       0.0000000  0.0000000  0.0000000     0.5000000  0.5000000  0.0000000
                       0.5000000  0.5000000  0.0000000     0.0000000  0.0000000  0.0000000
                       0.5000000  0.5000000  0.0000000     0.0000000  0.0000000  0.0000000
                       0.0000000  0.0000000  0.0000000     0.5000000  0.5000000  0.0000000
                       0.5000000  0.5000000  0.0000000     0.0000000  0.0000000  0.0000000
                       0.0000000  0.0000000  0.0000000     0.5000000  0.5000000  0.0000000
           tolwfr      1.00000000E-20
            typat      1  1  2  2  3  3
           useylm           1
              wtk        0.50000    0.50000
           xangst      0.0000000000E+00  2.0262727662E+00  5.4686946689E+00
                       2.0262727662E+00  0.0000000000E+00  1.3924570112E+00
                       2.0262727662E+00  2.0262727662E+00  0.0000000000E+00
                       0.0000000000E+00  0.0000000000E+00  0.0000000000E+00
                       2.0262727662E+00  0.0000000000E+00  4.4600161769E+00
                       0.0000000000E+00  2.0262727662E+00  2.4011355031E+00
            xcart      0.0000000000E+00  3.8291005986E+00  1.0334335229E+01
                       3.8291005986E+00  0.0000000000E+00  2.6313624029E+00
                       3.8291005986E+00  3.8291005986E+00  0.0000000000E+00
                       0.0000000000E+00  0.0000000000E+00  0.0000000000E+00
                       3.8291005986E+00  0.0000000000E+00  8.4282091226E+00
                       0.0000000000E+00  3.8291005986E+00  4.5374885088E+00
             xred      0.0000000000E+00  5.0000000000E-01  7.9705200000E-01
                       5.0000000000E-01  0.0000000000E+00  2.0294800000E-01
                       5.0000000000E-01  5.0000000000E-01  0.0000000000E+00
                       0.0000000000E+00  0.0000000000E+00  0.0000000000E+00
                       5.0000000000E-01  0.0000000000E+00  6.5003900000E-01
                       0.0000000000E+00  5.0000000000E-01  3.4996100000E-01
            znucl       38.00000    1.00000   17.00000

- Timing analysis has been suppressed with timopt=0

 Suggested references for the acknowledgment of ABINIT usage.

 Calculation completed.
.Delivered  14 WARNINGs and   9 COMMENTs to log file.