.Version 9.5.1 of ABINIT

 ABINIT is a project of the Universite Catholique de Louvain,
 Corning Inc. and other collaborators, see ~abinit/doc/developers/contributors.txt .
 acknowledgments of the ABINIT effort.

.Starting date : Tue 27 Apr 2021.
- ( at 18h30 )

- input  file    -> /scratch/users/j/a/jabreu/flow_simple_4atoms/flow/w174/t1/run.abi
- output file    -> /scratch/users/j/a/jabreu/flow_simple_4atoms/flow/w174/t1/run.abo
- root for input  files -> /scratch/users/j/a/jabreu/flow_simple_4atoms/flow/w174/t1/indata/in
- root for output files -> /scratch/users/j/a/jabreu/flow_simple_4atoms/flow/w174/t1/outdata/out

 Symmetries : space group R-3 m (#166); Bravais hR (rhombohedral)
     intxc =       0      iscf =       7    lmnmax =      18     lnmax =       6
     mgfft =      80  mpssoang =       3    mqgrid =    3001     natom =       4
  nloc_mem =       1    nspden =       1   nspinor =       1    nsppol =       1
      nsym =      12    n1xccc =    2501    ntypat =       3    occopt =       1
   xclevel =       2
-    mband =          26        mffmem =           1         mkmem =           2
-   mkqmem =           2        mk1mem =           2           mpw =        7858
      nfft =      512000          nkpt =           2
  Rough estimation (10% accuracy) of disk space for files :

------------- Echo of variables that govern the present computation ------------
-
- outvars: echo of selected default values
-   iomode0 =  0 , fftalg0 =512 , wfoptalg0 =  0
-
- outvars: echo of global parameters not present in the input file
-  max_nthreads =    0
-
 -outvars: echo values of preprocessed input variables --------
            acell      1.0000000000E+00  1.0000000000E+00  1.0000000000E+00 Bohr
              amu      2.29897680E+01  1.14820000E+02  3.20660000E+01
             ecut      4.40000000E+01 Hartree
-          fftalg         512
           irdden           1
           irdwfk           1
           istwfk        0    1
              ixc     -116133
              kpt      5.39384209E-01  5.39384209E-01  4.21231581E-01
                       5.00000000E-01  5.00000000E-01  0.00000000E+00
           kptopt           0
P           mkmem           2
P          mkqmem           2
P          mk1mem           2
            natom           4
            nband          26
           nbdbuf           4
            ngfft          80      80      80
             nkpt           2
            nstep         100
             nsym          12
           ntypat           3
              occ      2.000000  2.000000  2.000000  2.000000  2.000000  2.000000
                       2.000000  2.000000  2.000000  2.000000  2.000000  2.000000
                       2.000000  2.000000  2.000000  2.000000  2.000000  0.000000
                       0.000000  0.000000  0.000000  0.000000  0.000000  0.000000
                       0.000000  0.000000
        optdriver           1
            prtwf          -1
            rfdir           1       1       1
           rfelfd           2
            rprim      6.9144004415E+00  0.0000000000E+00  1.1247027913E+01
                       3.1807005849E+00  6.1393873680E+00  1.1247027913E+01
                       0.0000000000E+00  0.0000000000E+00  1.3202445620E+01
          spgroup         166
           symrel      1  0  0   0  1  0   0  0  1      -1  0  0   0 -1  0   0  0 -1
                       0  1  0   1  0  0   0  0  1       0 -1  0  -1  0  0   0  0 -1
                       0  0  1   1  0  0   0  1  0       0  0 -1  -1  0  0   0 -1  0
                       1  0  0   0  0  1   0  1  0      -1  0  0   0  0 -1   0 -1  0
                       0  1  0   0  0  1   1  0  0       0 -1  0   0  0 -1  -1  0  0
                       0  0  1   0  1  0   1  0  0       0  0 -1   0 -1  0  -1  0  0
           tolwfr      1.00000000E-20
            typat      1  2  3  3
           useylm           1
              wtk        0.50000    0.50000
           xangst      2.6710486908E+00  1.6244119349E+00  9.4448874955E+00
                       0.0000000000E+00  0.0000000000E+00  0.0000000000E+00
                       1.3892124241E+00  8.4485664735E-01  4.9122859864E+00
                       3.9528849575E+00  2.4039672225E+00  1.3977489005E+01
            xcart      5.0475505132E+00  3.0696936840E+00  1.7848250722E+01
                       0.0000000000E+00  0.0000000000E+00  0.0000000000E+00
                       2.6252310219E+00  1.5965476850E+00  9.2828752007E+00
                       7.4698700045E+00  4.5428396830E+00  2.6413626244E+01
             xred      5.0000000000E-01  5.0000000000E-01  5.0000000000E-01
                       0.0000000000E+00  0.0000000000E+00  0.0000000000E+00
                       2.6005000000E-01  2.6005000000E-01  2.6005000000E-01
                       7.3995000000E-01  7.3995000000E-01  7.3995000000E-01
            znucl       11.00000   49.00000   16.00000

 chkinp: Checking input parameters for consistency.

== DATASET  1 ==================================================================
-   mpi_nproc: 1, omp_nthreads: -1 (-1 if OMP is not activated)

--- !DatasetInfo
iteration_state: {dtset: 1, }
dimensions: {natom: 4, nkpt: 2, mband: 26, nsppol: 1, nspinor: 1, nspden: 1, mpw: 7858, }
cutoff_energies: {ecut:  44.0, pawecutdg:  -1.0, }
electrons: {nelect:   3.40000000E+01, charge:   0.00000000E+00, occopt:   1.00000000E+00, tsmear:   1.00000000E-02, }
meta: {optdriver: 1, rfelfd: 2, }
...

 Real(R)+Recip(G) space primitive vectors, cartesian coordinates (Bohr,Bohr^-1):
 R(1)=  6.9144004  0.0000000 11.2470279  G(1)=  0.1446257 -0.0749278  0.0000000
 R(2)=  3.1807006  6.1393874 11.2470279  G(2)=  0.0000000  0.1628827  0.0000000
 R(3)=  0.0000000  0.0000000 13.2024456  G(3)= -0.1232051 -0.0749278  0.0757435
 Unit cell volume ucvol=  5.6044623E+02 bohr^3
 Angles (23,13,12)=  3.15821938E+01  3.15821938E+01  3.15821938E+01 degrees

 getcut: wavevector=  0.0000  0.0000  0.0000  ngfft=  80  80  80
         ecut(hartree)=     44.000   => boxcut(ratio)=   2.02931

--- Pseudopotential description ------------------------------------------------
- pspini: atom type   1  psp file is /scratch/users/j/a/jabreu/pseudos/PBEsol/Na.psp8
- pspatm: opening atomic psp file    /scratch/users/j/a/jabreu/pseudos/PBEsol/Na.psp8
- Na    ONCVPSP-3.3.0  r_core=   1.20708   1.55069
- 11.00000   9.00000    180112                znucl, zion, pspdat
    8 -116133    1    4       400   0.00000   pspcod,pspxc,lmax,lloc,mmax,r2well
    3.99000000000000    0.00000000000000    0.00000000000000   rchrg,fchrg,qchrg
     nproj     2     2
     extension_switch     1
  pspatm : epsatm=    9.32878306
         --- l  ekb(1:nproj) -->
             0    2.657905   -0.678300
             1   -6.761319   -2.404728
 pspatm: atomic psp has been read  and splines computed

- pspini: atom type   2  psp file is /scratch/users/j/a/jabreu/pseudos/PBEsol/In.psp8
- pspatm: opening atomic psp file    /scratch/users/j/a/jabreu/pseudos/PBEsol/In.psp8
- In    ONCVPSP-3.3.0  r_core=   2.10853   2.37566   1.87143
- 49.00000  13.00000    180112                znucl, zion, pspdat
    8 -116133    2    4       600   0.00000   pspcod,pspxc,lmax,lloc,mmax,r2well
    5.99000000000000    5.00000000000000    0.00000000000000   rchrg,fchrg,qchrg
     nproj     2     2     2
     extension_switch     1
  pspatm : epsatm=   25.17984752
         --- l  ekb(1:nproj) -->
             0   12.999887    1.931740
             1    5.981707    1.012544
             2   -4.048011   -1.239028
 pspatm: atomic psp has been read  and splines computed

- pspini: atom type   3  psp file is /scratch/users/j/a/jabreu/pseudos/PBEsol/S.psp8
- pspatm: opening atomic psp file    /scratch/users/j/a/jabreu/pseudos/PBEsol/S.psp8
- S     ONCVPSP-3.3.0  r_core=   1.45376   1.45376   1.61851
- 16.00000   6.00000    180112                znucl, zion, pspdat
    8 -116133    2    4       600   0.00000   pspcod,pspxc,lmax,lloc,mmax,r2well
    5.99000000000000    6.00000000000000    0.00000000000000   rchrg,fchrg,qchrg
     nproj     2     2     2
     extension_switch     1
  pspatm : epsatm=    8.71840985
         --- l  ekb(1:nproj) -->
             0    6.834532    0.579453
             1    3.282851    0.896984
             2   -3.496974   -0.974265
 pspatm: atomic psp has been read  and splines computed

   1.76614531E+03                                ecore*ucvol(ha*bohr**3)

-inwffil : will read wavefunctions from disk file /scratch/users/j/a/jabreu/flow_simple_4atoms/flow/w174/t1/indata/in_WFK

 ==>  initialize data related to q vector <==

 The list of irreducible perturbations for this q vector is:
    1)    idir= 1    ipert=   5
    2)    idir= 2    ipert=   5
    3)    idir= 3    ipert=   5

 Perturbation wavevector (in red.coord.)   0.000000  0.000000  0.000000
 Perturbation : derivative vs k along direction   1

 dfpt_looppert : COMMENT -
  In a d/dk calculation, iscf is set to -3 automatically.
 The set of symmetries contains only one element for this perturbation.
 symkpt : not enough symmetry to change the number of k points.

[...]

 Initialisation of the first-order wave-functions :
  ireadwf=   0

--- !BeginCycle
iteration_state: {dtset: 1, }
solver: {iscf: 7, nstep: 100, nline: 4, wfoptalg: 0, }
tolerances: {tolwfr: 1.00E-20, }
...

     iter   2DEtotal(Ha)        deltaE(Ha) residm    vres2
-ETOT  1  -61.948235106537     -6.195E+01 1.505E-01 0.000E+00
 ETOT  2  -61.968413674764     -2.018E-02 6.311E-03 0.000E+00
 ETOT  3  -61.968511690659     -9.802E-05 1.867E-04 0.000E+00
 ETOT  4  -61.968512694932     -1.004E-06 1.122E-05 0.000E+00
 ETOT  5  -61.968512711624     -1.669E-08 6.405E-07 0.000E+00
 ETOT  6  -61.968512712272     -6.482E-10 3.852E-08 0.000E+00
 ETOT  7  -61.968512712306     -3.374E-11 3.602E-09 0.000E+00
 ETOT  8  -61.968512712308     -1.876E-12 2.404E-10 0.000E+00
 ETOT  9  -61.968512712308     -1.066E-13 2.333E-11 0.000E+00
 ETOT 10  -61.968512712308     -7.816E-14 1.645E-12 0.000E+00
 ETOT 11  -61.968512712308      1.421E-14 1.574E-13 0.000E+00
 ETOT 12  -61.968512712308      2.132E-14 1.152E-14 0.000E+00
 ETOT 13  -61.968512712308      4.974E-14 1.084E-15 0.000E+00
 ETOT 14  -61.968512712308      2.842E-14 8.155E-17 0.000E+00
 ETOT 15  -61.968512712308      0.000E+00 7.573E-18 0.000E+00
 ETOT 16  -61.968512712308     -1.421E-14 5.825E-19 0.000E+00
 ETOT 17  -61.968512712308     -1.421E-14 5.349E-20 0.000E+00
 ETOT 18  -61.968512712308      1.421E-14 9.669E-21 0.000E+00

 At SCF step   18   max residual=  9.67E-21 < tolwfr=  1.00E-20 =>converged.

 ----iterations are completed or convergence reached----

 dfpt_looppert: DFPT cycle converged with prtwf=-1. Will skip output of the 1st-order WFK file.
 dfpt_looppert : ek2=    7.1222723517E+01
          f-sum rule ratio=    1.2338729926E+00
 prteigrs : about to open file /scratch/users/j/a/jabreu/flow_simple_4atoms/flow/w174/t1/tmpdata/tmp_1WF1_EIG
 Expectation of eigenvalue derivatives (hartree) for nkpt=   2  k points:
  (in case of degenerate eigenvalues, averaged derivative)
 kpt#   1, nband= 26, wtk=  0.50000, kpt=  0.5394  0.5394  0.4212 (reduced coord)
   0.00004    0.00028   -0.00110   -0.00025   -0.01928    0.00345    0.00529   -0.00315
   0.00072    0.03445    0.04664   -0.02176   -0.00312   -0.15114   -0.06953   -0.11567
  -0.00252    0.03750    0.14590    0.00861   -0.03368    0.07865   -0.13100   -0.16278
   0.08955   -0.10174
 prteigrs : prtvol=0 or 1, do not print more k-points.

 Eight components of 2nd-order total energy (hartree) are
 1,2,3: 0th-order hamiltonian combined with 1st-order wavefunctions
     kin0=   5.31604603E+01 eigvalue=   5.15246474E+00  local=  -2.57898487E+01
 4,5,6: 1st-order hamiltonian combined with 1st and 0th-order wfs
     kin1=  -8.78797950E+01  Hartree=   0.00000000E+00     xc=   0.00000000E+00
 7,8,9: eventually, occupation + non-local contributions
    edocc=   2.22915529E+01     enl0=   7.15388346E+00   enl1=  -3.60572304E+01
 1-9 gives the relaxation energy (to be shifted if some occ is /=2.0)
   erelax=  -6.19685127E+01
  No Ewald or frozen-wf contrib.: the relaxation energy is the total one
 2DEtotal=   -0.6196851271E+02 Ha. Also 2DEtotal=   -0.168624898665E+04 eV
    (  non-var. 2DEtotal :   -6.1968512712E+01 Ha)

 Perturbation wavevector (in red.coord.)   0.000000  0.000000  0.000000
 Perturbation : derivative vs k along direction   2
 The set of symmetries contains only one element for this perturbation.
 symkpt : not enough symmetry to change the number of k points.

[...]

 Perturbation wavevector (in red.coord.)   0.000000  0.000000  0.000000
 Perturbation : derivative vs k along direction   3
 The set of symmetries contains only one element for this perturbation.
 symkpt : not enough symmetry to change the number of k points.

-inwffil : will read wavefunctions from disk file /scratch/users/j/a/jabreu/flow_simple_4atoms/flow/w174/t1/indata/in_WFK

 Initialisation of the first-order wave-functions :
  ireadwf=   0

--- !BeginCycle
iteration_state: {dtset: 1, }
solver: {iscf: 7, nstep: 100, nline: 4, wfoptalg: 0, }
tolerances: {tolwfr: 1.00E-20, }
...

     iter   2DEtotal(Ha)        deltaE(Ha) residm    vres2
-ETOT  1  -53.519773726885     -5.352E+01 1.339E-01 0.000E+00
 ETOT  2  -53.537205396455     -1.743E-02 2.428E-03 0.000E+00
 ETOT  3  -53.537284071705     -7.868E-05 1.269E-04 0.000E+00
 ETOT  4  -53.537284970640     -8.989E-07 5.124E-06 0.000E+00
 ETOT  5  -53.537284993583     -2.294E-08 4.845E-07 0.000E+00
 ETOT  6  -53.537284994602     -1.018E-09 3.019E-08 0.000E+00
 ETOT  7  -53.537284994655     -5.307E-11 2.991E-09 0.000E+00
 ETOT  8  -53.537284994657     -2.899E-12 1.988E-10 0.000E+00
 ETOT  9  -53.537284994658     -9.237E-14 1.935E-11 0.000E+00
 ETOT 10  -53.537284994658     -4.263E-14 1.331E-12 0.000E+00
 ETOT 11  -53.537284994658      7.105E-15 1.271E-13 0.000E+00
 ETOT 12  -53.537284994658     -1.421E-14 8.981E-15 0.000E+00
 ETOT 13  -53.537284994658      7.105E-15 8.428E-16 0.000E+00
 ETOT 14  -53.537284994658     -2.842E-14 6.081E-17 0.000E+00
 ETOT 15  -53.537284994658      0.000E+00 5.622E-18 0.000E+00
 ETOT 16  -53.537284994658      0.000E+00 4.128E-19 0.000E+00
 ETOT 17  -53.537284994658      0.000E+00 3.767E-20 0.000E+00
 ETOT 18  -53.537284994658      0.000E+00 9.669E-21 0.000E+00

 At SCF step   18   max residual=  9.67E-21 < tolwfr=  1.00E-20 =>converged.

 ----iterations are completed or convergence reached----

 dfpt_looppert: DFPT cycle converged with prtwf=-1. Will skip output of the 1st-order WFK file.
 dfpt_looppert : ek2=    7.1222723517E+01
          f-sum rule ratio=    9.9736912544E-01
 prteigrs : about to open file /scratch/users/j/a/jabreu/flow_simple_4atoms/flow/w174/t1/tmpdata/tmp_1WF1_EIG
 Expectation of eigenvalue derivatives (hartree) for nkpt=   2  k points:
  (in case of degenerate eigenvalues, averaged derivative)
 kpt#   1, nband= 26, wtk=  0.50000, kpt=  0.5394  0.5394  0.4212 (reduced coord)
  -0.00008   -0.00056    0.00221    0.00049    0.03845   -0.00690   -0.01056    0.00630
  -0.00144   -0.06855   -0.09358    0.04216    0.02738    0.27012    0.14526    0.24119
  -0.00327   -0.07638   -0.27865    0.05772   -0.01686   -0.16026    0.25279    0.33381
  -0.16035    0.06429
 prteigrs : prtvol=0 or 1, do not print more k-points.

 Eight components of 2nd-order total energy (hartree) are
 1,2,3: 0th-order hamiltonian combined with 1st-order wavefunctions
     kin0=   5.33233914E+01 eigvalue=   5.00805482E+00  local=  -2.56310084E+01
 4,5,6: 1st-order hamiltonian combined with 1st and 0th-order wfs
     kin1=  -7.10353455E+01  Hartree=   0.00000000E+00     xc=   0.00000000E+00
 7,8,9: eventually, occupation + non-local contributions
    edocc=   1.38630311E+01     enl0=   6.97381616E+00   enl1=  -3.60392245E+01
 1-9 gives the relaxation energy (to be shifted if some occ is /=2.0)
   erelax=  -5.35372850E+01
  No Ewald or frozen-wf contrib.: the relaxation energy is the total one
 2DEtotal=   -0.5353728499E+02 Ha. Also 2DEtotal=   -0.145682361281E+04 eV
    (  non-var. 2DEtotal :   -5.3537284995E+01 Ha)

 CALCULATION OF EFFECTIVE MASSES
 NOTE : Additional infos (eff. mass eigenvalues, eigenvectors and, if degenerate, average mass) are available in stdout.

 K-point ( 0.539, 0.539, 0.421) | band =    17
 Effective mass tensor:
             -2.0792272668             -1.0643452719             -0.2404277846
             -1.0643452719             -0.9763855404             -0.1462141155
             -0.2404277846             -0.1462141155             -7.2111484340
 Effective mass tensor eigenvalues:
             -7.2287362059             -2.7089245281             -0.3291005071
 Angular average effective mass 1/(<1/m>)=  -0.8460064231
 Angular average effective mass for Frohlich model (<m**0.5>)**2=  -1.3501765963
 Effective masses along directions: (cart. coord. / red. coord. -> eff. mass)
    1:   1.000000  0.000000  0.000000 /   0.908487  0.417914  0.000000 ->  -0.9180846758
    2:   0.000000  1.000000  0.000000 /   0.000000  1.000000  0.000000 ->  -0.4314783670
    3:   0.000000  0.000000  1.000000 /   0.544093  0.544093  0.638690 ->  -7.1821061710
    4:   0.577350  0.577350  0.577350 /   0.596452  0.675459  0.433591 ->  -2.6418621023
    5:   0.000000  0.707107  0.707107 /   0.457981  0.707978  0.537606 ->  -0.8190288893
    6:   0.707107  0.000000  0.707107 /   0.680484  0.540588  0.494678 ->  -1.6612644181
    7:   0.707107  0.707107  0.000000 /   0.595819  0.803119  0.000000 ->  -1.9308439834

 K-point ( 0.500, 0.500, 0.000) | band =    18
 Effective mass tensor:
              0.4108305726              0.0838870079             -0.0696246516
              0.0838870079              0.3239092235             -0.0423417253
             -0.0696246516             -0.0423417253              0.6438221554
 Effective mass tensor eigenvalues:
              0.2728931267              0.4306903041              0.6749785207
 Angular average effective mass 1/(<1/m>)=   0.4017236182
 Angular average effective mass for Frohlich model (<m**0.5>)**2=   0.4181553907
 Effective masses along directions: (cart. coord. / red. coord. -> eff. mass)
    1:   1.000000  0.000000  0.000000 /   0.908487  0.417914  0.000000 ->   0.3837144832
    2:   0.000000  1.000000  0.000000 /   0.000000  1.000000  0.000000 ->   0.3055288593
    3:   0.000000  0.000000  1.000000 /   0.544093  0.544093  0.638690 ->   0.6294441935
    4:   0.577350  0.577350  0.577350 /   0.596452  0.675459  0.433591 ->   0.4316008570
    5:   0.000000  0.707107  0.707107 /   0.457981  0.707978  0.537606 ->   0.3881222127
    6:   0.707107  0.000000  0.707107 /   0.680484  0.540588  0.494678 ->   0.4279162502
    7:   0.707107  0.707107  0.000000 /   0.595819  0.803119  0.000000 ->   0.4355533833

 END OF EFFECTIVE MASSES SECTION

 ---- first-order wavefunction calculations are completed ----

 Total localisation tensor (bohr^2) in cartesian coordinates
  WARNING : still subject to testing - especially symmetries.
      direction              matrix element
   alpha     beta       real part   imaginary part
     1        1       2.7091755842    0.0000000000
     1        2       0.9132993989    0.0000000000
     1        3       5.3102340002    0.0000000000
     2        1       0.9132993989    0.0000000000
     2        2       1.7628502410    0.0000000000
     2        3       3.2294469592    0.0000000000
     3        1       5.3102340002    0.0000000000
     3        2       3.2294469592    0.0000000000
     3        3      16.4496860518    0.0000000000

 respfn : d/dk was computed, but no 2DTE, so no DDB output.

== END DATASET(S) ==============================================================

 -outvars: echo values of variables after computation  --------
            acell      1.0000000000E+00  1.0000000000E+00  1.0000000000E+00 Bohr
              amu      2.29897680E+01  1.14820000E+02  3.20660000E+01
             ecut      4.40000000E+01 Hartree
           etotal     -5.3537284995E+01
            fcart      0.0000000000E+00  0.0000000000E+00  0.0000000000E+00
                       0.0000000000E+00  0.0000000000E+00  0.0000000000E+00
                       0.0000000000E+00  0.0000000000E+00  0.0000000000E+00
                       0.0000000000E+00  0.0000000000E+00  0.0000000000E+00
-          fftalg         512
           irdden           1
           irdwfk           1
           istwfk        0    1
              ixc     -116133
              kpt      5.39384209E-01  5.39384209E-01  4.21231581E-01
                       5.00000000E-01  5.00000000E-01  0.00000000E+00
           kptopt           0
P           mkmem           2
P          mkqmem           2
P          mk1mem           2
            natom           4
            nband          26
           nbdbuf           4
            ngfft          80      80      80
             nkpt           2
            nstep         100
             nsym          12
           ntypat           3
              occ      2.000000  2.000000  2.000000  2.000000  2.000000  2.000000
                       2.000000  2.000000  2.000000  2.000000  2.000000  2.000000
                       2.000000  2.000000  2.000000  2.000000  2.000000  0.000000
                       0.000000  0.000000  0.000000  0.000000  0.000000  0.000000
                       0.000000  0.000000
        optdriver           1
            prtwf          -1
            rfdir           1       1       1
           rfelfd           2
            rprim      6.9144004415E+00  0.0000000000E+00  1.1247027913E+01
                       3.1807005849E+00  6.1393873680E+00  1.1247027913E+01
                       0.0000000000E+00  0.0000000000E+00  1.3202445620E+01
          spgroup         166
           strten      0.0000000000E+00  0.0000000000E+00  0.0000000000E+00
                       0.0000000000E+00  0.0000000000E+00  0.0000000000E+00
           symrel      1  0  0   0  1  0   0  0  1      -1  0  0   0 -1  0   0  0 -1
                       0  1  0   1  0  0   0  0  1       0 -1  0  -1  0  0   0  0 -1
                       0  0  1   1  0  0   0  1  0       0  0 -1  -1  0  0   0 -1  0
                       1  0  0   0  0  1   0  1  0      -1  0  0   0  0 -1   0 -1  0
                       0  1  0   0  0  1   1  0  0       0 -1  0   0  0 -1  -1  0  0
                       0  0  1   0  1  0   1  0  0       0  0 -1   0 -1  0  -1  0  0
           tolwfr      1.00000000E-20
            typat      1  2  3  3
           useylm           1
              wtk        0.50000    0.50000
           xangst      2.6710486908E+00  1.6244119349E+00  9.4448874955E+00
                       0.0000000000E+00  0.0000000000E+00  0.0000000000E+00
                       1.3892124241E+00  8.4485664735E-01  4.9122859864E+00
                       3.9528849575E+00  2.4039672225E+00  1.3977489005E+01
            xcart      5.0475505132E+00  3.0696936840E+00  1.7848250722E+01
                       0.0000000000E+00  0.0000000000E+00  0.0000000000E+00
                       2.6252310219E+00  1.5965476850E+00  9.2828752007E+00
                       7.4698700045E+00  4.5428396830E+00  2.6413626244E+01
             xred      5.0000000000E-01  5.0000000000E-01  5.0000000000E-01
                       0.0000000000E+00  0.0000000000E+00  0.0000000000E+00
                       2.6005000000E-01  2.6005000000E-01  2.6005000000E-01
                       7.3995000000E-01  7.3995000000E-01  7.3995000000E-01
            znucl       11.00000   49.00000   16.00000

- Timing analysis has been suppressed with timopt=0

 Suggested references for the acknowledgment of ABINIT usage.

 Calculation completed.
.Delivered  14 WARNINGs and   9 COMMENTs to log file.