.Version 9.5.1 of ABINIT

 ABINIT is a project of the Universite Catholique de Louvain,
 Corning Inc. and other collaborators, see ~abinit/doc/developers/contributors.txt .
 acknowledgments of the ABINIT effort.

.Starting date : Tue  4 May 2021.
- ( at 19h49 )

- input  file    -> /scratch/users/j/a/jabreu/flow_simple_6atoms/flow/w245/t1/run.abi
- output file    -> /scratch/users/j/a/jabreu/flow_simple_6atoms/flow/w245/t1/run.abo
- root for input  files -> /scratch/users/j/a/jabreu/flow_simple_6atoms/flow/w245/t1/indata/in
- root for output files -> /scratch/users/j/a/jabreu/flow_simple_6atoms/flow/w245/t1/outdata/out

 Symmetries : space group P4/n m m (#129); Bravais tP (primitive tetrag.)
     intxc =       0      iscf =       7    lmnmax =      18     lnmax =       6
     mgfft =      72  mpssoang =       3    mqgrid =    3588     natom =       6
  nloc_mem =       1    nspden =       1   nspinor =       1    nsppol =       1
      nsym =      16    n1xccc =    2501    ntypat =       3    occopt =       1
   xclevel =       2
-    mband =          27        mffmem =           1         mkmem =           2
-   mkqmem =           2        mk1mem =           2           mpw =        7534
      nfft =      145800          nkpt =           2
  Rough estimation (10% accuracy) of disk space for files :

------------- Echo of variables that govern the present computation ------------
-
- outvars: echo of selected default values
-   iomode0 =  0 , fftalg0 =512 , wfoptalg0 =  0
-
- outvars: echo of global parameters not present in the input file
-  max_nthreads =    0
-
 -outvars: echo values of preprocessed input variables --------
            acell      1.0000000000E+00  1.0000000000E+00  1.0000000000E+00 Bohr
              amu      4.00780000E+01  1.00794000E+00  3.54527000E+01
             ecut      3.90000000E+01 Hartree
-          fftalg         512
           irdden           1
           irdwfk           1
           istwfk        0    1
              ixc     -116133
              kpt      8.33333333E-02  8.33333333E-02  5.00000000E-01
                       1.71081960E-17  1.71081960E-17  5.00000000E-01
           kptopt           0
P           mkmem           2
P          mkqmem           2
P          mk1mem           2
            natom           6
            nband          27
           nbdbuf           4
            ngfft          45      45      72
             nkpt           2
            nstep        1000
             nsym          16
           ntypat           3
              occ      2.000000  2.000000  2.000000  2.000000  2.000000  2.000000
                       2.000000  2.000000  2.000000  2.000000  2.000000  2.000000
                       2.000000  2.000000  2.000000  2.000000  2.000000  2.000000
                       0.000000  0.000000  0.000000  0.000000  0.000000  0.000000
                       0.000000  0.000000  0.000000
        optdriver           1
            prtwf          -1
            rfdir           1       1       1
           rfelfd           2
            rprim      7.1300398662E+00  0.0000000000E+00  0.0000000000E+00
                       0.0000000000E+00  7.1300398662E+00  0.0000000000E+00
                       0.0000000000E+00  0.0000000000E+00  1.2759645259E+01
          spgroup         129
           symrel      1  0  0   0  1  0   0  0  1      -1  0  0   0 -1  0   0  0 -1
                      -1  0  0   0  1  0   0  0 -1       1  0  0   0 -1  0   0  0  1
                      -1  0  0   0 -1  0   0  0  1       1  0  0   0  1  0   0  0 -1
                       1  0  0   0 -1  0   0  0 -1      -1  0  0   0  1  0   0  0  1
                       0  1  0   1  0  0   0  0  1       0 -1  0  -1  0  0   0  0 -1
                       0 -1  0   1  0  0   0  0 -1       0  1  0  -1  0  0   0  0  1
                       0 -1  0  -1  0  0   0  0  1       0  1  0   1  0  0   0  0 -1
                       0  1  0  -1  0  0   0  0 -1       0 -1  0   1  0  0   0  0  1
            tnons      0.0000000  0.0000000  0.0000000     0.5000000  0.5000000  0.0000000
                       0.5000000  0.5000000  0.0000000     0.0000000  0.0000000  0.0000000
                       0.0000000  0.0000000  0.0000000     0.5000000  0.5000000  0.0000000
                       0.5000000  0.5000000  0.0000000     0.0000000  0.0000000  0.0000000
                       0.5000000  0.5000000  0.0000000     0.0000000  0.0000000  0.0000000
                       0.0000000  0.0000000  0.0000000     0.5000000  0.5000000  0.0000000
                       0.5000000  0.5000000  0.0000000     0.0000000  0.0000000  0.0000000
                       0.0000000  0.0000000  0.0000000     0.5000000  0.5000000  0.0000000
           tolwfr      1.00000000E-20
            typat      1  1  2  2  3  3
           useylm           1
              wtk        0.50000    0.50000
           xangst      0.0000000000E+00  1.8865272968E+00  5.4445869452E+00
                       1.8865272968E+00  0.0000000000E+00  1.3075265153E+00
                       1.8865272968E+00  1.8865272968E+00  0.0000000000E+00
                       0.0000000000E+00  0.0000000000E+00  0.0000000000E+00
                       1.8865272968E+00  0.0000000000E+00  4.4022766945E+00
                       0.0000000000E+00  1.8865272968E+00  2.3498367660E+00
            xcart      0.0000000000E+00  3.5650199331E+00  1.0288778233E+01
                       3.5650199331E+00  0.0000000000E+00  2.4708670254E+00
                       3.5650199331E+00  3.5650199331E+00  0.0000000000E+00
                       0.0000000000E+00  0.0000000000E+00  0.0000000000E+00
                       3.5650199331E+00  0.0000000000E+00  8.3190973139E+00
                       0.0000000000E+00  3.5650199331E+00  4.4405479446E+00
             xred      0.0000000000E+00  5.0000000000E-01  8.0635300000E-01
                       5.0000000000E-01  0.0000000000E+00  1.9364700000E-01
                       5.0000000000E-01  5.0000000000E-01  0.0000000000E+00
                       0.0000000000E+00  0.0000000000E+00  0.0000000000E+00
                       5.0000000000E-01  0.0000000000E+00  6.5198500000E-01
                       0.0000000000E+00  5.0000000000E-01  3.4801500000E-01
            znucl       20.00000    1.00000   17.00000

 chkinp: Checking input parameters for consistency.

== DATASET  1 ==================================================================
-   mpi_nproc: 1, omp_nthreads: -1 (-1 if OMP is not activated)

--- !DatasetInfo
iteration_state: {dtset: 1, }
dimensions: {natom: 6, nkpt: 2, mband: 27, nsppol: 1, nspinor: 1, nspden: 1, mpw: 7534, }
cutoff_energies: {ecut:  39.0, pawecutdg:  -1.0, }
electrons: {nelect:   3.60000000E+01, charge:   0.00000000E+00, occopt:   1.00000000E+00, tsmear:   1.00000000E-02, }
meta: {optdriver: 1, rfelfd: 2, }
...

 Real(R)+Recip(G) space primitive vectors, cartesian coordinates (Bohr,Bohr^-1):
 R(1)=  7.1300399  0.0000000  0.0000000  G(1)=  0.1402517  0.0000000  0.0000000
 R(2)=  0.0000000  7.1300399  0.0000000  G(2)=  0.0000000  0.1402517  0.0000000
 R(3)=  0.0000000  0.0000000 12.7596453  G(3)=  0.0000000  0.0000000  0.0783721
 Unit cell volume ucvol=  6.4866806E+02 bohr^3
 Angles (23,13,12)=  9.00000000E+01  9.00000000E+01  9.00000000E+01 degrees

 getcut: wavevector=  0.0000  0.0000  0.0000  ngfft=  45  45  72
         ecut(hartree)=     39.000   => boxcut(ratio)=   2.00723

--- Pseudopotential description ------------------------------------------------
- pspini: atom type   1  psp file is /scratch/users/j/a/jabreu/pseudos/PBEsol/Ca.psp8
- pspatm: opening atomic psp file    /scratch/users/j/a/jabreu/pseudos/PBEsol/Ca.psp8
- Ca    ONCVPSP-3.3.0  r_core=   1.45885   1.45885   1.85192
- 20.00000  10.00000    180112                znucl, zion, pspdat
    8 -116133    2    4       400   0.00000   pspcod,pspxc,lmax,lloc,mmax,r2well
    3.99000000000000    6.00000000000000    0.00000000000000   rchrg,fchrg,qchrg
     nproj     2     2     2
     extension_switch     1
  pspatm : epsatm=   12.46045226
         --- l  ekb(1:nproj) -->
             0   10.054847    0.973777
             1    2.998958    0.458102
             2   -3.447298   -1.091650
 pspatm: atomic psp has been read  and splines computed

- pspini: atom type   2  psp file is /scratch/users/j/a/jabreu/pseudos/PBEsol/H.psp8
- pspatm: opening atomic psp file    /scratch/users/j/a/jabreu/pseudos/PBEsol/H.psp8
- H     ONCVPSP-3.3.0  r_core=   1.00957   0.70586
-  1.00000   1.00000    180112                znucl, zion, pspdat
    8 -116133    1    4       300   0.00000   pspcod,pspxc,lmax,lloc,mmax,r2well
    2.99000000000000    0.00000000000000    0.00000000000000   rchrg,fchrg,qchrg
     nproj     2     1
     extension_switch     1
  pspatm : epsatm=    0.35627032
         --- l  ekb(1:nproj) -->
             0   -1.674911   -0.523609
             1   -0.494138
 pspatm: atomic psp has been read  and splines computed

- pspini: atom type   3  psp file is /scratch/users/j/a/jabreu/pseudos/PBEsol/Cl.psp8
- pspatm: opening atomic psp file    /scratch/users/j/a/jabreu/pseudos/PBEsol/Cl.psp8
- Cl    ONCVPSP-3.3.0  r_core=   1.56009   1.35202   1.75774
- 17.00000   7.00000    180112                znucl, zion, pspdat
    8 -116133    2    4       600   0.00000   pspcod,pspxc,lmax,lloc,mmax,r2well
    5.99000000000000    8.00000000000000    0.00000000000000   rchrg,fchrg,qchrg
     nproj     2     2     2
     extension_switch     1
  pspatm : epsatm=    8.95520722
         --- l  ekb(1:nproj) -->
             0    8.193503    0.707970
             1    3.869736    1.114731
             2   -2.915303   -0.810552
 pspatm: atomic psp has been read  and splines computed

   1.56757895E+03                                ecore*ucvol(ha*bohr**3)

-inwffil : will read wavefunctions from disk file /scratch/users/j/a/jabreu/flow_simple_6atoms/flow/w245/t1/indata/in_WFK

 ==>  initialize data related to q vector <==

 The list of irreducible perturbations for this q vector is:
    1)    idir= 1    ipert=   7
    2)    idir= 2    ipert=   7
    3)    idir= 3    ipert=   7

 Perturbation wavevector (in red.coord.)   0.000000  0.000000  0.000000
 Perturbation : derivative vs k along direction   1

 dfpt_looppert : COMMENT -
  In a d/dk calculation, iscf is set to -3 automatically.
 The set of symmetries contains only one element for this perturbation.
 symkpt : not enough symmetry to change the number of k points.

[...]

 Initialisation of the first-order wave-functions :
  ireadwf=   0

--- !BeginCycle
iteration_state: {dtset: 1, }
solver: {iscf: 7, nstep: 1000, nline: 4, wfoptalg: 0, }
tolerances: {tolwfr: 1.00E-20, }
...

     iter   2DEtotal(Ha)        deltaE(Ha) residm    vres2
-ETOT  1  -28.580947810033     -2.858E+01 5.464E-01 0.000E+00
 ETOT  2  -28.630828315705     -4.988E-02 9.500E-02 0.000E+00
 ETOT  3  -28.631687637514     -8.593E-04 1.962E-02 0.000E+00
 ETOT  4  -28.631714663375     -2.703E-05 4.645E-03 0.000E+00
 ETOT  5  -28.631715768398     -1.105E-06 1.342E-03 0.000E+00
 ETOT  6  -28.631715816911     -4.851E-08 2.947E-04 0.000E+00
 ETOT  7  -28.631715819180     -2.268E-09 9.949E-05 0.000E+00
[...]
 ETOT 50  -28.631715819296     -3.553E-15 4.798E-20 0.000E+00
 ETOT 51  -28.631715819296      3.553E-15 2.732E-20 0.000E+00
 ETOT 52  -28.631715819296      3.553E-15 1.029E-20 0.000E+00
 ETOT 53  -28.631715819296      3.553E-15 9.716E-21 0.000E+00

 At SCF step   53   max residual=  9.72E-21 < tolwfr=  1.00E-20 =>converged.

 ----iterations are completed or convergence reached----

 dfpt_looppert: DFPT cycle converged with prtwf=-1. Will skip output of the 1st-order WFK file.
 dfpt_looppert : ek2=    5.5912423489E+01
          f-sum rule ratio=    1.1330255499E+00
 prteigrs : about to open file /scratch/users/j/a/jabreu/flow_simple_6atoms/flow/w245/t1/tmpdata/tmp_1WF1_EIG
 Expectation of eigenvalue derivatives (hartree) for nkpt=   2  k points:
  (in case of degenerate eigenvalues, averaged derivative)
 kpt#   1, nband= 27, wtk=  0.50000, kpt=  0.0833  0.0833  0.5000 (reduced coord)
   0.00081    0.00027    0.00158   -0.00725   -0.00425    0.00381   -0.00660   -0.00297
   0.02029    0.00601   -0.01723    0.01584   -0.05407    0.05466   -0.08856   -0.04800
  -0.02512   -0.00028    0.11576    0.11385   -0.05442   -0.02120   -0.05143    0.02612
  -0.08621    0.02003    0.11142
 prteigrs : prtvol=0 or 1, do not print more k-points.

 Eight components of 2nd-order total energy (hartree) are
 1,2,3: 0th-order hamiltonian combined with 1st-order wavefunctions
     kin0=   3.30158868E+01 eigvalue=   4.87813056E-01  local=  -1.80451237E+01
 4,5,6: 1st-order hamiltonian combined with 1st and 0th-order wfs
     kin1=  -6.33502044E+01  Hartree=   0.00000000E+00     xc=   0.00000000E+00
 7,8,9: eventually, occupation + non-local contributions
    edocc=   1.36453082E+01     enl0=  -4.72168474E-01   enl1=   6.08677273E+00
 1-9 gives the relaxation energy (to be shifted if some occ is /=2.0)
   erelax=  -2.86317158E+01
  No Ewald or frozen-wf contrib.: the relaxation energy is the total one
 2DEtotal=   -0.2863171582E+02 Ha. Also 2DEtotal=   -0.779108609729E+03 eV
    (  non-var. 2DEtotal :   -2.8631715819E+01 Ha)

 Perturbation wavevector (in red.coord.)   0.000000  0.000000  0.000000
 Perturbation : derivative vs k along direction   2
 The set of symmetries contains only one element for this perturbation.
 symkpt : not enough symmetry to change the number of k points.

[...]

 Perturbation wavevector (in red.coord.)   0.000000  0.000000  0.000000
 Perturbation : derivative vs k along direction   3
 The set of symmetries contains only one element for this perturbation.
 symkpt : not enough symmetry to change the number of k points.

-inwffil : will read wavefunctions from disk file /scratch/users/j/a/jabreu/flow_simple_6atoms/flow/w245/t1/indata/in_WFK

 Initialisation of the first-order wave-functions :
  ireadwf=   0

--- !BeginCycle
iteration_state: {dtset: 1, }
solver: {iscf: 7, nstep: 1000, nline: 4, wfoptalg: 0, }
tolerances: {tolwfr: 1.00E-20, }
...

     iter   2DEtotal(Ha)        deltaE(Ha) residm    vres2
-ETOT  1  -8.1927857626320     -8.193E+00 6.350E-02 0.000E+00
 ETOT  2  -8.2023027701860     -9.517E-03 1.035E-02 0.000E+00
 ETOT  3  -8.2023856831722     -8.291E-05 1.444E-03 0.000E+00
 ETOT  4  -8.2023882559553     -2.573E-06 5.913E-04 0.000E+00
 ETOT  5  -8.2023883725362     -1.166E-07 1.683E-04 0.000E+00
 ETOT  6  -8.2023883783890     -5.853E-09 8.082E-05 0.000E+00
 ETOT  7  -8.2023883786994     -3.104E-10 1.954E-05 0.000E+00
 ETOT  8  -8.2023883787162     -1.683E-11 9.413E-06 0.000E+00
 ETOT  9  -8.2023883787171     -9.308E-13 2.291E-06 0.000E+00
 ETOT 10  -8.2023883787172     -5.329E-14 1.103E-06 0.000E+00
 ETOT 11  -8.2023883787172     -8.882E-15 2.708E-07 0.000E+00
 ETOT 12  -8.2023883787172     -1.776E-15 1.301E-07 0.000E+00
 ETOT 13  -8.2023883787172      3.553E-15 3.216E-08 0.000E+00
 ETOT 14  -8.2023883787172     -1.776E-15 1.541E-08 0.000E+00
 ETOT 15  -8.2023883787172      3.553E-15 3.828E-09 0.000E+00
 ETOT 16  -8.2023883787172     -3.553E-15 1.831E-09 0.000E+00
 ETOT 17  -8.2023883787172      1.776E-15 4.566E-10 0.000E+00
 ETOT 18  -8.2023883787172     -3.553E-15 2.781E-10 0.000E+00
 ETOT 19  -8.2023883787172     -1.776E-15 5.453E-11 0.000E+00
 ETOT 20  -8.2023883787172      0.000E+00 5.209E-11 0.000E+00
 ETOT 21  -8.2023883787172      7.105E-15 8.561E-12 0.000E+00
 ETOT 22  -8.2023883787172     -1.776E-15 9.773E-12 0.000E+00
 ETOT 23  -8.2023883787172      1.776E-15 1.615E-12 0.000E+00
 ETOT 24  -8.2023883787172      0.000E+00 1.837E-12 0.000E+00
 ETOT 25  -8.2023883787172     -1.776E-15 3.054E-13 0.000E+00
 ETOT 26  -8.2023883787172     -1.776E-15 3.463E-13 0.000E+00
 ETOT 27  -8.2023883787172     -1.776E-15 5.794E-14 0.000E+00
 ETOT 28  -8.2023883787172      1.776E-15 6.551E-14 0.000E+00
 ETOT 29  -8.2023883787172      1.776E-15 1.104E-14 0.000E+00
 ETOT 30  -8.2023883787172      0.000E+00 1.244E-14 0.000E+00
 ETOT 31  -8.2023883787172      1.776E-15 2.113E-15 0.000E+00
 ETOT 32  -8.2023883787172      0.000E+00 2.377E-15 0.000E+00
 ETOT 33  -8.2023883787172      0.000E+00 4.073E-16 0.000E+00
 ETOT 34  -8.2023883787172      0.000E+00 4.573E-16 0.000E+00
 ETOT 35  -8.2023883787172     -1.776E-15 7.915E-17 0.000E+00
 ETOT 36  -8.2023883787172      0.000E+00 8.879E-17 0.000E+00
 ETOT 37  -8.2023883787172     -3.553E-15 1.554E-17 0.000E+00
 ETOT 38  -8.2023883787172      0.000E+00 1.744E-17 0.000E+00
 ETOT 39  -8.2023883787172      3.553E-15 3.093E-18 0.000E+00
 ETOT 40  -8.2023883787172     -1.776E-15 3.473E-18 0.000E+00
 ETOT 41  -8.2023883787172     -1.776E-15 6.250E-19 0.000E+00
 ETOT 42  -8.2023883787172     -1.776E-15 7.034E-19 0.000E+00
 ETOT 43  -8.2023883787172      1.776E-15 1.286E-19 0.000E+00
 ETOT 44  -8.2023883787172     -1.776E-15 1.452E-19 0.000E+00
 ETOT 45  -8.2023883787172      3.553E-15 2.698E-20 0.000E+00
 ETOT 46  -8.2023883787172     -3.553E-15 3.061E-20 0.000E+00
 ETOT 47  -8.2023883787172      5.329E-15 9.833E-21 0.000E+00

 At SCF step   47   max residual=  9.83E-21 < tolwfr=  1.00E-20 =>converged.

 ----iterations are completed or convergence reached----

 dfpt_looppert: DFPT cycle converged with prtwf=-1. Will skip output of the 1st-order WFK file.
 dfpt_looppert : ek2=    1.7458825828E+01
          f-sum rule ratio=    1.0478268471E+00
 prteigrs : about to open file /scratch/users/j/a/jabreu/flow_simple_6atoms/flow/w245/t1/tmpdata/tmp_1WF1_EIG
 Expectation of eigenvalue derivatives (hartree) for nkpt=   2  k points:
  (in case of degenerate eigenvalues, averaged derivative)
 kpt#   1, nband= 27, wtk=  0.50000, kpt=  0.0833  0.0833  0.5000 (reduced coord)
   0.00000    0.00000    0.00000   -0.00000   -0.00000    0.00000   -0.00000   -0.00000
   0.00000    0.00000    0.00000   -0.00000   -0.00000   -0.00000    0.00000   -0.00000
   0.00000   -0.00000   -0.00000   -0.00000   -0.00000    0.00000   -0.00000   -0.00000
   0.00000    0.00000   -0.00000
 prteigrs : prtvol=0 or 1, do not print more k-points.

 Eight components of 2nd-order total energy (hartree) are
 1,2,3: 0th-order hamiltonian combined with 1st-order wavefunctions
     kin0=   9.49714014E+00 eigvalue=   2.22023611E-01  local=  -5.01922895E+00
 4,5,6: 1st-order hamiltonian combined with 1st and 0th-order wfs
     kin1=  -1.82938264E+01  Hartree=   0.00000000E+00     xc=   0.00000000E+00
 7,8,9: eventually, occupation + non-local contributions
    edocc=   3.35952101E+00     enl0=   1.42932555E-01   enl1=   1.88904966E+00
 1-9 gives the relaxation energy (to be shifted if some occ is /=2.0)
   erelax=  -8.20238838E+00
  No Ewald or frozen-wf contrib.: the relaxation energy is the total one
 2DEtotal=   -0.8202388379E+01 Ha. Also 2DEtotal=   -0.223198338742E+03 eV
    (  non-var. 2DEtotal :   -8.2023883787E+00 Ha)

 CALCULATION OF EFFECTIVE MASSES
 NOTE : Additional infos (eff. mass eigenvalues, eigenvectors and, if degenerate, average mass) are available in stdout.

 K-point ( 0.083, 0.083, 0.500) | band =    18
 Effective mass tensor:
             -4.3042219422              1.1042309106             -0.0005773801
              1.1042309106             -4.3042226715              0.0005772972
             -0.0005773801              0.0005772972             -5.1192180936
 Effective mass tensor eigenvalues:
             -5.4084555222             -5.1192157888             -3.1999913962
 Angular average effective mass 1/(<1/m>)=  -4.3306357932
 Angular average effective mass for Frohlich model (<m**0.5>)**2=  -4.4085708844
 Effective masses along directions: (cart. coord. / red. coord. -> eff. mass)
    1:   1.000000  0.000000  0.000000 /   1.000000  0.000000  0.000000 ->  -4.0209359340
    2:   0.000000  1.000000  0.000000 /   0.000000  1.000000  0.000000 ->  -4.0209366153
    3:   0.000000  0.000000  1.000000 /   0.000000  0.000000  1.000000 ->  -5.1192179704
    4:   0.577350  0.577350  0.577350 /   0.438422  0.438422  0.784584 ->  -3.6570023974
    5:   0.000000  0.707107  0.707107 /   0.000000  0.487803  0.872954 ->  -4.5036695898
    6:   0.707107  0.000000  0.707107 /   0.487803  0.000000  0.872954 ->  -4.5045152172
    7:   0.707107  0.707107  0.000000 /   0.707107  0.707107  0.000000 ->  -3.1999913962

 K-point ( 0.000, 0.000, 0.500) | band =    19
 Effective mass tensor:
              0.5157166695              0.0000000040             -0.0000009031
              0.0000000040              0.5157166715              0.0000006580
             -0.0000009031              0.0000006580              0.9661219188
 Effective mass tensor eigenvalues:
              0.5157166663              0.5157166746              0.9661219188
 Angular average effective mass 1/(<1/m>)=   0.6106044329
 Angular average effective mass for Frohlich model (<m**0.5>)**2=   0.6248565462
 Effective masses along directions: (cart. coord. / red. coord. -> eff. mass)
    1:   1.000000  0.000000  0.000000 /   1.000000  0.000000  0.000000 ->   0.5157166695
    2:   0.000000  1.000000  0.000000 /   0.000000  1.000000  0.000000 ->   0.5157166715
    3:   0.000000  0.000000  1.000000 /   0.000000  0.000000  1.000000 ->   0.9661219188
    4:   0.577350  0.577350  0.577350 /   0.438422  0.438422  0.784584 ->   0.6106043143
    5:   0.000000  0.707107  0.707107 /   0.000000  0.487803  0.872954 ->   0.6724694928
    6:   0.707107  0.000000  0.707107 /   0.487803  0.000000  0.872954 ->   0.6724680743
    7:   0.707107  0.707107  0.000000 /   0.707107  0.707107  0.000000 ->   0.5157166745

 END OF EFFECTIVE MASSES SECTION

 ---- first-order wavefunction calculations are completed ----

 Total localisation tensor (bohr^2) in cartesian coordinates
  WARNING : still subject to testing - especially symmetries.
      direction              matrix element
   alpha     beta       real part   imaginary part
     1        1       1.0991257811    0.0000000000
     1        2       0.0000000000    0.0000000000
     1        3       0.0000000000    0.0000000000
     2        1       0.0000000000    0.0000000000
     2        2       1.0991503690    0.0000000000
     2        3       0.0000000000    0.0000000000
     3        1       0.0000000000    0.0000000000
     3        2       0.0000000000    0.0000000000
     3        3       0.9957992363    0.0000000000

 respfn : d/dk was computed, but no 2DTE, so no DDB output.

== END DATASET(S) ==============================================================

 -outvars: echo values of variables after computation  --------
            acell      1.0000000000E+00  1.0000000000E+00  1.0000000000E+00 Bohr
              amu      4.00780000E+01  1.00794000E+00  3.54527000E+01
             ecut      3.90000000E+01 Hartree
           etotal     -8.2023883787E+00
            fcart      0.0000000000E+00  0.0000000000E+00  0.0000000000E+00
                       0.0000000000E+00  0.0000000000E+00  0.0000000000E+00
                       0.0000000000E+00  0.0000000000E+00  0.0000000000E+00
                       0.0000000000E+00  0.0000000000E+00  0.0000000000E+00
                       0.0000000000E+00  0.0000000000E+00  0.0000000000E+00
                       0.0000000000E+00  0.0000000000E+00  0.0000000000E+00
-          fftalg         512
           irdden           1
           irdwfk           1
           istwfk        0    1
              ixc     -116133
              kpt      8.33333333E-02  8.33333333E-02  5.00000000E-01
                       1.71081960E-17  1.71081960E-17  5.00000000E-01
           kptopt           0
P           mkmem           2
P          mkqmem           2
P          mk1mem           2
            natom           6
            nband          27
           nbdbuf           4
            ngfft          45      45      72
             nkpt           2
            nstep        1000
             nsym          16
           ntypat           3
              occ      2.000000  2.000000  2.000000  2.000000  2.000000  2.000000
                       2.000000  2.000000  2.000000  2.000000  2.000000  2.000000
                       2.000000  2.000000  2.000000  2.000000  2.000000  2.000000
                       0.000000  0.000000  0.000000  0.000000  0.000000  0.000000
                       0.000000  0.000000  0.000000
        optdriver           1
            prtwf          -1
            rfdir           1       1       1
           rfelfd           2
            rprim      7.1300398662E+00  0.0000000000E+00  0.0000000000E+00
                       0.0000000000E+00  7.1300398662E+00  0.0000000000E+00
                       0.0000000000E+00  0.0000000000E+00  1.2759645259E+01
          spgroup         129
           strten      0.0000000000E+00  0.0000000000E+00  0.0000000000E+00
                       0.0000000000E+00  0.0000000000E+00  0.0000000000E+00
           symrel      1  0  0   0  1  0   0  0  1      -1  0  0   0 -1  0   0  0 -1
                      -1  0  0   0  1  0   0  0 -1       1  0  0   0 -1  0   0  0  1
                      -1  0  0   0 -1  0   0  0  1       1  0  0   0  1  0   0  0 -1
                       1  0  0   0 -1  0   0  0 -1      -1  0  0   0  1  0   0  0  1
                       0  1  0   1  0  0   0  0  1       0 -1  0  -1  0  0   0  0 -1
                       0 -1  0   1  0  0   0  0 -1       0  1  0  -1  0  0   0  0  1
                       0 -1  0  -1  0  0   0  0  1       0  1  0   1  0  0   0  0 -1
                       0  1  0  -1  0  0   0  0 -1       0 -1  0   1  0  0   0  0  1
            tnons      0.0000000  0.0000000  0.0000000     0.5000000  0.5000000  0.0000000
                       0.5000000  0.5000000  0.0000000     0.0000000  0.0000000  0.0000000
                       0.0000000  0.0000000  0.0000000     0.5000000  0.5000000  0.0000000
                       0.5000000  0.5000000  0.0000000     0.0000000  0.0000000  0.0000000
                       0.5000000  0.5000000  0.0000000     0.0000000  0.0000000  0.0000000
                       0.0000000  0.0000000  0.0000000     0.5000000  0.5000000  0.0000000
                       0.5000000  0.5000000  0.0000000     0.0000000  0.0000000  0.0000000
                       0.0000000  0.0000000  0.0000000     0.5000000  0.5000000  0.0000000
           tolwfr      1.00000000E-20
            typat      1  1  2  2  3  3
           useylm           1
              wtk        0.50000    0.50000
           xangst      0.0000000000E+00  1.8865272968E+00  5.4445869452E+00
                       1.8865272968E+00  0.0000000000E+00  1.3075265153E+00
                       1.8865272968E+00  1.8865272968E+00  0.0000000000E+00
                       0.0000000000E+00  0.0000000000E+00  0.0000000000E+00
                       1.8865272968E+00  0.0000000000E+00  4.4022766945E+00
                       0.0000000000E+00  1.8865272968E+00  2.3498367660E+00
            xcart      0.0000000000E+00  3.5650199331E+00  1.0288778233E+01
                       3.5650199331E+00  0.0000000000E+00  2.4708670254E+00
                       3.5650199331E+00  3.5650199331E+00  0.0000000000E+00
                       0.0000000000E+00  0.0000000000E+00  0.0000000000E+00
                       3.5650199331E+00  0.0000000000E+00  8.3190973139E+00
                       0.0000000000E+00  3.5650199331E+00  4.4405479446E+00
             xred      0.0000000000E+00  5.0000000000E-01  8.0635300000E-01
                       5.0000000000E-01  0.0000000000E+00  1.9364700000E-01
                       5.0000000000E-01  5.0000000000E-01  0.0000000000E+00
                       0.0000000000E+00  0.0000000000E+00  0.0000000000E+00
                       5.0000000000E-01  0.0000000000E+00  6.5198500000E-01
                       0.0000000000E+00  5.0000000000E-01  3.4801500000E-01
            znucl       20.00000    1.00000   17.00000

- Timing analysis has been suppressed with timopt=0

 Suggested references for the acknowledgment of ABINIT usage.

 Calculation completed.
.Delivered  14 WARNINGs and   9 COMMENTs to log file.