.Version 9.5.1 of ABINIT

 ABINIT is a project of the Universite Catholique de Louvain,
 Corning Inc. and other collaborators, see ~abinit/doc/developers/contributors.txt .
 acknowledgments of the ABINIT effort.

.Starting date : Tue  4 May 2021.
- ( at 19h31 )

- input  file    -> /scratch/users/j/a/jabreu/flow_simple_6atoms/flow/w202/t1/run.abi
- output file    -> /scratch/users/j/a/jabreu/flow_simple_6atoms/flow/w202/t1/run.abo
- root for input  files -> /scratch/users/j/a/jabreu/flow_simple_6atoms/flow/w202/t1/indata/in
- root for output files -> /scratch/users/j/a/jabreu/flow_simple_6atoms/flow/w202/t1/outdata/out

 Symmetries : space group I-4 2 d (#122); Bravais tI (body-center tetrag.)
     intxc =       0      iscf =       7    lmnmax =      18     lnmax =       6
     mgfft =      72  mpssoang =       3    mqgrid =    3001     natom =       6
  nloc_mem =       1    nspden =       1   nspinor =       1    nsppol =       1
      nsym =       8    n1xccc =    2501    ntypat =       2    occopt =       1
   xclevel =       2
-    mband =          43        mffmem =           1         mkmem =           1
-   mkqmem =           1        mk1mem =           1           mpw =       13647
      nfft =      373248          nkpt =           1
  Rough estimation (10% accuracy) of disk space for files :

------------- Echo of variables that govern the present computation ------------
-
- outvars: echo of selected default values
-   iomode0 =  0 , fftalg0 =512 , wfoptalg0 =  0
-
- outvars: echo of global parameters not present in the input file
-  max_nthreads =    0
-
 -outvars: echo values of preprocessed input variables --------
            acell      1.0000000000E+00  1.0000000000E+00  1.0000000000E+00 Bohr
              amu      6.53900000E+01  3.54527000E+01
             ecut      4.20000000E+01 Hartree
-          fftalg         512
           irdden           1
           irdwfk           1
           istwfk        1
              ixc     -116133
           kptopt           0
P           mkmem           1
P          mkqmem           1
P          mk1mem           1
            natom           6
            nband          43
           nbdbuf           4
            ngfft          72      72      72
             nkpt           1
            nstep        1000
             nsym           8
           ntypat           2
              occ      2.000000  2.000000  2.000000  2.000000  2.000000  2.000000
                       2.000000  2.000000  2.000000  2.000000  2.000000  2.000000
                       2.000000  2.000000  2.000000  2.000000  2.000000  2.000000
                       2.000000  2.000000  2.000000  2.000000  2.000000  2.000000
                       2.000000  2.000000  2.000000  2.000000  2.000000  2.000000
                       2.000000  2.000000  2.000000  2.000000  0.000000  0.000000
                       0.000000  0.000000  0.000000  0.000000  0.000000  0.000000
                       0.000000
        optdriver           1
            prtwf          -1
            rfdir           1       1       1
           rfelfd           2
            rprim      9.4838371752E+00  0.0000000000E+00 -7.3584838763E+00
                      -2.2753097336E+00  9.2068525123E+00 -7.3584838763E+00
                       0.0000000000E+00  0.0000000000E+00  1.2003768263E+01
          spgroup         122
           symrel      1  0  0   0  1  0   0  0  1       0  0  1  -1 -1 -1   1  0  0
                       0  1  0   1  0  0  -1 -1 -1      -1 -1 -1   0  0  1   0  1  0
                       0  1  0   1  0  0   0  0  1       0  0  1  -1 -1 -1   0  1  0
                       1  0  0   0  1  0  -1 -1 -1      -1 -1 -1   0  0  1   1  0  0
            tnons      0.0000000  0.0000000  0.0000000    -0.2500000  0.2500000  0.5000000
                      -0.0000000 -0.0000000 -0.0000000    -0.2500000  0.2500000  0.5000000
                      -0.2500000  0.2500000  0.5000000    -0.0000000  0.0000000 -0.0000000
                      -0.2500000  0.2500000  0.5000000    -0.0000000 -0.0000000 -0.0000000
           tolwfr      1.00000000E-20
            typat      1  1  2  2  2  2
           useylm           1
           xangst      3.4629623489E+00  1.2180141281E+00 -7.1788166599E-01
                       0.0000000000E+00  0.0000000000E+00  0.0000000000E+00
                       3.3122030631E+00  4.3664832081E+00 -3.5861510016E+00
                       3.0926843204E+00  6.0900706404E-01 -2.8682693356E+00
                      -2.3174299821E-01  3.0450353202E+00  3.3794769822E+00
                       1.4560324739E+00  1.7235874324E+00  2.0341669107E-01
            xcart      6.5440504480E+00  2.3017131281E+00 -1.3565997446E+00
                       0.0000000000E+00  0.0000000000E+00  0.0000000000E+00
                       6.2591566858E+00  8.2514574271E+00 -6.7768432642E+00
                       5.8443263810E+00  1.1508565640E+00 -5.4202435197E+00
                      -4.3793079983E-01  5.7542828202E+00  6.3862859687E+00
                       2.7515026162E+00  3.2571082133E+00  3.8440183698E-01
             xred      7.5000000000E-01  2.5000000000E-01  5.0000000000E-01
                       0.0000000000E+00  0.0000000000E+00  0.0000000000E+00
                       8.7500000000E-01  8.9623000000E-01  5.2123000000E-01
                       6.4623000000E-01  1.2500000000E-01  2.1230000000E-02
                       1.0377000000E-01  6.2500000000E-01  9.7877000000E-01
                       3.7500000000E-01  3.5377000000E-01  4.7877000000E-01
            znucl       30.00000   17.00000

 chkinp: Checking input parameters for consistency.

== DATASET  1 ==================================================================
-   mpi_nproc: 1, omp_nthreads: -1 (-1 if OMP is not activated)

--- !DatasetInfo
iteration_state: {dtset: 1, }
dimensions: {natom: 6, nkpt: 1, mband: 43, nsppol: 1, nspinor: 1, nspden: 1, mpw: 13647, }
cutoff_energies: {ecut:  42.0, pawecutdg:  -1.0, }
electrons: {nelect:   6.80000000E+01, charge:   0.00000000E+00, occopt:   1.00000000E+00, tsmear:   1.00000000E-02, }
meta: {optdriver: 1, rfelfd: 2, }
...

 Real(R)+Recip(G) space primitive vectors, cartesian coordinates (Bohr,Bohr^-1):
 R(1)=  9.4838372  0.0000000 -7.3584839  G(1)=  0.1054426  0.0260583  0.0000000
 R(2)= -2.2753097  9.2068525 -7.3584839  G(2)=  0.0000000  0.1086148  0.0000000
 R(3)=  0.0000000  0.0000000 12.0037683  G(3)=  0.0646378  0.0825565  0.0833072
 Unit cell volume ucvol=  1.0481245E+03 bohr^3
 Angles (23,13,12)=  1.27807791E+02  1.27807791E+02  7.69366068E+01 degrees

 getcut: wavevector=  0.0000  0.0000  0.0000  ngfft=  72  72  72
         ecut(hartree)=     42.000   => boxcut(ratio)=   2.05603

--- Pseudopotential description ------------------------------------------------
- pspini: atom type   1  psp file is /scratch/users/j/a/jabreu/pseudos/PBEsol/Zn.psp8
- pspatm: opening atomic psp file    /scratch/users/j/a/jabreu/pseudos/PBEsol/Zn.psp8
- Zn    ONCVPSP-3.3.0  r_core=   1.35823   1.66358   1.85211
- 30.00000  20.00000    180112                znucl, zion, pspdat
    8 -116133    2    4       600   0.00000   pspcod,pspxc,lmax,lloc,mmax,r2well
    5.99000000000000    2.50000000000000    0.00000000000000   rchrg,fchrg,qchrg
     nproj     2     2     2
     extension_switch     1
  pspatm : epsatm=   26.57343589
         --- l  ekb(1:nproj) -->
             0    2.830835   -1.519107
             1   -4.626739   -1.324150
             2   -6.948510   -2.555500
 pspatm: atomic psp has been read  and splines computed

- pspini: atom type   2  psp file is /scratch/users/j/a/jabreu/pseudos/PBEsol/Cl.psp8
- pspatm: opening atomic psp file    /scratch/users/j/a/jabreu/pseudos/PBEsol/Cl.psp8
- Cl    ONCVPSP-3.3.0  r_core=   1.56009   1.35202   1.75774
- 17.00000   7.00000    180112                znucl, zion, pspdat
    8 -116133    2    4       600   0.00000   pspcod,pspxc,lmax,lloc,mmax,r2well
    5.99000000000000    8.00000000000000    0.00000000000000   rchrg,fchrg,qchrg
     nproj     2     2     2
     extension_switch     1
  pspatm : epsatm=    8.95520722
         --- l  ekb(1:nproj) -->
             0    8.193503    0.707970
             1    3.869736    1.114731
             2   -2.915303   -0.810552
 pspatm: atomic psp has been read  and splines computed

   6.04980364E+03                                ecore*ucvol(ha*bohr**3)

-inwffil : will read wavefunctions from disk file /scratch/users/j/a/jabreu/flow_simple_6atoms/flow/w202/t1/indata/in_WFK

 ==>  initialize data related to q vector <==

 The list of irreducible perturbations for this q vector is:
    1)    idir= 1    ipert=   7
    2)    idir= 2    ipert=   7
    3)    idir= 3    ipert=   7

 Perturbation wavevector (in red.coord.)   0.000000  0.000000  0.000000
 Perturbation : derivative vs k along direction   1

 dfpt_looppert : COMMENT -
  In a d/dk calculation, iscf is set to -3 automatically.
 The set of symmetries contains only one element for this perturbation.
 symkpt : not enough symmetry to change the number of k points.

[...]

 Initialisation of the first-order wave-functions :
  ireadwf=   0

--- !BeginCycle
iteration_state: {dtset: 1, }
solver: {iscf: 7, nstep: 1000, nline: 4, wfoptalg: 0, }
tolerances: {tolwfr: 1.00E-20, }
...

     iter   2DEtotal(Ha)        deltaE(Ha) residm    vres2
-ETOT  1  -35.937294759520     -3.594E+01 3.923E-02 0.000E+00
 ETOT  2  -35.980110213812     -4.282E-02 1.868E-03 0.000E+00
 ETOT  3  -35.980346805844     -2.366E-04 3.595E-05 0.000E+00
 ETOT  4  -35.980349424601     -2.619E-06 6.213E-06 0.000E+00
 ETOT  5  -35.980349464527     -3.993E-08 1.998E-07 0.000E+00
 ETOT  6  -35.980349465224     -6.967E-10 4.307E-08 0.000E+00
 ETOT  7  -35.980349465237     -1.300E-11 1.649E-09 0.000E+00
 ETOT  8  -35.980349465237     -2.629E-13 3.726E-10 0.000E+00
 ETOT  9  -35.980349465237     -2.132E-14 1.531E-11 0.000E+00
 ETOT 10  -35.980349465237     -5.684E-14 3.441E-12 0.000E+00
 ETOT 11  -35.980349465237      2.132E-14 1.475E-13 0.000E+00
 ETOT 12  -35.980349465237     -1.421E-14 3.273E-14 0.000E+00
 ETOT 13  -35.980349465237     -7.105E-15 1.445E-15 0.000E+00
 ETOT 14  -35.980349465237      7.105E-15 3.172E-16 0.000E+00
 ETOT 15  -35.980349465237      0.000E+00 1.432E-17 0.000E+00
 ETOT 16  -35.980349465237      0.000E+00 3.115E-18 0.000E+00
 ETOT 17  -35.980349465237      0.000E+00 1.431E-19 0.000E+00
 ETOT 18  -35.980349465237      0.000E+00 3.088E-20 0.000E+00
 ETOT 19  -35.980349465237      0.000E+00 9.620E-21 0.000E+00

 At SCF step   19   max residual=  9.62E-21 < tolwfr=  1.00E-20 =>converged.

 ----iterations are completed or convergence reached----

 dfpt_looppert: DFPT cycle converged with prtwf=-1. Will skip output of the 1st-order WFK file.
 dfpt_looppert : ek2=    6.3339739500E+01
          f-sum rule ratio=    1.0219794352E+00
 prteigrs : about to open file /scratch/users/j/a/jabreu/flow_simple_6atoms/flow/w202/t1/tmpdata/tmp_1WF1_EIG
 Expectation of eigenvalue derivatives (hartree) for nkpt=   1  k points:
  (in case of degenerate eigenvalues, averaged derivative)
 kpt#   1, nband= 43, wtk=  1.00000, kpt=  0.0000  0.0000  0.0000 (reduced coord)
  -0.00000    0.00000    0.00000    0.00000    0.00000    0.00000    0.00000    0.00000
   0.00000    0.00000    0.00000    0.00000    0.00000    0.00000    0.00000    0.00000
  -0.00000    0.00000    0.00000    0.00000    0.00000   -0.00000    0.00000    0.00000
  -0.00000   -0.00000    0.00000    0.00000   -0.00000   -0.00000   -0.00000    0.00000
   0.00000    0.00000   -0.00000   -0.00000    0.00000    0.00000    0.00000    0.00000
   0.00000    0.00002   -0.00001

 Eight components of 2nd-order total energy (hartree) are
 1,2,3: 0th-order hamiltonian combined with 1st-order wavefunctions
     kin0=   4.61303304E+01 eigvalue=   2.37973576E+00  local=  -1.95236570E+01
 4,5,6: 1st-order hamiltonian combined with 1st and 0th-order wfs
     kin1=  -6.47319112E+01  Hartree=   0.00000000E+00     xc=   0.00000000E+00
 7,8,9: eventually, occupation + non-local contributions
    edocc=   7.69273765E+00     enl0=  -6.98797415E-01   enl1=  -7.22878773E+00
 1-9 gives the relaxation energy (to be shifted if some occ is /=2.0)
   erelax=  -3.59803495E+01
  No Ewald or frozen-wf contrib.: the relaxation energy is the total one
 2DEtotal=   -0.3598034947E+02 Ha. Also 2DEtotal=   -0.979075100716E+03 eV
    (  non-var. 2DEtotal :   -3.5980349465E+01 Ha)

 Perturbation wavevector (in red.coord.)   0.000000  0.000000  0.000000
 Perturbation : derivative vs k along direction   2
 The set of symmetries contains only one element for this perturbation.
 symkpt : not enough symmetry to change the number of k points.

[...]

 Perturbation wavevector (in red.coord.)   0.000000  0.000000  0.000000
 Perturbation : derivative vs k along direction   3
 The set of symmetries contains only one element for this perturbation.
 symkpt : not enough symmetry to change the number of k points.

-inwffil : will read wavefunctions from disk file /scratch/users/j/a/jabreu/flow_simple_6atoms/flow/w202/t1/indata/in_WFK

 Initialisation of the first-order wave-functions :
  ireadwf=   0

--- !BeginCycle
iteration_state: {dtset: 1, }
solver: {iscf: 7, nstep: 1000, nline: 4, wfoptalg: 0, }
tolerances: {tolwfr: 1.00E-20, }
...

     iter   2DEtotal(Ha)        deltaE(Ha) residm    vres2
-ETOT  1  -54.843587453945     -5.484E+01 5.316E-02 0.000E+00
 ETOT  2  -54.913654381484     -7.007E-02 2.423E-03 0.000E+00
 ETOT  3  -54.913990568073     -3.362E-04 4.946E-05 0.000E+00
 ETOT  4  -54.913993580890     -3.013E-06 1.038E-05 0.000E+00
 ETOT  5  -54.913993616455     -3.557E-08 3.419E-07 0.000E+00
 ETOT  6  -54.913993616932     -4.766E-10 7.828E-08 0.000E+00
 ETOT  7  -54.913993616939     -6.992E-12 2.683E-09 0.000E+00
 ETOT  8  -54.913993616939     -1.563E-13 6.354E-10 0.000E+00
 ETOT  9  -54.913993616939     -1.421E-14 2.206E-11 0.000E+00
 ETOT 10  -54.913993616939      7.105E-15 5.367E-12 0.000E+00
 ETOT 11  -54.913993616939      2.842E-14 1.865E-13 0.000E+00
 ETOT 12  -54.913993616939      7.105E-15 4.627E-14 0.000E+00
 ETOT 13  -54.913993616939      0.000E+00 1.605E-15 0.000E+00
 ETOT 14  -54.913993616939      0.000E+00 4.036E-16 0.000E+00
 ETOT 15  -54.913993616939     -7.105E-15 1.400E-17 0.000E+00
 ETOT 16  -54.913993616939      7.105E-15 3.550E-18 0.000E+00
 ETOT 17  -54.913993616939      0.000E+00 1.234E-19 0.000E+00
 ETOT 18  -54.913993616939     -7.105E-15 3.144E-20 0.000E+00
 ETOT 19  -54.913993616939     -1.421E-14 9.629E-21 0.000E+00

 At SCF step   19   max residual=  9.63E-21 < tolwfr=  1.00E-20 =>converged.

 ----iterations are completed or convergence reached----

 dfpt_looppert: DFPT cycle converged with prtwf=-1. Will skip output of the 1st-order WFK file.
 dfpt_looppert : ek2=    9.6287239412E+01
          f-sum rule ratio=    1.0267569893E+00
 prteigrs : about to open file /scratch/users/j/a/jabreu/flow_simple_6atoms/flow/w202/t1/tmpdata/tmp_1WF1_EIG
 Expectation of eigenvalue derivatives (hartree) for nkpt=   1  k points:
  (in case of degenerate eigenvalues, averaged derivative)
 kpt#   1, nband= 43, wtk=  1.00000, kpt=  0.0000  0.0000  0.0000 (reduced coord)
  -0.00000   -0.00000   -0.00000   -0.00000    0.00000    0.00000    0.00000   -0.00000
  -0.00000   -0.00000   -0.00000    0.00000   -0.00000    0.00000    0.00000    0.00000
  -0.00000    0.00000    0.00000    0.00000    0.00000    0.00000    0.00000    0.00000
  -0.00000   -0.00000   -0.00000   -0.00000    0.00000   -0.00000   -0.00000   -0.00000
  -0.00000    0.00000   -0.00000   -0.00000   -0.00000    0.00000    0.00000    0.00000
  -0.00000    0.00002   -0.00034

 Eight components of 2nd-order total energy (hartree) are
 1,2,3: 0th-order hamiltonian combined with 1st-order wavefunctions
     kin0=   6.98697417E+01 eigvalue=   3.57458537E+00  local=  -2.95398021E+01
 4,5,6: 1st-order hamiltonian combined with 1st and 0th-order wfs
     kin1=  -9.88635960E+01  Hartree=   0.00000000E+00     xc=   0.00000000E+00
 7,8,9: eventually, occupation + non-local contributions
    edocc=   1.21049225E+01     enl0=  -1.09545389E+00   enl1=  -1.09643912E+01
 1-9 gives the relaxation energy (to be shifted if some occ is /=2.0)
   erelax=  -5.49139936E+01
  No Ewald or frozen-wf contrib.: the relaxation energy is the total one
 2DEtotal=   -0.5491399362E+02 Ha. Also 2DEtotal=   -0.149428575960E+04 eV
    (  non-var. 2DEtotal :   -5.4913993617E+01 Ha)

 CALCULATION OF EFFECTIVE MASSES
 NOTE : Additional infos (eff. mass eigenvalues, eigenvectors and, if degenerate, average mass) are available in stdout.

 K-point ( 0.000, 0.000, 0.000) | band =    34
 Effective mass tensor:
             -1.5257843007              0.1863868484             -0.2979365456
              0.1863868484             -1.4336635496             -0.3805247546
             -0.2979365456             -0.3805247546             -1.0634492962
 Effective mass tensor eigenvalues:
             -1.6717178072             -1.6717153615             -0.6794639777
 Angular average effective mass 1/(<1/m>)=  -1.1243857719
 Angular average effective mass for Frohlich model (<m**0.5>)**2=  -1.1941891180
 Effective masses along directions: (cart. coord. / red. coord. -> eff. mass)
    1:   1.000000  0.000000  0.000000 /   0.972406 -0.233294  0.000000 ->  -1.3761518036
    2:   0.000000  1.000000  0.000000 /   0.000000  1.000000  0.000000 ->  -1.2379840856
    3:   0.000000  0.000000  1.000000 /  -0.463187 -0.463187  0.755589 ->  -0.8820717950
    4:   0.577350  0.577350  0.577350 /   0.174239 -0.035001  0.984081 ->  -1.6650983996
    5:   0.000000  0.707107  0.707107 /  -0.518185  0.130162  0.845306 ->  -1.5730135839
    6:   0.707107  0.000000  0.707107 /   0.136788 -0.620030  0.772562 ->  -1.4972718027
    7:   0.707107  0.707107  0.000000 /   0.807349  0.590075  0.000000 ->  -1.0737614637

 K-point ( 0.000, 0.000, 0.000) | band =    35
 Effective mass tensor:
              0.4507872004             -0.0041279451              0.0066207787
             -0.0041279451              0.4487988314              0.0084049738
              0.0066207787              0.0084049738              0.4405578118
 Effective mass tensor eigenvalues:
              0.4320660062              0.4540387749              0.4540390623
 Angular average effective mass 1/(<1/m>)=   0.4464704333
 Angular average effective mass for Frohlich model (<m**0.5>)**2=   0.4465443056
 Effective masses along directions: (cart. coord. / red. coord. -> eff. mass)
    1:   1.000000  0.000000  0.000000 /   0.972406 -0.233294  0.000000 ->   0.4506473608
    2:   0.000000  1.000000  0.000000 /   0.000000  1.000000  0.000000 ->   0.4485983231
    3:   0.000000  0.000000  1.000000 /  -0.463187 -0.463187  0.755589 ->   0.4403008730
    4:   0.577350  0.577350  0.577350 /   0.174239 -0.035001  0.984081 ->   0.4539768274
    5:   0.000000  0.707107  0.707107 /  -0.518185  0.130162  0.845306 ->   0.4530369103
    6:   0.707107  0.000000  0.707107 /   0.136788 -0.620030  0.772562 ->   0.4522118979
    7:   0.707107  0.707107  0.000000 /   0.807349  0.590075  0.000000 ->   0.4454065223

 END OF EFFECTIVE MASSES SECTION

 ---- first-order wavefunction calculations are completed ----

 Total localisation tensor (bohr^2) in cartesian coordinates
  WARNING : still subject to testing - especially symmetries.
      direction              matrix element
   alpha     beta       real part   imaginary part
     1        1       0.7736544946    0.0000000000
     1        2      -0.1703773935    0.0000000000
     1        3      -0.4314343092    0.0000000000
     2        1      -0.1703773935    0.0000000000
     2        2       0.6894180207    0.0000000000
     2        3      -0.5510103896    0.0000000000
     3        1      -0.4314343092    0.0000000000
     3        2      -0.5510103896    0.0000000000
     3        3       2.6853983691    0.0000000000

 respfn : d/dk was computed, but no 2DTE, so no DDB output.

== END DATASET(S) ==============================================================

 -outvars: echo values of variables after computation  --------
            acell      1.0000000000E+00  1.0000000000E+00  1.0000000000E+00 Bohr
              amu      6.53900000E+01  3.54527000E+01
             ecut      4.20000000E+01 Hartree
           etotal     -5.4913993617E+01
            fcart      0.0000000000E+00  0.0000000000E+00  0.0000000000E+00
                       0.0000000000E+00  0.0000000000E+00  0.0000000000E+00
                       0.0000000000E+00  0.0000000000E+00  0.0000000000E+00
                       0.0000000000E+00  0.0000000000E+00  0.0000000000E+00
                       0.0000000000E+00  0.0000000000E+00  0.0000000000E+00
                       0.0000000000E+00  0.0000000000E+00  0.0000000000E+00
-          fftalg         512
           irdden           1
           irdwfk           1
           istwfk        1
              ixc     -116133
           kptopt           0
P           mkmem           1
P          mkqmem           1
P          mk1mem           1
            natom           6
            nband          43
           nbdbuf           4
            ngfft          72      72      72
             nkpt           1
            nstep        1000
             nsym           8
           ntypat           2
              occ      2.000000  2.000000  2.000000  2.000000  2.000000  2.000000
                       2.000000  2.000000  2.000000  2.000000  2.000000  2.000000
                       2.000000  2.000000  2.000000  2.000000  2.000000  2.000000
                       2.000000  2.000000  2.000000  2.000000  2.000000  2.000000
                       2.000000  2.000000  2.000000  2.000000  2.000000  2.000000
                       2.000000  2.000000  2.000000  2.000000  0.000000  0.000000
                       0.000000  0.000000  0.000000  0.000000  0.000000  0.000000
                       0.000000
        optdriver           1
            prtwf          -1
            rfdir           1       1       1
           rfelfd           2
            rprim      9.4838371752E+00  0.0000000000E+00 -7.3584838763E+00
                      -2.2753097336E+00  9.2068525123E+00 -7.3584838763E+00
                       0.0000000000E+00  0.0000000000E+00  1.2003768263E+01
          spgroup         122
           strten      0.0000000000E+00  0.0000000000E+00  0.0000000000E+00
                       0.0000000000E+00  0.0000000000E+00  0.0000000000E+00
           symrel      1  0  0   0  1  0   0  0  1       0  0  1  -1 -1 -1   1  0  0
                       0  1  0   1  0  0  -1 -1 -1      -1 -1 -1   0  0  1   0  1  0
                       0  1  0   1  0  0   0  0  1       0  0  1  -1 -1 -1   0  1  0
                       1  0  0   0  1  0  -1 -1 -1      -1 -1 -1   0  0  1   1  0  0
            tnons      0.0000000  0.0000000  0.0000000    -0.2500000  0.2500000  0.5000000
                      -0.0000000 -0.0000000 -0.0000000    -0.2500000  0.2500000  0.5000000
                      -0.2500000  0.2500000  0.5000000    -0.0000000  0.0000000 -0.0000000
                      -0.2500000  0.2500000  0.5000000    -0.0000000 -0.0000000 -0.0000000
           tolwfr      1.00000000E-20
            typat      1  1  2  2  2  2
           useylm           1
           xangst      3.4629623489E+00  1.2180141281E+00 -7.1788166599E-01
                       0.0000000000E+00  0.0000000000E+00  0.0000000000E+00
                       3.3122030631E+00  4.3664832081E+00 -3.5861510016E+00
                       3.0926843204E+00  6.0900706404E-01 -2.8682693356E+00
                      -2.3174299821E-01  3.0450353202E+00  3.3794769822E+00
                       1.4560324739E+00  1.7235874324E+00  2.0341669107E-01
            xcart      6.5440504480E+00  2.3017131281E+00 -1.3565997446E+00
                       0.0000000000E+00  0.0000000000E+00  0.0000000000E+00
                       6.2591566858E+00  8.2514574271E+00 -6.7768432642E+00
                       5.8443263810E+00  1.1508565640E+00 -5.4202435197E+00
                      -4.3793079983E-01  5.7542828202E+00  6.3862859687E+00
                       2.7515026162E+00  3.2571082133E+00  3.8440183698E-01
             xred      7.5000000000E-01  2.5000000000E-01  5.0000000000E-01
                       0.0000000000E+00  0.0000000000E+00  0.0000000000E+00
                       8.7500000000E-01  8.9623000000E-01  5.2123000000E-01
                       6.4623000000E-01  1.2500000000E-01  2.1230000000E-02
                       1.0377000000E-01  6.2500000000E-01  9.7877000000E-01
                       3.7500000000E-01  3.5377000000E-01  4.7877000000E-01
            znucl       30.00000   17.00000

- Timing analysis has been suppressed with timopt=0

 Suggested references for the acknowledgment of ABINIT usage.

 Calculation completed.
.Delivered   6 WARNINGs and   5 COMMENTs to log file.