.Version 9.5.1 of ABINIT

 ABINIT is a project of the Universite Catholique de Louvain,
 Corning Inc. and other collaborators, see ~abinit/doc/developers/contributors.txt .
 acknowledgments of the ABINIT effort.

.Starting date : Tue 11 May 2021.
- ( at 21h22 )

- input  file    -> /scratch/users/j/a/jabreu/flow_simple_8atoms/flow/w296/t1/run.abi
- output file    -> /scratch/users/j/a/jabreu/flow_simple_8atoms/flow/w296/t1/run.abo
- root for input  files -> /scratch/users/j/a/jabreu/flow_simple_8atoms/flow/w296/t1/indata/in
- root for output files -> /scratch/users/j/a/jabreu/flow_simple_8atoms/flow/w296/t1/outdata/out

 Symmetries : space group Im m m (# 71); Bravais oI (body-center ortho.)
     intxc =       0      iscf =       7    lmnmax =      18     lnmax =       6
     mgfft =      80  mpssoang =       3    mqgrid =    3001     natom =       8
  nloc_mem =       1    nspden =       1   nspinor =       1    nsppol =       1
      nsym =       8    n1xccc =    2501    ntypat =       3    occopt =       1
   xclevel =       2
-    mband =          26        mffmem =           1         mkmem =           2
-   mkqmem =           2        mk1mem =           2           mpw =       11831
      nfft =      512000          nkpt =           2
  Rough estimation (10% accuracy) of disk space for files :

------------- Echo of variables that govern the present computation ------------
-
- outvars: echo of selected default values
-   iomode0 =  0 , fftalg0 =512 , wfoptalg0 =  0
-
- outvars: echo of global parameters not present in the input file
-  max_nthreads =    0
-
 -outvars: echo values of preprocessed input variables --------
            acell      1.0000000000E+00  1.0000000000E+00  1.0000000000E+00 Bohr
              amu      6.94100000E+00  7.99040000E+01  1.40067400E+01
             ecut      4.20000000E+01 Hartree
-          fftalg         512
           irdden           1
           irdwfk           1
           istwfk        0    1
              ixc     -116133
              kpt     -2.38004497E-01  2.38004497E-01  2.38004497E-01
                       0.00000000E+00  0.00000000E+00  0.00000000E+00
           kptopt           0
P           mkmem           2
P          mkqmem           2
P          mk1mem           2
            natom           8
            nband          26
           nbdbuf           4
            ngfft          80      80      80
             nkpt           2
            nstep        2000
             nsym           8
           ntypat           3
              occ      2.000000  2.000000  2.000000  2.000000  2.000000  2.000000
                       2.000000  2.000000  2.000000  2.000000  2.000000  2.000000
                       2.000000  2.000000  2.000000  2.000000  2.000000  0.000000
                       0.000000  0.000000  0.000000  0.000000  0.000000  0.000000
                       0.000000  0.000000
        optdriver           1
            prtwf          -1
            rfdir           1       1       1
           rfelfd           2
            rprim      1.0154293331E+01  0.0000000000E+00 -7.9384039261E+00
                      -1.0119450738E+00  6.9406720996E+00 -1.0813462346E+01
                       0.0000000000E+00  0.0000000000E+00  1.2889062415E+01
          spgroup          71
           symrel      1  0  0   0  1  0   0  0  1      -1  0  0   0 -1  0   0  0 -1
                       0  0  1  -1 -1 -1   1  0  0       0  0 -1   1  1  1  -1  0  0
                      -1 -1 -1   0  0  1   0  1  0       1  1  1   0  0 -1   0 -1  0
                       0  1  0   1  0  0  -1 -1 -1       0 -1  0  -1  0  0   1  1  1
           tolwfr      1.00000000E-20
            typat      1  1  1  1  1  2  2  3
           useylm           1
              wtk        0.50000    0.50000
           xangst      3.0884984293E+00  3.2320562819E+00 -2.4814116878E+00
                       1.7494239013E+00  4.4078920548E-01 -6.2105049191E-01
                       4.7852238440E+00  4.4078920548E-01  8.5903367226E-01
                      -2.6774913470E-01  1.8364227437E+00  5.4918012528E-01
                       5.2698486588E-02  3.2320562819E+00 -3.9614958520E+00
                       3.2626706301E+00  2.4769486325E+00 -6.6920622172E+00
                       1.5752517005E+00  1.1958968549E+00 -3.2309980327E+00
                       0.0000000000E+00  0.0000000000E+00  0.0000000000E+00
            xcart      5.8364161932E+00  6.1077012189E+00 -4.6891885129E+00
                       3.3059320638E+00  8.3297088069E-01 -1.1736153444E+00
                       9.0427625497E+00  8.3297088069E-01  1.6233383795E+00
                      -5.0597253690E-01  3.4703360498E+00  1.0378000344E+00
                       9.9585707268E-02  6.1077012189E+00 -7.4861422368E+00
                       6.1655539528E+00  4.6807545606E+00 -1.2646164855E+01
                       2.9767943042E+00  2.2599175390E+00 -6.1057014176E+00
                       0.0000000000E+00  0.0000000000E+00  0.0000000000E+00
             xred      6.6247000000E-01  8.7998700000E-01  7.8248300000E-01
                       3.3753000000E-01  1.2001300000E-01  2.1751700000E-01
                       9.0249600000E-01  1.2001300000E-01  7.8248300000E-01
                       0.0000000000E+00  5.0000000000E-01  5.0000000000E-01
                       9.7504000000E-02  8.7998700000E-01  2.1751700000E-01
                       6.7439500000E-01  6.7439500000E-01 -5.5511151231E-17
                       3.2560500000E-01  3.2560500000E-01 -5.5511151231E-17
                       0.0000000000E+00  0.0000000000E+00  0.0000000000E+00
            znucl        3.00000   35.00000    7.00000

 chkinp: Checking input parameters for consistency.

== DATASET  1 ==================================================================
-   mpi_nproc: 1, omp_nthreads: -1 (-1 if OMP is not activated)

--- !DatasetInfo
iteration_state: {dtset: 1, }
dimensions: {natom: 8, nkpt: 2, mband: 26, nsppol: 1, nspinor: 1, nspden: 1, mpw: 11831, }
cutoff_energies: {ecut:  42.0, pawecutdg:  -1.0, }
electrons: {nelect:   3.40000000E+01, charge:   0.00000000E+00, occopt:   1.00000000E+00, tsmear:   1.00000000E-02, }
meta: {optdriver: 1, rfelfd: 2, }
...

 Real(R)+Recip(G) space primitive vectors, cartesian coordinates (Bohr,Bohr^-1):
 R(1)= 10.1542933  0.0000000 -7.9384039  G(1)=  0.0984805  0.0143584  0.0000000
 R(2)= -1.0119451  6.9406721-10.8134623  G(2)=  0.0000000  0.1440783  0.0000000
 R(3)=  0.0000000  0.0000000 12.8890624  G(3)=  0.0606544  0.1297199  0.0775852
 Unit cell volume ucvol=  9.0839045E+02 bohr^3
 Angles (23,13,12)=  1.47030906E+02  1.28017516E+02  6.29436493E+01 degrees

 getcut: wavevector=  0.0000  0.0000  0.0000  ngfft=  80  80  80
         ecut(hartree)=     42.000   => boxcut(ratio)=   2.12821

--- Pseudopotential description ------------------------------------------------
- pspini: atom type   1  psp file is /scratch/users/j/a/jabreu/pseudos/PBEsol/Li.psp8
- pspatm: opening atomic psp file    /scratch/users/j/a/jabreu/pseudos/PBEsol/Li.psp8
- Li    ONCVPSP-3.3.0  r_core=   1.40824   1.10935
-  3.00000   3.00000    180112                znucl, zion, pspdat
    8 -116133    1    4       400   0.00000   pspcod,pspxc,lmax,lloc,mmax,r2well
    3.99000000000000    0.00000000000000    0.00000000000000   rchrg,fchrg,qchrg
     nproj     2     2
     extension_switch     1
  pspatm : epsatm=    2.60859637
         --- l  ekb(1:nproj) -->
             0   -4.855856   -1.482423
             1   -2.171544   -0.427615
 pspatm: atomic psp has been read  and splines computed

- pspini: atom type   2  psp file is /scratch/users/j/a/jabreu/pseudos/PBEsol/Br.psp8
- pspatm: opening atomic psp file    /scratch/users/j/a/jabreu/pseudos/PBEsol/Br.psp8
- Br    ONCVPSP-3.3.0  r_core=   1.81012   1.51356   1.92136
- 35.00000   7.00000    180112                znucl, zion, pspdat
    8 -116133    2    4       600   0.00000   pspcod,pspxc,lmax,lloc,mmax,r2well
    5.99000000000000    8.00000000000000    0.00000000000000   rchrg,fchrg,qchrg
     nproj     2     2     2
     extension_switch     1
  pspatm : epsatm=   10.94933070
         --- l  ekb(1:nproj) -->
             0    8.508690    0.897946
             1    5.393311    0.892021
             2    2.527513    0.394763
 pspatm: atomic psp has been read  and splines computed

- pspini: atom type   3  psp file is /scratch/users/j/a/jabreu/pseudos/PBEsol/N.psp8
- pspatm: opening atomic psp file    /scratch/users/j/a/jabreu/pseudos/PBEsol/N.psp8
- N     ONCVPSP-3.3.0  r_core=   1.20551   1.35824
-  7.00000   5.00000    180112                znucl, zion, pspdat
    8 -116133    1    4       600   0.00000   pspcod,pspxc,lmax,lloc,mmax,r2well
    5.99000000000000    4.00000000000000    0.00000000000000   rchrg,fchrg,qchrg
     nproj     2     2
     extension_switch     1
  pspatm : epsatm=    5.26508895
         --- l  ekb(1:nproj) -->
             0    7.464189    0.625868
             1   -4.309714   -1.012941
 pspatm: atomic psp has been read  and splines computed

   1.36702890E+03                                ecore*ucvol(ha*bohr**3)

-inwffil : will read wavefunctions from disk file /scratch/users/j/a/jabreu/flow_simple_8atoms/flow/w296/t1/indata/in_WFK

 ==>  initialize data related to q vector <==

 The list of irreducible perturbations for this q vector is:
    1)    idir= 1    ipert=   9
    2)    idir= 2    ipert=   9
    3)    idir= 3    ipert=   9

 Perturbation wavevector (in red.coord.)   0.000000  0.000000  0.000000
 Perturbation : derivative vs k along direction   1

 dfpt_looppert : COMMENT -
  In a d/dk calculation, iscf is set to -3 automatically.
 The set of symmetries contains only one element for this perturbation.
 symkpt : not enough symmetry to change the number of k points.

[...]

 Initialisation of the first-order wave-functions :
  ireadwf=   0

--- !BeginCycle
iteration_state: {dtset: 1, }
solver: {iscf: 7, nstep: 2000, nline: 4, wfoptalg: 0, }
tolerances: {tolwfr: 1.00E-20, }
...

     iter   2DEtotal(Ha)        deltaE(Ha) residm    vres2
-ETOT  1  -14.317099020588     -1.432E+01 1.879E-02 0.000E+00
 ETOT  2  -14.321594076186     -4.495E-03 1.865E-04 0.000E+00
 ETOT  3  -14.321596502540     -2.426E-06 1.062E-06 0.000E+00
 ETOT  4  -14.321596505548     -3.008E-09 3.204E-08 0.000E+00
 ETOT  5  -14.321596505554     -6.192E-12 3.327E-10 0.000E+00
 ETOT  6  -14.321596505554     -2.487E-14 8.315E-12 0.000E+00
 ETOT  7  -14.321596505554     -3.553E-15 9.583E-14 0.000E+00
 ETOT  8  -14.321596505554      8.882E-15 2.314E-15 0.000E+00
 ETOT  9  -14.321596505554      7.105E-15 2.731E-17 0.000E+00
 ETOT 10  -14.321596505554     -8.882E-15 6.611E-19 0.000E+00
 ETOT 11  -14.321596505554      1.776E-15 9.876E-21 0.000E+00

 At SCF step   11   max residual=  9.88E-21 < tolwfr=  1.00E-20 =>converged.

 ----iterations are completed or convergence reached----

 dfpt_looppert: DFPT cycle converged with prtwf=-1. Will skip output of the 1st-order WFK file.
 dfpt_looppert : ek2=    2.6589150994E+01
          f-sum rule ratio=    1.0229896546E+00
 prteigrs : about to open file /scratch/users/j/a/jabreu/flow_simple_8atoms/flow/w296/t1/tmpdata/tmp_1WF1_EIG
 Expectation of eigenvalue derivatives (hartree) for nkpt=   2  k points:
  (in case of degenerate eigenvalues, averaged derivative)
 kpt#   1, nband= 26, wtk=  0.50000, kpt= -0.2380  0.2380  0.2380 (reduced coord)
   0.00000   -0.00000   -0.00000    0.00000   -0.00000    0.00000   -0.00000    0.00000
  -0.00000    0.00000    0.00000   -0.00000   -0.00000    0.00000    0.00000   -0.00000
  -0.00000    0.00000   -0.00000   -0.00000   -0.00000   -0.00000    0.00000   -0.00000
  -0.00000   -0.03199
 prteigrs : prtvol=0 or 1, do not print more k-points.

 Eight components of 2nd-order total energy (hartree) are
 1,2,3: 0th-order hamiltonian combined with 1st-order wavefunctions
     kin0=   1.31014795E+01 eigvalue=   2.03468449E+00  local=  -5.71324960E+00
 4,5,6: 1st-order hamiltonian combined with 1st and 0th-order wfs
     kin1=  -2.72004264E+01  Hartree=   0.00000000E+00     xc=   0.00000000E+00
 7,8,9: eventually, occupation + non-local contributions
    edocc=   5.00328860E+00     enl0=  -1.04606488E-01   enl1=  -1.44276662E+00
 1-9 gives the relaxation energy (to be shifted if some occ is /=2.0)
   erelax=  -1.43215965E+01
  No Ewald or frozen-wf contrib.: the relaxation energy is the total one
 2DEtotal=   -0.1432159651E+02 Ha. Also 2DEtotal=   -0.389710460001E+03 eV
    (  non-var. 2DEtotal :   -1.4321596505E+01 Ha)

 Perturbation wavevector (in red.coord.)   0.000000  0.000000  0.000000
 Perturbation : derivative vs k along direction   2
 The set of symmetries contains only one element for this perturbation.
 symkpt : not enough symmetry to change the number of k points.

[...]

 Perturbation wavevector (in red.coord.)   0.000000  0.000000  0.000000
 Perturbation : derivative vs k along direction   3
 The set of symmetries contains only one element for this perturbation.
 symkpt : not enough symmetry to change the number of k points.

-inwffil : will read wavefunctions from disk file /scratch/users/j/a/jabreu/flow_simple_8atoms/flow/w296/t1/indata/in_WFK

 Initialisation of the first-order wave-functions :
  ireadwf=   0

--- !BeginCycle
iteration_state: {dtset: 1, }
solver: {iscf: 7, nstep: 2000, nline: 4, wfoptalg: 0, }
tolerances: {tolwfr: 1.00E-20, }
...

     iter   2DEtotal(Ha)        deltaE(Ha) residm    vres2
-ETOT  1  -39.941915813691     -3.994E+01 5.006E-02 0.000E+00
 ETOT  2  -39.952619031803     -1.070E-02 9.120E-04 0.000E+00
 ETOT  3  -39.952626354485     -7.323E-06 5.257E-06 0.000E+00
 ETOT  4  -39.952626365479     -1.099E-08 1.521E-07 0.000E+00
 ETOT  5  -39.952626365502     -2.301E-11 1.076E-09 0.000E+00
 ETOT  6  -39.952626365502     -1.705E-13 3.354E-11 0.000E+00
 ETOT  7  -39.952626365502      2.842E-14 2.498E-13 0.000E+00
 ETOT  8  -39.952626365502      0.000E+00 7.962E-15 0.000E+00
 ETOT  9  -39.952626365502      0.000E+00 6.037E-17 0.000E+00
 ETOT 10  -39.952626365502      0.000E+00 1.942E-18 0.000E+00
 ETOT 11  -39.952626365502      0.000E+00 1.586E-20 0.000E+00
 ETOT 12  -39.952626365502      0.000E+00 9.758E-21 0.000E+00

 At SCF step   12   max residual=  9.76E-21 < tolwfr=  1.00E-20 =>converged.

 ----iterations are completed or convergence reached----

 dfpt_looppert: DFPT cycle converged with prtwf=-1. Will skip output of the 1st-order WFK file.
 dfpt_looppert : ek2=    7.1208987294E+01
          f-sum rule ratio=    1.0663201716E+00
 prteigrs : about to open file /scratch/users/j/a/jabreu/flow_simple_8atoms/flow/w296/t1/tmpdata/tmp_1WF1_EIG
 Expectation of eigenvalue derivatives (hartree) for nkpt=   2  k points:
  (in case of degenerate eigenvalues, averaged derivative)
 kpt#   1, nband= 26, wtk=  0.50000, kpt= -0.2380  0.2380  0.2380 (reduced coord)
   0.00009   -0.00006   -0.00005    0.00007    0.00000    0.01983   -0.01397   -0.00229
  -0.04872   -0.00055   -0.08222    0.02760    0.09193   -0.00339    0.02531    0.00430
  -0.00147   -0.09188   -0.05958   -0.07589    0.23655   -0.05473    0.11006   -0.22759
   0.08126   -0.03435
 prteigrs : prtvol=0 or 1, do not print more k-points.

 Eight components of 2nd-order total energy (hartree) are
 1,2,3: 0th-order hamiltonian combined with 1st-order wavefunctions
     kin0=   3.31405852E+01 eigvalue=   5.41515279E+00  local=  -1.41180473E+01
 4,5,6: 1st-order hamiltonian combined with 1st and 0th-order wfs
     kin1=  -7.59315795E+01  Hartree=   0.00000000E+00     xc=   0.00000000E+00
 7,8,9: eventually, occupation + non-local contributions
    edocc=   1.59839720E+01     enl0=  -4.69036356E-01   enl1=  -3.97367318E+00
 1-9 gives the relaxation energy (to be shifted if some occ is /=2.0)
   erelax=  -3.99526264E+01
  No Ewald or frozen-wf contrib.: the relaxation energy is the total one
 2DEtotal=   -0.3995262637E+02 Ha. Also 2DEtotal=   -0.108716625225E+04 eV
    (  non-var. 2DEtotal :   -3.9952626365E+01 Ha)

 CALCULATION OF EFFECTIVE MASSES
 NOTE : Additional infos (eff. mass eigenvalues, eigenvectors and, if degenerate, average mass) are available in stdout.

 K-point (-0.238, 0.238, 0.238) | band =    17
 Effective mass tensor:
            -45.0064098807             -0.9674256104            -17.8278233259
             -0.9674256104             -2.5206787856              1.9914615321
            -17.8278233259              1.9914615321            -17.0914645851
 Effective mass tensor eigenvalues:
            -53.6905434533             -9.1470735882             -1.7809362099
 Angular average effective mass 1/(<1/m>)=  -4.3512802414
 Angular average effective mass for Frohlich model (<m**0.5>)**2=  -6.6698320482
 Effective masses along directions: (cart. coord. / red. coord. -> eff. mass)
    1:   1.000000  0.000000  0.000000 /   0.995071 -0.099166  0.000000 -> -22.3600091506
    2:   0.000000  1.000000  0.000000 /   0.000000  1.000000  0.000000 ->  -1.9376368510
    3:   0.000000  0.000000  1.000000 /  -0.426724 -0.581271  0.692843 ->  -7.7738142942
    4:   0.577350  0.577350  0.577350 /   0.158724 -0.349894  0.923245 ->  -4.2391858268
    5:   0.000000  0.707107  0.707107 /  -0.508054 -0.247857  0.824893 ->  -2.2494206754
    6:   0.707107  0.000000  0.707107 /   0.125676 -0.670689  0.731015 -> -30.2134034205
    7:   0.707107  0.707107  0.000000 /   0.863579  0.504213  0.000000 ->  -4.5267127397

 K-point ( 0.000, 0.000, 0.000) | band =    18
 Effective mass tensor:
              0.3501535769              0.0093896880             -0.0169032498
              0.0093896880              0.3275501044             -0.0192591354
             -0.0169032498             -0.0192591354              0.3765827755
 Effective mass tensor eigenvalues:
              0.3204217554              0.3419125128              0.3919521885
 Angular average effective mass 1/(<1/m>)=   0.3489612493
 Angular average effective mass for Frohlich model (<m**0.5>)**2=   0.3496862959
 Effective masses along directions: (cart. coord. / red. coord. -> eff. mass)
    1:   1.000000  0.000000  0.000000 /   0.995071 -0.099166  0.000000 ->   0.3491723023
    2:   0.000000  1.000000  0.000000 /   0.000000  1.000000  0.000000 ->   0.3263571416
    3:   0.000000  0.000000  1.000000 /  -0.426724 -0.581271  0.692843 ->   0.3746862467
    4:   0.577350  0.577350  0.577350 /   0.158724 -0.349894  0.923245 ->   0.3332013901
    5:   0.000000  0.707107  0.707107 /  -0.508054 -0.247857  0.824893 ->   0.3311408495
    6:   0.707107  0.000000  0.707107 /   0.125676 -0.670689  0.731015 ->   0.3458851115
    7:   0.707107  0.707107  0.000000 /   0.863579  0.504213  0.000000 ->   0.3461097346

 END OF EFFECTIVE MASSES SECTION

 ---- first-order wavefunction calculations are completed ----

 Total localisation tensor (bohr^2) in cartesian coordinates
  WARNING : still subject to testing - especially symmetries.
      direction              matrix element
   alpha     beta       real part   imaginary part
     1        1       1.1905468510    0.0000000000
     1        2      -0.1870501119    0.0000000000
     1        3      -0.6180017040    0.0000000000
     2        1      -0.1870501119    0.0000000000
     2        2       1.2829288136    0.0000000000
     2        3      -1.9987837230    0.0000000000
     3        1      -0.6180017040    0.0000000000
     3        2      -1.9987837230    0.0000000000
     3        3       9.3673176369    0.0000000000

 respfn : d/dk was computed, but no 2DTE, so no DDB output.

== END DATASET(S) ==============================================================

 -outvars: echo values of variables after computation  --------
            acell      1.0000000000E+00  1.0000000000E+00  1.0000000000E+00 Bohr
              amu      6.94100000E+00  7.99040000E+01  1.40067400E+01
             ecut      4.20000000E+01 Hartree
           etotal     -3.9952626366E+01
            fcart      0.0000000000E+00  0.0000000000E+00  0.0000000000E+00
                       0.0000000000E+00  0.0000000000E+00  0.0000000000E+00
                       0.0000000000E+00  0.0000000000E+00  0.0000000000E+00
                       0.0000000000E+00  0.0000000000E+00  0.0000000000E+00
                       0.0000000000E+00  0.0000000000E+00  0.0000000000E+00
                       0.0000000000E+00  0.0000000000E+00  0.0000000000E+00
                       0.0000000000E+00  0.0000000000E+00  0.0000000000E+00
                       0.0000000000E+00  0.0000000000E+00  0.0000000000E+00
-          fftalg         512
           irdden           1
           irdwfk           1
           istwfk        0    1
              ixc     -116133
              kpt     -2.38004497E-01  2.38004497E-01  2.38004497E-01
                       0.00000000E+00  0.00000000E+00  0.00000000E+00
           kptopt           0
P           mkmem           2
P          mkqmem           2
P          mk1mem           2
            natom           8
            nband          26
           nbdbuf           4
            ngfft          80      80      80
             nkpt           2
            nstep        2000
             nsym           8
           ntypat           3
              occ      2.000000  2.000000  2.000000  2.000000  2.000000  2.000000
                       2.000000  2.000000  2.000000  2.000000  2.000000  2.000000
                       2.000000  2.000000  2.000000  2.000000  2.000000  0.000000
                       0.000000  0.000000  0.000000  0.000000  0.000000  0.000000
                       0.000000  0.000000
        optdriver           1
            prtwf          -1
            rfdir           1       1       1
           rfelfd           2
            rprim      1.0154293331E+01  0.0000000000E+00 -7.9384039261E+00
                      -1.0119450738E+00  6.9406720996E+00 -1.0813462346E+01
                       0.0000000000E+00  0.0000000000E+00  1.2889062415E+01
          spgroup          71
           strten      0.0000000000E+00  0.0000000000E+00  0.0000000000E+00
                       0.0000000000E+00  0.0000000000E+00  0.0000000000E+00
           symrel      1  0  0   0  1  0   0  0  1      -1  0  0   0 -1  0   0  0 -1
                       0  0  1  -1 -1 -1   1  0  0       0  0 -1   1  1  1  -1  0  0
                      -1 -1 -1   0  0  1   0  1  0       1  1  1   0  0 -1   0 -1  0
                       0  1  0   1  0  0  -1 -1 -1       0 -1  0  -1  0  0   1  1  1
           tolwfr      1.00000000E-20
            typat      1  1  1  1  1  2  2  3
           useylm           1
              wtk        0.50000    0.50000
           xangst      3.0884984293E+00  3.2320562819E+00 -2.4814116878E+00
                       1.7494239013E+00  4.4078920548E-01 -6.2105049191E-01
                       4.7852238440E+00  4.4078920548E-01  8.5903367226E-01
                      -2.6774913470E-01  1.8364227437E+00  5.4918012528E-01
                       5.2698486588E-02  3.2320562819E+00 -3.9614958520E+00
                       3.2626706301E+00  2.4769486325E+00 -6.6920622172E+00
                       1.5752517005E+00  1.1958968549E+00 -3.2309980327E+00
                       0.0000000000E+00  0.0000000000E+00  0.0000000000E+00
            xcart      5.8364161932E+00  6.1077012189E+00 -4.6891885129E+00
                       3.3059320638E+00  8.3297088069E-01 -1.1736153444E+00
                       9.0427625497E+00  8.3297088069E-01  1.6233383795E+00
                      -5.0597253690E-01  3.4703360498E+00  1.0378000344E+00
                       9.9585707268E-02  6.1077012189E+00 -7.4861422368E+00
                       6.1655539528E+00  4.6807545606E+00 -1.2646164855E+01
                       2.9767943042E+00  2.2599175390E+00 -6.1057014176E+00
                       0.0000000000E+00  0.0000000000E+00  0.0000000000E+00
             xred      6.6247000000E-01  8.7998700000E-01  7.8248300000E-01
                       3.3753000000E-01  1.2001300000E-01  2.1751700000E-01
                       9.0249600000E-01  1.2001300000E-01  7.8248300000E-01
                       0.0000000000E+00  5.0000000000E-01  5.0000000000E-01
                       9.7504000000E-02  8.7998700000E-01  2.1751700000E-01
                       6.7439500000E-01  6.7439500000E-01 -5.5511151231E-17
                       3.2560500000E-01  3.2560500000E-01 -5.5511151231E-17
                       0.0000000000E+00  0.0000000000E+00  0.0000000000E+00
            znucl        3.00000   35.00000    7.00000

- Timing analysis has been suppressed with timopt=0

 Suggested references for the acknowledgment of ABINIT usage.

 Calculation completed.
.Delivered  14 WARNINGs and   9 COMMENTs to log file.