.Version 9.5.2 of ABINIT

 ABINIT is a project of the Universite Catholique de Louvain,
 Corning Inc. and other collaborators, see ~abinit/doc/developers/contributors.txt .
 acknowledgments of the ABINIT effort.

.Starting date : Wed 26 May 2021.
- ( at 02h36 )

- input  file    -> /scratch/users/j/a/jabreu/flow_simple_11atoms/flow/w249/t1/run.abi
- output file    -> /scratch/users/j/a/jabreu/flow_simple_11atoms/flow/w249/t1/run.abo
- root for input  files -> /scratch/users/j/a/jabreu/flow_simple_11atoms/flow/w249/t1/indata/in
- root for output files -> /scratch/users/j/a/jabreu/flow_simple_11atoms/flow/w249/t1/outdata/out

 Symmetries : space group Ib a m (# 72); Bravais oI (body-center ortho.)
     intxc =       0      iscf =       7    lmnmax =      18     lnmax =       6
     mgfft =      80  mpssoang =       3    mqgrid =    3001     natom =      12
  nloc_mem =       1    nspden =       1   nspinor =       1    nsppol =       1
      nsym =       8    n1xccc =    2501    ntypat =       3    occopt =       1
   xclevel =       2
-    mband =          87        mffmem =           1         mkmem =           1
-   mkqmem =           1        mk1mem =           1           mpw =       17501
      nfft =      512000          nkpt =           1
  Rough estimation (10% accuracy) of disk space for files :

------------- Echo of variables that govern the present computation ------------
-
- outvars: echo of selected default values
-   iomode0 =  0 , fftalg0 =512 , wfoptalg0 =  0
-
- outvars: echo of global parameters not present in the input file
-  max_nthreads =    0
-
 -outvars: echo values of preprocessed input variables --------
            acell      1.0000000000E+00  1.0000000000E+00  1.0000000000E+00 Bohr
              amu      2.29897680E+01  1.07868200E+02  1.59994000E+01
             ecut      4.40000000E+01 Hartree
-          fftalg         512
           irdden           1
           irdwfk           1
           istwfk        1
              ixc     -116133
           kptopt           0
P           mkmem           1
P          mkqmem           1
P          mk1mem           1
            natom          12
            nband          87
           nbdbuf           4
            ngfft          80      80      80
             nkpt           1
            nstep        2000
             nsym           8
           ntypat           3
              occ      2.000000  2.000000  2.000000  2.000000  2.000000  2.000000
                       2.000000  2.000000  2.000000  2.000000  2.000000  2.000000
                       2.000000  2.000000  2.000000  2.000000  2.000000  2.000000
                       2.000000  2.000000  2.000000  2.000000  2.000000  2.000000
                       2.000000  2.000000  2.000000  2.000000  2.000000  2.000000
                       2.000000  2.000000  2.000000  2.000000  2.000000  2.000000
                       2.000000  2.000000  2.000000  2.000000  2.000000  2.000000
                       2.000000  2.000000  2.000000  2.000000  2.000000  2.000000
                       2.000000  2.000000  2.000000  2.000000  2.000000  2.000000
                       2.000000  2.000000  2.000000  2.000000  2.000000  2.000000
                       2.000000  2.000000  2.000000  2.000000  2.000000  2.000000
                       2.000000  2.000000  2.000000  2.000000  2.000000  2.000000
                       2.000000  2.000000  2.000000  2.000000  2.000000  2.000000
                       0.000000  0.000000  0.000000  0.000000  0.000000  0.000000
                       0.000000  0.000000  0.000000
        optdriver           1
            prtwf          -1
            rfdir           1       1       1
           rfelfd           2
            rprim      1.0233760908E+01  0.0000000000E+00 -7.4707043146E+00
                      -2.5051656788E+00  9.7137633652E+00 -7.7400407938E+00
                       0.0000000000E+00  0.0000000000E+00  1.2670488755E+01
          spgroup          72
           symrel      1  0  0   0  1  0   0  0  1      -1  0  0   0 -1  0   0  0 -1
                       0  0  1  -1 -1 -1   1  0  0       0  0 -1   1  1  1  -1  0  0
                      -1 -1 -1   0  0  1   0  1  0       1  1  1   0  0 -1   0 -1  0
                       0  1  0   1  0  0  -1 -1 -1       0 -1  0  -1  0  0   1  1  1
            tnons      0.0000000  0.0000000  0.0000000     0.0000000  0.0000000 -0.0000000
                       0.0000000  0.5000000  0.5000000    -0.0000000  0.5000000  0.5000000
                       0.0000000  0.0000000 -0.0000000     0.0000000 -0.0000000  0.0000000
                      -0.0000000  0.5000000  0.5000000     0.0000000  0.5000000  0.5000000
           tolwfr      1.00000000E-20
            typat      1  1  2  2  2  2  2  2  3  3  3  3
           useylm           1
           xangst     -9.9425743572E-01  3.8552266369E+00  1.9568105168E+00
                      -3.3141914524E-01  1.2850755456E+00  6.5227017226E-01
                       2.0448982249E+00  2.5701510913E+00 -6.7212288318E-01
                       0.0000000000E+00  0.0000000000E+00  3.3524669353E+00
                       2.7077365154E+00  0.0000000000E+00 -1.9766632277E+00
                       2.7077365154E+00  0.0000000000E+00  1.3758037076E+00
                       2.0448982249E+00  2.5701510913E+00 -4.0245898185E+00
                      -6.6283829048E-01  2.5701510913E+00 -2.0479265908E+00
                      -6.2671688086E-01  4.5684898274E+00 -2.6141501364E+00
                       3.1437689464E+00  1.9983387362E+00 -2.3396915721E+00
                       9.4602750337E-01  3.1419634463E+00  9.9544580575E-01
                       4.7165133307E+00  5.7181235508E-01  1.2699043701E+00
            xcart     -1.8788742591E+00  7.2853225239E+00  3.6978359707E+00
                      -6.2629141970E-01  2.4284408413E+00  1.2326119902E+00
                       3.8642976147E+00  4.8568816826E+00 -1.2701281769E+00
                       0.0000000000E+00  0.0000000000E+00  6.3352443773E+00
                       5.1168804541E+00  0.0000000000E+00 -3.7353521573E+00
                       5.1168804541E+00  0.0000000000E+00  2.5998922200E+00
                       3.8642976147E+00  4.8568816826E+00 -7.6053725542E+00
                      -1.2525828394E+00  4.8568816826E+00 -3.8700203969E+00
                      -1.1843232677E+00  8.6331946147E+00 -4.9400278281E+00
                       5.9408623338E+00  3.7763129321E+00 -4.4213763067E+00
                       1.7877328956E+00  5.9374504331E+00  1.8811199530E+00
                       8.9129184971E+00  1.0805687505E+00  2.3997714744E+00
             xred      0.0000000000E+00  7.5000000000E-01  7.5000000000E-01
                       0.0000000000E+00  2.5000000000E-01  2.5000000000E-01
                       5.0000000000E-01  5.0000000000E-01  5.0000000000E-01
                       0.0000000000E+00  0.0000000000E+00  5.0000000000E-01
                       5.0000000000E-01  0.0000000000E+00  0.0000000000E+00
                       5.0000000000E-01  0.0000000000E+00  5.0000000000E-01
                       5.0000000000E-01  5.0000000000E-01  0.0000000000E+00
                       0.0000000000E+00  5.0000000000E-01 -2.7755575616E-17
                       1.0183600000E-01  8.8875900000E-01  2.1307700000E-01
                       6.7568200000E-01  3.8875900000E-01  2.8692300000E-01
                       3.2431800000E-01  6.1124100000E-01  7.1307700000E-01
                       8.9816400000E-01  1.1124100000E-01  7.8692300000E-01
            znucl       11.00000   47.00000    8.00000

 chkinp: Checking input parameters for consistency.

== DATASET  1 ==================================================================
-   mpi_nproc: 1, omp_nthreads: -1 (-1 if OMP is not activated)

--- !DatasetInfo
iteration_state: {dtset: 1, }
dimensions: {natom: 12, nkpt: 1, mband: 87, nsppol: 1, nspinor: 1, nspden: 1, mpw: 17501, }
cutoff_energies: {ecut:  44.0, pawecutdg:  -1.0, }
electrons: {nelect:   1.56000000E+02, charge:   0.00000000E+00, occopt:   1.00000000E+00, tsmear:   1.00000000E-02, }
meta: {optdriver: 1, rfelfd: 2, }
...

 Real(R)+Recip(G) space primitive vectors, cartesian coordinates (Bohr,Bohr^-1):
 R(1)= 10.2337609  0.0000000 -7.4707043  G(1)=  0.0977158  0.0252008  0.0000000
 R(2)= -2.5051657  9.7137634 -7.7400408  G(2)=  0.0000000  0.1029467  0.0000000
 R(3)=  0.0000000  0.0000000 12.6704888  G(3)=  0.0576146  0.0777460  0.0789236
 Unit cell volume ucvol=  1.2595522E+03 bohr^3
 Angles (23,13,12)=  1.27652547E+02  1.26129659E+02  7.84346161E+01 degrees

 getcut: wavevector=  0.0000  0.0000  0.0000  ngfft=  80  80  80
         ecut(hartree)=     44.000   => boxcut(ratio)=   2.11479

--- Pseudopotential description ------------------------------------------------
- pspini: atom type   1  psp file is /scratch/users/j/a/jabreu/pseudos/PBEsol/Na.psp8
- pspatm: opening atomic psp file    /scratch/users/j/a/jabreu/pseudos/PBEsol/Na.psp8
- Na    ONCVPSP-3.3.0  r_core=   1.20708   1.55069
- 11.00000   9.00000    180112                znucl, zion, pspdat
    8 -116133    1    4       400   0.00000   pspcod,pspxc,lmax,lloc,mmax,r2well
    3.99000000000000    0.00000000000000    0.00000000000000   rchrg,fchrg,qchrg
     nproj     2     2
     extension_switch     1
  pspatm : epsatm=    9.32878306
         --- l  ekb(1:nproj) -->
             0    2.657905   -0.678300
             1   -6.761319   -2.404728
 pspatm: atomic psp has been read  and splines computed

- pspini: atom type   2  psp file is /scratch/users/j/a/jabreu/pseudos/PBEsol/Ag.psp8
- pspatm: opening atomic psp file    /scratch/users/j/a/jabreu/pseudos/PBEsol/Ag.psp8
- Ag    ONCVPSP-3.3.0  r_core=   1.41384   1.46535   1.61207
- 47.00000  19.00000    180112                znucl, zion, pspdat
    8 -116133    2    4       600   0.00000   pspcod,pspxc,lmax,lloc,mmax,r2well
    5.99000000000000    7.00000000000000    0.00000000000000   rchrg,fchrg,qchrg
     nproj     2     2     2
     extension_switch     1
  pspatm : epsatm=   27.64581383
         --- l  ekb(1:nproj) -->
             0    9.559407   -0.398585
             1    3.418858   -0.136622
             2   -1.644397   -0.401551
 pspatm: atomic psp has been read  and splines computed

- pspini: atom type   3  psp file is /scratch/users/j/a/jabreu/pseudos/PBEsol/O.psp8
- pspatm: opening atomic psp file    /scratch/users/j/a/jabreu/pseudos/PBEsol/O.psp8
- O     ONCVPSP-3.3.0  r_core=   1.35509   1.45563   1.26150
-  8.00000   6.00000    180112                znucl, zion, pspdat
    8 -116133    2    4       600   0.00000   pspcod,pspxc,lmax,lloc,mmax,r2well
    5.99000000000000    4.00000000000000    0.00000000000000   rchrg,fchrg,qchrg
     nproj     2     2     1
     extension_switch     1
  pspatm : epsatm=    6.22910522
         --- l  ekb(1:nproj) -->
             0    6.050032    0.820363
             1   -4.739617   -1.153841
             2   -1.335834
 pspatm: atomic psp has been read  and splines computed

   3.26740237E+04                                ecore*ucvol(ha*bohr**3)

 ==>  initialize data related to q vector <==

 The list of irreducible perturbations for this q vector is:
[...]
 Expectation of eigenvalue derivatives (hartree) for nkpt=   1  k points:
  (in case of degenerate eigenvalues, averaged derivative)
 kpt#   1, nband= 87, wtk=  1.00000, kpt=  0.0000  0.0000  0.0000 (reduced coord)
   0.00000   -0.00000   -0.00000   -0.00000   -0.00000    0.00000    0.00000    0.00000
  -0.00000   -0.00000    0.00000   -0.00000   -0.00000   -0.00000    0.00000    0.00000
  -0.00000   -0.00000    0.00000   -0.00000    0.00000    0.00000    0.00000   -0.00000
  -0.00000    0.00000    0.00000   -0.00000    0.00000   -0.00000   -0.00000    0.00000
   0.00000   -0.00000   -0.00000    0.00000    0.00000   -0.00000    0.00000    0.00000
  -0.00000   -0.00000    0.00000    0.00000   -0.00000    0.00000    0.00000   -0.00000
  -0.00000   -0.00000    0.00000    0.00000   -0.00000    0.00000    0.00000    0.00000
  -0.00000    0.00000   -0.00000   -0.00000   -0.00000   -0.00000   -0.00000    0.00000
  -0.00000   -0.00000   -0.00000   -0.00000    0.00000   -0.00000    0.00000    0.00000
  -0.00000    0.00000    0.00000   -0.00000    0.00000   -0.00000   -0.00000    0.00000
   0.00000    0.00000   -0.00000   -0.00002   -0.00000   -0.00997    0.00000

 Eight components of 2nd-order total energy (hartree) are
 1,2,3: 0th-order hamiltonian combined with 1st-order wavefunctions
     kin0=   1.07905317E+02 eigvalue=  -3.35644873E-01  local=  -4.80246562E+01
 4,5,6: 1st-order hamiltonian combined with 1st and 0th-order wfs
     kin1=  -1.33393085E+02  Hartree=   0.00000000E+00     xc=   0.00000000E+00
 7,8,9: eventually, occupation + non-local contributions
    edocc=   9.74753444E+00     enl0=   9.10428337E-01   enl1=  -7.01287300E+00
 1-9 gives the relaxation energy (to be shifted if some occ is /=2.0)
   erelax=  -7.02029788E+01
  No Ewald or frozen-wf contrib.: the relaxation energy is the total one
 2DEtotal=   -0.7020297880E+02 Ha. Also 2DEtotal=   -0.191032020430E+04 eV
    (  non-var. 2DEtotal :   -7.0202978802E+01 Ha)

 Perturbation wavevector (in red.coord.)   0.000000  0.000000  0.000000
 Perturbation : derivative vs k along direction   2
 The set of symmetries contains only one element for this perturbation.
 symkpt : not enough symmetry to change the number of k points.

[...]

 Perturbation wavevector (in red.coord.)   0.000000  0.000000  0.000000
 Perturbation : derivative vs k along direction   3
 The set of symmetries contains only one element for this perturbation.
 symkpt : not enough symmetry to change the number of k points.

 Initialisation of the first-order wave-functions :
  ireadwf=   0

--- !BeginCycle
iteration_state: {dtset: 1, }
solver: {iscf: 7, nstep: 2000, nline: 4, wfoptalg: 0, }
tolerances: {tolwfr: 1.00E-20, }
...

     iter   2DEtotal(Ha)        deltaE(Ha) residm    vres2
-ETOT  1  -109.00417086812     -1.090E+02 3.447E-02 0.000E+00
 ETOT  2  -109.14062019169     -1.364E-01 4.951E-04 0.000E+00
 ETOT  3  -109.14146387194     -8.437E-04 2.353E-06 0.000E+00
 ETOT  4  -109.14147408562     -1.021E-05 1.169E-07 0.000E+00
 ETOT  5  -109.14147424828     -1.627E-07 7.566E-10 0.000E+00
 ETOT  6  -109.14147425118     -2.900E-09 4.425E-11 0.000E+00
 ETOT  7  -109.14147425123     -5.555E-11 3.092E-13 0.000E+00
 ETOT  8  -109.14147425124     -1.094E-12 1.823E-14 0.000E+00
 ETOT  9  -109.14147425124     -1.421E-14 2.202E-16 0.000E+00
 ETOT 10  -109.14147425124      1.421E-14 7.955E-18 0.000E+00
 ETOT 11  -109.14147425124     -2.842E-14 1.725E-19 0.000E+00
 ETOT 12  -109.14147425124      1.421E-14 9.912E-21 0.000E+00

 At SCF step   12   max residual=  9.91E-21 < tolwfr=  1.00E-20 =>converged.

 ----iterations are completed or convergence reached----

 dfpt_looppert: DFPT cycle converged with prtwf=-1. Will skip output of the 1st-order WFK file.
 dfpt_looppert : ek2=    1.9206076599E+02
          f-sum rule ratio=    1.0824261872E+00
 prteigrs : about to open file /scratch/users/j/a/jabreu/flow_simple_11atoms/flow/w249/t1/tmpdata/tmp_1WF1_EIG
 Expectation of eigenvalue derivatives (hartree) for nkpt=   1  k points:
  (in case of degenerate eigenvalues, averaged derivative)
 kpt#   1, nband= 87, wtk=  1.00000, kpt=  0.0000  0.0000  0.0000 (reduced coord)
  -0.00000   -0.00000   -0.00000   -0.00000    0.00000    0.00000   -0.00000    0.00000
   0.00000   -0.00000    0.00000   -0.00000   -0.00000   -0.00000    0.00000    0.00000
  -0.00000   -0.00000    0.00000   -0.00000    0.00000    0.00000    0.00000    0.00000
  -0.00000    0.00000   -0.00000   -0.00000    0.00000    0.00000   -0.00000    0.00000
   0.00000    0.00000   -0.00000   -0.00000    0.00000    0.00000    0.00000    0.00000
  -0.00000   -0.00000    0.00000    0.00000    0.00000   -0.00000    0.00000   -0.00000
  -0.00000    0.00000    0.00000    0.00000   -0.00000    0.00000    0.00000    0.00000
  -0.00000    0.00000    0.00000   -0.00000   -0.00000    0.00000    0.00000    0.00000
   0.00000    0.00000    0.00000    0.00000    0.00000    0.00000   -0.00000    0.00000
  -0.00000    0.00000   -0.00000   -0.00000    0.00000    0.00000   -0.00000    0.00000
   0.00000    0.00000   -0.00000    0.00000   -0.00004   -0.01009    0.00001

 Eight components of 2nd-order total energy (hartree) are
 1,2,3: 0th-order hamiltonian combined with 1st-order wavefunctions
     kin0=   1.66615029E+02 eigvalue=  -8.14933769E-01  local=  -7.43948497E+01
 4,5,6: 1st-order hamiltonian combined with 1st and 0th-order wfs
     kin1=  -2.07891603E+02  Hartree=   0.00000000E+00     xc=   0.00000000E+00
 7,8,9: eventually, occupation + non-local contributions
    edocc=   1.63541834E+01     enl0=   1.38204527E+00   enl1=  -1.03913459E+01
 1-9 gives the relaxation energy (to be shifted if some occ is /=2.0)
   erelax=  -1.09141474E+02
  No Ewald or frozen-wf contrib.: the relaxation energy is the total one
 2DEtotal=   -0.1091414743E+03 Ha. Also 2DEtotal=   -0.296989055090E+04 eV
    (  non-var. 2DEtotal :   -1.0914147425E+02 Ha)

 CALCULATION OF EFFECTIVE MASSES
 NOTE : Additional infos (eff. mass eigenvalues, eigenvectors and, if degenerate, average mass) are available in stdout.

 K-point ( 0.000, 0.000, 0.000) | band =    78
 Effective mass tensor:
             -0.9907741663             -0.6777179879              1.0791176135
             -0.6777179879             -1.3385550840              1.3338499434
              1.0791176135              1.3338499434             -2.5663391324
 Effective mass tensor eigenvalues:
             -3.9664407734             -0.4867458323             -0.4424817770
 Angular average effective mass 1/(<1/m>)=  -0.6569502848
 Angular average effective mass for Frohlich model (<m**0.5>)**2=  -0.7841999797
 Effective masses along directions: (cart. coord. / red. coord. -> eff. mass)
    1:   1.000000  0.000000  0.000000 /   0.971321 -0.237774  0.000000 ->  -0.5158580855
    2:   0.000000  1.000000  0.000000 /   0.000000  1.000000  0.000000 ->  -0.6198641804
    3:   0.000000  0.000000  1.000000 /  -0.449471 -0.465676  0.762314 ->  -0.9854339830
    4:   0.577350  0.577350  0.577350 /   0.212884 -0.040946  0.976219 ->  -0.4607138501
    5:   0.000000  0.707107  0.707107 /  -0.503391  0.132993  0.853763 ->  -0.4987771121
    6:   0.707107  0.000000  0.707107 /   0.167185 -0.619909  0.766656 ->  -0.4740841908
    7:   0.707107  0.707107  0.000000 /   0.817541  0.575871  0.000000 ->  -0.7018226974

 K-point ( 0.000, 0.000, 0.000) | band =    79
 Effective mass tensor:
              1.8349375567              0.3682781974             -0.2808097355
              0.3682781974              1.4224758763             -0.7248120323
             -0.2808097355             -0.7248120323              2.2449156122
 Effective mass tensor eigenvalues:
              0.9596021035              1.6922563254              2.8504706163
 Angular average effective mass 1/(<1/m>)=   1.5122150066
 Angular average effective mass for Frohlich model (<m**0.5>)**2=   1.6023889139
 Effective masses along directions: (cart. coord. / red. coord. -> eff. mass)
    1:   1.000000  0.000000  0.000000 /   0.971321 -0.237774  0.000000 ->   1.7349636845
    2:   0.000000  1.000000  0.000000 /   0.000000  1.000000  0.000000 ->   1.1456362940
    3:   0.000000  0.000000  1.000000 /  -0.449471 -0.465676  0.762314 ->   1.8706044303
    4:   0.577350  0.577350  0.577350 /   0.212884 -0.040946  0.976219 ->   1.3033333366
    5:   0.000000  0.707107  0.707107 /  -0.503391  0.132993  0.853763 ->   1.0322954145
    6:   0.707107  0.000000  0.707107 /   0.167185 -0.619909  0.766656 ->   1.7120026522
    7:   0.707107  0.707107  0.000000 /   0.817541  0.575871  0.000000 ->   1.6949400046

 END OF EFFECTIVE MASSES SECTION

 ---- first-order wavefunction calculations are completed ----

 Total localisation tensor (bohr^2) in cartesian coordinates
  WARNING : still subject to testing - especially symmetries.
      direction              matrix element
   alpha     beta       real part   imaginary part
     1        1       1.0039281246    0.0000000000
     1        2      -0.2623775467    0.0000000000
     1        3      -0.4744106432    0.0000000000
     2        1      -0.2623775467    0.0000000000
     2        2       1.0173672036    0.0000000000
     2        3      -0.8106501427    0.0000000000
     3        1      -0.4744106432    0.0000000000
     3        2      -0.8106501427    0.0000000000
     3        3       3.5733605545    0.0000000000

 respfn : d/dk was computed, but no 2DTE, so no DDB output.

== END DATASET(S) ==============================================================

 -outvars: echo values of variables after computation  --------
            acell      1.0000000000E+00  1.0000000000E+00  1.0000000000E+00 Bohr
              amu      2.29897680E+01  1.07868200E+02  1.59994000E+01
             ecut      4.40000000E+01 Hartree
           etotal     -1.0914147425E+02
            fcart      0.0000000000E+00  0.0000000000E+00  0.0000000000E+00
                       0.0000000000E+00  0.0000000000E+00  0.0000000000E+00
                       0.0000000000E+00  0.0000000000E+00  0.0000000000E+00
                       0.0000000000E+00  0.0000000000E+00  0.0000000000E+00
                       0.0000000000E+00  0.0000000000E+00  0.0000000000E+00
                       0.0000000000E+00  0.0000000000E+00  0.0000000000E+00
                       0.0000000000E+00  0.0000000000E+00  0.0000000000E+00
                       0.0000000000E+00  0.0000000000E+00  0.0000000000E+00
                       0.0000000000E+00  0.0000000000E+00  0.0000000000E+00
                       0.0000000000E+00  0.0000000000E+00  0.0000000000E+00
                       0.0000000000E+00  0.0000000000E+00  0.0000000000E+00
                       0.0000000000E+00  0.0000000000E+00  0.0000000000E+00
-          fftalg         512
           irdden           1
           irdwfk           1
           istwfk        1
              ixc     -116133
           kptopt           0
P           mkmem           1
P          mkqmem           1
P          mk1mem           1
            natom          12
            nband          87
           nbdbuf           4
            ngfft          80      80      80
             nkpt           1
            nstep        2000
             nsym           8
           ntypat           3
              occ      2.000000  2.000000  2.000000  2.000000  2.000000  2.000000
                       2.000000  2.000000  2.000000  2.000000  2.000000  2.000000
                       2.000000  2.000000  2.000000  2.000000  2.000000  2.000000
                       2.000000  2.000000  2.000000  2.000000  2.000000  2.000000
                       2.000000  2.000000  2.000000  2.000000  2.000000  2.000000
                       2.000000  2.000000  2.000000  2.000000  2.000000  2.000000
                       2.000000  2.000000  2.000000  2.000000  2.000000  2.000000
                       2.000000  2.000000  2.000000  2.000000  2.000000  2.000000
                       2.000000  2.000000  2.000000  2.000000  2.000000  2.000000
                       2.000000  2.000000  2.000000  2.000000  2.000000  2.000000
                       2.000000  2.000000  2.000000  2.000000  2.000000  2.000000
                       2.000000  2.000000  2.000000  2.000000  2.000000  2.000000
                       2.000000  2.000000  2.000000  2.000000  2.000000  2.000000
                       0.000000  0.000000  0.000000  0.000000  0.000000  0.000000
                       0.000000  0.000000  0.000000
        optdriver           1
            prtwf          -1
            rfdir           1       1       1
           rfelfd           2
            rprim      1.0233760908E+01  0.0000000000E+00 -7.4707043146E+00
                      -2.5051656788E+00  9.7137633652E+00 -7.7400407938E+00
                       0.0000000000E+00  0.0000000000E+00  1.2670488755E+01
          spgroup          72
           strten      0.0000000000E+00  0.0000000000E+00  0.0000000000E+00
                       0.0000000000E+00  0.0000000000E+00  0.0000000000E+00
           symrel      1  0  0   0  1  0   0  0  1      -1  0  0   0 -1  0   0  0 -1
                       0  0  1  -1 -1 -1   1  0  0       0  0 -1   1  1  1  -1  0  0
                      -1 -1 -1   0  0  1   0  1  0       1  1  1   0  0 -1   0 -1  0
                       0  1  0   1  0  0  -1 -1 -1       0 -1  0  -1  0  0   1  1  1
            tnons      0.0000000  0.0000000  0.0000000     0.0000000  0.0000000 -0.0000000
                       0.0000000  0.5000000  0.5000000    -0.0000000  0.5000000  0.5000000
                       0.0000000  0.0000000 -0.0000000     0.0000000 -0.0000000  0.0000000
                      -0.0000000  0.5000000  0.5000000     0.0000000  0.5000000  0.5000000
           tolwfr      1.00000000E-20
            typat      1  1  2  2  2  2  2  2  3  3  3  3
           useylm           1
           xangst     -9.9425743572E-01  3.8552266369E+00  1.9568105168E+00
                      -3.3141914524E-01  1.2850755456E+00  6.5227017226E-01
                       2.0448982249E+00  2.5701510913E+00 -6.7212288318E-01
                       0.0000000000E+00  0.0000000000E+00  3.3524669353E+00
                       2.7077365154E+00  0.0000000000E+00 -1.9766632277E+00
                       2.7077365154E+00  0.0000000000E+00  1.3758037076E+00
                       2.0448982249E+00  2.5701510913E+00 -4.0245898185E+00
                      -6.6283829048E-01  2.5701510913E+00 -2.0479265908E+00
                      -6.2671688086E-01  4.5684898274E+00 -2.6141501364E+00
                       3.1437689464E+00  1.9983387362E+00 -2.3396915721E+00
                       9.4602750337E-01  3.1419634463E+00  9.9544580575E-01
                       4.7165133307E+00  5.7181235508E-01  1.2699043701E+00
            xcart     -1.8788742591E+00  7.2853225239E+00  3.6978359707E+00
                      -6.2629141970E-01  2.4284408413E+00  1.2326119902E+00
                       3.8642976147E+00  4.8568816826E+00 -1.2701281769E+00
                       0.0000000000E+00  0.0000000000E+00  6.3352443773E+00
                       5.1168804541E+00  0.0000000000E+00 -3.7353521573E+00
                       5.1168804541E+00  0.0000000000E+00  2.5998922200E+00
                       3.8642976147E+00  4.8568816826E+00 -7.6053725542E+00
                      -1.2525828394E+00  4.8568816826E+00 -3.8700203969E+00
                      -1.1843232677E+00  8.6331946147E+00 -4.9400278281E+00
                       5.9408623338E+00  3.7763129321E+00 -4.4213763067E+00
                       1.7877328956E+00  5.9374504331E+00  1.8811199530E+00
                       8.9129184971E+00  1.0805687505E+00  2.3997714744E+00
             xred      0.0000000000E+00  7.5000000000E-01  7.5000000000E-01
                       0.0000000000E+00  2.5000000000E-01  2.5000000000E-01
                       5.0000000000E-01  5.0000000000E-01  5.0000000000E-01
                       0.0000000000E+00  0.0000000000E+00  5.0000000000E-01
                       5.0000000000E-01  0.0000000000E+00  0.0000000000E+00
                       5.0000000000E-01  0.0000000000E+00  5.0000000000E-01
                       5.0000000000E-01  5.0000000000E-01  0.0000000000E+00
                       0.0000000000E+00  5.0000000000E-01 -2.7755575616E-17
                       1.0183600000E-01  8.8875900000E-01  2.1307700000E-01
                       6.7568200000E-01  3.8875900000E-01  2.8692300000E-01
                       3.2431800000E-01  6.1124100000E-01  7.1307700000E-01
                       8.9816400000E-01  1.1124100000E-01  7.8692300000E-01
            znucl       11.00000   47.00000    8.00000

- Timing analysis has been suppressed with timopt=0

 Suggested references for the acknowledgment of ABINIT usage.

 Calculation completed.
.Delivered   2 WARNINGs and   5 COMMENTs to log file.