.Version 9.5.1 of ABINIT

 ABINIT is a project of the Universite Catholique de Louvain,
 Corning Inc. and other collaborators, see ~abinit/doc/developers/contributors.txt .
 acknowledgments of the ABINIT effort.

.Starting date : Wed  5 May 2021.
- ( at 14h19 )

- input  file    -> /scratch/users/j/a/jabreu/flow_simple_6atoms/flow/w200/t1/run.abi
- output file    -> /scratch/users/j/a/jabreu/flow_simple_6atoms/flow/w200/t1/run.abo
- root for input  files -> /scratch/users/j/a/jabreu/flow_simple_6atoms/flow/w200/t1/indata/in
- root for output files -> /scratch/users/j/a/jabreu/flow_simple_6atoms/flow/w200/t1/outdata/out

 Symmetries : space group P4/n m m (#129); Bravais tP (primitive tetrag.)
     intxc =       0      iscf =       7    lmnmax =      32     lnmax =       8
     mgfft =      90  mpssoang =       4    mqgrid =    4197     natom =       6
  nloc_mem =       1    nspden =       1   nspinor =       1    nsppol =       1
      nsym =      16    n1xccc =    2501    ntypat =       3    occopt =       1
   xclevel =       2
-    mband =          33        mffmem =           1         mkmem =           1
-   mkqmem =           1        mk1mem =           1           mpw =       13745
      nfft =      225000          nkpt =           1
  Rough estimation (10% accuracy) of disk space for files :

------------- Echo of variables that govern the present computation ------------
-
- outvars: echo of selected default values
-   iomode0 =  0 , fftalg0 =512 , wfoptalg0 =  0
-
- outvars: echo of global parameters not present in the input file
-  max_nthreads =    0
-
 -outvars: echo values of preprocessed input variables --------
            acell      1.0000000000E+00  1.0000000000E+00  1.0000000000E+00 Bohr
              amu      1.38905500E+02  3.54527000E+01  1.59994000E+01
             ecut      5.20000000E+01 Hartree
-          fftalg         512
           irdden           1
           irdwfk           1
           istwfk        1
              ixc     -116133
           kptopt           0
P           mkmem           1
P          mkqmem           1
P          mk1mem           1
            natom           6
            nband          33
           nbdbuf           4
            ngfft          50      50      90
             nkpt           1
            nstep        2000
             nsym          16
           ntypat           3
              occ      2.000000  2.000000  2.000000  2.000000  2.000000  2.000000
                       2.000000  2.000000  2.000000  2.000000  2.000000  2.000000
                       2.000000  2.000000  2.000000  2.000000  2.000000  2.000000
                       2.000000  2.000000  2.000000  2.000000  2.000000  2.000000
                       0.000000  0.000000  0.000000  0.000000  0.000000  0.000000
                       0.000000  0.000000  0.000000
        optdriver           1
            prtwf          -1
            rfdir           1       1       1
           rfelfd           2
            rprim      7.6887909119E+00  0.0000000000E+00  0.0000000000E+00
                       0.0000000000E+00  7.6887909119E+00  0.0000000000E+00
                       0.0000000000E+00  0.0000000000E+00  1.2929170038E+01
          spgroup         129
           symrel      1  0  0   0  1  0   0  0  1      -1  0  0   0 -1  0   0  0 -1
                      -1  0  0   0  1  0   0  0 -1       1  0  0   0 -1  0   0  0  1
                      -1  0  0   0 -1  0   0  0  1       1  0  0   0  1  0   0  0 -1
                       1  0  0   0 -1  0   0  0 -1      -1  0  0   0  1  0   0  0  1
                       0  1  0   1  0  0   0  0  1       0 -1  0  -1  0  0   0  0 -1
                       0 -1  0   1  0  0   0  0 -1       0  1  0  -1  0  0   0  0  1
                       0 -1  0  -1  0  0   0  0  1       0  1  0   1  0  0   0  0 -1
                       0  1  0  -1  0  0   0  0 -1       0 -1  0   1  0  0   0  0  1
            tnons      0.0000000  0.0000000  0.0000000     0.5000000  0.5000000  0.0000000
                       0.5000000  0.5000000  0.0000000     0.0000000  0.0000000  0.0000000
                       0.0000000  0.0000000  0.0000000     0.5000000  0.5000000  0.0000000
                       0.5000000  0.5000000  0.0000000     0.0000000  0.0000000  0.0000000
                       0.5000000  0.5000000  0.0000000     0.0000000  0.0000000  0.0000000
                       0.0000000  0.0000000  0.0000000     0.5000000  0.5000000  0.0000000
                       0.5000000  0.5000000  0.0000000     0.0000000  0.0000000  0.0000000
                       0.0000000  0.0000000  0.0000000     0.5000000  0.5000000  0.0000000
           tolwfr      1.00000000E-19
            typat      1  1  2  2  3  3
           useylm           1
           xangst      0.0000000000E+00  2.0343664561E+00  5.6358688613E+00
                       2.0343664561E+00  0.0000000000E+00  1.2059532488E+00
                       2.0343664561E+00  0.0000000000E+00  4.3145898591E+00
                       0.0000000000E+00  2.0343664561E+00  2.5272322510E+00
                       0.0000000000E+00  0.0000000000E+00  0.0000000000E+00
                       2.0343664561E+00  2.0343664561E+00  0.0000000000E+00
            xcart      0.0000000000E+00  3.8443954560E+00  1.0650248669E+01
                       3.8443954560E+00  0.0000000000E+00  2.2789213692E+00
                       3.8443954560E+00  0.0000000000E+00  8.1533932094E+00
                       0.0000000000E+00  3.8443954560E+00  4.7757768286E+00
                       0.0000000000E+00  0.0000000000E+00  0.0000000000E+00
                       3.8443954560E+00  3.8443954560E+00  0.0000000000E+00
             xred      0.0000000000E+00  5.0000000000E-01  8.2373800000E-01
                       5.0000000000E-01  0.0000000000E+00  1.7626200000E-01
                       5.0000000000E-01  0.0000000000E+00  6.3062000000E-01
                       0.0000000000E+00  5.0000000000E-01  3.6938000000E-01
                       0.0000000000E+00  0.0000000000E+00  0.0000000000E+00
                       5.0000000000E-01  5.0000000000E-01  0.0000000000E+00
            znucl       57.00000   17.00000    8.00000

 chkinp: Checking input parameters for consistency.

== DATASET  1 ==================================================================
-   mpi_nproc: 1, omp_nthreads: -1 (-1 if OMP is not activated)

--- !DatasetInfo
iteration_state: {dtset: 1, }
dimensions: {natom: 6, nkpt: 1, mband: 33, nsppol: 1, nspinor: 1, nspden: 1, mpw: 13745, }
cutoff_energies: {ecut:  52.0, pawecutdg:  -1.0, }
electrons: {nelect:   4.80000000E+01, charge:   0.00000000E+00, occopt:   1.00000000E+00, tsmear:   1.00000000E-02, }
meta: {optdriver: 1, rfelfd: 2, }
...

 Real(R)+Recip(G) space primitive vectors, cartesian coordinates (Bohr,Bohr^-1):
 R(1)=  7.6887909  0.0000000  0.0000000  G(1)=  0.1300595  0.0000000  0.0000000
 R(2)=  0.0000000  7.6887909  0.0000000  G(2)=  0.0000000  0.1300595  0.0000000
 R(3)=  0.0000000  0.0000000 12.9291700  G(3)=  0.0000000  0.0000000  0.0773445
 Unit cell volume ucvol=  7.6434028E+02 bohr^3
 Angles (23,13,12)=  9.00000000E+01  9.00000000E+01  9.00000000E+01 degrees

 getcut: wavevector=  0.0000  0.0000  0.0000  ngfft=  50  50  90
         ecut(hartree)=     52.000   => boxcut(ratio)=   2.00330

--- Pseudopotential description ------------------------------------------------
- pspini: atom type   1  psp file is /scratch/users/j/a/jabreu/pseudos/PBEsol/La.psp8
- pspatm: opening atomic psp file    /scratch/users/j/a/jabreu/pseudos/PBEsol/La.psp8
- La    ONCVPSP-3.3.0  r_core=   2.11664   1.60878   1.85636   1.66739
- 57.00000  11.00000    180112                znucl, zion, pspdat
    8 -116133    3    4       600   0.00000   pspcod,pspxc,lmax,lloc,mmax,r2well
    5.99000000000000    5.00000000000000    0.00000000000000   rchrg,fchrg,qchrg
     nproj     2     2     2     2
     extension_switch     1
  pspatm : epsatm=   29.08531775
         --- l  ekb(1:nproj) -->
             0    6.695600    0.639047
             1    6.383649    1.151322
             2    3.612966    0.847811
             3  -13.718437   -4.858923
 pspatm: atomic psp has been read  and splines computed

- pspini: atom type   2  psp file is /scratch/users/j/a/jabreu/pseudos/PBEsol/Cl.psp8
- pspatm: opening atomic psp file    /scratch/users/j/a/jabreu/pseudos/PBEsol/Cl.psp8
- Cl    ONCVPSP-3.3.0  r_core=   1.56009   1.35202   1.75774
- 17.00000   7.00000    180112                znucl, zion, pspdat
    8 -116133    2    4       600   0.00000   pspcod,pspxc,lmax,lloc,mmax,r2well
    5.99000000000000    8.00000000000000    0.00000000000000   rchrg,fchrg,qchrg
     nproj     2     2     2
     extension_switch     1
  pspatm : epsatm=    8.95520722
         --- l  ekb(1:nproj) -->
             0    8.193503    0.707970
             1    3.869736    1.114731
             2   -2.915303   -0.810552
 pspatm: atomic psp has been read  and splines computed

- pspini: atom type   3  psp file is /scratch/users/j/a/jabreu/pseudos/PBEsol/O.psp8
- pspatm: opening atomic psp file    /scratch/users/j/a/jabreu/pseudos/PBEsol/O.psp8
- O     ONCVPSP-3.3.0  r_core=   1.35509   1.45563   1.26150
-  8.00000   6.00000    180112                znucl, zion, pspdat
    8 -116133    2    4       600   0.00000   pspcod,pspxc,lmax,lloc,mmax,r2well
    5.99000000000000    4.00000000000000    0.00000000000000   rchrg,fchrg,qchrg
     nproj     2     2     1
     extension_switch     1
  pspatm : epsatm=    6.22910522
         --- l  ekb(1:nproj) -->
             0    6.050032    0.820363
             1   -4.739617   -1.153841
             2   -1.335834
 pspatm: atomic psp has been read  and splines computed

   4.24988450E+03                                ecore*ucvol(ha*bohr**3)

-inwffil : will read wavefunctions from disk file /scratch/users/j/a/jabreu/flow_simple_6atoms/flow/w200/t1/indata/in_WFK

 ==>  initialize data related to q vector <==

 The list of irreducible perturbations for this q vector is:
    1)    idir= 1    ipert=   7
    2)    idir= 2    ipert=   7
    3)    idir= 3    ipert=   7

 Perturbation wavevector (in red.coord.)   0.000000  0.000000  0.000000
 Perturbation : derivative vs k along direction   1

 dfpt_looppert : COMMENT -
  In a d/dk calculation, iscf is set to -3 automatically.
 The set of symmetries contains only one element for this perturbation.
 symkpt : not enough symmetry to change the number of k points.

[...]

 Initialisation of the first-order wave-functions :
  ireadwf=   0

--- !BeginCycle
iteration_state: {dtset: 1, }
solver: {iscf: 7, nstep: 2000, nline: 4, wfoptalg: 0, }
tolerances: {tolwfr: 1.00E-19, }
...

     iter   2DEtotal(Ha)        deltaE(Ha) residm    vres2
-ETOT  1  -35.089462376231     -3.509E+01 2.200E-01 0.000E+00
 ETOT  2  -35.335668918341     -2.462E-01 6.123E-02 0.000E+00
 ETOT  3  -35.347432752068     -1.176E-02 1.906E-02 0.000E+00
 ETOT  4  -35.348261070808     -8.283E-04 2.226E-02 0.000E+00
 ETOT  5  -35.348363556126     -1.025E-04 9.742E-03 0.000E+00
 ETOT  6  -35.348379777492     -1.622E-05 1.361E-02 0.000E+00
 ETOT  7  -35.348382957774     -3.180E-06 6.121E-03 0.000E+00
[...]
 ETOT 13  -11.996567550731     -2.324E-08 5.919E-05 0.000E+00
 ETOT 14  -11.996567559951     -9.220E-09 2.122E-04 0.000E+00
 ETOT 15  -11.996567563582     -3.631E-09 4.621E-05 0.000E+00
 ETOT 16  -11.996567565069     -1.488E-09 1.641E-04 0.000E+00
 ETOT 17  -11.996567565685     -6.153E-10 3.611E-05 0.000E+00
 ETOT 18  -11.996567565942     -2.573E-10 1.272E-04 0.000E+00
 ETOT 19  -11.996567566050     -1.077E-10 2.821E-05 0.000E+00
 ETOT 20  -11.996567566095     -4.548E-11 9.872E-05 0.000E+00
 ETOT 21  -11.996567566114     -1.924E-11 2.244E-05 0.000E+00
 ETOT 22  -11.996567566123     -8.198E-12 7.668E-05 0.000E+00
 ETOT 23  -11.996567566126     -3.494E-12 1.842E-05 0.000E+00
 ETOT 24  -11.996567566128     -1.515E-12 5.962E-05 0.000E+00
 ETOT 25  -11.996567566128     -6.288E-13 1.518E-05 0.000E+00
 ETOT 26  -11.996567566129     -2.984E-13 4.639E-05 0.000E+00
 ETOT 27  -11.996567566129     -9.592E-14 1.254E-05 0.000E+00
 ETOT 28  -11.996567566129     -5.862E-14 3.613E-05 0.000E+00
 ETOT 29  -11.996567566129     -2.132E-14 1.037E-05 0.000E+00
 ETOT 30  -11.996567566129     -1.599E-14 2.817E-05 0.000E+00
 ETOT 31  -11.996567566129     -3.553E-15 8.584E-06 0.000E+00
 ETOT 32  -11.996567566129      1.776E-15 2.197E-05 0.000E+00
 ETOT 33  -11.996567566129     -1.243E-14 7.106E-06 0.000E+00
 ETOT 34  -11.996567566129      1.599E-14 1.715E-05 0.000E+00
 ETOT 35  -11.996567566129     -5.329E-15 5.882E-06 0.000E+00
 ETOT 36  -11.996567566129     -1.421E-14 1.340E-05 0.000E+00
 ETOT 37  -11.996567566129      2.842E-14 4.869E-06 0.000E+00
 ETOT 38  -11.996567566129     -1.599E-14 1.047E-05 0.000E+00
 ETOT 39  -11.996567566129      1.243E-14 4.030E-06 0.000E+00
 ETOT 40  -11.996567566129      0.000E+00 8.184E-06 0.000E+00
 ETOT 41  -11.996567566129     -3.553E-15 3.334E-06 0.000E+00
 ETOT 42  -11.996567566129      3.553E-15 6.400E-06 0.000E+00
 ETOT 43  -11.996567566129      0.000E+00 2.759E-06 0.000E+00
 ETOT 44  -11.996567566129     -7.105E-15 5.007E-06 0.000E+00
 ETOT 45  -11.996567566129      3.553E-15 2.282E-06 0.000E+00
 ETOT 46  -11.996567566129     -3.553E-15 3.917E-06 0.000E+00
 ETOT 47  -11.996567566129      1.066E-14 1.887E-06 0.000E+00
 ETOT 48  -11.996567566129     -3.553E-15 3.066E-06 0.000E+00
 ETOT 49  -11.996567566129     -3.553E-15 1.561E-06 0.000E+00
 ETOT 50  -11.996567566129      7.105E-15 2.399E-06 0.000E+00
 ETOT 51  -11.996567566129     -7.105E-15 1.291E-06 0.000E+00
 ETOT 52  -11.996567566129      0.000E+00 1.878E-06 0.000E+00
 ETOT 53  -11.996567566129      3.553E-15 1.067E-06 0.000E+00
 ETOT 54  -11.996567566129      0.000E+00 1.470E-06 0.000E+00
 ETOT 55  -11.996567566129     -7.105E-15 8.824E-07 0.000E+00
 ETOT 56  -11.996567566129      0.000E+00 1.151E-06 0.000E+00
 ETOT 57  -11.996567566129     -1.776E-15 7.296E-07 0.000E+00
 ETOT 58  -11.996567566129      7.105E-15 9.013E-07 0.000E+00
 ETOT 59  -11.996567566129     -1.776E-15 6.031E-07 0.000E+00
 ETOT 60  -11.996567566129      0.000E+00 7.058E-07 0.000E+00
 ETOT 61  -11.996567566129      3.553E-15 4.986E-07 0.000E+00
[...]
 ETOT 1017  -11.996567566129     -7.105E-15 1.751E-19 0.000E+00
 ETOT 1018  -11.996567566129     -1.776E-15 1.286E-19 0.000E+00
 ETOT 1019  -11.996567566129      7.105E-15 1.681E-19 0.000E+00
 ETOT 1020  -11.996567566129      0.000E+00 1.235E-19 0.000E+00
 ETOT 1021  -11.996567566129      0.000E+00 1.614E-19 0.000E+00
 ETOT 1022  -11.996567566129      0.000E+00 1.186E-19 0.000E+00
 ETOT 1023  -11.996567566129     -1.776E-15 1.549E-19 0.000E+00
 ETOT 1024  -11.996567566129      1.776E-15 1.138E-19 0.000E+00
 ETOT 1025  -11.996567566129      0.000E+00 1.488E-19 0.000E+00
 ETOT 1026  -11.996567566129     -1.776E-15 1.093E-19 0.000E+00
 ETOT 1027  -11.996567566129      0.000E+00 1.428E-19 0.000E+00
 ETOT 1028  -11.996567566129      1.066E-14 1.049E-19 0.000E+00
 ETOT 1029  -11.996567566129     -1.066E-14 1.371E-19 0.000E+00
 ETOT 1030  -11.996567566129      1.776E-15 1.008E-19 0.000E+00
 ETOT 1031  -11.996567566129     -5.329E-15 9.984E-20 0.000E+00

 At SCF step 1031   max residual=  9.98E-20 < tolwfr=  1.00E-19 =>converged.

 ----iterations are completed or convergence reached----

 dfpt_looppert: DFPT cycle converged with prtwf=-1. Will skip output of the 1st-order WFK file.
 dfpt_looppert : ek2=    2.2671991784E+01
          f-sum rule ratio=    1.0324900144E+00
 prteigrs : about to open file /scratch/users/j/a/jabreu/flow_simple_6atoms/flow/w200/t1/tmpdata/tmp_1WF1_EIG
 Expectation of eigenvalue derivatives (hartree) for nkpt=   1  k points:
  (in case of degenerate eigenvalues, averaged derivative)
 kpt#   1, nband= 33, wtk=  1.00000, kpt=  0.0000  0.0000  0.0000 (reduced coord)
   0.00000    0.00000   -0.00000    0.00000    0.00000    0.00000    0.00000    0.00000
  -0.00000   -0.00000   -0.00000    0.00000   -0.00000    0.00000    0.00000    0.00000
   0.00000    0.00000    0.00000    0.00000    0.00000   -0.00000    0.00000    0.00000
   0.00000    0.00000   -0.00000    0.00000    0.00000    0.00000   -0.00000    0.00000
   0.00000

 Eight components of 2nd-order total energy (hartree) are
 1,2,3: 0th-order hamiltonian combined with 1st-order wavefunctions
     kin0=   3.38627860E+01 eigvalue=  -8.49699658E-01  local=  -1.80864416E+01
 4,5,6: 1st-order hamiltonian combined with 1st and 0th-order wfs
     kin1=  -2.34086051E+01  Hartree=   0.00000000E+00     xc=   0.00000000E+00
 7,8,9: eventually, occupation + non-local contributions
    edocc=   7.15781708E-01     enl0=  -3.64585893E+00   enl1=  -5.84530008E-01
 1-9 gives the relaxation energy (to be shifted if some occ is /=2.0)
   erelax=  -1.19965676E+01
  No Ewald or frozen-wf contrib.: the relaxation energy is the total one
 2DEtotal=   -0.1199656757E+02 Ha. Also 2DEtotal=   -0.326443205044E+03 eV
    (  non-var. 2DEtotal :   -1.1996567565E+01 Ha)

 CALCULATION OF EFFECTIVE MASSES
 NOTE : Additional infos (eff. mass eigenvalues, eigenvectors and, if degenerate, average mass) are available in stdout.

 COMMENTS:
 - At k-point ( 0.000, 0.000, 0.000), bands    23 through    24
   are DEGENERATE (effective mass tensor is therefore not defined).
   See Section IIIB Eqs. (67)-(70) and Appendix E of PRB 93 205147 (2016).
 - Angular average effective mass for Frohlich model is to be averaged over degenerate bands. See later.
 - Associated theta integrals calculated with ntheta=   1000 points.

 K-point ( 0.000, 0.000, 0.000) | band =    23
 Transport equivalent effective mass tensor:
             -0.4868053098             -0.0000000000              0.0000000000
             -0.0000000000             -0.4868053098              0.0000000000
              0.0000000000              0.0000000000             -2.3237185475
 Transport equivalent effective mass tensor eigenvalues:
             -2.3237185475             -0.4868053098             -0.4868053098
 Angular average effective mass 1/(<1/m>)=  -0.6185112538
 Angular average effective mass for Frohlich model (<m**0.5>)**2=  -0.6928270583
 Effective masses along directions: (cart. coord. / red. coord. -> eff. mass)
    1:   1.000000  0.000000  0.000000 /   1.000000  0.000000  0.000000 ->  -0.5517306803
    2:   0.000000  1.000000  0.000000 /   0.000000  1.000000  0.000000 ->  -0.5517306803
    3:   0.000000  0.000000  1.000000 /   0.000000  0.000000  1.000000 ->  -2.1003934591
    4:   0.577350  0.577350  0.577350 /   0.455127  0.455127  0.765323 ->  -0.5491530923
    5:   0.000000  0.707107  0.707107 /   0.000000  0.511133  0.859502 ->  -0.8739044262
    6:   0.707107  0.000000  0.707107 /   0.511133  0.000000  0.859502 ->  -0.8739044262
    7:   0.707107  0.707107  0.000000 /   0.707107  0.707107  0.000000 ->  -0.4010542739

 K-point ( 0.000, 0.000, 0.000) | band =    24
 Transport equivalent effective mass tensor:
            -12.2960565997              0.0000000001              0.0000000003
              0.0000000001            -12.2960565994              0.0000000001
              0.0000000003              0.0000000001            -20.5992840462
 Transport equivalent effective mass tensor eigenvalues:
            -20.5992840462            -12.2960565997            -12.2960565994
 Angular average effective mass 1/(<1/m>)=  -2.3316398934
 Angular average effective mass for Frohlich model (<m**0.5>)**2=  -2.7535082938
 Effective masses along directions: (cart. coord. / red. coord. -> eff. mass)
    1:   1.000000  0.000000  0.000000 /   1.000000  0.000000  0.000000 ->  -1.2821787665
    2:   0.000000  1.000000  0.000000 /   0.000000  1.000000  0.000000 ->  -1.2821787665
    3:   0.000000  0.000000  1.000000 /   0.000000  0.000000  1.000000 ->  -2.1003934593
    4:   0.577350  0.577350  0.577350 /   0.455127  0.455127  0.765323 ->  -4.4507284652
    5:   0.000000  0.707107  0.707107 /   0.000000  0.511133  0.859502 ->  -1.5923266172
    6:   0.707107  0.000000  0.707107 /   0.511133  0.000000  0.859502 ->  -1.5923266171
    7:   0.707107  0.707107  0.000000 /   0.707107  0.707107  0.000000 -> -10.1037815631

 Angular average effective mass for Frohlich model, averaged over degenerate bands.
 Value of     (<<m**0.5>>)**2 =     1.552182E+00
 Absolute Value of <<m**0.5>> =     1.245866E+00

 K-point ( 0.000, 0.000, 0.000) | band =    25
 Effective mass tensor:
              0.6220180613              0.0000000000              0.0000000000
              0.0000000000              0.6220180613             -0.0000000000
              0.0000000000             -0.0000000000              1.0855440471
 Effective mass tensor eigenvalues:
              0.6220180613              0.6220180613              1.0855440471
 Angular average effective mass 1/(<1/m>)=   0.7252441898
 Angular average effective mass for Frohlich model (<m**0.5>)**2=   0.7387561406
 Effective masses along directions: (cart. coord. / red. coord. -> eff. mass)
    1:   1.000000  0.000000  0.000000 /   1.000000  0.000000  0.000000 ->   0.6220180613
    2:   0.000000  1.000000  0.000000 /   0.000000  1.000000  0.000000 ->   0.6220180613
    3:   0.000000  0.000000  1.000000 /   0.000000  0.000000  1.000000 ->   1.0855440471
    4:   0.577350  0.577350  0.577350 /   0.455127  0.455127  0.765323 ->   0.7252441898
    5:   0.000000  0.707107  0.707107 /   0.000000  0.511133  0.859502 ->   0.7908678698
    6:   0.707107  0.000000  0.707107 /   0.511133  0.000000  0.859502 ->   0.7908678698
    7:   0.707107  0.707107  0.000000 /   0.707107  0.707107  0.000000 ->   0.6220180613

 END OF EFFECTIVE MASSES SECTION

 ---- first-order wavefunction calculations are completed ----

 Total localisation tensor (bohr^2) in cartesian coordinates
  WARNING : still subject to testing - especially symmetries.
      direction              matrix element
   alpha     beta       real part   imaginary part
     1        1       1.1077219367    0.0000000000
     1        2       0.0000000000    0.0000000000
     1        3       0.0000000000    0.0000000000
     2        1       0.0000000000    0.0000000000
     2        2       1.1077219380    0.0000000000
     2        3       0.0000000000    0.0000000000
     3        1       0.0000000000    0.0000000000
     3        2       0.0000000000    0.0000000000
     3        3       0.9751923851    0.0000000000

 respfn : d/dk was computed, but no 2DTE, so no DDB output.

== END DATASET(S) ==============================================================

 -outvars: echo values of variables after computation  --------
            acell      1.0000000000E+00  1.0000000000E+00  1.0000000000E+00 Bohr
              amu      1.38905500E+02  3.54527000E+01  1.59994000E+01
             ecut      5.20000000E+01 Hartree
           etotal     -1.1996567566E+01
            fcart      0.0000000000E+00  0.0000000000E+00  0.0000000000E+00
                       0.0000000000E+00  0.0000000000E+00  0.0000000000E+00
                       0.0000000000E+00  0.0000000000E+00  0.0000000000E+00
                       0.0000000000E+00  0.0000000000E+00  0.0000000000E+00
                       0.0000000000E+00  0.0000000000E+00  0.0000000000E+00
                       0.0000000000E+00  0.0000000000E+00  0.0000000000E+00
-          fftalg         512
           irdden           1
           irdwfk           1
           istwfk        1
              ixc     -116133
           kptopt           0
P           mkmem           1
P          mkqmem           1
P          mk1mem           1
            natom           6
            nband          33
           nbdbuf           4
            ngfft          50      50      90
             nkpt           1
            nstep        2000
             nsym          16
           ntypat           3
              occ      2.000000  2.000000  2.000000  2.000000  2.000000  2.000000
                       2.000000  2.000000  2.000000  2.000000  2.000000  2.000000
                       2.000000  2.000000  2.000000  2.000000  2.000000  2.000000
                       2.000000  2.000000  2.000000  2.000000  2.000000  2.000000
                       0.000000  0.000000  0.000000  0.000000  0.000000  0.000000
                       0.000000  0.000000  0.000000
        optdriver           1
            prtwf          -1
            rfdir           1       1       1
           rfelfd           2
            rprim      7.6887909119E+00  0.0000000000E+00  0.0000000000E+00
                       0.0000000000E+00  7.6887909119E+00  0.0000000000E+00
                       0.0000000000E+00  0.0000000000E+00  1.2929170038E+01
          spgroup         129
           strten      0.0000000000E+00  0.0000000000E+00  0.0000000000E+00
                       0.0000000000E+00  0.0000000000E+00  0.0000000000E+00
           symrel      1  0  0   0  1  0   0  0  1      -1  0  0   0 -1  0   0  0 -1
                      -1  0  0   0  1  0   0  0 -1       1  0  0   0 -1  0   0  0  1
                      -1  0  0   0 -1  0   0  0  1       1  0  0   0  1  0   0  0 -1
                       1  0  0   0 -1  0   0  0 -1      -1  0  0   0  1  0   0  0  1
                       0  1  0   1  0  0   0  0  1       0 -1  0  -1  0  0   0  0 -1
                       0 -1  0   1  0  0   0  0 -1       0  1  0  -1  0  0   0  0  1
                       0 -1  0  -1  0  0   0  0  1       0  1  0   1  0  0   0  0 -1
                       0  1  0  -1  0  0   0  0 -1       0 -1  0   1  0  0   0  0  1
            tnons      0.0000000  0.0000000  0.0000000     0.5000000  0.5000000  0.0000000
                       0.5000000  0.5000000  0.0000000     0.0000000  0.0000000  0.0000000
                       0.0000000  0.0000000  0.0000000     0.5000000  0.5000000  0.0000000
                       0.5000000  0.5000000  0.0000000     0.0000000  0.0000000  0.0000000
                       0.5000000  0.5000000  0.0000000     0.0000000  0.0000000  0.0000000
                       0.0000000  0.0000000  0.0000000     0.5000000  0.5000000  0.0000000
                       0.5000000  0.5000000  0.0000000     0.0000000  0.0000000  0.0000000
                       0.0000000  0.0000000  0.0000000     0.5000000  0.5000000  0.0000000
           tolwfr      1.00000000E-19
            typat      1  1  2  2  3  3
           useylm           1
           xangst      0.0000000000E+00  2.0343664561E+00  5.6358688613E+00
                       2.0343664561E+00  0.0000000000E+00  1.2059532488E+00
                       2.0343664561E+00  0.0000000000E+00  4.3145898591E+00
                       0.0000000000E+00  2.0343664561E+00  2.5272322510E+00
                       0.0000000000E+00  0.0000000000E+00  0.0000000000E+00
                       2.0343664561E+00  2.0343664561E+00  0.0000000000E+00
            xcart      0.0000000000E+00  3.8443954560E+00  1.0650248669E+01
                       3.8443954560E+00  0.0000000000E+00  2.2789213692E+00
                       3.8443954560E+00  0.0000000000E+00  8.1533932094E+00
                       0.0000000000E+00  3.8443954560E+00  4.7757768286E+00
                       0.0000000000E+00  0.0000000000E+00  0.0000000000E+00
                       3.8443954560E+00  3.8443954560E+00  0.0000000000E+00
             xred      0.0000000000E+00  5.0000000000E-01  8.2373800000E-01
                       5.0000000000E-01  0.0000000000E+00  1.7626200000E-01
                       5.0000000000E-01  0.0000000000E+00  6.3062000000E-01
                       0.0000000000E+00  5.0000000000E-01  3.6938000000E-01
                       0.0000000000E+00  0.0000000000E+00  0.0000000000E+00
                       5.0000000000E-01  5.0000000000E-01  0.0000000000E+00
            znucl       57.00000   17.00000    8.00000

- Timing analysis has been suppressed with timopt=0

 Suggested references for the acknowledgment of ABINIT usage.

 Calculation completed.
.Delivered   6 WARNINGs and   7 COMMENTs to log file.