.Version 9.5.1 of ABINIT

 ABINIT is a project of the Universite Catholique de Louvain,
 Corning Inc. and other collaborators, see ~abinit/doc/developers/contributors.txt .
 acknowledgments of the ABINIT effort.

.Starting date : Tue 27 Apr 2021.
- ( at 18h27 )

- input  file    -> /scratch/users/j/a/jabreu/flow_simple_4atoms/flow/w158/t1/run.abi
- output file    -> /scratch/users/j/a/jabreu/flow_simple_4atoms/flow/w158/t1/run.abo
- root for input  files -> /scratch/users/j/a/jabreu/flow_simple_4atoms/flow/w158/t1/indata/in
- root for output files -> /scratch/users/j/a/jabreu/flow_simple_4atoms/flow/w158/t1/outdata/out

 Symmetries : space group P6_3 m c (#186); Bravais hP (primitive hexag.)
     intxc =       0      iscf =       7    lmnmax =      13     lnmax =       5
     mgfft =      50  mpssoang =       3    mqgrid =    3001     natom =       4
  nloc_mem =       1    nspden =       1   nspinor =       1    nsppol =       1
      nsym =      12    n1xccc =    2501    ntypat =       2    occopt =       1
   xclevel =       2
-    mband =          19        mffmem =           1         mkmem =           1
-   mkqmem =           1        mk1mem =           1           mpw =        2575
      nfft =       51200          nkpt =           1
  Rough estimation (10% accuracy) of disk space for files :

------------- Echo of variables that govern the present computation ------------
-
- outvars: echo of selected default values
-   iomode0 =  0 , fftalg0 =512 , wfoptalg0 =  0
-
- outvars: echo of global parameters not present in the input file
-  max_nthreads =    0
-
 -outvars: echo values of preprocessed input variables --------
            acell      1.0000000000E+00  1.0000000000E+00  1.0000000000E+00 Bohr
              amu      9.01218200E+00  1.59994000E+01
             ecut      4.40000000E+01 Hartree
-          fftalg         512
           irdden           1
           irdwfk           1
           istwfk        1
              ixc     -116133
           kptopt           0
P           mkmem           1
P          mkqmem           1
P          mk1mem           1
            natom           4
            nband          19
           nbdbuf           4
            ngfft          32      32      50
             nkpt           1
            nstep         100
             nsym          12
           ntypat           2
              occ      2.000000  2.000000  2.000000  2.000000  2.000000  2.000000
                       2.000000  2.000000  2.000000  2.000000  0.000000  0.000000
                       0.000000  0.000000  0.000000  0.000000  0.000000  0.000000
                       0.000000
        optdriver           1
            prtwf          -1
            rfdir           1       1       1
           rfelfd           2
            rprim      5.0855171662E+00  0.0000000000E+00  0.0000000000E+00
                      -2.5427585831E+00  4.4041870573E+00  0.0000000000E+00
                       0.0000000000E+00  0.0000000000E+00  8.2570956004E+00
          spgroup         186
           symrel      1  0  0   0  1  0   0  0  1       0  1  0   1  0  0   0  0  1
                       1  1  0  -1  0  0   0  0  1      -1  0  0   1  1  0   0  0  1
                       0  1  0  -1 -1  0   0  0  1      -1 -1  0   0  1  0   0  0  1
                      -1  0  0   0 -1  0   0  0  1       0 -1  0  -1  0  0   0  0  1
                      -1 -1  0   1  0  0   0  0  1       1  0  0  -1 -1  0   0  0  1
                       0 -1  0   1  1  0   0  0  1       1  1  0   0 -1  0   0  0  1
            tnons      0.0000000  0.0000000  0.0000000     0.0000000  0.0000000  0.5000000
                       0.0000000  0.0000000  0.5000000     0.0000000  0.0000000  0.0000000
                       0.0000000  0.0000000  0.0000000     0.0000000  0.0000000  0.5000000
                       0.0000000  0.0000000  0.5000000     0.0000000  0.0000000  0.0000000
                       0.0000000  0.0000000  0.0000000     0.0000000  0.0000000  0.5000000
                       0.0000000  0.0000000  0.5000000     0.0000000  0.0000000  0.0000000
           tolwfr      1.00000000E-20
            typat      1  1  2  2
           useylm           1
           xangst      0.0000000000E+00  1.5537302754E+00  6.0735588532E-04
                       1.3455698891E+00  7.7686513770E-01  2.1853407563E+00
                       0.0000000000E+00  1.5537302754E+00  2.7193857277E+00
                       1.3455698891E+00  7.7686513770E-01  5.3465232722E-01
            xcart      0.0000000000E+00  2.9361247049E+00  1.1477362885E-03
                       2.5427585831E+00  1.4680623524E+00  4.1296955365E+00
                       0.0000000000E+00  2.9361247049E+00  5.1388942750E+00
                       2.5427585831E+00  1.4680623524E+00  1.0103464748E+00
             xred      3.3333333333E-01  6.6666666667E-01  1.3900000000E-04
                       6.6666666667E-01  3.3333333333E-01  5.0013900000E-01
                       3.3333333333E-01  6.6666666667E-01  6.2236100000E-01
                       6.6666666667E-01  3.3333333333E-01  1.2236100000E-01
            znucl        4.00000    8.00000

 chkinp: Checking input parameters for consistency.

== DATASET  1 ==================================================================
-   mpi_nproc: 1, omp_nthreads: -1 (-1 if OMP is not activated)

--- !DatasetInfo
iteration_state: {dtset: 1, }
dimensions: {natom: 4, nkpt: 1, mband: 19, nsppol: 1, nspinor: 1, nspden: 1, mpw: 2575, }
cutoff_energies: {ecut:  44.0, pawecutdg:  -1.0, }
electrons: {nelect:   2.00000000E+01, charge:   0.00000000E+00, occopt:   1.00000000E+00, tsmear:   1.00000000E-02, }
meta: {optdriver: 1, rfelfd: 2, }
...

 Real(R)+Recip(G) space primitive vectors, cartesian coordinates (Bohr,Bohr^-1):
 R(1)=  5.0855172  0.0000000  0.0000000  G(1)=  0.1966368  0.1135283  0.0000000
 R(2)= -2.5427586  4.4041871  0.0000000  G(2)=  0.0000000  0.2270567  0.0000000
 R(3)=  0.0000000  0.0000000  8.2570956  G(3)=  0.0000000  0.0000000  0.1211080
 Unit cell volume ucvol=  1.8493887E+02 bohr^3
 Angles (23,13,12)=  9.00000000E+01  9.00000000E+01  1.20000000E+02 degrees

 getcut: wavevector=  0.0000  0.0000  0.0000  ngfft=  32  32  50
         ecut(hartree)=     44.000   => boxcut(ratio)=   2.02792

--- Pseudopotential description ------------------------------------------------
- pspini: atom type   1  psp file is /scratch/users/j/a/jabreu/pseudos/PBEsol/Be.psp8
- pspatm: opening atomic psp file    /scratch/users/j/a/jabreu/pseudos/PBEsol/Be.psp8
- Be    ONCVPSP-3.3.0  r_core=   1.35684   1.10780
-  4.00000   4.00000    180112                znucl, zion, pspdat
    8 -116133    1    4       400   0.00000   pspcod,pspxc,lmax,lloc,mmax,r2well
    3.99000000000000    0.00000000000000    0.00000000000000   rchrg,fchrg,qchrg
     nproj     2     2
     extension_switch     1
  pspatm : epsatm=    3.86293307
         --- l  ekb(1:nproj) -->
             0   -7.966826   -2.672546
             1   -3.431835   -0.651830
 pspatm: atomic psp has been read  and splines computed

- pspini: atom type   2  psp file is /scratch/users/j/a/jabreu/pseudos/PBEsol/O.psp8
- pspatm: opening atomic psp file    /scratch/users/j/a/jabreu/pseudos/PBEsol/O.psp8
- O     ONCVPSP-3.3.0  r_core=   1.35509   1.45563   1.26150
-  8.00000   6.00000    180112                znucl, zion, pspdat
    8 -116133    2    4       600   0.00000   pspcod,pspxc,lmax,lloc,mmax,r2well
    5.99000000000000    4.00000000000000    0.00000000000000   rchrg,fchrg,qchrg
     nproj     2     2     1
     extension_switch     1
  pspatm : epsatm=    6.22910522
         --- l  ekb(1:nproj) -->
             0    6.050032    0.820363
             1   -4.739617   -1.153841
             2   -1.335834
 pspatm: atomic psp has been read  and splines computed

   4.03681532E+02                                ecore*ucvol(ha*bohr**3)

-inwffil : will read wavefunctions from disk file /scratch/users/j/a/jabreu/flow_simple_4atoms/flow/w158/t1/indata/in_WFK

 ==>  initialize data related to q vector <==

 The list of irreducible perturbations for this q vector is:
    1)    idir= 1    ipert=   5
    2)    idir= 2    ipert=   5
    3)    idir= 3    ipert=   5

 Perturbation wavevector (in red.coord.)   0.000000  0.000000  0.000000
 Perturbation : derivative vs k along direction   1

 dfpt_looppert : COMMENT -
  In a d/dk calculation, iscf is set to -3 automatically.
 The set of symmetries contains only one element for this perturbation.
 symkpt : not enough symmetry to change the number of k points.

[...]

 Initialisation of the first-order wave-functions :
  ireadwf=   0

--- !BeginCycle
iteration_state: {dtset: 1, }
solver: {iscf: 7, nstep: 100, nline: 4, wfoptalg: 0, }
tolerances: {tolwfr: 1.00E-20, }
...

     iter   2DEtotal(Ha)        deltaE(Ha) residm    vres2
-ETOT  1  -60.824747119702     -6.082E+01 1.111E-01 0.000E+00
 ETOT  2  -60.833618004079     -8.871E-03 6.247E-05 0.000E+00
 ETOT  3  -60.833622824036     -4.820E-06 4.251E-08 0.000E+00
 ETOT  4  -60.833622827798     -3.762E-09 7.138E-12 0.000E+00
 ETOT  5  -60.833622827799     -1.151E-12 1.065E-14 0.000E+00
 ETOT  6  -60.833622827799      7.105E-14 5.500E-18 0.000E+00
 ETOT  7  -60.833622827799     -4.263E-14 8.899E-21 0.000E+00

 At SCF step    7   max residual=  8.90E-21 < tolwfr=  1.00E-20 =>converged.

 ----iterations are completed or convergence reached----

 dfpt_looppert: DFPT cycle converged with prtwf=-1. Will skip output of the 1st-order WFK file.
 dfpt_looppert : ek2=    8.1411960914E+01
          f-sum rule ratio=    1.5125468629E+00
 prteigrs : about to open file /scratch/users/j/a/jabreu/flow_simple_4atoms/flow/w158/t1/tmpdata/tmp_1WF1_EIG
 Expectation of eigenvalue derivatives (hartree) for nkpt=   1  k points:
  (in case of degenerate eigenvalues, averaged derivative)
 kpt#   1, nband= 19, wtk=  1.00000, kpt=  0.0000  0.0000  0.0000 (reduced coord)
   0.00000   -0.00000    0.00000    0.00000    0.00000    0.00000    0.00000   -0.00000
  -0.00000   -0.00000    0.00000   -0.00000    0.00000    0.00000    0.00000   -0.00000
  -0.00000   -0.00000   -0.00240

 Eight components of 2nd-order total energy (hartree) are
 1,2,3: 0th-order hamiltonian combined with 1st-order wavefunctions
     kin0=   4.02174091E+01 eigvalue=   2.83500409E+00  local=  -1.18805131E+01
 4,5,6: 1st-order hamiltonian combined with 1st and 0th-order wfs
     kin1=  -1.23139406E+02  Hartree=   0.00000000E+00     xc=   0.00000000E+00
 7,8,9: eventually, occupation + non-local contributions
    edocc=   3.31706040E+01     enl0=  -3.50888131E+00   enl1=   1.47216043E+00
 1-9 gives the relaxation energy (to be shifted if some occ is /=2.0)
   erelax=  -6.08336228E+01
  No Ewald or frozen-wf contrib.: the relaxation energy is the total one
 2DEtotal=   -0.6083362283E+02 Ha. Also 2DEtotal=   -0.165536706236E+04 eV
    (  non-var. 2DEtotal :   -6.0833622828E+01 Ha)

 Perturbation wavevector (in red.coord.)   0.000000  0.000000  0.000000
 Perturbation : derivative vs k along direction   2
 The set of symmetries contains only one element for this perturbation.
 symkpt : not enough symmetry to change the number of k points.

[...]

 Perturbation wavevector (in red.coord.)   0.000000  0.000000  0.000000
 Perturbation : derivative vs k along direction   3
 The set of symmetries contains only one element for this perturbation.
 symkpt : not enough symmetry to change the number of k points.

-inwffil : will read wavefunctions from disk file /scratch/users/j/a/jabreu/flow_simple_4atoms/flow/w158/t1/indata/in_WFK

 Initialisation of the first-order wave-functions :
  ireadwf=   0

--- !BeginCycle
iteration_state: {dtset: 1, }
solver: {iscf: 7, nstep: 100, nline: 4, wfoptalg: 0, }
tolerances: {tolwfr: 1.00E-20, }
...

     iter   2DEtotal(Ha)        deltaE(Ha) residm    vres2
-ETOT  1  -13.811245535163     -1.381E+01 3.089E-02 0.000E+00
 ETOT  2  -13.813402080737     -2.157E-03 2.273E-05 0.000E+00
 ETOT  3  -13.813403046330     -9.656E-07 1.752E-08 0.000E+00
 ETOT  4  -13.813403047067     -7.372E-10 8.914E-12 0.000E+00
 ETOT  5  -13.813403047067     -3.766E-13 9.693E-15 0.000E+00
 ETOT  6  -13.813403047067      7.105E-15 2.332E-18 0.000E+00
 ETOT  7  -13.813403047067     -1.421E-14 9.967E-21 0.000E+00

 At SCF step    7   max residual=  9.97E-21 < tolwfr=  1.00E-20 =>converged.

 ----iterations are completed or convergence reached----

 dfpt_looppert: DFPT cycle converged with prtwf=-1. Will skip output of the 1st-order WFK file.
 dfpt_looppert : ek2=    2.3161415751E+01
          f-sum rule ratio=    1.1684503425E+00
 prteigrs : about to open file /scratch/users/j/a/jabreu/flow_simple_4atoms/flow/w158/t1/tmpdata/tmp_1WF1_EIG
 Expectation of eigenvalue derivatives (hartree) for nkpt=   1  k points:
  (in case of degenerate eigenvalues, averaged derivative)
 kpt#   1, nband= 19, wtk=  1.00000, kpt=  0.0000  0.0000  0.0000 (reduced coord)
   0.00000   -0.00000    0.00000    0.00000    0.00000    0.00000    0.00000    0.00000
   0.00000   -0.00000    0.00000   -0.00000    0.00000    0.00000   -0.00000   -0.00000
   0.00000    0.00000    0.00000

 Eight components of 2nd-order total energy (hartree) are
 1,2,3: 0th-order hamiltonian combined with 1st-order wavefunctions
     kin0=   1.23039287E+01 eigvalue=   8.89054898E-01  local=  -3.67728750E+00
 4,5,6: 1st-order hamiltonian combined with 1st and 0th-order wfs
     kin1=  -2.70629642E+01  Hartree=   0.00000000E+00     xc=   0.00000000E+00
 7,8,9: eventually, occupation + non-local contributions
    edocc=   5.20151846E+00     enl0=  -9.03811483E-01   enl1=  -5.63841926E-01
 1-9 gives the relaxation energy (to be shifted if some occ is /=2.0)
   erelax=  -1.38134030E+01
  No Ewald or frozen-wf contrib.: the relaxation energy is the total one
 2DEtotal=   -0.1381340305E+02 Ha. Also 2DEtotal=   -0.375881812727E+03 eV
    (  non-var. 2DEtotal :   -1.3813403047E+01 Ha)

 CALCULATION OF EFFECTIVE MASSES
 NOTE : Additional infos (eff. mass eigenvalues, eigenvectors and, if degenerate, average mass) are available in stdout.

 K-point ( 0.000, 0.000, 0.000) | band =    10
 Effective mass tensor:
             -3.3544355929              0.0000008664              0.0000295175
              0.0000008664             -3.3544376859              0.0000140465
              0.0000295175              0.0000140465             -0.3824438927
 Effective mass tensor eigenvalues:
             -3.3544379980             -3.3544352811             -0.3824438923
 Angular average effective mass 1/(<1/m>)=  -0.9342918932
 Angular average effective mass for Frohlich model (<m**0.5>)**2=  -1.3205485337
 Effective masses along directions: (cart. coord. / red. coord. -> eff. mass)
    1:   1.000000  0.000000  0.000000 /   0.894427 -0.447214  0.000000 ->  -3.3544355906
    2:   0.000000  1.000000  0.000000 /   0.000000  1.000000  0.000000 ->  -3.3544376854
    3:   0.000000  0.000000  1.000000 /   0.000000  0.000000  1.000000 ->  -0.3824438924
    4:   0.577350  0.577350  0.577350 /   0.515012  0.188507  0.836198 ->  -0.9342720875
    5:   0.000000  0.707107  0.707107 /   0.000000  0.470622  0.882335 ->  -0.6866016672
    6:   0.707107  0.000000  0.707107 /   0.507266 -0.253633  0.823621 ->  -0.6865959383
    7:   0.707107  0.707107  0.000000 /   0.939071  0.343724  0.000000 ->  -3.3544357705

 K-point ( 0.000, 0.000, 0.000) | band =    11
 Effective mass tensor:
              0.6245907751             -0.0000000001             -0.0000003891
             -0.0000000001              0.6245907740              0.0000006272
             -0.0000003891              0.0000006272              0.5477549310
 Effective mass tensor eigenvalues:
              0.5477549309              0.6245907740              0.6245907751
 Angular average effective mass 1/(<1/m>)=   0.5966906866
 Angular average effective mass for Frohlich model (<m**0.5>)**2=   0.5973917644
 Effective masses along directions: (cart. coord. / red. coord. -> eff. mass)
    1:   1.000000  0.000000  0.000000 /   0.894427 -0.447214  0.000000 ->   0.6245907751
    2:   0.000000  1.000000  0.000000 /   0.000000  1.000000  0.000000 ->   0.6245907740
    3:   0.000000  0.000000  1.000000 /   0.000000  0.000000  1.000000 ->   0.5477549310
    4:   0.577350  0.577350  0.577350 /   0.515012  0.188507  0.836198 ->   0.5966908517
    5:   0.000000  0.707107  0.707107 /   0.000000  0.470622  0.882335 ->   0.5836555564
    6:   0.707107  0.000000  0.707107 /   0.507266 -0.253633  0.823621 ->   0.5836545449
    7:   0.707107  0.707107  0.000000 /   0.939071  0.343724  0.000000 ->   0.6245907744

 END OF EFFECTIVE MASSES SECTION

 ---- first-order wavefunction calculations are completed ----

 Total localisation tensor (bohr^2) in cartesian coordinates
  WARNING : still subject to testing - especially symmetries.
      direction              matrix element
   alpha     beta       real part   imaginary part
     1        1       1.6449308690    0.0000000000
     1        2      -0.5698216023    0.0000000000
     1        3       0.0000000000    0.0000000000
     2        1      -0.5698216023    0.0000000000
     2        2       0.9869599664    0.0000000000
     2        3       0.0000000000    0.0000000000
     3        1       0.0000000000    0.0000000000
     3        2       0.0000000000    0.0000000000
     3        3       0.6941397603    0.0000000000

 respfn : d/dk was computed, but no 2DTE, so no DDB output.

== END DATASET(S) ==============================================================

 -outvars: echo values of variables after computation  --------
            acell      1.0000000000E+00  1.0000000000E+00  1.0000000000E+00 Bohr
              amu      9.01218200E+00  1.59994000E+01
             ecut      4.40000000E+01 Hartree
           etotal     -1.3813403047E+01
            fcart      0.0000000000E+00  0.0000000000E+00  0.0000000000E+00
                       0.0000000000E+00  0.0000000000E+00  0.0000000000E+00
                       0.0000000000E+00  0.0000000000E+00  0.0000000000E+00
                       0.0000000000E+00  0.0000000000E+00  0.0000000000E+00
-          fftalg         512
           irdden           1
           irdwfk           1
           istwfk        1
              ixc     -116133
           kptopt           0
P           mkmem           1
P          mkqmem           1
P          mk1mem           1
            natom           4
            nband          19
           nbdbuf           4
            ngfft          32      32      50
             nkpt           1
            nstep         100
             nsym          12
           ntypat           2
              occ      2.000000  2.000000  2.000000  2.000000  2.000000  2.000000
                       2.000000  2.000000  2.000000  2.000000  0.000000  0.000000
                       0.000000  0.000000  0.000000  0.000000  0.000000  0.000000
                       0.000000
        optdriver           1
            prtwf          -1
            rfdir           1       1       1
           rfelfd           2
            rprim      5.0855171662E+00  0.0000000000E+00  0.0000000000E+00
                      -2.5427585831E+00  4.4041870573E+00  0.0000000000E+00
                       0.0000000000E+00  0.0000000000E+00  8.2570956004E+00
          spgroup         186
           strten      0.0000000000E+00  0.0000000000E+00  0.0000000000E+00
                       0.0000000000E+00  0.0000000000E+00  0.0000000000E+00
           symrel      1  0  0   0  1  0   0  0  1       0  1  0   1  0  0   0  0  1
                       1  1  0  -1  0  0   0  0  1      -1  0  0   1  1  0   0  0  1
                       0  1  0  -1 -1  0   0  0  1      -1 -1  0   0  1  0   0  0  1
                      -1  0  0   0 -1  0   0  0  1       0 -1  0  -1  0  0   0  0  1
                      -1 -1  0   1  0  0   0  0  1       1  0  0  -1 -1  0   0  0  1
                       0 -1  0   1  1  0   0  0  1       1  1  0   0 -1  0   0  0  1
            tnons      0.0000000  0.0000000  0.0000000     0.0000000  0.0000000  0.5000000
                       0.0000000  0.0000000  0.5000000     0.0000000  0.0000000  0.0000000
                       0.0000000  0.0000000  0.0000000     0.0000000  0.0000000  0.5000000
                       0.0000000  0.0000000  0.5000000     0.0000000  0.0000000  0.0000000
                       0.0000000  0.0000000  0.0000000     0.0000000  0.0000000  0.5000000
                       0.0000000  0.0000000  0.5000000     0.0000000  0.0000000  0.0000000
           tolwfr      1.00000000E-20
            typat      1  1  2  2
           useylm           1
           xangst      0.0000000000E+00  1.5537302754E+00  6.0735588532E-04
                       1.3455698891E+00  7.7686513770E-01  2.1853407563E+00
                       0.0000000000E+00  1.5537302754E+00  2.7193857277E+00
                       1.3455698891E+00  7.7686513770E-01  5.3465232722E-01
            xcart      0.0000000000E+00  2.9361247049E+00  1.1477362885E-03
                       2.5427585831E+00  1.4680623524E+00  4.1296955365E+00
                       0.0000000000E+00  2.9361247049E+00  5.1388942750E+00
                       2.5427585831E+00  1.4680623524E+00  1.0103464748E+00
             xred      3.3333333333E-01  6.6666666667E-01  1.3900000000E-04
                       6.6666666667E-01  3.3333333333E-01  5.0013900000E-01
                       3.3333333333E-01  6.6666666667E-01  6.2236100000E-01
                       6.6666666667E-01  3.3333333333E-01  1.2236100000E-01
            znucl        4.00000    8.00000

- Timing analysis has been suppressed with timopt=0

 Suggested references for the acknowledgment of ABINIT usage.

 Calculation completed.
.Delivered   6 WARNINGs and   5 COMMENTs to log file.