.Version 9.5.1 of ABINIT

 ABINIT is a project of the Universite Catholique de Louvain,
 Corning Inc. and other collaborators, see ~abinit/doc/developers/contributors.txt .
 acknowledgments of the ABINIT effort.

.Starting date : Wed 19 May 2021.
- ( at 13h46 )

- input  file    -> /scratch/users/j/a/jabreu/flow_simple_9atoms/flow/w188/t1/run.abi
- output file    -> /scratch/users/j/a/jabreu/flow_simple_9atoms/flow/w188/t1/run.abo
- root for input  files -> /scratch/users/j/a/jabreu/flow_simple_9atoms/flow/w188/t1/indata/in
- root for output files -> /scratch/users/j/a/jabreu/flow_simple_9atoms/flow/w188/t1/outdata/out

 Symmetries : space group Fm -3 m (#225); Bravais cF (face-center cubic)
     intxc =       0      iscf =       7    lmnmax =      18     lnmax =       6
     mgfft =      64  mpssoang =       3    mqgrid =    3001     natom =       9
  nloc_mem =       1    nspden =       1   nspinor =       1    nsppol =       1
      nsym =      48    n1xccc =    2501    ntypat =       3    occopt =       1
   xclevel =       2
-    mband =          30        mffmem =           1         mkmem =           2
-   mkqmem =           2        mk1mem =           2           mpw =       10086
      nfft =      262144          nkpt =           2
  Rough estimation (10% accuracy) of disk space for files :

------------- Echo of variables that govern the present computation ------------
-
- outvars: echo of selected default values
-   iomode0 =  0 , fftalg0 =512 , wfoptalg0 =  0
-
- outvars: echo of global parameters not present in the input file
-  max_nthreads =    0
-
 -outvars: echo values of preprocessed input variables --------
            acell      1.0000000000E+00  1.0000000000E+00  1.0000000000E+00 Bohr
              amu      8.76200000E+01  1.00794000E+00  1.01070000E+02
             ecut      4.40000000E+01 Hartree
-          fftalg         512
           irdden           1
           irdwfk           1
           istwfk        1    1
              ixc     -116133
              kpt      0.00000000E+00  0.00000000E+00  0.00000000E+00
                       5.00000000E-01  0.00000000E+00  5.00000000E-01
           kptopt           0
P           mkmem           2
P          mkqmem           2
P          mk1mem           2
            natom           9
            nband          30
           nbdbuf           4
            ngfft          64      64      64
             nkpt           2
            nstep        2000
             nsym          48
           ntypat           3
              occ      2.000000  2.000000  2.000000  2.000000  2.000000  2.000000
                       2.000000  2.000000  2.000000  2.000000  2.000000  2.000000
                       2.000000  2.000000  2.000000  2.000000  2.000000  2.000000
                       2.000000  2.000000  2.000000  0.000000  0.000000  0.000000
                       0.000000  0.000000  0.000000  0.000000  0.000000  0.000000
        optdriver           1
            prtwf          -1
            rfdir           1       1       1
           rfelfd           2
            rprim      8.7019834344E+00  0.0000000000E+00  5.0240924783E+00
                       2.9006611448E+00  8.2043086616E+00  5.0240924783E+00
                       0.0000000000E+00  0.0000000000E+00  1.0048184957E+01
          spgroup         225
           symrel      1  0  0   0  1  0   0  0  1      -1  0  0   0 -1  0   0  0 -1
                       0 -1  1   0 -1  0   1 -1  0       0  1 -1   0  1  0  -1  1  0
                      -1  0  0  -1  0  1  -1  1  0       1  0  0   1  0 -1   1 -1  0
                       0  1 -1   1  0 -1   0  0 -1       0 -1  1  -1  0  1   0  0  1
                      -1  0  0  -1  1  0  -1  0  1       1  0  0   1 -1  0   1  0 -1
                       0 -1  1   1 -1  0   0 -1  0       0  1 -1  -1  1  0   0  1  0
                       1  0  0   0  0  1   0  1  0      -1  0  0   0  0 -1   0 -1  0
                       0  1 -1   0  0 -1   1  0 -1       0 -1  1   0  0  1  -1  0  1
                      -1  0  1  -1  1  0  -1  0  0       1  0 -1   1 -1  0   1  0  0
                       0 -1  0   1 -1  0   0 -1  1       0  1  0  -1  1  0   0  1 -1
                       1  0 -1   0  0 -1   0  1 -1      -1  0  1   0  0  1   0 -1  1
                       0  1  0   0  0  1   1  0  0       0 -1  0   0  0 -1  -1  0  0
                       1  0 -1   0  1 -1   0  0 -1      -1  0  1   0 -1  1   0  0  1
                       0 -1  0   0 -1  1   1 -1  0       0  1  0   0  1 -1  -1  1  0
                      -1  0  1  -1  0  0  -1  1  0       1  0 -1   1  0  0   1 -1  0
                       0  1  0   1  0  0   0  0  1       0 -1  0  -1  0  0   0  0 -1
                       0  0 -1   0  1 -1   1  0 -1       0  0  1   0 -1  1  -1  0  1
                       1 -1  0   0 -1  1   0 -1  0      -1  1  0   0  1 -1   0  1  0
                       0  0  1   1  0  0   0  1  0       0  0 -1  -1  0  0   0 -1  0
                      -1  1  0  -1  0  0  -1  0  1       1 -1  0   1  0  0   1  0 -1
                       0  0  1   0  1  0   1  0  0       0  0 -1   0 -1  0  -1  0  0
                       1 -1  0   0 -1  0   0 -1  1      -1  1  0   0  1  0   0  1 -1
                       0  0 -1   1  0 -1   0  1 -1       0  0  1  -1  0  1   0 -1  1
                      -1  1  0  -1  0  1  -1  0  0       1 -1  0   1  0 -1   1  0  0
           tolwfr      1.00000000E-20
            typat      1  1  2  2  2  2  2  2  3
           useylm           1
              wtk        0.50000    0.50000
           xangst      4.6048913030E+00  3.2561498670E+00  7.9759057001E+00
                       1.5349637677E+00  1.0853832890E+00  2.6586352334E+00
                       2.2347967283E+00  3.3518198916E+00  6.7637594555E+00
                       4.7401891493E+00  3.3518198916E+00  5.3172704667E+00
                       3.9050583423E+00  9.8971326436E-01  6.7637594555E+00
                       3.9050583423E+00  9.8971326436E-01  3.8707814781E+00
                       1.3996659213E+00  9.8971326436E-01  5.3172704668E+00
                       2.2347967283E+00  3.3518198916E+00  3.8707814781E+00
                       0.0000000000E+00  0.0000000000E+00  0.0000000000E+00
            xcart      8.7019834344E+00  6.1532314962E+00  1.5072277435E+01
                       2.9006611448E+00  2.0510771654E+00  5.0240924783E+00
                       4.2231537792E+00  6.3340216419E+00  1.2781653000E+01
                       8.9576593103E+00  6.3340216419E+00  1.0048184957E+01
                       7.3794908000E+00  1.8702870197E+00  1.2781653000E+01
                       7.3794908000E+00  1.8702870197E+00  7.3147169138E+00
                       2.6449852689E+00  1.8702870197E+00  1.0048184957E+01
                       4.2231537792E+00  6.3340216419E+00  7.3147169138E+00
                       0.0000000000E+00  0.0000000000E+00  0.0000000000E+00
             xred      7.5000000000E-01  7.5000000000E-01  7.5000000000E-01
                       2.5000000000E-01  2.5000000000E-01  2.5000000000E-01
                       2.2796400000E-01  7.7203600000E-01  7.7203600000E-01
                       7.7203600000E-01  7.7203600000E-01  2.2796400000E-01
                       7.7203600000E-01  2.2796400000E-01  7.7203600000E-01
                       7.7203600000E-01  2.2796400000E-01  2.2796400000E-01
                       2.2796400000E-01  2.2796400000E-01  7.7203600000E-01
                       2.2796400000E-01  7.7203600000E-01  2.2796400000E-01
                       0.0000000000E+00  0.0000000000E+00  0.0000000000E+00
            znucl       38.00000    1.00000   44.00000

 chkinp: Checking input parameters for consistency.

== DATASET  1 ==================================================================
-   mpi_nproc: 1, omp_nthreads: -1 (-1 if OMP is not activated)

--- !DatasetInfo
iteration_state: {dtset: 1, }
dimensions: {natom: 9, nkpt: 2, mband: 30, nsppol: 1, nspinor: 1, nspden: 1, mpw: 10086, }
cutoff_energies: {ecut:  44.0, pawecutdg:  -1.0, }
electrons: {nelect:   4.20000000E+01, charge:   0.00000000E+00, occopt:   1.00000000E+00, tsmear:   1.00000000E-02, }
meta: {optdriver: 1, rfelfd: 2, }
...

 Real(R)+Recip(G) space primitive vectors, cartesian coordinates (Bohr,Bohr^-1):
 R(1)=  8.7019834  0.0000000  5.0240925  G(1)=  0.1149163 -0.0406291  0.0000000
 R(2)=  2.9006611  8.2043087  5.0240925  G(2)=  0.0000000  0.1218872  0.0000000
 R(3)=  0.0000000  0.0000000 10.0481850  G(3)= -0.0574582 -0.0406291  0.0995205
 Unit cell volume ucvol=  7.1737769E+02 bohr^3
 Angles (23,13,12)=  6.00000000E+01  6.00000000E+01  6.00000000E+01 degrees

 getcut: wavevector=  0.0000  0.0000  0.0000  ngfft=  64  64  64
         ecut(hartree)=     44.000   => boxcut(ratio)=   2.13305

--- Pseudopotential description ------------------------------------------------
- pspini: atom type   1  psp file is /scratch/users/j/a/jabreu/pseudos/PBEsol/Sr.psp8
- pspatm: opening atomic psp file    /scratch/users/j/a/jabreu/pseudos/PBEsol/Sr.psp8
- Sr    ONCVPSP-3.3.0  r_core=   1.66721   1.31335   1.51547
- 38.00000  10.00000    180112                znucl, zion, pspdat
    8 -116133    2    4       600   0.00000   pspcod,pspxc,lmax,lloc,mmax,r2well
    5.99000000000000    6.00000000000000    0.00000000000000   rchrg,fchrg,qchrg
     nproj     2     2     2
     extension_switch     1
  pspatm : epsatm=   12.46450977
         --- l  ekb(1:nproj) -->
             0   10.029206    1.044171
             1    7.472414    1.670829
             2    4.142950    0.968140
 pspatm: atomic psp has been read  and splines computed

- pspini: atom type   2  psp file is /scratch/users/j/a/jabreu/pseudos/PBEsol/H.psp8
- pspatm: opening atomic psp file    /scratch/users/j/a/jabreu/pseudos/PBEsol/H.psp8
- H     ONCVPSP-3.3.0  r_core=   1.00957   0.70586
-  1.00000   1.00000    180112                znucl, zion, pspdat
    8 -116133    1    4       300   0.00000   pspcod,pspxc,lmax,lloc,mmax,r2well
    2.99000000000000    0.00000000000000    0.00000000000000   rchrg,fchrg,qchrg
     nproj     2     1
     extension_switch     1
  pspatm : epsatm=    0.35627032
         --- l  ekb(1:nproj) -->
             0   -1.674911   -0.523609
             1   -0.494138
 pspatm: atomic psp has been read  and splines computed

- pspini: atom type   3  psp file is /scratch/users/j/a/jabreu/pseudos/PBEsol/Ru.psp8
- pspatm: opening atomic psp file    /scratch/users/j/a/jabreu/pseudos/PBEsol/Ru.psp8
- Ru    ONCVPSP-3.3.0  r_core=   1.35650   1.40592   1.30881
- 44.00000  16.00000    180112                znucl, zion, pspdat
    8 -116133    2    4       600   0.00000   pspcod,pspxc,lmax,lloc,mmax,r2well
    5.99000000000000    7.00000000000000    0.00000000000000   rchrg,fchrg,qchrg
     nproj     2     2     2
     extension_switch     1
  pspatm : epsatm=   20.24388641
         --- l  ekb(1:nproj) -->
             0   14.596908    1.144598
             1    7.305594    1.039251
             2    1.509539    0.405296
 pspatm: atomic psp has been read  and splines computed

   1.98704217E+03                                ecore*ucvol(ha*bohr**3)

[...]
 The set of symmetries contains only one element for this perturbation.
 symkpt : not enough symmetry to change the number of k points.

[...]

 Perturbation wavevector (in red.coord.)   0.000000  0.000000  0.000000
 Perturbation : derivative vs k along direction   3
 The set of symmetries contains only one element for this perturbation.
 symkpt : not enough symmetry to change the number of k points.

-inwffil : will read wavefunctions from disk file /scratch/users/j/a/jabreu/flow_simple_9atoms/flow/w188/t1/indata/in_WFK

 Initialisation of the first-order wave-functions :
  ireadwf=   0

--- !BeginCycle
iteration_state: {dtset: 1, }
solver: {iscf: 7, nstep: 2000, nline: 4, wfoptalg: 0, }
tolerances: {tolwfr: 1.00E-20, }
...

     iter   2DEtotal(Ha)        deltaE(Ha) residm    vres2
-ETOT  1  -24.302090290516     -2.430E+01 3.337E-01 0.000E+00
 ETOT  2  -24.323051692768     -2.096E-02 3.129E-02 0.000E+00
 ETOT  3  -24.323156383547     -1.047E-04 2.363E-03 0.000E+00
 ETOT  4  -24.323157137502     -7.540E-07 2.042E-04 0.000E+00
 ETOT  5  -24.323157143545     -6.043E-09 3.106E-05 0.000E+00
 ETOT  6  -24.323157143596     -5.098E-11 2.135E-06 0.000E+00
 ETOT  7  -24.323157143597     -4.370E-13 5.020E-07 0.000E+00
 ETOT  8  -24.323157143597     -3.553E-14 2.934E-08 0.000E+00
 ETOT  9  -24.323157143597      1.421E-14 8.415E-09 0.000E+00
 ETOT 10  -24.323157143597     -3.553E-15 4.824E-10 0.000E+00
 ETOT 11  -24.323157143597     -3.553E-15 1.446E-10 0.000E+00
 ETOT 12  -24.323157143597      1.776E-14 9.216E-12 0.000E+00
 ETOT 13  -24.323157143597     -1.421E-14 2.817E-12 0.000E+00
 ETOT 14  -24.323157143597      1.066E-14 1.823E-13 0.000E+00
 ETOT 15  -24.323157143597     -1.776E-14 6.350E-14 0.000E+00
 ETOT 16  -24.323157143597      0.000E+00 4.261E-15 0.000E+00
 ETOT 17  -24.323157143597      3.553E-15 1.311E-15 0.000E+00
 ETOT 18  -24.323157143597      0.000E+00 1.012E-16 0.000E+00
 ETOT 19  -24.323157143597      3.553E-15 2.724E-17 0.000E+00
 ETOT 20  -24.323157143597      1.066E-14 2.418E-18 0.000E+00
 ETOT 21  -24.323157143597     -1.776E-14 5.703E-19 0.000E+00
 ETOT 22  -24.323157143597      3.553E-15 5.799E-20 0.000E+00
 ETOT 23  -24.323157143597      1.066E-14 1.200E-20 0.000E+00
 ETOT 24  -24.323157143597     -7.105E-15 9.801E-21 0.000E+00

 At SCF step   24   max residual=  9.80E-21 < tolwfr=  1.00E-20 =>converged.

 ----iterations are completed or convergence reached----

 dfpt_looppert: DFPT cycle converged with prtwf=-1. Will skip output of the 1st-order WFK file.
 dfpt_looppert : ek2=    4.9266877833E+01
          f-sum rule ratio=    9.8615104073E-01
 prteigrs : about to open file /scratch/users/j/a/jabreu/flow_simple_9atoms/flow/w188/t1/tmpdata/tmp_1WF1_EIG
 Expectation of eigenvalue derivatives (hartree) for nkpt=   2  k points:
  (in case of degenerate eigenvalues, averaged derivative)
 kpt#   1, nband= 30, wtk=  0.50000, kpt=  0.0000  0.0000  0.0000 (reduced coord)
   0.00000    0.00000    0.00000    0.00000    0.00000   -0.00000    0.00000    0.00000
   0.00000    0.00000    0.00000    0.00000   -0.00000    0.00000    0.00000   -0.00000
  -0.00000   -0.00000    0.00000    0.00000    0.00000   -0.00000   -0.00000   -0.00000
   0.00000    0.00000    0.00000   -0.00000   -0.00000   -0.00000
 prteigrs : prtvol=0 or 1, do not print more k-points.

 Eight components of 2nd-order total energy (hartree) are
 1,2,3: 0th-order hamiltonian combined with 1st-order wavefunctions
     kin0=   3.14182287E+01 eigvalue=   4.81140355E-01  local=  -1.97152380E+01
 4,5,6: 1st-order hamiltonian combined with 1st and 0th-order wfs
     kin1=  -4.85845828E+01  Hartree=   0.00000000E+00     xc=   0.00000000E+00
 7,8,9: eventually, occupation + non-local contributions
    edocc=   8.72166788E+00     enl0=   3.41735813E+00   enl1=  -6.17314381E-02
 1-9 gives the relaxation energy (to be shifted if some occ is /=2.0)
   erelax=  -2.43231571E+01
  No Ewald or frozen-wf contrib.: the relaxation energy is the total one
 2DEtotal=   -0.2432315714E+02 Ha. Also 2DEtotal=   -0.661866765722E+03 eV
    (  non-var. 2DEtotal :   -2.4323157143E+01 Ha)

 CALCULATION OF EFFECTIVE MASSES
 NOTE : Additional infos (eff. mass eigenvalues, eigenvectors and, if degenerate, average mass) are available in stdout.

 COMMENTS:
 - At k-point ( 0.000, 0.000, 0.000), bands    19 through    21
   are DEGENERATE (effective mass tensor is therefore not defined).
   See Section IIIB Eqs. (67)-(70) and Appendix E of PRB 93 205147 (2016).
 - Angular average effective mass for Frohlich model is to be averaged over degenerate bands. See later.
 - Associated theta integrals calculated with ntheta=   1000 points.

 K-point ( 0.000, 0.000, 0.000) | band =    19
 Transport equivalent effective mass tensor:
             -2.7338211278              0.0000000112             -0.0000000090
              0.0000000112             -2.7338210308             -0.0000000063
             -0.0000000090             -0.0000000063             -2.7338210954
 Transport equivalent effective mass tensor eigenvalues:
             -2.7338211310             -2.7338210943             -2.7338210287
 Angular average effective mass 1/(<1/m>)=  -2.6057763749
 Angular average effective mass for Frohlich model (<m**0.5>)**2=  -2.6145312973
 Effective masses along directions: (cart. coord. / red. coord. -> eff. mass)
    1:   1.000000  0.000000  0.000000 /   0.948683  0.316228  0.000000 ->  -2.6968650543
    2:   0.000000  1.000000  0.000000 /   0.000000  1.000000  0.000000 ->  -2.9200874946
    3:   0.000000  0.000000  1.000000 /   0.408248  0.408248  0.816497 ->  -2.7273303216
    4:   0.577350  0.577350  0.577350 /   0.585539  0.688047  0.428644 ->  -2.7085479298
    5:   0.000000  0.707107  0.707107 /   0.289489  0.762222  0.578977 ->  -2.4930222748
    6:   0.707107  0.000000  0.707107 /   0.731423  0.422287  0.535439 ->  -2.7117957699
    7:   0.707107  0.707107  0.000000 /   0.616798  0.787122  0.000000 ->  -2.3119842832

[...]

 K-point ( 0.000, 0.000, 0.000) | band =    21
 Transport equivalent effective mass tensor:
            -37.7002173770              0.0000211405              0.0000002663
              0.0000211405            -37.7002170039             -0.0000002640
              0.0000002663             -0.0000002640            -37.7002304797
 Transport equivalent effective mass tensor eigenvalues:
            -37.7002383496            -37.7002304618            -37.7001960492
 Angular average effective mass 1/(<1/m>)= -19.7526705648
 Angular average effective mass for Frohlich model (<m**0.5>)**2= -20.4372473164
 Effective masses along directions: (cart. coord. / red. coord. -> eff. mass)
    1:   1.000000  0.000000  0.000000 /   0.948683  0.316228  0.000000 -> -15.6900314598
    2:   0.000000  1.000000  0.000000 /   0.000000  1.000000  0.000000 -> -11.3716255305
    3:   0.000000  0.000000  1.000000 /   0.408248  0.408248  0.816497 -> -25.2964140856
    4:   0.577350  0.577350  0.577350 /   0.585539  0.688047  0.428644 -> -17.4494270422
    5:   0.000000  0.707107  0.707107 /   0.289489  0.762222  0.578977 -> -24.2638958459
    6:   0.707107  0.000000  0.707107 /   0.731423  0.422287  0.535439 -> -20.7232523171
    7:   0.707107  0.707107  0.000000 /   0.616798  0.787122  0.000000 -> -24.0340575129

 Angular average effective mass for Frohlich model, averaged over degenerate bands.
 Value of     (<<m**0.5>>)**2 =     1.040907E+01
 Absolute Value of <<m**0.5>> =     3.226310E+00

 K-point ( 0.500, 0.000, 0.500) | band =    22
 Effective mass tensor:
              0.7561247861              0.0585506987             -0.0717087569
              0.0585506987              0.7146970642              0.1014328307
             -0.0717087569              0.1014328307              0.6732898987
 Effective mass tensor eigenvalues:
              0.5490764067              0.7975176674              0.7975176748
 Angular average effective mass 1/(<1/m>)=   0.6929972388
 Angular average effective mass for Frohlich model (<m**0.5>)**2=   0.6998460610
 Effective masses along directions: (cart. coord. / red. coord. -> eff. mass)
    1:   1.000000  0.000000  0.000000 /   0.948683  0.316228  0.000000 ->   0.7416103478
    2:   0.000000  1.000000  0.000000 /   0.000000  1.000000  0.000000 ->   0.6929897240
    3:   0.000000  0.000000  1.000000 /   0.408248  0.408248  0.816497 ->   0.6503719286
    4:   0.577350  0.577350  0.577350 /   0.585539  0.688047  0.428644 ->   0.7641663713
    5:   0.000000  0.707107  0.707107 /   0.289489  0.762222  0.578977 ->   0.7944915594
    6:   0.707107  0.000000  0.707107 /   0.731423  0.422287  0.535439 ->   0.6223720045
    7:   0.707107  0.707107  0.000000 /   0.616798  0.787122  0.000000 ->   0.7923858490

 END OF EFFECTIVE MASSES SECTION

 ---- first-order wavefunction calculations are completed ----

 Total localisation tensor (bohr^2) in cartesian coordinates
  WARNING : still subject to testing - especially symmetries.
      direction              matrix element
   alpha     beta       real part   imaginary part
     1        1       1.1260531815    0.0000000000
     1        2       0.3185451325    0.0000000000
     1        3       0.7801726132    0.0000000000
     2        1       0.3185451325    0.0000000000
     2        2       0.9009816932    0.0000000000
     2        3       0.5517363540    0.0000000000
     3        1       0.7801726132    0.0000000000
     3        2       0.5517363540    0.0000000000
     3        3       2.0269225637    0.0000000000

 respfn : d/dk was computed, but no 2DTE, so no DDB output.

== END DATASET(S) ==============================================================

 -outvars: echo values of variables after computation  --------
            acell      1.0000000000E+00  1.0000000000E+00  1.0000000000E+00 Bohr
              amu      8.76200000E+01  1.00794000E+00  1.01070000E+02
             ecut      4.40000000E+01 Hartree
           etotal     -2.4323157144E+01
            fcart      0.0000000000E+00  0.0000000000E+00  0.0000000000E+00
                       0.0000000000E+00  0.0000000000E+00  0.0000000000E+00
                       0.0000000000E+00  0.0000000000E+00  0.0000000000E+00
                       0.0000000000E+00  0.0000000000E+00  0.0000000000E+00
                       0.0000000000E+00  0.0000000000E+00  0.0000000000E+00
                       0.0000000000E+00  0.0000000000E+00  0.0000000000E+00
                       0.0000000000E+00  0.0000000000E+00  0.0000000000E+00
                       0.0000000000E+00  0.0000000000E+00  0.0000000000E+00
                       0.0000000000E+00  0.0000000000E+00  0.0000000000E+00
-          fftalg         512
           irdden           1
           irdwfk           1
           istwfk        1    1
              ixc     -116133
              kpt      0.00000000E+00  0.00000000E+00  0.00000000E+00
                       5.00000000E-01  0.00000000E+00  5.00000000E-01
           kptopt           0
P           mkmem           2
P          mkqmem           2
P          mk1mem           2
            natom           9
            nband          30
           nbdbuf           4
            ngfft          64      64      64
             nkpt           2
            nstep        2000
             nsym          48
           ntypat           3
              occ      2.000000  2.000000  2.000000  2.000000  2.000000  2.000000
                       2.000000  2.000000  2.000000  2.000000  2.000000  2.000000
                       2.000000  2.000000  2.000000  2.000000  2.000000  2.000000
                       2.000000  2.000000  2.000000  0.000000  0.000000  0.000000
                       0.000000  0.000000  0.000000  0.000000  0.000000  0.000000
        optdriver           1
            prtwf          -1
            rfdir           1       1       1
           rfelfd           2
            rprim      8.7019834344E+00  0.0000000000E+00  5.0240924783E+00
                       2.9006611448E+00  8.2043086616E+00  5.0240924783E+00
                       0.0000000000E+00  0.0000000000E+00  1.0048184957E+01
          spgroup         225
           strten      0.0000000000E+00  0.0000000000E+00  0.0000000000E+00
                       0.0000000000E+00  0.0000000000E+00  0.0000000000E+00
           symrel      1  0  0   0  1  0   0  0  1      -1  0  0   0 -1  0   0  0 -1
                       0 -1  1   0 -1  0   1 -1  0       0  1 -1   0  1  0  -1  1  0
                      -1  0  0  -1  0  1  -1  1  0       1  0  0   1  0 -1   1 -1  0
                       0  1 -1   1  0 -1   0  0 -1       0 -1  1  -1  0  1   0  0  1
                      -1  0  0  -1  1  0  -1  0  1       1  0  0   1 -1  0   1  0 -1
                       0 -1  1   1 -1  0   0 -1  0       0  1 -1  -1  1  0   0  1  0
                       1  0  0   0  0  1   0  1  0      -1  0  0   0  0 -1   0 -1  0
                       0  1 -1   0  0 -1   1  0 -1       0 -1  1   0  0  1  -1  0  1
                      -1  0  1  -1  1  0  -1  0  0       1  0 -1   1 -1  0   1  0  0
                       0 -1  0   1 -1  0   0 -1  1       0  1  0  -1  1  0   0  1 -1
                       1  0 -1   0  0 -1   0  1 -1      -1  0  1   0  0  1   0 -1  1
                       0  1  0   0  0  1   1  0  0       0 -1  0   0  0 -1  -1  0  0
                       1  0 -1   0  1 -1   0  0 -1      -1  0  1   0 -1  1   0  0  1
                       0 -1  0   0 -1  1   1 -1  0       0  1  0   0  1 -1  -1  1  0
                      -1  0  1  -1  0  0  -1  1  0       1  0 -1   1  0  0   1 -1  0
                       0  1  0   1  0  0   0  0  1       0 -1  0  -1  0  0   0  0 -1
                       0  0 -1   0  1 -1   1  0 -1       0  0  1   0 -1  1  -1  0  1
                       1 -1  0   0 -1  1   0 -1  0      -1  1  0   0  1 -1   0  1  0
                       0  0  1   1  0  0   0  1  0       0  0 -1  -1  0  0   0 -1  0
                      -1  1  0  -1  0  0  -1  0  1       1 -1  0   1  0  0   1  0 -1
                       0  0  1   0  1  0   1  0  0       0  0 -1   0 -1  0  -1  0  0
                       1 -1  0   0 -1  0   0 -1  1      -1  1  0   0  1  0   0  1 -1
                       0  0 -1   1  0 -1   0  1 -1       0  0  1  -1  0  1   0 -1  1
                      -1  1  0  -1  0  1  -1  0  0       1 -1  0   1  0 -1   1  0  0
           tolwfr      1.00000000E-20
            typat      1  1  2  2  2  2  2  2  3
           useylm           1
              wtk        0.50000    0.50000
           xangst      4.6048913030E+00  3.2561498670E+00  7.9759057001E+00
                       1.5349637677E+00  1.0853832890E+00  2.6586352334E+00
                       2.2347967283E+00  3.3518198916E+00  6.7637594555E+00
                       4.7401891493E+00  3.3518198916E+00  5.3172704667E+00
                       3.9050583423E+00  9.8971326436E-01  6.7637594555E+00
                       3.9050583423E+00  9.8971326436E-01  3.8707814781E+00
                       1.3996659213E+00  9.8971326436E-01  5.3172704668E+00
                       2.2347967283E+00  3.3518198916E+00  3.8707814781E+00
                       0.0000000000E+00  0.0000000000E+00  0.0000000000E+00
            xcart      8.7019834344E+00  6.1532314962E+00  1.5072277435E+01
                       2.9006611448E+00  2.0510771654E+00  5.0240924783E+00
                       4.2231537792E+00  6.3340216419E+00  1.2781653000E+01
                       8.9576593103E+00  6.3340216419E+00  1.0048184957E+01
                       7.3794908000E+00  1.8702870197E+00  1.2781653000E+01
                       7.3794908000E+00  1.8702870197E+00  7.3147169138E+00
                       2.6449852689E+00  1.8702870197E+00  1.0048184957E+01
                       4.2231537792E+00  6.3340216419E+00  7.3147169138E+00
                       0.0000000000E+00  0.0000000000E+00  0.0000000000E+00
             xred      7.5000000000E-01  7.5000000000E-01  7.5000000000E-01
                       2.5000000000E-01  2.5000000000E-01  2.5000000000E-01
                       2.2796400000E-01  7.7203600000E-01  7.7203600000E-01
                       7.7203600000E-01  7.7203600000E-01  2.2796400000E-01
                       7.7203600000E-01  2.2796400000E-01  7.7203600000E-01
                       7.7203600000E-01  2.2796400000E-01  2.2796400000E-01
                       2.2796400000E-01  2.2796400000E-01  7.7203600000E-01
                       2.2796400000E-01  7.7203600000E-01  2.2796400000E-01
                       0.0000000000E+00  0.0000000000E+00  0.0000000000E+00
            znucl       38.00000    1.00000   44.00000

- Timing analysis has been suppressed with timopt=0

 Suggested references for the acknowledgment of ABINIT usage.

 Calculation completed.
.Delivered  14 WARNINGs and   9 COMMENTs to log file.