.Version 9.5.2 of ABINIT

 ABINIT is a project of the Universite Catholique de Louvain,
 Corning Inc. and other collaborators, see ~abinit/doc/developers/contributors.txt .
 acknowledgments of the ABINIT effort.

.Starting date : Mon 24 May 2021.
- ( at 10h54 )

- input  file    -> /scratch/users/j/a/jabreu/flow_simple_10atoms/flow/w268/t1/run.abi
- output file    -> /scratch/users/j/a/jabreu/flow_simple_10atoms/flow/w268/t1/run.abo
- root for input  files -> /scratch/users/j/a/jabreu/flow_simple_10atoms/flow/w268/t1/indata/in
- root for output files -> /scratch/users/j/a/jabreu/flow_simple_10atoms/flow/w268/t1/outdata/out

 Symmetries : space group R3 c (#161); Bravais hR (rhombohedral)
     intxc =       0      iscf =       7    lmnmax =      32     lnmax =       8
     mgfft =      75  mpssoang =       4    mqgrid =    3064     natom =      10
  nloc_mem =       1    nspden =       1   nspinor =       1    nsppol =       1
      nsym =       6    n1xccc =    2501    ntypat =       3    occopt =       1
   xclevel =       2
-    mband =          53        mffmem =           1         mkmem =           2
-   mkqmem =           2        mk1mem =           2           mpw =       19223
      nfft =      421875          nkpt =           2
  Rough estimation (10% accuracy) of disk space for files :

------------- Echo of variables that govern the present computation ------------
-
- outvars: echo of selected default values
-   iomode0 =  0 , fftalg0 =512 , wfoptalg0 =  0
-
- outvars: echo of global parameters not present in the input file
-  max_nthreads =    0
-
 -outvars: echo values of preprocessed input variables --------
            acell      1.0000000000E+00  1.0000000000E+00  1.0000000000E+00 Bohr
              amu      1.32905430E+02  2.07200000E+02  1.89984032E+01
             ecut      4.20000000E+01 Hartree
-          fftalg         512
           irdden           1
           irdwfk           1
           istwfk        1    0
              ixc     -116133
              kpt      0.00000000E+00  0.00000000E+00  0.00000000E+00
                       3.59695487E-02  0.00000000E+00 -3.59695487E-02
           kptopt           0
P           mkmem           2
P          mkqmem           2
P          mk1mem           2
            natom          10
            nband          53
           nbdbuf           4
            ngfft          75      75      75
             nkpt           2
            nstep        2000
             nsym           6
           ntypat           3
              occ      2.000000  2.000000  2.000000  2.000000  2.000000  2.000000
                       2.000000  2.000000  2.000000  2.000000  2.000000  2.000000
                       2.000000  2.000000  2.000000  2.000000  2.000000  2.000000
                       2.000000  2.000000  2.000000  2.000000  2.000000  2.000000
                       2.000000  2.000000  2.000000  2.000000  2.000000  2.000000
                       2.000000  2.000000  2.000000  2.000000  2.000000  2.000000
                       2.000000  2.000000  2.000000  2.000000  2.000000  2.000000
                       2.000000  2.000000  0.000000  0.000000  0.000000  0.000000
                       0.000000  0.000000  0.000000  0.000000  0.000000
        optdriver           1
            prtwf          -1
            rfdir           1       1       1
           rfelfd           2
            rprim      1.1100314497E+01  0.0000000000E+00  6.0572748833E+00
                       3.5950715499E+00  1.0502020877E+01  6.0572748833E+00
                       0.0000000000E+00  0.0000000000E+00  1.2645456139E+01
          spgroup         161
           symrel      1  0  0   0  1  0   0  0  1       0  1  0   1  0  0   0  0  1
                       0  0  1   1  0  0   0  1  0       1  0  0   0  0  1   0  1  0
                       0  1  0   0  0  1   1  0  0       0  0  1   0  1  0   1  0  0
            tnons      0.0000000  0.0000000  0.0000000     0.5000000  0.5000000  0.5000000
                       0.0000000  0.0000000 -0.0000000     0.5000000  0.5000000  0.5000000
                       0.0000000 -0.0000000  0.0000000     0.5000000  0.5000000  0.5000000
           tolwfr      1.00000000E-20
            typat      1  1  2  2  3  3  3  3  3  3
           useylm           1
              wtk        0.50000    0.50000
           xangst      5.9164966358E+00  4.2282095201E+00  9.9686045110E+00
                       2.0282649520E+00  1.4494944740E+00  3.4173891062E+00
                       5.1130246642E-02  3.6540102855E-02  8.6148482573E-02
                       3.9393619305E+00  2.8152551489E+00  6.6373638874E+00
                       5.2559620438E+00  1.2419800344E+00  8.0468099447E+00
                       5.6853279334E+00  4.5704305077E+00  6.3802047744E+00
                       2.6473332173E+00  3.8986650305E+00  8.4682252873E+00
                       2.5601247473E+00  4.0206950804E+00  5.1223816969E+00
                       4.8630949960E+00  1.7917154617E+00  4.7009663544E+00
                       2.2771717674E+00  1.1199499844E+00  6.5206765504E+00
            xcart      1.1180558308E+01  7.9901580254E+00  1.8837932453E+01
                       3.8328652842E+00  2.7391475871E+00  6.4579295002E+00
                       9.6622163261E-02  6.9050787264E-02  1.6279703883E-01
                       7.4443151869E+00  5.3200612256E+00  1.2542799991E+01
                       9.9323288277E+00  2.3470021275E+00  1.5206267039E+01
                       1.0743712770E+01  8.6368619689E+00  1.2056839695E+01
                       5.0027347631E+00  7.3674091914E+00  1.6002626625E+01
                       4.8379346385E+00  7.5980125658E+00  9.6798985552E+00
                       9.1899177006E+00  3.3858515306E+00  8.8835389696E+00
                       4.3032309979E+00  2.1163987531E+00  1.2322292881E+01
             xred      7.6082100000E-01  7.6082100000E-01  7.6082100000E-01
                       2.6082100000E-01  2.6082100000E-01  2.6082100000E-01
                       6.5750000000E-03  6.5750000000E-03  6.5750000000E-03
                       5.0657500000E-01  5.0657500000E-01  5.0657500000E-01
                       8.2240000000E-01  2.2348100000E-01  7.0152300000E-01
                       7.0152300000E-01  8.2240000000E-01  2.2348100000E-01
                       2.2348100000E-01  7.0152300000E-01  8.2240000000E-01
                       2.0152300000E-01  7.2348100000E-01  3.2240000000E-01
                       7.2348100000E-01  3.2240000000E-01  2.0152300000E-01
                       3.2240000000E-01  2.0152300000E-01  7.2348100000E-01
            znucl       55.00000   82.00000    9.00000

 chkinp: Checking input parameters for consistency.

== DATASET  1 ==================================================================
-   mpi_nproc: 1, omp_nthreads: -1 (-1 if OMP is not activated)

--- !DatasetInfo
iteration_state: {dtset: 1, }
dimensions: {natom: 10, nkpt: 2, mband: 53, nsppol: 1, nspinor: 1, nspden: 1, mpw: 19223, }
cutoff_energies: {ecut:  42.0, pawecutdg:  -1.0, }
electrons: {nelect:   8.80000000E+01, charge:   0.00000000E+00, occopt:   1.00000000E+00, tsmear:   1.00000000E-02, }
meta: {optdriver: 1, rfelfd: 2, }
...

 Real(R)+Recip(G) space primitive vectors, cartesian coordinates (Bohr,Bohr^-1):
 R(1)= 11.1003145  0.0000000  6.0572749  G(1)=  0.0900875 -0.0308389  0.0000000
 R(2)=  3.5950716 10.5020209  6.0572749  G(2)=  0.0000000  0.0952198  0.0000000
 R(3)=  0.0000000  0.0000000 12.6454561  G(3)= -0.0431527 -0.0308389  0.0790798
 Unit cell volume ucvol=  1.4741533E+03 bohr^3
 Angles (23,13,12)=  6.13793659E+01  6.13793659E+01  6.13793659E+01 degrees

 getcut: wavevector=  0.0000  0.0000  0.0000  ngfft=  75  75  75
         ecut(hartree)=     42.000   => boxcut(ratio)=   2.00600

--- Pseudopotential description ------------------------------------------------
- pspini: atom type   1  psp file is /scratch/users/j/a/jabreu/pseudos/PBEsol/Cs.psp8
- pspatm: opening atomic psp file    /scratch/users/j/a/jabreu/pseudos/PBEsol/Cs.psp8
- Cs    ONCVPSP-3.3.0  r_core=   2.27353   1.85623   2.01788   1.90105
- 55.00000   9.00000    180112                znucl, zion, pspdat
    8 -116133    3    4       600   0.00000   pspcod,pspxc,lmax,lloc,mmax,r2well
    5.99000000000000    5.00000000000000    0.00000000000000   rchrg,fchrg,qchrg
     nproj     2     2     2     2
     extension_switch     1
  pspatm : epsatm=   22.12462445
         --- l  ekb(1:nproj) -->
             0    6.214110    0.767882
             1    6.311966    0.793598
             2    3.769790    0.913105
             3   -9.247129   -2.432478
 pspatm: atomic psp has been read  and splines computed

- pspini: atom type   2  psp file is /scratch/users/j/a/jabreu/pseudos/PBEsol/Pb.psp8
- pspatm: opening atomic psp file    /scratch/users/j/a/jabreu/pseudos/PBEsol/Pb.psp8
- Pb    ONCVPSP-3.3.0  r_core=   2.42823   2.42823   2.10438
- 82.00000  14.00000    180112                znucl, zion, pspdat
    8 -116133    2    4       600   0.00000   pspcod,pspxc,lmax,lloc,mmax,r2well
    5.99000000000000    6.00000000000000    0.00000000000000   rchrg,fchrg,qchrg
     nproj     2     2     2
     extension_switch     1
  pspatm : epsatm=   44.32675151
         --- l  ekb(1:nproj) -->
             0    6.256780    1.206521
             1    4.272336    0.573876
             2   -3.251371   -0.847363
 pspatm: atomic psp has been read  and splines computed

- pspini: atom type   3  psp file is /scratch/users/j/a/jabreu/pseudos/PBEsol/F.psp8
- pspatm: opening atomic psp file    /scratch/users/j/a/jabreu/pseudos/PBEsol/F.psp8
- F     ONCVPSP-3.3.0  r_core=   1.30942   1.45782   1.60379
-  9.00000   7.00000    180112                znucl, zion, pspdat
    8 -116133    2    4       600   0.00000   pspcod,pspxc,lmax,lloc,mmax,r2well
    5.99000000000000    2.50000000000000    0.00000000000000   rchrg,fchrg,qchrg
     nproj     2     2     1
     extension_switch     1
  pspatm : epsatm=    4.89824824
         --- l  ekb(1:nproj) -->
             0    6.506434    1.065875
             1   -3.978753   -1.295852
             2   -2.394754
 pspatm: atomic psp has been read  and splines computed

   1.42817172E+04                                ecore*ucvol(ha*bohr**3)

 ==>  initialize data related to q vector <==

 The list of irreducible perturbations for this q vector is:
    1)    idir= 1    ipert=  11
    2)    idir= 2    ipert=  11
    3)    idir= 3    ipert=  11

 Perturbation wavevector (in red.coord.)   0.000000  0.000000  0.000000
 Perturbation : derivative vs k along direction   1

 dfpt_looppert : COMMENT -
  In a d/dk calculation, iscf is set to -3 automatically.
 The set of symmetries contains only one element for this perturbation.
 symkpt : not enough symmetry to change the number of k points.

 Initialisation of the first-order wave-functions :
  ireadwf=   0

--- !BeginCycle
iteration_state: {dtset: 1, }
solver: {iscf: 7, nstep: 2000, nline: 4, wfoptalg: 0, }
tolerances: {tolwfr: 1.00E-20, }
...

     iter   2DEtotal(Ha)        deltaE(Ha) residm    vres2
-ETOT  1  -48.978593341446     -4.898E+01 2.035E-02 0.000E+00
[...]
 ETOT 23  -49.038203176065     -2.132E-14 2.173E-18 0.000E+00
 ETOT 24  -49.038203176065      0.000E+00 5.352E-19 0.000E+00
 ETOT 25  -49.038203176065     -1.421E-14 1.061E-19 0.000E+00
 ETOT 26  -49.038203176065      3.553E-14 2.662E-20 0.000E+00
 ETOT 27  -49.038203176065     -1.421E-14 9.994E-21 0.000E+00

 At SCF step   27   max residual=  9.99E-21 < tolwfr=  1.00E-20 =>converged.

 ----iterations are completed or convergence reached----

 dfpt_looppert: DFPT cycle converged with prtwf=-1. Will skip output of the 1st-order WFK file.
 dfpt_looppert : ek2=    6.2997983736E+01
          f-sum rule ratio=    1.0593244055E+00
 prteigrs : about to open file /scratch/users/j/a/jabreu/flow_simple_10atoms/flow/w268/t1/tmpdata/tmp_1WF1_EIG
 Expectation of eigenvalue derivatives (hartree) for nkpt=   2  k points:
  (in case of degenerate eigenvalues, averaged derivative)
 kpt#   1, nband= 53, wtk=  0.50000, kpt=  0.0000  0.0000  0.0000 (reduced coord)
  -0.00000   -0.00000   -0.00000   -0.00000   -0.00000   -0.00000    0.00000   -0.00000
   0.00000    0.00000    0.00000    0.00000   -0.00000   -0.00000   -0.00000   -0.00000
   0.00000    0.00000   -0.00000   -0.00000   -0.00000   -0.00000    0.00000    0.00000
   0.00000    0.00000    0.00000    0.00000    0.00000    0.00000    0.00000    0.00000
   0.00000    0.00000   -0.00000    0.00000    0.00000    0.00000    0.00000   -0.00000
  -0.00000   -0.00000   -0.00000   -0.00000    0.00000   -0.00000   -0.00000    0.00000
   0.00000    0.00000   -0.00000   -0.00000    0.00000
 prteigrs : prtvol=0 or 1, do not print more k-points.

 Eight components of 2nd-order total energy (hartree) are
 1,2,3: 0th-order hamiltonian combined with 1st-order wavefunctions
     kin0=   5.86302548E+01 eigvalue=   5.38869754E+00  local=  -2.89590463E+01
 4,5,6: 1st-order hamiltonian combined with 1st and 0th-order wfs
     kin1=  -6.67353017E+01  Hartree=   0.00000000E+00     xc=   0.00000000E+00
 7,8,9: eventually, occupation + non-local contributions
    edocc=   7.39272452E+00     enl0=   6.58557270E+00   enl1=  -3.13411047E+01
 1-9 gives the relaxation energy (to be shifted if some occ is /=2.0)
   erelax=  -4.90382032E+01
  No Ewald or frozen-wf contrib.: the relaxation energy is the total one
 2DEtotal=   -0.4903820318E+02 Ha. Also 2DEtotal=   -0.133439737043E+04 eV
    (  non-var. 2DEtotal :   -4.9038203176E+01 Ha)

 Perturbation wavevector (in red.coord.)   0.000000  0.000000  0.000000
 Perturbation : derivative vs k along direction   2
 The set of symmetries contains only one element for this perturbation.
 symkpt : not enough symmetry to change the number of k points.

[...]

 Perturbation wavevector (in red.coord.)   0.000000  0.000000  0.000000
 Perturbation : derivative vs k along direction   3
 The set of symmetries contains only one element for this perturbation.
 symkpt : not enough symmetry to change the number of k points.

 Initialisation of the first-order wave-functions :
  ireadwf=   0

--- !BeginCycle
iteration_state: {dtset: 1, }
solver: {iscf: 7, nstep: 2000, nline: 4, wfoptalg: 0, }
tolerances: {tolwfr: 1.00E-20, }
...

     iter   2DEtotal(Ha)        deltaE(Ha) residm    vres2
-ETOT  1  -48.978296249340     -4.898E+01 2.035E-02 0.000E+00
 ETOT  2  -49.037501948212     -5.921E-02 5.773E-04 0.000E+00
 ETOT  3  -49.038162622727     -6.607E-04 5.799E-05 0.000E+00
 ETOT  4  -49.038200117610     -3.749E-05 9.179E-06 0.000E+00
 ETOT  5  -49.038202927336     -2.810E-06 2.233E-06 0.000E+00
 ETOT  6  -49.038203154191     -2.269E-07 3.899E-07 0.000E+00
 ETOT  7  -49.038203173409     -1.922E-08 9.400E-08 0.000E+00
 ETOT  8  -49.038203175082     -1.673E-09 1.760E-08 0.000E+00
 ETOT  9  -49.038203175231     -1.491E-10 4.135E-09 0.000E+00
 ETOT 10  -49.038203175244     -1.351E-11 8.177E-10 0.000E+00
 ETOT 11  -49.038203175246     -1.229E-12 1.872E-10 0.000E+00
 ETOT 12  -49.038203175246     -1.208E-13 3.877E-11 0.000E+00
 ETOT 13  -49.038203175246     -3.553E-14 8.656E-12 0.000E+00
 ETOT 14  -49.038203175246      4.263E-14 1.864E-12 0.000E+00
 ETOT 15  -49.038203175246     -5.684E-14 4.065E-13 0.000E+00
 ETOT 16  -49.038203175246      1.421E-14 9.055E-14 0.000E+00
 ETOT 17  -49.038203175246      4.263E-14 1.931E-14 0.000E+00
 ETOT 18  -49.038203175246     -2.842E-14 4.432E-15 0.000E+00
 ETOT 19  -49.038203175246      0.000E+00 9.261E-16 0.000E+00
 ETOT 20  -49.038203175246      1.421E-14 2.182E-16 0.000E+00
 ETOT 21  -49.038203175246      0.000E+00 4.473E-17 0.000E+00
 ETOT 22  -49.038203175246      0.000E+00 1.079E-17 0.000E+00
 ETOT 23  -49.038203175246      0.000E+00 2.173E-18 0.000E+00
 ETOT 24  -49.038203175246      0.000E+00 5.352E-19 0.000E+00
 ETOT 25  -49.038203175246      0.000E+00 1.061E-19 0.000E+00
 ETOT 26  -49.038203175246      0.000E+00 2.662E-20 0.000E+00
 ETOT 27  -49.038203175246      0.000E+00 9.994E-21 0.000E+00

 At SCF step   27   max residual=  9.99E-21 < tolwfr=  1.00E-20 =>converged.

 ----iterations are completed or convergence reached----

 dfpt_looppert: DFPT cycle converged with prtwf=-1. Will skip output of the 1st-order WFK file.
 dfpt_looppert : ek2=    6.2997983736E+01
          f-sum rule ratio=    1.0593244055E+00
 prteigrs : about to open file /scratch/users/j/a/jabreu/flow_simple_10atoms/flow/w268/t1/tmpdata/tmp_1WF1_EIG
 Expectation of eigenvalue derivatives (hartree) for nkpt=   2  k points:
  (in case of degenerate eigenvalues, averaged derivative)
 kpt#   1, nband= 53, wtk=  0.50000, kpt=  0.0000  0.0000  0.0000 (reduced coord)
   0.00000    0.00000    0.00000    0.00000    0.00000    0.00000    0.00000    0.00000
   0.00000    0.00000   -0.00000   -0.00000   -0.00000   -0.00000   -0.00000   -0.00000
   0.00000    0.00000    0.00000    0.00000    0.00000    0.00000    0.00000   -0.00000
  -0.00000   -0.00000   -0.00000   -0.00000   -0.00000    0.00000    0.00000    0.00000
   0.00000    0.00000    0.00000   -0.00000   -0.00000    0.00000    0.00000    0.00000
   0.00000    0.00000    0.00000   -0.00000    0.00000    0.00000    0.00000   -0.00000
  -0.00000   -0.00000   -0.00000   -0.00000    0.00000
 prteigrs : prtvol=0 or 1, do not print more k-points.

 Eight components of 2nd-order total energy (hartree) are
 1,2,3: 0th-order hamiltonian combined with 1st-order wavefunctions
     kin0=   5.86302548E+01 eigvalue=   5.38869754E+00  local=  -2.89590463E+01
 4,5,6: 1st-order hamiltonian combined with 1st and 0th-order wfs
     kin1=  -6.67353017E+01  Hartree=   0.00000000E+00     xc=   0.00000000E+00
 7,8,9: eventually, occupation + non-local contributions
    edocc=   7.39272452E+00     enl0=   6.58557270E+00   enl1=  -3.13411047E+01
 1-9 gives the relaxation energy (to be shifted if some occ is /=2.0)
   erelax=  -4.90382032E+01
  No Ewald or frozen-wf contrib.: the relaxation energy is the total one
 2DEtotal=   -0.4903820318E+02 Ha. Also 2DEtotal=   -0.133439737041E+04 eV
    (  non-var. 2DEtotal :   -4.9038203175E+01 Ha)

 CALCULATION OF EFFECTIVE MASSES
 NOTE : Additional infos (eff. mass eigenvalues, eigenvectors and, if degenerate, average mass) are available in stdout.

 K-point ( 0.000, 0.000, 0.000) | band =    44
 Effective mass tensor:
             -0.5138775061             -0.0031663650             -0.0074651554
             -0.0031663650             -0.5117096740             -0.0053349547
             -0.0074651554             -0.0053349547             -0.5220247526
 Effective mass tensor eigenvalues:
             -0.5287182544             -0.5094468392             -0.5094468390
 Angular average effective mass 1/(<1/m>)=  -0.5157126289
 Angular average effective mass for Frohlich model (<m**0.5>)**2=  -0.5157597203
 Effective masses along directions: (cart. coord. / red. coord. -> eff. mass)
    1:   1.000000  0.000000  0.000000 /   0.951349  0.308115  0.000000 ->  -0.5137520894
    2:   0.000000  1.000000  0.000000 /   0.000000  1.000000  0.000000 ->  -0.5116365670
    3:   0.000000  0.000000  1.000000 /   0.396580  0.396580  0.827919 ->  -0.5218616374
    4:   0.577350  0.577350  0.577350 /   0.584903  0.687063  0.431084 ->  -0.5264414614
    5:   0.000000  0.707107  0.707107 /   0.279161  0.763167  0.582790 ->  -0.5220410812
    6:   0.707107  0.000000  0.707107 /   0.733298  0.412532  0.540454 ->  -0.5253134457
    7:   0.707107  0.707107  0.000000 /   0.618649  0.785667  0.000000 ->  -0.5158008293

 K-point ( 0.036, 0.000,-0.036) | band =    45
 Effective mass tensor:
              2.6789230273             -9.9695602495              3.4588050977
             -9.9695602495             47.9578179636            -16.7975424444
              3.4588050977            -16.7975424444              6.4537590090
 Effective mass tensor eigenvalues:
              0.4716437631              0.6260771468             55.9927790900
 Angular average effective mass 1/(<1/m>)=   0.8031373772
 Angular average effective mass for Frohlich model (<m**0.5>)**2=   1.1860487876
 Effective masses along directions: (cart. coord. / red. coord. -> eff. mass)
    1:   1.000000  0.000000  0.000000 /   0.951349  0.308115  0.000000 ->   0.6045113395
    2:   0.000000  1.000000  0.000000 /   0.000000  1.000000  0.000000 ->   3.1044870873
    3:   0.000000  0.000000  1.000000 /   0.396580  0.396580  0.827919 ->   0.5685022777
    4:   0.577350  0.577350  0.577350 /   0.584903  0.687063  0.431084 ->   0.5038196159
    5:   0.000000  0.707107  0.707107 /   0.279161  0.763167  0.582790 ->   0.5964368579
    6:   0.707107  0.000000  0.707107 /   0.733298  0.412532  0.540454 ->   0.5547464415
    7:   0.707107  0.707107  0.000000 /   0.618649  0.785667  0.000000 ->   0.7322344642

 END OF EFFECTIVE MASSES SECTION

 ---- first-order wavefunction calculations are completed ----

 Total localisation tensor (bohr^2) in cartesian coordinates
  WARNING : still subject to testing - especially symmetries.
      direction              matrix element
   alpha     beta       real part   imaginary part
     1        1       1.1171995901    0.0000000000
     1        2       0.3103797234    0.0000000000
     1        3       0.7306785621    0.0000000000
     2        1       0.3103797234    0.0000000000
     2        2       0.9066896972    0.0000000000
     2        3       0.5229535148    0.0000000000
     3        1       0.7306785621    0.0000000000
     3        2       0.5229535148    0.0000000000
     3        3       1.9146402216    0.0000000000

 respfn : d/dk was computed, but no 2DTE, so no DDB output.

== END DATASET(S) ==============================================================

 -outvars: echo values of variables after computation  --------
            acell      1.0000000000E+00  1.0000000000E+00  1.0000000000E+00 Bohr
              amu      1.32905430E+02  2.07200000E+02  1.89984032E+01
             ecut      4.20000000E+01 Hartree
           etotal     -4.9038203175E+01
            fcart      0.0000000000E+00  0.0000000000E+00  0.0000000000E+00
                       0.0000000000E+00  0.0000000000E+00  0.0000000000E+00
                       0.0000000000E+00  0.0000000000E+00  0.0000000000E+00
                       0.0000000000E+00  0.0000000000E+00  0.0000000000E+00
                       0.0000000000E+00  0.0000000000E+00  0.0000000000E+00
                       0.0000000000E+00  0.0000000000E+00  0.0000000000E+00
                       0.0000000000E+00  0.0000000000E+00  0.0000000000E+00
                       0.0000000000E+00  0.0000000000E+00  0.0000000000E+00
                       0.0000000000E+00  0.0000000000E+00  0.0000000000E+00
                       0.0000000000E+00  0.0000000000E+00  0.0000000000E+00
-          fftalg         512
           irdden           1
           irdwfk           1
           istwfk        1    0
              ixc     -116133
              kpt      0.00000000E+00  0.00000000E+00  0.00000000E+00
                       3.59695487E-02  0.00000000E+00 -3.59695487E-02
           kptopt           0
P           mkmem           2
P          mkqmem           2
P          mk1mem           2
            natom          10
            nband          53
           nbdbuf           4
            ngfft          75      75      75
             nkpt           2
            nstep        2000
             nsym           6
           ntypat           3
              occ      2.000000  2.000000  2.000000  2.000000  2.000000  2.000000
                       2.000000  2.000000  2.000000  2.000000  2.000000  2.000000
                       2.000000  2.000000  2.000000  2.000000  2.000000  2.000000
                       2.000000  2.000000  2.000000  2.000000  2.000000  2.000000
                       2.000000  2.000000  2.000000  2.000000  2.000000  2.000000
                       2.000000  2.000000  2.000000  2.000000  2.000000  2.000000
                       2.000000  2.000000  2.000000  2.000000  2.000000  2.000000
                       2.000000  2.000000  0.000000  0.000000  0.000000  0.000000
                       0.000000  0.000000  0.000000  0.000000  0.000000
        optdriver           1
            prtwf          -1
            rfdir           1       1       1
           rfelfd           2
            rprim      1.1100314497E+01  0.0000000000E+00  6.0572748833E+00
                       3.5950715499E+00  1.0502020877E+01  6.0572748833E+00
                       0.0000000000E+00  0.0000000000E+00  1.2645456139E+01
          spgroup         161
           strten      0.0000000000E+00  0.0000000000E+00  0.0000000000E+00
                       0.0000000000E+00  0.0000000000E+00  0.0000000000E+00
           symrel      1  0  0   0  1  0   0  0  1       0  1  0   1  0  0   0  0  1
                       0  0  1   1  0  0   0  1  0       1  0  0   0  0  1   0  1  0
                       0  1  0   0  0  1   1  0  0       0  0  1   0  1  0   1  0  0
            tnons      0.0000000  0.0000000  0.0000000     0.5000000  0.5000000  0.5000000
                       0.0000000  0.0000000 -0.0000000     0.5000000  0.5000000  0.5000000
                       0.0000000 -0.0000000  0.0000000     0.5000000  0.5000000  0.5000000
           tolwfr      1.00000000E-20
            typat      1  1  2  2  3  3  3  3  3  3
           useylm           1
              wtk        0.50000    0.50000
           xangst      5.9164966358E+00  4.2282095201E+00  9.9686045110E+00
                       2.0282649520E+00  1.4494944740E+00  3.4173891062E+00
                       5.1130246642E-02  3.6540102855E-02  8.6148482573E-02
                       3.9393619305E+00  2.8152551489E+00  6.6373638874E+00
                       5.2559620438E+00  1.2419800344E+00  8.0468099447E+00
                       5.6853279334E+00  4.5704305077E+00  6.3802047744E+00
                       2.6473332173E+00  3.8986650305E+00  8.4682252873E+00
                       2.5601247473E+00  4.0206950804E+00  5.1223816969E+00
                       4.8630949960E+00  1.7917154617E+00  4.7009663544E+00
                       2.2771717674E+00  1.1199499844E+00  6.5206765504E+00
            xcart      1.1180558308E+01  7.9901580254E+00  1.8837932453E+01
                       3.8328652842E+00  2.7391475871E+00  6.4579295002E+00
                       9.6622163261E-02  6.9050787264E-02  1.6279703883E-01
                       7.4443151869E+00  5.3200612256E+00  1.2542799991E+01
                       9.9323288277E+00  2.3470021275E+00  1.5206267039E+01
                       1.0743712770E+01  8.6368619689E+00  1.2056839695E+01
                       5.0027347631E+00  7.3674091914E+00  1.6002626625E+01
                       4.8379346385E+00  7.5980125658E+00  9.6798985552E+00
                       9.1899177006E+00  3.3858515306E+00  8.8835389696E+00
                       4.3032309979E+00  2.1163987531E+00  1.2322292881E+01
             xred      7.6082100000E-01  7.6082100000E-01  7.6082100000E-01
                       2.6082100000E-01  2.6082100000E-01  2.6082100000E-01
                       6.5750000000E-03  6.5750000000E-03  6.5750000000E-03
                       5.0657500000E-01  5.0657500000E-01  5.0657500000E-01
                       8.2240000000E-01  2.2348100000E-01  7.0152300000E-01
                       7.0152300000E-01  8.2240000000E-01  2.2348100000E-01
                       2.2348100000E-01  7.0152300000E-01  8.2240000000E-01
                       2.0152300000E-01  7.2348100000E-01  3.2240000000E-01
                       7.2348100000E-01  3.2240000000E-01  2.0152300000E-01
                       3.2240000000E-01  2.0152300000E-01  7.2348100000E-01
            znucl       55.00000   82.00000    9.00000

- Timing analysis has been suppressed with timopt=0

 Suggested references for the acknowledgment of ABINIT usage.

 Calculation completed.
.Delivered   2 WARNINGs and   5 COMMENTs to log file.