.Version 9.5.1 of ABINIT

 ABINIT is a project of the Universite Catholique de Louvain,
 Corning Inc. and other collaborators, see ~abinit/doc/developers/contributors.txt .
 acknowledgments of the ABINIT effort.

.Starting date : Wed 19 May 2021.
- ( at 12h08 )

- input  file    -> /scratch/users/j/a/jabreu/flow_simple_9atoms/flow/w157/t1/run.abi
- output file    -> /scratch/users/j/a/jabreu/flow_simple_9atoms/flow/w157/t1/run.abo
- root for input  files -> /scratch/users/j/a/jabreu/flow_simple_9atoms/flow/w157/t1/indata/in
- root for output files -> /scratch/users/j/a/jabreu/flow_simple_9atoms/flow/w157/t1/outdata/out

 Symmetries : space group I4/m m m (#139); Bravais tI (body-center tetrag.)
     intxc =       0      iscf =       7    lmnmax =      32     lnmax =       8
     mgfft =      75  mpssoang =       4    mqgrid =    3061     natom =       9
  nloc_mem =       1    nspden =       1   nspinor =       1    nsppol =       1
      nsym =      16    n1xccc =    2501    ntypat =       4    occopt =       1
   xclevel =       2
-    mband =          46        mffmem =           1         mkmem =           1
-   mkqmem =           1        mk1mem =           1           mpw =       19744
      nfft =      421875          nkpt =           1
  Rough estimation (10% accuracy) of disk space for files :

------------- Echo of variables that govern the present computation ------------
-
- outvars: echo of selected default values
-   iomode0 =  0 , fftalg0 =512 , wfoptalg0 =  0
-
- outvars: echo of global parameters not present in the input file
-  max_nthreads =    0
-
 -outvars: echo values of preprocessed input variables --------
            acell      1.0000000000E+00  1.0000000000E+00  1.0000000000E+00 Bohr
              amu      3.90983000E+01  1.90200000E+02  3.54527000E+01
                       1.59994000E+01
             ecut      4.40000000E+01 Hartree
-          fftalg         512
           irdden           1
           irdwfk           1
           istwfk        1
              ixc     -116133
              kpt      0.00000000E+00  0.00000000E+00  5.00000000E-01
           kptopt           0
P           mkmem           1
P          mkqmem           1
P          mk1mem           1
            natom           9
            nband          46
           nbdbuf           4
            ngfft          75      75      75
             nkpt           1
            nstep        2000
             nsym          16
           ntypat           4
              occ      2.000000  2.000000  2.000000  2.000000  2.000000  2.000000
                       2.000000  2.000000  2.000000  2.000000  2.000000  2.000000
                       2.000000  2.000000  2.000000  2.000000  2.000000  2.000000
                       2.000000  2.000000  2.000000  2.000000  2.000000  2.000000
                       2.000000  2.000000  2.000000  2.000000  2.000000  2.000000
                       2.000000  2.000000  2.000000  2.000000  2.000000  2.000000
                       2.000000  0.000000  0.000000  0.000000  0.000000  0.000000
                       0.000000  0.000000  0.000000  0.000000
        optdriver           1
            prtwf          -1
            rfdir           1       1       1
           rfelfd           2
            rprim      1.1178071564E+01  0.0000000000E+00 -5.3128908048E+00
                      -4.4635273050E+00  1.0248229500E+01 -5.3128908048E+00
                       0.0000000000E+00  0.0000000000E+00  1.2376432951E+01
          spgroup         139
           symrel      1  0  0   0  1  0   0  0  1      -1  0  0   0 -1  0   0  0 -1
                      -1 -1 -1   0  0  1   0  1  0       1  1  1   0  0 -1   0 -1  0
                       0  1  0   1  0  0  -1 -1 -1       0 -1  0  -1  0  0   1  1  1
                       0  0  1  -1 -1 -1   1  0  0       0  0 -1   1  1  1  -1  0  0
                       0  1  0   1  0  0   0  0  1       0 -1  0  -1  0  0   0  0 -1
                      -1 -1 -1   0  0  1   1  0  0       1  1  1   0  0 -1  -1  0  0
                       1  0  0   0  1  0  -1 -1 -1      -1  0  0   0 -1  0   1  1  1
                       0  0  1  -1 -1 -1   0  1  0       0  0 -1   1  1  1   0 -1  0
           tolwfr      1.00000000E-20
            typat      1  1  2  3  3  3  3  4  4
           useylm           1
           xangst      3.8458863008E+00  1.3557823700E+00  4.6320239505E-01
                      -2.9270251288E-01  4.0673471099E+00  4.6320239505E-01
                       0.0000000000E+00  0.0000000000E+00  0.0000000000E+00
                       8.5636703746E-01  1.3070501285E+00  1.8017558388E+00
                       2.6968167505E+00  4.1160793514E+00 -8.7535104871E-01
                       3.9202650190E+00  1.3070501285E+00 -2.8114607256E+00
                      -3.6708123104E-01  4.1160793514E+00 -2.8114607256E+00
                       2.8344955159E+00  4.3262147725E+00 -4.4855956210E+00
                       7.1868827205E-01  1.0969147074E+00 -1.1373258303E+00
            xcart      7.2676718467E+00  2.5620573750E+00  8.7532567075E-01
                      -5.5312758775E-01  7.6861721251E+00  8.7532567075E-01
                       0.0000000000E+00  0.0000000000E+00  0.0000000000E+00
                       1.6182991700E+00  2.4699667847E+00  3.4048250937E+00
                       5.0962450890E+00  7.7782627154E+00 -1.6541737522E+00
                       7.4082272542E+00  2.4699667847E+00 -5.3128908048E+00
                      -6.9368299519E-01  7.7782627154E+00 -5.3128908048E+00
                       5.3564202499E+00  8.1753611120E+00 -8.4765472666E+00
                       1.3581240091E+00  2.0728683881E+00 -2.1492343430E+00
             xred      7.5000000000E-01  2.5000000000E-01  5.0000000000E-01
                       2.5000000000E-01  7.5000000000E-01  5.0000000000E-01
                       0.0000000000E+00  0.0000000000E+00  0.0000000000E+00
                       2.4101400000E-01  2.4101400000E-01  4.8202800000E-01
                       7.5898600000E-01  7.5898600000E-01  5.1797200000E-01
                       7.5898600000E-01  2.4101400000E-01  0.0000000000E+00
                       2.4101400000E-01  7.5898600000E-01 -4.8572257327E-17
                       7.9773400000E-01  7.9773400000E-01  1.1102230246E-16
                       2.0226600000E-01  2.0226600000E-01 -3.4694469520E-17
            znucl       19.00000   76.00000   17.00000    8.00000

 chkinp: Checking input parameters for consistency.

== DATASET  1 ==================================================================
-   mpi_nproc: 1, omp_nthreads: -1 (-1 if OMP is not activated)

--- !DatasetInfo
iteration_state: {dtset: 1, }
dimensions: {natom: 9, nkpt: 1, mband: 46, nsppol: 1, nspinor: 1, nspden: 1, mpw: 19744, }
cutoff_energies: {ecut:  44.0, pawecutdg:  -1.0, }
electrons: {nelect:   7.40000000E+01, charge:   0.00000000E+00, occopt:   1.00000000E+00, tsmear:   1.00000000E-02, }
meta: {optdriver: 1, rfelfd: 2, }
...

 Real(R)+Recip(G) space primitive vectors, cartesian coordinates (Bohr,Bohr^-1):
 R(1)= 11.1780716  0.0000000 -5.3128908  G(1)=  0.0894609  0.0389639  0.0000000
 R(2)= -4.4635273 10.2482295 -5.3128908  G(2)=  0.0000000  0.0975778  0.0000000
 R(3)=  0.0000000  0.0000000 12.3764330  G(3)=  0.0384033  0.0586139  0.0807987
 Unit cell volume ucvol=  1.4177878E+03 bohr^3
 Angles (23,13,12)=  1.15421546E+02  1.15421546E+02  9.81317831E+01 degrees

 getcut: wavevector=  0.0000  0.0000  0.0000  ngfft=  75  75  75
         ecut(hartree)=     44.000   => boxcut(ratio)=   2.00241

--- Pseudopotential description ------------------------------------------------
- pspini: atom type   1  psp file is /scratch/users/j/a/jabreu/pseudos/PBEsol/K.psp8
- pspatm: opening atomic psp file    /scratch/users/j/a/jabreu/pseudos/PBEsol/K.psp8
- K     ONCVPSP-3.3.0  r_core=   1.36296   1.46408   1.61068
- 19.00000   9.00000    180112                znucl, zion, pspdat
    8 -116133    2    4       400   0.00000   pspcod,pspxc,lmax,lloc,mmax,r2well
    3.99000000000000    5.00000000000000    0.00000000000000   rchrg,fchrg,qchrg
     nproj     2     2     2
     extension_switch     1
  pspatm : epsatm=    8.32487830
         --- l  ekb(1:nproj) -->
             0   10.921326    0.816676
             1    4.431000    0.560368
             2   -3.384038   -1.043186
 pspatm: atomic psp has been read  and splines computed

- pspini: atom type   2  psp file is /scratch/users/j/a/jabreu/pseudos/PBEsol/Os.psp8
- pspatm: opening atomic psp file    /scratch/users/j/a/jabreu/pseudos/PBEsol/Os.psp8
- Os    ONCVPSP-3.3.0  r_core=   1.51352   1.55006   1.55006   2.27051
- 76.00000  16.00000    180112                znucl, zion, pspdat
    8 -116133    3    4       600   0.00000   pspcod,pspxc,lmax,lloc,mmax,r2well
    5.99000000000000    5.00000000000000    0.00000000000000   rchrg,fchrg,qchrg
     nproj     2     2     2     2
     extension_switch     1
  pspatm : epsatm=   26.11825460
         --- l  ekb(1:nproj) -->
             0    7.994989   -1.246074
             1    8.240861    1.154929
             2    2.240487    0.219183
             3    0.647575    0.186609
 pspatm: atomic psp has been read  and splines computed

[...]

- pspini: atom type   4  psp file is /scratch/users/j/a/jabreu/pseudos/PBEsol/O.psp8
- pspatm: opening atomic psp file    /scratch/users/j/a/jabreu/pseudos/PBEsol/O.psp8
- O     ONCVPSP-3.3.0  r_core=   1.35509   1.45563   1.26150
-  8.00000   6.00000    180112                znucl, zion, pspdat
    8 -116133    2    4       600   0.00000   pspcod,pspxc,lmax,lloc,mmax,r2well
    5.99000000000000    4.00000000000000    0.00000000000000   rchrg,fchrg,qchrg
     nproj     2     2     1
     extension_switch     1
  pspatm : epsatm=    6.22910522
         --- l  ekb(1:nproj) -->
             0    6.050032    0.820363
             1   -4.739617   -1.153841
             2   -1.335834
 pspatm: atomic psp has been read  and splines computed

   6.73748174E+03                                ecore*ucvol(ha*bohr**3)

-inwffil : will read wavefunctions from disk file /scratch/users/j/a/jabreu/flow_simple_9atoms/flow/w157/t1/indata/in_WFK

 ==>  initialize data related to q vector <==

 The list of irreducible perturbations for this q vector is:
    1)    idir= 1    ipert=  10
    2)    idir= 2    ipert=  10
    3)    idir= 3    ipert=  10

 Perturbation wavevector (in red.coord.)   0.000000  0.000000  0.000000
 Perturbation : derivative vs k along direction   1

 dfpt_looppert : COMMENT -
  In a d/dk calculation, iscf is set to -3 automatically.
 The set of symmetries contains only one element for this perturbation.
 symkpt : not enough symmetry to change the number of k points.

[...]

 Initialisation of the first-order wave-functions :
  ireadwf=   0

--- !BeginCycle
iteration_state: {dtset: 1, }
solver: {iscf: 7, nstep: 2000, nline: 4, wfoptalg: 0, }
tolerances: {tolwfr: 1.00E-20, }
...

     iter   2DEtotal(Ha)        deltaE(Ha) residm    vres2
-ETOT  1  -26.533870857451     -2.653E+01 8.968E-02 0.000E+00
 ETOT  2  -26.586928450011     -5.306E-02 2.110E-03 0.000E+00
 ETOT  3  -26.587358129929     -4.297E-04 1.394E-04 0.000E+00
[...]
 ETOT  8  -26.587364922778     -2.071E-12 3.472E-09 0.000E+00
 ETOT  9  -26.587364922778     -7.461E-14 6.108E-10 0.000E+00
 ETOT 10  -26.587364922778      1.776E-14 5.387E-11 0.000E+00
 ETOT 11  -26.587364922778     -3.197E-14 1.589E-11 0.000E+00
 ETOT 12  -26.587364922778      1.066E-14 8.526E-13 0.000E+00
 ETOT 13  -26.587364922778     -1.066E-14 4.136E-13 0.000E+00
 ETOT 14  -26.587364922778      0.000E+00 1.554E-14 0.000E+00
 ETOT 15  -26.587364922778      0.000E+00 1.080E-14 0.000E+00
 ETOT 16  -26.587364922778      0.000E+00 3.910E-16 0.000E+00
 ETOT 17  -26.587364922778      0.000E+00 3.023E-16 0.000E+00
 ETOT 18  -26.587364922778      0.000E+00 1.317E-17 0.000E+00
 ETOT 19  -26.587364922778      3.553E-15 1.177E-17 0.000E+00
 ETOT 20  -26.587364922778     -3.553E-15 4.609E-19 0.000E+00
 ETOT 21  -26.587364922778      3.553E-15 3.697E-19 0.000E+00
 ETOT 22  -26.587364922778     -3.553E-15 1.434E-20 0.000E+00
 ETOT 23  -26.587364922778      0.000E+00 9.988E-21 0.000E+00

 At SCF step   23   max residual=  9.99E-21 < tolwfr=  1.00E-20 =>converged.

 ----iterations are completed or convergence reached----

 dfpt_looppert: DFPT cycle converged with prtwf=-1. Will skip output of the 1st-order WFK file.
 dfpt_looppert : ek2=    5.5631883917E+01
          f-sum rule ratio=    9.9575293104E-01
 prteigrs : about to open file /scratch/users/j/a/jabreu/flow_simple_9atoms/flow/w157/t1/tmpdata/tmp_1WF1_EIG
 Expectation of eigenvalue derivatives (hartree) for nkpt=   1  k points:
  (in case of degenerate eigenvalues, averaged derivative)
 kpt#   1, nband= 46, wtk=  1.00000, kpt=  0.0000  0.0000  0.5000 (reduced coord)
   0.00000    0.00000   -0.00000   -0.00000   -0.00000    0.00000    0.00000    0.00000
  -0.00000   -0.00000   -0.00000    0.00000    0.00000    0.00000   -0.00000   -0.00000
  -0.00000   -0.00000    0.00000   -0.00000   -0.00000    0.00000    0.00000    0.00000
   0.00000    0.00000   -0.00000   -0.00000   -0.00000   -0.00000   -0.00000    0.00000
  -0.00000    0.00000   -0.00000    0.00000    0.00000    0.00000   -0.00000    0.00000
   0.00000    0.00000   -0.00000   -0.00000   -0.00000    0.00001

 Eight components of 2nd-order total energy (hartree) are
 1,2,3: 0th-order hamiltonian combined with 1st-order wavefunctions
     kin0=   3.83408018E+01 eigvalue=   2.53634366E+00  local=  -2.22072908E+01
 4,5,6: 1st-order hamiltonian combined with 1st and 0th-order wfs
     kin1=  -5.53956115E+01  Hartree=   0.00000000E+00     xc=   0.00000000E+00
 7,8,9: eventually, occupation + non-local contributions
    edocc=   6.54148106E+00     enl0=   1.37602920E+00   enl1=   2.22088162E+00
 1-9 gives the relaxation energy (to be shifted if some occ is /=2.0)
   erelax=  -2.65873649E+01
  No Ewald or frozen-wf contrib.: the relaxation energy is the total one
 2DEtotal=   -0.2658736492E+02 Ha. Also 2DEtotal=   -0.723478992740E+03 eV
    (  non-var. 2DEtotal :   -2.6587364923E+01 Ha)

 Perturbation wavevector (in red.coord.)   0.000000  0.000000  0.000000
 Perturbation : derivative vs k along direction   2
 The set of symmetries contains only one element for this perturbation.
 symkpt : not enough symmetry to change the number of k points.

[...]

 Perturbation wavevector (in red.coord.)   0.000000  0.000000  0.000000
 Perturbation : derivative vs k along direction   3
 The set of symmetries contains only one element for this perturbation.
 symkpt : not enough symmetry to change the number of k points.

-inwffil : will read wavefunctions from disk file /scratch/users/j/a/jabreu/flow_simple_9atoms/flow/w157/t1/indata/in_WFK

 Initialisation of the first-order wave-functions :
  ireadwf=   0

--- !BeginCycle
iteration_state: {dtset: 1, }
solver: {iscf: 7, nstep: 2000, nline: 4, wfoptalg: 0, }
tolerances: {tolwfr: 1.00E-20, }
...

     iter   2DEtotal(Ha)        deltaE(Ha) residm    vres2
-ETOT  1  -30.449459364758     -3.045E+01 8.245E-02 0.000E+00
 ETOT  2  -30.493873678897     -4.441E-02 8.453E-04 0.000E+00
 ETOT  3  -30.494168390449     -2.947E-04 1.411E-04 0.000E+00
 ETOT  4  -30.494172510072     -4.120E-06 9.381E-06 0.000E+00
 ETOT  5  -30.494172587982     -7.791E-08 2.841E-06 0.000E+00
 ETOT  6  -30.494172589713     -1.731E-09 1.710E-07 0.000E+00
 ETOT  7  -30.494172589754     -4.082E-11 7.360E-08 0.000E+00
 ETOT  8  -30.494172589755     -9.734E-13 3.776E-09 0.000E+00
 ETOT  9  -30.494172589755     -2.487E-14 2.013E-09 0.000E+00
 ETOT 10  -30.494172589755      1.066E-14 9.194E-11 0.000E+00
 ETOT 11  -30.494172589755     -1.066E-14 5.492E-11 0.000E+00
 ETOT 12  -30.494172589755     -1.066E-14 2.350E-12 0.000E+00
 ETOT 13  -30.494172589755      1.066E-14 1.487E-12 0.000E+00
 ETOT 14  -30.494172589755     -3.553E-15 6.145E-14 0.000E+00
 ETOT 15  -30.494172589755     -3.553E-15 4.008E-14 0.000E+00
 ETOT 16  -30.494172589755      7.105E-15 1.617E-15 0.000E+00
 ETOT 17  -30.494172589755      0.000E+00 1.083E-15 0.000E+00
 ETOT 18  -30.494172589755      3.553E-15 4.071E-17 0.000E+00
 ETOT 19  -30.494172589755     -3.553E-15 3.072E-17 0.000E+00
 ETOT 20  -30.494172589755      0.000E+00 1.103E-18 0.000E+00
 ETOT 21  -30.494172589755     -3.553E-15 1.109E-18 0.000E+00
 ETOT 22  -30.494172589755      0.000E+00 4.242E-20 0.000E+00
 ETOT 23  -30.494172589755      0.000E+00 3.728E-20 0.000E+00
 ETOT 24  -30.494172589755      0.000E+00 9.966E-21 0.000E+00

 At SCF step   24   max residual=  9.97E-21 < tolwfr=  1.00E-20 =>converged.

 ----iterations are completed or convergence reached----

 dfpt_looppert: DFPT cycle converged with prtwf=-1. Will skip output of the 1st-order WFK file.
 dfpt_looppert : ek2=    6.6834917740E+01
          f-sum rule ratio=    9.4784601712E-01
 prteigrs : about to open file /scratch/users/j/a/jabreu/flow_simple_9atoms/flow/w157/t1/tmpdata/tmp_1WF1_EIG
 Expectation of eigenvalue derivatives (hartree) for nkpt=   1  k points:
  (in case of degenerate eigenvalues, averaged derivative)
 kpt#   1, nband= 46, wtk=  1.00000, kpt=  0.0000  0.0000  0.5000 (reduced coord)
   0.00000    0.00000   -0.00000   -0.00000   -0.00000    0.00000    0.00000    0.00000
  -0.00000    0.00000   -0.00000    0.00000    0.00000   -0.00000   -0.00000   -0.00000
  -0.00000   -0.00000    0.00000   -0.00000    0.00000    0.00000   -0.00000    0.00000
  -0.00000    0.00000   -0.00000   -0.00000   -0.00000   -0.00000   -0.00000    0.00000
  -0.00000   -0.00000   -0.00000    0.00000   -0.00000   -0.00000    0.00000    0.00000
  -0.00000    0.00000   -0.00000   -0.00000   -0.00000    0.00001

 Eight components of 2nd-order total energy (hartree) are
 1,2,3: 0th-order hamiltonian combined with 1st-order wavefunctions
     kin0=   4.82045602E+01 eigvalue=   3.31027587E+00  local=  -2.75025915E+01
 4,5,6: 1st-order hamiltonian combined with 1st and 0th-order wfs
     kin1=  -6.33492106E+01  Hartree=   0.00000000E+00     xc=   0.00000000E+00
 7,8,9: eventually, occupation + non-local contributions
    edocc=   4.65317068E+00     enl0=   1.82875731E+00   enl1=   2.36086540E+00
 1-9 gives the relaxation energy (to be shifted if some occ is /=2.0)
   erelax=  -3.04941726E+01
  No Ewald or frozen-wf contrib.: the relaxation energy is the total one
 2DEtotal=   -0.3049417259E+02 Ha. Also 2DEtotal=   -0.829788635833E+03 eV
    (  non-var. 2DEtotal :   -3.0494172590E+01 Ha)

 CALCULATION OF EFFECTIVE MASSES
 NOTE : Additional infos (eff. mass eigenvalues, eigenvectors and, if degenerate, average mass) are available in stdout.

 K-point ( 0.000, 0.000, 0.500) | band =    37
 Effective mass tensor:
            -26.5372353998            -38.6734307054             39.9122316190
            -38.6734307054            -60.2235288999             60.9159136562
             39.9122316190             60.9159136562            -64.7478973507
 Effective mass tensor eigenvalues:
           -148.7217772494             -1.5885580921             -1.1983263089
 Angular average effective mass 1/(<1/m>)=  -2.0398132176
 Angular average effective mass for Frohlich model (<m**0.5>)**2=  -3.0192242886
 Effective masses along directions: (cart. coord. / red. coord. -> eff. mass)
    1:   1.000000  0.000000  0.000000 /   0.928697 -0.370839  0.000000 ->  -1.5011182936
    2:   0.000000  1.000000  0.000000 /   0.000000  1.000000  0.000000 ->  -2.2604555345
    3:   0.000000  0.000000  1.000000 /  -0.366948 -0.366948  0.854809 ->  -2.7611787167
    4:   0.577350  0.577350  0.577350 /   0.427991  0.034429  0.903127 ->  -1.6570335332
    5:   0.000000  0.707107  0.707107 /  -0.370382  0.344061  0.862809 ->  -1.5148814557
    6:   0.707107  0.000000  0.707107 /   0.348553 -0.580989  0.735501 ->  -1.4639013114
    7:   0.707107  0.707107  0.000000 /   0.888122  0.459607  0.000000 ->  -3.3628166719

 K-point ( 0.000, 0.000, 0.500) | band =    38
 Effective mass tensor:
              5.8677819131              4.9804892572              5.3912540080
              4.9804892572             10.2052944883              8.2276542315
              5.3912540080              8.2276542315             16.2785820805
 Effective mass tensor eigenvalues:
              2.6043400177              4.9371748378             24.8101436264
 Angular average effective mass 1/(<1/m>)=   4.7860208440
 Angular average effective mass for Frohlich model (<m**0.5>)**2=   5.7630170149
 Effective masses along directions: (cart. coord. / red. coord. -> eff. mass)
    1:   1.000000  0.000000  0.000000 /   0.928697 -0.370839  0.000000 ->   3.2408792607
    2:   0.000000  1.000000  0.000000 /   0.000000  1.000000  0.000000 ->   4.8005089662
    3:   0.000000  0.000000  1.000000 /  -0.366948 -0.366948  0.854809 ->   9.0945440805
    4:   0.577350  0.577350  0.577350 /   0.427991  0.034429  0.903127 ->  17.2155684411
    5:   0.000000  0.707107  0.707107 /  -0.370382  0.344061  0.862809 ->  10.8735064167
    6:   0.707107  0.000000  0.707107 /   0.348553 -0.580989  0.735501 ->   6.0517628558
    7:   0.707107  0.707107  0.000000 /   0.888122  0.459607  0.000000 ->   6.9766419069

 END OF EFFECTIVE MASSES SECTION

 ---- first-order wavefunction calculations are completed ----

 Total localisation tensor (bohr^2) in cartesian coordinates
  WARNING : still subject to testing - especially symmetries.
      direction              matrix element
   alpha     beta       real part   imaginary part
     1        1       1.1697378727    0.0000000000
     1        2      -0.3693414738    0.0000000000
     1        3      -0.2880396581    0.0000000000
     2        1      -0.3693414738    0.0000000000
     2        2       0.8480056082    0.0000000000
     2        3      -0.4396233709    0.0000000000
     3        1      -0.2880396581    0.0000000000
     3        2      -0.4396233709    0.0000000000
     3        3       1.7233842740    0.0000000000

 respfn : d/dk was computed, but no 2DTE, so no DDB output.

== END DATASET(S) ==============================================================

 -outvars: echo values of variables after computation  --------
            acell      1.0000000000E+00  1.0000000000E+00  1.0000000000E+00 Bohr
              amu      3.90983000E+01  1.90200000E+02  3.54527000E+01
                       1.59994000E+01
             ecut      4.40000000E+01 Hartree
           etotal     -3.0494172590E+01
            fcart      0.0000000000E+00  0.0000000000E+00  0.0000000000E+00
                       0.0000000000E+00  0.0000000000E+00  0.0000000000E+00
                       0.0000000000E+00  0.0000000000E+00  0.0000000000E+00
                       0.0000000000E+00  0.0000000000E+00  0.0000000000E+00
                       0.0000000000E+00  0.0000000000E+00  0.0000000000E+00
                       0.0000000000E+00  0.0000000000E+00  0.0000000000E+00
                       0.0000000000E+00  0.0000000000E+00  0.0000000000E+00
                       0.0000000000E+00  0.0000000000E+00  0.0000000000E+00
                       0.0000000000E+00  0.0000000000E+00  0.0000000000E+00
-          fftalg         512
           irdden           1
           irdwfk           1
           istwfk        1
              ixc     -116133
              kpt      0.00000000E+00  0.00000000E+00  5.00000000E-01
           kptopt           0
P           mkmem           1
P          mkqmem           1
P          mk1mem           1
            natom           9
            nband          46
           nbdbuf           4
            ngfft          75      75      75
             nkpt           1
            nstep        2000
             nsym          16
           ntypat           4
              occ      2.000000  2.000000  2.000000  2.000000  2.000000  2.000000
                       2.000000  2.000000  2.000000  2.000000  2.000000  2.000000
                       2.000000  2.000000  2.000000  2.000000  2.000000  2.000000
                       2.000000  2.000000  2.000000  2.000000  2.000000  2.000000
                       2.000000  2.000000  2.000000  2.000000  2.000000  2.000000
                       2.000000  2.000000  2.000000  2.000000  2.000000  2.000000
                       2.000000  0.000000  0.000000  0.000000  0.000000  0.000000
                       0.000000  0.000000  0.000000  0.000000
        optdriver           1
            prtwf          -1
            rfdir           1       1       1
           rfelfd           2
            rprim      1.1178071564E+01  0.0000000000E+00 -5.3128908048E+00
                      -4.4635273050E+00  1.0248229500E+01 -5.3128908048E+00
                       0.0000000000E+00  0.0000000000E+00  1.2376432951E+01
          spgroup         139
           strten      0.0000000000E+00  0.0000000000E+00  0.0000000000E+00
                       0.0000000000E+00  0.0000000000E+00  0.0000000000E+00
           symrel      1  0  0   0  1  0   0  0  1      -1  0  0   0 -1  0   0  0 -1
                      -1 -1 -1   0  0  1   0  1  0       1  1  1   0  0 -1   0 -1  0
                       0  1  0   1  0  0  -1 -1 -1       0 -1  0  -1  0  0   1  1  1
                       0  0  1  -1 -1 -1   1  0  0       0  0 -1   1  1  1  -1  0  0
                       0  1  0   1  0  0   0  0  1       0 -1  0  -1  0  0   0  0 -1
                      -1 -1 -1   0  0  1   1  0  0       1  1  1   0  0 -1  -1  0  0
                       1  0  0   0  1  0  -1 -1 -1      -1  0  0   0 -1  0   1  1  1
                       0  0  1  -1 -1 -1   0  1  0       0  0 -1   1  1  1   0 -1  0
           tolwfr      1.00000000E-20
            typat      1  1  2  3  3  3  3  4  4
           useylm           1
           xangst      3.8458863008E+00  1.3557823700E+00  4.6320239505E-01
                      -2.9270251288E-01  4.0673471099E+00  4.6320239505E-01
                       0.0000000000E+00  0.0000000000E+00  0.0000000000E+00
                       8.5636703746E-01  1.3070501285E+00  1.8017558388E+00
                       2.6968167505E+00  4.1160793514E+00 -8.7535104871E-01
                       3.9202650190E+00  1.3070501285E+00 -2.8114607256E+00
                      -3.6708123104E-01  4.1160793514E+00 -2.8114607256E+00
                       2.8344955159E+00  4.3262147725E+00 -4.4855956210E+00
                       7.1868827205E-01  1.0969147074E+00 -1.1373258303E+00
            xcart      7.2676718467E+00  2.5620573750E+00  8.7532567075E-01
                      -5.5312758775E-01  7.6861721251E+00  8.7532567075E-01
                       0.0000000000E+00  0.0000000000E+00  0.0000000000E+00
                       1.6182991700E+00  2.4699667847E+00  3.4048250937E+00
                       5.0962450890E+00  7.7782627154E+00 -1.6541737522E+00
                       7.4082272542E+00  2.4699667847E+00 -5.3128908048E+00
                      -6.9368299519E-01  7.7782627154E+00 -5.3128908048E+00
                       5.3564202499E+00  8.1753611120E+00 -8.4765472666E+00
                       1.3581240091E+00  2.0728683881E+00 -2.1492343430E+00
             xred      7.5000000000E-01  2.5000000000E-01  5.0000000000E-01
                       2.5000000000E-01  7.5000000000E-01  5.0000000000E-01
                       0.0000000000E+00  0.0000000000E+00  0.0000000000E+00
                       2.4101400000E-01  2.4101400000E-01  4.8202800000E-01
                       7.5898600000E-01  7.5898600000E-01  5.1797200000E-01
                       7.5898600000E-01  2.4101400000E-01  0.0000000000E+00
                       2.4101400000E-01  7.5898600000E-01 -4.8572257327E-17
                       7.9773400000E-01  7.9773400000E-01  1.1102230246E-16
                       2.0226600000E-01  2.0226600000E-01 -3.4694469520E-17
            znucl       19.00000   76.00000   17.00000    8.00000

- Timing analysis has been suppressed with timopt=0

 Suggested references for the acknowledgment of ABINIT usage.

 Calculation completed.
.Delivered   6 WARNINGs and   5 COMMENTs to log file.