.Version 9.5.1 of ABINIT

 ABINIT is a project of the Universite Catholique de Louvain,
 Corning Inc. and other collaborators, see ~abinit/doc/developers/contributors.txt .
 acknowledgments of the ABINIT effort.

.Starting date : Tue  4 May 2021.
- ( at 19h32 )

- input  file    -> /scratch/users/j/a/jabreu/flow_simple_6atoms/flow/w210/t1/run.abi
- output file    -> /scratch/users/j/a/jabreu/flow_simple_6atoms/flow/w210/t1/run.abo
- root for input  files -> /scratch/users/j/a/jabreu/flow_simple_6atoms/flow/w210/t1/indata/in
- root for output files -> /scratch/users/j/a/jabreu/flow_simple_6atoms/flow/w210/t1/outdata/out

 Symmetries : space group P6_3 m c (#186); Bravais hP (primitive hexag.)
     intxc =       0      iscf =       7    lmnmax =      18     lnmax =       6
     mgfft =     135  mpssoang =       3    mqgrid =    6568     natom =       6
  nloc_mem =       1    nspden =       1   nspinor =       1    nsppol =       1
      nsym =      12    n1xccc =    2501    ntypat =       3    occopt =       1
   xclevel =       2
-    mband =          37        mffmem =           1         mkmem =           2
-   mkqmem =           2        mk1mem =           2           mpw =       14237
      nfft =      273375          nkpt =           2
  Rough estimation (10% accuracy) of disk space for files :

------------- Echo of variables that govern the present computation ------------
-
- outvars: echo of selected default values
-   iomode0 =  0 , fftalg0 =512 , wfoptalg0 =  0
-
- outvars: echo of global parameters not present in the input file
-  max_nthreads =    0
-
 -outvars: echo values of preprocessed input variables --------
            acell      1.0000000000E+00  1.0000000000E+00  1.0000000000E+00 Bohr
              amu      2.29897680E+01  1.18710000E+02  3.09737620E+01
             ecut      4.40000000E+01 Hartree
-          fftalg         512
           irdden           1
           irdwfk           1
              ixc     -116133
              kpt      7.07070707E-02  7.07070707E-02  0.00000000E+00
                       3.96551724E-01  0.00000000E+00  0.00000000E+00
           kptopt           0
P           mkmem           2
P          mkqmem           2
P          mk1mem           2
            natom           6
            nband          37
           nbdbuf           4
            ngfft          45      45     135
             nkpt           2
            nstep        1000
             nsym          12
           ntypat           3
              occ      2.000000  2.000000  2.000000  2.000000  2.000000  2.000000
                       2.000000  2.000000  2.000000  2.000000  2.000000  2.000000
                       2.000000  2.000000  2.000000  2.000000  2.000000  2.000000
                       2.000000  2.000000  2.000000  2.000000  2.000000  2.000000
                       2.000000  2.000000  2.000000  2.000000  0.000000  0.000000
                       0.000000  0.000000  0.000000  0.000000  0.000000  0.000000
                       0.000000
        optdriver           1
            prtwf          -1
            rfdir           1       1       1
           rfelfd           2
            rprim      7.3176816957E+00  0.0000000000E+00  0.0000000000E+00
                      -3.6588408478E+00  6.3372982453E+00  0.0000000000E+00
                       0.0000000000E+00  0.0000000000E+00  2.1993830819E+01
          spgroup         186
           symrel      1  0  0   0  1  0   0  0  1       0  1  0   1  0  0   0  0  1
                       1  1  0  -1  0  0   0  0  1      -1  0  0   1  1  0   0  0  1
                       0  1  0  -1 -1  0   0  0  1      -1 -1  0   0  1  0   0  0  1
                      -1  0  0   0 -1  0   0  0  1       0 -1  0  -1  0  0   0  0  1
                      -1 -1  0   1  0  0   0  0  1       1  0  0  -1 -1  0   0  0  1
                       0 -1  0   1  1  0   0  0  1       1  1  0   0 -1  0   0  0  1
            tnons      0.0000000  0.0000000  0.0000000     0.0000000 -0.0000000  0.5000000
                       0.0000000 -0.0000000  0.5000000     0.0000000  0.0000000  0.0000000
                      -0.0000000 -0.0000000  0.0000000     0.0000000  0.0000000  0.5000000
                       0.0000000 -0.0000000  0.5000000    -0.0000000 -0.0000000  0.0000000
                       0.0000000 -0.0000000  0.0000000     0.0000000 -0.0000000  0.5000000
                       0.0000000  0.0000000  0.5000000     0.0000000 -0.0000000  0.0000000
           tolwfr      1.00000000E-20
            typat      1  1  2  2  3  3
           useylm           1
              wtk        0.50000    0.50000
           xangst      1.7639476748E-11  2.2357025303E+00  8.4027911429E+00
                       1.9361751865E+00  1.1178512652E+00  2.5834741433E+00
                       2.5078506504E-16 -3.1026605317E-16  5.1908307636E-03
                       2.5078506504E-16 -3.1026605317E-16  5.8245078303E+00
                       1.7639476748E-11  2.2357025303E+00  4.5015792195E+00
                       1.9361751865E+00  1.1178512652E+00  1.0320896219E+01
            xcart      3.3333780181E-11  4.2248654969E+00  1.5878974012E+01
                       3.6588408479E+00  2.1124327484E+00  4.8820586023E+00
                       4.7391509115E-16 -5.8631786882E-16  9.8092485454E-03
                       4.7391509115E-16 -5.8631786882E-16  1.1006724658E+01
                       3.3333780181E-11  4.2248654969E+00  8.5067518904E+00
                       3.6588408479E+00  2.1124327484E+00  1.9503667300E+01
             xred      3.3333333333E-01  6.6666666667E-01  7.2197400000E-01
                       6.6666666667E-01  3.3333333333E-01  2.2197400000E-01
                       1.8503717077E-17 -9.2518585385E-17  4.4600000000E-04
                       1.8503717077E-17 -9.2518585385E-17  5.0044600000E-01
                       3.3333333333E-01  6.6666666667E-01  3.8677900000E-01
                       6.6666666667E-01  3.3333333333E-01  8.8677900000E-01
            znucl       11.00000   50.00000   15.00000

 chkinp: Checking input parameters for consistency.

== DATASET  1 ==================================================================
-   mpi_nproc: 1, omp_nthreads: -1 (-1 if OMP is not activated)

--- !DatasetInfo
iteration_state: {dtset: 1, }
dimensions: {natom: 6, nkpt: 2, mband: 37, nsppol: 1, nspinor: 1, nspden: 1, mpw: 14237, }
cutoff_energies: {ecut:  44.0, pawecutdg:  -1.0, }
electrons: {nelect:   5.60000000E+01, charge:   0.00000000E+00, occopt:   1.00000000E+00, tsmear:   1.00000000E-02, }
meta: {optdriver: 1, rfelfd: 2, }
...

 Real(R)+Recip(G) space primitive vectors, cartesian coordinates (Bohr,Bohr^-1):
 R(1)=  7.3176817  0.0000000  0.0000000  G(1)=  0.1366553  0.0788980  0.0000000
 R(2)= -3.6588408  6.3372982  0.0000000  G(2)=  0.0000000  0.1577960  0.0000000
 R(3)=  0.0000000  0.0000000 21.9938308  G(3)=  0.0000000  0.0000000  0.0454673
 Unit cell volume ucvol=  1.0199492E+03 bohr^3
 Angles (23,13,12)=  9.00000000E+01  9.00000000E+01  1.20000000E+02 degrees

 getcut: wavevector=  0.0000  0.0000  0.0000  ngfft=  45  45 135
         ecut(hartree)=     44.000   => boxcut(ratio)=   2.01367

--- Pseudopotential description ------------------------------------------------
- pspini: atom type   1  psp file is /scratch/users/j/a/jabreu/pseudos/PBEsol/Na.psp8
- pspatm: opening atomic psp file    /scratch/users/j/a/jabreu/pseudos/PBEsol/Na.psp8
- Na    ONCVPSP-3.3.0  r_core=   1.20708   1.55069
- 11.00000   9.00000    180112                znucl, zion, pspdat
    8 -116133    1    4       400   0.00000   pspcod,pspxc,lmax,lloc,mmax,r2well
    3.99000000000000    0.00000000000000    0.00000000000000   rchrg,fchrg,qchrg
     nproj     2     2
     extension_switch     1
  pspatm : epsatm=    9.32878306
         --- l  ekb(1:nproj) -->
             0    2.657905   -0.678300
             1   -6.761319   -2.404728
 pspatm: atomic psp has been read  and splines computed

- pspini: atom type   2  psp file is /scratch/users/j/a/jabreu/pseudos/PBEsol/Sn.psp8
- pspatm: opening atomic psp file    /scratch/users/j/a/jabreu/pseudos/PBEsol/Sn.psp8
- Sn    ONCVPSP-3.3.0  r_core=   2.27326   2.62311   1.85601
- 50.00000  14.00000    180112                znucl, zion, pspdat
    8 -116133    2    4       600   0.00000   pspcod,pspxc,lmax,lloc,mmax,r2well
    5.99000000000000    6.50000000000000    0.00000000000000   rchrg,fchrg,qchrg
     nproj     2     2     2
     extension_switch     1
  pspatm : epsatm=   32.44586081
         --- l  ekb(1:nproj) -->
             0    5.587869    0.749373
             1    4.197111    0.728791
             2   -5.271877   -1.523486
 pspatm: atomic psp has been read  and splines computed

- pspini: atom type   3  psp file is /scratch/users/j/a/jabreu/pseudos/PBEsol/P.psp8
- pspatm: opening atomic psp file    /scratch/users/j/a/jabreu/pseudos/PBEsol/P.psp8
- P     ONCVPSP-3.3.0  r_core=   1.46089   1.55067   1.70594
- 15.00000   5.00000    180112                znucl, zion, pspdat
    8 -116133    2    4       600   0.00000   pspcod,pspxc,lmax,lloc,mmax,r2well
    5.99000000000000    5.00000000000000    0.00000000000000   rchrg,fchrg,qchrg
     nproj     2     2     2
     extension_switch     1
  pspatm : epsatm=    7.31221086
         --- l  ekb(1:nproj) -->
             0    6.742364    1.063650
             1    3.449117    0.910422
             2   -3.077645   -0.799176
 pspatm: atomic psp has been read  and splines computed

   5.49772773E+03                                ecore*ucvol(ha*bohr**3)

-inwffil : will read wavefunctions from disk file /scratch/users/j/a/jabreu/flow_simple_6atoms/flow/w210/t1/indata/in_WFK

 ==>  initialize data related to q vector <==

 The list of irreducible perturbations for this q vector is:
    1)    idir= 1    ipert=   7
    2)    idir= 2    ipert=   7
    3)    idir= 3    ipert=   7

 Perturbation wavevector (in red.coord.)   0.000000  0.000000  0.000000
 Perturbation : derivative vs k along direction   1

 dfpt_looppert : COMMENT -
  In a d/dk calculation, iscf is set to -3 automatically.
 The set of symmetries contains only one element for this perturbation.
 symkpt : not enough symmetry to change the number of k points.

[...]

 Initialisation of the first-order wave-functions :
  ireadwf=   0

--- !BeginCycle
iteration_state: {dtset: 1, }
solver: {iscf: 7, nstep: 1000, nline: 4, wfoptalg: 0, }
tolerances: {tolwfr: 1.00E-20, }
...

     iter   2DEtotal(Ha)        deltaE(Ha) residm    vres2
-ETOT  1  -94.311782311858     -9.431E+01 5.042E-02 0.000E+00
 ETOT  2  -94.351248377653     -3.947E-02 1.154E-03 0.000E+00
 ETOT  3  -94.351300252489     -5.187E-05 1.182E-05 0.000E+00
 ETOT  4  -94.351300470264     -2.178E-07 2.998E-07 0.000E+00
 ETOT  5  -94.351300471598     -1.335E-09 3.673E-09 0.000E+00
 ETOT  6  -94.351300471607     -9.067E-12 1.192E-10 0.000E+00
 ETOT  7  -94.351300471608     -1.137E-13 1.517E-12 0.000E+00
 ETOT  8  -94.351300471608     -8.527E-14 5.090E-14 0.000E+00
 ETOT  9  -94.351300471608      2.842E-14 6.643E-16 0.000E+00
 ETOT 10  -94.351300471608      1.421E-14 2.252E-17 0.000E+00
 ETOT 11  -94.351300471608      0.000E+00 2.984E-19 0.000E+00
 ETOT 12  -94.351300471608      0.000E+00 1.020E-20 0.000E+00
 ETOT 13  -94.351300471608      0.000E+00 9.812E-21 0.000E+00

 At SCF step   13   max residual=  9.81E-21 < tolwfr=  1.00E-20 =>converged.

 ----iterations are completed or convergence reached----

 dfpt_looppert: DFPT cycle converged with prtwf=-1. Will skip output of the 1st-order WFK file.
 dfpt_looppert : ek2=    1.1009547429E+02
          f-sum rule ratio=    9.9838767390E-01
 prteigrs : about to open file /scratch/users/j/a/jabreu/flow_simple_6atoms/flow/w210/t1/tmpdata/tmp_1WF1_EIG
 Expectation of eigenvalue derivatives (hartree) for nkpt=   2  k points:
  (in case of degenerate eigenvalues, averaged derivative)
 kpt#   1, nband= 37, wtk=  0.50000, kpt=  0.0707  0.0707  0.0000 (reduced coord)
   0.00005    0.00005    0.00027    0.00024   -0.00140   -0.00141   -0.00038   -0.00038
  -0.00104   -0.00104    0.00274    0.00274   -0.00170   -0.00165   -0.00028   -0.00028
   0.00207    0.00206    0.08842    0.08733    0.05430    0.01908    0.03044   -0.43735
  -0.33984   -0.17380   -0.17500    0.00203    0.24053    0.05923   -0.16905   -0.03502
   0.09099    0.09016    0.20301   -0.08266   -0.38853
 prteigrs : prtvol=0 or 1, do not print more k-points.

 Eight components of 2nd-order total energy (hartree) are
 1,2,3: 0th-order hamiltonian combined with 1st-order wavefunctions
     kin0=   9.67824346E+01 eigvalue=   1.40736028E+01  local=  -4.57385419E+01
 4,5,6: 1st-order hamiltonian combined with 1st and 0th-order wfs
     kin1=  -1.09917964E+02  Hartree=   0.00000000E+00     xc=   0.00000000E+00
 7,8,9: eventually, occupation + non-local contributions
    edocc=   1.78755559E+01     enl0=   1.13582491E+01   enl1=  -7.87846365E+01
 1-9 gives the relaxation energy (to be shifted if some occ is /=2.0)
   erelax=  -9.43513005E+01
  No Ewald or frozen-wf contrib.: the relaxation energy is the total one
 2DEtotal=   -0.9435130047E+02 Ha. Also 2DEtotal=   -0.256742945482E+04 eV
    (  non-var. 2DEtotal :   -9.4351300472E+01 Ha)

 Perturbation wavevector (in red.coord.)   0.000000  0.000000  0.000000
 Perturbation : derivative vs k along direction   2
 The set of symmetries contains only one element for this perturbation.
 symkpt : not enough symmetry to change the number of k points.

[...]

 Perturbation wavevector (in red.coord.)   0.000000  0.000000  0.000000
 Perturbation : derivative vs k along direction   3
 The set of symmetries contains only one element for this perturbation.
 symkpt : not enough symmetry to change the number of k points.

-inwffil : will read wavefunctions from disk file /scratch/users/j/a/jabreu/flow_simple_6atoms/flow/w210/t1/indata/in_WFK

 Initialisation of the first-order wave-functions :
  ireadwf=   0

--- !BeginCycle
iteration_state: {dtset: 1, }
solver: {iscf: 7, nstep: 1000, nline: 4, wfoptalg: 0, }
tolerances: {tolwfr: 1.00E-20, }
...

     iter   2DEtotal(Ha)        deltaE(Ha) residm    vres2
-ETOT  1  -8.1524867600383     -8.152E+00 3.907E-03 0.000E+00
 ETOT  2  -8.1562869024797     -3.800E-03 4.383E-05 0.000E+00
 ETOT  3  -8.1562915839403     -4.681E-06 6.754E-07 0.000E+00
 ETOT  4  -8.1562916046891     -2.075E-08 1.212E-08 0.000E+00
 ETOT  5  -8.1562916048238     -1.347E-10 2.501E-10 0.000E+00
 ETOT  6  -8.1562916048248     -1.000E-12 4.994E-12 0.000E+00
 ETOT  7  -8.1562916048248     -1.599E-14 1.077E-13 0.000E+00
 ETOT  8  -8.1562916048248     -3.553E-15 2.206E-15 0.000E+00
 ETOT  9  -8.1562916048248      7.105E-15 4.952E-17 0.000E+00
 ETOT 10  -8.1562916048248     -5.329E-15 1.002E-18 0.000E+00
 ETOT 11  -8.1562916048248     -1.776E-15 2.317E-20 0.000E+00
 ETOT 12  -8.1562916048248      0.000E+00 9.924E-21 0.000E+00

 At SCF step   12   max residual=  9.92E-21 < tolwfr=  1.00E-20 =>converged.

 ----iterations are completed or convergence reached----

 dfpt_looppert: DFPT cycle converged with prtwf=-1. Will skip output of the 1st-order WFK file.
 dfpt_looppert : ek2=    9.1406272558E+00
          f-sum rule ratio=    1.0701443330E+00
 prteigrs : about to open file /scratch/users/j/a/jabreu/flow_simple_6atoms/flow/w210/t1/tmpdata/tmp_1WF1_EIG
 Expectation of eigenvalue derivatives (hartree) for nkpt=   2  k points:
  (in case of degenerate eigenvalues, averaged derivative)
 kpt#   1, nband= 37, wtk=  0.50000, kpt=  0.0707  0.0707  0.0000 (reduced coord)
   0.00000    0.00000    0.00000    0.00000    0.00000    0.00000    0.00000   -0.00000
   0.00000   -0.00000    0.00000    0.00000   -0.00000    0.00000   -0.00000   -0.00000
   0.00000    0.00000    0.00000   -0.00000    0.00000    0.00000   -0.00000   -0.00000
  -0.00000   -0.00000   -0.00000    0.00000   -0.00000    0.00000    0.00000    0.00000
  -0.00000    0.00000    0.00000    0.00000    0.00000
 prteigrs : prtvol=0 or 1, do not print more k-points.

 Eight components of 2nd-order total energy (hartree) are
 1,2,3: 0th-order hamiltonian combined with 1st-order wavefunctions
     kin0=   8.22985955E+00 eigvalue=   1.15190275E+00  local=  -3.89695875E+00
 4,5,6: 1st-order hamiltonian combined with 1st and 0th-order wfs
     kin1=  -9.78179046E+00  Hartree=   0.00000000E+00     xc=   0.00000000E+00
 7,8,9: eventually, occupation + non-local contributions
    edocc=   1.71966520E+00     enl0=   9.51822859E-01   enl1=  -6.53079275E+00
 1-9 gives the relaxation energy (to be shifted if some occ is /=2.0)
   erelax=  -8.15629160E+00
  No Ewald or frozen-wf contrib.: the relaxation energy is the total one
 2DEtotal=   -0.8156291605E+01 Ha. Also 2DEtotal=   -0.221943981733E+03 eV
    (  non-var. 2DEtotal :   -8.1562916048E+00 Ha)

 CALCULATION OF EFFECTIVE MASSES
 NOTE : Additional infos (eff. mass eigenvalues, eigenvectors and, if degenerate, average mass) are available in stdout.

 K-point ( 0.071, 0.071, 0.000) | band =    28
 Effective mass tensor:
            -18.8577374735              9.2145287678              0.0000097950
              9.2145287678             -8.2174944695             -0.0000059127
              0.0000097950             -0.0000059127             -0.1585231697
 Effective mass tensor eigenvalues:
            -24.1776927198             -2.8975392232             -0.1585231697
 Angular average effective mass 1/(<1/m>)=  -0.4481152051
 Angular average effective mass for Frohlich model (<m**0.5>)**2=  -1.0478713944
 Effective masses along directions: (cart. coord. / red. coord. -> eff. mass)
    1:   1.000000  0.000000  0.000000 /   0.894427 -0.447214  0.000000 ->  -8.5252035450
    2:   0.000000  1.000000  0.000000 /   0.000000  1.000000  0.000000 ->  -3.7149638487
    3:   0.000000  0.000000  1.000000 /   0.000000  0.000000  1.000000 ->  -0.1585231697
    4:   0.577350  0.577350  0.577350 /   0.313613  0.114790  0.942587 ->  -0.4311726091
    5:   0.000000  0.707107  0.707107 /   0.000000  0.276875  0.960906 ->  -0.3040713364
    6:   0.707107  0.000000  0.707107 /   0.311839 -0.155919  0.937254 ->  -0.3112583680
    7:   0.707107  0.707107  0.000000 /   0.939071  0.343724  0.000000 ->  -3.0790861163

 K-point ( 0.397, 0.000, 0.000) | band =    29
 Effective mass tensor:
              0.2870869108              0.0607829840              0.0000001099
              0.0607829840              0.2169007665              0.0000000634
              0.0000001099              0.0000000634              0.4428793114
 Effective mass tensor eigenvalues:
              0.1818076943              0.3221799830              0.4428793114
 Angular average effective mass 1/(<1/m>)=   0.2761890792
 Angular average effective mass for Frohlich model (<m**0.5>)**2=   0.2880970823
 Effective masses along directions: (cart. coord. / red. coord. -> eff. mass)
    1:   1.000000  0.000000  0.000000 /   0.894427 -0.447214  0.000000 ->   0.2700534479
    2:   0.000000  1.000000  0.000000 /   0.000000  1.000000  0.000000 ->   0.2040315934
    3:   0.000000  0.000000  1.000000 /   0.000000  0.000000  1.000000 ->   0.4428793114
    4:   0.577350  0.577350  0.577350 /   0.313613  0.114790  0.942587 ->   0.3414241601
    5:   0.000000  0.707107  0.707107 /   0.000000  0.276875  0.960906 ->   0.2793626824
    6:   0.707107  0.000000  0.707107 /   0.311839 -0.155919  0.937254 ->   0.3355186429
    7:   0.707107  0.707107  0.000000 /   0.939071  0.343724  0.000000 ->   0.3063361647

 END OF EFFECTIVE MASSES SECTION

 ---- first-order wavefunction calculations are completed ----

 Total localisation tensor (bohr^2) in cartesian coordinates
  WARNING : still subject to testing - especially symmetries.
      direction              matrix element
   alpha     beta       real part   imaginary part
     1        1       2.4509485921    0.0000000000
     1        2      -1.1127558599    0.0000000000
     1        3       0.0000000000    0.0000000000
     2        1      -1.1127558599    0.0000000000
     2        2       1.9273496858    0.0000000000
     2        3       0.0000000000    0.0000000000
     3        1       0.0000000000    0.0000000000
     3        2       0.0000000000    0.0000000000
     3        3       1.6633464751    0.0000000000

 respfn : d/dk was computed, but no 2DTE, so no DDB output.

== END DATASET(S) ==============================================================

 -outvars: echo values of variables after computation  --------
            acell      1.0000000000E+00  1.0000000000E+00  1.0000000000E+00 Bohr
              amu      2.29897680E+01  1.18710000E+02  3.09737620E+01
             ecut      4.40000000E+01 Hartree
           etotal     -8.1562916048E+00
            fcart      0.0000000000E+00  0.0000000000E+00  0.0000000000E+00
                       0.0000000000E+00  0.0000000000E+00  0.0000000000E+00
                       0.0000000000E+00  0.0000000000E+00  0.0000000000E+00
                       0.0000000000E+00  0.0000000000E+00  0.0000000000E+00
                       0.0000000000E+00  0.0000000000E+00  0.0000000000E+00
                       0.0000000000E+00  0.0000000000E+00  0.0000000000E+00
-          fftalg         512
           irdden           1
           irdwfk           1
              ixc     -116133
              kpt      7.07070707E-02  7.07070707E-02  0.00000000E+00
                       3.96551724E-01  0.00000000E+00  0.00000000E+00
           kptopt           0
P           mkmem           2
P          mkqmem           2
P          mk1mem           2
            natom           6
            nband          37
           nbdbuf           4
            ngfft          45      45     135
             nkpt           2
            nstep        1000
             nsym          12
           ntypat           3
              occ      2.000000  2.000000  2.000000  2.000000  2.000000  2.000000
                       2.000000  2.000000  2.000000  2.000000  2.000000  2.000000
                       2.000000  2.000000  2.000000  2.000000  2.000000  2.000000
                       2.000000  2.000000  2.000000  2.000000  2.000000  2.000000
                       2.000000  2.000000  2.000000  2.000000  0.000000  0.000000
                       0.000000  0.000000  0.000000  0.000000  0.000000  0.000000
                       0.000000
        optdriver           1
            prtwf          -1
            rfdir           1       1       1
           rfelfd           2
            rprim      7.3176816957E+00  0.0000000000E+00  0.0000000000E+00
                      -3.6588408478E+00  6.3372982453E+00  0.0000000000E+00
                       0.0000000000E+00  0.0000000000E+00  2.1993830819E+01
          spgroup         186
           strten      0.0000000000E+00  0.0000000000E+00  0.0000000000E+00
                       0.0000000000E+00  0.0000000000E+00  0.0000000000E+00
           symrel      1  0  0   0  1  0   0  0  1       0  1  0   1  0  0   0  0  1
                       1  1  0  -1  0  0   0  0  1      -1  0  0   1  1  0   0  0  1
                       0  1  0  -1 -1  0   0  0  1      -1 -1  0   0  1  0   0  0  1
                      -1  0  0   0 -1  0   0  0  1       0 -1  0  -1  0  0   0  0  1
                      -1 -1  0   1  0  0   0  0  1       1  0  0  -1 -1  0   0  0  1
                       0 -1  0   1  1  0   0  0  1       1  1  0   0 -1  0   0  0  1
            tnons      0.0000000  0.0000000  0.0000000     0.0000000 -0.0000000  0.5000000
                       0.0000000 -0.0000000  0.5000000     0.0000000  0.0000000  0.0000000
                      -0.0000000 -0.0000000  0.0000000     0.0000000  0.0000000  0.5000000
                       0.0000000 -0.0000000  0.5000000    -0.0000000 -0.0000000  0.0000000
                       0.0000000 -0.0000000  0.0000000     0.0000000 -0.0000000  0.5000000
                       0.0000000  0.0000000  0.5000000     0.0000000 -0.0000000  0.0000000
           tolwfr      1.00000000E-20
            typat      1  1  2  2  3  3
           useylm           1
              wtk        0.50000    0.50000
           xangst      1.7639476748E-11  2.2357025303E+00  8.4027911429E+00
                       1.9361751865E+00  1.1178512652E+00  2.5834741433E+00
                       2.5078506504E-16 -3.1026605317E-16  5.1908307636E-03
                       2.5078506504E-16 -3.1026605317E-16  5.8245078303E+00
                       1.7639476748E-11  2.2357025303E+00  4.5015792195E+00
                       1.9361751865E+00  1.1178512652E+00  1.0320896219E+01
            xcart      3.3333780181E-11  4.2248654969E+00  1.5878974012E+01
                       3.6588408479E+00  2.1124327484E+00  4.8820586023E+00
                       4.7391509115E-16 -5.8631786882E-16  9.8092485454E-03
                       4.7391509115E-16 -5.8631786882E-16  1.1006724658E+01
                       3.3333780181E-11  4.2248654969E+00  8.5067518904E+00
                       3.6588408479E+00  2.1124327484E+00  1.9503667300E+01
             xred      3.3333333333E-01  6.6666666667E-01  7.2197400000E-01
                       6.6666666667E-01  3.3333333333E-01  2.2197400000E-01
                       1.8503717077E-17 -9.2518585385E-17  4.4600000000E-04
                       1.8503717077E-17 -9.2518585385E-17  5.0044600000E-01
                       3.3333333333E-01  6.6666666667E-01  3.8677900000E-01
                       6.6666666667E-01  3.3333333333E-01  8.8677900000E-01
            znucl       11.00000   50.00000   15.00000

- Timing analysis has been suppressed with timopt=0

 Suggested references for the acknowledgment of ABINIT usage.

 Calculation completed.
.Delivered  14 WARNINGs and   9 COMMENTs to log file.