.Version 9.5.1 of ABINIT

 ABINIT is a project of the Universite Catholique de Louvain,
 Corning Inc. and other collaborators, see ~abinit/doc/developers/contributors.txt .
 acknowledgments of the ABINIT effort.

.Starting date : Tue  4 May 2021.
- ( at 21h49 )

- input  file    -> /scratch/users/j/a/jabreu/flow_simple_6atoms/flow/w263/t1/run.abi
- output file    -> /scratch/users/j/a/jabreu/flow_simple_6atoms/flow/w263/t1/run.abo
- root for input  files -> /scratch/users/j/a/jabreu/flow_simple_6atoms/flow/w263/t1/indata/in
- root for output files -> /scratch/users/j/a/jabreu/flow_simple_6atoms/flow/w263/t1/outdata/out

 Symmetries : space group Pn n m (# 58); Bravais oP (primitive ortho.)
     intxc =       0      iscf =       7    lmnmax =      18     lnmax =       6
     mgfft =      72  mpssoang =       3    mqgrid =    3254     natom =       6
  nloc_mem =       1    nspden =       1   nspinor =       1    nsppol =       1
      nsym =       8    n1xccc =    2501    ntypat =       2    occopt =       1
   xclevel =       2
-    mband =          35        mffmem =           1         mkmem =           2
-   mkqmem =           2        mk1mem =           2           mpw =        7658
      nfft =      138240          nkpt =           2
  Rough estimation (10% accuracy) of disk space for files :

------------- Echo of variables that govern the present computation ------------
-
- outvars: echo of selected default values
-   iomode0 =  0 , fftalg0 =512 , wfoptalg0 =  0
-
- outvars: echo of global parameters not present in the input file
-  max_nthreads =    0
-
 -outvars: echo values of preprocessed input variables --------
            acell      1.0000000000E+00  1.0000000000E+00  1.0000000000E+00 Bohr
              amu      5.58470000E+01  3.09737620E+01
             ecut      4.70000000E+01 Hartree
-          fftalg         512
           irdden           1
           irdwfk           1
           istwfk        1    0
              ixc     -116133
              kpt      0.00000000E+00  0.00000000E+00  0.00000000E+00
                       2.77777778E-01  0.00000000E+00  0.00000000E+00
           kptopt           0
P           mkmem           2
P          mkqmem           2
P          mk1mem           2
            natom           6
            nband          35
           nbdbuf           4
            ngfft          32      60      72
             nkpt           2
            nstep        1000
             nsym           8
           ntypat           2
              occ      2.000000  2.000000  2.000000  2.000000  2.000000  2.000000
                       2.000000  2.000000  2.000000  2.000000  2.000000  2.000000
                       2.000000  2.000000  2.000000  2.000000  2.000000  2.000000
                       2.000000  2.000000  2.000000  2.000000  2.000000  2.000000
                       2.000000  2.000000  0.000000  0.000000  0.000000  0.000000
                       0.000000  0.000000  0.000000  0.000000  0.000000
        optdriver           1
            prtwf          -1
            rfdir           1       1       1
           rfelfd           2
            rprim      5.0730675560E+00  0.0000000000E+00  0.0000000000E+00
                       0.0000000000E+00  9.2948440686E+00  0.0000000000E+00
                       0.0000000000E+00  0.0000000000E+00  1.0542666663E+01
          spgroup          58
           symrel      1  0  0   0  1  0   0  0  1      -1  0  0   0 -1  0   0  0 -1
                      -1  0  0   0  1  0   0  0 -1       1  0  0   0 -1  0   0  0  1
                      -1  0  0   0 -1  0   0  0  1       1  0  0   0  1  0   0  0 -1
                       1  0  0   0 -1  0   0  0 -1      -1  0  0   0  1  0   0  0  1
            tnons      0.0000000  0.0000000  0.0000000     0.0000000  0.0000000  0.0000000
                       0.5000000  0.5000000  0.5000000     0.5000000  0.5000000  0.5000000
                       0.5000000  0.5000000  0.5000000     0.5000000  0.5000000  0.5000000
                       0.0000000  0.0000000  0.0000000     0.0000000  0.0000000  0.0000000
           tolwfr      1.00000000E-20
            typat      1  1  2  2  2  2
           useylm           1
              wtk        0.50000    0.50000
           xangst      1.3422758641E+00  0.0000000000E+00  2.7894694578E+00
                       0.0000000000E+00  2.4593098193E+00  0.0000000000E+00
                       1.3422758641E+00  4.0751058822E+00  4.8351882530E+00
                       1.3422758641E+00  8.4351375629E-01  7.4375066260E-01
                       0.0000000000E+00  3.3028235755E+00  2.0457187952E+00
                       0.0000000000E+00  1.6157960630E+00  3.5332201204E+00
            xcart      2.5365337780E+00  0.0000000000E+00  5.2713333313E+00
                       0.0000000000E+00  4.6474220343E+00  0.0000000000E+00
                       2.5365337780E+00  7.7008340799E+00  9.1371815991E+00
                       2.5365337780E+00  1.5940099887E+00  1.4054850635E+00
                       0.0000000000E+00  6.2414320230E+00  3.8658482678E+00
                       0.0000000000E+00  3.0534120456E+00  6.6768183948E+00
             xred      5.0000000000E-01  0.0000000000E+00  5.0000000000E-01
                       0.0000000000E+00  5.0000000000E-01  0.0000000000E+00
                       5.0000000000E-01  8.2850600000E-01  8.6668600000E-01
                       5.0000000000E-01  1.7149400000E-01  1.3331400000E-01
                       0.0000000000E+00  6.7149400000E-01  3.6668600000E-01
                       0.0000000000E+00  3.2850600000E-01  6.3331400000E-01
            znucl       26.00000   15.00000

 chkinp: Checking input parameters for consistency.

== DATASET  1 ==================================================================
-   mpi_nproc: 1, omp_nthreads: -1 (-1 if OMP is not activated)

--- !DatasetInfo
iteration_state: {dtset: 1, }
dimensions: {natom: 6, nkpt: 2, mband: 35, nsppol: 1, nspinor: 1, nspden: 1, mpw: 7658, }
cutoff_energies: {ecut:  47.0, pawecutdg:  -1.0, }
electrons: {nelect:   5.20000000E+01, charge:   0.00000000E+00, occopt:   1.00000000E+00, tsmear:   1.00000000E-02, }
meta: {optdriver: 1, rfelfd: 2, }
...

 Real(R)+Recip(G) space primitive vectors, cartesian coordinates (Bohr,Bohr^-1):
 R(1)=  5.0730676  0.0000000  0.0000000  G(1)=  0.1971194  0.0000000  0.0000000
 R(2)=  0.0000000  9.2948441  0.0000000  G(2)=  0.0000000  0.1075865  0.0000000
 R(3)=  0.0000000  0.0000000 10.5426667  G(3)=  0.0000000  0.0000000  0.0948527
 Unit cell volume ucvol=  4.9712228E+02 bohr^3
 Angles (23,13,12)=  9.00000000E+01  9.00000000E+01  9.00000000E+01 degrees

 getcut: wavevector=  0.0000  0.0000  0.0000  ngfft=  32  60  72
         ecut(hartree)=     47.000   => boxcut(ratio)=   2.04393

--- Pseudopotential description ------------------------------------------------
- pspini: atom type   1  psp file is /scratch/users/j/a/jabreu/pseudos/PBEsol/Fe.psp8
- pspatm: opening atomic psp file    /scratch/users/j/a/jabreu/pseudos/PBEsol/Fe.psp8
- Fe    ONCVPSP-3.3.0  r_core=   1.26437   1.20546   1.56719
- 26.00000  16.00000    180112                znucl, zion, pspdat
    8 -116133    2    4       600   0.00000   pspcod,pspxc,lmax,lloc,mmax,r2well
    5.99000000000000    3.00000000000000    0.00000000000000   rchrg,fchrg,qchrg
     nproj     2     2     2
     extension_switch     1
  pspatm : epsatm=   15.04792780
         --- l  ekb(1:nproj) -->
             0   10.133364    1.456638
             1    1.580231   -0.508538
             2   -5.545701   -2.037616
 pspatm: atomic psp has been read  and splines computed

- pspini: atom type   2  psp file is /scratch/users/j/a/jabreu/pseudos/PBEsol/P.psp8
- pspatm: opening atomic psp file    /scratch/users/j/a/jabreu/pseudos/PBEsol/P.psp8
- P     ONCVPSP-3.3.0  r_core=   1.46089   1.55067   1.70594
- 15.00000   5.00000    180112                znucl, zion, pspdat
    8 -116133    2    4       600   0.00000   pspcod,pspxc,lmax,lloc,mmax,r2well
    5.99000000000000    5.00000000000000    0.00000000000000   rchrg,fchrg,qchrg
     nproj     2     2     2
     extension_switch     1
  pspatm : epsatm=    7.31221086
         --- l  ekb(1:nproj) -->
             0    6.742364    1.063650
             1    3.449117    0.910422
             2   -3.077645   -0.799176
 pspatm: atomic psp has been read  and splines computed

   3.08592435E+03                                ecore*ucvol(ha*bohr**3)

-inwffil : will read wavefunctions from disk file /scratch/users/j/a/jabreu/flow_simple_6atoms/flow/w263/t1/indata/in_WFK

 ==>  initialize data related to q vector <==

 The list of irreducible perturbations for this q vector is:
    1)    idir= 1    ipert=   7
    2)    idir= 2    ipert=   7
    3)    idir= 3    ipert=   7

 Perturbation wavevector (in red.coord.)   0.000000  0.000000  0.000000
 Perturbation : derivative vs k along direction   1

 dfpt_looppert : COMMENT -
  In a d/dk calculation, iscf is set to -3 automatically.
 The set of symmetries contains only one element for this perturbation.
 symkpt : not enough symmetry to change the number of k points.

[...]

 Initialisation of the first-order wave-functions :
  ireadwf=   0

--- !BeginCycle
iteration_state: {dtset: 1, }
solver: {iscf: 7, nstep: 1000, nline: 4, wfoptalg: 0, }
tolerances: {tolwfr: 1.00E-20, }
...

     iter   2DEtotal(Ha)        deltaE(Ha) residm    vres2
-ETOT  1  -75.311165512235     -7.531E+01 1.174E+00 0.000E+00
 ETOT  2  -75.467705635733     -1.565E-01 9.892E-03 0.000E+00
 ETOT  3  -75.469714615544     -2.009E-03 5.039E-04 0.000E+00
 ETOT  4  -75.469763954673     -4.934E-05 6.366E-05 0.000E+00
 ETOT  5  -75.469765519513     -1.565E-06 2.942E-06 0.000E+00
 ETOT  6  -75.469765578097     -5.858E-08 5.057E-07 0.000E+00
 ETOT  7  -75.469765580544     -2.447E-09 2.071E-08 0.000E+00
 ETOT  8  -75.469765580653     -1.093E-10 4.327E-09 0.000E+00
 ETOT  9  -75.469765580658     -5.031E-12 1.686E-10 0.000E+00
 ETOT 10  -75.469765580658     -2.842E-13 3.771E-11 0.000E+00
 ETOT 11  -75.469765580658      2.842E-14 1.457E-12 0.000E+00
 ETOT 12  -75.469765580658     -5.684E-14 3.330E-13 0.000E+00
 ETOT 13  -75.469765580658      4.263E-14 1.294E-14 0.000E+00
 ETOT 14  -75.469765580658     -1.421E-14 2.977E-15 0.000E+00
 ETOT 15  -75.469765580658     -2.842E-14 1.168E-16 0.000E+00
 ETOT 16  -75.469765580658      0.000E+00 2.687E-17 0.000E+00
 ETOT 17  -75.469765580658      0.000E+00 1.065E-18 0.000E+00
 ETOT 18  -75.469765580658      0.000E+00 2.444E-19 0.000E+00
 ETOT 19  -75.469765580658      0.000E+00 9.776E-21 0.000E+00

 At SCF step   19   max residual=  9.78E-21 < tolwfr=  1.00E-20 =>converged.

 ----iterations are completed or convergence reached----

 dfpt_looppert: DFPT cycle converged with prtwf=-1. Will skip output of the 1st-order WFK file.
 dfpt_looppert : ek2=    1.5953346010E+02
          f-sum rule ratio=    9.3042575692E-01
 prteigrs : about to open file /scratch/users/j/a/jabreu/flow_simple_6atoms/flow/w263/t1/tmpdata/tmp_1WF1_EIG
 Expectation of eigenvalue derivatives (hartree) for nkpt=   2  k points:
  (in case of degenerate eigenvalues, averaged derivative)
 kpt#   1, nband= 35, wtk=  0.50000, kpt=  0.0000  0.0000  0.0000 (reduced coord)
   0.00000    0.00000    0.00000   -0.00000   -0.00000    0.00000   -0.00000   -0.00000
  -0.00000   -0.00000    0.00000    0.00000   -0.00000   -0.00000   -0.00000   -0.00000
   0.00000   -0.00000    0.00000    0.00000    0.00000   -0.00000   -0.00000    0.00000
   0.00000   -0.00000   -0.00000    0.00000    0.00000   -0.00000    0.00000    0.00000
  -0.00000   -0.00008    0.00008
 prteigrs : prtvol=0 or 1, do not print more k-points.

 Eight components of 2nd-order total energy (hartree) are
 1,2,3: 0th-order hamiltonian combined with 1st-order wavefunctions
     kin0=   9.49668846E+01 eigvalue=  -9.65426149E+00  local=  -3.71491048E+01
 4,5,6: 1st-order hamiltonian combined with 1st and 0th-order wfs
     kin1=  -1.48434040E+02  Hartree=   0.00000000E+00     xc=   0.00000000E+00
 7,8,9: eventually, occupation + non-local contributions
    edocc=   2.45746282E+01     enl0=   2.73161905E+00   enl1=  -2.50549079E+00
 1-9 gives the relaxation energy (to be shifted if some occ is /=2.0)
   erelax=  -7.54697656E+01
  No Ewald or frozen-wf contrib.: the relaxation energy is the total one
 2DEtotal=   -0.7546976558E+02 Ha. Also 2DEtotal=   -0.205363676104E+04 eV
    (  non-var. 2DEtotal :   -7.5469765580E+01 Ha)

 Perturbation wavevector (in red.coord.)   0.000000  0.000000  0.000000
 Perturbation : derivative vs k along direction   2
 The set of symmetries contains only one element for this perturbation.
 symkpt : not enough symmetry to change the number of k points.

[...]

 Perturbation wavevector (in red.coord.)   0.000000  0.000000  0.000000
 Perturbation : derivative vs k along direction   3
 The set of symmetries contains only one element for this perturbation.
 symkpt : not enough symmetry to change the number of k points.

-inwffil : will read wavefunctions from disk file /scratch/users/j/a/jabreu/flow_simple_6atoms/flow/w263/t1/indata/in_WFK

 Initialisation of the first-order wave-functions :
  ireadwf=   0

--- !BeginCycle
iteration_state: {dtset: 1, }
solver: {iscf: 7, nstep: 1000, nline: 4, wfoptalg: 0, }
tolerances: {tolwfr: 1.00E-20, }
...

     iter   2DEtotal(Ha)        deltaE(Ha) residm    vres2
-ETOT  1  -16.424743836272     -1.642E+01 1.948E-01 0.000E+00
 ETOT  2  -16.458921944463     -3.418E-02 3.721E-03 0.000E+00
 ETOT  3  -16.459551089028     -6.291E-04 1.119E-04 0.000E+00
 ETOT  4  -16.459573030033     -2.194E-05 9.466E-06 0.000E+00
 ETOT  5  -16.459574019398     -9.894E-07 8.738E-07 0.000E+00
 ETOT  6  -16.459574068591     -4.919E-08 1.136E-07 0.000E+00
 ETOT  7  -16.459574071170     -2.579E-09 1.094E-08 0.000E+00
 ETOT  8  -16.459574071309     -1.386E-10 1.377E-09 0.000E+00
 ETOT  9  -16.459574071316     -7.578E-12 1.376E-10 0.000E+00
 ETOT 10  -16.459574071317     -4.263E-13 1.687E-11 0.000E+00
 ETOT 11  -16.459574071317     -3.553E-15 1.737E-12 0.000E+00
 ETOT 12  -16.459574071317     -7.105E-15 2.093E-13 0.000E+00
 ETOT 13  -16.459574071317      0.000E+00 2.197E-14 0.000E+00
 ETOT 14  -16.459574071317      0.000E+00 2.631E-15 0.000E+00
 ETOT 15  -16.459574071317      1.066E-14 2.787E-16 0.000E+00
 ETOT 16  -16.459574071317     -7.105E-15 3.357E-17 0.000E+00
 ETOT 17  -16.459574071317      3.553E-15 3.552E-18 0.000E+00
 ETOT 18  -16.459574071317      0.000E+00 4.342E-19 0.000E+00
 ETOT 19  -16.459574071317      0.000E+00 4.553E-20 0.000E+00
 ETOT 20  -16.459574071317      3.553E-15 9.296E-21 0.000E+00

 At SCF step   20   max residual=  9.30E-21 < tolwfr=  1.00E-20 =>converged.

 ----iterations are completed or convergence reached----

 dfpt_looppert: DFPT cycle converged with prtwf=-1. Will skip output of the 1st-order WFK file.
 dfpt_looppert : ek2=    3.6939594655E+01
          f-sum rule ratio=    8.7193115291E-01
 prteigrs : about to open file /scratch/users/j/a/jabreu/flow_simple_6atoms/flow/w263/t1/tmpdata/tmp_1WF1_EIG
 Expectation of eigenvalue derivatives (hartree) for nkpt=   2  k points:
  (in case of degenerate eigenvalues, averaged derivative)
 kpt#   1, nband= 35, wtk=  0.50000, kpt=  0.0000  0.0000  0.0000 (reduced coord)
   0.00000    0.00000    0.00000    0.00000    0.00000   -0.00000   -0.00000   -0.00000
  -0.00000    0.00000    0.00000    0.00000   -0.00000   -0.00000    0.00000    0.00000
  -0.00000    0.00000    0.00000    0.00000   -0.00000   -0.00000   -0.00000    0.00000
  -0.00000   -0.00000    0.00000    0.00000    0.00000   -0.00000   -0.00000   -0.00000
  -0.00000    0.00000    0.00050
 prteigrs : prtvol=0 or 1, do not print more k-points.

 Eight components of 2nd-order total energy (hartree) are
 1,2,3: 0th-order hamiltonian combined with 1st-order wavefunctions
     kin0=   2.19593713E+01 eigvalue=  -1.92819897E+00  local=  -9.16154901E+00
 4,5,6: 1st-order hamiltonian combined with 1st and 0th-order wfs
     kin1=  -3.22087834E+01  Hartree=   0.00000000E+00     xc=   0.00000000E+00
 7,8,9: eventually, occupation + non-local contributions
    edocc=   5.13411484E+00     enl0=   4.55835877E-01   enl1=  -7.10364787E-01
 1-9 gives the relaxation energy (to be shifted if some occ is /=2.0)
   erelax=  -1.64595741E+01
  No Ewald or frozen-wf contrib.: the relaxation energy is the total one
 2DEtotal=   -0.1645957407E+02 Ha. Also 2DEtotal=   -0.447887788227E+03 eV
    (  non-var. 2DEtotal :   -1.6459574071E+01 Ha)

 CALCULATION OF EFFECTIVE MASSES
 NOTE : Additional infos (eff. mass eigenvalues, eigenvectors and, if degenerate, average mass) are available in stdout.

 K-point ( 0.000, 0.000, 0.000) | band =    26
 Effective mass tensor:
             -1.9768060084             -0.0000001802             -0.0000056333
             -0.0000001802             -8.5999911662              0.0000002793
             -0.0000056333              0.0000002793             -3.0866744700
 Effective mass tensor eigenvalues:
             -8.5999911662             -3.0866744700             -1.9768060084
 Angular average effective mass 1/(<1/m>)=  -3.1708485399
 Angular average effective mass for Frohlich model (<m**0.5>)**2=  -3.4777460289
 Effective masses along directions: (cart. coord. / red. coord. -> eff. mass)
    1:   1.000000  0.000000  0.000000 /   1.000000  0.000000  0.000000 ->  -1.9768060084
    2:   0.000000  1.000000  0.000000 /   0.000000  1.000000  0.000000 ->  -8.5999911662
    3:   0.000000  0.000000  1.000000 /   0.000000  0.000000  1.000000 ->  -3.0866744699
    4:   0.577350  0.577350  0.577350 /   0.339506  0.622041  0.705550 ->  -3.1708547288
    5:   0.000000  0.707107  0.707107 /   0.000000  0.661321  0.750103 ->  -4.5428478460
    6:   0.707107  0.000000  0.707107 /   0.433605  0.000000  0.901103 ->  -2.4101091102
    7:   0.707107  0.707107  0.000000 /   0.479082  0.877770  0.000000 ->  -3.2146810623

 K-point ( 0.278, 0.000, 0.000) | band =    27
 Effective mass tensor:
              1.3241946807              0.0000000001              0.0000000001
              0.0000000001              0.7053446100              0.0000000001
              0.0000000001              0.0000000001              2.6569448952
 Effective mass tensor eigenvalues:
              0.7053446100              1.3241946807              2.6569448952
 Angular average effective mass 1/(<1/m>)=   1.1767960281
 Angular average effective mass for Frohlich model (<m**0.5>)**2=   1.2776758306
 Effective masses along directions: (cart. coord. / red. coord. -> eff. mass)
    1:   1.000000  0.000000  0.000000 /   1.000000  0.000000  0.000000 ->   1.3241946807
    2:   0.000000  1.000000  0.000000 /   0.000000  1.000000  0.000000 ->   0.7053446100
    3:   0.000000  0.000000  1.000000 /   0.000000  0.000000  1.000000 ->   2.6569448952
    4:   0.577350  0.577350  0.577350 /   0.339506  0.622041  0.705550 ->   1.1767960282
    5:   0.000000  0.707107  0.707107 /   0.000000  0.661321  0.750103 ->   1.1147533596
    6:   0.707107  0.000000  0.707107 /   0.433605  0.000000  0.901103 ->   1.7674900516
    7:   0.707107  0.707107  0.000000 /   0.479082  0.877770  0.000000 ->   0.9204193138

 END OF EFFECTIVE MASSES SECTION

 ---- first-order wavefunction calculations are completed ----

 Total localisation tensor (bohr^2) in cartesian coordinates
  WARNING : still subject to testing - especially symmetries.
      direction              matrix element
   alpha     beta       real part   imaginary part
     1        1       1.0000454234    0.0000000000
     1        2       0.0000000000    0.0000000000
     1        3       0.0000000000    0.0000000000
     2        1       0.0000000000    0.0000000000
     2        2       1.4462247081    0.0000000000
     2        3       0.0000000000    0.0000000000
     3        1       0.0000000000    0.0000000000
     3        2       0.0000000000    0.0000000000
     3        3       0.9222297099    0.0000000000

 respfn : d/dk was computed, but no 2DTE, so no DDB output.

== END DATASET(S) ==============================================================

 -outvars: echo values of variables after computation  --------
            acell      1.0000000000E+00  1.0000000000E+00  1.0000000000E+00 Bohr
              amu      5.58470000E+01  3.09737620E+01
             ecut      4.70000000E+01 Hartree
           etotal     -1.6459574071E+01
            fcart      0.0000000000E+00  0.0000000000E+00  0.0000000000E+00
                       0.0000000000E+00  0.0000000000E+00  0.0000000000E+00
                       0.0000000000E+00  0.0000000000E+00  0.0000000000E+00
                       0.0000000000E+00  0.0000000000E+00  0.0000000000E+00
                       0.0000000000E+00  0.0000000000E+00  0.0000000000E+00
                       0.0000000000E+00  0.0000000000E+00  0.0000000000E+00
-          fftalg         512
           irdden           1
           irdwfk           1
           istwfk        1    0
              ixc     -116133
              kpt      0.00000000E+00  0.00000000E+00  0.00000000E+00
                       2.77777778E-01  0.00000000E+00  0.00000000E+00
           kptopt           0
P           mkmem           2
P          mkqmem           2
P          mk1mem           2
            natom           6
            nband          35
           nbdbuf           4
            ngfft          32      60      72
             nkpt           2
            nstep        1000
             nsym           8
           ntypat           2
              occ      2.000000  2.000000  2.000000  2.000000  2.000000  2.000000
                       2.000000  2.000000  2.000000  2.000000  2.000000  2.000000
                       2.000000  2.000000  2.000000  2.000000  2.000000  2.000000
                       2.000000  2.000000  2.000000  2.000000  2.000000  2.000000
                       2.000000  2.000000  0.000000  0.000000  0.000000  0.000000
                       0.000000  0.000000  0.000000  0.000000  0.000000
        optdriver           1
            prtwf          -1
            rfdir           1       1       1
           rfelfd           2
            rprim      5.0730675560E+00  0.0000000000E+00  0.0000000000E+00
                       0.0000000000E+00  9.2948440686E+00  0.0000000000E+00
                       0.0000000000E+00  0.0000000000E+00  1.0542666663E+01
          spgroup          58
           strten      0.0000000000E+00  0.0000000000E+00  0.0000000000E+00
                       0.0000000000E+00  0.0000000000E+00  0.0000000000E+00
           symrel      1  0  0   0  1  0   0  0  1      -1  0  0   0 -1  0   0  0 -1
                      -1  0  0   0  1  0   0  0 -1       1  0  0   0 -1  0   0  0  1
                      -1  0  0   0 -1  0   0  0  1       1  0  0   0  1  0   0  0 -1
                       1  0  0   0 -1  0   0  0 -1      -1  0  0   0  1  0   0  0  1
            tnons      0.0000000  0.0000000  0.0000000     0.0000000  0.0000000  0.0000000
                       0.5000000  0.5000000  0.5000000     0.5000000  0.5000000  0.5000000
                       0.5000000  0.5000000  0.5000000     0.5000000  0.5000000  0.5000000
                       0.0000000  0.0000000  0.0000000     0.0000000  0.0000000  0.0000000
           tolwfr      1.00000000E-20
            typat      1  1  2  2  2  2
           useylm           1
              wtk        0.50000    0.50000
           xangst      1.3422758641E+00  0.0000000000E+00  2.7894694578E+00
                       0.0000000000E+00  2.4593098193E+00  0.0000000000E+00
                       1.3422758641E+00  4.0751058822E+00  4.8351882530E+00
                       1.3422758641E+00  8.4351375629E-01  7.4375066260E-01
                       0.0000000000E+00  3.3028235755E+00  2.0457187952E+00
                       0.0000000000E+00  1.6157960630E+00  3.5332201204E+00
            xcart      2.5365337780E+00  0.0000000000E+00  5.2713333313E+00
                       0.0000000000E+00  4.6474220343E+00  0.0000000000E+00
                       2.5365337780E+00  7.7008340799E+00  9.1371815991E+00
                       2.5365337780E+00  1.5940099887E+00  1.4054850635E+00
                       0.0000000000E+00  6.2414320230E+00  3.8658482678E+00
                       0.0000000000E+00  3.0534120456E+00  6.6768183948E+00
             xred      5.0000000000E-01  0.0000000000E+00  5.0000000000E-01
                       0.0000000000E+00  5.0000000000E-01  0.0000000000E+00
                       5.0000000000E-01  8.2850600000E-01  8.6668600000E-01
                       5.0000000000E-01  1.7149400000E-01  1.3331400000E-01
                       0.0000000000E+00  6.7149400000E-01  3.6668600000E-01
                       0.0000000000E+00  3.2850600000E-01  6.3331400000E-01
            znucl       26.00000   15.00000

- Timing analysis has been suppressed with timopt=0

 Suggested references for the acknowledgment of ABINIT usage.

 Calculation completed.
.Delivered  14 WARNINGs and   9 COMMENTs to log file.