.Version 9.7.2 of ABINIT

 ABINIT is a project of the Universite Catholique de Louvain,
 Corning Inc. and other collaborators, see ~abinit/doc/developers/contributors.txt .
 acknowledgments of the ABINIT effort.

.Starting date : Wed  1 Dec 2021.
- ( at 21h25 )

- input  file    -> /scratch/users/j/a/jabreu/flow_simple_remain_atoms/flow/w192/t1/run.abi
- output file    -> /scratch/users/j/a/jabreu/flow_simple_remain_atoms/flow/w192/t1/run.abo
- root for input  files -> /scratch/users/j/a/jabreu/flow_simple_remain_atoms/flow/w192/t1/indata/in
- root for output files -> /scratch/users/j/a/jabreu/flow_simple_remain_atoms/flow/w192/t1/outdata/out

 Symmetries : space group Fm -3 m (#225); Bravais cF (face-center cubic)
     intxc =       0      iscf =       7    lmnmax =      32     lnmax =       8
     mgfft =      80  mpssoang =       4    mqgrid =    3247     natom =       9
  nloc_mem =       1    nspden =       1   nspinor =       1    nsppol =       1
      nsym =      48    n1xccc =    2501    ntypat =       3    occopt =       1
   xclevel =       2
-    mband =          48        mffmem =           1         mkmem =           1
-   mkqmem =           1        mk1mem =           1           mpw =       23292
      nfft =      512000          nkpt =           1
  Rough estimation (10% accuracy) of disk space for files :

------------- Echo of variables that govern the present computation ------------
-
- outvars: echo of selected default values
-   iomode0 =  0 , fftalg0 =512 , wfoptalg0 =  0
-
- outvars: echo of global parameters not present in the input file
-  max_nthreads =    0
-
 -outvars: echo values of preprocessed input variables --------
            acell      1.0000000000E+00  1.0000000000E+00  1.0000000000E+00 Bohr
              amu      1.32905430E+02  1.95080000E+02  3.54527000E+01
             ecut      4.20000000E+01 Hartree
-          fftalg         512
           irdden           1
           irdwfk           1
           istwfk        1
              ixc     -116133
              kpt      5.00000000E-01  0.00000000E+00  5.00000000E-01
           kptopt           0
P           mkmem           1
P          mkqmem           1
P          mk1mem           1
            natom           9
            nband          48
           nbdbuf           4
            ngfft          80      80      80
             nkpt           1
            nstep        2000
             nsym          48
           ntypat           3
              occ      2.000000  2.000000  2.000000  2.000000  2.000000  2.000000
                       2.000000  2.000000  2.000000  2.000000  2.000000  2.000000
                       2.000000  2.000000  2.000000  2.000000  2.000000  2.000000
                       2.000000  2.000000  2.000000  2.000000  2.000000  2.000000
                       2.000000  2.000000  2.000000  2.000000  2.000000  2.000000
                       2.000000  2.000000  2.000000  2.000000  2.000000  2.000000
                       2.000000  2.000000  2.000000  0.000000  0.000000  0.000000
                       0.000000  0.000000  0.000000  0.000000  0.000000  0.000000
        optdriver           1
            prtwf          -1
            rfdir           1       1       1
           rfelfd           2
            rprim      1.1803986209E+01  0.0000000000E+00  6.8150346154E+00
                       3.9346620698E+00  1.1128904925E+01  6.8150346154E+00
                       0.0000000000E+00  0.0000000000E+00  1.3630069231E+01
          spgroup         225
           symrel      1  0  0   0  1  0   0  0  1      -1  0  0   0 -1  0   0  0 -1
                       0 -1  1   0 -1  0   1 -1  0       0  1 -1   0  1  0  -1  1  0
                      -1  0  0  -1  0  1  -1  1  0       1  0  0   1  0 -1   1 -1  0
                       0  1 -1   1  0 -1   0  0 -1       0 -1  1  -1  0  1   0  0  1
                      -1  0  0  -1  1  0  -1  0  1       1  0  0   1 -1  0   1  0 -1
                       0 -1  1   1 -1  0   0 -1  0       0  1 -1  -1  1  0   0  1  0
                       1  0  0   0  0  1   0  1  0      -1  0  0   0  0 -1   0 -1  0
                       0  1 -1   0  0 -1   1  0 -1       0 -1  1   0  0  1  -1  0  1
                      -1  0  1  -1  1  0  -1  0  0       1  0 -1   1 -1  0   1  0  0
                       0 -1  0   1 -1  0   0 -1  1       0  1  0  -1  1  0   0  1 -1
                       1  0 -1   0  0 -1   0  1 -1      -1  0  1   0  0  1   0 -1  1
                       0  1  0   0  0  1   1  0  0       0 -1  0   0  0 -1  -1  0  0
                       1  0 -1   0  1 -1   0  0 -1      -1  0  1   0 -1  1   0  0  1
                       0 -1  0   0 -1  1   1 -1  0       0  1  0   0  1 -1  -1  1  0
                      -1  0  1  -1  0  0  -1  1  0       1  0 -1   1  0  0   1 -1  0
                       0  1  0   1  0  0   0  0  1       0 -1  0  -1  0  0   0  0 -1
                       0  0 -1   0  1 -1   1  0 -1       0  0  1   0 -1  1  -1  0  1
                       1 -1  0   0 -1  1   0 -1  0      -1  1  0   0  1 -1   0  1  0
                       0  0  1   1  0  0   0  1  0       0  0 -1  -1  0  0   0 -1  0
                      -1  1  0  -1  0  0  -1  0  1       1 -1  0   1  0  0   1  0 -1
                       0  0  1   0  1  0   1  0  0       0  0 -1   0 -1  0  -1  0  0
                       1 -1  0   0 -1  0   0 -1  1      -1  1  0   0  1  0   0  1 -1
                       0  0 -1   1  0 -1   0  1 -1       0  0  1  -1  0  1   0 -1  1
                      -1  1  0  -1  0  1  -1  0  0       1 -1  0   1  0 -1   1  0  0
           tolwfr      1.00000000E-20
            typat      1  1  2  3  3  3  3  3  3
           useylm           1
           xangst      6.2464004725E+00  4.4168721321E+00  1.0819082983E+01
                       2.0821334908E+00  1.4722907107E+00  3.6063609942E+00
                       0.0000000000E+00  0.0000000000E+00  0.0000000000E+00
                       6.4316936961E+00  4.5478942270E+00  7.2127219885E+00
                       3.0305536244E+00  4.5478942270E+00  5.2490728525E+00
                       5.2979803389E+00  1.3412686158E+00  9.1763711244E+00
                       1.8968402672E+00  1.3412686158E+00  7.2127219885E+00
                       5.2979803389E+00  1.3412686158E+00  5.2490728525E+00
                       3.0305536244E+00  4.5478942270E+00  9.1763711244E+00
            xcart      1.1803986209E+01  8.3466786936E+00  2.0445103846E+01
                       3.9346620698E+00  2.7822262312E+00  6.8150346154E+00
                       0.0000000000E+00  0.0000000000E+00  0.0000000000E+00
                       1.2154139656E+01  8.5942745704E+00  1.3630069231E+01
                       5.7269163812E+00  8.5942745704E+00  9.9193101429E+00
                       1.0011731898E+01  2.5346303544E+00  1.7340828319E+01
                       3.5845086229E+00  2.5346303544E+00  1.3630069231E+01
                       1.0011731898E+01  2.5346303544E+00  9.9193101429E+00
                       5.7269163812E+00  8.5942745704E+00  1.7340828319E+01
             xred      7.5000000000E-01  7.5000000000E-01  7.5000000000E-01
                       2.5000000000E-01  2.5000000000E-01  2.5000000000E-01
                       0.0000000000E+00  0.0000000000E+00  0.0000000000E+00
                       7.7224800000E-01  7.7224800000E-01  2.2775200000E-01
                       2.2775200000E-01  7.7224800000E-01  2.2775200000E-01
                       7.7224800000E-01  2.2775200000E-01  7.7224800000E-01
                       2.2775200000E-01  2.2775200000E-01  7.7224800000E-01
                       7.7224800000E-01  2.2775200000E-01  2.2775200000E-01
                       2.2775200000E-01  7.7224800000E-01  7.7224800000E-01
            znucl       55.00000   78.00000   17.00000

 chkinp: Checking input parameters for consistency.

== DATASET  1 ==================================================================
-   mpi_nproc: 1, omp_nthreads: -1 (-1 if OMP is not activated)

--- !DatasetInfo
iteration_state: {dtset: 1, }
dimensions: {natom: 9, nkpt: 1, mband: 48, nsppol: 1, nspinor: 1, nspden: 1, mpw: 23292, }
cutoff_energies: {ecut:  42.0, pawecutdg:  -1.0, }
electrons: {nelect:   7.80000000E+01, charge:   0.00000000E+00, occopt:   1.00000000E+00, tsmear:   1.00000000E-02, }
meta: {optdriver: 1, rfelfd: 2, }
...

 Real(R)+Recip(G) space primitive vectors, cartesian coordinates (Bohr,Bohr^-1):
 R(1)= 11.8039862  0.0000000  6.8150346  G(1)=  0.0847171 -0.0299520  0.0000000
 R(2)=  3.9346621 11.1289049  6.8150346  G(2)=  0.0000000  0.0898561  0.0000000
 R(3)=  0.0000000  0.0000000 13.6300692  G(3)= -0.0423586 -0.0299520  0.0733672
 Unit cell volume ucvol=  1.7905200E+03 bohr^3
 Angles (23,13,12)=  6.00000000E+01  6.00000000E+01  6.00000000E+01 degrees

 getcut: wavevector=  0.0000  0.0000  0.0000  ngfft=  80  80  80
         ecut(hartree)=     42.000   => boxcut(ratio)=   2.01188

--- Pseudopotential description ------------------------------------------------
- pspini: atom type   1  psp file is /scratch/users/j/a/jabreu/pseudos/PBEsol/Cs.psp8
- pspatm: opening atomic psp file    /scratch/users/j/a/jabreu/pseudos/PBEsol/Cs.psp8
- Cs    ONCVPSP-3.3.0  r_core=   2.27353   1.85623   2.01788   1.90105
- 55.00000   9.00000    180112                znucl, zion, pspdat
    8 -116133    3    4       600   0.00000   pspcod,pspxc,lmax,lloc,mmax,r2well
    5.99000000000000    5.00000000000000    0.00000000000000   rchrg,fchrg,qchrg
     nproj     2     2     2     2
     extension_switch     1
  pspatm : epsatm=   22.12462445
         --- l  ekb(1:nproj) -->
             0    6.214110    0.767882
             1    6.311966    0.793598
             2    3.769790    0.913105
             3   -9.247129   -2.432478
 pspatm: atomic psp has been read  and splines computed

- pspini: atom type   2  psp file is /scratch/users/j/a/jabreu/pseudos/PBEsol/Pt.psp8
- pspatm: opening atomic psp file    /scratch/users/j/a/jabreu/pseudos/PBEsol/Pt.psp8
- Pt    ONCVPSP-3.3.0  r_core=   1.45722   1.45722   1.45722   1.91724
- 78.00000  18.00000    180112                znucl, zion, pspdat
    8 -116133    3    4       500   0.00000   pspcod,pspxc,lmax,lloc,mmax,r2well
    4.99000000000000    5.00000000000000    0.00000000000000   rchrg,fchrg,qchrg
     nproj     2     2     2     2
     extension_switch     1
  pspatm : epsatm=   26.54019552
         --- l  ekb(1:nproj) -->
             0   18.149684    1.747248
             1    8.048135    1.208190
             2    2.365973    0.348456
             3    3.491561    0.381218
 pspatm: atomic psp has been read  and splines computed

- pspini: atom type   3  psp file is /scratch/users/j/a/jabreu/pseudos/PBEsol/Cl.psp8
- pspatm: opening atomic psp file    /scratch/users/j/a/jabreu/pseudos/PBEsol/Cl.psp8
- Cl    ONCVPSP-3.3.0  r_core=   1.56009   1.35202   1.75774
- 17.00000   7.00000    180112                znucl, zion, pspdat
    8 -116133    2    4       600   0.00000   pspcod,pspxc,lmax,lloc,mmax,r2well
    5.99000000000000    8.00000000000000    0.00000000000000   rchrg,fchrg,qchrg
     nproj     2     2     2
     extension_switch     1
  pspatm : epsatm=    8.95520722
         --- l  ekb(1:nproj) -->
[...]
 The set of symmetries contains only one element for this perturbation.
 symkpt : not enough symmetry to change the number of k points.

 Initialisation of the first-order wave-functions :
  ireadwf=   0

--- !BeginCycle
iteration_state: {dtset: 1, }
solver: {iscf: 7, nstep: 2000, nline: 4, wfoptalg: 0, }
tolerances: {tolwfr: 1.00E-20, }
...

     iter   2DEtotal(Ha)        deltaE(Ha) residm    vres2
-ETOT  1  -24.478982938355     -2.448E+01 4.590E-02 0.000E+00
 ETOT  2  -24.508932663192     -2.995E-02 2.730E-03 0.000E+00
 ETOT  3  -24.509496824159     -5.642E-04 1.752E-04 0.000E+00
 ETOT  4  -24.509519925477     -2.310E-05 2.897E-05 0.000E+00
 ETOT  5  -24.509520979381     -1.054E-06 5.202E-06 0.000E+00
 ETOT  6  -24.509521035012     -5.563E-08 6.411E-07 0.000E+00
 ETOT  7  -24.509521038142     -3.131E-09 1.548E-07 0.000E+00
 ETOT  8  -24.509521038334     -1.916E-10 1.946E-08 0.000E+00
 ETOT  9  -24.509521038347     -1.247E-11 4.867E-09 0.000E+00
 ETOT 10  -24.509521038347     -8.171E-13 6.922E-10 0.000E+00
 ETOT 11  -24.509521038347     -7.816E-14 1.614E-10 0.000E+00
 ETOT 12  -24.509521038347      3.553E-15 2.384E-11 0.000E+00
 ETOT 13  -24.509521038347      3.553E-15 6.131E-12 0.000E+00
 ETOT 14  -24.509521038347     -1.421E-14 8.669E-13 0.000E+00
 ETOT 15  -24.509521038347      3.553E-15 2.361E-13 0.000E+00
 ETOT 16  -24.509521038347      3.197E-14 3.314E-14 0.000E+00
 ETOT 17  -24.509521038347      0.000E+00 9.181E-15 0.000E+00
 ETOT 18  -24.509521038347      0.000E+00 1.281E-15 0.000E+00
 ETOT 19  -24.509521038347      3.553E-15 3.598E-16 0.000E+00
 ETOT 20  -24.509521038347     -3.553E-15 4.986E-17 0.000E+00
 ETOT 21  -24.509521038347      3.553E-15 1.418E-17 0.000E+00
 ETOT 22  -24.509521038347     -1.066E-14 1.952E-18 0.000E+00
 ETOT 23  -24.509521038347      3.553E-15 5.612E-19 0.000E+00
 ETOT 24  -24.509521038347     -3.553E-15 7.672E-20 0.000E+00
 ETOT 25  -24.509521038347      3.553E-15 2.230E-20 0.000E+00
 ETOT 26  -24.509521038347      0.000E+00 9.693E-21 0.000E+00

 At SCF step   26   max residual=  9.69E-21 < tolwfr=  1.00E-20 =>converged.

 ----iterations are completed or convergence reached----

 dfpt_looppert: DFPT cycle converged with prtwf=-1. Will skip output of the 1st-order WFK file.
 dfpt_looppert : ek2=    4.9725535712E+01
          f-sum rule ratio=    9.8098202108E-01
 prteigrs : about to open file /scratch/users/j/a/jabreu/flow_simple_remain_atoms/flow/w192/t1/tmpdata/tmp_1WF1_EIG
 Expectation of eigenvalue derivatives (hartree) for nkpt=   1  k points:
  (in case of degenerate eigenvalues, averaged derivative)
 kpt#   1, nband= 48, wtk=  1.00000, kpt=  0.5000  0.0000  0.5000 (reduced coord)
   0.00000   -0.00000   -0.00000   -0.00000   -0.00000    0.00000    0.00000   -0.00000
  -0.00000    0.00000    0.00000    0.00000   -0.00000   -0.00000   -0.00000   -0.00000
  -0.00000   -0.00000   -0.00000    0.00000   -0.00000    0.00000   -0.00000   -0.00000
  -0.00000   -0.00000   -0.00000   -0.00000   -0.00000   -0.00000   -0.00000   -0.00000
  -0.00000   -0.00000   -0.00000   -0.00000    0.00000    0.00000    0.00000   -0.00000
   0.00000   -0.00000   -0.00000    0.00000   -0.00000    0.00000   -0.00000   -0.00001

 Eight components of 2nd-order total energy (hartree) are
 1,2,3: 0th-order hamiltonian combined with 1st-order wavefunctions
     kin0=   3.40989550E+01 eigvalue=   1.40060881E+00  local=  -2.08110989E+01
 4,5,6: 1st-order hamiltonian combined with 1st and 0th-order wfs
     kin1=  -4.87798565E+01  Hartree=   0.00000000E+00     xc=   0.00000000E+00
 7,8,9: eventually, occupation + non-local contributions
    edocc=   5.99818960E+00     enl0=   3.82286652E+00   enl1=  -2.39185555E-01
 1-9 gives the relaxation energy (to be shifted if some occ is /=2.0)
   erelax=  -2.45095210E+01
  No Ewald or frozen-wf contrib.: the relaxation energy is the total one
 2DEtotal=   -0.2450952104E+02 Ha. Also 2DEtotal=   -0.666937985199E+03 eV
    (  non-var. 2DEtotal :   -2.4509521038E+01 Ha)

 CALCULATION OF EFFECTIVE MASSES
 NOTE : Additional infos (eff. mass eigenvalues, eigenvectors and, if degenerate, average mass) are available in stdout.

 COMMENTS:
 - At k-point ( 0.500, 0.000, 0.500), bands    38 through    39
   are DEGENERATE (effective mass tensor is therefore not defined).
   See Section IIIB Eqs. (67)-(70) and Appendix E of PRB 93 205147 (2016).
 - Angular average effective mass for Frohlich model is to be averaged over degenerate bands. See later.
 - Associated theta integrals calculated with ntheta=   1000 points.

 K-point ( 0.500, 0.000, 0.500) | band =    38
 Transport equivalent effective mass tensor:
             -2.2470753011              0.5674057246             -0.6949272413
              0.5674057246             -2.6482917219              0.9827755177
             -0.6949272413              0.9827755177             -3.0495081189
 Transport equivalent effective mass tensor eigenvalues:
             -4.2531574205             -1.8458588608             -1.8458588606
 Angular average effective mass 1/(<1/m>)=  -2.2167860192
 Angular average effective mass for Frohlich model (<m**0.5>)**2=  -2.3066925464
 Effective masses along directions: (cart. coord. / red. coord. -> eff. mass)
    1:   1.000000  0.000000  0.000000 /   0.948683  0.316228  0.000000 ->  -2.0283088120
    2:   0.000000  1.000000  0.000000 /   0.000000  1.000000  0.000000 ->  -2.4194071584
    3:   0.000000  0.000000  1.000000 /   0.408248  0.408248  0.816497 ->  -2.3564984944
    4:   0.577350  0.577350  0.577350 /   0.585539  0.688047  0.428644 ->  -2.0168112959
    5:   0.000000  0.707107  0.707107 /   0.289489  0.762222  0.578977 ->  -1.8215415594
    6:   0.707107  0.000000  0.707107 /   0.731423  0.422287  0.535439 ->  -2.7330810437
    7:   0.707107  0.707107  0.000000 /   0.616798  0.787122  0.000000 ->  -1.6818564399

 K-point ( 0.500, 0.000, 0.500) | band =    39
 Transport equivalent effective mass tensor:
            -12.4088842951             -1.1522180032              1.4111730767
             -1.1522180032            -11.5941431510             -1.9957000874
              1.4111730767             -1.9957000874            -10.7794020355
 Transport equivalent effective mass tensor eigenvalues:
            -13.2236254651            -13.2236254619             -8.3351785546
 Angular average effective mass 1/(<1/m>)=  -6.2037416982
 Angular average effective mass for Frohlich model (<m**0.5>)**2=  -6.6722547236
 Effective masses along directions: (cart. coord. / red. coord. -> eff. mass)
    1:   1.000000  0.000000  0.000000 /   0.948683  0.316228  0.000000 ->  -6.6539322980
    2:   0.000000  1.000000  0.000000 /   0.000000  1.000000  0.000000 ->  -5.0258282777
    3:   0.000000  0.000000  1.000000 /   0.408248  0.408248  0.816497 ->  -6.3724273507
    4:   0.577350  0.577350  0.577350 /   0.585539  0.688047  0.428644 ->  -6.2291452129
    5:   0.000000  0.707107  0.707107 /   0.289489  0.762222  0.578977 ->  -8.0795849051
    6:   0.707107  0.000000  0.707107 /   0.731423  0.422287  0.535439 ->  -5.1895573930
    7:   0.707107  0.707107  0.000000 /   0.616798  0.787122  0.000000 -> -12.9736634152

 Angular average effective mass for Frohlich model, averaged over degenerate bands.
 Value of     (<<m**0.5>>)**2 =     4.206295E+00
 Absolute Value of <<m**0.5>> =     2.050925E+00

 K-point ( 0.500, 0.000, 0.500) | band =    40
 Effective mass tensor:
              0.8681559165              0.0388240642             -0.0475495734
              0.0388240642              0.8407031575              0.0672452515
             -0.0475495734              0.0672452515              0.8132503985
 Effective mass tensor eigenvalues:
              0.7308921215              0.8956086754              0.8956086756
 Angular average effective mass 1/(<1/m>)=   0.8330304037
 Angular average effective mass for Frohlich model (<m**0.5>)**2=   0.8354049780
 Effective masses along directions: (cart. coord. / red. coord. -> eff. mass)
    1:   1.000000  0.000000  0.000000 /   0.948683  0.316228  0.000000 ->   0.8631868451
    2:   0.000000  1.000000  0.000000 /   0.000000  1.000000  0.000000 ->   0.8330304037
    3:   0.000000  0.000000  1.000000 /   0.408248  0.408248  0.816497 ->   0.8049099344
    4:   0.577350  0.577350  0.577350 /   0.585539  0.688047  0.428644 ->   0.8765491841
    5:   0.000000  0.707107  0.707107 /   0.289489  0.762222  0.578977 ->   0.8939127474
    6:   0.707107  0.000000  0.707107 /   0.731423  0.422287  0.535439 ->   0.7854989070
    7:   0.707107  0.707107  0.000000 /   0.616798  0.787122  0.000000 ->   0.8927321217

 END OF EFFECTIVE MASSES SECTION

 ---- first-order wavefunction calculations are completed ----

 Total localisation tensor (bohr^2) in cartesian coordinates
  WARNING : still subject to testing - especially symmetries.
      direction              matrix element
   alpha     beta       real part   imaginary part
     1        1       1.2060854291    0.0000000000
     1        2       0.3411324755    0.0000000000
     1        3       0.8356004971    0.0000000000
     2        1       0.3411324755    0.0000000000
     2        2       0.9648683469    0.0000000000
     2        3       0.5908587797    0.0000000000
     3        1       0.8356004971    0.0000000000
     3        2       0.5908587797    0.0000000000
     3        3       2.1709537605    0.0000000000

 respfn : d/dk was computed, but no 2DTE, so no DDB output.

== END DATASET(S) ==============================================================

 -outvars: echo values of variables after computation  --------
            acell      1.0000000000E+00  1.0000000000E+00  1.0000000000E+00 Bohr
              amu      1.32905430E+02  1.95080000E+02  3.54527000E+01
             ecut      4.20000000E+01 Hartree
           etotal     -2.4509521038E+01
            fcart      0.0000000000E+00  0.0000000000E+00  0.0000000000E+00
                       0.0000000000E+00  0.0000000000E+00  0.0000000000E+00
                       0.0000000000E+00  0.0000000000E+00  0.0000000000E+00
                       0.0000000000E+00  0.0000000000E+00  0.0000000000E+00
                       0.0000000000E+00  0.0000000000E+00  0.0000000000E+00
                       0.0000000000E+00  0.0000000000E+00  0.0000000000E+00
                       0.0000000000E+00  0.0000000000E+00  0.0000000000E+00
                       0.0000000000E+00  0.0000000000E+00  0.0000000000E+00
                       0.0000000000E+00  0.0000000000E+00  0.0000000000E+00
-          fftalg         512
           irdden           1
           irdwfk           1
           istwfk        1
              ixc     -116133
              kpt      5.00000000E-01  0.00000000E+00  5.00000000E-01
           kptopt           0
P           mkmem           1
P          mkqmem           1
P          mk1mem           1
            natom           9
            nband          48
           nbdbuf           4
            ngfft          80      80      80
             nkpt           1
            nstep        2000
             nsym          48
           ntypat           3
              occ      2.000000  2.000000  2.000000  2.000000  2.000000  2.000000
                       2.000000  2.000000  2.000000  2.000000  2.000000  2.000000
                       2.000000  2.000000  2.000000  2.000000  2.000000  2.000000
                       2.000000  2.000000  2.000000  2.000000  2.000000  2.000000
                       2.000000  2.000000  2.000000  2.000000  2.000000  2.000000
                       2.000000  2.000000  2.000000  2.000000  2.000000  2.000000
                       2.000000  2.000000  2.000000  0.000000  0.000000  0.000000
                       0.000000  0.000000  0.000000  0.000000  0.000000  0.000000
        optdriver           1
            prtwf          -1
            rfdir           1       1       1
           rfelfd           2
            rprim      1.1803986209E+01  0.0000000000E+00  6.8150346154E+00
                       3.9346620698E+00  1.1128904925E+01  6.8150346154E+00
                       0.0000000000E+00  0.0000000000E+00  1.3630069231E+01
          spgroup         225
           strten      0.0000000000E+00  0.0000000000E+00  0.0000000000E+00
                       0.0000000000E+00  0.0000000000E+00  0.0000000000E+00
           symrel      1  0  0   0  1  0   0  0  1      -1  0  0   0 -1  0   0  0 -1
                       0 -1  1   0 -1  0   1 -1  0       0  1 -1   0  1  0  -1  1  0
                      -1  0  0  -1  0  1  -1  1  0       1  0  0   1  0 -1   1 -1  0
                       0  1 -1   1  0 -1   0  0 -1       0 -1  1  -1  0  1   0  0  1
                      -1  0  0  -1  1  0  -1  0  1       1  0  0   1 -1  0   1  0 -1
                       0 -1  1   1 -1  0   0 -1  0       0  1 -1  -1  1  0   0  1  0
                       1  0  0   0  0  1   0  1  0      -1  0  0   0  0 -1   0 -1  0
                       0  1 -1   0  0 -1   1  0 -1       0 -1  1   0  0  1  -1  0  1
                      -1  0  1  -1  1  0  -1  0  0       1  0 -1   1 -1  0   1  0  0
                       0 -1  0   1 -1  0   0 -1  1       0  1  0  -1  1  0   0  1 -1
                       1  0 -1   0  0 -1   0  1 -1      -1  0  1   0  0  1   0 -1  1
                       0  1  0   0  0  1   1  0  0       0 -1  0   0  0 -1  -1  0  0
                       1  0 -1   0  1 -1   0  0 -1      -1  0  1   0 -1  1   0  0  1
                       0 -1  0   0 -1  1   1 -1  0       0  1  0   0  1 -1  -1  1  0
                      -1  0  1  -1  0  0  -1  1  0       1  0 -1   1  0  0   1 -1  0
                       0  1  0   1  0  0   0  0  1       0 -1  0  -1  0  0   0  0 -1
                       0  0 -1   0  1 -1   1  0 -1       0  0  1   0 -1  1  -1  0  1
                       1 -1  0   0 -1  1   0 -1  0      -1  1  0   0  1 -1   0  1  0
                       0  0  1   1  0  0   0  1  0       0  0 -1  -1  0  0   0 -1  0
                      -1  1  0  -1  0  0  -1  0  1       1 -1  0   1  0  0   1  0 -1
                       0  0  1   0  1  0   1  0  0       0  0 -1   0 -1  0  -1  0  0
                       1 -1  0   0 -1  0   0 -1  1      -1  1  0   0  1  0   0  1 -1
                       0  0 -1   1  0 -1   0  1 -1       0  0  1  -1  0  1   0 -1  1
                      -1  1  0  -1  0  1  -1  0  0       1 -1  0   1  0 -1   1  0  0
           tolwfr      1.00000000E-20
            typat      1  1  2  3  3  3  3  3  3
           useylm           1
           xangst      6.2464004725E+00  4.4168721321E+00  1.0819082983E+01
                       2.0821334908E+00  1.4722907107E+00  3.6063609942E+00
                       0.0000000000E+00  0.0000000000E+00  0.0000000000E+00
                       6.4316936961E+00  4.5478942270E+00  7.2127219885E+00
                       3.0305536244E+00  4.5478942270E+00  5.2490728525E+00
                       5.2979803389E+00  1.3412686158E+00  9.1763711244E+00
                       1.8968402672E+00  1.3412686158E+00  7.2127219885E+00
                       5.2979803389E+00  1.3412686158E+00  5.2490728525E+00
                       3.0305536244E+00  4.5478942270E+00  9.1763711244E+00
            xcart      1.1803986209E+01  8.3466786936E+00  2.0445103846E+01
                       3.9346620698E+00  2.7822262312E+00  6.8150346154E+00
                       0.0000000000E+00  0.0000000000E+00  0.0000000000E+00
                       1.2154139656E+01  8.5942745704E+00  1.3630069231E+01
                       5.7269163812E+00  8.5942745704E+00  9.9193101429E+00
                       1.0011731898E+01  2.5346303544E+00  1.7340828319E+01
                       3.5845086229E+00  2.5346303544E+00  1.3630069231E+01
                       1.0011731898E+01  2.5346303544E+00  9.9193101429E+00
                       5.7269163812E+00  8.5942745704E+00  1.7340828319E+01
             xred      7.5000000000E-01  7.5000000000E-01  7.5000000000E-01
                       2.5000000000E-01  2.5000000000E-01  2.5000000000E-01
                       0.0000000000E+00  0.0000000000E+00  0.0000000000E+00
                       7.7224800000E-01  7.7224800000E-01  2.2775200000E-01
                       2.2775200000E-01  7.7224800000E-01  2.2775200000E-01
                       7.7224800000E-01  2.2775200000E-01  7.7224800000E-01
                       2.2775200000E-01  2.2775200000E-01  7.7224800000E-01
                       7.7224800000E-01  2.2775200000E-01  2.2775200000E-01
                       2.2775200000E-01  7.7224800000E-01  7.7224800000E-01
            znucl       55.00000   78.00000   17.00000

- Timing analysis has been suppressed with timopt=0

 Suggested references for the acknowledgment of ABINIT usage.

 Calculation completed.
.Delivered   2 WARNINGs and   5 COMMENTs to log file.