.Version 9.5.2 of ABINIT

 ABINIT is a project of the Universite Catholique de Louvain,
 Corning Inc. and other collaborators, see ~abinit/doc/developers/contributors.txt .
 acknowledgments of the ABINIT effort.

.Starting date : Mon 24 May 2021.
- ( at 11h50 )

- input  file    -> /scratch/users/j/a/jabreu/flow_simple_10atoms/flow/w340/t1/run.abi
- output file    -> /scratch/users/j/a/jabreu/flow_simple_10atoms/flow/w340/t1/run.abo
- root for input  files -> /scratch/users/j/a/jabreu/flow_simple_10atoms/flow/w340/t1/indata/in
- root for output files -> /scratch/users/j/a/jabreu/flow_simple_10atoms/flow/w340/t1/outdata/out

 Symmetries : space group R-3 c (#167); Bravais hR (rhombohedral)
     intxc =       0      iscf =       7    lmnmax =      32     lnmax =       8
     mgfft =      72  mpssoang =       4    mqgrid =    3001     natom =      10
  nloc_mem =       1    nspden =       1   nspinor =       1    nsppol =       1
      nsym =      12    n1xccc =    2501    ntypat =       3    occopt =       1
   xclevel =       2
-    mband =          41        mffmem =           1         mkmem =           2
-   mkqmem =           2        mk1mem =           2           mpw =       13053
      nfft =      373248          nkpt =           2
  Rough estimation (10% accuracy) of disk space for files :

------------- Echo of variables that govern the present computation ------------
-
- outvars: echo of selected default values
-   iomode0 =  0 , fftalg0 =512 , wfoptalg0 =  0
-
- outvars: echo of global parameters not present in the input file
-  max_nthreads =    0
-
 -outvars: echo values of preprocessed input variables --------
            acell      1.0000000000E+00  1.0000000000E+00  1.0000000000E+00 Bohr
              amu      1.38905500E+02  2.69815390E+01  1.59994000E+01
             ecut      5.20000000E+01 Hartree
-          fftalg         512
           irdden           1
           irdwfk           1
           istwfk        1    1
              ixc     -116133
              kpt      5.00000000E-01  5.00000000E-01  0.00000000E+00
                       0.00000000E+00  0.00000000E+00  0.00000000E+00
           kptopt           0
P           mkmem           2
P          mkqmem           2
P          mk1mem           2
            natom          10
            nband          41
           nbdbuf           4
            ngfft          72      72      72
             nkpt           2
            nstep        2000
             nsym          12
           ntypat           3
              occ      2.000000  2.000000  2.000000  2.000000  2.000000  2.000000
                       2.000000  2.000000  2.000000  2.000000  2.000000  2.000000
                       2.000000  2.000000  2.000000  2.000000  2.000000  2.000000
                       2.000000  2.000000  2.000000  2.000000  2.000000  2.000000
                       2.000000  2.000000  2.000000  2.000000  2.000000  2.000000
                       2.000000  2.000000  0.000000  0.000000  0.000000  0.000000
                       0.000000  0.000000  0.000000  0.000000  0.000000
        optdriver           1
            prtwf          -1
            rfdir           1       1       1
           rfelfd           2
            rprim      8.7415282382E+00  0.0000000000E+00  5.0040204012E+00
                       2.9013915808E+00  8.2459834365E+00  5.0040204012E+00
                       0.0000000000E+00  0.0000000000E+00  1.0072464252E+01
          spgroup         167
           symrel      1  0  0   0  1  0   0  0  1      -1  0  0   0 -1  0   0  0 -1
                       0  1  0   1  0  0   0  0  1       0 -1  0  -1  0  0   0  0 -1
                       0  0  1   1  0  0   0  1  0       0  0 -1  -1  0  0   0 -1  0
                       1  0  0   0  0  1   0  1  0      -1  0  0   0  0 -1   0 -1  0
                       0  1  0   0  0  1   1  0  0       0 -1  0   0  0 -1  -1  0  0
                       0  0  1   0  1  0   1  0  0       0  0 -1   0 -1  0  -1  0  0
            tnons      0.0000000  0.0000000  0.0000000     0.0000000  0.0000000  0.0000000
                       0.5000000  0.5000000  0.5000000     0.5000000  0.5000000  0.5000000
                      -0.0000000  0.0000000  0.0000000     0.0000000  0.0000000  0.0000000
                       0.5000000  0.5000000  0.5000000     0.5000000  0.5000000  0.5000000
                      -0.0000000  0.0000000  0.0000000     0.0000000  0.0000000  0.0000000
                       0.5000000  0.5000000  0.5000000     0.5000000  0.5000000  0.5000000
           tolwfr      1.00000000E-20
            typat      1  1  2  2  3  3  3  3  3  3
           useylm           1
              wtk        0.50000    0.50000
           xangst      1.5402919524E+00  1.0908966243E+00  2.6565364030E+00
                       4.6208758572E+00  3.2726898728E+00  7.9696092090E+00
                       3.0805839048E+00  2.1817932485E+00  5.3130728060E+00
                       0.0000000000E+00  0.0000000000E+00  0.0000000000E+00
                       2.2529585708E+00  3.1163512957E+00  6.7416968920E+00
                       4.0189344982E+00  1.0908966243E+00  6.5495079783E+00
                       4.5101505979E+00  3.4290284498E+00  5.3045499506E+00
                       3.9082092388E+00  1.2472352013E+00  3.8844487200E+00
                       1.6510172118E+00  9.3455804724E-01  5.3215956613E+00
                       2.1422333115E+00  3.2726898728E+00  4.0766376336E+00
            xcart      2.9107299548E+00  2.0614958591E+00  5.0201262637E+00
                       8.7321898643E+00  6.1844875774E+00  1.5060378791E+01
                       5.8214599095E+00  4.1229917183E+00  1.0040252527E+01
                       0.0000000000E+00  0.0000000000E+00  0.0000000000E+00
                       4.2574746876E+00  5.8890504828E+00  1.2739960797E+01
                       7.5946855476E+00  2.0614958591E+00  1.2376776384E+01
                       8.5229494481E+00  6.4799246719E+00  1.0024146665E+01
                       7.3854451314E+00  2.3569329537E+00  7.3405442580E+00
                       3.1199703709E+00  1.7660587646E+00  1.0056358390E+01
                       4.0482342714E+00  6.1844875774E+00  7.7037286706E+00
             xred      2.5000000000E-01  2.5000000000E-01  2.5000000000E-01
                       7.5000000000E-01  7.5000000000E-01  7.5000000000E-01
                       5.0000000000E-01  5.0000000000E-01  5.0000000000E-01
                       0.0000000000E+00  0.0000000000E+00  0.0000000000E+00
                       2.5000000000E-01  7.1417200000E-01  7.8582800000E-01
                       7.8582800000E-01  2.5000000000E-01  7.1417200000E-01
                       7.1417200000E-01  7.8582800000E-01  2.5000000000E-01
                       7.5000000000E-01  2.8582800000E-01  2.1417200000E-01
                       2.8582800000E-01  2.1417200000E-01  7.5000000000E-01
                       2.1417200000E-01  7.5000000000E-01  2.8582800000E-01
            znucl       57.00000   13.00000    8.00000

 chkinp: Checking input parameters for consistency.

== DATASET  1 ==================================================================
-   mpi_nproc: 1, omp_nthreads: -1 (-1 if OMP is not activated)

--- !DatasetInfo
iteration_state: {dtset: 1, }
dimensions: {natom: 10, nkpt: 2, mband: 41, nsppol: 1, nspinor: 1, nspden: 1, mpw: 13053, }
cutoff_energies: {ecut:  52.0, pawecutdg:  -1.0, }
electrons: {nelect:   6.40000000E+01, charge:   0.00000000E+00, occopt:   1.00000000E+00, tsmear:   1.00000000E-02, }
meta: {optdriver: 1, rfelfd: 2, }
...

 Real(R)+Recip(G) space primitive vectors, cartesian coordinates (Bohr,Bohr^-1):
 R(1)=  8.7415282  0.0000000  5.0040204  G(1)=  0.1143965 -0.0402510  0.0000000
 R(2)=  2.9013916  8.2459834  5.0040204  G(2)=  0.0000000  0.1212712  0.0000000
 R(3)=  0.0000000  0.0000000 10.0724643  G(3)= -0.0568324 -0.0402510  0.0992806
 Unit cell volume ucvol=  7.2604837E+02 bohr^3
 Angles (23,13,12)=  6.02113533E+01  6.02113533E+01  6.02113533E+01 degrees

 getcut: wavevector=  0.0000  0.0000  0.0000  ngfft=  72  72  72
         ecut(hartree)=     52.000   => boxcut(ratio)=   2.20209

 getcut : COMMENT -
  Note that boxcut > 2.2 ; recall that boxcut=Gcut(box)/Gcut(sphere) = 2
  is sufficient for exact treatment of convolution.
  Such a large boxcut is a waste : you could raise ecut
  e.g. ecut=   63.039410 Hartrees makes boxcut=2

--- Pseudopotential description ------------------------------------------------
- pspini: atom type   1  psp file is /scratch/users/j/a/jabreu/pseudos/PBEsol/La.psp8
- pspatm: opening atomic psp file    /scratch/users/j/a/jabreu/pseudos/PBEsol/La.psp8
- La    ONCVPSP-3.3.0  r_core=   2.11664   1.60878   1.85636   1.66739
- 57.00000  11.00000    180112                znucl, zion, pspdat
    8 -116133    3    4       600   0.00000   pspcod,pspxc,lmax,lloc,mmax,r2well
    5.99000000000000    5.00000000000000    0.00000000000000   rchrg,fchrg,qchrg
     nproj     2     2     2     2
     extension_switch     1
  pspatm : epsatm=   29.08531775
         --- l  ekb(1:nproj) -->
             0    6.695600    0.639047
             1    6.383649    1.151322
             2    3.612966    0.847811
             3  -13.718437   -4.858923
 pspatm: atomic psp has been read  and splines computed

- pspini: atom type   2  psp file is /scratch/users/j/a/jabreu/pseudos/PBEsol/Al.psp8
- pspatm: opening atomic psp file    /scratch/users/j/a/jabreu/pseudos/PBEsol/Al.psp8
- Al    ONCVPSP-3.3.0  r_core=   1.76802   1.76802   1.70587
- 13.00000   3.00000    180112                znucl, zion, pspdat
    8 -116133    2    4       600   0.00000   pspcod,pspxc,lmax,lloc,mmax,r2well
    5.99000000000000    5.00000000000000    0.00000000000000   rchrg,fchrg,qchrg
     nproj     2     2     2
     extension_switch     1
  pspatm : epsatm=    0.68509324
         --- l  ekb(1:nproj) -->
             0    5.834965    0.726662
             1    6.225605    0.924840
             2   -2.432733   -0.548689
 pspatm: atomic psp has been read  and splines computed

- pspini: atom type   3  psp file is /scratch/users/j/a/jabreu/pseudos/PBEsol/O.psp8
- pspatm: opening atomic psp file    /scratch/users/j/a/jabreu/pseudos/PBEsol/O.psp8
- O     ONCVPSP-3.3.0  r_core=   1.35509   1.45563   1.26150
-  8.00000   6.00000    180112                znucl, zion, pspdat
    8 -116133    2    4       600   0.00000   pspcod,pspxc,lmax,lloc,mmax,r2well
    5.99000000000000    4.00000000000000    0.00000000000000   rchrg,fchrg,qchrg
     nproj     2     2     1
     extension_switch     1
  pspatm : epsatm=    6.22910522
         --- l  ekb(1:nproj) -->
             0    6.050032    0.820363
             1   -4.739617   -1.153841
             2   -1.335834
 pspatm: atomic psp has been read  and splines computed

   6.20258901E+03                                ecore*ucvol(ha*bohr**3)

 ==>  initialize data related to q vector <==

 The list of irreducible perturbations for this q vector is:
    1)    idir= 1    ipert=  11
    2)    idir= 2    ipert=  11
    3)    idir= 3    ipert=  11

 Perturbation wavevector (in red.coord.)   0.000000  0.000000  0.000000
[...]
 ETOT 34  -43.768696385121     -4.192E-13 3.296E-05 0.000E+00
 ETOT 35  -43.768696385121     -2.132E-13 3.582E-05 0.000E+00
 ETOT 36  -43.768696385121     -9.948E-14 2.268E-05 0.000E+00
 ETOT 37  -43.768696385121     -4.974E-14 2.887E-05 0.000E+00
 ETOT 38  -43.768696385121      3.553E-14 1.829E-05 0.000E+00
 ETOT 39  -43.768696385121     -6.395E-14 2.328E-05 0.000E+00
 ETOT 40  -43.768696385121     -3.553E-14 1.476E-05 0.000E+00
 ETOT 41  -43.768696385121     -7.105E-15 1.878E-05 0.000E+00
 ETOT 42  -43.768696385121      7.105E-15 1.192E-05 0.000E+00
 ETOT 43  -43.768696385121     -7.105E-15 1.516E-05 0.000E+00
 ETOT 44  -43.768696385121      2.132E-14 9.620E-06 0.000E+00
 ETOT 45  -43.768696385122     -3.553E-14 1.224E-05 0.000E+00
 ETOT 46  -43.768696385121      1.421E-14 7.768E-06 0.000E+00
 ETOT 47  -43.768696385121      0.000E+00 9.893E-06 0.000E+00
 ETOT 48  -43.768696385121      2.132E-14 6.274E-06 0.000E+00
 ETOT 49  -43.768696385121     -7.105E-15 7.997E-06 0.000E+00
 ETOT 50  -43.768696385121      1.421E-14 5.068E-06 0.000E+00
 ETOT 51  -43.768696385121     -7.105E-15 6.466E-06 0.000E+00
 ETOT 52  -43.768696385121      0.000E+00 4.095E-06 0.000E+00
 ETOT 53  -43.768696385122     -2.842E-14 5.231E-06 0.000E+00
 ETOT 54  -43.768696385121      2.132E-14 3.310E-06 0.000E+00
 ETOT 55  -43.768696385121      0.000E+00 4.233E-06 0.000E+00
 ETOT 56  -43.768696385121      7.105E-15 2.675E-06 0.000E+00
 ETOT 57  -43.768696385121     -2.132E-14 3.427E-06 0.000E+00
 ETOT 58  -43.768696385122     -1.421E-14 2.163E-06 0.000E+00
 ETOT 59  -43.768696385121      2.132E-14 2.775E-06 0.000E+00
 ETOT 60  -43.768696385121      0.000E+00 1.802E-06 0.000E+00
 ETOT 61  -43.768696385122     -2.132E-14 2.247E-06 0.000E+00
[...]
 ETOT 1071  -43.768696385122     -7.105E-15 1.455E-20 0.000E+00
 ETOT 1072  -43.768696385121      7.105E-15 1.895E-20 0.000E+00
 ETOT 1073  -43.768696385122     -7.105E-15 1.371E-20 0.000E+00
 ETOT 1074  -43.768696385121      2.132E-14 1.786E-20 0.000E+00
 ETOT 1075  -43.768696385121      0.000E+00 1.292E-20 0.000E+00
 ETOT 1076  -43.768696385121     -1.421E-14 1.682E-20 0.000E+00
 ETOT 1077  -43.768696385121      7.105E-15 1.217E-20 0.000E+00
 ETOT 1078  -43.768696385121      7.105E-15 1.585E-20 0.000E+00
 ETOT 1079  -43.768696385122     -2.842E-14 1.147E-20 0.000E+00
 ETOT 1080  -43.768696385121      2.842E-14 1.494E-20 0.000E+00
 ETOT 1081  -43.768696385121     -1.421E-14 1.081E-20 0.000E+00
 ETOT 1082  -43.768696385122     -2.132E-14 1.408E-20 0.000E+00
 ETOT 1083  -43.768696385121      2.132E-14 1.018E-20 0.000E+00
 ETOT 1084  -43.768696385122     -1.421E-14 1.326E-20 0.000E+00
 ETOT 1085  -43.768696385122     -7.105E-15 9.961E-21 0.000E+00

 At SCF step 1085   max residual=  9.96E-21 < tolwfr=  1.00E-20 =>converged.

 ----iterations are completed or convergence reached----

 dfpt_looppert: DFPT cycle converged with prtwf=-1. Will skip output of the 1st-order WFK file.
 dfpt_looppert : ek2=    7.4316421653E+01
          f-sum rule ratio=    1.1465110855E+00
 prteigrs : about to open file /scratch/users/j/a/jabreu/flow_simple_10atoms/flow/w340/t1/tmpdata/tmp_1WF1_EIG
 Expectation of eigenvalue derivatives (hartree) for nkpt=   2  k points:
  (in case of degenerate eigenvalues, averaged derivative)
 kpt#   1, nband= 41, wtk=  0.50000, kpt=  0.5000  0.5000  0.0000 (reduced coord)
   0.00000    0.00000    0.00000   -0.00000   -0.00000    0.00000   -0.00000    0.00000
  -0.00000    0.00000   -0.00000   -0.00000    0.00000   -0.00000   -0.00000    0.00000
  -0.00000    0.00000   -0.00000    0.00000    0.00000   -0.00000   -0.00000   -0.00000
  -0.00000    0.00000   -0.00000   -0.00000   -0.00000   -0.00000   -0.00000   -0.00000
   0.00000   -0.00000    0.00000    0.00000   -0.00000    0.00000   -0.00000   -0.00001
   0.00000
 prteigrs : prtvol=0 or 1, do not print more k-points.

 Eight components of 2nd-order total energy (hartree) are
 1,2,3: 0th-order hamiltonian combined with 1st-order wavefunctions
     kin0=   1.01067458E+02 eigvalue=  -1.09610093E+01  local=  -5.07067487E+01
 4,5,6: 1st-order hamiltonian combined with 1st and 0th-order wfs
     kin1=  -8.52046013E+01  Hartree=   0.00000000E+00     xc=   0.00000000E+00
 7,8,9: eventually, occupation + non-local contributions
    edocc=   2.42181955E+00     enl0=   1.94717668E+00   enl1=  -2.33279151E+00
 1-9 gives the relaxation energy (to be shifted if some occ is /=2.0)
   erelax=  -4.37686964E+01
  No Ewald or frozen-wf contrib.: the relaxation energy is the total one
 2DEtotal=   -0.4376869639E+02 Ha. Also 2DEtotal=   -0.119100679839E+04 eV
    (  non-var. 2DEtotal :   -4.3768696385E+01 Ha)

 CALCULATION OF EFFECTIVE MASSES
 NOTE : Additional infos (eff. mass eigenvalues, eigenvectors and, if degenerate, average mass) are available in stdout.

 K-point ( 0.500, 0.500, 0.000) | band =    32
 Effective mass tensor:
             -5.0521727101             -2.6403715861             -0.2241996373
             -2.6403715861             -3.1941158183             -0.1587871990
             -0.2241996373             -0.1587871990             -1.0414215254
 Effective mass tensor eigenvalues:
             -6.9349967815             -1.3240987186             -1.0286145536
 Angular average effective mass 1/(<1/m>)=  -1.6028994669
 Angular average effective mass for Frohlich model (<m**0.5>)**2=  -1.8455047926
 Effective masses along directions: (cart. coord. / red. coord. -> eff. mass)
    1:   1.000000  0.000000  0.000000 /   0.949088  0.315011  0.000000 ->  -2.8611884191
    2:   0.000000  1.000000  0.000000 /   0.000000  1.000000  0.000000 ->  -1.8125231342
    3:   0.000000  0.000000  1.000000 /   0.406502  0.406502  0.818237 ->  -1.0305176274
    4:   0.577350  0.577350  0.577350 /   0.585441  0.687909  0.428999 ->  -2.5220083924
    5:   0.000000  0.707107  0.707107 /   0.287922  0.762380  0.579550 ->  -1.3535608750
    6:   0.707107  0.000000  0.707107 /   0.731716  0.420828  0.536187 ->  -1.5910488039
    7:   0.707107  0.707107  0.000000 /   0.617074  0.786905  0.000000 ->  -6.1252000528

 COMMENTS:
 - At k-point ( 0.000, 0.000, 0.000), bands    33 through    34
   are DEGENERATE (effective mass tensor is therefore not defined).
   See Section IIIB Eqs. (67)-(70) and Appendix E of PRB 93 205147 (2016).
 - Angular average effective mass for Frohlich model is to be averaged over degenerate bands. See later.
 - Associated theta integrals calculated with ntheta=   1000 points.

 K-point ( 0.000, 0.000, 0.000) | band =    33
 Transport equivalent effective mass tensor:
              0.9279657000              0.0060512715              0.0137961863
              0.0060512715              0.9285565487              0.0106356424
              0.0137961863              0.0106356424              0.9484370442
 Transport equivalent effective mass tensor eigenvalues:
              0.9601139410              0.9239399886              0.9209053633
 Angular average effective mass 1/(<1/m>)=   0.9105098683
 Angular average effective mass for Frohlich model (<m**0.5>)**2=   0.9121982564
 Effective masses along directions: (cart. coord. / red. coord. -> eff. mass)
    1:   1.000000  0.000000  0.000000 /   0.949088  0.315011  0.000000 ->   0.9516534262
    2:   0.000000  1.000000  0.000000 /   0.000000  1.000000  0.000000 ->   0.9378302906
    3:   0.000000  0.000000  1.000000 /   0.406502  0.406502  0.818237 ->   0.9619813238
    4:   0.577350  0.577350  0.577350 /   0.585441  0.687909  0.428999 ->   0.8937577997
    5:   0.000000  0.707107  0.707107 /   0.287922  0.762380  0.579550 ->   0.9462577301
    6:   0.707107  0.000000  0.707107 /   0.731716  0.420828  0.536187 ->   0.9132648460
    7:   0.707107  0.707107  0.000000 /   0.617074  0.786905  0.000000 ->   0.9348429169

 K-point ( 0.000, 0.000, 0.000) | band =    34
 Transport equivalent effective mass tensor:
              0.7498652259             -0.0110081709             -0.0268072463
             -0.0110081709              0.7575816257             -0.0190087443
             -0.0268072463             -0.0190087443              0.7190059659
 Transport equivalent effective mass tensor eigenvalues:
              0.7653881623              0.7653578539              0.6957068013
 Angular average effective mass 1/(<1/m>)=   0.7277730142
 Angular average effective mass for Frohlich model (<m**0.5>)**2=   0.7288740317
 Effective masses along directions: (cart. coord. / red. coord. -> eff. mass)
    1:   1.000000  0.000000  0.000000 /   0.949088  0.315011  0.000000 ->   0.7042798555
    2:   0.000000  1.000000  0.000000 /   0.000000  1.000000  0.000000 ->   0.7175079232
    3:   0.000000  0.000000  1.000000 /   0.406502  0.406502  0.818237 ->   0.6911787604
    4:   0.577350  0.577350  0.577350 /   0.585441  0.687909  0.428999 ->   0.7256312644
    5:   0.000000  0.707107  0.707107 /   0.287922  0.762380  0.579550 ->   0.7001297829
    6:   0.707107  0.000000  0.707107 /   0.731716  0.420828  0.536187 ->   0.7134910582
    7:   0.707107  0.707107  0.000000 /   0.617074  0.786905  0.000000 ->   0.7129352200

 Angular average effective mass for Frohlich model, averaged over degenerate bands.
 Value of     (<<m**0.5>>)**2 =     8.179682E-01
 Absolute Value of <<m**0.5>> =     9.044160E-01

 END OF EFFECTIVE MASSES SECTION

 ---- first-order wavefunction calculations are completed ----

 Total localisation tensor (bohr^2) in cartesian coordinates
  WARNING : still subject to testing - especially symmetries.
      direction              matrix element
   alpha     beta       real part   imaginary part
     1        1       1.2236476826    0.0000000000
     1        2       0.3451023133    0.0000000000
     1        3       0.8403813394    0.0000000000
     2        1       0.3451023133    0.0000000000
     2        2       0.9808079607    0.0000000000
     2        3       0.5951968110    0.0000000000
     3        1       0.8403813394    0.0000000000
     3        2       0.5951968110    0.0000000000
     3        3       2.1930757997    0.0000000000

 respfn : d/dk was computed, but no 2DTE, so no DDB output.

== END DATASET(S) ==============================================================

 -outvars: echo values of variables after computation  --------
            acell      1.0000000000E+00  1.0000000000E+00  1.0000000000E+00 Bohr
              amu      1.38905500E+02  2.69815390E+01  1.59994000E+01
             ecut      5.20000000E+01 Hartree
           etotal     -4.3768696385E+01
            fcart      0.0000000000E+00  0.0000000000E+00  0.0000000000E+00
                       0.0000000000E+00  0.0000000000E+00  0.0000000000E+00
                       0.0000000000E+00  0.0000000000E+00  0.0000000000E+00
                       0.0000000000E+00  0.0000000000E+00  0.0000000000E+00
                       0.0000000000E+00  0.0000000000E+00  0.0000000000E+00
                       0.0000000000E+00  0.0000000000E+00  0.0000000000E+00
                       0.0000000000E+00  0.0000000000E+00  0.0000000000E+00
                       0.0000000000E+00  0.0000000000E+00  0.0000000000E+00
                       0.0000000000E+00  0.0000000000E+00  0.0000000000E+00
                       0.0000000000E+00  0.0000000000E+00  0.0000000000E+00
-          fftalg         512
           irdden           1
           irdwfk           1
           istwfk        1    1
              ixc     -116133
              kpt      5.00000000E-01  5.00000000E-01  0.00000000E+00
                       0.00000000E+00  0.00000000E+00  0.00000000E+00
           kptopt           0
P           mkmem           2
P          mkqmem           2
P          mk1mem           2
            natom          10
            nband          41
           nbdbuf           4
            ngfft          72      72      72
             nkpt           2
            nstep        2000
             nsym          12
           ntypat           3
              occ      2.000000  2.000000  2.000000  2.000000  2.000000  2.000000
                       2.000000  2.000000  2.000000  2.000000  2.000000  2.000000
                       2.000000  2.000000  2.000000  2.000000  2.000000  2.000000
                       2.000000  2.000000  2.000000  2.000000  2.000000  2.000000
                       2.000000  2.000000  2.000000  2.000000  2.000000  2.000000
                       2.000000  2.000000  0.000000  0.000000  0.000000  0.000000
                       0.000000  0.000000  0.000000  0.000000  0.000000
        optdriver           1
            prtwf          -1
            rfdir           1       1       1
           rfelfd           2
            rprim      8.7415282382E+00  0.0000000000E+00  5.0040204012E+00
                       2.9013915808E+00  8.2459834365E+00  5.0040204012E+00
                       0.0000000000E+00  0.0000000000E+00  1.0072464252E+01
          spgroup         167
           strten      0.0000000000E+00  0.0000000000E+00  0.0000000000E+00
                       0.0000000000E+00  0.0000000000E+00  0.0000000000E+00
           symrel      1  0  0   0  1  0   0  0  1      -1  0  0   0 -1  0   0  0 -1
                       0  1  0   1  0  0   0  0  1       0 -1  0  -1  0  0   0  0 -1
                       0  0  1   1  0  0   0  1  0       0  0 -1  -1  0  0   0 -1  0
                       1  0  0   0  0  1   0  1  0      -1  0  0   0  0 -1   0 -1  0
                       0  1  0   0  0  1   1  0  0       0 -1  0   0  0 -1  -1  0  0
                       0  0  1   0  1  0   1  0  0       0  0 -1   0 -1  0  -1  0  0
            tnons      0.0000000  0.0000000  0.0000000     0.0000000  0.0000000  0.0000000
                       0.5000000  0.5000000  0.5000000     0.5000000  0.5000000  0.5000000
                      -0.0000000  0.0000000  0.0000000     0.0000000  0.0000000  0.0000000
                       0.5000000  0.5000000  0.5000000     0.5000000  0.5000000  0.5000000
                      -0.0000000  0.0000000  0.0000000     0.0000000  0.0000000  0.0000000
                       0.5000000  0.5000000  0.5000000     0.5000000  0.5000000  0.5000000
           tolwfr      1.00000000E-20
            typat      1  1  2  2  3  3  3  3  3  3
           useylm           1
              wtk        0.50000    0.50000
           xangst      1.5402919524E+00  1.0908966243E+00  2.6565364030E+00
                       4.6208758572E+00  3.2726898728E+00  7.9696092090E+00
                       3.0805839048E+00  2.1817932485E+00  5.3130728060E+00
                       0.0000000000E+00  0.0000000000E+00  0.0000000000E+00
                       2.2529585708E+00  3.1163512957E+00  6.7416968920E+00
                       4.0189344982E+00  1.0908966243E+00  6.5495079783E+00
                       4.5101505979E+00  3.4290284498E+00  5.3045499506E+00
                       3.9082092388E+00  1.2472352013E+00  3.8844487200E+00
                       1.6510172118E+00  9.3455804724E-01  5.3215956613E+00
                       2.1422333115E+00  3.2726898728E+00  4.0766376336E+00
            xcart      2.9107299548E+00  2.0614958591E+00  5.0201262637E+00
                       8.7321898643E+00  6.1844875774E+00  1.5060378791E+01
                       5.8214599095E+00  4.1229917183E+00  1.0040252527E+01
                       0.0000000000E+00  0.0000000000E+00  0.0000000000E+00
                       4.2574746876E+00  5.8890504828E+00  1.2739960797E+01
                       7.5946855476E+00  2.0614958591E+00  1.2376776384E+01
                       8.5229494481E+00  6.4799246719E+00  1.0024146665E+01
                       7.3854451314E+00  2.3569329537E+00  7.3405442580E+00
                       3.1199703709E+00  1.7660587646E+00  1.0056358390E+01
                       4.0482342714E+00  6.1844875774E+00  7.7037286706E+00
             xred      2.5000000000E-01  2.5000000000E-01  2.5000000000E-01
                       7.5000000000E-01  7.5000000000E-01  7.5000000000E-01
                       5.0000000000E-01  5.0000000000E-01  5.0000000000E-01
                       0.0000000000E+00  0.0000000000E+00  0.0000000000E+00
                       2.5000000000E-01  7.1417200000E-01  7.8582800000E-01
                       7.8582800000E-01  2.5000000000E-01  7.1417200000E-01
                       7.1417200000E-01  7.8582800000E-01  2.5000000000E-01
                       7.5000000000E-01  2.8582800000E-01  2.1417200000E-01
                       2.8582800000E-01  2.1417200000E-01  7.5000000000E-01
                       2.1417200000E-01  7.5000000000E-01  2.8582800000E-01
            znucl       57.00000   13.00000    8.00000

- Timing analysis has been suppressed with timopt=0

 Suggested references for the acknowledgment of ABINIT usage.

 Calculation completed.
.Delivered   2 WARNINGs and  11 COMMENTs to log file.