.Version 9.5.2 of ABINIT

 ABINIT is a project of the Universite Catholique de Louvain,
 Corning Inc. and other collaborators, see ~abinit/doc/developers/contributors.txt .
 acknowledgments of the ABINIT effort.

.Starting date : Thu 27 May 2021.
- ( at 15h19 )

- input  file    -> /scratch/users/j/a/jabreu/flow_simple_11atoms/flow/w260/t1/run.abi
- output file    -> /scratch/users/j/a/jabreu/flow_simple_11atoms/flow/w260/t1/run.abo
- root for input  files -> /scratch/users/j/a/jabreu/flow_simple_11atoms/flow/w260/t1/indata/in
- root for output files -> /scratch/users/j/a/jabreu/flow_simple_11atoms/flow/w260/t1/outdata/out

 Symmetries : space group Pb a m (# 55); Bravais oP (primitive ortho.)
     intxc =       0      iscf =       7    lmnmax =      18     lnmax =       6
     mgfft =     135  mpssoang =       3    mqgrid =    6646     natom =      24
  nloc_mem =       1    nspden =       1   nspinor =       1    nsppol =       1
      nsym =       8    n1xccc =    2501    ntypat =       3    occopt =       1
   xclevel =       2
-    mband =          83        mffmem =           1         mkmem =           2
-   mkqmem =           2        mk1mem =           2           mpw =       23686
      nfft =      388800          nkpt =           2
  Rough estimation (10% accuracy) of disk space for files :

------------- Echo of variables that govern the present computation ------------
-
- outvars: echo of selected default values
-   iomode0 =  0 , fftalg0 =512 , wfoptalg0 =  0
-
- outvars: echo of global parameters not present in the input file
-  max_nthreads =    0
-
 -outvars: echo values of preprocessed input variables --------
            acell      1.0000000000E+00  1.0000000000E+00  1.0000000000E+00 Bohr
              amu      8.89058500E+01  5.19961000E+01  1.08110000E+01
             ecut      4.70000000E+01 Hartree
-          fftalg         512
           irdden           1
           irdwfk           1
              ixc     -116133
              kpt      0.00000000E+00  2.50000000E-01  0.00000000E+00
                       0.00000000E+00  2.81250000E-01  0.00000000E+00
           kptopt           0
P           mkmem           2
P          mkqmem           2
P          mk1mem           2
            natom          24
            nband          83
           nbdbuf           4
            ngfft          40      72     135
             nkpt           2
            nstep        2000
             nsym           8
           ntypat           3
              occ      2.000000  2.000000  2.000000  2.000000  2.000000  2.000000
                       2.000000  2.000000  2.000000  2.000000  2.000000  2.000000
                       2.000000  2.000000  2.000000  2.000000  2.000000  2.000000
                       2.000000  2.000000  2.000000  2.000000  2.000000  2.000000
                       2.000000  2.000000  2.000000  2.000000  2.000000  2.000000
                       2.000000  2.000000  2.000000  2.000000  2.000000  2.000000
                       2.000000  2.000000  2.000000  2.000000  2.000000  2.000000
                       2.000000  2.000000  2.000000  2.000000  2.000000  2.000000
                       2.000000  2.000000  2.000000  2.000000  2.000000  2.000000
                       2.000000  2.000000  2.000000  2.000000  2.000000  2.000000
                       2.000000  2.000000  2.000000  2.000000  2.000000  2.000000
                       2.000000  2.000000  2.000000  2.000000  2.000000  2.000000
                       2.000000  2.000000  0.000000  0.000000  0.000000  0.000000
                       0.000000  0.000000  0.000000  0.000000  0.000000
        optdriver           1
            prtwf          -1
            rfdir           1       1       1
           rfelfd           2
            rprim      6.4266927977E+00  0.0000000000E+00  0.0000000000E+00
                       0.0000000000E+00  1.1142715651E+01  0.0000000000E+00
                       0.0000000000E+00  0.0000000000E+00  2.1532943663E+01
          spgroup          55
           symrel      1  0  0   0  1  0   0  0  1      -1  0  0   0 -1  0   0  0 -1
                      -1  0  0   0  1  0   0  0 -1       1  0  0   0 -1  0   0  0  1
                      -1  0  0   0 -1  0   0  0  1       1  0  0   0  1  0   0  0 -1
                       1  0  0   0 -1  0   0  0 -1      -1  0  0   0  1  0   0  0  1
            tnons      0.0000000  0.0000000  0.0000000     0.0000000 -0.0000000  0.0000000
                       0.0000000  0.5000000  0.5000000     0.0000000  0.5000000  0.5000000
                       0.0000000  0.5000000  0.5000000     0.0000000  0.5000000  0.5000000
                       0.0000000 -0.0000000  0.0000000     0.0000000  0.0000000  0.0000000
           tolwfr      1.00000000E-20
            typat      1  1  1  1  2  2  2  2  3  3  3  3  3  3  3  3  3  3  3  3
                       3  3  3  3
           useylm           1
              wtk        0.50000    0.50000
           xangst      0.0000000000E+00  2.2146968799E+00  7.4138300197E+00
                       0.0000000000E+00  3.6817742843E+00  3.9809130005E+00
                       0.0000000000E+00  5.1629324620E+00  9.6782845106E+00
                       0.0000000000E+00  7.3353870224E-01  1.7164585096E+00
                       0.0000000000E+00  2.2305760767E+00  1.0491880557E+01
                       0.0000000000E+00  3.6658950875E+00  9.0286246321E-01
                       0.0000000000E+00  5.1788116588E+00  6.6002339733E+00
                       0.0000000000E+00  7.1765950540E-01  4.7945090469E+00
                       1.7004296776E+00  1.4721719556E-01  7.8812765626E+00
                       1.7004296776E+00  5.7492539686E+00  3.5134664576E+00
                       1.7004296776E+00  3.0954527777E+00  9.2108379677E+00
                       1.7004296776E+00  2.8010183865E+00  2.1839050525E+00
                       1.7004296776E+00  6.6682602749E-01  6.2290957984E+00
                       1.7004296776E+00  5.2296451367E+00  5.1656472218E+00
                       1.7004296776E+00  3.6150616096E+00  1.0863018732E+01
                       1.7004296776E+00  2.2814095546E+00  5.3172428829E-01
                       1.7004296776E+00  1.6513362319E+00  3.6005792680E+00
                       1.7004296776E+00  4.2451349323E+00  7.7941637522E+00
                       1.7004296776E+00  4.5995718140E+00  2.0967922421E+00
                       1.7004296776E+00  1.2968993502E+00  9.2979507781E+00
                       1.7004296776E+00  2.1387031595E+00  5.3240683340E+00
                       1.7004296776E+00  3.7577680047E+00  6.0706746862E+00
                       1.7004296776E+00  5.0869387416E+00  3.7330317608E-01
                       1.7004296776E+00  8.0953242260E-01  1.1021439844E+01
            xcart      0.0000000000E+00  4.1851705703E+00  1.4010108333E+01
                       0.0000000000E+00  6.9575450805E+00  7.5228353298E+00
                       0.0000000000E+00  9.7565283957E+00  1.8289307161E+01
                       0.0000000000E+00  1.3861872551E+00  3.2436365016E+00
                       0.0000000000E+00  4.2151779035E+00  1.9826780872E+01
                       0.0000000000E+00  6.9275377473E+00  1.7061627911E+00
                       0.0000000000E+00  9.7865357289E+00  1.2472634623E+01
                       0.0000000000E+00  1.3561799219E+00  9.0603090403E+00
                       3.2133463988E+00  2.7820018165E-01  1.4893454281E+01
                       3.2133463988E+00  1.0864515469E+01  6.6394893819E+00
                       3.2133463988E+00  5.8495580071E+00  1.7405961213E+01
                       3.2133463988E+00  5.2931576437E+00  4.1269824495E+00
                       3.2133463988E+00  1.2601185702E+00  1.1771285114E+01
                       3.2133463988E+00  9.8825970806E+00  9.7616585483E+00
                       3.2133463988E+00  6.8314763956E+00  2.0528130380E+01
                       3.2133463988E+00  4.3112392552E+00  1.0048132831E+00
                       3.2133463988E+00  3.1205732316E+00  6.8041087362E+00
                       3.2133463988E+00  8.0221424192E+00  1.4728834927E+01
                       3.2133463988E+00  8.6919310570E+00  3.9623630952E+00
                       3.2133463988E+00  2.4507845938E+00  1.7570580568E+01
                       3.2133463988E+00  4.0415632510E+00  1.0061031064E+01
                       3.2133463988E+00  7.1011523998E+00  1.1471912599E+01
                       3.2133463988E+00  9.6129210764E+00  7.0544076734E-01
                       3.2133463988E+00  1.5297945744E+00  2.0827502895E+01
             xred      0.0000000000E+00  3.7559700000E-01  6.5063600000E-01
                       0.0000000000E+00  6.2440300000E-01  3.4936400000E-01
                       0.0000000000E+00  8.7559700000E-01  8.4936400000E-01
                       0.0000000000E+00  1.2440300000E-01  1.5063600000E-01
                       0.0000000000E+00  3.7829000000E-01  9.2076500000E-01
                       0.0000000000E+00  6.2171000000E-01  7.9235000000E-02
                       0.0000000000E+00  8.7829000000E-01  5.7923500000E-01
                       0.0000000000E+00  1.2171000000E-01  4.2076500000E-01
                       5.0000000000E-01  2.4967000000E-02  6.9165900000E-01
                       5.0000000000E-01  9.7503300000E-01  3.0834100000E-01
                       5.0000000000E-01  5.2496700000E-01  8.0834100000E-01
                       5.0000000000E-01  4.7503300000E-01  1.9165900000E-01
                       5.0000000000E-01  1.1308900000E-01  5.4666400000E-01
                       5.0000000000E-01  8.8691100000E-01  4.5333600000E-01
                       5.0000000000E-01  6.1308900000E-01  9.5333600000E-01
                       5.0000000000E-01  3.8691100000E-01  4.6664000000E-02
                       5.0000000000E-01  2.8005500000E-01  3.1598600000E-01
                       5.0000000000E-01  7.1994500000E-01  6.8401400000E-01
                       5.0000000000E-01  7.8005500000E-01  1.8401400000E-01
                       5.0000000000E-01  2.1994500000E-01  8.1598600000E-01
                       5.0000000000E-01  3.6270900000E-01  4.6723900000E-01
                       5.0000000000E-01  6.3729100000E-01  5.3276100000E-01
                       5.0000000000E-01  8.6270900000E-01  3.2761000000E-02
                       5.0000000000E-01  1.3729100000E-01  9.6723900000E-01
            znucl       39.00000   24.00000    5.00000

 chkinp: Checking input parameters for consistency.

== DATASET  1 ==================================================================
-   mpi_nproc: 1, omp_nthreads: -1 (-1 if OMP is not activated)

--- !DatasetInfo
iteration_state: {dtset: 1, }
dimensions: {natom: 24, nkpt: 2, mband: 83, nsppol: 1, nspinor: 1, nspden: 1, mpw: 23686, }
cutoff_energies: {ecut:  47.0, pawecutdg:  -1.0, }
electrons: {nelect:   1.48000000E+02, charge:   0.00000000E+00, occopt:   1.00000000E+00, tsmear:   1.00000000E-02, }
meta: {optdriver: 1, rfelfd: 2, }
...

 Real(R)+Recip(G) space primitive vectors, cartesian coordinates (Bohr,Bohr^-1):
 R(1)=  6.4266928  0.0000000  0.0000000  G(1)=  0.1556010  0.0000000  0.0000000
[...]
 prteigrs : about to open file /scratch/users/j/a/jabreu/flow_simple_11atoms/flow/w260/t1/tmpdata/tmp_1WF1_EIG
 Expectation of eigenvalue derivatives (hartree) for nkpt=   2  k points:
  (in case of degenerate eigenvalues, averaged derivative)
 kpt#   1, nband= 83, wtk=  0.50000, kpt=  0.0000  0.2500  0.0000 (reduced coord)
   0.00000   -0.00000   -0.00000    0.00000    0.00000   -0.00000   -0.00000    0.00000
   0.00000    0.00000   -0.00000    0.00000   -0.00000    0.00000    0.00000   -0.00000
  -0.00000    0.00000   -0.00000   -0.00000    0.00000    0.00000    0.00000   -0.00000
  -0.00000   -0.00000    0.00000   -0.00000   -0.00000   -0.00000    0.00000   -0.00000
   0.00000    0.00000   -0.00000    0.00000    0.00000   -0.00000   -0.00000    0.00000
   0.00000   -0.00000    0.00000   -0.00000    0.00000   -0.00000    0.00000   -0.00000
   0.00000    0.00000   -0.00000    0.00000   -0.00000   -0.00000    0.00000    0.00000
   0.00000    0.00000    0.00000   -0.00000   -0.00000    0.00000   -0.00000   -0.00000
   0.00000    0.00000    0.00000   -0.00000    0.00000   -0.00000   -0.00000   -0.00000
   0.00000    0.00000    0.00000    0.00000   -0.00000   -0.00000    0.00000    0.00000
   0.00000    0.00000    0.00000
 prteigrs : prtvol=0 or 1, do not print more k-points.

 Eight components of 2nd-order total energy (hartree) are
 1,2,3: 0th-order hamiltonian combined with 1st-order wavefunctions
     kin0=   3.49551261E+01 eigvalue=  -4.25158576E+00  local=  -1.87318813E+01
 4,5,6: 1st-order hamiltonian combined with 1st and 0th-order wfs
     kin1=  -2.63283861E+01  Hartree=   0.00000000E+00     xc=   0.00000000E+00
 7,8,9: eventually, occupation + non-local contributions
    edocc=   2.74491341E+00     enl0=  -1.69868779E+00   enl1=   2.92616807E-01
 1-9 gives the relaxation energy (to be shifted if some occ is /=2.0)
   erelax=  -1.30178846E+01
  No Ewald or frozen-wf contrib.: the relaxation energy is the total one
 2DEtotal=   -0.1301788464E+02 Ha. Also 2DEtotal=   -0.354234655870E+03 eV
    (  non-var. 2DEtotal :   -1.3017884635E+01 Ha)

 CALCULATION OF EFFECTIVE MASSES
 NOTE : Additional infos (eff. mass eigenvalues, eigenvectors and, if degenerate, average mass) are available in stdout.

 K-point ( 0.000, 0.250, 0.000) | band =    74
 Effective mass tensor:
             -0.7213381914              0.0000000000             -0.0000001051
              0.0000000000             -0.1795770730              0.0000028372
             -0.0000001051              0.0000028372             -2.5782641033
 Effective mass tensor eigenvalues:
             -2.5782641033             -0.7213381914             -0.1795770730
 Angular average effective mass 1/(<1/m>)=  -0.4085629481
 Angular average effective mass for Frohlich model (<m**0.5>)**2=  -0.5527202785
 Effective masses along directions: (cart. coord. / red. coord. -> eff. mass)
    1:   1.000000  0.000000  0.000000 /   1.000000  0.000000  0.000000 ->  -0.7213381914
    2:   0.000000  1.000000  0.000000 /   0.000000  1.000000  0.000000 ->  -0.1795770730
    3:   0.000000  0.000000  1.000000 /   0.000000  0.000000  1.000000 ->  -2.5782641032
    4:   0.577350  0.577350  0.577350 /   0.256223  0.444243  0.858486 ->  -0.4085622725
    5:   0.000000  0.707107  0.707107 /   0.000000  0.459585  0.888134 ->  -0.3357671010
    6:   0.707107  0.000000  0.707107 /   0.285993  0.000000  0.958232 ->  -1.1272876653
    7:   0.707107  0.707107  0.000000 /   0.499618  0.866246  0.000000 ->  -0.2875648935

--- !WARNING
src_file: m_efmas.F90
src_line: 0
message: |

    Band(s)    75,
    are not band extrema, but saddle points;
    the transport equivalent formalism breaks down in these conditions.
    The associated tensor(s) will therefore not be printed.
...

 K-point ( 0.000, 0.281, 0.000) | band =    75
 Effective mass tensor:
     *** SADDLE POINT: TRANSPORT EQV. EFF. MASS NOT DEFINED (see WARNING above) ***
 Angular average effective mass 1/(<1/m>)=   0.3362937955
 Angular average effective mass for Frohlich model (<m**0.5>)**2=   0.7087164952
 Effective masses along directions: (cart. coord. / red. coord. -> eff. mass)
    1:   1.000000  0.000000  0.000000 /   1.000000  0.000000  0.000000 ->  -1.3683642576
    2:   0.000000  1.000000  0.000000 /   0.000000  1.000000  0.000000 ->   0.1605546618
    3:   0.000000  0.000000  1.000000 /   0.000000  0.000000  1.000000 ->   0.2921275393
    4:   0.577350  0.577350  0.577350 /   0.256223  0.444243  0.858486 ->   0.3362930894
    5:   0.000000  0.707107  0.707107 /   0.000000  0.459585  0.888134 ->   0.2072197867
    6:   0.707107  0.000000  0.707107 /   0.285993  0.000000  0.958232 ->   0.7428414549
    7:   0.707107  0.707107  0.000000 /   0.499618  0.866246  0.000000 ->   0.3637945428

 END OF EFFECTIVE MASSES SECTION

 ---- first-order wavefunction calculations are completed ----

 Total localisation tensor (bohr^2) in cartesian coordinates
  WARNING : still subject to testing - especially symmetries.
      direction              matrix element
   alpha     beta       real part   imaginary part
     1        1       1.7623762019    0.0000000000
     1        2       0.0000000000    0.0000000000
     1        3       0.0000000000    0.0000000000
     2        1       0.0000000000    0.0000000000
     2        2       7.1066234856    0.0000000000
     2        3       0.0000000000    0.0000000000
     3        1       0.0000000000    0.0000000000
     3        2       0.0000000000    0.0000000000
     3        3       2.4480122204    0.0000000000

 respfn : d/dk was computed, but no 2DTE, so no DDB output.

== END DATASET(S) ==============================================================

 -outvars: echo values of variables after computation  --------
            acell      1.0000000000E+00  1.0000000000E+00  1.0000000000E+00 Bohr
              amu      8.89058500E+01  5.19961000E+01  1.08110000E+01
             ecut      4.70000000E+01 Hartree
           etotal     -1.3017884636E+01
            fcart      0.0000000000E+00  0.0000000000E+00  0.0000000000E+00
                       0.0000000000E+00  0.0000000000E+00  0.0000000000E+00
                       0.0000000000E+00  0.0000000000E+00  0.0000000000E+00
                       0.0000000000E+00  0.0000000000E+00  0.0000000000E+00
                       0.0000000000E+00  0.0000000000E+00  0.0000000000E+00
                       0.0000000000E+00  0.0000000000E+00  0.0000000000E+00
                       0.0000000000E+00  0.0000000000E+00  0.0000000000E+00
                       0.0000000000E+00  0.0000000000E+00  0.0000000000E+00
                       0.0000000000E+00  0.0000000000E+00  0.0000000000E+00
                       0.0000000000E+00  0.0000000000E+00  0.0000000000E+00
                       0.0000000000E+00  0.0000000000E+00  0.0000000000E+00
                       0.0000000000E+00  0.0000000000E+00  0.0000000000E+00
                       0.0000000000E+00  0.0000000000E+00  0.0000000000E+00
                       0.0000000000E+00  0.0000000000E+00  0.0000000000E+00
                       0.0000000000E+00  0.0000000000E+00  0.0000000000E+00
                       0.0000000000E+00  0.0000000000E+00  0.0000000000E+00
                       0.0000000000E+00  0.0000000000E+00  0.0000000000E+00
                       0.0000000000E+00  0.0000000000E+00  0.0000000000E+00
                       0.0000000000E+00  0.0000000000E+00  0.0000000000E+00
                       0.0000000000E+00  0.0000000000E+00  0.0000000000E+00
                       0.0000000000E+00  0.0000000000E+00  0.0000000000E+00
                       0.0000000000E+00  0.0000000000E+00  0.0000000000E+00
                       0.0000000000E+00  0.0000000000E+00  0.0000000000E+00
                       0.0000000000E+00  0.0000000000E+00  0.0000000000E+00
-          fftalg         512
           irdden           1
           irdwfk           1
              ixc     -116133
              kpt      0.00000000E+00  2.50000000E-01  0.00000000E+00
                       0.00000000E+00  2.81250000E-01  0.00000000E+00
           kptopt           0
P           mkmem           2
P          mkqmem           2
P          mk1mem           2
            natom          24
            nband          83
           nbdbuf           4
            ngfft          40      72     135
             nkpt           2
            nstep        2000
             nsym           8
           ntypat           3
              occ      2.000000  2.000000  2.000000  2.000000  2.000000  2.000000
                       2.000000  2.000000  2.000000  2.000000  2.000000  2.000000
                       2.000000  2.000000  2.000000  2.000000  2.000000  2.000000
                       2.000000  2.000000  2.000000  2.000000  2.000000  2.000000
                       2.000000  2.000000  2.000000  2.000000  2.000000  2.000000
                       2.000000  2.000000  2.000000  2.000000  2.000000  2.000000
                       2.000000  2.000000  2.000000  2.000000  2.000000  2.000000
                       2.000000  2.000000  2.000000  2.000000  2.000000  2.000000
                       2.000000  2.000000  2.000000  2.000000  2.000000  2.000000
                       2.000000  2.000000  2.000000  2.000000  2.000000  2.000000
                       2.000000  2.000000  2.000000  2.000000  2.000000  2.000000
                       2.000000  2.000000  2.000000  2.000000  2.000000  2.000000
                       2.000000  2.000000  0.000000  0.000000  0.000000  0.000000
                       0.000000  0.000000  0.000000  0.000000  0.000000
        optdriver           1
            prtwf          -1
            rfdir           1       1       1
           rfelfd           2
            rprim      6.4266927977E+00  0.0000000000E+00  0.0000000000E+00
                       0.0000000000E+00  1.1142715651E+01  0.0000000000E+00
                       0.0000000000E+00  0.0000000000E+00  2.1532943663E+01
          spgroup          55
           strten      0.0000000000E+00  0.0000000000E+00  0.0000000000E+00
                       0.0000000000E+00  0.0000000000E+00  0.0000000000E+00
           symrel      1  0  0   0  1  0   0  0  1      -1  0  0   0 -1  0   0  0 -1
                      -1  0  0   0  1  0   0  0 -1       1  0  0   0 -1  0   0  0  1
                      -1  0  0   0 -1  0   0  0  1       1  0  0   0  1  0   0  0 -1
                       1  0  0   0 -1  0   0  0 -1      -1  0  0   0  1  0   0  0  1
            tnons      0.0000000  0.0000000  0.0000000     0.0000000 -0.0000000  0.0000000
                       0.0000000  0.5000000  0.5000000     0.0000000  0.5000000  0.5000000
                       0.0000000  0.5000000  0.5000000     0.0000000  0.5000000  0.5000000
                       0.0000000 -0.0000000  0.0000000     0.0000000  0.0000000  0.0000000
           tolwfr      1.00000000E-20
            typat      1  1  1  1  2  2  2  2  3  3  3  3  3  3  3  3  3  3  3  3
                       3  3  3  3
           useylm           1
              wtk        0.50000    0.50000
           xangst      0.0000000000E+00  2.2146968799E+00  7.4138300197E+00
                       0.0000000000E+00  3.6817742843E+00  3.9809130005E+00
                       0.0000000000E+00  5.1629324620E+00  9.6782845106E+00
                       0.0000000000E+00  7.3353870224E-01  1.7164585096E+00
                       0.0000000000E+00  2.2305760767E+00  1.0491880557E+01
                       0.0000000000E+00  3.6658950875E+00  9.0286246321E-01
                       0.0000000000E+00  5.1788116588E+00  6.6002339733E+00
                       0.0000000000E+00  7.1765950540E-01  4.7945090469E+00
                       1.7004296776E+00  1.4721719556E-01  7.8812765626E+00
                       1.7004296776E+00  5.7492539686E+00  3.5134664576E+00
                       1.7004296776E+00  3.0954527777E+00  9.2108379677E+00
                       1.7004296776E+00  2.8010183865E+00  2.1839050525E+00
                       1.7004296776E+00  6.6682602749E-01  6.2290957984E+00
                       1.7004296776E+00  5.2296451367E+00  5.1656472218E+00
                       1.7004296776E+00  3.6150616096E+00  1.0863018732E+01
                       1.7004296776E+00  2.2814095546E+00  5.3172428829E-01
                       1.7004296776E+00  1.6513362319E+00  3.6005792680E+00
                       1.7004296776E+00  4.2451349323E+00  7.7941637522E+00
                       1.7004296776E+00  4.5995718140E+00  2.0967922421E+00
                       1.7004296776E+00  1.2968993502E+00  9.2979507781E+00
                       1.7004296776E+00  2.1387031595E+00  5.3240683340E+00
                       1.7004296776E+00  3.7577680047E+00  6.0706746862E+00
                       1.7004296776E+00  5.0869387416E+00  3.7330317608E-01
                       1.7004296776E+00  8.0953242260E-01  1.1021439844E+01
            xcart      0.0000000000E+00  4.1851705703E+00  1.4010108333E+01
                       0.0000000000E+00  6.9575450805E+00  7.5228353298E+00
                       0.0000000000E+00  9.7565283957E+00  1.8289307161E+01
                       0.0000000000E+00  1.3861872551E+00  3.2436365016E+00
                       0.0000000000E+00  4.2151779035E+00  1.9826780872E+01
                       0.0000000000E+00  6.9275377473E+00  1.7061627911E+00
                       0.0000000000E+00  9.7865357289E+00  1.2472634623E+01
                       0.0000000000E+00  1.3561799219E+00  9.0603090403E+00
                       3.2133463988E+00  2.7820018165E-01  1.4893454281E+01
                       3.2133463988E+00  1.0864515469E+01  6.6394893819E+00
                       3.2133463988E+00  5.8495580071E+00  1.7405961213E+01
                       3.2133463988E+00  5.2931576437E+00  4.1269824495E+00
                       3.2133463988E+00  1.2601185702E+00  1.1771285114E+01
                       3.2133463988E+00  9.8825970806E+00  9.7616585483E+00
                       3.2133463988E+00  6.8314763956E+00  2.0528130380E+01
                       3.2133463988E+00  4.3112392552E+00  1.0048132831E+00
                       3.2133463988E+00  3.1205732316E+00  6.8041087362E+00
                       3.2133463988E+00  8.0221424192E+00  1.4728834927E+01
                       3.2133463988E+00  8.6919310570E+00  3.9623630952E+00
                       3.2133463988E+00  2.4507845938E+00  1.7570580568E+01
                       3.2133463988E+00  4.0415632510E+00  1.0061031064E+01
                       3.2133463988E+00  7.1011523998E+00  1.1471912599E+01
                       3.2133463988E+00  9.6129210764E+00  7.0544076734E-01
                       3.2133463988E+00  1.5297945744E+00  2.0827502895E+01
             xred      0.0000000000E+00  3.7559700000E-01  6.5063600000E-01
                       0.0000000000E+00  6.2440300000E-01  3.4936400000E-01
                       0.0000000000E+00  8.7559700000E-01  8.4936400000E-01
                       0.0000000000E+00  1.2440300000E-01  1.5063600000E-01
                       0.0000000000E+00  3.7829000000E-01  9.2076500000E-01
                       0.0000000000E+00  6.2171000000E-01  7.9235000000E-02
                       0.0000000000E+00  8.7829000000E-01  5.7923500000E-01
                       0.0000000000E+00  1.2171000000E-01  4.2076500000E-01
                       5.0000000000E-01  2.4967000000E-02  6.9165900000E-01
                       5.0000000000E-01  9.7503300000E-01  3.0834100000E-01
                       5.0000000000E-01  5.2496700000E-01  8.0834100000E-01
                       5.0000000000E-01  4.7503300000E-01  1.9165900000E-01
                       5.0000000000E-01  1.1308900000E-01  5.4666400000E-01
                       5.0000000000E-01  8.8691100000E-01  4.5333600000E-01
                       5.0000000000E-01  6.1308900000E-01  9.5333600000E-01
                       5.0000000000E-01  3.8691100000E-01  4.6664000000E-02
                       5.0000000000E-01  2.8005500000E-01  3.1598600000E-01
                       5.0000000000E-01  7.1994500000E-01  6.8401400000E-01
                       5.0000000000E-01  7.8005500000E-01  1.8401400000E-01
                       5.0000000000E-01  2.1994500000E-01  8.1598600000E-01
                       5.0000000000E-01  3.6270900000E-01  4.6723900000E-01
                       5.0000000000E-01  6.3729100000E-01  5.3276100000E-01
                       5.0000000000E-01  8.6270900000E-01  3.2761000000E-02
                       5.0000000000E-01  1.3729100000E-01  9.6723900000E-01
            znucl       39.00000   24.00000    5.00000

- Timing analysis has been suppressed with timopt=0

 Suggested references for the acknowledgment of ABINIT usage.

 Calculation completed.
.Delivered   3 WARNINGs and   7 COMMENTs to log file.