.Version 9.5.1 of ABINIT

 ABINIT is a project of the Universite Catholique de Louvain,
 Corning Inc. and other collaborators, see ~abinit/doc/developers/contributors.txt .
 acknowledgments of the ABINIT effort.

.Starting date : Tue  4 May 2021.
- ( at 19h14 )

- input  file    -> /scratch/users/j/a/jabreu/flow_simple_6atoms/flow/w168/t1/run.abi
- output file    -> /scratch/users/j/a/jabreu/flow_simple_6atoms/flow/w168/t1/run.abo
- root for input  files -> /scratch/users/j/a/jabreu/flow_simple_6atoms/flow/w168/t1/indata/in
- root for output files -> /scratch/users/j/a/jabreu/flow_simple_6atoms/flow/w168/t1/outdata/out

 Symmetries : space group P4/n m m (#129); Bravais tP (primitive tetrag.)
     intxc =       0      iscf =       7    lmnmax =      18     lnmax =       6
     mgfft =      90  mpssoang =       3    mqgrid =    4359     natom =       6
  nloc_mem =       1    nspden =       1   nspinor =       1    nsppol =       1
      nsym =      16    n1xccc =    2501    ntypat =       3    occopt =       1
   xclevel =       2
-    mband =          33        mffmem =           1         mkmem =           1
-   mkqmem =           1        mk1mem =           1           mpw =       14691
      nfft =      262440          nkpt =           1
  Rough estimation (10% accuracy) of disk space for files :

------------- Echo of variables that govern the present computation ------------
-
- outvars: echo of selected default values
-   iomode0 =  0 , fftalg0 =512 , wfoptalg0 =  0
-
- outvars: echo of global parameters not present in the input file
-  max_nthreads =    0
-
 -outvars: echo values of preprocessed input variables --------
            acell      1.0000000000E+00  1.0000000000E+00  1.0000000000E+00 Bohr
              amu      1.37327000E+02  1.26904470E+02  1.89984032E+01
             ecut      4.20000000E+01 Hartree
-          fftalg         512
           irdden           1
           irdwfk           1
           istwfk        1
              ixc     -116133
           kptopt           0
P           mkmem           1
P          mkqmem           1
P          mk1mem           1
            natom           6
            nband          33
           nbdbuf           4
            ngfft          54      54      90
             nkpt           1
            nstep        1000
             nsym          16
           ntypat           3
              occ      2.000000  2.000000  2.000000  2.000000  2.000000  2.000000
                       2.000000  2.000000  2.000000  2.000000  2.000000  2.000000
                       2.000000  2.000000  2.000000  2.000000  2.000000  2.000000
                       2.000000  2.000000  2.000000  2.000000  2.000000  2.000000
                       0.000000  0.000000  0.000000  0.000000  0.000000  0.000000
                       0.000000  0.000000  0.000000
        optdriver           1
            prtwf          -1
            rfdir           1       1       1
           rfelfd           2
            rprim      8.7084761495E+00  0.0000000000E+00  0.0000000000E+00
                       0.0000000000E+00  8.7084761495E+00  0.0000000000E+00
                       0.0000000000E+00  0.0000000000E+00  1.4940429250E+01
          spgroup         129
           symrel      1  0  0   0  1  0   0  0  1      -1  0  0   0 -1  0   0  0 -1
                      -1  0  0   0  1  0   0  0 -1       1  0  0   0 -1  0   0  0  1
                      -1  0  0   0 -1  0   0  0  1       1  0  0   0  1  0   0  0 -1
                       1  0  0   0 -1  0   0  0 -1      -1  0  0   0  1  0   0  0  1
                       0  1  0   1  0  0   0  0  1       0 -1  0  -1  0  0   0  0 -1
                       0 -1  0   1  0  0   0  0 -1       0  1  0  -1  0  0   0  0  1
                       0 -1  0  -1  0  0   0  0  1       0  1  0   1  0  0   0  0 -1
                       0  1  0  -1  0  0   0  0 -1       0 -1  0   1  0  0   0  0  1
            tnons      0.0000000  0.0000000  0.0000000     0.5000000  0.5000000  0.0000000
                       0.5000000  0.5000000  0.0000000     0.0000000  0.0000000  0.0000000
                       0.0000000  0.0000000  0.0000000     0.5000000  0.5000000  0.0000000
                       0.5000000  0.5000000  0.0000000     0.0000000  0.0000000  0.0000000
                       0.5000000  0.5000000  0.0000000     0.0000000  0.0000000  0.0000000
                       0.0000000  0.0000000  0.0000000     0.5000000  0.5000000  0.0000000
                       0.5000000  0.5000000  0.0000000     0.0000000  0.0000000  0.0000000
                       0.0000000  0.0000000  0.0000000     0.5000000  0.5000000  0.0000000
           tolwfr      1.00000000E-20
            typat      1  1  2  2  3  3
           useylm           1
           xangst      0.0000000000E+00  2.3041635499E+00  6.5563202774E+00
                       2.3041635499E+00  0.0000000000E+00  1.3498143680E+00
                       2.3041635499E+00  0.0000000000E+00  5.1324649585E+00
                       0.0000000000E+00  2.3041635499E+00  2.7736696870E+00
                       2.3041635499E+00  2.3041635499E+00  0.0000000000E+00
                       0.0000000000E+00  0.0000000000E+00  0.0000000000E+00
            xcart      0.0000000000E+00  4.3542380747E+00  1.2389649764E+01
                       4.3542380747E+00  0.0000000000E+00  2.5507794858E+00
                       4.3542380747E+00  0.0000000000E+00  9.6989531581E+00
                       0.0000000000E+00  4.3542380747E+00  5.2414760915E+00
                       4.3542380747E+00  4.3542380747E+00  0.0000000000E+00
                       0.0000000000E+00  0.0000000000E+00  0.0000000000E+00
             xred      0.0000000000E+00  5.0000000000E-01  8.2927000000E-01
                       5.0000000000E-01  0.0000000000E+00  1.7073000000E-01
                       5.0000000000E-01  0.0000000000E+00  6.4917500000E-01
                       0.0000000000E+00  5.0000000000E-01  3.5082500000E-01
                       5.0000000000E-01  5.0000000000E-01  0.0000000000E+00
                       0.0000000000E+00  0.0000000000E+00  0.0000000000E+00
            znucl       56.00000   53.00000    9.00000

 chkinp: Checking input parameters for consistency.

== DATASET  1 ==================================================================
-   mpi_nproc: 1, omp_nthreads: -1 (-1 if OMP is not activated)

--- !DatasetInfo
iteration_state: {dtset: 1, }
dimensions: {natom: 6, nkpt: 1, mband: 33, nsppol: 1, nspinor: 1, nspden: 1, mpw: 14691, }
cutoff_energies: {ecut:  42.0, pawecutdg:  -1.0, }
electrons: {nelect:   4.80000000E+01, charge:   0.00000000E+00, occopt:   1.00000000E+00, tsmear:   1.00000000E-02, }
meta: {optdriver: 1, rfelfd: 2, }
...

 Real(R)+Recip(G) space primitive vectors, cartesian coordinates (Bohr,Bohr^-1):
 R(1)=  8.7084761  0.0000000  0.0000000  G(1)=  0.1148307  0.0000000  0.0000000
 R(2)=  0.0000000  8.7084761  0.0000000  G(2)=  0.0000000  0.1148307  0.0000000
 R(3)=  0.0000000  0.0000000 14.9404292  G(3)=  0.0000000  0.0000000  0.0669325
 Unit cell volume ucvol=  1.1330457E+03 bohr^3
 Angles (23,13,12)=  9.00000000E+01  9.00000000E+01  9.00000000E+01 degrees

 getcut: wavevector=  0.0000  0.0000  0.0000  ngfft=  54  54  90
         ecut(hartree)=     42.000   => boxcut(ratio)=   2.06486

--- Pseudopotential description ------------------------------------------------
- pspini: atom type   1  psp file is /scratch/users/j/a/jabreu/pseudos/PBEsol/Ba.psp8
- pspatm: opening atomic psp file    /scratch/users/j/a/jabreu/pseudos/PBEsol/Ba.psp8
- Ba    ONCVPSP-3.3.0  r_core=   2.15444   1.91218   2.15444
- 56.00000  10.00000    180112                znucl, zion, pspdat
    8 -116133    2    4       600   0.00000   pspcod,pspxc,lmax,lloc,mmax,r2well
    5.99000000000000    5.00000000000000    0.00000000000000   rchrg,fchrg,qchrg
     nproj     2     2     2
     extension_switch     1
  pspatm : epsatm=   26.37418029
         --- l  ekb(1:nproj) -->
             0    6.652372    0.677024
             1    5.027722    0.408462
             2    2.543237    0.416854
 pspatm: atomic psp has been read  and splines computed

- pspini: atom type   2  psp file is /scratch/users/j/a/jabreu/pseudos/PBEsol/I.psp8
- pspatm: opening atomic psp file    /scratch/users/j/a/jabreu/pseudos/PBEsol/I.psp8
- I     ONCVPSP-3.3.0  r_core=   2.02042   2.17032   2.27639
- 53.00000   7.00000    180112                znucl, zion, pspdat
    8 -116133    2    4       600   0.00000   pspcod,pspxc,lmax,lloc,mmax,r2well
    5.99000000000000    4.00000000000000    0.00000000000000   rchrg,fchrg,qchrg
     nproj     2     2     2
     extension_switch     1
  pspatm : epsatm=   18.14229533
         --- l  ekb(1:nproj) -->
             0    6.015861    0.935228
             1    4.063749    0.754139
             2    4.149534    0.722940
 pspatm: atomic psp has been read  and splines computed

- pspini: atom type   3  psp file is /scratch/users/j/a/jabreu/pseudos/PBEsol/F.psp8
- pspatm: opening atomic psp file    /scratch/users/j/a/jabreu/pseudos/PBEsol/F.psp8
- F     ONCVPSP-3.3.0  r_core=   1.30942   1.45782   1.60379
-  9.00000   7.00000    180112                znucl, zion, pspdat
    8 -116133    2    4       600   0.00000   pspcod,pspxc,lmax,lloc,mmax,r2well
    5.99000000000000    2.50000000000000    0.00000000000000   rchrg,fchrg,qchrg
     nproj     2     2     1
     extension_switch     1
  pspatm : epsatm=    4.89824824
         --- l  ekb(1:nproj) -->
             0    6.506434    1.065875
             1   -3.978753   -1.295852
             2   -2.394754
 pspatm: atomic psp has been read  and splines computed

   4.74381349E+03                                ecore*ucvol(ha*bohr**3)

-inwffil : will read wavefunctions from disk file /scratch/users/j/a/jabreu/flow_simple_6atoms/flow/w168/t1/indata/in_WFK

 ==>  initialize data related to q vector <==

 The list of irreducible perturbations for this q vector is:
    1)    idir= 1    ipert=   7
    2)    idir= 2    ipert=   7
    3)    idir= 3    ipert=   7

 Perturbation wavevector (in red.coord.)   0.000000  0.000000  0.000000
 Perturbation : derivative vs k along direction   1

 dfpt_looppert : COMMENT -
  In a d/dk calculation, iscf is set to -3 automatically.
 The set of symmetries contains only one element for this perturbation.
 symkpt : not enough symmetry to change the number of k points.

[...]

 Initialisation of the first-order wave-functions :
  ireadwf=   0

--- !BeginCycle
iteration_state: {dtset: 1, }
solver: {iscf: 7, nstep: 1000, nline: 4, wfoptalg: 0, }
tolerances: {tolwfr: 1.00E-20, }
...

     iter   2DEtotal(Ha)        deltaE(Ha) residm    vres2
-ETOT  1  -31.359581048198     -3.136E+01 2.185E-02 0.000E+00
 ETOT  2  -31.370460535076     -1.088E-02 5.402E-04 0.000E+00
 ETOT  3  -31.370497977964     -3.744E-05 7.671E-06 0.000E+00
 ETOT  4  -31.370498218386     -2.404E-07 8.043E-07 0.000E+00
 ETOT  5  -31.370498220195     -1.809E-09 1.736E-08 0.000E+00
 ETOT  6  -31.370498220210     -1.462E-11 1.943E-09 0.000E+00
 ETOT  7  -31.370498220210     -1.670E-13 9.455E-11 0.000E+00
 ETOT  8  -31.370498220210      3.197E-14 6.051E-12 0.000E+00
 ETOT  9  -31.370498220210     -1.066E-14 3.303E-13 0.000E+00
 ETOT 10  -31.370498220210      1.776E-14 1.966E-14 0.000E+00
 ETOT 11  -31.370498220210     -1.066E-14 1.104E-15 0.000E+00
 ETOT 12  -31.370498220210      0.000E+00 6.513E-17 0.000E+00
 ETOT 13  -31.370498220210      3.553E-15 3.696E-18 0.000E+00
 ETOT 14  -31.370498220210      7.105E-15 2.190E-19 0.000E+00
 ETOT 15  -31.370498220210      0.000E+00 1.255E-20 0.000E+00
 ETOT 16  -31.370498220210     -7.105E-15 9.385E-21 0.000E+00

 At SCF step   16   max residual=  9.38E-21 < tolwfr=  1.00E-20 =>converged.

 ----iterations are completed or convergence reached----

 dfpt_looppert: DFPT cycle converged with prtwf=-1. Will skip output of the 1st-order WFK file.
 dfpt_looppert : ek2=    4.9974290413E+01
          f-sum rule ratio=    1.1317530473E+00
 prteigrs : about to open file /scratch/users/j/a/jabreu/flow_simple_6atoms/flow/w168/t1/tmpdata/tmp_1WF1_EIG
 Expectation of eigenvalue derivatives (hartree) for nkpt=   1  k points:
  (in case of degenerate eigenvalues, averaged derivative)
 kpt#   1, nband= 33, wtk=  1.00000, kpt=  0.0000  0.0000  0.0000 (reduced coord)
   0.00000   -0.00000    0.00000    0.00000    0.00000    0.00000    0.00000   -0.00000
   0.00000    0.00000    0.00000    0.00000   -0.00000    0.00000    0.00000    0.00000
  -0.00000   -0.00000   -0.00000    0.00000    0.00000    0.00000   -0.00000   -0.00000
  -0.00000    0.00000    0.00000    0.00000    0.00000   -0.00000    0.00000   -0.01564
   0.00046

 Eight components of 2nd-order total energy (hartree) are
 1,2,3: 0th-order hamiltonian combined with 1st-order wavefunctions
     kin0=   2.91014042E+01 eigvalue=   8.60264745E-02  local=  -1.51499270E+01
 4,5,6: 1st-order hamiltonian combined with 1st and 0th-order wfs
     kin1=  -5.65585555E+01  Hartree=   0.00000000E+00     xc=   0.00000000E+00
 7,8,9: eventually, occupation + non-local contributions
    edocc=   1.34399321E+01     enl0=   3.89306247E+00   enl1=  -6.18244098E+00
 1-9 gives the relaxation energy (to be shifted if some occ is /=2.0)
   erelax=  -3.13704982E+01
  No Ewald or frozen-wf contrib.: the relaxation energy is the total one
 2DEtotal=   -0.3137049822E+02 Ha. Also 2DEtotal=   -0.853634668950E+03 eV
    (  non-var. 2DEtotal :   -3.1370498220E+01 Ha)

 Perturbation wavevector (in red.coord.)   0.000000  0.000000  0.000000
 Perturbation : derivative vs k along direction   2
 The set of symmetries contains only one element for this perturbation.
 symkpt : not enough symmetry to change the number of k points.

[...]

 Perturbation wavevector (in red.coord.)   0.000000  0.000000  0.000000
 Perturbation : derivative vs k along direction   3
 The set of symmetries contains only one element for this perturbation.
 symkpt : not enough symmetry to change the number of k points.

-inwffil : will read wavefunctions from disk file /scratch/users/j/a/jabreu/flow_simple_6atoms/flow/w168/t1/indata/in_WFK

 Initialisation of the first-order wave-functions :
  ireadwf=   0

--- !BeginCycle
iteration_state: {dtset: 1, }
solver: {iscf: 7, nstep: 1000, nline: 4, wfoptalg: 0, }
tolerances: {tolwfr: 1.00E-20, }
...

     iter   2DEtotal(Ha)        deltaE(Ha) residm    vres2
-ETOT  1  -10.099014018589     -1.010E+01 6.381E-03 0.000E+00
 ETOT  2  -10.103269832261     -4.256E-03 1.334E-05 0.000E+00
 ETOT  3  -10.103282071433     -1.224E-05 5.024E-08 0.000E+00
 ETOT  4  -10.103282175347     -1.039E-07 4.434E-09 0.000E+00
 ETOT  5  -10.103282176909     -1.563E-09 1.806E-11 0.000E+00
 ETOT  6  -10.103282176937     -2.736E-11 3.645E-12 0.000E+00
 ETOT  7  -10.103282176937     -4.796E-13 1.545E-14 0.000E+00
 ETOT  8  -10.103282176937     -1.066E-14 3.222E-15 0.000E+00
 ETOT  9  -10.103282176937      0.000E+00 1.416E-17 0.000E+00
 ETOT 10  -10.103282176937      5.329E-15 3.052E-18 0.000E+00
 ETOT 11  -10.103282176937      1.776E-15 1.395E-20 0.000E+00
 ETOT 12  -10.103282176937      1.776E-15 9.335E-21 0.000E+00

 At SCF step   12   max residual=  9.33E-21 < tolwfr=  1.00E-20 =>converged.

 ----iterations are completed or convergence reached----

 dfpt_looppert: DFPT cycle converged with prtwf=-1. Will skip output of the 1st-order WFK file.
 dfpt_looppert : ek2=    1.6978715031E+01
          f-sum rule ratio=    1.0722144321E+00
 prteigrs : about to open file /scratch/users/j/a/jabreu/flow_simple_6atoms/flow/w168/t1/tmpdata/tmp_1WF1_EIG
 Expectation of eigenvalue derivatives (hartree) for nkpt=   1  k points:
  (in case of degenerate eigenvalues, averaged derivative)
 kpt#   1, nband= 33, wtk=  1.00000, kpt=  0.0000  0.0000  0.0000 (reduced coord)
   0.00000    0.00000   -0.00000    0.00000   -0.00000   -0.00000   -0.00000   -0.00000
   0.00000    0.00000   -0.00000   -0.00000   -0.00000   -0.00000   -0.00000   -0.00000
   0.00000    0.00000    0.00000   -0.00000   -0.00000   -0.00000   -0.00000   -0.00000
  -0.00000   -0.00000    0.00000    0.00000    0.00000    0.00000    0.00000   -0.00003
  -0.00115

 Eight components of 2nd-order total energy (hartree) are
 1,2,3: 0th-order hamiltonian combined with 1st-order wavefunctions
     kin0=   1.13834454E+01 eigvalue=   1.80608487E-02  local=  -5.98505036E+00
 4,5,6: 1st-order hamiltonian combined with 1st and 0th-order wfs
     kin1=  -1.82048233E+01  Hartree=   0.00000000E+00     xc=   0.00000000E+00
 7,8,9: eventually, occupation + non-local contributions
    edocc=   3.26249256E+00     enl0=   1.42433374E+00   enl1=  -2.00174106E+00
 1-9 gives the relaxation energy (to be shifted if some occ is /=2.0)
   erelax=  -1.01032822E+01
  No Ewald or frozen-wf contrib.: the relaxation energy is the total one
 2DEtotal=   -0.1010328218E+02 Ha. Also 2DEtotal=   -0.274924289563E+03 eV
    (  non-var. 2DEtotal :   -1.0103282177E+01 Ha)

 CALCULATION OF EFFECTIVE MASSES
 NOTE : Additional infos (eff. mass eigenvalues, eigenvectors and, if degenerate, average mass) are available in stdout.

 COMMENTS:
 - At k-point ( 0.000, 0.000, 0.000), bands    23 through    24
   are DEGENERATE (effective mass tensor is therefore not defined).
   See Section IIIB Eqs. (67)-(70) and Appendix E of PRB 93 205147 (2016).
 - Angular average effective mass for Frohlich model is to be averaged over degenerate bands. See later.
 - Associated theta integrals calculated with ntheta=   1000 points.

 K-point ( 0.000, 0.000, 0.000) | band =    23
 Transport equivalent effective mass tensor:
             -0.3715671568             -0.0000007421              0.0000294322
             -0.0000007421             -0.3715675724              0.0000407727
              0.0000294322              0.0000407727             -6.0772079612
 Transport equivalent effective mass tensor eigenvalues:
             -6.0772079616             -0.3715681348             -0.3715665940
 Angular average effective mass 1/(<1/m>)=  -0.5377652400
 Angular average effective mass for Frohlich model (<m**0.5>)**2=  -0.6868930705
 Effective masses along directions: (cart. coord. / red. coord. -> eff. mass)
    1:   1.000000  0.000000  0.000000 /   1.000000  0.000000  0.000000 ->  -0.3883596237
    2:   0.000000  1.000000  0.000000 /   0.000000  1.000000  0.000000 ->  -0.3883596131
    3:   0.000000  0.000000  1.000000 /   0.000000  0.000000  1.000000 ->  -6.0232524607
    4:   0.577350  0.577350  0.577350 /   0.449769  0.449769  0.771632 ->  -0.5149585205
    5:   0.000000  0.707107  0.707107 /   0.000000  0.503579  0.863949 ->  -0.7296623195
    6:   0.707107  0.000000  0.707107 /   0.503579  0.000000  0.863949 ->  -0.7296654510
    7:   0.707107  0.707107  0.000000 /   0.707107  0.707107  0.000000 ->  -0.3533797088

 K-point ( 0.000, 0.000, 0.000) | band =    24
 Transport equivalent effective mass tensor:
             -1.7444638531              0.0000072015             -0.0000168760
              0.0000072015             -1.7444635086             -0.0000005648
             -0.0000168760             -0.0000005648             -7.0520276465
 Transport equivalent effective mass tensor eigenvalues:
             -7.0520276466             -1.7444708844             -1.7444564772
 Angular average effective mass 1/(<1/m>)=  -2.0947479306
 Angular average effective mass for Frohlich model (<m**0.5>)**2=  -2.3090408450
 Effective masses along directions: (cart. coord. / red. coord. -> eff. mass)
    1:   1.000000  0.000000  0.000000 /   1.000000  0.000000  0.000000 ->  -1.3081404834
    2:   0.000000  1.000000  0.000000 /   0.000000  1.000000  0.000000 ->  -1.3081404836
    3:   0.000000  0.000000  1.000000 /   0.000000  0.000000  1.000000 ->  -6.0234204753
    4:   0.577350  0.577350  0.577350 /   0.449769  0.449769  0.771632 ->  -2.5313406739
    5:   0.000000  0.707107  0.707107 /   0.000000  0.503579  0.863949 ->  -2.1494719605
    6:   0.707107  0.000000  0.707107 /   0.503579  0.000000  0.863949 ->  -2.1494758666
    7:   0.707107  0.707107  0.000000 /   0.707107  0.707107  0.000000 ->  -1.9624789169

 Angular average effective mass for Frohlich model, averaged over degenerate bands.
 Value of     (<<m**0.5>>)**2 =     1.378679E+00
 Absolute Value of <<m**0.5>> =     1.174171E+00

 K-point ( 0.000, 0.000, 0.000) | band =    25
 Effective mass tensor:
              0.3645909024              0.0000000225              0.0000001120
              0.0000000225              0.3645909397             -0.0000001828
              0.0000001120             -0.0000001828              0.9223646486
 Effective mass tensor eigenvalues:
              0.3645908918              0.3645909503              0.9223646486
 Angular average effective mass 1/(<1/m>)=   0.4566369882
 Angular average effective mass for Frohlich model (<m**0.5>)**2=   0.4785299725
 Effective masses along directions: (cart. coord. / red. coord. -> eff. mass)
    1:   1.000000  0.000000  0.000000 /   1.000000  0.000000  0.000000 ->   0.3645909024
    2:   0.000000  1.000000  0.000000 /   0.000000  1.000000  0.000000 ->   0.3645909397
    3:   0.000000  0.000000  1.000000 /   0.000000  0.000000  1.000000 ->   0.9223646486
    4:   0.577350  0.577350  0.577350 /   0.449769  0.449769  0.771632 ->   0.4566369824
    5:   0.000000  0.707107  0.707107 /   0.000000  0.503579  0.863949 ->   0.5226065321
    6:   0.707107  0.000000  0.707107 /   0.503579  0.000000  0.863949 ->   0.5226067331
    7:   0.707107  0.707107  0.000000 /   0.707107  0.707107  0.000000 ->   0.3645909435

 END OF EFFECTIVE MASSES SECTION

 ---- first-order wavefunction calculations are completed ----

 Total localisation tensor (bohr^2) in cartesian coordinates
  WARNING : still subject to testing - especially symmetries.
      direction              matrix element
   alpha     beta       real part   imaginary part
     1        1       1.4777924013    0.0000000000
     1        2       0.0000000000    0.0000000000
     1        3       0.0000000000    0.0000000000
     2        1       0.0000000000    0.0000000000
     2        2       1.4777805005    0.0000000000
     2        3       0.0000000000    0.0000000000
     3        1       0.0000000000    0.0000000000
     3        2       0.0000000000    0.0000000000
     3        3       1.2627094212    0.0000000000

 respfn : d/dk was computed, but no 2DTE, so no DDB output.

== END DATASET(S) ==============================================================

 -outvars: echo values of variables after computation  --------
            acell      1.0000000000E+00  1.0000000000E+00  1.0000000000E+00 Bohr
              amu      1.37327000E+02  1.26904470E+02  1.89984032E+01
             ecut      4.20000000E+01 Hartree
           etotal     -1.0103282177E+01
            fcart      0.0000000000E+00  0.0000000000E+00  0.0000000000E+00
                       0.0000000000E+00  0.0000000000E+00  0.0000000000E+00
                       0.0000000000E+00  0.0000000000E+00  0.0000000000E+00
                       0.0000000000E+00  0.0000000000E+00  0.0000000000E+00
                       0.0000000000E+00  0.0000000000E+00  0.0000000000E+00
                       0.0000000000E+00  0.0000000000E+00  0.0000000000E+00
-          fftalg         512
           irdden           1
           irdwfk           1
           istwfk        1
              ixc     -116133
           kptopt           0
P           mkmem           1
P          mkqmem           1
P          mk1mem           1
            natom           6
            nband          33
           nbdbuf           4
            ngfft          54      54      90
             nkpt           1
            nstep        1000
             nsym          16
           ntypat           3
              occ      2.000000  2.000000  2.000000  2.000000  2.000000  2.000000
                       2.000000  2.000000  2.000000  2.000000  2.000000  2.000000
                       2.000000  2.000000  2.000000  2.000000  2.000000  2.000000
                       2.000000  2.000000  2.000000  2.000000  2.000000  2.000000
                       0.000000  0.000000  0.000000  0.000000  0.000000  0.000000
                       0.000000  0.000000  0.000000
        optdriver           1
            prtwf          -1
            rfdir           1       1       1
           rfelfd           2
            rprim      8.7084761495E+00  0.0000000000E+00  0.0000000000E+00
                       0.0000000000E+00  8.7084761495E+00  0.0000000000E+00
                       0.0000000000E+00  0.0000000000E+00  1.4940429250E+01
          spgroup         129
           strten      0.0000000000E+00  0.0000000000E+00  0.0000000000E+00
                       0.0000000000E+00  0.0000000000E+00  0.0000000000E+00
           symrel      1  0  0   0  1  0   0  0  1      -1  0  0   0 -1  0   0  0 -1
                      -1  0  0   0  1  0   0  0 -1       1  0  0   0 -1  0   0  0  1
                      -1  0  0   0 -1  0   0  0  1       1  0  0   0  1  0   0  0 -1
                       1  0  0   0 -1  0   0  0 -1      -1  0  0   0  1  0   0  0  1
                       0  1  0   1  0  0   0  0  1       0 -1  0  -1  0  0   0  0 -1
                       0 -1  0   1  0  0   0  0 -1       0  1  0  -1  0  0   0  0  1
                       0 -1  0  -1  0  0   0  0  1       0  1  0   1  0  0   0  0 -1
                       0  1  0  -1  0  0   0  0 -1       0 -1  0   1  0  0   0  0  1
            tnons      0.0000000  0.0000000  0.0000000     0.5000000  0.5000000  0.0000000
                       0.5000000  0.5000000  0.0000000     0.0000000  0.0000000  0.0000000
                       0.0000000  0.0000000  0.0000000     0.5000000  0.5000000  0.0000000
                       0.5000000  0.5000000  0.0000000     0.0000000  0.0000000  0.0000000
                       0.5000000  0.5000000  0.0000000     0.0000000  0.0000000  0.0000000
                       0.0000000  0.0000000  0.0000000     0.5000000  0.5000000  0.0000000
                       0.5000000  0.5000000  0.0000000     0.0000000  0.0000000  0.0000000
                       0.0000000  0.0000000  0.0000000     0.5000000  0.5000000  0.0000000
           tolwfr      1.00000000E-20
            typat      1  1  2  2  3  3
           useylm           1
           xangst      0.0000000000E+00  2.3041635499E+00  6.5563202774E+00
                       2.3041635499E+00  0.0000000000E+00  1.3498143680E+00
                       2.3041635499E+00  0.0000000000E+00  5.1324649585E+00
                       0.0000000000E+00  2.3041635499E+00  2.7736696870E+00
                       2.3041635499E+00  2.3041635499E+00  0.0000000000E+00
                       0.0000000000E+00  0.0000000000E+00  0.0000000000E+00
            xcart      0.0000000000E+00  4.3542380747E+00  1.2389649764E+01
                       4.3542380747E+00  0.0000000000E+00  2.5507794858E+00
                       4.3542380747E+00  0.0000000000E+00  9.6989531581E+00
                       0.0000000000E+00  4.3542380747E+00  5.2414760915E+00
                       4.3542380747E+00  4.3542380747E+00  0.0000000000E+00
                       0.0000000000E+00  0.0000000000E+00  0.0000000000E+00
             xred      0.0000000000E+00  5.0000000000E-01  8.2927000000E-01
                       5.0000000000E-01  0.0000000000E+00  1.7073000000E-01
                       5.0000000000E-01  0.0000000000E+00  6.4917500000E-01
                       0.0000000000E+00  5.0000000000E-01  3.5082500000E-01
                       5.0000000000E-01  5.0000000000E-01  0.0000000000E+00
                       0.0000000000E+00  0.0000000000E+00  0.0000000000E+00
            znucl       56.00000   53.00000    9.00000

- Timing analysis has been suppressed with timopt=0

 Suggested references for the acknowledgment of ABINIT usage.

 Calculation completed.
.Delivered   6 WARNINGs and   5 COMMENTs to log file.