.Version 9.5.1 of ABINIT

 ABINIT is a project of the Universite Catholique de Louvain,
 Corning Inc. and other collaborators, see ~abinit/doc/developers/contributors.txt .
 acknowledgments of the ABINIT effort.

.Starting date : Wed 19 May 2021.
- ( at 12h04 )

- input  file    -> /scratch/users/j/a/jabreu/flow_simple_9atoms/flow/w122/t1/run.abi
- output file    -> /scratch/users/j/a/jabreu/flow_simple_9atoms/flow/w122/t1/run.abo
- root for input  files -> /scratch/users/j/a/jabreu/flow_simple_9atoms/flow/w122/t1/indata/in
- root for output files -> /scratch/users/j/a/jabreu/flow_simple_9atoms/flow/w122/t1/outdata/out

 Symmetries : space group I-4 2 m (#121); Bravais tI (body-center tetrag.)
     intxc =       0      iscf =       7    lmnmax =      18     lnmax =       6
     mgfft =      80  mpssoang =       3    mqgrid =    3001     natom =       9
  nloc_mem =       1    nspden =       1   nspinor =       1    nsppol =       1
      nsym =       8    n1xccc =    2501    ntypat =       3    occopt =       1
   xclevel =       2
-    mband =          65        mffmem =           1         mkmem =           2
-   mkqmem =           2        mk1mem =           2           mpw =       15026
      nfft =      512000          nkpt =           2
  Rough estimation (10% accuracy) of disk space for files :

------------- Echo of variables that govern the present computation ------------
-
- outvars: echo of selected default values
-   iomode0 =  0 , fftalg0 =512 , wfoptalg0 =  0
-
- outvars: echo of global parameters not present in the input file
-  max_nthreads =    0
-
 -outvars: echo values of preprocessed input variables --------
            acell      1.0000000000E+00  1.0000000000E+00  1.0000000000E+00 Bohr
              amu      4.78800000E+01  6.35460000E+01  3.20660000E+01
             ecut      4.60000000E+01 Hartree
-          fftalg         512
           irdden           1
           irdwfk           1
              ixc     -116133
              kpt      0.00000000E+00  0.00000000E+00  4.20000000E-01
                       5.00000000E-01  5.00000000E-01 -3.05566230E-01
           kptopt           0
P           mkmem           2
P          mkqmem           2
P          mk1mem           2
            natom           9
            nband          65
           nbdbuf           4
            ngfft          80      80      80
             nkpt           2
            nstep        2000
             nsym           8
           ntypat           3
              occ      2.000000  2.000000  2.000000  2.000000  2.000000  2.000000
                       2.000000  2.000000  2.000000  2.000000  2.000000  2.000000
                       2.000000  2.000000  2.000000  2.000000  2.000000  2.000000
                       2.000000  2.000000  2.000000  2.000000  2.000000  2.000000
                       2.000000  2.000000  2.000000  2.000000  2.000000  2.000000
                       2.000000  2.000000  2.000000  2.000000  2.000000  2.000000
                       2.000000  2.000000  2.000000  2.000000  2.000000  2.000000
                       2.000000  2.000000  2.000000  2.000000  2.000000  2.000000
                       2.000000  2.000000  2.000000  2.000000  2.000000  2.000000
                       2.000000  2.000000  0.000000  0.000000  0.000000  0.000000
                       0.000000  0.000000  0.000000  0.000000  0.000000
        optdriver           1
            prtwf          -1
            rfdir           1       1       1
           rfelfd           2
            rprim      9.1978068251E+00  0.0000000000E+00 -8.0135365347E+00
                      -1.9046263007E+00  8.9984470353E+00 -8.0135365347E+00
                       0.0000000000E+00  0.0000000000E+00  1.2199033494E+01
          spgroup         121
           symrel      1  0  0   0  1  0   0  0  1       0  0  1  -1 -1 -1   1  0  0
                       0  1  0   1  0  0  -1 -1 -1      -1 -1 -1   0  0  1   0  1  0
                       0  1  0   1  0  0   0  0  1       0  0  1  -1 -1 -1   0  1  0
                       1  0  0   0  1  0  -1 -1 -1      -1 -1 -1   0  0  1   1  0  0
           tolwfr      1.00000000E-20
            typat      1  2  2  2  2  3  3  3  3
           useylm           1
              wtk        0.50000    0.50000
           xangst      0.0000000000E+00  0.0000000000E+00  0.0000000000E+00
                      -5.0394241461E-01  2.3808865419E+00  1.1074347987E+00
                       2.4336348704E+00  0.0000000000E+00  1.1074347987E+00
                       2.8665041117E+00  3.5367402932E+00 -6.2992641823E+00
                       9.9288079991E-01  1.2250327906E+00 -2.1818976064E+00
                      -4.6771819854E-02  2.9887840173E+00 -3.1720605235E+00
                       3.3948577655E+00  4.1886317901E+00 -4.1855001333E+00
                       1.4369956592E+00  1.7729890665E+00  2.2748094666E-02
                       2.9336882184E+00  5.7314129368E-01 -3.1720605235E+00
            xcart      0.0000000000E+00  0.0000000000E+00  0.0000000000E+00
                      -9.5231315035E-01  4.4992235176E+00  2.0927484796E+00
                       4.5989034126E+00  0.0000000000E+00  2.0927484796E+00
                       5.4169077300E+00  6.6834705572E+00 -1.1903884143E+01
                       1.8762727944E+00  2.3149764781E+00 -4.1231889261E+00
                      -8.8385930260E-02  5.6479832631E+00 -5.9943256664E+00
                       6.4153514369E+00  7.9153669548E+00 -7.9094489811E+00
                       2.7155282501E+00  3.3504637722E+00  4.2987668964E-02
                       5.5438672920E+00  1.0830800805E+00 -5.9943256664E+00
             xred      0.0000000000E+00  0.0000000000E+00  0.0000000000E+00
                      -1.3877787808E-17  5.0000000000E-01  5.0000000000E-01
                       5.0000000000E-01  0.0000000000E+00  5.0000000000E-01
                       7.4273600000E-01  7.4273600000E-01 -1.1102230246E-16
                       2.5726400000E-01  2.5726400000E-01  0.0000000000E+00
                       1.2036300000E-01  6.2766200000E-01 -5.7245874707E-17
                       8.7963700000E-01  8.7963700000E-01  5.0729900000E-01
                       3.7233800000E-01  3.7233800000E-01  4.9270100000E-01
                       6.2766200000E-01  1.2036300000E-01 -1.6653345369E-16
            znucl       22.00000   29.00000   16.00000

 chkinp: Checking input parameters for consistency.

== DATASET  1 ==================================================================
-   mpi_nproc: 1, omp_nthreads: -1 (-1 if OMP is not activated)

--- !DatasetInfo
iteration_state: {dtset: 1, }
dimensions: {natom: 9, nkpt: 2, mband: 65, nsppol: 1, nspinor: 1, nspden: 1, mpw: 15026, }
cutoff_energies: {ecut:  46.0, pawecutdg:  -1.0, }
electrons: {nelect:   1.12000000E+02, charge:   0.00000000E+00, occopt:   1.00000000E+00, tsmear:   1.00000000E-02, }
meta: {optdriver: 1, rfelfd: 2, }
...

 Real(R)+Recip(G) space primitive vectors, cartesian coordinates (Bohr,Bohr^-1):
 R(1)=  9.1978068  0.0000000 -8.0135365  G(1)=  0.1087216  0.0230122  0.0000000
 R(2)= -1.9046263  8.9984470 -8.0135365  G(2)=  0.0000000  0.1111303  0.0000000
 R(3)=  0.0000000  0.0000000 12.1990335  G(3)=  0.0714191  0.0881181  0.0819737
 Unit cell volume ucvol=  1.0096649E+03 bohr^3
 Angles (23,13,12)=  1.31063822E+02  1.31063822E+02  7.17116987E+01 degrees

 getcut: wavevector=  0.0000  0.0000  0.0000  ngfft=  80  80  80
         ecut(hartree)=     46.000   => boxcut(ratio)=   2.14816

--- Pseudopotential description ------------------------------------------------
- pspini: atom type   1  psp file is /scratch/users/j/a/jabreu/pseudos/PBEsol/Ti.psp8
- pspatm: opening atomic psp file    /scratch/users/j/a/jabreu/pseudos/PBEsol/Ti.psp8
- Ti    ONCVPSP-3.3.0  r_core=   1.35825   1.31050   1.66360
- 22.00000  12.00000    180112                znucl, zion, pspdat
    8 -116133    2    4       600   0.00000   pspcod,pspxc,lmax,lloc,mmax,r2well
    5.99000000000000    2.50000000000000    0.00000000000000   rchrg,fchrg,qchrg
     nproj     2     2     2
     extension_switch     1
  pspatm : epsatm=   14.76919902
         --- l  ekb(1:nproj) -->
             0   11.321950    1.254474
             1    1.946894   -0.084268
             2   -5.237105   -1.488377
 pspatm: atomic psp has been read  and splines computed

- pspini: atom type   2  psp file is /scratch/users/j/a/jabreu/pseudos/PBEsol/Cu.psp8
- pspatm: opening atomic psp file    /scratch/users/j/a/jabreu/pseudos/PBEsol/Cu.psp8
- Cu    ONCVPSP-3.3.0  r_core=   1.26204   1.45626   1.76249
- 29.00000  19.00000    180112                znucl, zion, pspdat
    8 -116133    2    4       600   0.00000   pspcod,pspxc,lmax,lloc,mmax,r2well
    5.99000000000000    3.50000000000000    0.00000000000000   rchrg,fchrg,qchrg
     nproj     2     2     2
     extension_switch     1
  pspatm : epsatm=   21.63488701
         --- l  ekb(1:nproj) -->
             0    5.008230   -0.401634
             1   -3.496700   -0.765945
             2   -6.895851   -2.521180
 pspatm: atomic psp has been read  and splines computed

- pspini: atom type   3  psp file is /scratch/users/j/a/jabreu/pseudos/PBEsol/S.psp8
- pspatm: opening atomic psp file    /scratch/users/j/a/jabreu/pseudos/PBEsol/S.psp8
- S     ONCVPSP-3.3.0  r_core=   1.45376   1.45376   1.61851
- 16.00000   6.00000    180112                znucl, zion, pspdat
    8 -116133    2    4       600   0.00000   pspcod,pspxc,lmax,lloc,mmax,r2well
    5.99000000000000    6.00000000000000    0.00000000000000   rchrg,fchrg,qchrg
     nproj     2     2     2
     extension_switch     1
  pspatm : epsatm=    8.71840985
         --- l  ekb(1:nproj) -->
             0    6.834532    0.579453
             1    3.282851    0.896984
             2   -3.496974   -0.974265
 pspatm: atomic psp has been read  and splines computed

   1.52524273E+04                                ecore*ucvol(ha*bohr**3)

-inwffil : will read wavefunctions from disk file /scratch/users/j/a/jabreu/flow_simple_9atoms/flow/w122/t1/indata/in_WFK

 ==>  initialize data related to q vector <==

 The list of irreducible perturbations for this q vector is:
    1)    idir= 1    ipert=  10
    2)    idir= 2    ipert=  10
    3)    idir= 3    ipert=  10

 Perturbation wavevector (in red.coord.)   0.000000  0.000000  0.000000
 Perturbation : derivative vs k along direction   1

 dfpt_looppert : COMMENT -
  In a d/dk calculation, iscf is set to -3 automatically.
 The set of symmetries contains only one element for this perturbation.
 symkpt : not enough symmetry to change the number of k points.

[...]

 Initialisation of the first-order wave-functions :
  ireadwf=   0

--- !BeginCycle
iteration_state: {dtset: 1, }
solver: {iscf: 7, nstep: 2000, nline: 4, wfoptalg: 0, }
tolerances: {tolwfr: 1.00E-20, }
...

     iter   2DEtotal(Ha)        deltaE(Ha) residm    vres2
-ETOT  1  -59.525481011805     -5.953E+01 1.538E-01 0.000E+00
 ETOT  2  -59.993723223622     -4.682E-01 7.001E-03 0.000E+00
 ETOT  3  -60.014280057312     -2.056E-02 1.479E-03 0.000E+00
 ETOT  4  -60.015627272192     -1.347E-03 1.155E-04 0.000E+00
 ETOT  5  -60.015729339416     -1.021E-04 2.997E-05 0.000E+00
[...]
 ETOT 26  -60.015738499544      7.105E-15 3.323E-19 0.000E+00
 ETOT 27  -60.015738499544      7.105E-15 1.006E-19 0.000E+00
 ETOT 28  -60.015738499544      0.000E+00 1.742E-20 0.000E+00
 ETOT 29  -60.015738499544     -1.421E-14 9.934E-21 0.000E+00

 At SCF step   29   max residual=  9.93E-21 < tolwfr=  1.00E-20 =>converged.

 ----iterations are completed or convergence reached----

 dfpt_looppert: DFPT cycle converged with prtwf=-1. Will skip output of the 1st-order WFK file.
 dfpt_looppert : ek2=    1.0921256962E+02
          f-sum rule ratio=    1.0114137025E+00
 prteigrs : about to open file /scratch/users/j/a/jabreu/flow_simple_9atoms/flow/w122/t1/tmpdata/tmp_1WF1_EIG
 Expectation of eigenvalue derivatives (hartree) for nkpt=   2  k points:
  (in case of degenerate eigenvalues, averaged derivative)
 kpt#   1, nband= 65, wtk=  0.50000, kpt=  0.0000  0.0000  0.4200 (reduced coord)
   0.00000   -0.00000    0.00000   -0.00000   -0.00001    0.00001   -0.00000    0.00000
   0.00000   -0.00000   -0.00000    0.00000   -0.00000   -0.00000   -0.00000   -0.00000
   0.00001   -0.00000   -0.00007   -0.00007    0.04660   -0.00848   -0.00783   -0.02987
  -0.02073   -0.01360   -0.01579   -0.02722    0.05055   -0.01514    0.00461    0.02115
   0.01776   -0.01486    0.00453   -0.00578    0.01199    0.02067    0.02174    0.00581
  -0.00574    0.00273   -0.00061    0.01403    0.00059   -0.00502   -0.03055   -0.00390
  -0.02625   -0.00757    0.02866   -0.01428   -0.01946   -0.01052    0.06214    0.00233
   0.00724    0.00108   -0.00888    0.04534    0.04503   -0.09182   -0.11137    0.09845
   0.01509
 prteigrs : prtvol=0 or 1, do not print more k-points.

 Eight components of 2nd-order total energy (hartree) are
 1,2,3: 0th-order hamiltonian combined with 1st-order wavefunctions
     kin0=   1.00363416E+02 eigvalue=  -3.06662767E+00  local=  -4.27547213E+01
 4,5,6: 1st-order hamiltonian combined with 1st and 0th-order wfs
     kin1=  -1.10459089E+02  Hartree=   0.00000000E+00     xc=   0.00000000E+00
 7,8,9: eventually, occupation + non-local contributions
    edocc=   1.02253832E+01     enl0=  -4.75171173E+00   enl1=  -9.57238761E+00
 1-9 gives the relaxation energy (to be shifted if some occ is /=2.0)
   erelax=  -6.00157385E+01
  No Ewald or frozen-wf contrib.: the relaxation energy is the total one
 2DEtotal=   -0.6001573850E+02 Ha. Also 2DEtotal=   -0.163311129795E+04 eV
    (  non-var. 2DEtotal :   -6.0015738499E+01 Ha)

 Perturbation wavevector (in red.coord.)   0.000000  0.000000  0.000000
 Perturbation : derivative vs k along direction   2
 The set of symmetries contains only one element for this perturbation.
 symkpt : not enough symmetry to change the number of k points.

[...]

 Perturbation wavevector (in red.coord.)   0.000000  0.000000  0.000000
 Perturbation : derivative vs k along direction   3
 The set of symmetries contains only one element for this perturbation.
 symkpt : not enough symmetry to change the number of k points.

-inwffil : will read wavefunctions from disk file /scratch/users/j/a/jabreu/flow_simple_9atoms/flow/w122/t1/indata/in_WFK

 Initialisation of the first-order wave-functions :
  ireadwf=   0

--- !BeginCycle
iteration_state: {dtset: 1, }
solver: {iscf: 7, nstep: 2000, nline: 4, wfoptalg: 0, }
tolerances: {tolwfr: 1.00E-20, }
...

     iter   2DEtotal(Ha)        deltaE(Ha) residm    vres2
-ETOT  1  -93.463712678467     -9.346E+01 3.215E-01 0.000E+00
 ETOT  2  -94.209378112744     -7.457E-01 1.411E-02 0.000E+00
 ETOT  3  -94.241298539599     -3.192E-02 2.960E-03 0.000E+00
 ETOT  4  -94.243314085840     -2.016E-03 2.030E-04 0.000E+00
 ETOT  5  -94.243461828014     -1.477E-04 5.931E-05 0.000E+00
 ETOT  6  -94.243473609738     -1.178E-05 4.664E-06 0.000E+00
 ETOT  7  -94.243474615939     -1.006E-06 1.384E-06 0.000E+00
 ETOT  8  -94.243474706437     -9.050E-08 1.197E-07 0.000E+00
 ETOT  9  -94.243474714964     -8.527E-09 3.441E-08 0.000E+00
 ETOT 10  -94.243474715795     -8.308E-10 4.569E-09 0.000E+00
 ETOT 11  -94.243474715879     -8.365E-11 9.815E-10 0.000E+00
 ETOT 12  -94.243474715887     -8.455E-12 1.906E-10 0.000E+00
 ETOT 13  -94.243474715888     -9.805E-13 4.107E-11 0.000E+00
 ETOT 14  -94.243474715888      4.263E-14 8.003E-12 0.000E+00
 ETOT 15  -94.243474715888     -1.847E-13 1.734E-12 0.000E+00
 ETOT 16  -94.243474715888      9.948E-14 3.380E-13 0.000E+00
 ETOT 17  -94.243474715888     -7.105E-14 7.366E-14 0.000E+00
 ETOT 18  -94.243474715888      4.263E-14 1.435E-14 0.000E+00
 ETOT 19  -94.243474715888     -5.684E-14 3.144E-15 0.000E+00
 ETOT 20  -94.243474715888      1.421E-14 6.114E-16 0.000E+00
 ETOT 21  -94.243474715888     -1.421E-14 1.347E-16 0.000E+00
 ETOT 22  -94.243474715888      2.842E-14 2.614E-17 0.000E+00
 ETOT 23  -94.243474715888     -2.842E-14 5.788E-18 0.000E+00
 ETOT 24  -94.243474715888      2.842E-14 1.121E-18 0.000E+00
 ETOT 25  -94.243474715888      0.000E+00 2.493E-19 0.000E+00
 ETOT 26  -94.243474715888     -1.421E-14 4.819E-20 0.000E+00
 ETOT 27  -94.243474715888     -2.842E-14 1.076E-20 0.000E+00
 ETOT 28  -94.243474715888      0.000E+00 9.962E-21 0.000E+00

 At SCF step   28   max residual=  9.96E-21 < tolwfr=  1.00E-20 =>converged.

 ----iterations are completed or convergence reached----

 dfpt_looppert: DFPT cycle converged with prtwf=-1. Will skip output of the 1st-order WFK file.
 dfpt_looppert : ek2=    1.7319498023E+02
          f-sum rule ratio=    9.9899943166E-01
 prteigrs : about to open file /scratch/users/j/a/jabreu/flow_simple_9atoms/flow/w122/t1/tmpdata/tmp_1WF1_EIG
 Expectation of eigenvalue derivatives (hartree) for nkpt=   2  k points:
  (in case of degenerate eigenvalues, averaged derivative)
 kpt#   1, nband= 65, wtk=  0.50000, kpt=  0.0000  0.0000  0.4200 (reduced coord)
   0.00000   -0.00000    0.00000   -0.00000   -0.00001    0.00001   -0.00001    0.00001
   0.00000   -0.00000   -0.00000    0.00000   -0.00000   -0.00000   -0.00000   -0.00000
   0.00002   -0.00001   -0.00015   -0.00015    0.09320   -0.01696   -0.01565   -0.05973
  -0.04145   -0.02721   -0.03158   -0.05444    0.10109   -0.03029    0.00922    0.04231
   0.03552   -0.02971    0.00907   -0.01157    0.02397    0.04134    0.04348    0.01162
  -0.01148    0.00545   -0.00121    0.02806    0.00119   -0.01004   -0.06109   -0.00781
  -0.05250   -0.01515    0.05733   -0.02856   -0.03891   -0.02103    0.12428    0.00466
   0.01449    0.00216   -0.01776    0.09067    0.09006   -0.18363   -0.22273    0.19691
   0.03018
 prteigrs : prtvol=0 or 1, do not print more k-points.

 Eight components of 2nd-order total energy (hartree) are
 1,2,3: 0th-order hamiltonian combined with 1st-order wavefunctions
     kin0=   1.63627105E+02 eigvalue=  -5.20656241E+00  local=  -7.02006262E+01
 4,5,6: 1st-order hamiltonian combined with 1st and 0th-order wfs
     kin1=  -1.73021687E+02  Hartree=   0.00000000E+00     xc=   0.00000000E+00
 7,8,9: eventually, occupation + non-local contributions
    edocc=   1.40824179E+01     enl0=  -8.05885910E+00   enl1=  -1.54652626E+01
 1-9 gives the relaxation energy (to be shifted if some occ is /=2.0)
   erelax=  -9.42434747E+01
  No Ewald or frozen-wf contrib.: the relaxation energy is the total one
 2DEtotal=   -0.9424347472E+02 Ha. Also 2DEtotal=   -0.256449536679E+04 eV
    (  non-var. 2DEtotal :   -9.4243474715E+01 Ha)

 CALCULATION OF EFFECTIVE MASSES
 NOTE : Additional infos (eff. mass eigenvalues, eigenvectors and, if degenerate, average mass) are available in stdout.

 K-point ( 0.000, 0.000, 0.420) | band =    56
 Effective mass tensor:
             -1.3774198342             -0.2968580907              0.3550161974
             -0.2968580907             -1.5030867907              0.4380248693
              0.3550161974              0.4380248693             -2.1163695828
 Effective mass tensor eigenvalues:
             -2.5238513964             -1.3362064540             -1.1368183574
 Angular average effective mass 1/(<1/m>)=  -1.4820265812
 Angular average effective mass for Frohlich model (<m**0.5>)**2=  -1.5289579509
 Effective masses along directions: (cart. coord. / red. coord. -> eff. mass)
    1:   1.000000  0.000000  0.000000 /   0.979226 -0.202772  0.000000 ->  -1.2825383017
    2:   0.000000  1.000000  0.000000 /   0.000000  1.000000  0.000000 ->  -1.3745654924
    3:   0.000000  0.000000  1.000000 /  -0.481270 -0.481270  0.732638 ->  -1.9340535734
    4:   0.577350  0.577350  0.577350 /   0.096354 -0.074829  0.992530 ->  -1.3345527959
    5:   0.000000  0.707107  0.707107 /  -0.547790  0.067327  0.833902 ->  -1.3295018584
    6:   0.707107  0.000000  0.707107 /   0.075112 -0.629058  0.773721 ->  -1.3268797667
    7:   0.707107  0.707107  0.000000 /   0.791850  0.610715  0.000000 ->  -1.5865702259

 K-point ( 0.500, 0.500,-0.306) | band =    57
 Effective mass tensor:
              0.8774944795             -0.0840585213              0.0739406787
             -0.0840585213              0.8419104856              0.0912283647
              0.0739406787              0.0912283647              0.6961626628
 Effective mass tensor eigenvalues:
              0.6112950946              0.8586492142              0.9456233191
 Angular average effective mass 1/(<1/m>)=   0.7776060628
 Angular average effective mass for Frohlich model (<m**0.5>)**2=   0.7862177477
 Effective masses along directions: (cart. coord. / red. coord. -> eff. mass)
    1:   1.000000  0.000000  0.000000 /   0.979226 -0.202772  0.000000 ->   0.8590517492
    2:   0.000000  1.000000  0.000000 /   0.000000  1.000000  0.000000 ->   0.8198493810
    3:   0.000000  0.000000  1.000000 /  -0.481270 -0.481270  0.732638 ->   0.6783413064
    4:   0.577350  0.577350  0.577350 /   0.096354 -0.074829  0.992530 ->   0.8591994693
    5:   0.000000  0.707107  0.707107 /  -0.547790  0.067327  0.833902 ->   0.8524025051
    6:   0.707107  0.000000  0.707107 /   0.075112 -0.629058  0.773721 ->   0.8487091760
    7:   0.707107  0.707107  0.000000 /   0.791850  0.610715  0.000000 ->   0.7556329607

 END OF EFFECTIVE MASSES SECTION

 ---- first-order wavefunction calculations are completed ----

 Total localisation tensor (bohr^2) in cartesian coordinates
  WARNING : still subject to testing - especially symmetries.
      direction              matrix element
   alpha     beta       real part   imaginary part
     1        1       0.8426315729    0.0000000000
     1        2      -0.1636875315    0.0000000000
     1        3      -0.5581811001    0.0000000000
     2        1      -0.1636875315    0.0000000000
     2        2       0.7733451867    0.0000000000
     2        3      -0.6886999372    0.0000000000
     3        1      -0.5581811001    0.0000000000
     3        2      -0.6886999372    0.0000000000
     3        3       3.3879400053    0.0000000000

 respfn : d/dk was computed, but no 2DTE, so no DDB output.

== END DATASET(S) ==============================================================

 -outvars: echo values of variables after computation  --------
            acell      1.0000000000E+00  1.0000000000E+00  1.0000000000E+00 Bohr
              amu      4.78800000E+01  6.35460000E+01  3.20660000E+01
             ecut      4.60000000E+01 Hartree
           etotal     -9.4243474716E+01
            fcart      0.0000000000E+00  0.0000000000E+00  0.0000000000E+00
                       0.0000000000E+00  0.0000000000E+00  0.0000000000E+00
                       0.0000000000E+00  0.0000000000E+00  0.0000000000E+00
                       0.0000000000E+00  0.0000000000E+00  0.0000000000E+00
                       0.0000000000E+00  0.0000000000E+00  0.0000000000E+00
                       0.0000000000E+00  0.0000000000E+00  0.0000000000E+00
                       0.0000000000E+00  0.0000000000E+00  0.0000000000E+00
                       0.0000000000E+00  0.0000000000E+00  0.0000000000E+00
                       0.0000000000E+00  0.0000000000E+00  0.0000000000E+00
-          fftalg         512
           irdden           1
           irdwfk           1
              ixc     -116133
              kpt      0.00000000E+00  0.00000000E+00  4.20000000E-01
                       5.00000000E-01  5.00000000E-01 -3.05566230E-01
           kptopt           0
P           mkmem           2
P          mkqmem           2
P          mk1mem           2
            natom           9
            nband          65
           nbdbuf           4
            ngfft          80      80      80
             nkpt           2
            nstep        2000
             nsym           8
           ntypat           3
              occ      2.000000  2.000000  2.000000  2.000000  2.000000  2.000000
                       2.000000  2.000000  2.000000  2.000000  2.000000  2.000000
                       2.000000  2.000000  2.000000  2.000000  2.000000  2.000000
                       2.000000  2.000000  2.000000  2.000000  2.000000  2.000000
                       2.000000  2.000000  2.000000  2.000000  2.000000  2.000000
                       2.000000  2.000000  2.000000  2.000000  2.000000  2.000000
                       2.000000  2.000000  2.000000  2.000000  2.000000  2.000000
                       2.000000  2.000000  2.000000  2.000000  2.000000  2.000000
                       2.000000  2.000000  2.000000  2.000000  2.000000  2.000000
                       2.000000  2.000000  0.000000  0.000000  0.000000  0.000000
                       0.000000  0.000000  0.000000  0.000000  0.000000
        optdriver           1
            prtwf          -1
            rfdir           1       1       1
           rfelfd           2
            rprim      9.1978068251E+00  0.0000000000E+00 -8.0135365347E+00
                      -1.9046263007E+00  8.9984470353E+00 -8.0135365347E+00
                       0.0000000000E+00  0.0000000000E+00  1.2199033494E+01
          spgroup         121
           strten      0.0000000000E+00  0.0000000000E+00  0.0000000000E+00
                       0.0000000000E+00  0.0000000000E+00  0.0000000000E+00
           symrel      1  0  0   0  1  0   0  0  1       0  0  1  -1 -1 -1   1  0  0
                       0  1  0   1  0  0  -1 -1 -1      -1 -1 -1   0  0  1   0  1  0
                       0  1  0   1  0  0   0  0  1       0  0  1  -1 -1 -1   0  1  0
                       1  0  0   0  1  0  -1 -1 -1      -1 -1 -1   0  0  1   1  0  0
           tolwfr      1.00000000E-20
            typat      1  2  2  2  2  3  3  3  3
           useylm           1
              wtk        0.50000    0.50000
           xangst      0.0000000000E+00  0.0000000000E+00  0.0000000000E+00
                      -5.0394241461E-01  2.3808865419E+00  1.1074347987E+00
                       2.4336348704E+00  0.0000000000E+00  1.1074347987E+00
                       2.8665041117E+00  3.5367402932E+00 -6.2992641823E+00
                       9.9288079991E-01  1.2250327906E+00 -2.1818976064E+00
                      -4.6771819854E-02  2.9887840173E+00 -3.1720605235E+00
                       3.3948577655E+00  4.1886317901E+00 -4.1855001333E+00
                       1.4369956592E+00  1.7729890665E+00  2.2748094666E-02
                       2.9336882184E+00  5.7314129368E-01 -3.1720605235E+00
            xcart      0.0000000000E+00  0.0000000000E+00  0.0000000000E+00
                      -9.5231315035E-01  4.4992235176E+00  2.0927484796E+00
                       4.5989034126E+00  0.0000000000E+00  2.0927484796E+00
                       5.4169077300E+00  6.6834705572E+00 -1.1903884143E+01
                       1.8762727944E+00  2.3149764781E+00 -4.1231889261E+00
                      -8.8385930260E-02  5.6479832631E+00 -5.9943256664E+00
                       6.4153514369E+00  7.9153669548E+00 -7.9094489811E+00
                       2.7155282501E+00  3.3504637722E+00  4.2987668964E-02
                       5.5438672920E+00  1.0830800805E+00 -5.9943256664E+00
             xred      0.0000000000E+00  0.0000000000E+00  0.0000000000E+00
                      -1.3877787808E-17  5.0000000000E-01  5.0000000000E-01
                       5.0000000000E-01  0.0000000000E+00  5.0000000000E-01
                       7.4273600000E-01  7.4273600000E-01 -1.1102230246E-16
                       2.5726400000E-01  2.5726400000E-01  0.0000000000E+00
                       1.2036300000E-01  6.2766200000E-01 -5.7245874707E-17
                       8.7963700000E-01  8.7963700000E-01  5.0729900000E-01
                       3.7233800000E-01  3.7233800000E-01  4.9270100000E-01
                       6.2766200000E-01  1.2036300000E-01 -1.6653345369E-16
            znucl       22.00000   29.00000   16.00000

- Timing analysis has been suppressed with timopt=0

 Suggested references for the acknowledgment of ABINIT usage.

 Calculation completed.
.Delivered  14 WARNINGs and  11 COMMENTs to log file.