.Version 9.7.2 of ABINIT

 ABINIT is a project of the Universite Catholique de Louvain,
 Corning Inc. and other collaborators, see ~abinit/doc/developers/contributors.txt .
 acknowledgments of the ABINIT effort.

.Starting date : Wed  1 Dec 2021.
- ( at 21h21 )

- input  file    -> /scratch/users/j/a/jabreu/flow_simple_remain_atoms/flow/w187/t1/run.abi
- output file    -> /scratch/users/j/a/jabreu/flow_simple_remain_atoms/flow/w187/t1/run.abo
- root for input  files -> /scratch/users/j/a/jabreu/flow_simple_remain_atoms/flow/w187/t1/indata/in
- root for output files -> /scratch/users/j/a/jabreu/flow_simple_remain_atoms/flow/w187/t1/outdata/out

 Symmetries : space group P4 m m (# 99); Bravais tP (primitive tetrag.)
     intxc =       0      iscf =       7    lmnmax =      18     lnmax =       6
     mgfft =      48  mpssoang =       3    mqgrid =    3001     natom =       5
  nloc_mem =       1    nspden =       1   nspinor =       1    nsppol =       1
      nsym =       8    n1xccc =    2501    ntypat =       3    occopt =       1
   xclevel =       2
-    mband =          31        mffmem =           1         mkmem =           2
-   mkqmem =           2        mk1mem =           2           mpw =        5920
      nfft =       97200          nkpt =           2
  Rough estimation (10% accuracy) of disk space for files :

------------- Echo of variables that govern the present computation ------------
-
- outvars: echo of selected default values
-   iomode0 =  0 , fftalg0 =512 , wfoptalg0 =  0
-
- outvars: echo of global parameters not present in the input file
-  max_nthreads =    0
-
 -outvars: echo values of preprocessed input variables --------
            acell      1.0000000000E+00  1.0000000000E+00  1.0000000000E+00 Bohr
              amu      4.78800000E+01  2.07200000E+02  1.59994000E+01
             ecut      4.40000000E+01 Hartree
-          fftalg         512
           irdden           1
           irdwfk           1
           istwfk        1    1
              ixc     -116133
              kpt      0.00000000E+00  5.00000000E-01  0.00000000E+00
                       0.00000000E+00  0.00000000E+00  5.00000000E-01
           kptopt           0
P           mkmem           2
P          mkqmem           2
P          mk1mem           2
            natom           5
            nband          31
           nbdbuf           4
            ngfft          45      45      48
             nkpt           2
            nstep        2000
             nsym           8
           ntypat           3
              occ      2.000000  2.000000  2.000000  2.000000  2.000000  2.000000
                       2.000000  2.000000  2.000000  2.000000  2.000000  2.000000
                       2.000000  2.000000  2.000000  2.000000  2.000000  2.000000
                       2.000000  2.000000  2.000000  2.000000  0.000000  0.000000
                       0.000000  0.000000  0.000000  0.000000  0.000000  0.000000
                       0.000000
        optdriver           1
            prtwf          -1
            rfdir           1       1       1
           rfelfd           2
            rprim      7.3141761025E+00  0.0000000000E+00  0.0000000000E+00
                       0.0000000000E+00  7.3141761025E+00  0.0000000000E+00
                       0.0000000000E+00  0.0000000000E+00  7.9263128184E+00
          spgroup          99
           symrel      1  0  0   0  1  0   0  0  1       1  0  0   0 -1  0   0  0  1
                      -1  0  0   0 -1  0   0  0  1      -1  0  0   0  1  0   0  0  1
                       0  1  0   1  0  0   0  0  1       0  1  0  -1  0  0   0  0  1
                       0 -1  0  -1  0  0   0  0  1       0 -1  0   1  0  0   0  0  1
           tolwfr      1.00000000E-20
            typat      1  2  3  3  3
           useylm           1
              wtk        0.50000    0.50000
           xangst      1.9352476465E+00  1.9352476465E+00  1.7656218493E+00
                       0.0000000000E+00  0.0000000000E+00  3.7117968780E+00
                       1.9352476465E+00  0.0000000000E+00  2.1077903834E+00
                       0.0000000000E+00  1.9352476465E+00  2.1077903834E+00
                       1.9352476465E+00  1.9352476465E+00  4.1897095590E+00
            xcart      3.6570880513E+00  3.6570880513E+00  3.3365417493E+00
                       0.0000000000E+00  0.0000000000E+00  7.0142795603E+00
                       3.6570880513E+00  0.0000000000E+00  3.9831465701E+00
                       0.0000000000E+00  3.6570880513E+00  3.9831465701E+00
                       3.6570880513E+00  3.6570880513E+00  7.9174036428E+00
             xred      5.0000000000E-01  5.0000000000E-01  4.2094500000E-01
                       0.0000000000E+00  0.0000000000E+00  8.8493600000E-01
                       5.0000000000E-01  0.0000000000E+00  5.0252200000E-01
                       0.0000000000E+00  5.0000000000E-01  5.0252200000E-01
                       5.0000000000E-01  5.0000000000E-01  9.9887600000E-01
            znucl       22.00000   82.00000    8.00000

 chkinp: Checking input parameters for consistency.

== DATASET  1 ==================================================================
-   mpi_nproc: 1, omp_nthreads: -1 (-1 if OMP is not activated)

--- !DatasetInfo
iteration_state: {dtset: 1, }
dimensions: {natom: 5, nkpt: 2, mband: 31, nsppol: 1, nspinor: 1, nspden: 1, mpw: 5920, }
cutoff_energies: {ecut:  44.0, pawecutdg:  -1.0, }
electrons: {nelect:   4.40000000E+01, charge:   0.00000000E+00, occopt:   1.00000000E+00, tsmear:   1.00000000E-02, }
meta: {optdriver: 1, rfelfd: 2, }
...

 Real(R)+Recip(G) space primitive vectors, cartesian coordinates (Bohr,Bohr^-1):
 R(1)=  7.3141761  0.0000000  0.0000000  G(1)=  0.1367208  0.0000000  0.0000000
 R(2)=  0.0000000  7.3141761  0.0000000  G(2)=  0.0000000  0.1367208  0.0000000
 R(3)=  0.0000000  0.0000000  7.9263128  G(3)=  0.0000000  0.0000000  0.1261621
 Unit cell volume ucvol=  4.2403532E+02 bohr^3
 Angles (23,13,12)=  9.00000000E+01  9.00000000E+01  9.00000000E+01 degrees

 getcut: wavevector=  0.0000  0.0000  0.0000  ngfft=  45  45  48
         ecut(hartree)=     44.000   => boxcut(ratio)=   2.01463

--- Pseudopotential description ------------------------------------------------
- pspini: atom type   1  psp file is /scratch/users/j/a/jabreu/pseudos/PBEsol/Ti.psp8
- pspatm: opening atomic psp file    /scratch/users/j/a/jabreu/pseudos/PBEsol/Ti.psp8
- Ti    ONCVPSP-3.3.0  r_core=   1.35825   1.31050   1.66360
- 22.00000  12.00000    180112                znucl, zion, pspdat
    8 -116133    2    4       600   0.00000   pspcod,pspxc,lmax,lloc,mmax,r2well
    5.99000000000000    2.50000000000000    0.00000000000000   rchrg,fchrg,qchrg
     nproj     2     2     2
     extension_switch     1
  pspatm : epsatm=   14.76919902
         --- l  ekb(1:nproj) -->
             0   11.321950    1.254474
             1    1.946894   -0.084268
             2   -5.237105   -1.488377
 pspatm: atomic psp has been read  and splines computed

- pspini: atom type   2  psp file is /scratch/users/j/a/jabreu/pseudos/PBEsol/Pb.psp8
- pspatm: opening atomic psp file    /scratch/users/j/a/jabreu/pseudos/PBEsol/Pb.psp8
- Pb    ONCVPSP-3.3.0  r_core=   2.42823   2.42823   2.10438
- 82.00000  14.00000    180112                znucl, zion, pspdat
    8 -116133    2    4       600   0.00000   pspcod,pspxc,lmax,lloc,mmax,r2well
    5.99000000000000    6.00000000000000    0.00000000000000   rchrg,fchrg,qchrg
     nproj     2     2     2
     extension_switch     1
  pspatm : epsatm=   44.32675151
         --- l  ekb(1:nproj) -->
             0    6.256780    1.206521
             1    4.272336    0.573876
             2   -3.251371   -0.847363
 pspatm: atomic psp has been read  and splines computed

- pspini: atom type   3  psp file is /scratch/users/j/a/jabreu/pseudos/PBEsol/O.psp8
- pspatm: opening atomic psp file    /scratch/users/j/a/jabreu/pseudos/PBEsol/O.psp8
- O     ONCVPSP-3.3.0  r_core=   1.35509   1.45563   1.26150
-  8.00000   6.00000    180112                znucl, zion, pspdat
    8 -116133    2    4       600   0.00000   pspcod,pspxc,lmax,lloc,mmax,r2well
    5.99000000000000    4.00000000000000    0.00000000000000   rchrg,fchrg,qchrg
     nproj     2     2     1
     extension_switch     1
  pspatm : epsatm=    6.22910522
         --- l  ekb(1:nproj) -->
             0    6.050032    0.820363
             1   -4.739617   -1.153841
             2   -1.335834
 pspatm: atomic psp has been read  and splines computed

   3.42246371E+03                                ecore*ucvol(ha*bohr**3)

 ==>  initialize data related to q vector <==

 The list of irreducible perturbations for this q vector is:
    1)    idir= 1    ipert=   6
    2)    idir= 2    ipert=   6
    3)    idir= 3    ipert=   6

 Perturbation wavevector (in red.coord.)   0.000000  0.000000  0.000000
 Perturbation : derivative vs k along direction   1

 dfpt_looppert : COMMENT -
  In a d/dk calculation, iscf is set to -3 automatically.
 The set of symmetries contains only one element for this perturbation.
 symkpt : not enough symmetry to change the number of k points.

 Initialisation of the first-order wave-functions :
  ireadwf=   0

--- !BeginCycle
iteration_state: {dtset: 1, }
solver: {iscf: 7, nstep: 2000, nline: 4, wfoptalg: 0, }
tolerances: {tolwfr: 1.00E-20, }
...

     iter   2DEtotal(Ha)        deltaE(Ha) residm    vres2
-ETOT  1  -51.076646557523     -5.108E+01 4.441E-02 0.000E+00
 ETOT  2  -51.103706316773     -2.706E-02 1.435E-03 0.000E+00
 ETOT  3  -51.103759965397     -5.365E-05 3.001E-05 0.000E+00
 ETOT  4  -51.103760231600     -2.662E-07 1.248E-06 0.000E+00
 ETOT  5  -51.103760233413     -1.813E-09 5.276E-08 0.000E+00
 ETOT  6  -51.103760233428     -1.558E-11 2.360E-09 0.000E+00
 ETOT  7  -51.103760233429     -1.847E-13 9.967E-11 0.000E+00
 ETOT  8  -51.103760233429     -1.421E-14 4.713E-12 0.000E+00
 ETOT  9  -51.103760233429     -2.132E-14 2.010E-13 0.000E+00
 ETOT 10  -51.103760233429      7.105E-15 9.845E-15 0.000E+00
 ETOT 11  -51.103760233429      1.421E-14 4.214E-16 0.000E+00
 ETOT 12  -51.103760233429     -7.105E-15 2.096E-17 0.000E+00
 ETOT 13  -51.103760233429      7.105E-15 8.992E-19 0.000E+00
 ETOT 14  -51.103760233429      0.000E+00 4.503E-20 0.000E+00
 ETOT 15  -51.103760233429      7.105E-15 9.945E-21 0.000E+00

 At SCF step   15   max residual=  9.94E-21 < tolwfr=  1.00E-20 =>converged.

 ----iterations are completed or convergence reached----

 dfpt_looppert: DFPT cycle converged with prtwf=-1. Will skip output of the 1st-order WFK file.
 dfpt_looppert : ek2=    6.4939895241E+01
          f-sum rule ratio=    1.1728669562E+00
 prteigrs : about to open file /scratch/users/j/a/jabreu/flow_simple_remain_atoms/flow/w187/t1/tmpdata/tmp_1WF1_EIG
 Expectation of eigenvalue derivatives (hartree) for nkpt=   2  k points:
  (in case of degenerate eigenvalues, averaged derivative)
 kpt#   1, nband= 31, wtk=  0.50000, kpt=  0.0000  0.5000  0.0000 (reduced coord)
  -0.00000   -0.00000   -0.00000    0.00000    0.00000   -0.00000    0.00000   -0.00000
   0.00000    0.00000   -0.00000    0.00000    0.00000    0.00000    0.00000    0.00000
  -0.00000   -0.00000   -0.00000   -0.00000   -0.00000    0.00000   -0.00000   -0.00000
  -0.00000    0.00000    0.00000   -0.00000   -0.00000    0.00000   -0.00000
 prteigrs : prtvol=0 or 1, do not print more k-points.

 Eight components of 2nd-order total energy (hartree) are
 1,2,3: 0th-order hamiltonian combined with 1st-order wavefunctions
     kin0=   5.32965123E+01 eigvalue=   2.13911822E+00  local=  -2.29578093E+01
 4,5,6: 1st-order hamiltonian combined with 1st and 0th-order wfs
     kin1=  -7.61658573E+01  Hartree=   0.00000000E+00     xc=   0.00000000E+00
 7,8,9: eventually, occupation + non-local contributions
    edocc=   1.64761483E+01     enl0=   2.14979072E+00   enl1=  -2.60416632E+01
 1-9 gives the relaxation energy (to be shifted if some occ is /=2.0)
   erelax=  -5.11037602E+01
  No Ewald or frozen-wf contrib.: the relaxation energy is the total one
 2DEtotal=   -0.5110376023E+02 Ha. Also 2DEtotal=   -0.139060403640E+04 eV
    (  non-var. 2DEtotal :   -5.1103760233E+01 Ha)

 Perturbation wavevector (in red.coord.)   0.000000  0.000000  0.000000
 Perturbation : derivative vs k along direction   2
 The set of symmetries contains only one element for this perturbation.
 symkpt : not enough symmetry to change the number of k points.

[...]

 Perturbation wavevector (in red.coord.)   0.000000  0.000000  0.000000
 Perturbation : derivative vs k along direction   3
 The set of symmetries contains only one element for this perturbation.
 symkpt : not enough symmetry to change the number of k points.

 Initialisation of the first-order wave-functions :
  ireadwf=   0

--- !BeginCycle
iteration_state: {dtset: 1, }
solver: {iscf: 7, nstep: 2000, nline: 4, wfoptalg: 0, }
tolerances: {tolwfr: 1.00E-20, }
...

     iter   2DEtotal(Ha)        deltaE(Ha) residm    vres2
-ETOT  1  -42.461405536372     -4.246E+01 3.727E-02 0.000E+00
 ETOT  2  -42.487839740859     -2.643E-02 5.724E-04 0.000E+00
 ETOT  3  -42.487891092620     -5.135E-05 8.805E-06 0.000E+00
 ETOT  4  -42.487891326271     -2.337E-07 2.320E-07 0.000E+00
 ETOT  5  -42.487891327687     -1.416E-09 5.532E-09 0.000E+00
 ETOT  6  -42.487891327697     -1.009E-11 2.414E-10 0.000E+00
 ETOT  7  -42.487891327697     -1.137E-13 7.996E-12 0.000E+00
 ETOT  8  -42.487891327697      1.421E-14 3.992E-13 0.000E+00
 ETOT  9  -42.487891327697     -1.421E-14 1.347E-14 0.000E+00
 ETOT 10  -42.487891327697      1.421E-14 6.619E-16 0.000E+00
 ETOT 11  -42.487891327697      7.105E-15 2.212E-17 0.000E+00
 ETOT 12  -42.487891327697      7.105E-15 1.204E-18 0.000E+00
 ETOT 13  -42.487891327697      7.105E-15 3.987E-20 0.000E+00
 ETOT 14  -42.487891327697     -7.105E-15 9.761E-21 0.000E+00

 At SCF step   14   max residual=  9.76E-21 < tolwfr=  1.00E-20 =>converged.

 ----iterations are completed or convergence reached----

 dfpt_looppert: DFPT cycle converged with prtwf=-1. Will skip output of the 1st-order WFK file.
 dfpt_looppert : ek2=    5.5296799110E+01
          f-sum rule ratio=    1.1256015202E+00
 prteigrs : about to open file /scratch/users/j/a/jabreu/flow_simple_remain_atoms/flow/w187/t1/tmpdata/tmp_1WF1_EIG
 Expectation of eigenvalue derivatives (hartree) for nkpt=   2  k points:
  (in case of degenerate eigenvalues, averaged derivative)
 kpt#   1, nband= 31, wtk=  0.50000, kpt=  0.0000  0.5000  0.0000 (reduced coord)
  -0.00000    0.00000   -0.00000   -0.00000   -0.00000   -0.00000   -0.00000   -0.00000
   0.00000    0.00000    0.00000   -0.00000   -0.00000   -0.00000   -0.00000   -0.00000
  -0.00000   -0.00000   -0.00000    0.00000   -0.00000   -0.00000   -0.00000    0.00000
  -0.00000    0.00000   -0.00000   -0.00000    0.00000    0.00000   -0.00000
 prteigrs : prtvol=0 or 1, do not print more k-points.

 Eight components of 2nd-order total energy (hartree) are
 1,2,3: 0th-order hamiltonian combined with 1st-order wavefunctions
     kin0=   4.48427857E+01 eigvalue=   1.65500146E+00  local=  -1.86289456E+01
 4,5,6: 1st-order hamiltonian combined with 1st and 0th-order wfs
     kin1=  -6.22421611E+01  Hartree=   0.00000000E+00     xc=   0.00000000E+00
 7,8,9: eventually, occupation + non-local contributions
    edocc=   1.27544378E+01     enl0=   1.86461205E+00   enl1=  -2.27336215E+01
 1-9 gives the relaxation energy (to be shifted if some occ is /=2.0)
   erelax=  -4.24878913E+01
  No Ewald or frozen-wf contrib.: the relaxation energy is the total one
 2DEtotal=   -0.4248789133E+02 Ha. Also 2DEtotal=   -0.115615432032E+04 eV
    (  non-var. 2DEtotal :   -4.2487891328E+01 Ha)

 CALCULATION OF EFFECTIVE MASSES
 NOTE : Additional infos (eff. mass eigenvalues, eigenvectors and, if degenerate, average mass) are available in stdout.

 K-point ( 0.000, 0.500, 0.000) | band =    22
 Effective mass tensor:
             -0.6411522178             -0.0000000000             -0.0000000165
             -0.0000000000             -0.2612562521              0.0000000104
             -0.0000000165              0.0000000104             -0.9414745051
 Effective mass tensor eigenvalues:
             -0.9414745051             -0.6411522178             -0.2612562521
 Angular average effective mass 1/(<1/m>)=  -0.4651512360
 Angular average effective mass for Frohlich model (<m**0.5>)**2=  -0.5099702842
 Effective masses along directions: (cart. coord. / red. coord. -> eff. mass)
    1:   1.000000  0.000000  0.000000 /   1.000000  0.000000  0.000000 ->  -0.6411522178
    2:   0.000000  1.000000  0.000000 /   0.000000  1.000000  0.000000 ->  -0.2612562521
    3:   0.000000  0.000000  1.000000 /   0.000000  0.000000  1.000000 ->  -0.9414745051
    4:   0.577350  0.577350  0.577350 /   0.561268  0.561268  0.608241 ->  -0.4651512338
    5:   0.000000  0.707107  0.707107 /   0.000000  0.678159  0.734915 ->  -0.4090127320
    6:   0.707107  0.000000  0.707107 /   0.678159  0.000000  0.734915 ->  -0.7628185103
    7:   0.707107  0.707107  0.000000 /   0.707107  0.707107  0.000000 ->  -0.3712399231

 K-point ( 0.000, 0.000, 0.500) | band =    23
 Effective mass tensor:
              0.5407654248             -0.0000000000              0.0000000008
             -0.0000000000              0.5407654248              0.0000000005
              0.0000000008              0.0000000005            681.5169881251
 Effective mass tensor eigenvalues:
              0.5407654248              0.5407654248            681.5169881251
 Angular average effective mass 1/(<1/m>)=   0.8108264527
 Angular average effective mass for Frohlich model (<m**0.5>)**2=   1.2878752304
 Effective masses along directions: (cart. coord. / red. coord. -> eff. mass)
    1:   1.000000  0.000000  0.000000 /   1.000000  0.000000  0.000000 ->   0.5407654248
    2:   0.000000  1.000000  0.000000 /   0.000000  1.000000  0.000000 ->   0.5407654248
    3:   0.000000  0.000000  1.000000 /   0.000000  0.000000  1.000000 -> 681.5169881251
    4:   0.577350  0.577350  0.577350 /   0.561268  0.561268  0.608241 ->   0.8108264527
    5:   0.000000  0.707107  0.707107 /   0.000000  0.678159  0.734915 ->   1.0806733644
    6:   0.707107  0.000000  0.707107 /   0.678159  0.000000  0.734915 ->   1.0806733644
    7:   0.707107  0.707107  0.000000 /   0.707107  0.707107  0.000000 ->   0.5407654248

 END OF EFFECTIVE MASSES SECTION

 ---- first-order wavefunction calculations are completed ----

 Total localisation tensor (bohr^2) in cartesian coordinates
  WARNING : still subject to testing - especially symmetries.
      direction              matrix element
   alpha     beta       real part   imaginary part
     1        1       1.2193636359    0.0000000000
     1        2       0.0000000000    0.0000000000
     1        3       0.0000000000    0.0000000000
     2        1       0.0000000000    0.0000000000
     2        2       1.3501713512    0.0000000000
     2        3       0.0000000000    0.0000000000
     3        1       0.0000000000    0.0000000000
     3        2       0.0000000000    0.0000000000
     3        3       1.2340735856    0.0000000000

 respfn : d/dk was computed, but no 2DTE, so no DDB output.

== END DATASET(S) ==============================================================

 -outvars: echo values of variables after computation  --------
            acell      1.0000000000E+00  1.0000000000E+00  1.0000000000E+00 Bohr
              amu      4.78800000E+01  2.07200000E+02  1.59994000E+01
             ecut      4.40000000E+01 Hartree
           etotal     -4.2487891328E+01
            fcart      0.0000000000E+00  0.0000000000E+00  0.0000000000E+00
                       0.0000000000E+00  0.0000000000E+00  0.0000000000E+00
                       0.0000000000E+00  0.0000000000E+00  0.0000000000E+00
                       0.0000000000E+00  0.0000000000E+00  0.0000000000E+00
                       0.0000000000E+00  0.0000000000E+00  0.0000000000E+00
-          fftalg         512
           irdden           1
           irdwfk           1
           istwfk        1    1
              ixc     -116133
              kpt      0.00000000E+00  5.00000000E-01  0.00000000E+00
                       0.00000000E+00  0.00000000E+00  5.00000000E-01
           kptopt           0
P           mkmem           2
P          mkqmem           2
P          mk1mem           2
            natom           5
            nband          31
           nbdbuf           4
            ngfft          45      45      48
             nkpt           2
            nstep        2000
             nsym           8
           ntypat           3
              occ      2.000000  2.000000  2.000000  2.000000  2.000000  2.000000
                       2.000000  2.000000  2.000000  2.000000  2.000000  2.000000
                       2.000000  2.000000  2.000000  2.000000  2.000000  2.000000
                       2.000000  2.000000  2.000000  2.000000  0.000000  0.000000
                       0.000000  0.000000  0.000000  0.000000  0.000000  0.000000
                       0.000000
        optdriver           1
            prtwf          -1
            rfdir           1       1       1
           rfelfd           2
            rprim      7.3141761025E+00  0.0000000000E+00  0.0000000000E+00
                       0.0000000000E+00  7.3141761025E+00  0.0000000000E+00
                       0.0000000000E+00  0.0000000000E+00  7.9263128184E+00
          spgroup          99
           strten      0.0000000000E+00  0.0000000000E+00  0.0000000000E+00
                       0.0000000000E+00  0.0000000000E+00  0.0000000000E+00
           symrel      1  0  0   0  1  0   0  0  1       1  0  0   0 -1  0   0  0  1
                      -1  0  0   0 -1  0   0  0  1      -1  0  0   0  1  0   0  0  1
                       0  1  0   1  0  0   0  0  1       0  1  0  -1  0  0   0  0  1
                       0 -1  0  -1  0  0   0  0  1       0 -1  0   1  0  0   0  0  1
           tolwfr      1.00000000E-20
            typat      1  2  3  3  3
           useylm           1
              wtk        0.50000    0.50000
           xangst      1.9352476465E+00  1.9352476465E+00  1.7656218493E+00
                       0.0000000000E+00  0.0000000000E+00  3.7117968780E+00
                       1.9352476465E+00  0.0000000000E+00  2.1077903834E+00
                       0.0000000000E+00  1.9352476465E+00  2.1077903834E+00
                       1.9352476465E+00  1.9352476465E+00  4.1897095590E+00
            xcart      3.6570880513E+00  3.6570880513E+00  3.3365417493E+00
                       0.0000000000E+00  0.0000000000E+00  7.0142795603E+00
                       3.6570880513E+00  0.0000000000E+00  3.9831465701E+00
                       0.0000000000E+00  3.6570880513E+00  3.9831465701E+00
                       3.6570880513E+00  3.6570880513E+00  7.9174036428E+00
             xred      5.0000000000E-01  5.0000000000E-01  4.2094500000E-01
                       0.0000000000E+00  0.0000000000E+00  8.8493600000E-01
                       5.0000000000E-01  0.0000000000E+00  5.0252200000E-01
                       0.0000000000E+00  5.0000000000E-01  5.0252200000E-01
                       5.0000000000E-01  5.0000000000E-01  9.9887600000E-01
            znucl       22.00000   82.00000    8.00000

- Timing analysis has been suppressed with timopt=0

 Suggested references for the acknowledgment of ABINIT usage.

 Calculation completed.
.Delivered   2 WARNINGs and   5 COMMENTs to log file.