.Version 9.5.1 of ABINIT

 ABINIT is a project of the Universite Catholique de Louvain,
 Corning Inc. and other collaborators, see ~abinit/doc/developers/contributors.txt .
 acknowledgments of the ABINIT effort.

.Starting date : Tue  4 May 2021.
- ( at 19h31 )

- input  file    -> /scratch/users/j/a/jabreu/flow_simple_6atoms/flow/w199/t1/run.abi
- output file    -> /scratch/users/j/a/jabreu/flow_simple_6atoms/flow/w199/t1/run.abo
- root for input  files -> /scratch/users/j/a/jabreu/flow_simple_6atoms/flow/w199/t1/indata/in
- root for output files -> /scratch/users/j/a/jabreu/flow_simple_6atoms/flow/w199/t1/outdata/out

 Symmetries : space group C2/m (# 12); Bravais mC (1-face-center monocl.)
     intxc =       0      iscf =       7    lmnmax =      18     lnmax =       6
     mgfft =      90  mpssoang =       3    mqgrid =    3852     natom =       6
  nloc_mem =       1    nspden =       1   nspinor =       1    nsppol =       1
      nsym =       4    n1xccc =    2501    ntypat =       2    occopt =       1
   xclevel =       2
-    mband =          48        mffmem =           1         mkmem =           2
-   mkqmem =           2        mk1mem =           2           mpw =       18192
      nfft =      648000          nkpt =           2
  Rough estimation (10% accuracy) of disk space for files :

------------- Echo of variables that govern the present computation ------------
-
- outvars: echo of selected default values
-   iomode0 =  0 , fftalg0 =512 , wfoptalg0 =  0
-
- outvars: echo of global parameters not present in the input file
-  max_nthreads =    0
-
 -outvars: echo values of preprocessed input variables --------
            acell      1.0000000000E+00  1.0000000000E+00  1.0000000000E+00 Bohr
              amu      3.90983000E+01  1.21753000E+02
             ecut      4.20000000E+01 Hartree
-          fftalg         512
           irdden           1
           irdwfk           1
           istwfk        0    1
              ixc     -116133
              kpt      5.43730997E-01  4.56269003E-01  5.00000000E-01
                       5.00000000E-01  5.00000000E-01  0.00000000E+00
           kptopt           0
P           mkmem           2
P          mkqmem           2
P          mk1mem           2
            natom           6
            nband          48
           nbdbuf           4
            ngfft          90      90      80
             nkpt           2
            nstep        1000
             nsym           4
           ntypat           2
              occ      2.000000  2.000000  2.000000  2.000000  2.000000  2.000000
                       2.000000  2.000000  2.000000  2.000000  2.000000  2.000000
                       2.000000  2.000000  2.000000  2.000000  2.000000  2.000000
                       2.000000  2.000000  2.000000  2.000000  2.000000  2.000000
                       2.000000  2.000000  2.000000  2.000000  2.000000  2.000000
                       2.000000  2.000000  2.000000  2.000000  2.000000  2.000000
                       2.000000  2.000000  2.000000  0.000000  0.000000  0.000000
                       0.000000  0.000000  0.000000  0.000000  0.000000  0.000000
        optdriver           1
            prtwf          -1
            rfdir           1       1       1
           rfelfd           2
            rprim      1.3802832545E+01  0.0000000000E+00  7.3489786870E-01
                       1.1480330904E+01  7.6629099301E+00  7.3489786870E-01
                       0.0000000000E+00  0.0000000000E+00  1.3223071149E+01
          spgroup          12
           symrel      1  0  0   0  1  0   0  0  1      -1  0  0   0 -1  0   0  0 -1
                       0 -1  0  -1  0  0   0  0 -1       0  1  0   1  0  0   0  0  1
           tolwfr      1.00000000E-20
            typat      1  1  2  2  2  2
           useylm           1
              wtk        0.50000    0.50000
           xangst      4.9361091595E+00  1.4960532914E+00  1.1783168643E+00
                       8.4431646989E+00  2.5589839951E+00  6.5968134206E+00
                       9.2405292830E+00  2.8006520523E+00  3.1469910321E+00
                       4.1387445753E+00  1.2543852342E+00  4.6281392528E+00
                       1.2658492238E+01  3.8365802628E+00  5.5018795349E+00
                       7.2078162057E-01  2.1845702373E-01  2.2732507501E+00
            xcart      9.3278944734E+00  2.8271310009E+00  2.2266961713E+00
                       1.5955268976E+01  4.8357789292E+00  1.2466170715E+01
                       1.7462069668E+01  5.2924653723E+00  5.9469511934E+00
                       7.8210937813E+00  2.3704445578E+00  8.7459156926E+00
                       2.3921083585E+01  7.2500859834E+00  1.0397045537E+01
                       1.3620798645E+00  4.1282394666E-01  4.2958213490E+00
             xred      3.6893700000E-01  3.6893700000E-01  1.2738600000E-01
                       6.3106300000E-01  6.3106300000E-01  8.7261400000E-01
                       6.9066000000E-01  6.9066000000E-01  3.7297100000E-01
                       3.0934000000E-01  3.0934000000E-01  6.2702900000E-01
                       9.4612700000E-01  9.4612700000E-01  6.8111500000E-01
                       5.3873000000E-02  5.3873000000E-02  3.1888500000E-01
            znucl       19.00000   51.00000

 chkinp: Checking input parameters for consistency.

== DATASET  1 ==================================================================
-   mpi_nproc: 1, omp_nthreads: -1 (-1 if OMP is not activated)

--- !DatasetInfo
iteration_state: {dtset: 1, }
dimensions: {natom: 6, nkpt: 2, mband: 48, nsppol: 1, nspinor: 1, nspden: 1, mpw: 18192, }
cutoff_energies: {ecut:  42.0, pawecutdg:  -1.0, }
electrons: {nelect:   7.80000000E+01, charge:   0.00000000E+00, occopt:   1.00000000E+00, tsmear:   1.00000000E-02, }
meta: {optdriver: 1, rfelfd: 2, }
...

 Real(R)+Recip(G) space primitive vectors, cartesian coordinates (Bohr,Bohr^-1):
 R(1)= 13.8028325  0.0000000  0.7348979  G(1)=  0.0724489 -0.1085407  0.0000000
 R(2)= 11.4803309  7.6629099  0.7348979  G(2)=  0.0000000  0.1304987  0.0000000
 R(3)=  0.0000000  0.0000000 13.2230711  G(3)= -0.0040265 -0.0012204  0.0756254
 Unit cell volume ucvol=  1.3986024E+03 bohr^3
 Angles (23,13,12)=  8.69523048E+01  8.69523048E+01  3.36732625E+01 degrees

 getcut: wavevector=  0.0000  0.0000  0.0000  ngfft=  90  90  80
         ecut(hartree)=     42.000   => boxcut(ratio)=   2.07384

--- Pseudopotential description ------------------------------------------------
- pspini: atom type   1  psp file is /scratch/users/j/a/jabreu/pseudos/PBEsol/K.psp8
- pspatm: opening atomic psp file    /scratch/users/j/a/jabreu/pseudos/PBEsol/K.psp8
- K     ONCVPSP-3.3.0  r_core=   1.36296   1.46408   1.61068
- 19.00000   9.00000    180112                znucl, zion, pspdat
    8 -116133    2    4       400   0.00000   pspcod,pspxc,lmax,lloc,mmax,r2well
    3.99000000000000    5.00000000000000    0.00000000000000   rchrg,fchrg,qchrg
     nproj     2     2     2
     extension_switch     1
  pspatm : epsatm=    8.32487830
         --- l  ekb(1:nproj) -->
             0   10.921326    0.816676
             1    4.431000    0.560368
             2   -3.384038   -1.043186
 pspatm: atomic psp has been read  and splines computed

- pspini: atom type   2  psp file is /scratch/users/j/a/jabreu/pseudos/PBEsol/Sb.psp8
- pspatm: opening atomic psp file    /scratch/users/j/a/jabreu/pseudos/PBEsol/Sb.psp8
- Sb    ONCVPSP-3.3.0  r_core=   1.81962   2.12485   1.81962
- 51.00000  15.00000    180112                znucl, zion, pspdat
    8 -116133    2    4       600   0.00000   pspcod,pspxc,lmax,lloc,mmax,r2well
    5.99000000000000    5.00000000000000    0.00000000000000   rchrg,fchrg,qchrg
     nproj     2     2     2
     extension_switch     1
  pspatm : epsatm=   26.35641246
         --- l  ekb(1:nproj) -->
             0    9.727814    1.485032
             1    5.505335    0.704623
             2   -4.710637   -1.436443
 pspatm: atomic psp has been read  and splines computed

   9.52188170E+03                                ecore*ucvol(ha*bohr**3)

-inwffil : will read wavefunctions from disk file /scratch/users/j/a/jabreu/flow_simple_6atoms/flow/w199/t1/indata/in_WFK

 ==>  initialize data related to q vector <==

 The list of irreducible perturbations for this q vector is:
    1)    idir= 1    ipert=   7
    2)    idir= 2    ipert=   7
    3)    idir= 3    ipert=   7

 Perturbation wavevector (in red.coord.)   0.000000  0.000000  0.000000
 Perturbation : derivative vs k along direction   1

 dfpt_looppert : COMMENT -
  In a d/dk calculation, iscf is set to -3 automatically.
 The set of symmetries contains only one element for this perturbation.
 symkpt : not enough symmetry to change the number of k points.

[...]

 Initialisation of the first-order wave-functions :
  ireadwf=   0

--- !BeginCycle
iteration_state: {dtset: 1, }
solver: {iscf: 7, nstep: 1000, nline: 4, wfoptalg: 0, }
tolerances: {tolwfr: 1.00E-20, }
...

     iter   2DEtotal(Ha)        deltaE(Ha) residm    vres2
-ETOT  1  -112.45898517868     -1.125E+02 1.170E-01 0.000E+00
 ETOT  2  -112.61640743901     -1.574E-01 1.873E-02 0.000E+00
 ETOT  3  -112.61821590388     -1.808E-03 6.297E-04 0.000E+00
 ETOT  4  -112.61827089604     -5.499E-05 1.185E-04 0.000E+00
 ETOT  5  -112.61827325508     -2.359E-06 5.492E-06 0.000E+00
 ETOT  6  -112.61827337579     -1.207E-07 1.454E-06 0.000E+00
 ETOT  7  -112.61827338251     -6.721E-09 6.067E-08 0.000E+00
 ETOT  8  -112.61827338291     -3.934E-10 2.075E-08 0.000E+00
 ETOT  9  -112.61827338293     -2.359E-11 8.181E-10 0.000E+00
 ETOT 10  -112.61827338293     -1.492E-12 3.029E-10 0.000E+00
 ETOT 11  -112.61827338293      2.842E-14 1.143E-11 0.000E+00
 ETOT 12  -112.61827338293     -9.948E-14 4.475E-12 0.000E+00
 ETOT 13  -112.61827338293     -9.948E-14 1.644E-13 0.000E+00
 ETOT 14  -112.61827338293      1.137E-13 6.681E-14 0.000E+00
 ETOT 15  -112.61827338293      8.527E-14 2.409E-15 0.000E+00
 ETOT 16  -112.61827338293     -4.263E-14 1.003E-15 0.000E+00
 ETOT 17  -112.61827338293      0.000E+00 3.573E-17 0.000E+00
 ETOT 18  -112.61827338293     -2.842E-14 1.513E-17 0.000E+00
 ETOT 19  -112.61827338293      1.421E-14 5.341E-19 0.000E+00
 ETOT 20  -112.61827338293      0.000E+00 2.286E-19 0.000E+00
 ETOT 21  -112.61827338293     -4.263E-14 9.947E-21 0.000E+00

 At SCF step   21   max residual=  9.95E-21 < tolwfr=  1.00E-20 =>converged.

 ----iterations are completed or convergence reached----

 dfpt_looppert: DFPT cycle converged with prtwf=-1. Will skip output of the 1st-order WFK file.
 dfpt_looppert : ek2=    1.0488101781E+02
          f-sum rule ratio=    1.2333516102E+00
 prteigrs : about to open file /scratch/users/j/a/jabreu/flow_simple_6atoms/flow/w199/t1/tmpdata/tmp_1WF1_EIG
 Expectation of eigenvalue derivatives (hartree) for nkpt=   2  k points:
  (in case of degenerate eigenvalues, averaged derivative)
 kpt#   1, nband= 48, wtk=  0.50000, kpt=  0.5437  0.4563  0.5000 (reduced coord)
   0.00029    0.00039   -0.00051    0.00178    0.00146    0.00028    0.00062    0.00089
   0.00031    0.00012   -0.00015   -0.00030   -0.00021   -0.00072   -0.00164   -0.00240
  -0.00025   -0.00078    0.00076    0.00025    0.00057    0.00040    0.00217    0.00239
  -0.00777    0.00105   -0.00073   -0.00522    0.04205    0.04891    0.01453   -0.05282
  -0.14087    0.01819    0.02466   -0.33412   -0.06229    0.00844   -0.02980   -0.01437
   0.11720    0.25148    0.10889    0.04666   -0.20890    0.02369    0.12282   -0.18117
 prteigrs : prtvol=0 or 1, do not print more k-points.

 Eight components of 2nd-order total energy (hartree) are
 1,2,3: 0th-order hamiltonian combined with 1st-order wavefunctions
     kin0=   1.13849608E+02 eigvalue=   1.91065617E+01  local=  -6.95991632E+01
 4,5,6: 1st-order hamiltonian combined with 1st and 0th-order wfs
     kin1=  -1.29355172E+02  Hartree=   0.00000000E+00     xc=   0.00000000E+00
 7,8,9: eventually, occupation + non-local contributions
    edocc=   2.95575296E+01     enl0=   1.97037375E+01   enl1=  -9.58813746E+01
 1-9 gives the relaxation energy (to be shifted if some occ is /=2.0)
   erelax=  -1.12618273E+02
  No Ewald or frozen-wf contrib.: the relaxation energy is the total one
 2DEtotal=   -0.1126182734E+03 Ha. Also 2DEtotal=   -0.306449906667E+04 eV
    (  non-var. 2DEtotal :   -1.1261827338E+02 Ha)

 Perturbation wavevector (in red.coord.)   0.000000  0.000000  0.000000
 Perturbation : derivative vs k along direction   2
 The set of symmetries contains only one element for this perturbation.
 symkpt : not enough symmetry to change the number of k points.

[...]

 Perturbation wavevector (in red.coord.)   0.000000  0.000000  0.000000
 Perturbation : derivative vs k along direction   3
 The set of symmetries contains only one element for this perturbation.
 symkpt : not enough symmetry to change the number of k points.

-inwffil : will read wavefunctions from disk file /scratch/users/j/a/jabreu/flow_simple_6atoms/flow/w199/t1/indata/in_WFK

 Initialisation of the first-order wave-functions :
  ireadwf=   0

--- !BeginCycle
iteration_state: {dtset: 1, }
solver: {iscf: 7, nstep: 1000, nline: 4, wfoptalg: 0, }
tolerances: {tolwfr: 1.00E-20, }
...

     iter   2DEtotal(Ha)        deltaE(Ha) residm    vres2
-ETOT  1  -33.653806669734     -3.365E+01 4.560E-02 0.000E+00
 ETOT  2  -33.712724875930     -5.892E-02 4.740E-03 0.000E+00
 ETOT  3  -33.713524341114     -7.995E-04 4.399E-04 0.000E+00
 ETOT  4  -33.713550654444     -2.631E-05 3.973E-05 0.000E+00
 ETOT  5  -33.713551807886     -1.153E-06 4.876E-06 0.000E+00
 ETOT  6  -33.713551865889     -5.800E-08 5.076E-07 0.000E+00
 ETOT  7  -33.713551869040     -3.151E-09 6.433E-08 0.000E+00
 ETOT  8  -33.713551869222     -1.822E-10 7.035E-09 0.000E+00
 ETOT  9  -33.713551869233     -1.086E-11 8.911E-10 0.000E+00
 ETOT 10  -33.713551869234     -6.537E-13 1.047E-10 0.000E+00
 ETOT 11  -33.713551869234     -4.974E-14 1.295E-11 0.000E+00
 ETOT 12  -33.713551869234     -2.132E-14 1.641E-12 0.000E+00
 ETOT 13  -33.713551869234      7.105E-15 1.982E-13 0.000E+00
 ETOT 14  -33.713551869234     -7.105E-15 2.704E-14 0.000E+00
 ETOT 15  -33.713551869234      1.421E-14 3.209E-15 0.000E+00
 ETOT 16  -33.713551869234     -7.105E-15 4.856E-16 0.000E+00
 ETOT 17  -33.713551869234      7.105E-15 5.523E-17 0.000E+00
 ETOT 18  -33.713551869234     -1.421E-14 9.186E-18 0.000E+00
 ETOT 19  -33.713551869234      0.000E+00 1.010E-18 0.000E+00
 ETOT 20  -33.713551869234      0.000E+00 1.761E-19 0.000E+00
 ETOT 21  -33.713551869234      0.000E+00 1.948E-20 0.000E+00
 ETOT 22  -33.713551869234      7.105E-15 9.982E-21 0.000E+00

 At SCF step   22   max residual=  9.98E-21 < tolwfr=  1.00E-20 =>converged.

 ----iterations are completed or convergence reached----

 dfpt_looppert: DFPT cycle converged with prtwf=-1. Will skip output of the 1st-order WFK file.
 dfpt_looppert : ek2=    3.5331477916E+01
          f-sum rule ratio=    1.0236341165E+00
 prteigrs : about to open file /scratch/users/j/a/jabreu/flow_simple_6atoms/flow/w199/t1/tmpdata/tmp_1WF1_EIG
 Expectation of eigenvalue derivatives (hartree) for nkpt=   2  k points:
  (in case of degenerate eigenvalues, averaged derivative)
 kpt#   1, nband= 48, wtk=  0.50000, kpt=  0.5437  0.4563  0.5000 (reduced coord)
   0.00000   -0.00000   -0.00000   -0.00000    0.00000    0.00000   -0.00000    0.00000
   0.00000    0.00000    0.00000   -0.00000    0.00000   -0.00000    0.00000    0.00000
  -0.00000    0.00000   -0.00000    0.00000   -0.00000    0.00000   -0.00000   -0.00000
  -0.00000    0.00000   -0.00000   -0.00000    0.00000    0.00000    0.00000   -0.00000
   0.00000   -0.00000    0.00000   -0.00000    0.00000   -0.00000   -0.00000   -0.00000
   0.00000   -0.00000    0.00000   -0.00000    0.00000   -0.00000    0.00000    0.00003
 prteigrs : prtvol=0 or 1, do not print more k-points.

 Eight components of 2nd-order total energy (hartree) are
 1,2,3: 0th-order hamiltonian combined with 1st-order wavefunctions
     kin0=   4.17933560E+01 eigvalue=   6.07630553E+00  local=  -2.51928823E+01
 4,5,6: 1st-order hamiltonian combined with 1st and 0th-order wfs
     kin1=  -3.61665062E+01  Hartree=   0.00000000E+00     xc=   0.00000000E+00
 7,8,9: eventually, occupation + non-local contributions
    edocc=   4.52618431E+00     enl0=   6.51058835E+00   enl1=  -3.12605976E+01
 1-9 gives the relaxation energy (to be shifted if some occ is /=2.0)
   erelax=  -3.37135519E+01
  No Ewald or frozen-wf contrib.: the relaxation energy is the total one
 2DEtotal=   -0.3371355187E+02 Ha. Also 2DEtotal=   -0.917392401198E+03 eV
    (  non-var. 2DEtotal :   -3.3713551869E+01 Ha)

 CALCULATION OF EFFECTIVE MASSES
 NOTE : Additional infos (eff. mass eigenvalues, eigenvectors and, if degenerate, average mass) are available in stdout.

--- !WARNING
src_file: m_efmas.F90
src_line: 0
message: |

    Band(s)    39,
    are not band extrema, but saddle points;
    the transport equivalent formalism breaks down in these conditions.
    The associated tensor(s) will therefore not be printed.
...

 K-point ( 0.544, 0.456, 0.500) | band =    39
 Effective mass tensor:
     *** SADDLE POINT: TRANSPORT EQV. EFF. MASS NOT DEFINED (see WARNING above) ***
 Angular average effective mass 1/(<1/m>)=  -0.3808217249
 Angular average effective mass for Frohlich model (<m**0.5>)**2=  -0.8087105740
 Effective masses along directions: (cart. coord. / red. coord. -> eff. mass)
    1:   1.000000  0.000000  0.000000 /   0.768824  0.639460  0.000000 ->  12.1723980742
    2:   0.000000  1.000000  0.000000 /   0.000000  1.000000  0.000000 ->  -0.1940340838
    3:   0.000000  0.000000  1.000000 /   0.055406  0.055406  0.996925 ->  -0.3563637955
    4:   0.577350  0.577350  0.577350 /   0.520089  0.711143  0.473057 ->  -0.5380269387
    5:   0.000000  0.707107  0.707107 /   0.046864  0.535520  0.843222 ->  -0.2427960243
    6:   0.707107  0.000000  0.707107 /   0.628282  0.527910  0.571466 ->  -0.5495208324
    7:   0.707107  0.707107  0.000000 /   0.584854  0.811138  0.000000 ->  -1.2684486390

 K-point ( 0.500, 0.500, 0.000) | band =    40
 Effective mass tensor:
              0.2149663031              0.0453578889             -0.0303750314
              0.0453578889              0.0790587444             -0.0092060361
             -0.0303750314             -0.0092060361              1.1167194804
 Effective mass tensor eigenvalues:
              0.0653115187              0.2275805296              1.1178524795
 Angular average effective mass 1/(<1/m>)=   0.1456320842
 Angular average effective mass for Frohlich model (<m**0.5>)**2=   0.1977043172
 Effective masses along directions: (cart. coord. / red. coord. -> eff. mass)
    1:   1.000000  0.000000  0.000000 /   0.768824  0.639460  0.000000 ->   0.1883789970
    2:   0.000000  1.000000  0.000000 /   0.000000  1.000000  0.000000 ->   0.0694811979
    3:   0.000000  0.000000  1.000000 /   0.055406  0.055406  0.996925 ->   1.1123148716
    4:   0.577350  0.577350  0.577350 /   0.520089  0.711143  0.473057 ->   0.2020519656
    5:   0.000000  0.707107  0.707107 /   0.046864  0.535520  0.843222 ->   0.1301762934
    6:   0.707107  0.000000  0.707107 /   0.628282  0.527910  0.571466 ->   0.3102569296
    7:   0.707107  0.707107  0.000000 /   0.584854  0.811138  0.000000 ->   0.1466547569

 END OF EFFECTIVE MASSES SECTION

 ---- first-order wavefunction calculations are completed ----

 Total localisation tensor (bohr^2) in cartesian coordinates
  WARNING : still subject to testing - especially symmetries.
      direction              matrix element
   alpha     beta       real part   imaginary part
     1        1      24.4032622764    0.0000000000
     1        2       6.6606090286    0.0000000000
     1        3       1.4067734982    0.0000000000
     2        1       6.6606090286    0.0000000000
     2        2       4.4458341395    0.0000000000
     2        3       0.4263698860    0.0000000000
     3        1       1.4067734982    0.0000000000
     3        2       0.4263698860    0.0000000000
     3        3       1.6180376949    0.0000000000

 respfn : d/dk was computed, but no 2DTE, so no DDB output.

== END DATASET(S) ==============================================================

 -outvars: echo values of variables after computation  --------
            acell      1.0000000000E+00  1.0000000000E+00  1.0000000000E+00 Bohr
              amu      3.90983000E+01  1.21753000E+02
             ecut      4.20000000E+01 Hartree
           etotal     -3.3713551869E+01
            fcart      0.0000000000E+00  0.0000000000E+00  0.0000000000E+00
                       0.0000000000E+00  0.0000000000E+00  0.0000000000E+00
                       0.0000000000E+00  0.0000000000E+00  0.0000000000E+00
                       0.0000000000E+00  0.0000000000E+00  0.0000000000E+00
                       0.0000000000E+00  0.0000000000E+00  0.0000000000E+00
                       0.0000000000E+00  0.0000000000E+00  0.0000000000E+00
-          fftalg         512
           irdden           1
           irdwfk           1
           istwfk        0    1
              ixc     -116133
              kpt      5.43730997E-01  4.56269003E-01  5.00000000E-01
                       5.00000000E-01  5.00000000E-01  0.00000000E+00
           kptopt           0
P           mkmem           2
P          mkqmem           2
P          mk1mem           2
            natom           6
            nband          48
           nbdbuf           4
            ngfft          90      90      80
             nkpt           2
            nstep        1000
             nsym           4
           ntypat           2
              occ      2.000000  2.000000  2.000000  2.000000  2.000000  2.000000
                       2.000000  2.000000  2.000000  2.000000  2.000000  2.000000
                       2.000000  2.000000  2.000000  2.000000  2.000000  2.000000
                       2.000000  2.000000  2.000000  2.000000  2.000000  2.000000
                       2.000000  2.000000  2.000000  2.000000  2.000000  2.000000
                       2.000000  2.000000  2.000000  2.000000  2.000000  2.000000
                       2.000000  2.000000  2.000000  0.000000  0.000000  0.000000
                       0.000000  0.000000  0.000000  0.000000  0.000000  0.000000
        optdriver           1
            prtwf          -1
            rfdir           1       1       1
           rfelfd           2
            rprim      1.3802832545E+01  0.0000000000E+00  7.3489786870E-01
                       1.1480330904E+01  7.6629099301E+00  7.3489786870E-01
                       0.0000000000E+00  0.0000000000E+00  1.3223071149E+01
          spgroup          12
           strten      0.0000000000E+00  0.0000000000E+00  0.0000000000E+00
                       0.0000000000E+00  0.0000000000E+00  0.0000000000E+00
           symrel      1  0  0   0  1  0   0  0  1      -1  0  0   0 -1  0   0  0 -1
                       0 -1  0  -1  0  0   0  0 -1       0  1  0   1  0  0   0  0  1
           tolwfr      1.00000000E-20
            typat      1  1  2  2  2  2
           useylm           1
              wtk        0.50000    0.50000
           xangst      4.9361091595E+00  1.4960532914E+00  1.1783168643E+00
                       8.4431646989E+00  2.5589839951E+00  6.5968134206E+00
                       9.2405292830E+00  2.8006520523E+00  3.1469910321E+00
                       4.1387445753E+00  1.2543852342E+00  4.6281392528E+00
                       1.2658492238E+01  3.8365802628E+00  5.5018795349E+00
                       7.2078162057E-01  2.1845702373E-01  2.2732507501E+00
            xcart      9.3278944734E+00  2.8271310009E+00  2.2266961713E+00
                       1.5955268976E+01  4.8357789292E+00  1.2466170715E+01
                       1.7462069668E+01  5.2924653723E+00  5.9469511934E+00
                       7.8210937813E+00  2.3704445578E+00  8.7459156926E+00
                       2.3921083585E+01  7.2500859834E+00  1.0397045537E+01
                       1.3620798645E+00  4.1282394666E-01  4.2958213490E+00
             xred      3.6893700000E-01  3.6893700000E-01  1.2738600000E-01
                       6.3106300000E-01  6.3106300000E-01  8.7261400000E-01
                       6.9066000000E-01  6.9066000000E-01  3.7297100000E-01
                       3.0934000000E-01  3.0934000000E-01  6.2702900000E-01
                       9.4612700000E-01  9.4612700000E-01  6.8111500000E-01
                       5.3873000000E-02  5.3873000000E-02  3.1888500000E-01
            znucl       19.00000   51.00000

- Timing analysis has been suppressed with timopt=0

 Suggested references for the acknowledgment of ABINIT usage.

 Calculation completed.
.Delivered  15 WARNINGs and   9 COMMENTs to log file.