.Version 9.5.1 of ABINIT

 ABINIT is a project of the Universite Catholique de Louvain,
 Corning Inc. and other collaborators, see ~abinit/doc/developers/contributors.txt .
 acknowledgments of the ABINIT effort.

.Starting date : Wed 19 May 2021.
- ( at 01h36 )

- input  file    -> /scratch/users/j/a/jabreu/flow_simple_8atoms/flow/w454/t1/run.abi
- output file    -> /scratch/users/j/a/jabreu/flow_simple_8atoms/flow/w454/t1/run.abo
- root for input  files -> /scratch/users/j/a/jabreu/flow_simple_8atoms/flow/w454/t1/indata/in
- root for output files -> /scratch/users/j/a/jabreu/flow_simple_8atoms/flow/w454/t1/outdata/out

 Symmetries : space group C2/c (# 15); Bravais mC (1-face-center monocl.)
     intxc =       0      iscf =       7    lmnmax =      18     lnmax =       6
     mgfft =      72  mpssoang =       3    mqgrid =    3001     natom =       8
  nloc_mem =       1    nspden =       1   nspinor =       1    nsppol =       1
      nsym =       4    n1xccc =    2501    ntypat =       3    occopt =       1
   xclevel =       2
-    mband =          45        mffmem =           1         mkmem =           1
-   mkqmem =           1        mk1mem =           1           mpw =       11368
      nfft =      259200          nkpt =           1
  Rough estimation (10% accuracy) of disk space for files :

------------- Echo of variables that govern the present computation ------------
-
- outvars: echo of selected default values
-   iomode0 =  0 , fftalg0 =512 , wfoptalg0 =  0
-
- outvars: echo of global parameters not present in the input file
-  max_nthreads =    0
-
 -outvars: echo values of preprocessed input variables --------
            acell      1.0000000000E+00  1.0000000000E+00  1.0000000000E+00 Bohr
              amu      2.29897680E+01  2.08980370E+02  1.59994000E+01
             ecut      4.40000000E+01 Hartree
-          fftalg         512
           irdden           1
           irdwfk           1
              ixc     -116133
              kpt      5.00000000E-01 -5.00000000E-01 -3.09758647E-17
           kptopt           0
P           mkmem           1
P          mkqmem           1
P          mk1mem           1
            natom           8
            nband          45
           nbdbuf           4
            ngfft          60      60      72
             nkpt           1
            nstep        2000
             nsym           4
           ntypat           3
              occ      2.000000  2.000000  2.000000  2.000000  2.000000  2.000000
                       2.000000  2.000000  2.000000  2.000000  2.000000  2.000000
                       2.000000  2.000000  2.000000  2.000000  2.000000  2.000000
                       2.000000  2.000000  2.000000  2.000000  2.000000  2.000000
                       2.000000  2.000000  2.000000  2.000000  2.000000  2.000000
                       2.000000  2.000000  2.000000  2.000000  2.000000  2.000000
                       0.000000  0.000000  0.000000  0.000000  0.000000  0.000000
                       0.000000  0.000000  0.000000
        optdriver           1
            prtwf          -1
            rfdir           1       1       1
           rfelfd           2
            rprim      8.6344022011E+00  0.0000000000E+00  4.0236438943E+00
                      -1.6962125470E+00  8.4661540480E+00  4.0236438943E+00
                       0.0000000000E+00  0.0000000000E+00  1.1185530533E+01
          spgroup          15
           symrel      1  0  0   0  1  0   0  0  1      -1  0  0   0 -1  0   0  0 -1
                       0 -1  0  -1  0  0   0  0 -1       0  1  0   1  0  0   0  0  1
            tnons      0.0000000  0.0000000  0.0000000     0.0000000 -0.0000000 -0.0000000
                       0.0000000  0.0000000  0.5000000     0.0000000 -0.0000000  0.5000000
           tolwfr      1.00000000E-20
            typat      1  1  2  2  3  3  3  3
           useylm           1
           xangst      2.5329156009E+00  1.6687191906E+00  6.5685665124E+00
                       1.1386162329E+00  2.8113765760E+00  3.6090026004E+00
                       3.9108585251E+00  5.3946625164E-01  3.6090026004E+00
                      -2.3932669123E-01  3.9406295150E+00  6.5685665124E+00
                       3.3399608396E+00  3.1334013796E+00  4.7744209263E+00
                       1.2553164658E+00  5.8966572471E-01  2.4435842745E+00
                       2.4162153680E+00  3.8904300419E+00  7.7339848383E+00
                       3.3157099425E-01  1.3466943870E+00  5.4031481865E+00
            xcart      4.7865168034E+00  3.1534222629E+00  1.2412791794E+01
                       2.1516728507E+00  5.3127317851E+00  6.8200265276E+00
                       7.3904515568E+00  1.0194434735E+00  6.8200265276E+00
                      -4.5226190272E-01  7.4467105745E+00  1.2412791794E+01
                       6.3116112814E+00  5.9212704719E+00  9.0223479937E+00
                       2.3722043304E+00  1.1143067296E+00  4.6177050614E+00
                       4.5659853237E+00  7.3518473184E+00  1.4615113260E+01
                       6.2657837274E-01  2.5448835761E+00  1.0210470328E+01
             xred      6.2752600000E-01  3.7247400000E-01  7.5000000000E-01
                       3.7247400000E-01  6.2752600000E-01  2.5000000000E-01
                       8.7958600000E-01  1.2041400000E-01  2.5000000000E-01
                       1.2041400000E-01  8.7958600000E-01  7.5000000000E-01
                       8.6838100000E-01  6.9940500000E-01  2.4264700000E-01
                       3.0059500000E-01  1.3161900000E-01  2.5735300000E-01
                       6.9940500000E-01  8.6838100000E-01  7.4264700000E-01
                       1.3161900000E-01  3.0059500000E-01  7.5735300000E-01
            znucl       11.00000   83.00000    8.00000

 chkinp: Checking input parameters for consistency.

== DATASET  1 ==================================================================
-   mpi_nproc: 1, omp_nthreads: -1 (-1 if OMP is not activated)

--- !DatasetInfo
iteration_state: {dtset: 1, }
dimensions: {natom: 8, nkpt: 1, mband: 45, nsppol: 1, nspinor: 1, nspden: 1, mpw: 11368, }
cutoff_energies: {ecut:  44.0, pawecutdg:  -1.0, }
electrons: {nelect:   7.20000000E+01, charge:   0.00000000E+00, occopt:   1.00000000E+00, tsmear:   1.00000000E-02, }
meta: {optdriver: 1, rfelfd: 2, }
...

 Real(R)+Recip(G) space primitive vectors, cartesian coordinates (Bohr,Bohr^-1):
 R(1)=  8.6344022  0.0000000  4.0236439  G(1)=  0.1158158  0.0232039  0.0000000
 R(2)= -1.6962125  8.4661540  4.0236439  G(2)=  0.0000000  0.1181174  0.0000000
 R(3)=  0.0000000  0.0000000 11.1855305  G(3)= -0.0416611 -0.0508359  0.0894012
 Unit cell volume ucvol=  8.1766429E+02 bohr^3
 Angles (23,13,12)=  6.50144129E+01  6.50144129E+01  8.90251011E+01 degrees

 getcut: wavevector=  0.0000  0.0000  0.0000  ngfft=  60  60  72
         ecut(hartree)=     44.000   => boxcut(ratio)=   2.10968

--- Pseudopotential description ------------------------------------------------
- pspini: atom type   1  psp file is /scratch/users/j/a/jabreu/pseudos/PBEsol/Na.psp8
- pspatm: opening atomic psp file    /scratch/users/j/a/jabreu/pseudos/PBEsol/Na.psp8
- Na    ONCVPSP-3.3.0  r_core=   1.20708   1.55069
- 11.00000   9.00000    180112                znucl, zion, pspdat
    8 -116133    1    4       400   0.00000   pspcod,pspxc,lmax,lloc,mmax,r2well
    3.99000000000000    0.00000000000000    0.00000000000000   rchrg,fchrg,qchrg
     nproj     2     2
     extension_switch     1
  pspatm : epsatm=    9.32878306
         --- l  ekb(1:nproj) -->
             0    2.657905   -0.678300
             1   -6.761319   -2.404728
 pspatm: atomic psp has been read  and splines computed

- pspini: atom type   2  psp file is /scratch/users/j/a/jabreu/pseudos/PBEsol/Bi.psp8
- pspatm: opening atomic psp file    /scratch/users/j/a/jabreu/pseudos/PBEsol/Bi.psp8
- Bi    ONCVPSP-3.3.0  r_core=   2.42776   2.51622   2.10397
- 83.00000  15.00000    180112                znucl, zion, pspdat
    8 -116133    2    4       600   0.00000   pspcod,pspxc,lmax,lloc,mmax,r2well
    5.99000000000000    6.00000000000000    0.00000000000000   rchrg,fchrg,qchrg
     nproj     2     2     2
     extension_switch     1
  pspatm : epsatm=   42.90078186
         --- l  ekb(1:nproj) -->
             0    6.017688    0.961606
             1    4.379371    0.528498
             2   -3.458170   -0.753782
 pspatm: atomic psp has been read  and splines computed

- pspini: atom type   3  psp file is /scratch/users/j/a/jabreu/pseudos/PBEsol/O.psp8
- pspatm: opening atomic psp file    /scratch/users/j/a/jabreu/pseudos/PBEsol/O.psp8
- O     ONCVPSP-3.3.0  r_core=   1.35509   1.45563   1.26150
-  8.00000   6.00000    180112                znucl, zion, pspdat
    8 -116133    2    4       600   0.00000   pspcod,pspxc,lmax,lloc,mmax,r2well
    5.99000000000000    4.00000000000000    0.00000000000000   rchrg,fchrg,qchrg
     nproj     2     2     1
     extension_switch     1
  pspatm : epsatm=    6.22910522
         --- l  ekb(1:nproj) -->
             0    6.050032    0.820363
             1   -4.739617   -1.153841
             2   -1.335834
 pspatm: atomic psp has been read  and splines computed

   9.31503965E+03                                ecore*ucvol(ha*bohr**3)

-inwffil : will read wavefunctions from disk file /scratch/users/j/a/jabreu/flow_simple_8atoms/flow/w454/t1/indata/in_WFK

 ==>  initialize data related to q vector <==

 The list of irreducible perturbations for this q vector is:
    1)    idir= 1    ipert=   9
    2)    idir= 2    ipert=   9
    3)    idir= 3    ipert=   9

 Perturbation wavevector (in red.coord.)   0.000000  0.000000  0.000000
 Perturbation : derivative vs k along direction   1

 dfpt_looppert : COMMENT -
  In a d/dk calculation, iscf is set to -3 automatically.
 The set of symmetries contains only one element for this perturbation.
 symkpt : not enough symmetry to change the number of k points.

[...]

 Initialisation of the first-order wave-functions :
  ireadwf=   0

--- !BeginCycle
iteration_state: {dtset: 1, }
solver: {iscf: 7, nstep: 2000, nline: 4, wfoptalg: 0, }
tolerances: {tolwfr: 1.00E-20, }
...

     iter   2DEtotal(Ha)        deltaE(Ha) residm    vres2
-ETOT  1  -71.719367120381     -7.172E+01 2.624E-02 0.000E+00
 ETOT  2  -71.769908273703     -5.054E-02 2.373E-04 0.000E+00
 ETOT  3  -71.770045220592     -1.369E-04 1.223E-06 0.000E+00
 ETOT  4  -71.770046283274     -1.063E-06 1.446E-08 0.000E+00
 ETOT  5  -71.770046293750     -1.048E-08 1.411E-10 0.000E+00
 ETOT  6  -71.770046293863     -1.128E-10 1.966E-12 0.000E+00
 ETOT  7  -71.770046293864     -1.151E-12 1.943E-14 0.000E+00
 ETOT  8  -71.770046293864      4.263E-14 2.915E-16 0.000E+00
 ETOT  9  -71.770046293864     -8.527E-14 2.855E-18 0.000E+00
 ETOT 10  -71.770046293864      0.000E+00 4.481E-20 0.000E+00
 ETOT 11  -71.770046293864      2.842E-14 9.961E-21 0.000E+00

 At SCF step   11   max residual=  9.96E-21 < tolwfr=  1.00E-20 =>converged.

 ----iterations are completed or convergence reached----

 dfpt_looppert: DFPT cycle converged with prtwf=-1. Will skip output of the 1st-order WFK file.
 dfpt_looppert : ek2=    7.9314007815E+01
          f-sum rule ratio=    1.2208174710E+00
 prteigrs : about to open file /scratch/users/j/a/jabreu/flow_simple_8atoms/flow/w454/t1/tmpdata/tmp_1WF1_EIG
 Expectation of eigenvalue derivatives (hartree) for nkpt=   1  k points:
  (in case of degenerate eigenvalues, averaged derivative)
 kpt#   1, nband= 45, wtk=  1.00000, kpt=  0.5000 -0.5000  0.0000 (reduced coord)
  -0.00000    0.00000    0.00000   -0.00000    0.00000   -0.00000   -0.00000    0.00000
  -0.00000   -0.00000   -0.00000    0.00000   -0.00000   -0.00000   -0.00000    0.00000
  -0.00000    0.00000   -0.00000    0.00000   -0.00000   -0.00000    0.00000    0.00000
  -0.00000    0.00000   -0.00000    0.00000    0.00000    0.00000    0.00000    0.00000
  -0.00000    0.00000    0.00000    0.00000    0.00000    0.00000   -0.00000    0.00000
  -0.00000   -0.00000    0.00000    0.00001    0.00009

 Eight components of 2nd-order total energy (hartree) are
 1,2,3: 0th-order hamiltonian combined with 1st-order wavefunctions
     kin0=   7.72854590E+01 eigvalue=   7.78048526E+00  local=  -3.42253723E+01
 4,5,6: 1st-order hamiltonian combined with 1st and 0th-order wfs
     kin1=  -9.68279264E+01  Hartree=   0.00000000E+00     xc=   0.00000000E+00
 7,8,9: eventually, occupation + non-local contributions
    edocc=   1.71134887E+01     enl0=   3.81598565E+00   enl1=  -4.67121662E+01
 1-9 gives the relaxation energy (to be shifted if some occ is /=2.0)
   erelax=  -7.17700463E+01
  No Ewald or frozen-wf contrib.: the relaxation energy is the total one
 2DEtotal=   -0.7177004629E+02 Ha. Also 2DEtotal=   -0.195296227935E+04 eV
    (  non-var. 2DEtotal :   -7.1770046294E+01 Ha)

 Perturbation wavevector (in red.coord.)   0.000000  0.000000  0.000000
 Perturbation : derivative vs k along direction   2
 The set of symmetries contains only one element for this perturbation.
 symkpt : not enough symmetry to change the number of k points.

[...]

 Perturbation wavevector (in red.coord.)   0.000000  0.000000  0.000000
 Perturbation : derivative vs k along direction   3
 The set of symmetries contains only one element for this perturbation.
 symkpt : not enough symmetry to change the number of k points.

-inwffil : will read wavefunctions from disk file /scratch/users/j/a/jabreu/flow_simple_8atoms/flow/w454/t1/indata/in_WFK

 Initialisation of the first-order wave-functions :
  ireadwf=   0

--- !BeginCycle
iteration_state: {dtset: 1, }
solver: {iscf: 7, nstep: 2000, nline: 4, wfoptalg: 0, }
tolerances: {tolwfr: 1.00E-20, }
...

     iter   2DEtotal(Ha)        deltaE(Ha) residm    vres2
-ETOT  1  -57.325922602736     -5.733E+01 3.033E-02 0.000E+00
 ETOT  2  -57.363092508157     -3.717E-02 4.561E-05 0.000E+00
 ETOT  3  -57.363130518617     -3.801E-05 1.853E-07 0.000E+00
 ETOT  4  -57.363130674914     -1.563E-07 2.548E-09 0.000E+00
 ETOT  5  -57.363130676175     -1.260E-09 1.446E-11 0.000E+00
 ETOT  6  -57.363130676187     -1.199E-11 2.321E-13 0.000E+00
 ETOT  7  -57.363130676187     -1.492E-13 1.565E-15 0.000E+00
 ETOT  8  -57.363130676187      7.105E-15 2.736E-17 0.000E+00
 ETOT  9  -57.363130676187      0.000E+00 1.939E-19 0.000E+00
 ETOT 10  -57.363130676187      0.000E+00 9.996E-21 0.000E+00

 At SCF step   10   max residual=  1.00E-20 < tolwfr=  1.00E-20 =>converged.

 ----iterations are completed or convergence reached----

 dfpt_looppert: DFPT cycle converged with prtwf=-1. Will skip output of the 1st-order WFK file.
 dfpt_looppert : ek2=    6.9995315812E+01
          f-sum rule ratio=    1.0598978129E+00
 prteigrs : about to open file /scratch/users/j/a/jabreu/flow_simple_8atoms/flow/w454/t1/tmpdata/tmp_1WF1_EIG
 Expectation of eigenvalue derivatives (hartree) for nkpt=   1  k points:
  (in case of degenerate eigenvalues, averaged derivative)
 kpt#   1, nband= 45, wtk=  1.00000, kpt=  0.5000 -0.5000  0.0000 (reduced coord)
  -0.00000   -0.00000   -0.00000    0.00000   -0.00000    0.00000   -0.00000   -0.00000
  -0.00000   -0.00000   -0.00000    0.00000    0.00000    0.00000   -0.00000    0.00000
   0.00000   -0.00000    0.00000   -0.00000    0.00000   -0.00000   -0.00000    0.00000
   0.00000   -0.00000    0.00000    0.00000   -0.00000    0.00000    0.00000   -0.00000
   0.00000   -0.00000    0.00000   -0.00000   -0.00000   -0.00000   -0.00000    0.00000
   0.00000   -0.00000   -0.00000   -0.00001   -0.00011

 Eight components of 2nd-order total energy (hartree) are
 1,2,3: 0th-order hamiltonian combined with 1st-order wavefunctions
     kin0=   6.61183048E+01 eigvalue=   7.16751736E+00  local=  -2.94744482E+01
 4,5,6: 1st-order hamiltonian combined with 1st and 0th-order wfs
     kin1=  -7.41878821E+01  Hartree=   0.00000000E+00     xc=   0.00000000E+00
 7,8,9: eventually, occupation + non-local contributions
    edocc=   1.00548111E+01     enl0=   3.49694553E+00   enl1=  -4.05383792E+01
 1-9 gives the relaxation energy (to be shifted if some occ is /=2.0)
   erelax=  -5.73631307E+01
  No Ewald or frozen-wf contrib.: the relaxation energy is the total one
 2DEtotal=   -0.5736313068E+02 Ha. Also 2DEtotal=   -0.156093016824E+04 eV
    (  non-var. 2DEtotal :   -5.7363130676E+01 Ha)

 CALCULATION OF EFFECTIVE MASSES
 NOTE : Additional infos (eff. mass eigenvalues, eigenvectors and, if degenerate, average mass) are available in stdout.

 K-point ( 0.500,-0.500,-0.000) | band =    36
 Effective mass tensor:
             -1.0518084427             -0.5946203964              0.5054740377
             -0.5946203964             -1.2900651616              0.6167886038
              0.5054740377              0.6167886038             -0.7434805242
 Effective mass tensor eigenvalues:
             -2.2107770882             -0.5645005056             -0.3100765348
 Angular average effective mass 1/(<1/m>)=  -0.5505781782
 Angular average effective mass for Frohlich model (<m**0.5>)**2=  -0.6402095514
 Effective masses along directions: (cart. coord. / red. coord. -> eff. mass)
    1:   1.000000  0.000000  0.000000 /   0.981245 -0.192764  0.000000 ->  -0.6686780996
    2:   0.000000  1.000000  0.000000 /   0.000000  1.000000  0.000000 ->  -0.7349941242
    3:   0.000000  0.000000  1.000000 /   0.320616  0.320616  0.891297 ->  -0.3856872252
    4:   0.577350  0.577350  0.577350 /   0.631449  0.538440  0.557992 ->  -0.3726926406
    5:   0.000000  0.707107  0.707107 /   0.233357  0.724365  0.648722 ->  -0.3476545950
    6:   0.707107  0.000000  0.707107 /   0.742335  0.136493  0.655979 ->  -0.3595185240
    7:   0.707107  0.707107  0.000000 /   0.786948  0.617019  0.000000 ->  -0.9163744937

 K-point ( 0.500,-0.500,-0.000) | band =    37
 Effective mass tensor:
              0.3190228193             -0.0423006186             -0.1079960213
             -0.0423006186              0.3020747213             -0.1317747418
             -0.1079960213             -0.1317747418              1.0041485557
 Effective mass tensor eigenvalues:
              0.2299154733              0.3536898394              1.0416407836
 Angular average effective mass 1/(<1/m>)=   0.3686960197
 Angular average effective mass for Frohlich model (<m**0.5>)**2=   0.4060572223
 Effective masses along directions: (cart. coord. / red. coord. -> eff. mass)
    1:   1.000000  0.000000  0.000000 /   0.981245 -0.192764  0.000000 ->   0.2962091300
    2:   0.000000  1.000000  0.000000 /   0.000000  1.000000  0.000000 ->   0.2744073997
    3:   0.000000  0.000000  1.000000 /   0.320616  0.320616  0.891297 ->   0.8955962475
    4:   0.577350  0.577350  0.577350 /   0.631449  0.538440  0.557992 ->   0.2613679746
    5:   0.000000  0.707107  0.707107 /   0.233357  0.724365  0.648722 ->   0.3412237341
    6:   0.707107  0.000000  0.707107 /   0.742335  0.136493  0.655979 ->   0.3707512935
    7:   0.707107  0.707107  0.000000 /   0.786948  0.617019  0.000000 ->   0.2392588952

 END OF EFFECTIVE MASSES SECTION

 ---- first-order wavefunction calculations are completed ----

 Total localisation tensor (bohr^2) in cartesian coordinates
  WARNING : still subject to testing - especially symmetries.
      direction              matrix element
   alpha     beta       real part   imaginary part
     1        1       1.9303004674    0.0000000000
     1        2      -0.3579991172    0.0000000000
     1        3       0.6959549422    0.0000000000
     2        1      -0.3579991172    0.0000000000
     2        2       1.7868489891    0.0000000000
     2        3       0.8492219707    0.0000000000
     3        1       0.6959549422    0.0000000000
     3        2       0.8492219707    0.0000000000
     3        3       2.7856131038    0.0000000000

 respfn : d/dk was computed, but no 2DTE, so no DDB output.

== END DATASET(S) ==============================================================

 -outvars: echo values of variables after computation  --------
            acell      1.0000000000E+00  1.0000000000E+00  1.0000000000E+00 Bohr
              amu      2.29897680E+01  2.08980370E+02  1.59994000E+01
             ecut      4.40000000E+01 Hartree
           etotal     -5.7363130676E+01
            fcart      0.0000000000E+00  0.0000000000E+00  0.0000000000E+00
                       0.0000000000E+00  0.0000000000E+00  0.0000000000E+00
                       0.0000000000E+00  0.0000000000E+00  0.0000000000E+00
                       0.0000000000E+00  0.0000000000E+00  0.0000000000E+00
                       0.0000000000E+00  0.0000000000E+00  0.0000000000E+00
                       0.0000000000E+00  0.0000000000E+00  0.0000000000E+00
                       0.0000000000E+00  0.0000000000E+00  0.0000000000E+00
                       0.0000000000E+00  0.0000000000E+00  0.0000000000E+00
-          fftalg         512
           irdden           1
           irdwfk           1
              ixc     -116133
              kpt      5.00000000E-01 -5.00000000E-01 -3.09758647E-17
           kptopt           0
P           mkmem           1
P          mkqmem           1
P          mk1mem           1
            natom           8
            nband          45
           nbdbuf           4
            ngfft          60      60      72
             nkpt           1
            nstep        2000
             nsym           4
           ntypat           3
              occ      2.000000  2.000000  2.000000  2.000000  2.000000  2.000000
                       2.000000  2.000000  2.000000  2.000000  2.000000  2.000000
                       2.000000  2.000000  2.000000  2.000000  2.000000  2.000000
                       2.000000  2.000000  2.000000  2.000000  2.000000  2.000000
                       2.000000  2.000000  2.000000  2.000000  2.000000  2.000000
                       2.000000  2.000000  2.000000  2.000000  2.000000  2.000000
                       0.000000  0.000000  0.000000  0.000000  0.000000  0.000000
                       0.000000  0.000000  0.000000
        optdriver           1
            prtwf          -1
            rfdir           1       1       1
           rfelfd           2
            rprim      8.6344022011E+00  0.0000000000E+00  4.0236438943E+00
                      -1.6962125470E+00  8.4661540480E+00  4.0236438943E+00
                       0.0000000000E+00  0.0000000000E+00  1.1185530533E+01
          spgroup          15
           strten      0.0000000000E+00  0.0000000000E+00  0.0000000000E+00
                       0.0000000000E+00  0.0000000000E+00  0.0000000000E+00
           symrel      1  0  0   0  1  0   0  0  1      -1  0  0   0 -1  0   0  0 -1
                       0 -1  0  -1  0  0   0  0 -1       0  1  0   1  0  0   0  0  1
            tnons      0.0000000  0.0000000  0.0000000     0.0000000 -0.0000000 -0.0000000
                       0.0000000  0.0000000  0.5000000     0.0000000 -0.0000000  0.5000000
           tolwfr      1.00000000E-20
            typat      1  1  2  2  3  3  3  3
           useylm           1
           xangst      2.5329156009E+00  1.6687191906E+00  6.5685665124E+00
                       1.1386162329E+00  2.8113765760E+00  3.6090026004E+00
                       3.9108585251E+00  5.3946625164E-01  3.6090026004E+00
                      -2.3932669123E-01  3.9406295150E+00  6.5685665124E+00
                       3.3399608396E+00  3.1334013796E+00  4.7744209263E+00
                       1.2553164658E+00  5.8966572471E-01  2.4435842745E+00
                       2.4162153680E+00  3.8904300419E+00  7.7339848383E+00
                       3.3157099425E-01  1.3466943870E+00  5.4031481865E+00
            xcart      4.7865168034E+00  3.1534222629E+00  1.2412791794E+01
                       2.1516728507E+00  5.3127317851E+00  6.8200265276E+00
                       7.3904515568E+00  1.0194434735E+00  6.8200265276E+00
                      -4.5226190272E-01  7.4467105745E+00  1.2412791794E+01
                       6.3116112814E+00  5.9212704719E+00  9.0223479937E+00
                       2.3722043304E+00  1.1143067296E+00  4.6177050614E+00
                       4.5659853237E+00  7.3518473184E+00  1.4615113260E+01
                       6.2657837274E-01  2.5448835761E+00  1.0210470328E+01
             xred      6.2752600000E-01  3.7247400000E-01  7.5000000000E-01
                       3.7247400000E-01  6.2752600000E-01  2.5000000000E-01
                       8.7958600000E-01  1.2041400000E-01  2.5000000000E-01
                       1.2041400000E-01  8.7958600000E-01  7.5000000000E-01
                       8.6838100000E-01  6.9940500000E-01  2.4264700000E-01
                       3.0059500000E-01  1.3161900000E-01  2.5735300000E-01
                       6.9940500000E-01  8.6838100000E-01  7.4264700000E-01
                       1.3161900000E-01  3.0059500000E-01  7.5735300000E-01
            znucl       11.00000   83.00000    8.00000

- Timing analysis has been suppressed with timopt=0

 Suggested references for the acknowledgment of ABINIT usage.

 Calculation completed.
.Delivered   6 WARNINGs and   5 COMMENTs to log file.