.Version 9.5.1 of ABINIT

 ABINIT is a project of the Universite Catholique de Louvain,
 Corning Inc. and other collaborators, see ~abinit/doc/developers/contributors.txt .
 acknowledgments of the ABINIT effort.

.Starting date : Tue 27 Apr 2021.
- ( at 18h36 )

- input  file    -> /scratch/users/j/a/jabreu/flow_simple_4atoms/flow/w205/t1/run.abi
- output file    -> /scratch/users/j/a/jabreu/flow_simple_4atoms/flow/w205/t1/run.abo
- root for input  files -> /scratch/users/j/a/jabreu/flow_simple_4atoms/flow/w205/t1/indata/in
- root for output files -> /scratch/users/j/a/jabreu/flow_simple_4atoms/flow/w205/t1/outdata/out

 Symmetries : space group R-3 m (#166); Bravais hR (rhombohedral)
     intxc =       0      iscf =       7    lmnmax =      18     lnmax =       6
     mgfft =      90  mpssoang =       3    mqgrid =    3001     natom =       4
  nloc_mem =       1    nspden =       1   nspinor =       1    nsppol =       1
      nsym =      12    n1xccc =    2501    ntypat =       3    occopt =       1
   xclevel =       2
-    mband =          25        mffmem =           1         mkmem =           1
-   mkqmem =           1        mk1mem =           1           mpw =        8342
      nfft =      729000          nkpt =           1
  Rough estimation (10% accuracy) of disk space for files :

------------- Echo of variables that govern the present computation ------------
-
- outvars: echo of selected default values
-   iomode0 =  0 , fftalg0 =512 , wfoptalg0 =  0
-
- outvars: echo of global parameters not present in the input file
-  max_nthreads =    0
-
 -outvars: echo values of preprocessed input variables --------
            acell      1.0000000000E+00  1.0000000000E+00  1.0000000000E+00 Bohr
              amu      8.76200000E+01  7.99040000E+01  1.40067400E+01
             ecut      4.20000000E+01 Hartree
-          fftalg         512
           irdden           1
           irdwfk           1
           istwfk        1
              ixc     -116133
              kpt      5.00000000E-01  5.00000000E-01  0.00000000E+00
           kptopt           0
P           mkmem           1
P          mkqmem           1
P          mk1mem           1
            natom           4
            nband          25
           nbdbuf           4
            ngfft          90      90      90
             nkpt           1
            nstep         100
             nsym          12
           ntypat           3
              occ      2.000000  2.000000  2.000000  2.000000  2.000000  2.000000
                       2.000000  2.000000  2.000000  2.000000  2.000000  2.000000
                       2.000000  2.000000  2.000000  2.000000  0.000000  0.000000
                       0.000000  0.000000  0.000000  0.000000  0.000000  0.000000
                       0.000000
        optdriver           1
            prtwf          -1
            rfdir           1       1       1
           rfelfd           2
            rprim      7.0979203132E+00  0.0000000000E+00  1.2492251850E+01
                       3.3011345821E+00  6.2835486186E+00  1.2492251850E+01
                       0.0000000000E+00  0.0000000000E+00  1.4367909697E+01
          spgroup         166
           symrel      1  0  0   0  1  0   0  0  1      -1  0  0   0 -1  0   0  0 -1
                       0  1  0   1  0  0   0  0  1       0 -1  0  -1  0  0   0  0 -1
                       0  0  1   1  0  0   0  1  0       0  0 -1  -1  0  0   0 -1  0
                       1  0  0   0  0  1   0  1  0      -1  0  0   0  0 -1   0 -1  0
                       0  1  0   0  0  1   1  0  0       0 -1  0   0  0 -1  -1  0  0
                       0  0  1   0  1  0   1  0  0       0  0 -1   0 -1  0  -1  0  0
           tolwfr      1.00000000E-20
            typat      1  1  2  3
           useylm           1
           xangst      4.2508362450E+00  2.5685349759E+00  1.6086141181E+01
                       1.2521065965E+00  7.5657574212E-01  4.7382590917E+00
                       0.0000000000E+00  0.0000000000E+00  0.0000000000E+00
                       2.7514714207E+00  1.6625553590E+00  1.0412200137E+01
            xcart      8.0329163388E+00  4.8538276672E+00  3.0398401368E+01
                       2.3661385565E+00  1.4297209514E+00  8.9540120300E+00
                       0.0000000000E+00  0.0000000000E+00  0.0000000000E+00
                       5.1995274477E+00  3.1417743093E+00  1.9676206699E+01
             xred      7.7246600000E-01  7.7246600000E-01  7.7246600000E-01
                       2.2753400000E-01  2.2753400000E-01  2.2753400000E-01
                       0.0000000000E+00  0.0000000000E+00  0.0000000000E+00
                       5.0000000000E-01  5.0000000000E-01  5.0000000000E-01
            znucl       38.00000   35.00000    7.00000

 chkinp: Checking input parameters for consistency.

== DATASET  1 ==================================================================
-   mpi_nproc: 1, omp_nthreads: -1 (-1 if OMP is not activated)

--- !DatasetInfo
iteration_state: {dtset: 1, }
dimensions: {natom: 4, nkpt: 1, mband: 25, nsppol: 1, nspinor: 1, nspden: 1, mpw: 8342, }
cutoff_energies: {ecut:  42.0, pawecutdg:  -1.0, }
electrons: {nelect:   3.20000000E+01, charge:   0.00000000E+00, occopt:   1.00000000E+00, tsmear:   1.00000000E-02, }
meta: {optdriver: 1, rfelfd: 2, }
...

 Real(R)+Recip(G) space primitive vectors, cartesian coordinates (Bohr,Bohr^-1):
 R(1)=  7.0979203  0.0000000 12.4922519  G(1)=  0.1408863 -0.0740163  0.0000000
 R(2)=  3.3011346  6.2835486 12.4922519  G(2)=  0.0000000  0.1591457  0.0000000
 R(3)=  0.0000000  0.0000000 14.3679097  G(3)= -0.1224943 -0.0740163  0.0695995
 Unit cell volume ucvol=  6.4081060E+02 bohr^3
 Angles (23,13,12)=  2.96046239E+01  2.96046239E+01  2.96046239E+01 degrees

 getcut: wavevector=  0.0000  0.0000  0.0000  ngfft=  90  90  90
         ecut(hartree)=     42.000   => boxcut(ratio)=   2.14718

--- Pseudopotential description ------------------------------------------------
- pspini: atom type   1  psp file is /scratch/users/j/a/jabreu/pseudos/PBEsol/Sr.psp8
- pspatm: opening atomic psp file    /scratch/users/j/a/jabreu/pseudos/PBEsol/Sr.psp8
- Sr    ONCVPSP-3.3.0  r_core=   1.66721   1.31335   1.51547
- 38.00000  10.00000    180112                znucl, zion, pspdat
    8 -116133    2    4       600   0.00000   pspcod,pspxc,lmax,lloc,mmax,r2well
    5.99000000000000    6.00000000000000    0.00000000000000   rchrg,fchrg,qchrg
     nproj     2     2     2
     extension_switch     1
  pspatm : epsatm=   12.46450977
         --- l  ekb(1:nproj) -->
             0   10.029206    1.044171
             1    7.472414    1.670829
             2    4.142950    0.968140
 pspatm: atomic psp has been read  and splines computed

- pspini: atom type   2  psp file is /scratch/users/j/a/jabreu/pseudos/PBEsol/Br.psp8
- pspatm: opening atomic psp file    /scratch/users/j/a/jabreu/pseudos/PBEsol/Br.psp8
- Br    ONCVPSP-3.3.0  r_core=   1.81012   1.51356   1.92136
- 35.00000   7.00000    180112                znucl, zion, pspdat
    8 -116133    2    4       600   0.00000   pspcod,pspxc,lmax,lloc,mmax,r2well
    5.99000000000000    8.00000000000000    0.00000000000000   rchrg,fchrg,qchrg
     nproj     2     2     2
     extension_switch     1
  pspatm : epsatm=   10.94933070
         --- l  ekb(1:nproj) -->
             0    8.508690    0.897946
             1    5.393311    0.892021
             2    2.527513    0.394763
 pspatm: atomic psp has been read  and splines computed

- pspini: atom type   3  psp file is /scratch/users/j/a/jabreu/pseudos/PBEsol/N.psp8
- pspatm: opening atomic psp file    /scratch/users/j/a/jabreu/pseudos/PBEsol/N.psp8
- N     ONCVPSP-3.3.0  r_core=   1.20551   1.35824
-  7.00000   5.00000    180112                znucl, zion, pspdat
    8 -116133    1    4       600   0.00000   pspcod,pspxc,lmax,lloc,mmax,r2well
    5.99000000000000    4.00000000000000    0.00000000000000   rchrg,fchrg,qchrg
     nproj     2     2
     extension_switch     1
  pspatm : epsatm=    5.26508895
         --- l  ekb(1:nproj) -->
             0    7.464189    0.625868
             1   -4.309714   -1.012941
 pspatm: atomic psp has been read  and splines computed

   1.31659005E+03                                ecore*ucvol(ha*bohr**3)

-inwffil : will read wavefunctions from disk file /scratch/users/j/a/jabreu/flow_simple_4atoms/flow/w205/t1/indata/in_WFK

 ==>  initialize data related to q vector <==

 The list of irreducible perturbations for this q vector is:
    1)    idir= 1    ipert=   5
    2)    idir= 2    ipert=   5
    3)    idir= 3    ipert=   5

 Perturbation wavevector (in red.coord.)   0.000000  0.000000  0.000000
 Perturbation : derivative vs k along direction   1

 dfpt_looppert : COMMENT -
  In a d/dk calculation, iscf is set to -3 automatically.
 The set of symmetries contains only one element for this perturbation.
 symkpt : not enough symmetry to change the number of k points.

[...]

 Initialisation of the first-order wave-functions :
  ireadwf=   0

--- !BeginCycle
iteration_state: {dtset: 1, }
solver: {iscf: 7, nstep: 100, nline: 4, wfoptalg: 0, }
tolerances: {tolwfr: 1.00E-20, }
...

     iter   2DEtotal(Ha)        deltaE(Ha) residm    vres2
-ETOT  1  -35.180750813166     -3.518E+01 1.043E-01 0.000E+00
 ETOT  2  -35.213651359289     -3.290E-02 1.271E-02 0.000E+00
 ETOT  3  -35.213879799163     -2.284E-04 4.838E-04 0.000E+00
 ETOT  4  -35.213882099682     -2.301E-06 7.046E-05 0.000E+00
 ETOT  5  -35.213882126562     -2.688E-08 3.993E-06 0.000E+00
 ETOT  6  -35.213882126895     -3.325E-10 6.348E-07 0.000E+00
 ETOT  7  -35.213882126899     -4.313E-12 3.735E-08 0.000E+00
 ETOT  8  -35.213882126899     -7.105E-14 6.268E-09 0.000E+00
 ETOT  9  -35.213882126899     -4.263E-14 3.658E-10 0.000E+00
 ETOT 10  -35.213882126899      4.263E-14 6.367E-11 0.000E+00
 ETOT 11  -35.213882126899     -7.105E-15 3.672E-12 0.000E+00
 ETOT 12  -35.213882126899      7.105E-15 6.567E-13 0.000E+00
 ETOT 13  -35.213882126899      7.105E-15 3.747E-14 0.000E+00
 ETOT 14  -35.213882126899     -7.105E-15 6.838E-15 0.000E+00
 ETOT 15  -35.213882126899     -7.105E-15 3.870E-16 0.000E+00
 ETOT 16  -35.213882126899      0.000E+00 7.167E-17 0.000E+00
 ETOT 17  -35.213882126899     -7.105E-15 4.034E-18 0.000E+00
 ETOT 18  -35.213882126899      1.421E-14 7.549E-19 0.000E+00
 ETOT 19  -35.213882126899     -1.421E-14 4.234E-20 0.000E+00
 ETOT 20  -35.213882126899      1.421E-14 8.947E-21 0.000E+00

 At SCF step   20   max residual=  8.95E-21 < tolwfr=  1.00E-20 =>converged.

 ----iterations are completed or convergence reached----

 dfpt_looppert: DFPT cycle converged with prtwf=-1. Will skip output of the 1st-order WFK file.
 dfpt_looppert : ek2=    6.3992599321E+01
          f-sum rule ratio=    1.0770353506E+00
 prteigrs : about to open file /scratch/users/j/a/jabreu/flow_simple_4atoms/flow/w205/t1/tmpdata/tmp_1WF1_EIG
 Expectation of eigenvalue derivatives (hartree) for nkpt=   1  k points:
  (in case of degenerate eigenvalues, averaged derivative)
 kpt#   1, nband= 25, wtk=  1.00000, kpt=  0.5000  0.5000  0.0000 (reduced coord)
  -0.00000   -0.00000    0.00000    0.00000   -0.00000    0.00000   -0.00000   -0.00000
  -0.00000   -0.00000    0.00000   -0.00000   -0.00000   -0.00000    0.00000    0.00000
  -0.00000   -0.00000   -0.00000    0.00000    0.00000   -0.00000   -0.00000    0.00000
  -0.00000

 Eight components of 2nd-order total energy (hartree) are
 1,2,3: 0th-order hamiltonian combined with 1st-order wavefunctions
     kin0=   3.49041332E+01 eigvalue=   7.73724505E-02  local=  -2.13254081E+01
 4,5,6: 1st-order hamiltonian combined with 1st and 0th-order wfs
     kin1=  -6.89222916E+01  Hartree=   0.00000000E+00     xc=   0.00000000E+00
 7,8,9: eventually, occupation + non-local contributions
    edocc=   1.70584760E+01     enl0=   4.49930858E+00   enl1=  -1.50547261E+00
 1-9 gives the relaxation energy (to be shifted if some occ is /=2.0)
   erelax=  -3.52138821E+01
  No Ewald or frozen-wf contrib.: the relaxation energy is the total one
 2DEtotal=   -0.3521388213E+02 Ha. Also 2DEtotal=   -0.958218463756E+03 eV
    (  non-var. 2DEtotal :   -3.5213882127E+01 Ha)

 Perturbation wavevector (in red.coord.)   0.000000  0.000000  0.000000
 Perturbation : derivative vs k along direction   2
 The set of symmetries contains only one element for this perturbation.
 symkpt : not enough symmetry to change the number of k points.

[...]

 Perturbation wavevector (in red.coord.)   0.000000  0.000000  0.000000
 Perturbation : derivative vs k along direction   3
 The set of symmetries contains only one element for this perturbation.
 symkpt : not enough symmetry to change the number of k points.

-inwffil : will read wavefunctions from disk file /scratch/users/j/a/jabreu/flow_simple_4atoms/flow/w205/t1/indata/in_WFK

 Initialisation of the first-order wave-functions :
  ireadwf=   0

--- !BeginCycle
iteration_state: {dtset: 1, }
solver: {iscf: 7, nstep: 100, nline: 4, wfoptalg: 0, }
tolerances: {tolwfr: 1.00E-20, }
...

     iter   2DEtotal(Ha)        deltaE(Ha) residm    vres2
-ETOT  1  -31.256992483705     -3.126E+01 5.514E-02 0.000E+00
 ETOT  2  -31.279498338180     -2.251E-02 6.977E-03 0.000E+00
 ETOT  3  -31.279567581684     -6.924E-05 5.348E-05 0.000E+00
 ETOT  4  -31.279567981411     -3.997E-07 9.678E-06 0.000E+00
 ETOT  5  -31.279567984137     -2.726E-09 1.594E-07 0.000E+00
 ETOT  6  -31.279567984157     -1.988E-11 3.482E-08 0.000E+00
 ETOT  7  -31.279567984157     -2.061E-13 6.456E-10 0.000E+00
 ETOT  8  -31.279567984157      4.263E-14 1.515E-10 0.000E+00
 ETOT  9  -31.279567984157     -5.684E-14 2.811E-12 0.000E+00
 ETOT 10  -31.279567984157      5.329E-14 6.855E-13 0.000E+00
 ETOT 11  -31.279567984157     -2.132E-14 1.247E-14 0.000E+00
 ETOT 12  -31.279567984157      3.553E-15 3.147E-15 0.000E+00
 ETOT 13  -31.279567984157      0.000E+00 5.605E-17 0.000E+00
 ETOT 14  -31.279567984157     -3.553E-15 1.456E-17 0.000E+00
 ETOT 15  -31.279567984157      0.000E+00 2.542E-19 0.000E+00
 ETOT 16  -31.279567984157      0.000E+00 6.780E-20 0.000E+00
 ETOT 17  -31.279567984157      3.553E-15 8.942E-21 0.000E+00

 At SCF step   17   max residual=  8.94E-21 < tolwfr=  1.00E-20 =>converged.

 ----iterations are completed or convergence reached----

 dfpt_looppert: DFPT cycle converged with prtwf=-1. Will skip output of the 1st-order WFK file.
 dfpt_looppert : ek2=    6.3992599322E+01
          f-sum rule ratio=    9.5190950516E-01
 prteigrs : about to open file /scratch/users/j/a/jabreu/flow_simple_4atoms/flow/w205/t1/tmpdata/tmp_1WF1_EIG
 Expectation of eigenvalue derivatives (hartree) for nkpt=   1  k points:
  (in case of degenerate eigenvalues, averaged derivative)
 kpt#   1, nband= 25, wtk=  1.00000, kpt=  0.5000  0.5000  0.0000 (reduced coord)
   0.00000    0.00000   -0.00000    0.00000   -0.00000    0.00000    0.00000    0.00000
  -0.00000    0.00000   -0.00000   -0.00000   -0.00000    0.00000   -0.00000    0.00000
   0.00000   -0.00000    0.00000    0.00000    0.00000   -0.00000   -0.00000   -0.00000
  -0.00000

 Eight components of 2nd-order total energy (hartree) are
 1,2,3: 0th-order hamiltonian combined with 1st-order wavefunctions
     kin0=   4.49109415E+01 eigvalue=  -2.23972341E-01  local=  -2.89034288E+01
 4,5,6: 1st-order hamiltonian combined with 1st and 0th-order wfs
     kin1=  -6.09151636E+01  Hartree=   0.00000000E+00     xc=   0.00000000E+00
 7,8,9: eventually, occupation + non-local contributions
    edocc=   8.91913341E+00     enl0=   6.57689427E+00   enl1=  -1.64397241E+00
 1-9 gives the relaxation energy (to be shifted if some occ is /=2.0)
   erelax=  -3.12795680E+01
  No Ewald or frozen-wf contrib.: the relaxation energy is the total one
 2DEtotal=   -0.3127956798E+02 Ha. Also 2DEtotal=   -0.851160331392E+03 eV
    (  non-var. 2DEtotal :   -3.1279567984E+01 Ha)

 CALCULATION OF EFFECTIVE MASSES
 NOTE : Additional infos (eff. mass eigenvalues, eigenvectors and, if degenerate, average mass) are available in stdout.

 K-point ( 0.500, 0.500, 0.000) | band =    16
 Effective mass tensor:
             -4.0506463789             -1.8526945661              2.8244805200
             -1.8526945661             -2.1039817330              1.7066727679
              2.8244805200              1.7066727679             -7.9610871017
 Effective mass tensor eigenvalues:
            -10.1485918255             -2.9826191577             -0.9845042303
 Angular average effective mass 1/(<1/m>)=  -2.0696059564
 Angular average effective mass for Frohlich model (<m**0.5>)**2=  -2.6024240178
 Effective masses along directions: (cart. coord. / red. coord. -> eff. mass)
    1:   1.000000  0.000000  0.000000 /   0.906732  0.421707  0.000000 ->  -2.1536314810
    2:   0.000000  1.000000  0.000000 /   0.000000  1.000000  0.000000 ->  -1.2278743643
    3:   0.000000  0.000000  1.000000 /   0.548587  0.548587  0.630955 ->  -5.8546729433
    4:   0.577350  0.577350  0.577350 /   0.596773  0.672527  0.437688 ->  -2.7711791687
    5:   0.000000  0.707107  0.707107 /   0.467176  0.702163  0.537320 ->  -1.8215184776
    6:   0.707107  0.000000  0.707107 /   0.676069  0.545040  0.495845 ->  -2.4338048055
    7:   0.707107  0.707107  0.000000 /   0.595128  0.803631  0.000000 ->  -3.2659495049

 K-point ( 0.500, 0.500, 0.000) | band =    17
 Effective mass tensor:
              0.6444019196              0.1600127543             -0.4069785174
              0.1600127543              0.4762728355             -0.2459136265
             -0.4069785174             -0.2459136265              1.0728975263
 Effective mass tensor eigenvalues:
              0.3795863643              0.4033766850              1.4106092321
 Angular average effective mass 1/(<1/m>)=   0.5152485652
 Angular average effective mass for Frohlich model (<m**0.5>)**2=   0.5590212771
 Effective masses along directions: (cart. coord. / red. coord. -> eff. mass)
    1:   1.000000  0.000000  0.000000 /   0.906732  0.421707  0.000000 ->   0.4794193408
    2:   0.000000  1.000000  0.000000 /   0.000000  1.000000  0.000000 ->   0.4108207569
    3:   0.000000  0.000000  1.000000 /   0.548587  0.548587  0.630955 ->   0.7677989333
    4:   0.577350  0.577350  0.577350 /   0.596773  0.672527  0.437688 ->   0.4024513040
    5:   0.000000  0.707107  0.707107 /   0.467176  0.702163  0.537320 ->   0.4346940885
    6:   0.707107  0.000000  0.707107 /   0.676069  0.545040  0.495845 ->   0.4150438373
    7:   0.707107  0.707107  0.000000 /   0.595128  0.803631  0.000000 ->   0.5185315810

 END OF EFFECTIVE MASSES SECTION

 ---- first-order wavefunction calculations are completed ----

 Total localisation tensor (bohr^2) in cartesian coordinates
  WARNING : still subject to testing - especially symmetries.
      direction              matrix element
   alpha     beta       real part   imaginary part
     1        1       2.0247506824    0.0000000000
     1        2       0.6853863469    0.0000000000
     1        3       4.2924163551    0.0000000000
     2        1       0.6853863469    0.0000000000
     2        2       1.3045994722    0.0000000000
     2        3       2.5936594367    0.0000000000
     3        1       4.2924163551    0.0000000000
     3        2       2.5936594367    0.0000000000
     3        3      15.1860900293    0.0000000000

 respfn : d/dk was computed, but no 2DTE, so no DDB output.

== END DATASET(S) ==============================================================

 -outvars: echo values of variables after computation  --------
            acell      1.0000000000E+00  1.0000000000E+00  1.0000000000E+00 Bohr
              amu      8.76200000E+01  7.99040000E+01  1.40067400E+01
             ecut      4.20000000E+01 Hartree
           etotal     -3.1279567984E+01
            fcart      0.0000000000E+00  0.0000000000E+00  0.0000000000E+00
                       0.0000000000E+00  0.0000000000E+00  0.0000000000E+00
                       0.0000000000E+00  0.0000000000E+00  0.0000000000E+00
                       0.0000000000E+00  0.0000000000E+00  0.0000000000E+00
-          fftalg         512
           irdden           1
           irdwfk           1
           istwfk        1
              ixc     -116133
              kpt      5.00000000E-01  5.00000000E-01  0.00000000E+00
           kptopt           0
P           mkmem           1
P          mkqmem           1
P          mk1mem           1
            natom           4
            nband          25
           nbdbuf           4
            ngfft          90      90      90
             nkpt           1
            nstep         100
             nsym          12
           ntypat           3
              occ      2.000000  2.000000  2.000000  2.000000  2.000000  2.000000
                       2.000000  2.000000  2.000000  2.000000  2.000000  2.000000
                       2.000000  2.000000  2.000000  2.000000  0.000000  0.000000
                       0.000000  0.000000  0.000000  0.000000  0.000000  0.000000
                       0.000000
        optdriver           1
            prtwf          -1
            rfdir           1       1       1
           rfelfd           2
            rprim      7.0979203132E+00  0.0000000000E+00  1.2492251850E+01
                       3.3011345821E+00  6.2835486186E+00  1.2492251850E+01
                       0.0000000000E+00  0.0000000000E+00  1.4367909697E+01
          spgroup         166
           strten      0.0000000000E+00  0.0000000000E+00  0.0000000000E+00
                       0.0000000000E+00  0.0000000000E+00  0.0000000000E+00
           symrel      1  0  0   0  1  0   0  0  1      -1  0  0   0 -1  0   0  0 -1
                       0  1  0   1  0  0   0  0  1       0 -1  0  -1  0  0   0  0 -1
                       0  0  1   1  0  0   0  1  0       0  0 -1  -1  0  0   0 -1  0
                       1  0  0   0  0  1   0  1  0      -1  0  0   0  0 -1   0 -1  0
                       0  1  0   0  0  1   1  0  0       0 -1  0   0  0 -1  -1  0  0
                       0  0  1   0  1  0   1  0  0       0  0 -1   0 -1  0  -1  0  0
           tolwfr      1.00000000E-20
            typat      1  1  2  3
           useylm           1
           xangst      4.2508362450E+00  2.5685349759E+00  1.6086141181E+01
                       1.2521065965E+00  7.5657574212E-01  4.7382590917E+00
                       0.0000000000E+00  0.0000000000E+00  0.0000000000E+00
                       2.7514714207E+00  1.6625553590E+00  1.0412200137E+01
            xcart      8.0329163388E+00  4.8538276672E+00  3.0398401368E+01
                       2.3661385565E+00  1.4297209514E+00  8.9540120300E+00
                       0.0000000000E+00  0.0000000000E+00  0.0000000000E+00
                       5.1995274477E+00  3.1417743093E+00  1.9676206699E+01
             xred      7.7246600000E-01  7.7246600000E-01  7.7246600000E-01
                       2.2753400000E-01  2.2753400000E-01  2.2753400000E-01
                       0.0000000000E+00  0.0000000000E+00  0.0000000000E+00
                       5.0000000000E-01  5.0000000000E-01  5.0000000000E-01
            znucl       38.00000   35.00000    7.00000

- Timing analysis has been suppressed with timopt=0

 Suggested references for the acknowledgment of ABINIT usage.

 Calculation completed.
.Delivered   6 WARNINGs and   5 COMMENTs to log file.