.Version 9.5.1 of ABINIT

 ABINIT is a project of the Universite Catholique de Louvain,
 Corning Inc. and other collaborators, see ~abinit/doc/developers/contributors.txt .
 acknowledgments of the ABINIT effort.

.Starting date : Tue 27 Apr 2021.
- ( at 18h42 )

- input  file    -> /scratch/users/j/a/jabreu/flow_simple_4atoms/flow/w234/t1/run.abi
- output file    -> /scratch/users/j/a/jabreu/flow_simple_4atoms/flow/w234/t1/run.abo
- root for input  files -> /scratch/users/j/a/jabreu/flow_simple_4atoms/flow/w234/t1/indata/in
- root for output files -> /scratch/users/j/a/jabreu/flow_simple_4atoms/flow/w234/t1/outdata/out

 Symmetries : space group R-3 m (#166); Bravais hR (rhombohedral)
     intxc =       0      iscf =       7    lmnmax =      18     lnmax =       6
     mgfft =      80  mpssoang =       3    mqgrid =    3001     natom =       4
  nloc_mem =       1    nspden =       1   nspinor =       1    nsppol =       1
      nsym =      12    n1xccc =    2501    ntypat =       3    occopt =       1
   xclevel =       2
-    mband =          25        mffmem =           1         mkmem =           1
-   mkqmem =           1        mk1mem =           1           mpw =        6918
      nfft =      512000          nkpt =           1
  Rough estimation (10% accuracy) of disk space for files :

------------- Echo of variables that govern the present computation ------------
-
- outvars: echo of selected default values
-   iomode0 =  0 , fftalg0 =512 , wfoptalg0 =  0
-
- outvars: echo of global parameters not present in the input file
-  max_nthreads =    0
-
 -outvars: echo values of preprocessed input variables --------
            acell      1.0000000000E+00  1.0000000000E+00  1.0000000000E+00 Bohr
              amu      4.00780000E+01  7.99040000E+01  1.40067400E+01
             ecut      4.20000000E+01 Hartree
-          fftalg         512
           irdden           1
           irdwfk           1
           istwfk        1
              ixc     -116133
              kpt      5.00000000E-01  5.00000000E-01  5.55111512E-17
           kptopt           0
P           mkmem           1
P          mkqmem           1
P          mk1mem           1
            natom           4
            nband          25
           nbdbuf           4
            ngfft          80      80      80
             nkpt           1
            nstep         100
             nsym          12
           ntypat           3
              occ      2.000000  2.000000  2.000000  2.000000  2.000000  2.000000
                       2.000000  2.000000  2.000000  2.000000  2.000000  2.000000
                       2.000000  2.000000  2.000000  2.000000  0.000000  0.000000
                       0.000000  0.000000  0.000000  0.000000  0.000000  0.000000
                       0.000000
        optdriver           1
            prtwf          -1
            rfdir           1       1       1
           rfelfd           2
            rprim      6.6883018817E+00  0.0000000000E+00  1.1698889543E+01
                       3.1081090494E+00  5.9222495892E+00  1.1698889543E+01
                       0.0000000000E+00  0.0000000000E+00  1.3475807901E+01
          spgroup         166
           symrel      1  0  0   0  1  0   0  0  1      -1  0  0   0 -1  0   0  0 -1
                       0  1  0   1  0  0   0  0  1       0 -1  0  -1  0  0   0  0 -1
                       0  0  1   1  0  0   0  1  0       0  0 -1  -1  0  0   0 -1  0
                       1  0  0   0  0  1   0  1  0      -1  0  0   0  0 -1   0 -1  0
                       0  1  0   0  0  1   1  0  0       0 -1  0   0  0 -1  -1  0  0
                       0  0  1   0  1  0   1  0  0       0  0 -1   0 -1  0  -1  0  0
           tolwfr      1.00000000E-20
            typat      1  1  2  3
           useylm           1
           xangst      1.1707370841E+00  7.0774871168E-01  4.4066419850E+00
                       4.0133003066E+00  2.4261707945E+00  1.5106019848E+01
                       0.0000000000E+00  0.0000000000E+00  0.0000000000E+00
                       2.5920186954E+00  1.5669597531E+00  9.7563309164E+00
            xcart      2.2123724626E+00  1.3374512360E+00  8.3273465173E+00
                       7.5840384685E+00  4.5847983532E+00  2.8546240470E+01
                       0.0000000000E+00  0.0000000000E+00  0.0000000000E+00
                       4.8982054656E+00  2.9611247946E+00  1.8436793494E+01
             xred      2.2583500000E-01  2.2583500000E-01  2.2583500000E-01
                       7.7416500000E-01  7.7416500000E-01  7.7416500000E-01
                       0.0000000000E+00  0.0000000000E+00  0.0000000000E+00
                       5.0000000000E-01  5.0000000000E-01  5.0000000000E-01
            znucl       20.00000   35.00000    7.00000

 chkinp: Checking input parameters for consistency.

== DATASET  1 ==================================================================
-   mpi_nproc: 1, omp_nthreads: -1 (-1 if OMP is not activated)

--- !DatasetInfo
iteration_state: {dtset: 1, }
dimensions: {natom: 4, nkpt: 1, mband: 25, nsppol: 1, nspinor: 1, nspden: 1, mpw: 6918, }
cutoff_energies: {ecut:  42.0, pawecutdg:  -1.0, }
electrons: {nelect:   3.20000000E+01, charge:   0.00000000E+00, occopt:   1.00000000E+00, tsmear:   1.00000000E-02, }
meta: {optdriver: 1, rfelfd: 2, }
...

 Real(R)+Recip(G) space primitive vectors, cartesian coordinates (Bohr,Bohr^-1):
 R(1)=  6.6883019  0.0000000 11.6988895  G(1)=  0.1495148 -0.0784682  0.0000000
 R(2)=  3.1081090  5.9222496 11.6988895  G(2)=  0.0000000  0.1688548  0.0000000
 R(3)=  0.0000000  0.0000000 13.4758079  G(3)= -0.1297998 -0.0784682  0.0742071
 Unit cell volume ucvol=  5.3377396E+02 bohr^3
 Angles (23,13,12)=  2.97567760E+01  2.97567760E+01  2.97567760E+01 degrees

 getcut: wavevector=  0.0000  0.0000  0.0000  ngfft=  80  80  80
         ecut(hartree)=     42.000   => boxcut(ratio)=   2.03518

--- Pseudopotential description ------------------------------------------------
- pspini: atom type   1  psp file is /scratch/users/j/a/jabreu/pseudos/PBEsol/Ca.psp8
- pspatm: opening atomic psp file    /scratch/users/j/a/jabreu/pseudos/PBEsol/Ca.psp8
- Ca    ONCVPSP-3.3.0  r_core=   1.45885   1.45885   1.85192
- 20.00000  10.00000    180112                znucl, zion, pspdat
    8 -116133    2    4       400   0.00000   pspcod,pspxc,lmax,lloc,mmax,r2well
    3.99000000000000    6.00000000000000    0.00000000000000   rchrg,fchrg,qchrg
     nproj     2     2     2
     extension_switch     1
  pspatm : epsatm=   12.46045226
         --- l  ekb(1:nproj) -->
             0   10.054847    0.973777
             1    2.998958    0.458102
             2   -3.447298   -1.091650
 pspatm: atomic psp has been read  and splines computed

- pspini: atom type   2  psp file is /scratch/users/j/a/jabreu/pseudos/PBEsol/Br.psp8
- pspatm: opening atomic psp file    /scratch/users/j/a/jabreu/pseudos/PBEsol/Br.psp8
- Br    ONCVPSP-3.3.0  r_core=   1.81012   1.51356   1.92136
- 35.00000   7.00000    180112                znucl, zion, pspdat
    8 -116133    2    4       600   0.00000   pspcod,pspxc,lmax,lloc,mmax,r2well
    5.99000000000000    8.00000000000000    0.00000000000000   rchrg,fchrg,qchrg
     nproj     2     2     2
     extension_switch     1
  pspatm : epsatm=   10.94933070
         --- l  ekb(1:nproj) -->
             0    8.508690    0.897946
             1    5.393311    0.892021
             2    2.527513    0.394763
 pspatm: atomic psp has been read  and splines computed

- pspini: atom type   3  psp file is /scratch/users/j/a/jabreu/pseudos/PBEsol/N.psp8
- pspatm: opening atomic psp file    /scratch/users/j/a/jabreu/pseudos/PBEsol/N.psp8
- N     ONCVPSP-3.3.0  r_core=   1.20551   1.35824
-  7.00000   5.00000    180112                znucl, zion, pspdat
    8 -116133    1    4       600   0.00000   pspcod,pspxc,lmax,lloc,mmax,r2well
    5.99000000000000    4.00000000000000    0.00000000000000   rchrg,fchrg,qchrg
     nproj     2     2
     extension_switch     1
  pspatm : epsatm=    5.26508895
         --- l  ekb(1:nproj) -->
             0    7.464189    0.625868
             1   -4.309714   -1.012941
 pspatm: atomic psp has been read  and splines computed

   1.31633037E+03                                ecore*ucvol(ha*bohr**3)

-inwffil : will read wavefunctions from disk file /scratch/users/j/a/jabreu/flow_simple_4atoms/flow/w234/t1/indata/in_WFK

 ==>  initialize data related to q vector <==

 The list of irreducible perturbations for this q vector is:
    1)    idir= 1    ipert=   5
    2)    idir= 2    ipert=   5
    3)    idir= 3    ipert=   5

 Perturbation wavevector (in red.coord.)   0.000000  0.000000  0.000000
 Perturbation : derivative vs k along direction   1

 dfpt_looppert : COMMENT -
  In a d/dk calculation, iscf is set to -3 automatically.
 The set of symmetries contains only one element for this perturbation.
 symkpt : not enough symmetry to change the number of k points.

[...]

 Initialisation of the first-order wave-functions :
  ireadwf=   0

--- !BeginCycle
iteration_state: {dtset: 1, }
solver: {iscf: 7, nstep: 100, nline: 4, wfoptalg: 0, }
tolerances: {tolwfr: 1.00E-20, }
...

     iter   2DEtotal(Ha)        deltaE(Ha) residm    vres2
-ETOT  1  -37.195216534008     -3.720E+01 1.227E-01 0.000E+00
 ETOT  2  -37.404424492345     -2.092E-01 8.369E-02 0.000E+00
 ETOT  3  -37.414682423984     -1.026E-02 1.008E-02 0.000E+00
 ETOT  4  -37.415417689788     -7.353E-04 6.078E-03 0.000E+00
 ETOT  5  -37.415476144701     -5.845E-05 1.795E-03 0.000E+00
 ETOT  6  -37.415480961910     -4.817E-06 1.269E-03 0.000E+00
 ETOT  7  -37.415481368334     -4.064E-07 4.069E-04 0.000E+00
 ETOT  8  -37.415481402989     -3.465E-08 2.724E-04 0.000E+00
 ETOT  9  -37.415481405975     -2.986E-09 9.195E-05 0.000E+00
 ETOT 10  -37.415481406234     -2.585E-10 6.006E-05 0.000E+00
 ETOT 11  -37.415481406256     -2.251E-11 2.084E-05 0.000E+00
 ETOT 12  -37.415481406258     -1.855E-12 1.341E-05 0.000E+00
 ETOT 13  -37.415481406258     -2.913E-13 4.729E-06 0.000E+00
 ETOT 14  -37.415481406258      5.684E-14 3.012E-06 0.000E+00
 ETOT 15  -37.415481406258      1.421E-14 1.074E-06 0.000E+00
 ETOT 16  -37.415481406258     -2.132E-14 6.785E-07 0.000E+00
 ETOT 17  -37.415481406258     -4.974E-14 2.440E-07 0.000E+00
 ETOT 18  -37.415481406258      4.263E-14 1.533E-07 0.000E+00
 ETOT 19  -37.415481406258      7.105E-15 5.548E-08 0.000E+00
 ETOT 20  -37.415481406258     -2.132E-14 3.470E-08 0.000E+00
 ETOT 21  -37.415481406258      0.000E+00 1.262E-08 0.000E+00
 ETOT 22  -37.415481406258      7.105E-15 7.871E-09 0.000E+00
 ETOT 23  -37.415481406258     -1.421E-14 2.872E-09 0.000E+00
 ETOT 24  -37.415481406258      0.000E+00 1.788E-09 0.000E+00
 ETOT 25  -37.415481406258      1.421E-14 6.540E-10 0.000E+00
 ETOT 26  -37.415481406258     -7.105E-15 4.069E-10 0.000E+00
 ETOT 27  -37.415481406258     -7.105E-15 1.490E-10 0.000E+00
 ETOT 28  -37.415481406258      7.105E-15 9.266E-11 0.000E+00
 ETOT 29  -37.415481406258     -7.105E-15 3.393E-11 0.000E+00
 ETOT 30  -37.415481406258     -1.421E-14 2.112E-11 0.000E+00
 ETOT 31  -37.415481406258      0.000E+00 7.732E-12 0.000E+00
 ETOT 32  -37.415481406258      1.421E-14 4.818E-12 0.000E+00
 ETOT 33  -37.415481406258     -7.105E-15 1.762E-12 0.000E+00
 ETOT 34  -37.415481406258      0.000E+00 1.100E-12 0.000E+00
 ETOT 35  -37.415481406258     -1.421E-14 4.017E-13 0.000E+00
 ETOT 36  -37.415481406258      7.105E-15 2.511E-13 0.000E+00
 ETOT 37  -37.415481406258      7.105E-15 9.157E-14 0.000E+00
 ETOT 38  -37.415481406258     -7.105E-15 5.737E-14 0.000E+00
 ETOT 39  -37.415481406258      0.000E+00 2.088E-14 0.000E+00
 ETOT 40  -37.415481406258      0.000E+00 1.311E-14 0.000E+00
 ETOT 41  -37.415481406258      1.421E-14 4.760E-15 0.000E+00
 ETOT 42  -37.415481406258      7.105E-15 2.997E-15 0.000E+00
 ETOT 43  -37.415481406258     -2.132E-14 1.085E-15 0.000E+00
 ETOT 44  -37.415481406258      1.421E-14 6.853E-16 0.000E+00
 ETOT 45  -37.415481406258      0.000E+00 2.475E-16 0.000E+00
 ETOT 46  -37.415481406258     -1.421E-14 1.567E-16 0.000E+00
 ETOT 47  -37.415481406258      0.000E+00 5.643E-17 0.000E+00
 ETOT 48  -37.415481406258      0.000E+00 3.585E-17 0.000E+00
 ETOT 49  -37.415481406258      0.000E+00 1.287E-17 0.000E+00
 ETOT 50  -37.415481406258      1.421E-14 8.203E-18 0.000E+00
 ETOT 51  -37.415481406258      0.000E+00 2.935E-18 0.000E+00
 ETOT 52  -37.415481406258     -1.421E-14 1.877E-18 0.000E+00
 ETOT 53  -37.415481406258      1.421E-14 6.692E-19 0.000E+00
 ETOT 54  -37.415481406258     -7.105E-15 4.296E-19 0.000E+00
 ETOT 55  -37.415481406258      7.105E-15 1.526E-19 0.000E+00
 ETOT 56  -37.415481406258      1.421E-14 9.834E-20 0.000E+00
 ETOT 57  -37.415481406258     -7.105E-15 3.481E-20 0.000E+00
 ETOT 58  -37.415481406258     -1.421E-14 2.251E-20 0.000E+00
 ETOT 59  -37.415481406258      7.105E-15 9.907E-21 0.000E+00

 At SCF step   59   max residual=  9.91E-21 < tolwfr=  1.00E-20 =>converged.

 ----iterations are completed or convergence reached----

 dfpt_looppert: DFPT cycle converged with prtwf=-1. Will skip output of the 1st-order WFK file.
 dfpt_looppert : ek2=    7.2038771445E+01
          f-sum rule ratio=    1.0975769260E+00
 prteigrs : about to open file /scratch/users/j/a/jabreu/flow_simple_4atoms/flow/w234/t1/tmpdata/tmp_1WF1_EIG
 Expectation of eigenvalue derivatives (hartree) for nkpt=   1  k points:
  (in case of degenerate eigenvalues, averaged derivative)
 kpt#   1, nband= 25, wtk=  1.00000, kpt=  0.5000  0.5000  0.0000 (reduced coord)
   0.00000    0.00000    0.00000    0.00000   -0.00000    0.00000   -0.00000    0.00000
   0.00000   -0.00000    0.00000    0.00000    0.00000   -0.00000    0.00000   -0.00000
  -0.00000   -0.00000    0.00000   -0.00000    0.00000    0.00000    0.00000    0.00000
  -0.00024

 Eight components of 2nd-order total energy (hartree) are
 1,2,3: 0th-order hamiltonian combined with 1st-order wavefunctions
     kin0=   4.57610850E+01 eigvalue=   4.19066821E-01  local=  -2.63731630E+01
 4,5,6: 1st-order hamiltonian combined with 1st and 0th-order wfs
     kin1=  -7.90680933E+01  Hartree=   0.00000000E+00     xc=   0.00000000E+00
 7,8,9: eventually, occupation + non-local contributions
    edocc=   1.82506282E+01     enl0=  -6.42135654E-01   enl1=   4.23713050E+00
 1-9 gives the relaxation energy (to be shifted if some occ is /=2.0)
   erelax=  -3.74154814E+01
  No Ewald or frozen-wf contrib.: the relaxation energy is the total one
 2DEtotal=   -0.3741548141E+02 Ha. Also 2DEtotal=   -0.101812702685E+04 eV
    (  non-var. 2DEtotal :   -3.7415481406E+01 Ha)

 Perturbation wavevector (in red.coord.)   0.000000  0.000000  0.000000
 Perturbation : derivative vs k along direction   2
 The set of symmetries contains only one element for this perturbation.
 symkpt : not enough symmetry to change the number of k points.

[...]

 Perturbation wavevector (in red.coord.)   0.000000  0.000000  0.000000
 Perturbation : derivative vs k along direction   3
 The set of symmetries contains only one element for this perturbation.
 symkpt : not enough symmetry to change the number of k points.

-inwffil : will read wavefunctions from disk file /scratch/users/j/a/jabreu/flow_simple_4atoms/flow/w234/t1/indata/in_WFK

 Initialisation of the first-order wave-functions :
  ireadwf=   0

--- !BeginCycle
iteration_state: {dtset: 1, }
solver: {iscf: 7, nstep: 100, nline: 4, wfoptalg: 0, }
tolerances: {tolwfr: 1.00E-20, }
...

     iter   2DEtotal(Ha)        deltaE(Ha) residm    vres2
-ETOT  1  -31.665459263572     -3.167E+01 1.650E-01 0.000E+00
 ETOT  2  -31.846267492439     -1.808E-01 3.528E-02 0.000E+00
 ETOT  3  -31.852259727845     -5.992E-03 1.034E-03 0.000E+00
 ETOT  4  -31.852544308442     -2.846E-04 1.064E-03 0.000E+00
 ETOT  5  -31.852558855212     -1.455E-05 6.611E-05 0.000E+00
 ETOT  6  -31.852559615107     -7.599E-07 9.660E-05 0.000E+00
 ETOT  7  -31.852559655806     -4.070E-08 7.134E-06 0.000E+00
 ETOT  8  -31.852559658018     -2.212E-09 1.043E-05 0.000E+00
 ETOT  9  -31.852559658141     -1.226E-10 7.980E-07 0.000E+00
 ETOT 10  -31.852559658148     -7.059E-12 1.167E-06 0.000E+00
 ETOT 11  -31.852559658148     -3.659E-13 9.154E-08 0.000E+00
 ETOT 12  -31.852559658148      2.842E-14 1.333E-07 0.000E+00
 ETOT 13  -31.852559658148     -9.592E-14 1.066E-08 0.000E+00
 ETOT 14  -31.852559658148      2.487E-14 1.543E-08 0.000E+00
 ETOT 15  -31.852559658148      6.395E-14 1.253E-09 0.000E+00
 ETOT 16  -31.852559658148     -2.132E-14 1.801E-09 0.000E+00
 ETOT 17  -31.852559658148     -1.066E-14 1.484E-10 0.000E+00
 ETOT 18  -31.852559658148      1.066E-14 2.115E-10 0.000E+00
 ETOT 19  -31.852559658148      3.553E-15 1.768E-11 0.000E+00
 ETOT 20  -31.852559658148     -1.066E-14 2.496E-11 0.000E+00
 ETOT 21  -31.852559658148      7.105E-15 2.115E-12 0.000E+00
 ETOT 22  -31.852559658148     -3.553E-15 2.958E-12 0.000E+00
 ETOT 23  -31.852559658148     -3.553E-15 2.537E-13 0.000E+00
 ETOT 24  -31.852559658148     -7.105E-15 3.515E-13 0.000E+00
 ETOT 25  -31.852559658148      7.105E-15 3.052E-14 0.000E+00
 ETOT 26  -31.852559658148     -1.421E-14 4.190E-14 0.000E+00
 ETOT 27  -31.852559658148      7.105E-15 3.678E-15 0.000E+00
 ETOT 28  -31.852559658148      3.553E-15 5.005E-15 0.000E+00
 ETOT 29  -31.852559658148     -3.553E-15 4.440E-16 0.000E+00
 ETOT 30  -31.852559658148      1.066E-14 5.990E-16 0.000E+00
 ETOT 31  -31.852559658148      3.553E-15 5.365E-17 0.000E+00
 ETOT 32  -31.852559658148     -1.776E-14 7.182E-17 0.000E+00
 ETOT 33  -31.852559658148      1.421E-14 6.491E-18 0.000E+00
 ETOT 34  -31.852559658148     -1.421E-14 8.622E-18 0.000E+00
 ETOT 35  -31.852559658148      0.000E+00 7.857E-19 0.000E+00
 ETOT 36  -31.852559658148      7.105E-15 1.036E-18 0.000E+00
 ETOT 37  -31.852559658148     -3.553E-15 9.518E-20 0.000E+00
 ETOT 38  -31.852559658148      7.105E-15 1.247E-19 0.000E+00
 ETOT 39  -31.852559658148     -3.553E-15 1.153E-20 0.000E+00
 ETOT 40  -31.852559658148      3.553E-15 9.549E-21 0.000E+00

 At SCF step   40   max residual=  9.55E-21 < tolwfr=  1.00E-20 =>converged.

 ----iterations are completed or convergence reached----

 dfpt_looppert: DFPT cycle converged with prtwf=-1. Will skip output of the 1st-order WFK file.
 dfpt_looppert : ek2=    7.2038771447E+01
          f-sum rule ratio=    9.5320298907E-01
 prteigrs : about to open file /scratch/users/j/a/jabreu/flow_simple_4atoms/flow/w234/t1/tmpdata/tmp_1WF1_EIG
 Expectation of eigenvalue derivatives (hartree) for nkpt=   1  k points:
  (in case of degenerate eigenvalues, averaged derivative)
 kpt#   1, nband= 25, wtk=  1.00000, kpt=  0.5000  0.5000  0.0000 (reduced coord)
  -0.00000   -0.00000   -0.00000   -0.00000    0.00000   -0.00000   -0.00000   -0.00000
  -0.00000    0.00000    0.00000    0.00000   -0.00000    0.00000   -0.00000    0.00000
   0.00000    0.00000    0.00000    0.00000   -0.00000    0.00000   -0.00000   -0.00000
   0.00003

 Eight components of 2nd-order total energy (hartree) are
 1,2,3: 0th-order hamiltonian combined with 1st-order wavefunctions
     kin0=   5.14339980E+01 eigvalue=   6.06806938E-01  local=  -3.06334787E+01
 4,5,6: 1st-order hamiltonian combined with 1st and 0th-order wfs
     kin1=  -6.86675723E+01  Hartree=   0.00000000E+00     xc=   0.00000000E+00
 7,8,9: eventually, occupation + non-local contributions
    edocc=   1.04805714E+01     enl0=  -3.53379637E-02   enl1=   4.96245296E+00
 1-9 gives the relaxation energy (to be shifted if some occ is /=2.0)
   erelax=  -3.18525597E+01
  No Ewald or frozen-wf contrib.: the relaxation energy is the total one
 2DEtotal=   -0.3185255966E+02 Ha. Also 2DEtotal=   -0.866752227781E+03 eV
    (  non-var. 2DEtotal :   -3.1852559658E+01 Ha)

 CALCULATION OF EFFECTIVE MASSES
 NOTE : Additional infos (eff. mass eigenvalues, eigenvectors and, if degenerate, average mass) are available in stdout.

 K-point ( 0.500, 0.500, 0.000) | band =    16
 Effective mass tensor:
            -10.0825272876             -5.5689759059             10.6636214408
             -5.5689759059             -4.2371298685              6.4465118820
             10.6636214408              6.4465118820            -24.1048903013
 Effective mass tensor eigenvalues:
            -32.3290163531             -5.2250316150             -0.8704994893
 Angular average effective mass 1/(<1/m>)=  -2.1880495588
 Angular average effective mass for Frohlich model (<m**0.5>)**2=  -3.5256044339
 Effective masses along directions: (cart. coord. / red. coord. -> eff. mass)
    1:   1.000000  0.000000  0.000000 /   0.906863  0.421427  0.000000 ->  -2.4273631282
    2:   0.000000  1.000000  0.000000 /   0.000000  1.000000  0.000000 ->  -1.1370148339
    3:   0.000000  0.000000  1.000000 /   0.548256  0.548256  0.631530 -> -12.5599042492
    4:   0.577350  0.577350  0.577350 /   0.596752  0.672762  0.437354 ->  -4.3934717692
    5:   0.000000  0.707107  0.707107 /   0.466478  0.702620  0.537330 ->  -1.9315450061
    6:   0.707107  0.000000  0.707107 /   0.676414  0.544709  0.495738 ->  -3.2370603416
    7:   0.707107  0.707107  0.000000 /   0.595179  0.803593  0.000000 ->  -4.9921330323

 K-point ( 0.500, 0.500, 0.000) | band =    17
 Effective mass tensor:
              0.7058594263              0.1800851118             -0.4850282678
              0.1800851118              0.5168352459             -0.2932153450
             -0.4850282678             -0.2932153450              1.2631324605
 Effective mass tensor eigenvalues:
              0.4079679304              0.4294260481              1.6484331542
 Angular average effective mass 1/(<1/m>)=   0.5569479880
 Angular average effective mass for Frohlich model (<m**0.5>)**2=   0.6098729235
 Effective masses along directions: (cart. coord. / red. coord. -> eff. mass)
    1:   1.000000  0.000000  0.000000 /   0.906863  0.421427  0.000000 ->   0.5094632917
    2:   0.000000  1.000000  0.000000 /   0.000000  1.000000  0.000000 ->   0.4400032284
    3:   0.000000  0.000000  1.000000 /   0.548256  0.548256  0.631530 ->   0.8688558981
    4:   0.577350  0.577350  0.577350 /   0.596752  0.672762  0.437354 ->   0.4288848008
    5:   0.000000  0.707107  0.707107 /   0.466478  0.702620  0.537330 ->   0.4703578658
    6:   0.707107  0.000000  0.707107 /   0.676414  0.544709  0.495738 ->   0.4460146935
    7:   0.707107  0.707107  0.000000 /   0.595179  0.803593  0.000000 ->   0.5486748714

 END OF EFFECTIVE MASSES SECTION

 ---- first-order wavefunction calculations are completed ----

 Total localisation tensor (bohr^2) in cartesian coordinates
  WARNING : still subject to testing - especially symmetries.
      direction              matrix element
   alpha     beta       real part   imaginary part
     1        1       1.8831725983    0.0000000000
     1        2       0.6372711013    0.0000000000
     1        3       3.9678290942    0.0000000000
     2        1       0.6372711013    0.0000000000
     2        2       1.2142683728    0.0000000000
     2        3       2.3986816757    0.0000000000
     3        1       3.9678290942    0.0000000000
     3        2       2.3986816757    0.0000000000
     3        3      13.6302175614    0.0000000000

 respfn : d/dk was computed, but no 2DTE, so no DDB output.

== END DATASET(S) ==============================================================

 -outvars: echo values of variables after computation  --------
            acell      1.0000000000E+00  1.0000000000E+00  1.0000000000E+00 Bohr
              amu      4.00780000E+01  7.99040000E+01  1.40067400E+01
             ecut      4.20000000E+01 Hartree
           etotal     -3.1852559658E+01
            fcart      0.0000000000E+00  0.0000000000E+00  0.0000000000E+00
                       0.0000000000E+00  0.0000000000E+00  0.0000000000E+00
                       0.0000000000E+00  0.0000000000E+00  0.0000000000E+00
                       0.0000000000E+00  0.0000000000E+00  0.0000000000E+00
-          fftalg         512
           irdden           1
           irdwfk           1
           istwfk        1
              ixc     -116133
              kpt      5.00000000E-01  5.00000000E-01  5.55111512E-17
           kptopt           0
P           mkmem           1
P          mkqmem           1
P          mk1mem           1
            natom           4
            nband          25
           nbdbuf           4
            ngfft          80      80      80
             nkpt           1
            nstep         100
             nsym          12
           ntypat           3
              occ      2.000000  2.000000  2.000000  2.000000  2.000000  2.000000
                       2.000000  2.000000  2.000000  2.000000  2.000000  2.000000
                       2.000000  2.000000  2.000000  2.000000  0.000000  0.000000
                       0.000000  0.000000  0.000000  0.000000  0.000000  0.000000
                       0.000000
        optdriver           1
            prtwf          -1
            rfdir           1       1       1
           rfelfd           2
            rprim      6.6883018817E+00  0.0000000000E+00  1.1698889543E+01
                       3.1081090494E+00  5.9222495892E+00  1.1698889543E+01
                       0.0000000000E+00  0.0000000000E+00  1.3475807901E+01
          spgroup         166
           strten      0.0000000000E+00  0.0000000000E+00  0.0000000000E+00
                       0.0000000000E+00  0.0000000000E+00  0.0000000000E+00
           symrel      1  0  0   0  1  0   0  0  1      -1  0  0   0 -1  0   0  0 -1
                       0  1  0   1  0  0   0  0  1       0 -1  0  -1  0  0   0  0 -1
                       0  0  1   1  0  0   0  1  0       0  0 -1  -1  0  0   0 -1  0
                       1  0  0   0  0  1   0  1  0      -1  0  0   0  0 -1   0 -1  0
                       0  1  0   0  0  1   1  0  0       0 -1  0   0  0 -1  -1  0  0
                       0  0  1   0  1  0   1  0  0       0  0 -1   0 -1  0  -1  0  0
           tolwfr      1.00000000E-20
            typat      1  1  2  3
           useylm           1
           xangst      1.1707370841E+00  7.0774871168E-01  4.4066419850E+00
                       4.0133003066E+00  2.4261707945E+00  1.5106019848E+01
                       0.0000000000E+00  0.0000000000E+00  0.0000000000E+00
                       2.5920186954E+00  1.5669597531E+00  9.7563309164E+00
            xcart      2.2123724626E+00  1.3374512360E+00  8.3273465173E+00
                       7.5840384685E+00  4.5847983532E+00  2.8546240470E+01
                       0.0000000000E+00  0.0000000000E+00  0.0000000000E+00
                       4.8982054656E+00  2.9611247946E+00  1.8436793494E+01
             xred      2.2583500000E-01  2.2583500000E-01  2.2583500000E-01
                       7.7416500000E-01  7.7416500000E-01  7.7416500000E-01
                       0.0000000000E+00  0.0000000000E+00  0.0000000000E+00
                       5.0000000000E-01  5.0000000000E-01  5.0000000000E-01
            znucl       20.00000   35.00000    7.00000

- Timing analysis has been suppressed with timopt=0

 Suggested references for the acknowledgment of ABINIT usage.

 Calculation completed.
.Delivered   6 WARNINGs and   5 COMMENTs to log file.