.Version 9.5.1 of ABINIT

 ABINIT is a project of the Universite Catholique de Louvain,
 Corning Inc. and other collaborators, see ~abinit/doc/developers/contributors.txt .
 acknowledgments of the ABINIT effort.

.Starting date : Tue  4 May 2021.
- ( at 19h29 )

- input  file    -> /scratch/users/j/a/jabreu/flow_simple_6atoms/flow/w194/t1/run.abi
- output file    -> /scratch/users/j/a/jabreu/flow_simple_6atoms/flow/w194/t1/run.abo
- root for input  files -> /scratch/users/j/a/jabreu/flow_simple_6atoms/flow/w194/t1/indata/in
- root for output files -> /scratch/users/j/a/jabreu/flow_simple_6atoms/flow/w194/t1/outdata/out

 Symmetries : space group P4/n m m (#129); Bravais tP (primitive tetrag.)
     intxc =       0      iscf =       7    lmnmax =      18     lnmax =       6
     mgfft =      80  mpssoang =       3    mqgrid =    3727     natom =       6
  nloc_mem =       1    nspden =       1   nspinor =       1    nsppol =       1
      nsym =      16    n1xccc =    2501    ntypat =       3    occopt =       1
   xclevel =       2
-    mband =          33        mffmem =           1         mkmem =           1
-   mkqmem =           1        mk1mem =           1           mpw =        8769
      nfft =      162000          nkpt =           1
  Rough estimation (10% accuracy) of disk space for files :

------------- Echo of variables that govern the present computation ------------
-
- outvars: echo of selected default values
-   iomode0 =  0 , fftalg0 =512 , wfoptalg0 =  0
-
- outvars: echo of global parameters not present in the input file
-  max_nthreads =    0
-
 -outvars: echo values of preprocessed input variables --------
            acell      1.0000000000E+00  1.0000000000E+00  1.0000000000E+00 Bohr
              amu      4.00780000E+01  3.54527000E+01  1.89984032E+01
             ecut      4.20000000E+01 Hartree
-          fftalg         512
           irdden           1
           irdwfk           1
           istwfk        1
              ixc     -116133
           kptopt           0
P           mkmem           1
P          mkqmem           1
P          mk1mem           1
            natom           6
            nband          33
           nbdbuf           4
            ngfft          45      45      80
             nkpt           1
            nstep        1000
             nsym          16
           ntypat           3
              occ      2.000000  2.000000  2.000000  2.000000  2.000000  2.000000
                       2.000000  2.000000  2.000000  2.000000  2.000000  2.000000
                       2.000000  2.000000  2.000000  2.000000  2.000000  2.000000
                       2.000000  2.000000  2.000000  2.000000  2.000000  2.000000
                       0.000000  0.000000  0.000000  0.000000  0.000000  0.000000
                       0.000000  0.000000  0.000000
        optdriver           1
            prtwf          -1
            rfdir           1       1       1
           rfelfd           2
            rprim      7.2621083653E+00  0.0000000000E+00  0.0000000000E+00
                       0.0000000000E+00  7.2621083653E+00  0.0000000000E+00
                       0.0000000000E+00  0.0000000000E+00  1.2773148769E+01
          spgroup         129
           symrel      1  0  0   0  1  0   0  0  1      -1  0  0   0 -1  0   0  0 -1
                      -1  0  0   0  1  0   0  0 -1       1  0  0   0 -1  0   0  0  1
                      -1  0  0   0 -1  0   0  0  1       1  0  0   0  1  0   0  0 -1
                       1  0  0   0 -1  0   0  0 -1      -1  0  0   0  1  0   0  0  1
                       0  1  0   1  0  0   0  0  1       0 -1  0  -1  0  0   0  0 -1
                       0 -1  0   1  0  0   0  0 -1       0  1  0  -1  0  0   0  0  1
                       0 -1  0  -1  0  0   0  0  1       0  1  0   1  0  0   0  0 -1
                       0  1  0  -1  0  0   0  0 -1       0 -1  0   1  0  0   0  0  1
            tnons      0.0000000  0.0000000  0.0000000     0.5000000  0.5000000 -0.0000000
                       0.5000000  0.5000000 -0.0000000     0.0000000  0.0000000  0.0000000
                       0.0000000  0.0000000  0.0000000     0.5000000  0.5000000 -0.0000000
                       0.5000000  0.5000000 -0.0000000     0.0000000  0.0000000  0.0000000
                       0.5000000  0.5000000  0.0000000     0.0000000  0.0000000 -0.0000000
                       0.0000000  0.0000000 -0.0000000     0.5000000  0.5000000  0.0000000
                       0.5000000  0.5000000  0.0000000     0.0000000  0.0000000 -0.0000000
                       0.0000000  0.0000000 -0.0000000     0.5000000  0.5000000  0.0000000
           tolwfr      1.00000000E-20
            typat      1  1  2  2  3  3
           useylm           1
           xangst      0.0000000000E+00  1.9214711166E+00  5.4398247755E+00
                       1.9214711166E+00  0.0000000000E+00  1.3194344349E+00
                       1.9214711166E+00  0.0000000000E+00  4.3491980241E+00
                       0.0000000000E+00  1.9214711166E+00  2.4100611863E+00
                       1.9214711166E+00  1.9214711166E+00  0.0000000000E+00
                       0.0000000000E+00  0.0000000000E+00  0.0000000000E+00
            xcart      0.0000000000E+00  3.6310541826E+00  1.0279779037E+01
                       3.6310541826E+00  0.0000000000E+00  2.4933697323E+00
                       3.6310541826E+00  0.0000000000E+00  8.2187931633E+00
                       0.0000000000E+00  3.6310541826E+00  4.5543556056E+00
                       3.6310541826E+00  3.6310541826E+00  0.0000000000E+00
                       0.0000000000E+00  0.0000000000E+00  0.0000000000E+00
             xred      0.0000000000E+00  5.0000000000E-01  8.0479600000E-01
                       5.0000000000E-01  0.0000000000E+00  1.9520400000E-01
                       5.0000000000E-01  0.0000000000E+00  6.4344300000E-01
                       0.0000000000E+00  5.0000000000E-01  3.5655700000E-01
                       5.0000000000E-01  5.0000000000E-01  0.0000000000E+00
                       0.0000000000E+00  0.0000000000E+00  0.0000000000E+00
            znucl       20.00000   17.00000    9.00000

 chkinp: Checking input parameters for consistency.

== DATASET  1 ==================================================================
-   mpi_nproc: 1, omp_nthreads: -1 (-1 if OMP is not activated)

--- !DatasetInfo
iteration_state: {dtset: 1, }
dimensions: {natom: 6, nkpt: 1, mband: 33, nsppol: 1, nspinor: 1, nspden: 1, mpw: 8769, }
cutoff_energies: {ecut:  42.0, pawecutdg:  -1.0, }
electrons: {nelect:   4.80000000E+01, charge:   0.00000000E+00, occopt:   1.00000000E+00, tsmear:   1.00000000E-02, }
meta: {optdriver: 1, rfelfd: 2, }
...

 Real(R)+Recip(G) space primitive vectors, cartesian coordinates (Bohr,Bohr^-1):
 R(1)=  7.2621084  0.0000000  0.0000000  G(1)=  0.1377011  0.0000000  0.0000000
 R(2)=  0.0000000  7.2621084  0.0000000  G(2)=  0.0000000  0.1377011  0.0000000
 R(3)=  0.0000000  0.0000000 12.7731488  G(3)=  0.0000000  0.0000000  0.0782892
 Unit cell volume ucvol=  6.7363310E+02 bohr^3
 Angles (23,13,12)=  9.00000000E+01  9.00000000E+01  9.00000000E+01 degrees

 getcut: wavevector=  0.0000  0.0000  0.0000  ngfft=  45  45  80
         ecut(hartree)=     42.000   => boxcut(ratio)=   2.07683

--- Pseudopotential description ------------------------------------------------
- pspini: atom type   1  psp file is /scratch/users/j/a/jabreu/pseudos/PBEsol/Ca.psp8
- pspatm: opening atomic psp file    /scratch/users/j/a/jabreu/pseudos/PBEsol/Ca.psp8
- Ca    ONCVPSP-3.3.0  r_core=   1.45885   1.45885   1.85192
- 20.00000  10.00000    180112                znucl, zion, pspdat
    8 -116133    2    4       400   0.00000   pspcod,pspxc,lmax,lloc,mmax,r2well
    3.99000000000000    6.00000000000000    0.00000000000000   rchrg,fchrg,qchrg
     nproj     2     2     2
     extension_switch     1
  pspatm : epsatm=   12.46045226
         --- l  ekb(1:nproj) -->
             0   10.054847    0.973777
             1    2.998958    0.458102
             2   -3.447298   -1.091650
 pspatm: atomic psp has been read  and splines computed

- pspini: atom type   2  psp file is /scratch/users/j/a/jabreu/pseudos/PBEsol/Cl.psp8
- pspatm: opening atomic psp file    /scratch/users/j/a/jabreu/pseudos/PBEsol/Cl.psp8
- Cl    ONCVPSP-3.3.0  r_core=   1.56009   1.35202   1.75774
- 17.00000   7.00000    180112                znucl, zion, pspdat
    8 -116133    2    4       600   0.00000   pspcod,pspxc,lmax,lloc,mmax,r2well
    5.99000000000000    8.00000000000000    0.00000000000000   rchrg,fchrg,qchrg
     nproj     2     2     2
     extension_switch     1
  pspatm : epsatm=    8.95520722
         --- l  ekb(1:nproj) -->
             0    8.193503    0.707970
             1    3.869736    1.114731
             2   -2.915303   -0.810552
 pspatm: atomic psp has been read  and splines computed

- pspini: atom type   3  psp file is /scratch/users/j/a/jabreu/pseudos/PBEsol/F.psp8
- pspatm: opening atomic psp file    /scratch/users/j/a/jabreu/pseudos/PBEsol/F.psp8
- F     ONCVPSP-3.3.0  r_core=   1.30942   1.45782   1.60379
-  9.00000   7.00000    180112                znucl, zion, pspdat
    8 -116133    2    4       600   0.00000   pspcod,pspxc,lmax,lloc,mmax,r2well
    5.99000000000000    2.50000000000000    0.00000000000000   rchrg,fchrg,qchrg
     nproj     2     2     1
     extension_switch     1
  pspatm : epsatm=    4.89824824
         --- l  ekb(1:nproj) -->
             0    6.506434    1.065875
             1   -3.978753   -1.295852
             2   -2.394754
 pspatm: atomic psp has been read  and splines computed

   2.52613514E+03                                ecore*ucvol(ha*bohr**3)

-inwffil : will read wavefunctions from disk file /scratch/users/j/a/jabreu/flow_simple_6atoms/flow/w194/t1/indata/in_WFK

 ==>  initialize data related to q vector <==

 The list of irreducible perturbations for this q vector is:
    1)    idir= 1    ipert=   7
    2)    idir= 2    ipert=   7
    3)    idir= 3    ipert=   7

 Perturbation wavevector (in red.coord.)   0.000000  0.000000  0.000000
 Perturbation : derivative vs k along direction   1

 dfpt_looppert : COMMENT -
  In a d/dk calculation, iscf is set to -3 automatically.
 The set of symmetries contains only one element for this perturbation.
 symkpt : not enough symmetry to change the number of k points.

[...]

 Initialisation of the first-order wave-functions :
  ireadwf=   0

--- !BeginCycle
iteration_state: {dtset: 1, }
solver: {iscf: 7, nstep: 1000, nline: 4, wfoptalg: 0, }
tolerances: {tolwfr: 1.00E-20, }
...

     iter   2DEtotal(Ha)        deltaE(Ha) residm    vres2
-ETOT  1  -37.446891140949     -3.745E+01 4.725E-02 0.000E+00
 ETOT  2  -37.494798958310     -4.791E-02 1.257E-03 0.000E+00
 ETOT  3  -37.495051255172     -2.523E-04 3.475E-05 0.000E+00
 ETOT  4  -37.495053104842     -1.850E-06 1.111E-05 0.000E+00
 ETOT  5  -37.495053128334     -2.349E-08 7.420E-07 0.000E+00
 ETOT  6  -37.495053128740     -4.057E-10 3.375E-07 0.000E+00
 ETOT  7  -37.495053128750     -1.039E-11 2.020E-08 0.000E+00
 ETOT  8  -37.495053128750     -3.837E-13 1.352E-08 0.000E+00
[...]
 ETOT 34  -37.495053128750      0.000E+00 9.391E-21 0.000E+00

 At SCF step   34   max residual=  9.39E-21 < tolwfr=  1.00E-20 =>converged.

 ----iterations are completed or convergence reached----

 dfpt_looppert: DFPT cycle converged with prtwf=-1. Will skip output of the 1st-order WFK file.
 dfpt_looppert : ek2=    7.1863029133E+01
          f-sum rule ratio=    1.1150369226E+00
 prteigrs : about to open file /scratch/users/j/a/jabreu/flow_simple_6atoms/flow/w194/t1/tmpdata/tmp_1WF1_EIG
 Expectation of eigenvalue derivatives (hartree) for nkpt=   1  k points:
  (in case of degenerate eigenvalues, averaged derivative)
 kpt#   1, nband= 33, wtk=  1.00000, kpt=  0.0000  0.0000  0.0000 (reduced coord)
  -0.00000    0.00000   -0.00000    0.00000    0.00000    0.00000   -0.00000    0.00000
   0.00000    0.00000    0.00000    0.00000    0.00000    0.00000   -0.00000   -0.00000
  -0.00000   -0.00000   -0.00000    0.00000    0.00000   -0.00000    0.00000    0.00000
  -0.00000   -0.00000    0.00000   -0.00000    0.00000    0.00000    0.00000   -0.00000
   0.00002

 Eight components of 2nd-order total energy (hartree) are
 1,2,3: 0th-order hamiltonian combined with 1st-order wavefunctions
     kin0=   4.87699587E+01 eigvalue=   4.07278115E-01  local=  -2.48561721E+01
 4,5,6: 1st-order hamiltonian combined with 1st and 0th-order wfs
     kin1=  -8.01299309E+01  Hartree=   0.00000000E+00     xc=   0.00000000E+00
 7,8,9: eventually, occupation + non-local contributions
    edocc=   1.29224989E+01     enl0=   2.51489485E-01   enl1=   5.13982460E+00
 1-9 gives the relaxation energy (to be shifted if some occ is /=2.0)
   erelax=  -3.74950531E+01
  No Ewald or frozen-wf contrib.: the relaxation energy is the total one
 2DEtotal=   -0.3749505313E+02 Ha. Also 2DEtotal=   -0.102029228354E+04 eV
    (  non-var. 2DEtotal :   -3.7495053129E+01 Ha)

 Perturbation wavevector (in red.coord.)   0.000000  0.000000  0.000000
 Perturbation : derivative vs k along direction   2
 The set of symmetries contains only one element for this perturbation.
 symkpt : not enough symmetry to change the number of k points.

[...]

 Perturbation wavevector (in red.coord.)   0.000000  0.000000  0.000000
 Perturbation : derivative vs k along direction   3
 The set of symmetries contains only one element for this perturbation.
 symkpt : not enough symmetry to change the number of k points.

-inwffil : will read wavefunctions from disk file /scratch/users/j/a/jabreu/flow_simple_6atoms/flow/w194/t1/indata/in_WFK

 Initialisation of the first-order wave-functions :
  ireadwf=   0

--- !BeginCycle
iteration_state: {dtset: 1, }
solver: {iscf: 7, nstep: 1000, nline: 4, wfoptalg: 0, }
tolerances: {tolwfr: 1.00E-20, }
...

     iter   2DEtotal(Ha)        deltaE(Ha) residm    vres2
-ETOT  1  -11.192494029486     -1.119E+01 3.364E-02 0.000E+00
 ETOT  2  -11.205007016239     -1.251E-02 1.851E-03 0.000E+00
 ETOT  3  -11.205065905145     -5.889E-05 1.499E-04 0.000E+00
 ETOT  4  -11.205066321692     -4.165E-07 1.087E-05 0.000E+00
 ETOT  5  -11.205066330069     -8.378E-09 1.503E-06 0.000E+00
 ETOT  6  -11.205066330279     -2.091E-10 1.062E-07 0.000E+00
 ETOT  7  -11.205066330284     -5.791E-12 1.564E-08 0.000E+00
 ETOT  8  -11.205066330285     -1.794E-13 1.088E-09 0.000E+00
 ETOT  9  -11.205066330285      1.243E-14 1.914E-10 0.000E+00
 ETOT 10  -11.205066330285     -5.329E-15 1.155E-11 0.000E+00
 ETOT 11  -11.205066330285     -3.553E-15 2.956E-12 0.000E+00
 ETOT 12  -11.205066330285      1.776E-15 1.598E-13 0.000E+00
 ETOT 13  -11.205066330285     -1.776E-15 4.356E-14 0.000E+00
 ETOT 14  -11.205066330285      3.553E-15 2.281E-15 0.000E+00
 ETOT 15  -11.205066330285     -1.776E-15 6.520E-16 0.000E+00
 ETOT 16  -11.205066330285     -1.776E-15 3.357E-17 0.000E+00
 ETOT 17  -11.205066330285      3.553E-15 9.928E-18 0.000E+00
 ETOT 18  -11.205066330285      0.000E+00 5.067E-19 0.000E+00
 ETOT 19  -11.205066330285      3.553E-15 1.536E-19 0.000E+00
 ETOT 20  -11.205066330285      0.000E+00 9.807E-21 0.000E+00

 At SCF step   20   max residual=  9.81E-21 < tolwfr=  1.00E-20 =>converged.

 ----iterations are completed or convergence reached----

 dfpt_looppert: DFPT cycle converged with prtwf=-1. Will skip output of the 1st-order WFK file.
 dfpt_looppert : ek2=    2.3229241489E+01
          f-sum rule ratio=    1.0330659367E+00
 prteigrs : about to open file /scratch/users/j/a/jabreu/flow_simple_6atoms/flow/w194/t1/tmpdata/tmp_1WF1_EIG
 Expectation of eigenvalue derivatives (hartree) for nkpt=   1  k points:
  (in case of degenerate eigenvalues, averaged derivative)
 kpt#   1, nband= 33, wtk=  1.00000, kpt=  0.0000  0.0000  0.0000 (reduced coord)
  -0.00000   -0.00000    0.00000   -0.00000   -0.00000   -0.00000   -0.00000   -0.00000
  -0.00000   -0.00000    0.00000   -0.00000    0.00000    0.00000   -0.00000    0.00000
  -0.00000   -0.00000   -0.00000    0.00000    0.00000    0.00000   -0.00000   -0.00000
   0.00000   -0.00000   -0.00000   -0.00000   -0.00000   -0.00000   -0.00000    0.00000
  -0.00000

 Eight components of 2nd-order total energy (hartree) are
 1,2,3: 0th-order hamiltonian combined with 1st-order wavefunctions
     kin0=   1.38038656E+01 eigvalue=   2.22202349E-01  local=  -6.31513185E+00
 4,5,6: 1st-order hamiltonian combined with 1st and 0th-order wfs
     kin1=  -2.39973381E+01  Hartree=   0.00000000E+00     xc=   0.00000000E+00
 7,8,9: eventually, occupation + non-local contributions
    edocc=   3.59497236E+00     enl0=  -1.00842162E-01   enl1=   1.58720546E+00
 1-9 gives the relaxation energy (to be shifted if some occ is /=2.0)
   erelax=  -1.12050663E+01
  No Ewald or frozen-wf contrib.: the relaxation energy is the total one
 2DEtotal=   -0.1120506633E+02 Ha. Also 2DEtotal=   -0.304905361090E+03 eV
    (  non-var. 2DEtotal :   -1.1205066330E+01 Ha)

 CALCULATION OF EFFECTIVE MASSES
 NOTE : Additional infos (eff. mass eigenvalues, eigenvectors and, if degenerate, average mass) are available in stdout.

 COMMENTS:
 - At k-point ( 0.000, 0.000, 0.000), bands    23 through    24
   are DEGENERATE (effective mass tensor is therefore not defined).
   See Section IIIB Eqs. (67)-(70) and Appendix E of PRB 93 205147 (2016).
 - Angular average effective mass for Frohlich model is to be averaged over degenerate bands. See later.
 - Associated theta integrals calculated with ntheta=   1000 points.

 K-point ( 0.000, 0.000, 0.000) | band =    23
 Transport equivalent effective mass tensor:
             -0.5907463823              0.0000000001              0.0000000009
              0.0000000001             -0.5907463819             -0.0000000002
              0.0000000009             -0.0000000002             -9.2048569930
 Transport equivalent effective mass tensor eigenvalues:
             -9.2048569930             -0.5907463823             -0.5907463819
 Angular average effective mass 1/(<1/m>)=  -0.8566417720
 Angular average effective mass for Frohlich model (<m**0.5>)**2=  -1.0887384746
 Effective masses along directions: (cart. coord. / red. coord. -> eff. mass)
    1:   1.000000  0.000000  0.000000 /   1.000000  0.000000  0.000000 ->  -0.6078203087
    2:   0.000000  1.000000  0.000000 /   0.000000  1.000000  0.000000 ->  -0.6078203088
    3:   0.000000  0.000000  1.000000 /   0.000000  0.000000  1.000000 ->  -9.1724155668
    4:   0.577350  0.577350  0.577350 /   0.443084  0.443084  0.779329 ->  -0.8331166737
    5:   0.000000  0.707107  0.707107 /   0.000000  0.494248  0.869321 ->  -1.1400912073
    6:   0.707107  0.000000  0.707107 /   0.494248  0.000000  0.869321 ->  -1.1400912071
    7:   0.707107  0.707107  0.000000 /   0.707107  0.707107  0.000000 ->  -0.5727518446

 K-point ( 0.000, 0.000, 0.000) | band =    24
 Transport equivalent effective mass tensor:
             -3.3329148653             -0.0000000006              0.0000000053
             -0.0000000006             -3.3329148664             -0.0000000016
              0.0000000053             -0.0000000016            -10.1189259598
 Transport equivalent effective mass tensor eigenvalues:
            -10.1189259598             -3.3329148666             -3.3329148651
 Angular average effective mass 1/(<1/m>)=  -4.0146892784
 Angular average effective mass for Frohlich model (<m**0.5>)**2=  -4.2902716562
 Effective masses along directions: (cart. coord. / red. coord. -> eff. mass)
    1:   1.000000  0.000000  0.000000 /   1.000000  0.000000  0.000000 ->  -2.6997406357
    2:   0.000000  1.000000  0.000000 /   0.000000  1.000000  0.000000 ->  -2.6997406357
    3:   0.000000  0.000000  1.000000 /   0.000000  0.000000  1.000000 ->  -9.1724156061
    4:   0.577350  0.577350  0.577350 /   0.443084  0.443084  0.779329 ->  -4.6270096551
    5:   0.000000  0.707107  0.707107 /   0.000000  0.494248  0.869321 ->  -4.1716336317
    6:   0.707107  0.000000  0.707107 /   0.494248  0.000000  0.869321 ->  -4.1716336246
    7:   0.707107  0.707107  0.000000 /   0.707107  0.707107  0.000000 ->  -3.7082058400

 Angular average effective mass for Frohlich model, averaged over degenerate bands.
 Value of     (<<m**0.5>>)**2 =     2.425375E+00
 Absolute Value of <<m**0.5>> =     1.557362E+00

 K-point ( 0.000, 0.000, 0.000) | band =    25
 Effective mass tensor:
              0.5255963630             -0.0000000001             -0.0000000002
             -0.0000000001              0.5255963643             -0.0000000006
             -0.0000000002             -0.0000000006              1.0157401971
 Effective mass tensor eigenvalues:
              0.5255963630              0.5255963643              1.0157401971
 Angular average effective mass 1/(<1/m>)=   0.6263433654
 Angular average effective mass for Frohlich model (<m**0.5>)**2=   0.6423466604
 Effective masses along directions: (cart. coord. / red. coord. -> eff. mass)
    1:   1.000000  0.000000  0.000000 /   1.000000  0.000000  0.000000 ->   0.5255963630
    2:   0.000000  1.000000  0.000000 /   0.000000  1.000000  0.000000 ->   0.5255963643
    3:   0.000000  0.000000  1.000000 /   0.000000  0.000000  1.000000 ->   1.0157401971
    4:   0.577350  0.577350  0.577350 /   0.443084  0.443084  0.779329 ->   0.6263433649
    5:   0.000000  0.707107  0.707107 /   0.000000  0.494248  0.869321 ->   0.6927356005
    6:   0.707107  0.000000  0.707107 /   0.494248  0.000000  0.869321 ->   0.6927355998
    7:   0.707107  0.707107  0.000000 /   0.707107  0.707107  0.000000 ->   0.5255963636

 END OF EFFECTIVE MASSES SECTION

 ---- first-order wavefunction calculations are completed ----

 Total localisation tensor (bohr^2) in cartesian coordinates
  WARNING : still subject to testing - especially symmetries.
      direction              matrix element
   alpha     beta       real part   imaginary part
     1        1       0.8468521068    0.0000000000
     1        2       0.0000000000    0.0000000000
     1        3       0.0000000000    0.0000000000
     2        1       0.0000000000    0.0000000000
     2        2       0.8468522119    0.0000000000
     2        3       0.0000000000    0.0000000000
     3        1       0.0000000000    0.0000000000
     3        2       0.0000000000    0.0000000000
     3        3       0.6946729605    0.0000000000

 respfn : d/dk was computed, but no 2DTE, so no DDB output.

== END DATASET(S) ==============================================================

 -outvars: echo values of variables after computation  --------
            acell      1.0000000000E+00  1.0000000000E+00  1.0000000000E+00 Bohr
              amu      4.00780000E+01  3.54527000E+01  1.89984032E+01
             ecut      4.20000000E+01 Hartree
           etotal     -1.1205066330E+01
            fcart      0.0000000000E+00  0.0000000000E+00  0.0000000000E+00
                       0.0000000000E+00  0.0000000000E+00  0.0000000000E+00
                       0.0000000000E+00  0.0000000000E+00  0.0000000000E+00
                       0.0000000000E+00  0.0000000000E+00  0.0000000000E+00
                       0.0000000000E+00  0.0000000000E+00  0.0000000000E+00
                       0.0000000000E+00  0.0000000000E+00  0.0000000000E+00
-          fftalg         512
           irdden           1
           irdwfk           1
           istwfk        1
              ixc     -116133
           kptopt           0
P           mkmem           1
P          mkqmem           1
P          mk1mem           1
            natom           6
            nband          33
           nbdbuf           4
            ngfft          45      45      80
             nkpt           1
            nstep        1000
             nsym          16
           ntypat           3
              occ      2.000000  2.000000  2.000000  2.000000  2.000000  2.000000
                       2.000000  2.000000  2.000000  2.000000  2.000000  2.000000
                       2.000000  2.000000  2.000000  2.000000  2.000000  2.000000
                       2.000000  2.000000  2.000000  2.000000  2.000000  2.000000
                       0.000000  0.000000  0.000000  0.000000  0.000000  0.000000
                       0.000000  0.000000  0.000000
        optdriver           1
            prtwf          -1
            rfdir           1       1       1
           rfelfd           2
            rprim      7.2621083653E+00  0.0000000000E+00  0.0000000000E+00
                       0.0000000000E+00  7.2621083653E+00  0.0000000000E+00
                       0.0000000000E+00  0.0000000000E+00  1.2773148769E+01
          spgroup         129
           strten      0.0000000000E+00  0.0000000000E+00  0.0000000000E+00
                       0.0000000000E+00  0.0000000000E+00  0.0000000000E+00
           symrel      1  0  0   0  1  0   0  0  1      -1  0  0   0 -1  0   0  0 -1
                      -1  0  0   0  1  0   0  0 -1       1  0  0   0 -1  0   0  0  1
                      -1  0  0   0 -1  0   0  0  1       1  0  0   0  1  0   0  0 -1
                       1  0  0   0 -1  0   0  0 -1      -1  0  0   0  1  0   0  0  1
                       0  1  0   1  0  0   0  0  1       0 -1  0  -1  0  0   0  0 -1
                       0 -1  0   1  0  0   0  0 -1       0  1  0  -1  0  0   0  0  1
                       0 -1  0  -1  0  0   0  0  1       0  1  0   1  0  0   0  0 -1
                       0  1  0  -1  0  0   0  0 -1       0 -1  0   1  0  0   0  0  1
            tnons      0.0000000  0.0000000  0.0000000     0.5000000  0.5000000 -0.0000000
                       0.5000000  0.5000000 -0.0000000     0.0000000  0.0000000  0.0000000
                       0.0000000  0.0000000  0.0000000     0.5000000  0.5000000 -0.0000000
                       0.5000000  0.5000000 -0.0000000     0.0000000  0.0000000  0.0000000
                       0.5000000  0.5000000  0.0000000     0.0000000  0.0000000 -0.0000000
                       0.0000000  0.0000000 -0.0000000     0.5000000  0.5000000  0.0000000
                       0.5000000  0.5000000  0.0000000     0.0000000  0.0000000 -0.0000000
                       0.0000000  0.0000000 -0.0000000     0.5000000  0.5000000  0.0000000
           tolwfr      1.00000000E-20
            typat      1  1  2  2  3  3
           useylm           1
           xangst      0.0000000000E+00  1.9214711166E+00  5.4398247755E+00
                       1.9214711166E+00  0.0000000000E+00  1.3194344349E+00
                       1.9214711166E+00  0.0000000000E+00  4.3491980241E+00
                       0.0000000000E+00  1.9214711166E+00  2.4100611863E+00
                       1.9214711166E+00  1.9214711166E+00  0.0000000000E+00
                       0.0000000000E+00  0.0000000000E+00  0.0000000000E+00
            xcart      0.0000000000E+00  3.6310541826E+00  1.0279779037E+01
                       3.6310541826E+00  0.0000000000E+00  2.4933697323E+00
                       3.6310541826E+00  0.0000000000E+00  8.2187931633E+00
                       0.0000000000E+00  3.6310541826E+00  4.5543556056E+00
                       3.6310541826E+00  3.6310541826E+00  0.0000000000E+00
                       0.0000000000E+00  0.0000000000E+00  0.0000000000E+00
             xred      0.0000000000E+00  5.0000000000E-01  8.0479600000E-01
                       5.0000000000E-01  0.0000000000E+00  1.9520400000E-01
                       5.0000000000E-01  0.0000000000E+00  6.4344300000E-01
                       0.0000000000E+00  5.0000000000E-01  3.5655700000E-01
                       5.0000000000E-01  5.0000000000E-01  0.0000000000E+00
                       0.0000000000E+00  0.0000000000E+00  0.0000000000E+00
            znucl       20.00000   17.00000    9.00000

- Timing analysis has been suppressed with timopt=0

 Suggested references for the acknowledgment of ABINIT usage.

 Calculation completed.
.Delivered   6 WARNINGs and   5 COMMENTs to log file.