.Version 9.5.1 of ABINIT

 ABINIT is a project of the Universite Catholique de Louvain,
 Corning Inc. and other collaborators, see ~abinit/doc/developers/contributors.txt .
 acknowledgments of the ABINIT effort.

.Starting date : Wed 19 May 2021.
- ( at 01h20 )

- input  file    -> /scratch/users/j/a/jabreu/flow_simple_8atoms/flow/w422/t1/run.abi
- output file    -> /scratch/users/j/a/jabreu/flow_simple_8atoms/flow/w422/t1/run.abo
- root for input  files -> /scratch/users/j/a/jabreu/flow_simple_8atoms/flow/w422/t1/indata/in
- root for output files -> /scratch/users/j/a/jabreu/flow_simple_8atoms/flow/w422/t1/outdata/out

 Symmetries : space group Cm c m (# 63); Bravais oC (1-face-center ortho.)
     intxc =       0      iscf =       7    lmnmax =      18     lnmax =       6
     mgfft =      90  mpssoang =       3    mqgrid =    3913     natom =       8
  nloc_mem =       1    nspden =       1   nspinor =       1    nsppol =       1
      nsym =       8    n1xccc =    2501    ntypat =       3    occopt =       1
   xclevel =       2
-    mband =          35        mffmem =           1         mkmem =           1
-   mkqmem =           1        mk1mem =           1           mpw =       17815
      nfft =      648000          nkpt =           1
  Rough estimation (10% accuracy) of disk space for files :

------------- Echo of variables that govern the present computation ------------
-
- outvars: echo of selected default values
-   iomode0 =  0 , fftalg0 =512 , wfoptalg0 =  0
-
- outvars: echo of global parameters not present in the input file
-  max_nthreads =    0
-
 -outvars: echo values of preprocessed input variables --------
            acell      1.0000000000E+00  1.0000000000E+00  1.0000000000E+00 Bohr
              amu      8.54678000E+01  6.94100000E+00  7.99040000E+01
             ecut      3.70000000E+01 Hartree
-          fftalg         512
           irdden           1
           irdwfk           1
           istwfk        1
              ixc     -116133
           kptopt           0
P           mkmem           1
P          mkqmem           1
P          mk1mem           1
            natom           8
            nband          35
           nbdbuf           4
            ngfft          90      90      80
             nkpt           1
            nstep        2000
             nsym           8
           ntypat           3
              occ      2.000000  2.000000  2.000000  2.000000  2.000000  2.000000
                       2.000000  2.000000  2.000000  2.000000  2.000000  2.000000
                       2.000000  2.000000  2.000000  2.000000  2.000000  2.000000
                       2.000000  2.000000  2.000000  2.000000  2.000000  2.000000
                       2.000000  2.000000  0.000000  0.000000  0.000000  0.000000
                       0.000000  0.000000  0.000000  0.000000  0.000000
        optdriver           1
            prtwf          -1
            rfdir           1       1       1
           rfelfd           2
            rprim      1.4748800344E+01  0.0000000000E+00  0.0000000000E+00
                      -1.2478224700E+01  7.8626344130E+00  0.0000000000E+00
                       0.0000000000E+00  0.0000000000E+00  1.4288056258E+01
          spgroup          63
           symrel      1  0  0   0  1  0   0  0  1      -1  0  0   0 -1  0   0  0 -1
                       0  1  0   1  0  0   0  0 -1       0 -1  0  -1  0  0   0  0  1
                      -1  0  0   0 -1  0   0  0  1       1  0  0   0  1  0   0  0 -1
                       0 -1  0  -1  0  0   0  0 -1       0  1  0   1  0  0   0  0  1
            tnons      0.0000000  0.0000000  0.0000000     0.0000000 -0.0000000 -0.0000000
                       0.0000000 -0.0000000 -0.0000000     0.0000000  0.0000000  0.0000000
                       0.0000000 -0.0000000  0.5000000     0.0000000  0.0000000  0.5000000
                       0.0000000  0.0000000  0.5000000     0.0000000 -0.0000000  0.5000000
           tolwfr      1.00000000E-20
            typat      1  1  2  2  3  3  3  3
           useylm           1
           xangst      2.4164834747E+00  1.5560203361E+00  5.6706852952E+00
                      -1.2149465937E+00  2.6047065947E+00  1.8902284317E+00
                       6.2438324544E+00  4.5075651278E-01  5.6706852952E+00
                      -5.0422955734E+00  3.7099704181E+00  1.8902284317E+00
                      -2.2250283111E+00  2.8963985169E+00  5.6706852952E+00
                       3.4265651921E+00  1.2643284139E+00  1.8902284317E+00
                       0.0000000000E+00  0.0000000000E+00  0.0000000000E+00
                       0.0000000000E+00  0.0000000000E+00  3.7804568635E+00
            xcart      4.5664919718E+00  2.9404522925E+00  1.0716042194E+01
                      -2.2959163282E+00  4.9221821205E+00  3.5720140646E+00
                       1.1799133358E+01  8.5180636177E-01  1.0716042194E+01
                      -9.5285577149E+00  7.0108280512E+00  3.5720140646E+00
                      -4.2046941460E+00  5.4733999687E+00  1.0716042194E+01
                       6.4752697896E+00  2.3892344443E+00  3.5720140646E+00
                       0.0000000000E+00  0.0000000000E+00  0.0000000000E+00
                       0.0000000000E+00  0.0000000000E+00  7.1440281291E+00
             xred      6.2602200000E-01  3.7397800000E-01  7.5000000000E-01
                       3.7397800000E-01  6.2602200000E-01  2.5000000000E-01
                       8.9166400000E-01  1.0833600000E-01  7.5000000000E-01
                       1.0833600000E-01  8.9166400000E-01  2.5000000000E-01
                       3.0387200000E-01  6.9612800000E-01  7.5000000000E-01
                       6.9612800000E-01  3.0387200000E-01  2.5000000000E-01
                       0.0000000000E+00  0.0000000000E+00  0.0000000000E+00
                       0.0000000000E+00  0.0000000000E+00  5.0000000000E-01
            znucl       37.00000    3.00000   35.00000

 chkinp: Checking input parameters for consistency.

== DATASET  1 ==================================================================
-   mpi_nproc: 1, omp_nthreads: -1 (-1 if OMP is not activated)

--- !DatasetInfo
iteration_state: {dtset: 1, }
dimensions: {natom: 8, nkpt: 1, mband: 35, nsppol: 1, nspinor: 1, nspden: 1, mpw: 17815, }
cutoff_energies: {ecut:  37.0, pawecutdg:  -1.0, }
electrons: {nelect:   5.20000000E+01, charge:   0.00000000E+00, occopt:   1.00000000E+00, tsmear:   1.00000000E-02, }
meta: {optdriver: 1, rfelfd: 2, }
...

 Real(R)+Recip(G) space primitive vectors, cartesian coordinates (Bohr,Bohr^-1):
 R(1)= 14.7488003  0.0000000  0.0000000  G(1)=  0.0678021  0.1076039  0.0000000
 R(2)=-12.4782247  7.8626344  0.0000000  G(2)=  0.0000000  0.1271838  0.0000000
 R(3)=  0.0000000  0.0000000 14.2880563  G(3)=  0.0000000  0.0000000  0.0699885
 Unit cell volume ucvol=  1.6569062E+03 bohr^3
 Angles (23,13,12)=  9.00000000E+01  9.00000000E+01  1.47784626E+02 degrees

 getcut: wavevector=  0.0000  0.0000  0.0000  ngfft=  90  90  80
         ecut(hartree)=     37.000   => boxcut(ratio)=   2.04480

--- Pseudopotential description ------------------------------------------------
- pspini: atom type   1  psp file is /scratch/users/j/a/jabreu/pseudos/PBEsol/Rb.psp8
- pspatm: opening atomic psp file    /scratch/users/j/a/jabreu/pseudos/PBEsol/Rb.psp8
- Rb    ONCVPSP-3.3.0  r_core=   1.71227   1.75361   1.90633
- 37.00000   9.00000    180112                znucl, zion, pspdat
    8 -116133    2    4       600   0.00000   pspcod,pspxc,lmax,lloc,mmax,r2well
    5.99000000000000    7.00000000000000    0.00000000000000   rchrg,fchrg,qchrg
     nproj     2     2     2
     extension_switch     1
  pspatm : epsatm=   34.48400912
         --- l  ekb(1:nproj) -->
             0    8.196957   -0.477221
             1    3.231347   -0.378736
             2   -1.047201    0.996637
 pspatm: atomic psp has been read  and splines computed

- pspini: atom type   2  psp file is /scratch/users/j/a/jabreu/pseudos/PBEsol/Li.psp8
- pspatm: opening atomic psp file    /scratch/users/j/a/jabreu/pseudos/PBEsol/Li.psp8
- Li    ONCVPSP-3.3.0  r_core=   1.40824   1.10935
-  3.00000   3.00000    180112                znucl, zion, pspdat
    8 -116133    1    4       400   0.00000   pspcod,pspxc,lmax,lloc,mmax,r2well
    3.99000000000000    0.00000000000000    0.00000000000000   rchrg,fchrg,qchrg
     nproj     2     2
     extension_switch     1
  pspatm : epsatm=    2.60859637
         --- l  ekb(1:nproj) -->
             0   -4.855856   -1.482423
             1   -2.171544   -0.427615
 pspatm: atomic psp has been read  and splines computed

- pspini: atom type   3  psp file is /scratch/users/j/a/jabreu/pseudos/PBEsol/Br.psp8
- pspatm: opening atomic psp file    /scratch/users/j/a/jabreu/pseudos/PBEsol/Br.psp8
- Br    ONCVPSP-3.3.0  r_core=   1.81012   1.51356   1.92136
- 35.00000   7.00000    180112                znucl, zion, pspdat
    8 -116133    2    4       600   0.00000   pspcod,pspxc,lmax,lloc,mmax,r2well
    5.99000000000000    8.00000000000000    0.00000000000000   rchrg,fchrg,qchrg
     nproj     2     2     2
     extension_switch     1
  pspatm : epsatm=   10.94933070
         --- l  ekb(1:nproj) -->
             0    8.508690    0.897946
             1    5.393311    0.892021
             2    2.527513    0.394763
 pspatm: atomic psp has been read  and splines computed

   6.13509176E+03                                ecore*ucvol(ha*bohr**3)

-inwffil : will read wavefunctions from disk file /scratch/users/j/a/jabreu/flow_simple_8atoms/flow/w422/t1/indata/in_WFK

 ==>  initialize data related to q vector <==

 The list of irreducible perturbations for this q vector is:
    1)    idir= 1    ipert=   9
    2)    idir= 2    ipert=   9
    3)    idir= 3    ipert=   9

 Perturbation wavevector (in red.coord.)   0.000000  0.000000  0.000000
 Perturbation : derivative vs k along direction   1

 dfpt_looppert : COMMENT -
  In a d/dk calculation, iscf is set to -3 automatically.
 The set of symmetries contains only one element for this perturbation.
 symkpt : not enough symmetry to change the number of k points.

[...]

 Initialisation of the first-order wave-functions :
  ireadwf=   0

--- !BeginCycle
iteration_state: {dtset: 1, }
solver: {iscf: 7, nstep: 2000, nline: 4, wfoptalg: 0, }
tolerances: {tolwfr: 1.00E-20, }
...

     iter   2DEtotal(Ha)        deltaE(Ha) residm    vres2
-ETOT  1  -39.952195130592     -3.995E+01 2.016E-02 0.000E+00
 ETOT  2  -39.968768531222     -1.657E-02 2.550E-04 0.000E+00
 ETOT  3  -39.968792542134     -2.401E-05 1.007E-05 0.000E+00
 ETOT  4  -39.968792600092     -5.796E-08 2.212E-07 0.000E+00
 ETOT  5  -39.968792600271     -1.786E-10 1.778E-08 0.000E+00
 ETOT  6  -39.968792600271     -5.045E-13 5.516E-10 0.000E+00
 ETOT  7  -39.968792600271      1.421E-14 4.920E-11 0.000E+00
 ETOT  8  -39.968792600272     -5.684E-14 1.910E-12 0.000E+00
 ETOT  9  -39.968792600272     -3.553E-14 1.467E-13 0.000E+00
 ETOT 10  -39.968792600272      0.000E+00 9.448E-15 0.000E+00
 ETOT 11  -39.968792600272      0.000E+00 7.180E-16 0.000E+00
 ETOT 12  -39.968792600272      0.000E+00 5.850E-17 0.000E+00
 ETOT 13  -39.968792600272     -7.105E-15 4.549E-18 0.000E+00
 ETOT 14  -39.968792600272      7.105E-15 3.749E-19 0.000E+00
 ETOT 15  -39.968792600272      0.000E+00 2.975E-20 0.000E+00
 ETOT 16  -39.968792600272     -7.105E-15 9.879E-21 0.000E+00

 At SCF step   16   max residual=  9.88E-21 < tolwfr=  1.00E-20 =>converged.

 ----iterations are completed or convergence reached----

 dfpt_looppert: DFPT cycle converged with prtwf=-1. Will skip output of the 1st-order WFK file.
 dfpt_looppert : ek2=    6.6413582899E+01
          f-sum rule ratio=    1.1571420762E+00
 prteigrs : about to open file /scratch/users/j/a/jabreu/flow_simple_8atoms/flow/w422/t1/tmpdata/tmp_1WF1_EIG
 Expectation of eigenvalue derivatives (hartree) for nkpt=   1  k points:
  (in case of degenerate eigenvalues, averaged derivative)
 kpt#   1, nband= 35, wtk=  1.00000, kpt=  0.0000  0.0000  0.0000 (reduced coord)
   0.00000   -0.00000   -0.00000    0.00000   -0.00000   -0.00000    0.00000    0.00000
  -0.00000   -0.00000   -0.00000    0.00000    0.00000   -0.00000    0.00000    0.00000
   0.00000    0.00000   -0.00000   -0.00000   -0.00000   -0.00000   -0.00000    0.00000
   0.00000    0.00000    0.00000    0.00000    0.00000    0.00000    0.00000   -0.00000
  -0.00000    0.00000    0.00081

 Eight components of 2nd-order total energy (hartree) are
 1,2,3: 0th-order hamiltonian combined with 1st-order wavefunctions
     kin0=   4.08691606E+01 eigvalue=   5.60747963E+00  local=  -2.28273427E+01
 4,5,6: 1st-order hamiltonian combined with 1st and 0th-order wfs
     kin1=  -7.68499512E+01  Hartree=   0.00000000E+00     xc=   0.00000000E+00
 7,8,9: eventually, occupation + non-local contributions
    edocc=   1.42824599E+01     enl0=   2.03703512E+00   enl1=  -3.08763400E+00
 1-9 gives the relaxation energy (to be shifted if some occ is /=2.0)
   erelax=  -3.99687926E+01
  No Ewald or frozen-wf contrib.: the relaxation energy is the total one
 2DEtotal=   -0.3996879260E+02 Ha. Also 2DEtotal=   -0.108760615787E+04 eV
    (  non-var. 2DEtotal :   -3.9968792600E+01 Ha)

 Perturbation wavevector (in red.coord.)   0.000000  0.000000  0.000000
 Perturbation : derivative vs k along direction   2
 The set of symmetries contains only one element for this perturbation.
 symkpt : not enough symmetry to change the number of k points.

[...]

 Perturbation wavevector (in red.coord.)   0.000000  0.000000  0.000000
 Perturbation : derivative vs k along direction   3
 The set of symmetries contains only one element for this perturbation.
 symkpt : not enough symmetry to change the number of k points.

-inwffil : will read wavefunctions from disk file /scratch/users/j/a/jabreu/flow_simple_8atoms/flow/w422/t1/indata/in_WFK

 Initialisation of the first-order wave-functions :
  ireadwf=   0

--- !BeginCycle
iteration_state: {dtset: 1, }
solver: {iscf: 7, nstep: 2000, nline: 4, wfoptalg: 0, }
tolerances: {tolwfr: 1.00E-20, }
...

     iter   2DEtotal(Ha)        deltaE(Ha) residm    vres2
-ETOT  1  -11.212840673919     -1.121E+01 3.516E-02 0.000E+00
 ETOT  2  -11.219731567532     -6.891E-03 2.259E-03 0.000E+00
 ETOT  3  -11.219740937428     -9.370E-06 1.157E-04 0.000E+00
 ETOT  4  -11.219740964645     -2.722E-08 1.557E-05 0.000E+00
 ETOT  5  -11.219740964748     -1.023E-10 9.665E-07 0.000E+00
 ETOT  6  -11.219740964748     -4.068E-13 1.426E-07 0.000E+00
 ETOT  7  -11.219740964748      1.776E-15 9.571E-09 0.000E+00
 ETOT  8  -11.219740964748     -5.329E-15 1.426E-09 0.000E+00
 ETOT  9  -11.219740964748     -7.105E-15 1.001E-10 0.000E+00
 ETOT 10  -11.219740964748     -3.553E-15 1.485E-11 0.000E+00
 ETOT 11  -11.219740964748      3.553E-15 1.078E-12 0.000E+00
 ETOT 12  -11.219740964748      0.000E+00 1.571E-13 0.000E+00
 ETOT 13  -11.219740964748     -3.553E-15 1.174E-14 0.000E+00
 ETOT 14  -11.219740964748      0.000E+00 1.673E-15 0.000E+00
 ETOT 15  -11.219740964748      0.000E+00 1.281E-16 0.000E+00
 ETOT 16  -11.219740964748      7.105E-15 1.787E-17 0.000E+00
 ETOT 17  -11.219740964748      1.776E-15 1.394E-18 0.000E+00
 ETOT 18  -11.219740964748     -7.105E-15 1.913E-19 0.000E+00
 ETOT 19  -11.219740964748      3.553E-15 1.512E-20 0.000E+00
 ETOT 20  -11.219740964748      0.000E+00 9.694E-21 0.000E+00

 At SCF step   20   max residual=  9.69E-21 < tolwfr=  1.00E-20 =>converged.

 ----iterations are completed or convergence reached----

 dfpt_looppert: DFPT cycle converged with prtwf=-1. Will skip output of the 1st-order WFK file.
 dfpt_looppert : ek2=    2.0111606954E+01
          f-sum rule ratio=    1.0707842672E+00
 prteigrs : about to open file /scratch/users/j/a/jabreu/flow_simple_8atoms/flow/w422/t1/tmpdata/tmp_1WF1_EIG
 Expectation of eigenvalue derivatives (hartree) for nkpt=   1  k points:
  (in case of degenerate eigenvalues, averaged derivative)
 kpt#   1, nband= 35, wtk=  1.00000, kpt=  0.0000  0.0000  0.0000 (reduced coord)
  -0.00000    0.00000   -0.00000   -0.00000    0.00000   -0.00000    0.00000   -0.00000
   0.00000    0.00000    0.00000   -0.00000   -0.00000   -0.00000   -0.00000   -0.00000
   0.00000   -0.00000   -0.00000    0.00000   -0.00000   -0.00000    0.00000    0.00000
   0.00000   -0.00000    0.00000    0.00000    0.00000    0.00000    0.00000   -0.00000
   0.00000   -0.00000   -0.00003

 Eight components of 2nd-order total energy (hartree) are
 1,2,3: 0th-order hamiltonian combined with 1st-order wavefunctions
     kin0=   1.27054597E+01 eigvalue=   1.71708787E+00  local=  -7.09351966E+00
 4,5,6: 1st-order hamiltonian combined with 1st and 0th-order wfs
     kin1=  -2.15351923E+01  Hartree=   0.00000000E+00     xc=   0.00000000E+00
 7,8,9: eventually, occupation + non-local contributions
    edocc=   3.12886956E+00     enl0=   7.61843467E-01   enl1=  -9.04289615E-01
 1-9 gives the relaxation energy (to be shifted if some occ is /=2.0)
   erelax=  -1.12197410E+01
  No Ewald or frozen-wf contrib.: the relaxation energy is the total one
 2DEtotal=   -0.1121974096E+02 Ha. Also 2DEtotal=   -0.305304678202E+03 eV
    (  non-var. 2DEtotal :   -1.1219740965E+01 Ha)

 CALCULATION OF EFFECTIVE MASSES
 NOTE : Additional infos (eff. mass eigenvalues, eigenvectors and, if degenerate, average mass) are available in stdout.

 K-point ( 0.000, 0.000, 0.000) | band =    26
 Effective mass tensor:
             -5.0078041794             -2.6119488067             -0.0000240970
             -2.6119488067            -13.2972053785             -0.0000838464
             -0.0000240970             -0.0000838464             -0.3960550342
 Effective mass tensor eigenvalues:
            -14.0515679174             -4.2534416411             -0.3960550336
 Angular average effective mass 1/(<1/m>)=  -1.0596319177
 Angular average effective mass for Frohlich model (<m**0.5>)**2=  -1.8899734382
 Effective masses along directions: (cart. coord. / red. coord. -> eff. mass)
    1:   1.000000  0.000000  0.000000 /   0.763425 -0.645896  0.000000 ->  -4.4947432485
    2:   0.000000  1.000000  0.000000 /   0.000000  1.000000  0.000000 -> -11.9348764237
    3:   0.000000  0.000000  1.000000 /   0.000000  0.000000  1.000000 ->  -0.3960550336
    4:   0.577350  0.577350  0.577350 /   0.700753 -0.219298  0.678862 ->  -1.0934022649
    5:   0.000000  0.707107  0.707107 /   0.000000  0.482117  0.876107 ->  -0.7666772858
    6:   0.707107  0.000000  0.707107 /   0.613798 -0.519304  0.594623 ->  -0.7279675579
    7:   0.707107  0.707107  0.000000 /   0.954358 -0.298663  0.000000 ->  -9.1379883168

 K-point ( 0.000, 0.000, 0.000) | band =    27
 Effective mass tensor:
              0.3631100881             -0.0011594396              0.0000000813
             -0.0011594396              0.3594299846             -0.0000000234
              0.0000000813             -0.0000000234              0.3624921708
 Effective mass tensor eigenvalues:
              0.3590951592              0.3624921708              0.3634449135
 Angular average effective mass 1/(<1/m>)=   0.3616677495
 Angular average effective mass for Frohlich model (<m**0.5>)**2=   0.3616706534
 Effective masses along directions: (cart. coord. / red. coord. -> eff. mass)
    1:   1.000000  0.000000  0.000000 /   0.763425 -0.645896  0.000000 ->   0.3631063481
    2:   0.000000  1.000000  0.000000 /   0.000000  1.000000  0.000000 ->   0.3594262824
    3:   0.000000  0.000000  1.000000 /   0.000000  0.000000  1.000000 ->   0.3624921708
    4:   0.577350  0.577350  0.577350 /   0.700753 -0.219298  0.678862 ->   0.3608947528
    5:   0.000000  0.707107  0.707107 /   0.000000  0.482117  0.876107 ->   0.3609526933
    6:   0.707107  0.000000  0.707107 /   0.613798 -0.519304  0.594623 ->   0.3627990807
    7:   0.707107  0.707107  0.000000 /   0.954358 -0.298663  0.000000 ->   0.3601012549

 END OF EFFECTIVE MASSES SECTION

 ---- first-order wavefunction calculations are completed ----

 Total localisation tensor (bohr^2) in cartesian coordinates
  WARNING : still subject to testing - especially symmetries.
      direction              matrix element
   alpha     beta       real part   imaginary part
     1        1       8.4208428617    0.0000000000
     1        2      -2.2135627261    0.0000000000
     1        3       0.0000000000    0.0000000000
     2        1      -2.2135627261    0.0000000000
     2        2       1.3947845053    0.0000000000
     2        3       0.0000000000    0.0000000000
     3        1       0.0000000000    0.0000000000
     3        2       0.0000000000    0.0000000000
     3        3       1.2165495964    0.0000000000

 respfn : d/dk was computed, but no 2DTE, so no DDB output.

== END DATASET(S) ==============================================================

 -outvars: echo values of variables after computation  --------
            acell      1.0000000000E+00  1.0000000000E+00  1.0000000000E+00 Bohr
              amu      8.54678000E+01  6.94100000E+00  7.99040000E+01
             ecut      3.70000000E+01 Hartree
           etotal     -1.1219740965E+01
            fcart      0.0000000000E+00  0.0000000000E+00  0.0000000000E+00
                       0.0000000000E+00  0.0000000000E+00  0.0000000000E+00
                       0.0000000000E+00  0.0000000000E+00  0.0000000000E+00
                       0.0000000000E+00  0.0000000000E+00  0.0000000000E+00
                       0.0000000000E+00  0.0000000000E+00  0.0000000000E+00
                       0.0000000000E+00  0.0000000000E+00  0.0000000000E+00
                       0.0000000000E+00  0.0000000000E+00  0.0000000000E+00
                       0.0000000000E+00  0.0000000000E+00  0.0000000000E+00
-          fftalg         512
           irdden           1
           irdwfk           1
           istwfk        1
              ixc     -116133
           kptopt           0
P           mkmem           1
P          mkqmem           1
P          mk1mem           1
            natom           8
            nband          35
           nbdbuf           4
            ngfft          90      90      80
             nkpt           1
            nstep        2000
             nsym           8
           ntypat           3
              occ      2.000000  2.000000  2.000000  2.000000  2.000000  2.000000
                       2.000000  2.000000  2.000000  2.000000  2.000000  2.000000
                       2.000000  2.000000  2.000000  2.000000  2.000000  2.000000
                       2.000000  2.000000  2.000000  2.000000  2.000000  2.000000
                       2.000000  2.000000  0.000000  0.000000  0.000000  0.000000
                       0.000000  0.000000  0.000000  0.000000  0.000000
        optdriver           1
            prtwf          -1
            rfdir           1       1       1
           rfelfd           2
            rprim      1.4748800344E+01  0.0000000000E+00  0.0000000000E+00
                      -1.2478224700E+01  7.8626344130E+00  0.0000000000E+00
                       0.0000000000E+00  0.0000000000E+00  1.4288056258E+01
          spgroup          63
           strten      0.0000000000E+00  0.0000000000E+00  0.0000000000E+00
                       0.0000000000E+00  0.0000000000E+00  0.0000000000E+00
           symrel      1  0  0   0  1  0   0  0  1      -1  0  0   0 -1  0   0  0 -1
                       0  1  0   1  0  0   0  0 -1       0 -1  0  -1  0  0   0  0  1
                      -1  0  0   0 -1  0   0  0  1       1  0  0   0  1  0   0  0 -1
                       0 -1  0  -1  0  0   0  0 -1       0  1  0   1  0  0   0  0  1
            tnons      0.0000000  0.0000000  0.0000000     0.0000000 -0.0000000 -0.0000000
                       0.0000000 -0.0000000 -0.0000000     0.0000000  0.0000000  0.0000000
                       0.0000000 -0.0000000  0.5000000     0.0000000  0.0000000  0.5000000
                       0.0000000  0.0000000  0.5000000     0.0000000 -0.0000000  0.5000000
           tolwfr      1.00000000E-20
            typat      1  1  2  2  3  3  3  3
           useylm           1
           xangst      2.4164834747E+00  1.5560203361E+00  5.6706852952E+00
                      -1.2149465937E+00  2.6047065947E+00  1.8902284317E+00
                       6.2438324544E+00  4.5075651278E-01  5.6706852952E+00
                      -5.0422955734E+00  3.7099704181E+00  1.8902284317E+00
                      -2.2250283111E+00  2.8963985169E+00  5.6706852952E+00
                       3.4265651921E+00  1.2643284139E+00  1.8902284317E+00
                       0.0000000000E+00  0.0000000000E+00  0.0000000000E+00
                       0.0000000000E+00  0.0000000000E+00  3.7804568635E+00
            xcart      4.5664919718E+00  2.9404522925E+00  1.0716042194E+01
                      -2.2959163282E+00  4.9221821205E+00  3.5720140646E+00
                       1.1799133358E+01  8.5180636177E-01  1.0716042194E+01
                      -9.5285577149E+00  7.0108280512E+00  3.5720140646E+00
                      -4.2046941460E+00  5.4733999687E+00  1.0716042194E+01
                       6.4752697896E+00  2.3892344443E+00  3.5720140646E+00
                       0.0000000000E+00  0.0000000000E+00  0.0000000000E+00
                       0.0000000000E+00  0.0000000000E+00  7.1440281291E+00
             xred      6.2602200000E-01  3.7397800000E-01  7.5000000000E-01
                       3.7397800000E-01  6.2602200000E-01  2.5000000000E-01
                       8.9166400000E-01  1.0833600000E-01  7.5000000000E-01
                       1.0833600000E-01  8.9166400000E-01  2.5000000000E-01
                       3.0387200000E-01  6.9612800000E-01  7.5000000000E-01
                       6.9612800000E-01  3.0387200000E-01  2.5000000000E-01
                       0.0000000000E+00  0.0000000000E+00  0.0000000000E+00
                       0.0000000000E+00  0.0000000000E+00  5.0000000000E-01
            znucl       37.00000    3.00000   35.00000

- Timing analysis has been suppressed with timopt=0

 Suggested references for the acknowledgment of ABINIT usage.

 Calculation completed.
.Delivered   6 WARNINGs and   5 COMMENTs to log file.