.Version 9.5.1 of ABINIT

 ABINIT is a project of the Universite Catholique de Louvain,
 Corning Inc. and other collaborators, see ~abinit/doc/developers/contributors.txt .
 acknowledgments of the ABINIT effort.

.Starting date : Sun 25 Apr 2021.
- ( at 17h22 )

- input  file    -> /scratch/users/j/a/jabreu/flow_simple2/flow/w205/t1/run.abi
- output file    -> /scratch/users/j/a/jabreu/flow_simple2/flow/w205/t1/run.abo
- root for input  files -> /scratch/users/j/a/jabreu/flow_simple2/flow/w205/t1/indata/in
- root for output files -> /scratch/users/j/a/jabreu/flow_simple2/flow/w205/t1/outdata/out

 Symmetries : space group F-4 3 m (#216); Bravais cF (face-center cubic)
     intxc =       0      iscf =       7    lmnmax =      18     lnmax =       6
     mgfft =      48  mpssoang =       3    mqgrid =    3001     natom =       2
  nloc_mem =       1    nspden =       1   nspinor =       1    nsppol =       1
      nsym =      24    n1xccc =    2501    ntypat =       2    occopt =       1
   xclevel =       2
-    mband =          18        mffmem =           1         mkmem =           2
-   mkqmem =           2        mk1mem =           2           mpw =        4015
      nfft =      110592          nkpt =           2
  Rough estimation (10% accuracy) of disk space for files :

------------- Echo of variables that govern the present computation ------------
-
- outvars: echo of selected default values
-   iomode0 =  0 , fftalg0 =512 , wfoptalg0 =  0
-
- outvars: echo of global parameters not present in the input file
-  max_nthreads =    0
-
 -outvars: echo values of preprocessed input variables --------
            acell      1.0000000000E+00  1.0000000000E+00  1.0000000000E+00 Bohr
              amu      2.69815390E+01  7.49215900E+01
             ecut      4.20000000E+01 Hartree
-          fftalg         512
           irdden           1
           irdwfk           1
           istwfk        1    1
              ixc     -116133
              kpt      0.00000000E+00  0.00000000E+00  0.00000000E+00
                       5.00000000E-01  2.46519033E-32  5.00000000E-01
           kptopt           0
P           mkmem           2
P          mkqmem           2
P          mk1mem           2
            natom           2
            nband          18
           nbdbuf           4
            ngfft          48      48      48
             nkpt           2
            nstep         100
             nsym          24
           ntypat           2
              occ      2.000000  2.000000  2.000000  2.000000  2.000000  2.000000
                       2.000000  2.000000  2.000000  0.000000  0.000000  0.000000
                       0.000000  0.000000  0.000000  0.000000  0.000000  0.000000
        optdriver           1
            prtwf          -1
            rfdir           1       1       1
           rfelfd           2
            rprim      6.5664717570E+00  0.0000000000E+00  3.7911542365E+00
                       2.1888239190E+00  6.1909289438E+00  3.7911542365E+00
                       0.0000000000E+00  0.0000000000E+00  7.5823084731E+00
          spgroup         216
           symrel      1  0  0   0  1  0   0  0  1       0 -1  1   0 -1  0   1 -1  0
                      -1  0  0  -1  0  1  -1  1  0       0  1 -1   1  0 -1   0  0 -1
                      -1  0  0  -1  1  0  -1  0  1       0 -1  1   1 -1  0   0 -1  0
                       1  0  0   0  0  1   0  1  0       0  1 -1   0  0 -1   1  0 -1
                      -1  0  1  -1  1  0  -1  0  0       0 -1  0   1 -1  0   0 -1  1
                       1  0 -1   0  0 -1   0  1 -1       0  1  0   0  0  1   1  0  0
                       1  0 -1   0  1 -1   0  0 -1       0 -1  0   0 -1  1   1 -1  0
                      -1  0  1  -1  0  0  -1  1  0       0  1  0   1  0  0   0  0  1
                       0  0 -1   0  1 -1   1  0 -1       1 -1  0   0 -1  1   0 -1  0
                       0  0  1   1  0  0   0  1  0      -1  1  0  -1  0  0  -1  0  1
                       0  0  1   0  1  0   1  0  0       1 -1  0   0 -1  0   0 -1  1
                       0  0 -1   1  0 -1   0  1 -1      -1  1  0  -1  0  1  -1  0  0
           tolwfr      1.00000000E-20
            typat      1  2
           useylm           1
              wtk        0.50000    0.50000
           xangst      0.0000000000E+00  0.0000000000E+00  0.0000000000E+00
                       1.1582757316E+00  8.1902462426E-01  2.0061924162E+00
            xcart      0.0000000000E+00  0.0000000000E+00  0.0000000000E+00
                       2.1888239190E+00  1.5477322360E+00  3.7911542365E+00
             xred      0.0000000000E+00  0.0000000000E+00  0.0000000000E+00
                       2.5000000000E-01  2.5000000000E-01  2.5000000000E-01
            znucl       13.00000   33.00000

 chkinp: Checking input parameters for consistency.

== DATASET  1 ==================================================================
-   mpi_nproc: 1, omp_nthreads: -1 (-1 if OMP is not activated)

--- !DatasetInfo
iteration_state: {dtset: 1, }
dimensions: {natom: 2, nkpt: 2, mband: 18, nsppol: 1, nspinor: 1, nspden: 1, mpw: 4015, }
cutoff_energies: {ecut:  42.0, pawecutdg:  -1.0, }
electrons: {nelect:   1.80000000E+01, charge:   0.00000000E+00, occopt:   1.00000000E+00, tsmear:   1.00000000E-02, }
meta: {optdriver: 1, rfelfd: 2, }
...

 Real(R)+Recip(G) space primitive vectors, cartesian coordinates (Bohr,Bohr^-1):
 R(1)=  6.5664718  0.0000000  3.7911542  G(1)=  0.1522888 -0.0538422  0.0000000
 R(2)=  2.1888239  6.1909289  3.7911542  G(2)=  0.0000000  0.1615266  0.0000000
 R(3)=  0.0000000  0.0000000  7.5823085  G(3)= -0.0761444 -0.0538422  0.1318860
 Unit cell volume ucvol=  3.0824025E+02 bohr^3
 Angles (23,13,12)=  6.00000000E+01  6.00000000E+01  6.00000000E+01 degrees

 getcut: wavevector=  0.0000  0.0000  0.0000  ngfft=  48  48  48
         ecut(hartree)=     42.000   => boxcut(ratio)=   2.16995

--- Pseudopotential description ------------------------------------------------
- pspini: atom type   1  psp file is /scratch/users/j/a/jabreu/pseudos/PBEsol/Al.psp8
- pspatm: opening atomic psp file    /scratch/users/j/a/jabreu/pseudos/PBEsol/Al.psp8
- Al    ONCVPSP-3.3.0  r_core=   1.76802   1.76802   1.70587
- 13.00000   3.00000    180112                znucl, zion, pspdat
    8 -116133    2    4       600   0.00000   pspcod,pspxc,lmax,lloc,mmax,r2well
    5.99000000000000    5.00000000000000    0.00000000000000   rchrg,fchrg,qchrg
     nproj     2     2     2
     extension_switch     1
  pspatm : epsatm=    0.68509324
         --- l  ekb(1:nproj) -->
             0    5.834965    0.726662
             1    6.225605    0.924840
             2   -2.432733   -0.548689
 pspatm: atomic psp has been read  and splines computed

- pspini: atom type   2  psp file is /scratch/users/j/a/jabreu/pseudos/PBEsol/As.psp8
- pspatm: opening atomic psp file    /scratch/users/j/a/jabreu/pseudos/PBEsol/As.psp8
- As    ONCVPSP-3.3.0  r_core=   1.76603   1.70395   1.80867
- 33.00000  15.00000    180112                znucl, zion, pspdat
    8 -116133    2    4       600   0.00000   pspcod,pspxc,lmax,lloc,mmax,r2well
    5.99000000000000    5.00000000000000    0.00000000000000   rchrg,fchrg,qchrg
     nproj     2     2     2
     extension_switch     1
  pspatm : epsatm=   28.79155382
         --- l  ekb(1:nproj) -->
             0    8.270760    0.868950
             1    4.919053    0.756587
             2  -10.048665   -4.076802
 pspatm: atomic psp has been read  and splines computed

   5.30579647E+02                                ecore*ucvol(ha*bohr**3)

-inwffil : will read wavefunctions from disk file /scratch/users/j/a/jabreu/flow_simple2/flow/w205/t1/indata/in_WFK

 ==>  initialize data related to q vector <==

 The list of irreducible perturbations for this q vector is:
    1)    idir= 1    ipert=   3
    2)    idir= 2    ipert=   3
    3)    idir= 3    ipert=   3

 Perturbation wavevector (in red.coord.)   0.000000  0.000000  0.000000
 Perturbation : derivative vs k along direction   1

 dfpt_looppert : COMMENT -
  In a d/dk calculation, iscf is set to -3 automatically.
 The set of symmetries contains only one element for this perturbation.
 symkpt : not enough symmetry to change the number of k points.

[...]

 Initialisation of the first-order wave-functions :
  ireadwf=   0

--- !BeginCycle
iteration_state: {dtset: 1, }
solver: {iscf: 7, nstep: 100, nline: 4, wfoptalg: 0, }
tolerances: {tolwfr: 1.00E-20, }
...

     iter   2DEtotal(Ha)        deltaE(Ha) residm    vres2
-ETOT  1  -56.912313074883     -5.691E+01 5.314E-01 0.000E+00
 ETOT  2  -56.936519255321     -2.421E-02 6.259E-03 0.000E+00
 ETOT  3  -56.936531230065     -1.197E-05 4.413E-04 0.000E+00
 ETOT  4  -56.936531268911     -3.885E-08 6.162E-06 0.000E+00
 ETOT  5  -56.936531269146     -2.348E-10 4.448E-07 0.000E+00
 ETOT  6  -56.936531269148     -1.720E-12 1.446E-08 0.000E+00
 ETOT  7  -56.936531269148     -7.105E-15 6.872E-10 0.000E+00
 ETOT  8  -56.936531269148      3.553E-14 3.877E-11 0.000E+00
 ETOT  9  -56.936531269148      1.421E-14 1.947E-12 0.000E+00
 ETOT 10  -56.936531269148     -2.132E-14 1.090E-13 0.000E+00
 ETOT 11  -56.936531269148      7.105E-15 5.514E-15 0.000E+00
 ETOT 12  -56.936531269148     -7.105E-15 3.115E-16 0.000E+00
 ETOT 13  -56.936531269148      7.105E-15 1.565E-17 0.000E+00
 ETOT 14  -56.936531269148      0.000E+00 8.974E-19 0.000E+00
 ETOT 15  -56.936531269148     -7.105E-15 4.453E-20 0.000E+00
 ETOT 16  -56.936531269148      0.000E+00 9.905E-21 0.000E+00

 At SCF step   16   max residual=  9.90E-21 < tolwfr=  1.00E-20 =>converged.

 ----iterations are completed or convergence reached----

 dfpt_looppert: DFPT cycle converged with prtwf=-1. Will skip output of the 1st-order WFK file.
 dfpt_looppert : ek2=    3.7080928358E+01
          f-sum rule ratio=    1.7749314062E+00
 prteigrs : about to open file /scratch/users/j/a/jabreu/flow_simple2/flow/w205/t1/tmpdata/tmp_1WF1_EIG
 Expectation of eigenvalue derivatives (hartree) for nkpt=   2  k points:
  (in case of degenerate eigenvalues, averaged derivative)
 kpt#   1, nband= 18, wtk=  0.50000, kpt=  0.0000  0.0000  0.0000 (reduced coord)
   0.00000    0.00000    0.00000    0.00000    0.00000    0.00000    0.00000    0.00000
   0.00000   -0.00000   -0.00000   -0.00000   -0.00000    0.00000   -0.00000   -0.00000
   0.00000    0.00000
 prteigrs : prtvol=0 or 1, do not print more k-points.

 Eight components of 2nd-order total energy (hartree) are
 1,2,3: 0th-order hamiltonian combined with 1st-order wavefunctions
     kin0=   3.83386515E+01 eigvalue=   5.54792510E+00  local=  -1.34954559E+01
 4,5,6: 1st-order hamiltonian combined with 1st and 0th-order wfs
     kin1=  -6.58161043E+01  Hartree=   0.00000000E+00     xc=   0.00000000E+00
 7,8,9: eventually, occupation + non-local contributions
    edocc=   2.24597385E+01     enl0=   4.08567209E+00   enl1=  -4.80569582E+01
 1-9 gives the relaxation energy (to be shifted if some occ is /=2.0)
   erelax=  -5.69365313E+01
  No Ewald or frozen-wf contrib.: the relaxation energy is the total one
 2DEtotal=   -0.5693653127E+02 Ha. Also 2DEtotal=   -0.154932180802E+04 eV
    (  non-var. 2DEtotal :   -5.6936531269E+01 Ha)

 Perturbation wavevector (in red.coord.)   0.000000  0.000000  0.000000
 Perturbation : derivative vs k along direction   2
 The set of symmetries contains only one element for this perturbation.
 symkpt : not enough symmetry to change the number of k points.

[...]

 Perturbation wavevector (in red.coord.)   0.000000  0.000000  0.000000
 Perturbation : derivative vs k along direction   3
 The set of symmetries contains only one element for this perturbation.
 symkpt : not enough symmetry to change the number of k points.

-inwffil : will read wavefunctions from disk file /scratch/users/j/a/jabreu/flow_simple2/flow/w205/t1/indata/in_WFK

 Initialisation of the first-order wave-functions :
  ireadwf=   0

--- !BeginCycle
iteration_state: {dtset: 1, }
solver: {iscf: 7, nstep: 100, nline: 4, wfoptalg: 0, }
tolerances: {tolwfr: 1.00E-20, }
...

     iter   2DEtotal(Ha)        deltaE(Ha) residm    vres2
-ETOT  1  -56.912469085551     -5.691E+01 5.314E-01 0.000E+00
 ETOT  2  -56.936519510485     -2.405E-02 6.259E-03 0.000E+00
 ETOT  3  -56.936531177773     -1.167E-05 4.413E-04 0.000E+00
 ETOT  4  -56.936531218482     -4.071E-08 6.162E-06 0.000E+00
 ETOT  5  -56.936531218729     -2.469E-10 4.448E-07 0.000E+00
 ETOT  6  -56.936531218731     -1.727E-12 1.446E-08 0.000E+00
 ETOT  7  -56.936531218731     -1.066E-13 6.872E-10 0.000E+00
 ETOT  8  -56.936531218731      1.563E-13 3.877E-11 0.000E+00
 ETOT  9  -56.936531218731     -1.421E-14 1.947E-12 0.000E+00
 ETOT 10  -56.936531218731     -3.553E-14 1.090E-13 0.000E+00
 ETOT 11  -56.936531218731      0.000E+00 5.514E-15 0.000E+00
 ETOT 12  -56.936531218731      0.000E+00 3.115E-16 0.000E+00
 ETOT 13  -56.936531218731      7.105E-15 1.565E-17 0.000E+00
 ETOT 14  -56.936531218731     -7.105E-15 8.974E-19 0.000E+00
 ETOT 15  -56.936531218731     -7.105E-15 4.453E-20 0.000E+00
 ETOT 16  -56.936531218731      2.132E-14 9.956E-21 0.000E+00

 At SCF step   16   max residual=  9.96E-21 < tolwfr=  1.00E-20 =>converged.

 ----iterations are completed or convergence reached----

 dfpt_looppert: DFPT cycle converged with prtwf=-1. Will skip output of the 1st-order WFK file.
 dfpt_looppert : ek2=    3.7080928358E+01
          f-sum rule ratio=    1.7749314047E+00
 prteigrs : about to open file /scratch/users/j/a/jabreu/flow_simple2/flow/w205/t1/tmpdata/tmp_1WF1_EIG
 Expectation of eigenvalue derivatives (hartree) for nkpt=   2  k points:
  (in case of degenerate eigenvalues, averaged derivative)
 kpt#   1, nband= 18, wtk=  0.50000, kpt=  0.0000  0.0000  0.0000 (reduced coord)
  -0.00000   -0.00000   -0.00000   -0.00000   -0.00000    0.00000   -0.00000   -0.00000
  -0.00000    0.00000    0.00000    0.00000    0.00000    0.00000   -0.00000   -0.00000
   0.00000    0.00000
 prteigrs : prtvol=0 or 1, do not print more k-points.

 Eight components of 2nd-order total energy (hartree) are
 1,2,3: 0th-order hamiltonian combined with 1st-order wavefunctions
     kin0=   3.83051125E+01 eigvalue=   5.54966447E+00  local=  -1.34791161E+01
 4,5,6: 1st-order hamiltonian combined with 1st and 0th-order wfs
     kin1=  -6.58161043E+01  Hartree=   0.00000000E+00     xc=   0.00000000E+00
 7,8,9: eventually, occupation + non-local contributions
    edocc=   2.24785956E+01     enl0=   4.08227474E+00   enl1=  -4.80569582E+01
 1-9 gives the relaxation energy (to be shifted if some occ is /=2.0)
   erelax=  -5.69365312E+01
  No Ewald or frozen-wf contrib.: the relaxation energy is the total one
 2DEtotal=   -0.5693653122E+02 Ha. Also 2DEtotal=   -0.154932180665E+04 eV
    (  non-var. 2DEtotal :   -5.6936531219E+01 Ha)

 CALCULATION OF EFFECTIVE MASSES
 NOTE : Additional infos (eff. mass eigenvalues, eigenvectors and, if degenerate, average mass) are available in stdout.

 COMMENTS:
 - At k-point ( 0.000, 0.000, 0.000), bands     7 through     9
   are DEGENERATE (effective mass tensor is therefore not defined).
   See Section IIIB Eqs. (67)-(70) and Appendix E of PRB 93 205147 (2016).
 - Angular average effective mass for Frohlich model is to be averaged over degenerate bands. See later.
 - Associated theta integrals calculated with ntheta=   1000 points.

 K-point ( 0.000, 0.000, 0.000) | band =     7
 Transport equivalent effective mass tensor:
             -0.0990377625              0.0000000000             -0.0000000000
              0.0000000000             -0.0990377625              0.0000000000
             -0.0000000000              0.0000000000             -0.0990377625
 Transport equivalent effective mass tensor eigenvalues:
             -0.0990377625             -0.0990377625             -0.0990377625
 Angular average effective mass 1/(<1/m>)=  -0.0948754127
 Angular average effective mass for Frohlich model (<m**0.5>)**2=  -0.0951528446
 Effective masses along directions: (cart. coord. / red. coord. -> eff. mass)
    1:   1.000000  0.000000  0.000000 /   0.948683  0.316228  0.000000 ->  -0.0914000767
    2:   0.000000  1.000000  0.000000 /   0.000000  1.000000  0.000000 ->  -0.0869827185
    3:   0.000000  0.000000  1.000000 /   0.408248  0.408248  0.816497 ->  -0.0920721857
    4:   0.577350  0.577350  0.577350 /   0.585539  0.688047  0.428644 ->  -0.0913412889
    5:   0.000000  0.707107  0.707107 /   0.289489  0.762222  0.578977 ->  -0.0983353379
    6:   0.707107  0.000000  0.707107 /   0.731423  0.422287  0.535439 ->  -0.0917321399
    7:   0.707107  0.707107  0.000000 /   0.616798  0.787122  0.000000 ->  -0.1084742395

[...]

 K-point ( 0.000, 0.000, 0.000) | band =     9
 Transport equivalent effective mass tensor:
            -24.5084627851              0.0000229350              0.0000000003
              0.0000229350            -24.5084547620             -0.0000000020
              0.0000000003             -0.0000000020            -24.5084229532
 Transport equivalent effective mass tensor eigenvalues:
            -24.5084820567            -24.5084354904            -24.5084229532
 Angular average effective mass 1/(<1/m>)=  -1.2242341554
 Angular average effective mass for Frohlich model (<m**0.5>)**2=  -1.5808308806
 Effective masses along directions: (cart. coord. / red. coord. -> eff. mass)
    1:   1.000000  0.000000  0.000000 /   0.948683  0.316228  0.000000 ->  -1.3371133915
    2:   0.000000  1.000000  0.000000 /   0.000000  1.000000  0.000000 ->  -1.2080997145
    3:   0.000000  0.000000  1.000000 /   0.408248  0.408248  0.816497 ->  -5.2014773011
    4:   0.577350  0.577350  0.577350 /   0.585539  0.688047  0.428644 ->  -1.6685830836
    5:   0.000000  0.707107  0.707107 /   0.289489  0.762222  0.578977 ->  -1.0700869535
    6:   0.707107  0.000000  0.707107 /   0.731423  0.422287  0.535439 ->  -2.4580346771
    7:   0.707107  0.707107  0.000000 /   0.616798  0.787122  0.000000 ->  -0.5293709583

 Angular average effective mass for Frohlich model, averaged over degenerate bands.
 Value of     (<<m**0.5>>)**2 =     5.992539E-01
 Absolute Value of <<m**0.5>> =     7.741149E-01

 K-point ( 0.500, 0.000, 0.500) | band =    10
 Effective mass tensor:
              0.3325544014             -0.1398447708              0.1712741659
             -0.1398447708              0.4314395872             -0.2422182483
              0.1712741659             -0.2422182483              0.5303247730
 Effective mass tensor eigenvalues:
              0.2336692157              0.2336692157              0.8269803303
 Angular average effective mass 1/(<1/m>)=   0.3071150456
 Angular average effective mass for Frohlich model (<m**0.5>)**2=   0.3324766671
 Effective masses along directions: (cart. coord. / red. coord. -> eff. mass)
    1:   1.000000  0.000000  0.000000 /   0.948683  0.316228  0.000000 ->   0.2654046612
    2:   0.000000  1.000000  0.000000 /   0.000000  1.000000  0.000000 ->   0.3071150456
    3:   0.000000  0.000000  1.000000 /   0.408248  0.408248  0.816497 ->   0.3643801968
    4:   0.577350  0.577350  0.577350 /   0.585539  0.688047  0.428644 ->   0.2510469565
    5:   0.000000  0.707107  0.707107 /   0.289489  0.762222  0.578977 ->   0.2350890841
    6:   0.707107  0.000000  0.707107 /   0.731423  0.422287  0.535439 ->   0.4219802168
    7:   0.707107  0.707107  0.000000 /   0.616798  0.787122  0.000000 ->   0.2360909924

 END OF EFFECTIVE MASSES SECTION

 ---- first-order wavefunction calculations are completed ----

 Total localisation tensor (bohr^2) in cartesian coordinates
  WARNING : still subject to testing - especially symmetries.
      direction              matrix element
   alpha     beta       real part   imaginary part
     1        1       7.1093807247    0.0000000000
     1        2       2.0108365303    0.0000000000
     1        3       4.9255234510    0.0000000000
     2        1       2.0108365303    0.0000000000
     2        2       5.6875045856    0.0000000000
     2        3       3.4828710361    0.0000000000
     3        1       4.9255234510    0.0000000000
     3        2       3.4828710361    0.0000000000
     3        3      12.7968853027    0.0000000000

 respfn : d/dk was computed, but no 2DTE, so no DDB output.

== END DATASET(S) ==============================================================

 -outvars: echo values of variables after computation  --------
            acell      1.0000000000E+00  1.0000000000E+00  1.0000000000E+00 Bohr
              amu      2.69815390E+01  7.49215900E+01
             ecut      4.20000000E+01 Hartree
           etotal     -5.6936531219E+01
            fcart      0.0000000000E+00  0.0000000000E+00  0.0000000000E+00
                       0.0000000000E+00  0.0000000000E+00  0.0000000000E+00
-          fftalg         512
           irdden           1
           irdwfk           1
           istwfk        1    1
              ixc     -116133
              kpt      0.00000000E+00  0.00000000E+00  0.00000000E+00
                       5.00000000E-01  2.46519033E-32  5.00000000E-01
           kptopt           0
P           mkmem           2
P          mkqmem           2
P          mk1mem           2
            natom           2
            nband          18
           nbdbuf           4
            ngfft          48      48      48
             nkpt           2
            nstep         100
             nsym          24
           ntypat           2
              occ      2.000000  2.000000  2.000000  2.000000  2.000000  2.000000
                       2.000000  2.000000  2.000000  0.000000  0.000000  0.000000
                       0.000000  0.000000  0.000000  0.000000  0.000000  0.000000
        optdriver           1
            prtwf          -1
            rfdir           1       1       1
           rfelfd           2
            rprim      6.5664717570E+00  0.0000000000E+00  3.7911542365E+00
                       2.1888239190E+00  6.1909289438E+00  3.7911542365E+00
                       0.0000000000E+00  0.0000000000E+00  7.5823084731E+00
          spgroup         216
           strten      0.0000000000E+00  0.0000000000E+00  0.0000000000E+00
                       0.0000000000E+00  0.0000000000E+00  0.0000000000E+00
           symrel      1  0  0   0  1  0   0  0  1       0 -1  1   0 -1  0   1 -1  0
                      -1  0  0  -1  0  1  -1  1  0       0  1 -1   1  0 -1   0  0 -1
                      -1  0  0  -1  1  0  -1  0  1       0 -1  1   1 -1  0   0 -1  0
                       1  0  0   0  0  1   0  1  0       0  1 -1   0  0 -1   1  0 -1
                      -1  0  1  -1  1  0  -1  0  0       0 -1  0   1 -1  0   0 -1  1
                       1  0 -1   0  0 -1   0  1 -1       0  1  0   0  0  1   1  0  0
                       1  0 -1   0  1 -1   0  0 -1       0 -1  0   0 -1  1   1 -1  0
                      -1  0  1  -1  0  0  -1  1  0       0  1  0   1  0  0   0  0  1
                       0  0 -1   0  1 -1   1  0 -1       1 -1  0   0 -1  1   0 -1  0
                       0  0  1   1  0  0   0  1  0      -1  1  0  -1  0  0  -1  0  1
                       0  0  1   0  1  0   1  0  0       1 -1  0   0 -1  0   0 -1  1
                       0  0 -1   1  0 -1   0  1 -1      -1  1  0  -1  0  1  -1  0  0
           tolwfr      1.00000000E-20
            typat      1  2
           useylm           1
              wtk        0.50000    0.50000
           xangst      0.0000000000E+00  0.0000000000E+00  0.0000000000E+00
                       1.1582757316E+00  8.1902462426E-01  2.0061924162E+00
            xcart      0.0000000000E+00  0.0000000000E+00  0.0000000000E+00
                       2.1888239190E+00  1.5477322360E+00  3.7911542365E+00
             xred      0.0000000000E+00  0.0000000000E+00  0.0000000000E+00
                       2.5000000000E-01  2.5000000000E-01  2.5000000000E-01
            znucl       13.00000   33.00000

- Timing analysis has been suppressed with timopt=0

 Suggested references for the acknowledgment of ABINIT usage.

 Calculation completed.
.Delivered  14 WARNINGs and   9 COMMENTs to log file.