.Version 9.5.1 of ABINIT

 ABINIT is a project of the Universite Catholique de Louvain,
 Corning Inc. and other collaborators, see ~abinit/doc/developers/contributors.txt .
 acknowledgments of the ABINIT effort.

.Starting date : Tue  4 May 2021.
- ( at 19h16 )

- input  file    -> /scratch/users/j/a/jabreu/flow_simple_6atoms/flow/w175/t1/run.abi
- output file    -> /scratch/users/j/a/jabreu/flow_simple_6atoms/flow/w175/t1/run.abo
- root for input  files -> /scratch/users/j/a/jabreu/flow_simple_6atoms/flow/w175/t1/indata/in
- root for output files -> /scratch/users/j/a/jabreu/flow_simple_6atoms/flow/w175/t1/outdata/out

 Symmetries : space group R-3 m (#166); Bravais hR (rhombohedral)
     intxc =       0      iscf =       7    lmnmax =      18     lnmax =       6
     mgfft =      80  mpssoang =       3    mqgrid =    3001     natom =       6
  nloc_mem =       1    nspden =       1   nspinor =       1    nsppol =       1
      nsym =      12    n1xccc =    2501    ntypat =       3    occopt =       1
   xclevel =       2
-    mband =          21        mffmem =           1         mkmem =           2
-   mkqmem =           2        mk1mem =           2           mpw =        6514
      nfft =      512000          nkpt =           2
  Rough estimation (10% accuracy) of disk space for files :

------------- Echo of variables that govern the present computation ------------
-
- outvars: echo of selected default values
-   iomode0 =  0 , fftalg0 =512 , wfoptalg0 =  0
-
- outvars: echo of global parameters not present in the input file
-  max_nthreads =    0
-
 -outvars: echo values of preprocessed input variables --------
            acell      1.0000000000E+00  1.0000000000E+00  1.0000000000E+00 Bohr
              amu      6.94100000E+00  1.40067400E+01  3.54527000E+01
             ecut      4.20000000E+01 Hartree
-          fftalg         512
           irdden           1
           irdwfk           1
           istwfk        1    1
              ixc     -116133
              kpt      0.00000000E+00  0.00000000E+00  0.00000000E+00
                       5.00000000E-01  5.00000000E-01  0.00000000E+00
           kptopt           0
P           mkmem           2
P          mkqmem           2
P          mk1mem           2
            natom           6
            nband          21
           nbdbuf           4
            ngfft          80      80      80
             nkpt           2
            nstep        1000
             nsym          12
           ntypat           3
              occ      2.000000  2.000000  2.000000  2.000000  2.000000  2.000000
                       2.000000  2.000000  2.000000  2.000000  2.000000  2.000000
                       0.000000  0.000000  0.000000  0.000000  0.000000  0.000000
                       0.000000  0.000000  0.000000
        optdriver           1
            prtwf          -1
            rfdir           1       1       1
           rfelfd           2
            rprim      6.5859982289E+00  0.0000000000E+00  1.1182004750E+01
                       3.0482828695E+00  5.8380942283E+00  1.1182004750E+01
                       0.0000000000E+00  0.0000000000E+00  1.2977388139E+01
          spgroup         166
           symrel      1  0  0   0  1  0   0  0  1      -1  0  0   0 -1  0   0  0 -1
                       0  1  0   1  0  0   0  0  1       0 -1  0  -1  0  0   0  0 -1
                       0  0  1   1  0  0   0  1  0       0  0 -1  -1  0  0   0 -1  0
                       1  0  0   0  0  1   0  1  0      -1  0  0   0  0 -1   0 -1  0
                       0  1  0   0  0  1   1  0  0       0 -1  0   0  0 -1  -1  0  0
                       0  0  1   0  1  0   1  0  0       0  0 -1   0 -1  0  -1  0  0
           tolwfr      1.00000000E-20
            typat      1  1  1  1  2  3
           useylm           1
              wtk        0.50000    0.50000
           xangst      4.9412161255E-01  2.9942333059E-01  1.8125844796E+00
                       4.6041203659E+00  2.7899630766E+00  1.6889277670E+01
                       1.7602700079E+00  1.0666724448E+00  6.4571919446E+00
                       3.3379719705E+00  2.0227139624E+00  1.2244670206E+01
                       0.0000000000E+00  0.0000000000E+00  0.0000000000E+00
                       2.5491209892E+00  1.5446932036E+00  9.3509310750E+00
            xcart      9.3375452406E-01  5.6582809261E-01  3.4252882591E+00
                       8.7005265743E+00  5.2722661357E+00  3.1916109379E+01
                       3.3264282348E+00  2.0157187942E+00  1.2202324363E+01
                       6.3078528636E+00  3.8223754341E+00  2.3139073276E+01
                       0.0000000000E+00  0.0000000000E+00  0.0000000000E+00
                       4.8171405492E+00  2.9190471142E+00  1.7670698819E+01
             xred      9.6920000000E-02  9.6920000000E-02  9.6920000000E-02
                       9.0308000000E-01  9.0308000000E-01  9.0308000000E-01
                       3.4527000000E-01  3.4527000000E-01  3.4527000000E-01
                       6.5473000000E-01  6.5473000000E-01  6.5473000000E-01
                       0.0000000000E+00  0.0000000000E+00  0.0000000000E+00
                       5.0000000000E-01  5.0000000000E-01  5.0000000000E-01
            znucl        3.00000    7.00000   17.00000

 chkinp: Checking input parameters for consistency.

== DATASET  1 ==================================================================
-   mpi_nproc: 1, omp_nthreads: -1 (-1 if OMP is not activated)

--- !DatasetInfo
iteration_state: {dtset: 1, }
dimensions: {natom: 6, nkpt: 2, mband: 21, nsppol: 1, nspinor: 1, nspden: 1, mpw: 6514, }
cutoff_energies: {ecut:  42.0, pawecutdg:  -1.0, }
electrons: {nelect:   2.40000000E+01, charge:   0.00000000E+00, occopt:   1.00000000E+00, tsmear:   1.00000000E-02, }
meta: {optdriver: 1, rfelfd: 2, }
...

 Real(R)+Recip(G) space primitive vectors, cartesian coordinates (Bohr,Bohr^-1):
 R(1)=  6.5859982  0.0000000 11.1820048  G(1)=  0.1518373 -0.0792798  0.0000000
 R(2)=  3.0482829  5.8380942 11.1820048  G(2)=  0.0000000  0.1712888  0.0000000
 R(3)=  0.0000000  0.0000000 12.9773881  G(3)= -0.1308310 -0.0792798  0.0770571
 Unit cell volume ucvol=  4.9897640E+02 bohr^3
 Angles (23,13,12)=  3.04973145E+01  3.04973145E+01  3.04973145E+01 degrees

 getcut: wavevector=  0.0000  0.0000  0.0000  ngfft=  80  80  80
         ecut(hartree)=     42.000   => boxcut(ratio)=   2.11383

--- Pseudopotential description ------------------------------------------------
- pspini: atom type   1  psp file is /scratch/users/j/a/jabreu/pseudos/PBEsol/Li.psp8
- pspatm: opening atomic psp file    /scratch/users/j/a/jabreu/pseudos/PBEsol/Li.psp8
- Li    ONCVPSP-3.3.0  r_core=   1.40824   1.10935
-  3.00000   3.00000    180112                znucl, zion, pspdat
    8 -116133    1    4       400   0.00000   pspcod,pspxc,lmax,lloc,mmax,r2well
    3.99000000000000    0.00000000000000    0.00000000000000   rchrg,fchrg,qchrg
     nproj     2     2
     extension_switch     1
  pspatm : epsatm=    2.60859637
         --- l  ekb(1:nproj) -->
             0   -4.855856   -1.482423
             1   -2.171544   -0.427615
 pspatm: atomic psp has been read  and splines computed

- pspini: atom type   2  psp file is /scratch/users/j/a/jabreu/pseudos/PBEsol/N.psp8
- pspatm: opening atomic psp file    /scratch/users/j/a/jabreu/pseudos/PBEsol/N.psp8
- N     ONCVPSP-3.3.0  r_core=   1.20551   1.35824
-  7.00000   5.00000    180112                znucl, zion, pspdat
    8 -116133    1    4       600   0.00000   pspcod,pspxc,lmax,lloc,mmax,r2well
    5.99000000000000    4.00000000000000    0.00000000000000   rchrg,fchrg,qchrg
     nproj     2     2
     extension_switch     1
  pspatm : epsatm=    5.26508895
         --- l  ekb(1:nproj) -->
             0    7.464189    0.625868
             1   -4.309714   -1.012941
 pspatm: atomic psp has been read  and splines computed

- pspini: atom type   3  psp file is /scratch/users/j/a/jabreu/pseudos/PBEsol/Cl.psp8
- pspatm: opening atomic psp file    /scratch/users/j/a/jabreu/pseudos/PBEsol/Cl.psp8
- Cl    ONCVPSP-3.3.0  r_core=   1.56009   1.35202   1.75774
- 17.00000   7.00000    180112                znucl, zion, pspdat
    8 -116133    2    4       600   0.00000   pspcod,pspxc,lmax,lloc,mmax,r2well
    5.99000000000000    8.00000000000000    0.00000000000000   rchrg,fchrg,qchrg
     nproj     2     2     2
     extension_switch     1
  pspatm : epsatm=    8.95520722
         --- l  ekb(1:nproj) -->
             0    8.193503    0.707970
             1    3.869736    1.114731
             2   -2.915303   -0.810552
 pspatm: atomic psp has been read  and splines computed

   5.91712360E+02                                ecore*ucvol(ha*bohr**3)

-inwffil : will read wavefunctions from disk file /scratch/users/j/a/jabreu/flow_simple_6atoms/flow/w175/t1/indata/in_WFK

 ==>  initialize data related to q vector <==

 The list of irreducible perturbations for this q vector is:
    1)    idir= 1    ipert=   7
    2)    idir= 2    ipert=   7
    3)    idir= 3    ipert=   7

 Perturbation wavevector (in red.coord.)   0.000000  0.000000  0.000000
 Perturbation : derivative vs k along direction   1

 dfpt_looppert : COMMENT -
  In a d/dk calculation, iscf is set to -3 automatically.
 The set of symmetries contains only one element for this perturbation.
 symkpt : not enough symmetry to change the number of k points.

[...]

 Initialisation of the first-order wave-functions :
  ireadwf=   0

--- !BeginCycle
iteration_state: {dtset: 1, }
solver: {iscf: 7, nstep: 1000, nline: 4, wfoptalg: 0, }
tolerances: {tolwfr: 1.00E-20, }
...

     iter   2DEtotal(Ha)        deltaE(Ha) residm    vres2
-ETOT  1  -34.903349427780     -3.490E+01 7.131E-02 0.000E+00
 ETOT  2  -34.915890903565     -1.254E-02 1.081E-03 0.000E+00
 ETOT  3  -34.915908093492     -1.719E-05 1.376E-05 0.000E+00
 ETOT  4  -34.915908138246     -4.475E-08 2.619E-07 0.000E+00
 ETOT  5  -34.915908138400     -1.544E-10 4.985E-09 0.000E+00
 ETOT  6  -34.915908138401     -6.253E-13 1.480E-10 0.000E+00
 ETOT  7  -34.915908138401      3.553E-14 2.259E-12 0.000E+00
 ETOT  8  -34.915908138401      3.553E-14 8.651E-14 0.000E+00
 ETOT  9  -34.915908138401     -2.132E-14 1.325E-15 0.000E+00
 ETOT 10  -34.915908138401      1.421E-14 5.190E-17 0.000E+00
 ETOT 11  -34.915908138401      0.000E+00 7.928E-19 0.000E+00
 ETOT 12  -34.915908138401      7.105E-15 3.175E-20 0.000E+00
 ETOT 13  -34.915908138401     -7.105E-15 8.671E-21 0.000E+00

 At SCF step   13   max residual=  8.67E-21 < tolwfr=  1.00E-20 =>converged.

 ----iterations are completed or convergence reached----

 dfpt_looppert: DFPT cycle converged with prtwf=-1. Will skip output of the 1st-order WFK file.
 dfpt_looppert : ek2=    5.5597949334E+01
          f-sum rule ratio=    1.2634830743E+00
 prteigrs : about to open file /scratch/users/j/a/jabreu/flow_simple_6atoms/flow/w175/t1/tmpdata/tmp_1WF1_EIG
 Expectation of eigenvalue derivatives (hartree) for nkpt=   2  k points:
  (in case of degenerate eigenvalues, averaged derivative)
 kpt#   1, nband= 21, wtk=  0.50000, kpt=  0.0000  0.0000  0.0000 (reduced coord)
  -0.00000    0.00000   -0.00000   -0.00000   -0.00000    0.00000    0.00000    0.00000
   0.00000   -0.00000    0.00000    0.00000    0.00000    0.00000    0.00000    0.00000
   0.00000    0.00000    0.00000   -0.00000    0.00000
 prteigrs : prtvol=0 or 1, do not print more k-points.

 Eight components of 2nd-order total energy (hartree) are
 1,2,3: 0th-order hamiltonian combined with 1st-order wavefunctions
     kin0=   2.22209597E+01 eigvalue=   3.98347445E+00  local=  -8.13867880E+00
 4,5,6: 1st-order hamiltonian combined with 1st and 0th-order wfs
     kin1=  -7.02470679E+01  Hartree=   0.00000000E+00     xc=   0.00000000E+00
 7,8,9: eventually, occupation + non-local contributions
    edocc=   1.81197950E+01     enl0=  -1.26964219E+00   enl1=   4.15251670E-01
 1-9 gives the relaxation energy (to be shifted if some occ is /=2.0)
   erelax=  -3.49159081E+01
  No Ewald or frozen-wf contrib.: the relaxation energy is the total one
 2DEtotal=   -0.3491590814E+02 Ha. Also 2DEtotal=   -0.950110179175E+03 eV
    (  non-var. 2DEtotal :   -3.4915908138E+01 Ha)

 Perturbation wavevector (in red.coord.)   0.000000  0.000000  0.000000
 Perturbation : derivative vs k along direction   2
 The set of symmetries contains only one element for this perturbation.
 symkpt : not enough symmetry to change the number of k points.

[...]

 Perturbation wavevector (in red.coord.)   0.000000  0.000000  0.000000
 Perturbation : derivative vs k along direction   3
 The set of symmetries contains only one element for this perturbation.
 symkpt : not enough symmetry to change the number of k points.

-inwffil : will read wavefunctions from disk file /scratch/users/j/a/jabreu/flow_simple_6atoms/flow/w175/t1/indata/in_WFK

 Initialisation of the first-order wave-functions :
  ireadwf=   0

--- !BeginCycle
iteration_state: {dtset: 1, }
solver: {iscf: 7, nstep: 1000, nline: 4, wfoptalg: 0, }
tolerances: {tolwfr: 1.00E-20, }
...

     iter   2DEtotal(Ha)        deltaE(Ha) residm    vres2
-ETOT  1  -32.661188042550     -3.266E+01 1.044E-01 0.000E+00
 ETOT  2  -32.672028834697     -1.084E-02 1.510E-03 0.000E+00
 ETOT  3  -32.672043529392     -1.469E-05 1.405E-05 0.000E+00
 ETOT  4  -32.672043569428     -4.004E-08 2.514E-07 0.000E+00
 ETOT  5  -32.672043569582     -1.537E-10 4.137E-09 0.000E+00
 ETOT  6  -32.672043569582     -7.176E-13 1.446E-10 0.000E+00
 ETOT  7  -32.672043569582      2.842E-14 2.379E-12 0.000E+00
 ETOT  8  -32.672043569582     -1.421E-14 8.627E-14 0.000E+00
 ETOT  9  -32.672043569582      1.421E-14 1.421E-15 0.000E+00
 ETOT 10  -32.672043569582      2.842E-14 5.278E-17 0.000E+00
 ETOT 11  -32.672043569582     -7.105E-15 8.663E-19 0.000E+00
 ETOT 12  -32.672043569582      1.421E-14 3.295E-20 0.000E+00
 ETOT 13  -32.672043569582     -1.421E-14 9.465E-21 0.000E+00

 At SCF step   13   max residual=  9.47E-21 < tolwfr=  1.00E-20 =>converged.

 ----iterations are completed or convergence reached----

 dfpt_looppert: DFPT cycle converged with prtwf=-1. Will skip output of the 1st-order WFK file.
 dfpt_looppert : ek2=    5.5597949334E+01
          f-sum rule ratio=    1.1727575687E+00
 prteigrs : about to open file /scratch/users/j/a/jabreu/flow_simple_6atoms/flow/w175/t1/tmpdata/tmp_1WF1_EIG
 Expectation of eigenvalue derivatives (hartree) for nkpt=   2  k points:
  (in case of degenerate eigenvalues, averaged derivative)
 kpt#   1, nband= 21, wtk=  0.50000, kpt=  0.0000  0.0000  0.0000 (reduced coord)
   0.00000   -0.00000    0.00000   -0.00000   -0.00000   -0.00000    0.00000   -0.00000
  -0.00000   -0.00000    0.00000    0.00000   -0.00000    0.00000    0.00000    0.00000
   0.00000    0.00000    0.00000    0.00001    0.00002
 prteigrs : prtvol=0 or 1, do not print more k-points.

 Eight components of 2nd-order total energy (hartree) are
 1,2,3: 0th-order hamiltonian combined with 1st-order wavefunctions
     kin0=   2.24929483E+01 eigvalue=   4.11106469E+00  local=  -8.51021807E+00
 4,5,6: 1st-order hamiltonian combined with 1st and 0th-order wfs
     kin1=  -6.52029159E+01  Hartree=   0.00000000E+00     xc=   0.00000000E+00
 7,8,9: eventually, occupation + non-local contributions
    edocc=   1.57002847E+01     enl0=  -1.12203607E+00   enl1=  -1.41171254E-01
 1-9 gives the relaxation energy (to be shifted if some occ is /=2.0)
   erelax=  -3.26720436E+01
  No Ewald or frozen-wf contrib.: the relaxation energy is the total one
 2DEtotal=   -0.3267204357E+02 Ha. Also 2DEtotal=   -0.889051519063E+03 eV
    (  non-var. 2DEtotal :   -3.2672043570E+01 Ha)

 CALCULATION OF EFFECTIVE MASSES
 NOTE : Additional infos (eff. mass eigenvalues, eigenvectors and, if degenerate, average mass) are available in stdout.

 COMMENTS:
 - At k-point ( 0.000, 0.000, 0.000), bands    11 through    12
   are DEGENERATE (effective mass tensor is therefore not defined).
   See Section IIIB Eqs. (67)-(70) and Appendix E of PRB 93 205147 (2016).
 - Angular average effective mass for Frohlich model is to be averaged over degenerate bands. See later.
 - Associated theta integrals calculated with ntheta=   1000 points.

 K-point ( 0.000, 0.000, 0.000) | band =    11
 Transport equivalent effective mass tensor:
             -1.6060575387             -0.6943873079             -4.2035883958
             -0.6943873079             -0.8808982298             -2.5472352954
             -4.2035883958             -2.5472352954            -15.8802948861
 Transport equivalent effective mass tensor eigenvalues:
            -17.4469824015             -0.4601444059             -0.4601238472
 Angular average effective mass 1/(<1/m>)=  -0.6615783300
 Angular average effective mass for Frohlich model (<m**0.5>)**2=  -0.9091413932
 Effective masses along directions: (cart. coord. / red. coord. -> eff. mass)
    1:   1.000000  0.000000  0.000000 /   0.907508  0.420034  0.000000 ->  -0.4789031948
    2:   0.000000  1.000000  0.000000 /   0.000000  1.000000  0.000000 ->  -0.4605015051
    3:   0.000000  0.000000  1.000000 /   0.546611  0.546611  0.634375 ->  -4.2245778481
    4:   0.577350  0.577350  0.577350 /   0.596640  0.673886  0.435774 ->  -1.1154409858
    5:   0.000000  0.707107  0.707107 /   0.463058  0.704820  0.537407 ->  -1.1450274729
    6:   0.707107  0.000000  0.707107 /   0.678081  0.543071  0.495257 ->  -1.6325691963
    7:   0.707107  0.707107  0.000000 /   0.595432  0.803406  0.000000 ->  -0.4845923904

 K-point ( 0.000, 0.000, 0.000) | band =    12
 Transport equivalent effective mass tensor:
             -2.6343288836             -0.7861923680             -4.7593186792
             -0.7861923680             -1.8133125696             -2.8839882100
             -4.7593186792             -2.8839882100            -18.7955858636
 Transport equivalent effective mass tensor eigenvalues:
            -20.5694038458             -1.3369164626             -1.3369070083
 Angular average effective mass 1/(<1/m>)=  -1.7816458946
 Angular average effective mass for Frohlich model (<m**0.5>)**2=  -2.2574243739
 Effective masses along directions: (cart. coord. / red. coord. -> eff. mass)
    1:   1.000000  0.000000  0.000000 /   0.907508  0.420034  0.000000 ->  -1.3068242265
    2:   0.000000  1.000000  0.000000 /   0.000000  1.000000  0.000000 ->  -1.2388637500
    3:   0.000000  0.000000  1.000000 /   0.546611  0.546611  0.634375 ->  -6.6808603335
    4:   0.577350  0.577350  0.577350 /   0.596640  0.673886  0.435774 ->  -3.1398429028
    5:   0.000000  0.707107  0.707107 /   0.463058  0.704820  0.537407 ->  -2.7101215194
    6:   0.707107  0.000000  0.707107 /   0.678081  0.543071  0.495257 ->  -3.5606755929
    7:   0.707107  0.707107  0.000000 /   0.595432  0.803406  0.000000 ->  -1.3653401192

 Angular average effective mass for Frohlich model, averaged over degenerate bands.
 Value of     (<<m**0.5>>)**2 =     1.507937E+00
 Absolute Value of <<m**0.5>> =     1.227981E+00

 K-point ( 0.500, 0.500, 0.000) | band =    13
 Effective mass tensor:
              0.4234512282             -0.0628680096             -0.0873543376
             -0.0628680096              0.4891026101             -0.0529341890
             -0.0873543376             -0.0529341890              0.4386505325
 Effective mass tensor eigenvalues:
              0.3064427998              0.5175627750              0.5271987960
 Angular average effective mass 1/(<1/m>)=   0.4229997841
 Angular average effective mass for Frohlich model (<m**0.5>)**2=   0.4317522558
 Effective masses along directions: (cart. coord. / red. coord. -> eff. mass)
    1:   1.000000  0.000000  0.000000 /   0.907508  0.420034  0.000000 ->   0.3948913434
    2:   0.000000  1.000000  0.000000 /   0.000000  1.000000  0.000000 ->   0.4694432888
    3:   0.000000  0.000000  1.000000 /   0.546611  0.546611  0.634375 ->   0.4115772947
    4:   0.577350  0.577350  0.577350 /   0.596640  0.673886  0.435774 ->   0.3114789578
    5:   0.000000  0.707107  0.707107 /   0.463058  0.704820  0.537407 ->   0.3826020202
    6:   0.707107  0.000000  0.707107 /   0.678081  0.543071  0.495257 ->   0.3298390260
    7:   0.707107  0.707107  0.000000 /   0.595432  0.803406  0.000000 ->   0.3681381144

 END OF EFFECTIVE MASSES SECTION

 ---- first-order wavefunction calculations are completed ----

 Total localisation tensor (bohr^2) in cartesian coordinates
  WARNING : still subject to testing - especially symmetries.
      direction              matrix element
   alpha     beta       real part   imaginary part
     1        1       2.3922797389    0.0000000000
     1        2       0.8083472484    0.0000000000
     1        3       4.8933842366    0.0000000000
     2        1       0.8083472484    0.0000000000
     2        2       1.5481527165    0.0000000000
     2        3       2.9652572146    0.0000000000
     3        1       4.8933842366    0.0000000000
     3        2       2.9652572146    0.0000000000
     3        3      18.9316707613    0.0000000000

 respfn : d/dk was computed, but no 2DTE, so no DDB output.

== END DATASET(S) ==============================================================

 -outvars: echo values of variables after computation  --------
            acell      1.0000000000E+00  1.0000000000E+00  1.0000000000E+00 Bohr
              amu      6.94100000E+00  1.40067400E+01  3.54527000E+01
             ecut      4.20000000E+01 Hartree
           etotal     -3.2672043570E+01
            fcart      0.0000000000E+00  0.0000000000E+00  0.0000000000E+00
                       0.0000000000E+00  0.0000000000E+00  0.0000000000E+00
                       0.0000000000E+00  0.0000000000E+00  0.0000000000E+00
                       0.0000000000E+00  0.0000000000E+00  0.0000000000E+00
                       0.0000000000E+00  0.0000000000E+00  0.0000000000E+00
                       0.0000000000E+00  0.0000000000E+00  0.0000000000E+00
-          fftalg         512
           irdden           1
           irdwfk           1
           istwfk        1    1
              ixc     -116133
              kpt      0.00000000E+00  0.00000000E+00  0.00000000E+00
                       5.00000000E-01  5.00000000E-01  0.00000000E+00
           kptopt           0
P           mkmem           2
P          mkqmem           2
P          mk1mem           2
            natom           6
            nband          21
           nbdbuf           4
            ngfft          80      80      80
             nkpt           2
            nstep        1000
             nsym          12
           ntypat           3
              occ      2.000000  2.000000  2.000000  2.000000  2.000000  2.000000
                       2.000000  2.000000  2.000000  2.000000  2.000000  2.000000
                       0.000000  0.000000  0.000000  0.000000  0.000000  0.000000
                       0.000000  0.000000  0.000000
        optdriver           1
            prtwf          -1
            rfdir           1       1       1
           rfelfd           2
            rprim      6.5859982289E+00  0.0000000000E+00  1.1182004750E+01
                       3.0482828695E+00  5.8380942283E+00  1.1182004750E+01
                       0.0000000000E+00  0.0000000000E+00  1.2977388139E+01
          spgroup         166
           strten      0.0000000000E+00  0.0000000000E+00  0.0000000000E+00
                       0.0000000000E+00  0.0000000000E+00  0.0000000000E+00
           symrel      1  0  0   0  1  0   0  0  1      -1  0  0   0 -1  0   0  0 -1
                       0  1  0   1  0  0   0  0  1       0 -1  0  -1  0  0   0  0 -1
                       0  0  1   1  0  0   0  1  0       0  0 -1  -1  0  0   0 -1  0
                       1  0  0   0  0  1   0  1  0      -1  0  0   0  0 -1   0 -1  0
                       0  1  0   0  0  1   1  0  0       0 -1  0   0  0 -1  -1  0  0
                       0  0  1   0  1  0   1  0  0       0  0 -1   0 -1  0  -1  0  0
           tolwfr      1.00000000E-20
            typat      1  1  1  1  2  3
           useylm           1
              wtk        0.50000    0.50000
           xangst      4.9412161255E-01  2.9942333059E-01  1.8125844796E+00
                       4.6041203659E+00  2.7899630766E+00  1.6889277670E+01
                       1.7602700079E+00  1.0666724448E+00  6.4571919446E+00
                       3.3379719705E+00  2.0227139624E+00  1.2244670206E+01
                       0.0000000000E+00  0.0000000000E+00  0.0000000000E+00
                       2.5491209892E+00  1.5446932036E+00  9.3509310750E+00
            xcart      9.3375452406E-01  5.6582809261E-01  3.4252882591E+00
                       8.7005265743E+00  5.2722661357E+00  3.1916109379E+01
                       3.3264282348E+00  2.0157187942E+00  1.2202324363E+01
                       6.3078528636E+00  3.8223754341E+00  2.3139073276E+01
                       0.0000000000E+00  0.0000000000E+00  0.0000000000E+00
                       4.8171405492E+00  2.9190471142E+00  1.7670698819E+01
             xred      9.6920000000E-02  9.6920000000E-02  9.6920000000E-02
                       9.0308000000E-01  9.0308000000E-01  9.0308000000E-01
                       3.4527000000E-01  3.4527000000E-01  3.4527000000E-01
                       6.5473000000E-01  6.5473000000E-01  6.5473000000E-01
                       0.0000000000E+00  0.0000000000E+00  0.0000000000E+00
                       5.0000000000E-01  5.0000000000E-01  5.0000000000E-01
            znucl        3.00000    7.00000   17.00000

- Timing analysis has been suppressed with timopt=0

 Suggested references for the acknowledgment of ABINIT usage.

 Calculation completed.
.Delivered  14 WARNINGs and   9 COMMENTs to log file.