.Version 9.5.2 of ABINIT

 ABINIT is a project of the Universite Catholique de Louvain,
 Corning Inc. and other collaborators, see ~abinit/doc/developers/contributors.txt .
 acknowledgments of the ABINIT effort.

.Starting date : Wed 26 May 2021.
- ( at 02h04 )

- input  file    -> /scratch/users/j/a/jabreu/flow_simple_11atoms/flow/w210/t1/run.abi
- output file    -> /scratch/users/j/a/jabreu/flow_simple_11atoms/flow/w210/t1/run.abo
- root for input  files -> /scratch/users/j/a/jabreu/flow_simple_11atoms/flow/w210/t1/indata/in
- root for output files -> /scratch/users/j/a/jabreu/flow_simple_11atoms/flow/w210/t1/outdata/out

 Symmetries : space group F-4 3 m (#216); Bravais cF (face-center cubic)
     intxc =       0      iscf =       7    lmnmax =      18     lnmax =       6
     mgfft =      64  mpssoang =       3    mqgrid =    3001     natom =      12
  nloc_mem =       1    nspden =       1   nspinor =       1    nsppol =       1
      nsym =      24    n1xccc =    2501    ntypat =       3    occopt =       1
   xclevel =       2
-    mband =          46        mffmem =           1         mkmem =           1
-   mkqmem =           1        mk1mem =           1           mpw =       10417
      nfft =      262144          nkpt =           1
  Rough estimation (10% accuracy) of disk space for files :

------------- Echo of variables that govern the present computation ------------
-
- outvars: echo of selected default values
-   iomode0 =  0 , fftalg0 =512 , wfoptalg0 =  0
-
- outvars: echo of global parameters not present in the input file
-  max_nthreads =    0
-
 -outvars: echo values of preprocessed input variables --------
            acell      1.0000000000E+00  1.0000000000E+00  1.0000000000E+00 Bohr
              amu      9.01218200E+00  1.27600000E+02  1.59994000E+01
             ecut      4.40000000E+01 Hartree
-          fftalg         512
           irdden           1
           irdwfk           1
           istwfk        1
              ixc     -116133
           kptopt           0
P           mkmem           1
P          mkqmem           1
P          mk1mem           1
            natom          12
            nband          46
           nbdbuf           4
            ngfft          64      64      64
             nkpt           1
            nstep        2000
             nsym          24
           ntypat           3
              occ      2.000000  2.000000  2.000000  2.000000  2.000000  2.000000
                       2.000000  2.000000  2.000000  2.000000  2.000000  2.000000
                       2.000000  2.000000  2.000000  2.000000  2.000000  2.000000
                       2.000000  2.000000  2.000000  2.000000  2.000000  2.000000
                       2.000000  2.000000  2.000000  2.000000  2.000000  2.000000
                       2.000000  2.000000  2.000000  2.000000  2.000000  2.000000
                       2.000000  0.000000  0.000000  0.000000  0.000000  0.000000
                       0.000000  0.000000  0.000000  0.000000
        optdriver           1
            prtwf          -1
            rfdir           1       1       1
           rfelfd           2
            rprim      8.8063889293E+00  0.0000000000E+00  5.0843710189E+00
                       2.9354629764E+00  8.3027431063E+00  5.0843710189E+00
                       0.0000000000E+00  0.0000000000E+00  1.0168742038E+01
          spgroup         216
           symrel      1  0  0   0  1  0   0  0  1       0 -1  1   0 -1  0   1 -1  0
                      -1  0  0  -1  0  1  -1  1  0       0  1 -1   1  0 -1   0  0 -1
                      -1  0  0  -1  1  0  -1  0  1       0 -1  1   1 -1  0   0 -1  0
                       1  0  0   0  0  1   0  1  0       0  1 -1   0  0 -1   1  0 -1
                      -1  0  1  -1  1  0  -1  0  0       0 -1  0   1 -1  0   0 -1  1
                       1  0 -1   0  0 -1   0  1 -1       0  1  0   0  0  1   1  0  0
                       1  0 -1   0  1 -1   0  0 -1       0 -1  0   0 -1  1   1 -1  0
                      -1  0  1  -1  0  0  -1  1  0       0  1  0   1  0  0   0  0  1
                       0  0 -1   0  1 -1   1  0 -1       1 -1  0   0 -1  1   0 -1  0
                       0  0  1   1  0  0   0  1  0      -1  1  0  -1  0  0  -1  0  1
                       0  0  1   0  1  0   1  0  0       1 -1  0   0 -1  0   0 -1  1
                       0  0 -1   1  0 -1   0  1 -1      -1  1  0  -1  0  1  -1  0  0
           tolwfr      1.00000000E-20
            typat      1  1  1  1  2  3  3  3  3  3  3  3
           useylm           1
           xangst      3.1067602076E+00  3.8728210918E+00  5.3810665265E+00
                       4.6869174776E+00  1.6381412498E+00  5.3810665265E+00
                       2.3166815726E+00  1.6381412498E+00  4.0126101887E+00
                       2.3166815726E+00  1.6381412498E+00  6.7495228643E+00
                       0.0000000000E+00  0.0000000000E+00  0.0000000000E+00
                       1.5533801038E+00  1.0984056052E+00  2.6905332632E+00
                       3.8682892697E+00  1.1198464826E+00  4.0620594995E+00
                       3.8682892697E+00  1.1198464826E+00  6.7000735534E+00
                       2.3452311455E+00  3.2737759381E+00  4.0620594995E+00
                       2.3452311455E+00  3.2737759381E+00  6.7000735534E+00
                       1.5837020834E+00  1.1198464826E+00  5.3810665265E+00
                       4.6298183317E+00  3.2737759381E+00  5.3810665264E+00
            xcart      5.8709259528E+00  7.3185712251E+00  1.0168742038E+01
                       8.8569904401E+00  3.0956383292E+00  1.0168742038E+01
                       4.3778937092E+00  3.0956383292E+00  7.5827343346E+00
                       4.3778937092E+00  3.0956383292E+00  1.2754749741E+01
                       0.0000000000E+00  0.0000000000E+00  0.0000000000E+00
                       2.9354629764E+00  2.0756857766E+00  5.0843710189E+00
                       7.3100073224E+00  2.1162031629E+00  7.6761799895E+00
                       7.3100073224E+00  2.1162031629E+00  1.2661304086E+01
                       4.4318445833E+00  6.1865399434E+00  7.6761799895E+00
                       4.4318445833E+00  6.1865399434E+00  1.2661304086E+01
                       2.9927632137E+00  2.1162031629E+00  1.0168742038E+01
                       8.7490886920E+00  6.1865399434E+00  1.0168742038E+01
             xred      3.7284525000E-01  8.8146425000E-01  3.7284525000E-01
                       8.8146425000E-01  3.7284525000E-01  3.7284525000E-01
                       3.7284525000E-01  3.7284525000E-01  3.7284525000E-01
                       3.7284525000E-01  3.7284525000E-01  8.8146425000E-01
                       0.0000000000E+00  0.0000000000E+00  0.0000000000E+00
                       2.5000000000E-01  2.5000000000E-01  2.5000000000E-01
                       7.4512000000E-01  2.5488000000E-01  2.5488000000E-01
                       7.4512000000E-01  2.5488000000E-01  7.4512000000E-01
                       2.5488000000E-01  7.4512000000E-01  2.5488000000E-01
                       2.5488000000E-01  7.4512000000E-01  7.4512000000E-01
                       2.5488000000E-01  2.5488000000E-01  7.4512000000E-01
                       7.4512000000E-01  7.4512000000E-01  2.5488000000E-01
            znucl        4.00000   52.00000    8.00000

 chkinp: Checking input parameters for consistency.

== DATASET  1 ==================================================================
-   mpi_nproc: 1, omp_nthreads: -1 (-1 if OMP is not activated)

--- !DatasetInfo
iteration_state: {dtset: 1, }
dimensions: {natom: 12, nkpt: 1, mband: 46, nsppol: 1, nspinor: 1, nspden: 1, mpw: 10417, }
cutoff_energies: {ecut:  44.0, pawecutdg:  -1.0, }
electrons: {nelect:   7.40000000E+01, charge:   0.00000000E+00, occopt:   1.00000000E+00, tsmear:   1.00000000E-02, }
meta: {optdriver: 1, rfelfd: 2, }
...

 Real(R)+Recip(G) space primitive vectors, cartesian coordinates (Bohr,Bohr^-1):
 R(1)=  8.8063889  0.0000000  5.0843710  G(1)=  0.1135539 -0.0401474  0.0000000
 R(2)=  2.9354630  8.3027431  5.0843710  G(2)=  0.0000000  0.1204421  0.0000000
 R(3)=  0.0000000  0.0000000 10.1687420  G(3)= -0.0567770 -0.0401474  0.0983406
 Unit cell volume ucvol=  7.4350979E+02 bohr^3
 Angles (23,13,12)=  6.00000000E+01  6.00000000E+01  6.00000000E+01 degrees

 getcut: wavevector=  0.0000  0.0000  0.0000  ngfft=  64  64  64
         ecut(hartree)=     44.000   => boxcut(ratio)=   2.10776

--- Pseudopotential description ------------------------------------------------
- pspini: atom type   1  psp file is /scratch/users/j/a/jabreu/pseudos/PBEsol/Be.psp8
- pspatm: opening atomic psp file    /scratch/users/j/a/jabreu/pseudos/PBEsol/Be.psp8
- Be    ONCVPSP-3.3.0  r_core=   1.35684   1.10780
-  4.00000   4.00000    180112                znucl, zion, pspdat
    8 -116133    1    4       400   0.00000   pspcod,pspxc,lmax,lloc,mmax,r2well
    3.99000000000000    0.00000000000000    0.00000000000000   rchrg,fchrg,qchrg
     nproj     2     2
     extension_switch     1
  pspatm : epsatm=    3.86293307
         --- l  ekb(1:nproj) -->
             0   -7.966826   -2.672546
             1   -3.431835   -0.651830
 pspatm: atomic psp has been read  and splines computed

- pspini: atom type   2  psp file is /scratch/users/j/a/jabreu/pseudos/PBEsol/Te.psp8
- pspatm: opening atomic psp file    /scratch/users/j/a/jabreu/pseudos/PBEsol/Te.psp8
- Te    ONCVPSP-3.3.0  r_core=   2.26547   1.91704   1.80604
- 52.00000  16.00000    180112                znucl, zion, pspdat
    8 -116133    2    4       600   0.00000   pspcod,pspxc,lmax,lloc,mmax,r2well
    5.99000000000000    5.00000000000000    0.00000000000000   rchrg,fchrg,qchrg
     nproj     2     2     2
     extension_switch     1
  pspatm : epsatm=   36.82679836
         --- l  ekb(1:nproj) -->
             0    6.345999    0.785432
             1    5.709019    1.070069
             2   -6.035173   -1.870937
 pspatm: atomic psp has been read  and splines computed

- pspini: atom type   3  psp file is /scratch/users/j/a/jabreu/pseudos/PBEsol/O.psp8
- pspatm: opening atomic psp file    /scratch/users/j/a/jabreu/pseudos/PBEsol/O.psp8
- O     ONCVPSP-3.3.0  r_core=   1.35509   1.45563   1.26150
-  8.00000   6.00000    180112                znucl, zion, pspdat
    8 -116133    2    4       600   0.00000   pspcod,pspxc,lmax,lloc,mmax,r2well
    5.99000000000000    4.00000000000000    0.00000000000000   rchrg,fchrg,qchrg
     nproj     2     2     1
     extension_switch     1
  pspatm : epsatm=    6.22910522
         --- l  ekb(1:nproj) -->
             0    6.050032    0.820363
             1   -4.739617   -1.153841
             2   -1.335834
 pspatm: atomic psp has been read  and splines computed

   7.09528777E+03                                ecore*ucvol(ha*bohr**3)

 ==>  initialize data related to q vector <==

 The list of irreducible perturbations for this q vector is:
    1)    idir= 1    ipert=  13
    2)    idir= 2    ipert=  13
    3)    idir= 3    ipert=  13

 Perturbation wavevector (in red.coord.)   0.000000  0.000000  0.000000
 Perturbation : derivative vs k along direction   1

 dfpt_looppert : COMMENT -
[...]
     kin1=  -1.02478255E+02  Hartree=   0.00000000E+00     xc=   0.00000000E+00
 7,8,9: eventually, occupation + non-local contributions
    edocc=   1.39774461E+01     enl0=  -2.19236340E+00   enl1=  -2.58479357E+01
 1-9 gives the relaxation energy (to be shifted if some occ is /=2.0)
   erelax=  -6.41630953E+01
  No Ewald or frozen-wf contrib.: the relaxation energy is the total one
 2DEtotal=   -0.6416309530E+02 Ha. Also 2DEtotal=   -0.174596661585E+04 eV
    (  non-var. 2DEtotal :   -6.4163095300E+01 Ha)

 Perturbation wavevector (in red.coord.)   0.000000  0.000000  0.000000
 Perturbation : derivative vs k along direction   2
 The set of symmetries contains only one element for this perturbation.
 symkpt : not enough symmetry to change the number of k points.

[...]

 Perturbation wavevector (in red.coord.)   0.000000  0.000000  0.000000
 Perturbation : derivative vs k along direction   3
 The set of symmetries contains only one element for this perturbation.
 symkpt : not enough symmetry to change the number of k points.

 Initialisation of the first-order wave-functions :
  ireadwf=   0

--- !BeginCycle
iteration_state: {dtset: 1, }
solver: {iscf: 7, nstep: 2000, nline: 4, wfoptalg: 0, }
tolerances: {tolwfr: 1.00E-20, }
...

     iter   2DEtotal(Ha)        deltaE(Ha) residm    vres2
-ETOT  1  -64.133212358514     -6.413E+01 3.855E-02 0.000E+00
 ETOT  2  -64.163083444237     -2.987E-02 1.048E-03 0.000E+00
 ETOT  3  -64.163139891112     -5.645E-05 1.447E-05 0.000E+00
 ETOT  4  -64.163140316216     -4.251E-07 6.833E-07 0.000E+00
 ETOT  5  -64.163140320468     -4.252E-09 2.453E-08 0.000E+00
 ETOT  6  -64.163140320515     -4.691E-11 1.231E-09 0.000E+00
 ETOT  7  -64.163140320516     -5.684E-13 5.066E-11 0.000E+00
 ETOT  8  -64.163140320516      1.421E-14 2.494E-12 0.000E+00
 ETOT  9  -64.163140320516     -1.421E-14 1.073E-13 0.000E+00
 ETOT 10  -64.163140320516      2.842E-14 5.306E-15 0.000E+00
 ETOT 11  -64.163140320516      1.421E-14 2.323E-16 0.000E+00
 ETOT 12  -64.163140320516      1.421E-14 1.158E-17 0.000E+00
 ETOT 13  -64.163140320516     -1.421E-14 5.106E-19 0.000E+00
 ETOT 14  -64.163140320516      0.000E+00 2.565E-20 0.000E+00
 ETOT 15  -64.163140320516      1.421E-14 9.823E-21 0.000E+00

 At SCF step   15   max residual=  9.82E-21 < tolwfr=  1.00E-20 =>converged.

 ----iterations are completed or convergence reached----

 dfpt_looppert: DFPT cycle converged with prtwf=-1. Will skip output of the 1st-order WFK file.
 dfpt_looppert : ek2=    8.4757521935E+01
          f-sum rule ratio=    1.2090769670E+00
 prteigrs : about to open file /scratch/users/j/a/jabreu/flow_simple_11atoms/flow/w210/t1/tmpdata/tmp_1WF1_EIG
 Expectation of eigenvalue derivatives (hartree) for nkpt=   1  k points:
  (in case of degenerate eigenvalues, averaged derivative)
 kpt#   1, nband= 46, wtk=  1.00000, kpt=  0.0000  0.0000  0.0000 (reduced coord)
  -0.00000   -0.00000   -0.00000   -0.00000    0.00000    0.00000    0.00000    0.00000
   0.00000    0.00000   -0.00000   -0.00000   -0.00000   -0.00000    0.00000    0.00000
   0.00000    0.00000    0.00000    0.00000    0.00000    0.00000    0.00000   -0.00000
  -0.00000   -0.00000    0.00000    0.00000    0.00000    0.00000    0.00000    0.00000
   0.00000    0.00000   -0.00000   -0.00000   -0.00000   -0.00000    0.00000   -0.00000
  -0.00000   -0.00000   -0.00000   -0.00000   -0.00000   -0.00496

 Eight components of 2nd-order total energy (hartree) are
 1,2,3: 0th-order hamiltonian combined with 1st-order wavefunctions
     kin0=   7.65076265E+01 eigvalue=   7.12149709E+00  local=  -3.12495083E+01
 4,5,6: 1st-order hamiltonian combined with 1st and 0th-order wfs
     kin1=  -1.02478368E+02  Hartree=   0.00000000E+00     xc=   0.00000000E+00
 7,8,9: eventually, occupation + non-local contributions
    edocc=   1.39766624E+01     enl0=  -2.19313735E+00   enl1=  -2.58479131E+01
 1-9 gives the relaxation energy (to be shifted if some occ is /=2.0)
   erelax=  -6.41631403E+01
  No Ewald or frozen-wf contrib.: the relaxation energy is the total one
 2DEtotal=   -0.6416314032E+02 Ha. Also 2DEtotal=   -0.174596784092E+04 eV
    (  non-var. 2DEtotal :   -6.4163140320E+01 Ha)

 CALCULATION OF EFFECTIVE MASSES
 NOTE : Additional infos (eff. mass eigenvalues, eigenvectors and, if degenerate, average mass) are available in stdout.

 COMMENTS:
 - At k-point ( 0.000, 0.000, 0.000), bands    35 through    37
   are DEGENERATE (effective mass tensor is therefore not defined).
   See Section IIIB Eqs. (67)-(70) and Appendix E of PRB 93 205147 (2016).
 - Angular average effective mass for Frohlich model is to be averaged over degenerate bands. See later.
 - Associated theta integrals calculated with ntheta=   1000 points.

 K-point ( 0.000, 0.000, 0.000) | band =    35
 Transport equivalent effective mass tensor:
             -1.0760077668             -0.0000087072             -0.0000122086
             -0.0000087072             -1.0759900489             -0.0000034041
             -0.0000122086             -0.0000034041             -1.0759982237
 Transport equivalent effective mass tensor eigenvalues:
             -1.0760189864             -1.0759909390             -1.0759861139
 Angular average effective mass 1/(<1/m>)=  -1.0605393825
 Angular average effective mass for Frohlich model (<m**0.5>)**2=  -1.0611758321
 Effective masses along directions: (cart. coord. / red. coord. -> eff. mass)
    1:   1.000000  0.000000  0.000000 /   0.948683  0.316228  0.000000 ->  -1.0953382834
    2:   0.000000  1.000000  0.000000 /   0.000000  1.000000  0.000000 ->  -1.1658022577
    3:   0.000000  0.000000  1.000000 /   0.408248  0.408248  0.816497 ->  -1.0328744704
    4:   0.577350  0.577350  0.577350 /   0.585539  0.688047  0.428644 ->  -1.0778968941
    5:   0.000000  0.707107  0.707107 /   0.289489  0.762222  0.578977 ->  -1.0369705315
    6:   0.707107  0.000000  0.707107 /   0.731423  0.422287  0.535439 ->  -1.0544568876
    7:   0.707107  0.707107  0.000000 /   0.616798  0.787122  0.000000 ->  -1.0379661149

[...]

 K-point ( 0.000, 0.000, 0.000) | band =    37
 Transport equivalent effective mass tensor:
             -9.3205595630             -0.0000583276             -0.0001045686
             -0.0000583276             -9.3205881268              0.0001120651
             -0.0001045686              0.0001120651             -9.3204603645
 Transport equivalent effective mass tensor eigenvalues:
             -9.3206533547             -9.3206224909             -9.3203322086
 Angular average effective mass 1/(<1/m>)=  -4.2577056725
 Angular average effective mass for Frohlich model (<m**0.5>)**2=  -4.5118847784
 Effective masses along directions: (cart. coord. / red. coord. -> eff. mass)
    1:   1.000000  0.000000  0.000000 /   0.948683  0.316228  0.000000 ->  -3.7866852027
    2:   0.000000  1.000000  0.000000 /   0.000000  1.000000  0.000000 ->  -3.0344979843
    3:   0.000000  0.000000  1.000000 /   0.408248  0.408248  0.816497 ->  -3.6450406441
    4:   0.577350  0.577350  0.577350 /   0.585539  0.688047  0.428644 ->  -3.7331912170
    5:   0.000000  0.707107  0.707107 /   0.289489  0.762222  0.578977 ->  -5.1274145004
    6:   0.707107  0.000000  0.707107 /   0.731423  0.422287  0.535439 ->  -3.7157421785
    7:   0.707107  0.707107  0.000000 /   0.616798  0.787122  0.000000 ->  -8.0700271487

 Angular average effective mass for Frohlich model, averaged over degenerate bands.
 Value of     (<<m**0.5>>)**2 =     1.987255E+00
 Absolute Value of <<m**0.5>> =     1.409700E+00

 K-point ( 0.000, 0.000, 0.000) | band =    38
 Effective mass tensor:
              0.3048776971              0.0000000378             -0.0000000024
              0.0000000378              0.3048778402              0.0000000245
             -0.0000000024              0.0000000245              0.3048778707
 Effective mass tensor eigenvalues:
              0.3048776874              0.3048778348              0.3048778859
 Angular average effective mass 1/(<1/m>)=   0.3048778027
 Angular average effective mass for Frohlich model (<m**0.5>)**2=   0.3048778027
 Effective masses along directions: (cart. coord. / red. coord. -> eff. mass)
    1:   1.000000  0.000000  0.000000 /   0.948683  0.316228  0.000000 ->   0.3048776971
    2:   0.000000  1.000000  0.000000 /   0.000000  1.000000  0.000000 ->   0.3048778402
    3:   0.000000  0.000000  1.000000 /   0.408248  0.408248  0.816497 ->   0.3048778707
    4:   0.577350  0.577350  0.577350 /   0.585539  0.688047  0.428644 ->   0.3048778426
    5:   0.000000  0.707107  0.707107 /   0.289489  0.762222  0.578977 ->   0.3048778799
    6:   0.707107  0.000000  0.707107 /   0.731423  0.422287  0.535439 ->   0.3048777815
    7:   0.707107  0.707107  0.000000 /   0.616798  0.787122  0.000000 ->   0.3048778064

 END OF EFFECTIVE MASSES SECTION

 ---- first-order wavefunction calculations are completed ----

 Total localisation tensor (bohr^2) in cartesian coordinates
  WARNING : still subject to testing - especially symmetries.
      direction              matrix element
   alpha     beta       real part   imaginary part
     1        1       1.2303600455    0.0000000000
     1        2       0.3479979847    0.0000000000
     1        3       0.8524182858    0.0000000000
     2        1       0.3479979847    0.0000000000
     2        2       0.9842869392    0.0000000000
     2        3       0.6027501904    0.0000000000
     3        1       0.8524182858    0.0000000000
     3        2       0.6027501904    0.0000000000
     3        3       2.2146509984    0.0000000000

 respfn : d/dk was computed, but no 2DTE, so no DDB output.

== END DATASET(S) ==============================================================

 -outvars: echo values of variables after computation  --------
            acell      1.0000000000E+00  1.0000000000E+00  1.0000000000E+00 Bohr
              amu      9.01218200E+00  1.27600000E+02  1.59994000E+01
             ecut      4.40000000E+01 Hartree
           etotal     -6.4163140321E+01
            fcart      0.0000000000E+00  0.0000000000E+00  0.0000000000E+00
                       0.0000000000E+00  0.0000000000E+00  0.0000000000E+00
                       0.0000000000E+00  0.0000000000E+00  0.0000000000E+00
                       0.0000000000E+00  0.0000000000E+00  0.0000000000E+00
                       0.0000000000E+00  0.0000000000E+00  0.0000000000E+00
                       0.0000000000E+00  0.0000000000E+00  0.0000000000E+00
                       0.0000000000E+00  0.0000000000E+00  0.0000000000E+00
                       0.0000000000E+00  0.0000000000E+00  0.0000000000E+00
                       0.0000000000E+00  0.0000000000E+00  0.0000000000E+00
                       0.0000000000E+00  0.0000000000E+00  0.0000000000E+00
                       0.0000000000E+00  0.0000000000E+00  0.0000000000E+00
                       0.0000000000E+00  0.0000000000E+00  0.0000000000E+00
-          fftalg         512
           irdden           1
           irdwfk           1
           istwfk        1
              ixc     -116133
           kptopt           0
P           mkmem           1
P          mkqmem           1
P          mk1mem           1
            natom          12
            nband          46
           nbdbuf           4
            ngfft          64      64      64
             nkpt           1
            nstep        2000
             nsym          24
           ntypat           3
              occ      2.000000  2.000000  2.000000  2.000000  2.000000  2.000000
                       2.000000  2.000000  2.000000  2.000000  2.000000  2.000000
                       2.000000  2.000000  2.000000  2.000000  2.000000  2.000000
                       2.000000  2.000000  2.000000  2.000000  2.000000  2.000000
                       2.000000  2.000000  2.000000  2.000000  2.000000  2.000000
                       2.000000  2.000000  2.000000  2.000000  2.000000  2.000000
                       2.000000  0.000000  0.000000  0.000000  0.000000  0.000000
                       0.000000  0.000000  0.000000  0.000000
        optdriver           1
            prtwf          -1
            rfdir           1       1       1
           rfelfd           2
            rprim      8.8063889293E+00  0.0000000000E+00  5.0843710189E+00
                       2.9354629764E+00  8.3027431063E+00  5.0843710189E+00
                       0.0000000000E+00  0.0000000000E+00  1.0168742038E+01
          spgroup         216
           strten      0.0000000000E+00  0.0000000000E+00  0.0000000000E+00
                       0.0000000000E+00  0.0000000000E+00  0.0000000000E+00
           symrel      1  0  0   0  1  0   0  0  1       0 -1  1   0 -1  0   1 -1  0
                      -1  0  0  -1  0  1  -1  1  0       0  1 -1   1  0 -1   0  0 -1
                      -1  0  0  -1  1  0  -1  0  1       0 -1  1   1 -1  0   0 -1  0
                       1  0  0   0  0  1   0  1  0       0  1 -1   0  0 -1   1  0 -1
                      -1  0  1  -1  1  0  -1  0  0       0 -1  0   1 -1  0   0 -1  1
                       1  0 -1   0  0 -1   0  1 -1       0  1  0   0  0  1   1  0  0
                       1  0 -1   0  1 -1   0  0 -1       0 -1  0   0 -1  1   1 -1  0
                      -1  0  1  -1  0  0  -1  1  0       0  1  0   1  0  0   0  0  1
                       0  0 -1   0  1 -1   1  0 -1       1 -1  0   0 -1  1   0 -1  0
                       0  0  1   1  0  0   0  1  0      -1  1  0  -1  0  0  -1  0  1
                       0  0  1   0  1  0   1  0  0       1 -1  0   0 -1  0   0 -1  1
                       0  0 -1   1  0 -1   0  1 -1      -1  1  0  -1  0  1  -1  0  0
           tolwfr      1.00000000E-20
            typat      1  1  1  1  2  3  3  3  3  3  3  3
           useylm           1
           xangst      3.1067602076E+00  3.8728210918E+00  5.3810665265E+00
                       4.6869174776E+00  1.6381412498E+00  5.3810665265E+00
                       2.3166815726E+00  1.6381412498E+00  4.0126101887E+00
                       2.3166815726E+00  1.6381412498E+00  6.7495228643E+00
                       0.0000000000E+00  0.0000000000E+00  0.0000000000E+00
                       1.5533801038E+00  1.0984056052E+00  2.6905332632E+00
                       3.8682892697E+00  1.1198464826E+00  4.0620594995E+00
                       3.8682892697E+00  1.1198464826E+00  6.7000735534E+00
                       2.3452311455E+00  3.2737759381E+00  4.0620594995E+00
                       2.3452311455E+00  3.2737759381E+00  6.7000735534E+00
                       1.5837020834E+00  1.1198464826E+00  5.3810665265E+00
                       4.6298183317E+00  3.2737759381E+00  5.3810665264E+00
            xcart      5.8709259528E+00  7.3185712251E+00  1.0168742038E+01
                       8.8569904401E+00  3.0956383292E+00  1.0168742038E+01
                       4.3778937092E+00  3.0956383292E+00  7.5827343346E+00
                       4.3778937092E+00  3.0956383292E+00  1.2754749741E+01
                       0.0000000000E+00  0.0000000000E+00  0.0000000000E+00
                       2.9354629764E+00  2.0756857766E+00  5.0843710189E+00
                       7.3100073224E+00  2.1162031629E+00  7.6761799895E+00
                       7.3100073224E+00  2.1162031629E+00  1.2661304086E+01
                       4.4318445833E+00  6.1865399434E+00  7.6761799895E+00
                       4.4318445833E+00  6.1865399434E+00  1.2661304086E+01
                       2.9927632137E+00  2.1162031629E+00  1.0168742038E+01
                       8.7490886920E+00  6.1865399434E+00  1.0168742038E+01
             xred      3.7284525000E-01  8.8146425000E-01  3.7284525000E-01
                       8.8146425000E-01  3.7284525000E-01  3.7284525000E-01
                       3.7284525000E-01  3.7284525000E-01  3.7284525000E-01
                       3.7284525000E-01  3.7284525000E-01  8.8146425000E-01
                       0.0000000000E+00  0.0000000000E+00  0.0000000000E+00
                       2.5000000000E-01  2.5000000000E-01  2.5000000000E-01
                       7.4512000000E-01  2.5488000000E-01  2.5488000000E-01
                       7.4512000000E-01  2.5488000000E-01  7.4512000000E-01
                       2.5488000000E-01  7.4512000000E-01  2.5488000000E-01
                       2.5488000000E-01  7.4512000000E-01  7.4512000000E-01
                       2.5488000000E-01  2.5488000000E-01  7.4512000000E-01
                       7.4512000000E-01  7.4512000000E-01  2.5488000000E-01
            znucl        4.00000   52.00000    8.00000

- Timing analysis has been suppressed with timopt=0

 Suggested references for the acknowledgment of ABINIT usage.

 Calculation completed.
.Delivered   2 WARNINGs and   5 COMMENTs to log file.