.Version 9.5.1 of ABINIT

 ABINIT is a project of the Universite Catholique de Louvain,
 Corning Inc. and other collaborators, see ~abinit/doc/developers/contributors.txt .
 acknowledgments of the ABINIT effort.

.Starting date : Wed 19 May 2021.
- ( at 12h08 )

- input  file    -> /scratch/users/j/a/jabreu/flow_simple_9atoms/flow/w156/t1/run.abi
- output file    -> /scratch/users/j/a/jabreu/flow_simple_9atoms/flow/w156/t1/run.abo
- root for input  files -> /scratch/users/j/a/jabreu/flow_simple_9atoms/flow/w156/t1/indata/in
- root for output files -> /scratch/users/j/a/jabreu/flow_simple_9atoms/flow/w156/t1/outdata/out

 Symmetries : space group Fm -3 m (#225); Bravais cF (face-center cubic)
     intxc =       0      iscf =       7    lmnmax =      18     lnmax =       6
     mgfft =      80  mpssoang =       3    mqgrid =    3099     natom =       9
  nloc_mem =       1    nspden =       1   nspinor =       1    nsppol =       1
      nsym =      48    n1xccc =    2501    ntypat =       3    occopt =       1
   xclevel =       2
-    mband =          48        mffmem =           1         mkmem =           2
-   mkqmem =           2        mk1mem =           2           mpw =       20206
      nfft =      512000          nkpt =           2
  Rough estimation (10% accuracy) of disk space for files :

------------- Echo of variables that govern the present computation ------------
-
- outvars: echo of selected default values
-   iomode0 =  0 , fftalg0 =512 , wfoptalg0 =  0
-
- outvars: echo of global parameters not present in the input file
-  max_nthreads =    0
-
 -outvars: echo values of preprocessed input variables --------
            acell      1.0000000000E+00  1.0000000000E+00  1.0000000000E+00 Bohr
              amu      8.54678000E+01  1.06420000E+02  3.54527000E+01
             ecut      4.10000000E+01 Hartree
-          fftalg         512
           irdden           1
           irdwfk           1
           istwfk        1    1
              ixc     -116133
              kpt      0.00000000E+00  0.00000000E+00  0.00000000E+00
                       5.00000000E-01  0.00000000E+00  5.00000000E-01
           kptopt           0
P           mkmem           2
P          mkqmem           2
P          mk1mem           2
            natom           9
            nband          48
           nbdbuf           4
            ngfft          80      80      80
             nkpt           2
            nstep        2000
             nsym          48
           ntypat           3
              occ      2.000000  2.000000  2.000000  2.000000  2.000000  2.000000
                       2.000000  2.000000  2.000000  2.000000  2.000000  2.000000
                       2.000000  2.000000  2.000000  2.000000  2.000000  2.000000
                       2.000000  2.000000  2.000000  2.000000  2.000000  2.000000
                       2.000000  2.000000  2.000000  2.000000  2.000000  2.000000
                       2.000000  2.000000  2.000000  2.000000  2.000000  2.000000
                       2.000000  2.000000  2.000000  0.000000  0.000000  0.000000
                       0.000000  0.000000  0.000000  0.000000  0.000000  0.000000
        optdriver           1
            prtwf          -1
            rfdir           1       1       1
           rfelfd           2
            rprim      1.1401923900E+01  0.0000000000E+00  6.5829038330E+00
                       3.8006413000E+00  1.0749836945E+01  6.5829038330E+00
                       0.0000000000E+00  0.0000000000E+00  1.3165807666E+01
          spgroup         225
           symrel      1  0  0   0  1  0   0  0  1      -1  0  0   0 -1  0   0  0 -1
                       0 -1  1   0 -1  0   1 -1  0       0  1 -1   0  1  0  -1  1  0
                      -1  0  0  -1  0  1  -1  1  0       1  0  0   1  0 -1   1 -1  0
                       0  1 -1   1  0 -1   0  0 -1       0 -1  1  -1  0  1   0  0  1
                      -1  0  0  -1  1  0  -1  0  1       1  0  0   1 -1  0   1  0 -1
                       0 -1  1   1 -1  0   0 -1  0       0  1 -1  -1  1  0   0  1  0
                       1  0  0   0  0  1   0  1  0      -1  0  0   0  0 -1   0 -1  0
                       0  1 -1   0  0 -1   1  0 -1       0 -1  1   0  0  1  -1  0  1
                      -1  0  1  -1  1  0  -1  0  0       1  0 -1   1 -1  0   1  0  0
                       0 -1  0   1 -1  0   0 -1  1       0  1  0  -1  1  0   0  1 -1
                       1  0 -1   0  0 -1   0  1 -1      -1  0  1   0  0  1   0 -1  1
                       0  1  0   0  0  1   1  0  0       0 -1  0   0  0 -1  -1  0  0
                       1  0 -1   0  1 -1   0  0 -1      -1  0  1   0 -1  1   0  0  1
                       0 -1  0   0 -1  1   1 -1  0       0  1  0   0  1 -1  -1  1  0
                      -1  0  1  -1  0  0  -1  1  0       1  0 -1   1  0  0   1 -1  0
                       0  1  0   1  0  0   0  0  1       0 -1  0  -1  0  0   0  0 -1
                       0  0 -1   0  1 -1   1  0 -1       0  0  1   0 -1  1  -1  0  1
                       1 -1  0   0 -1  1   0 -1  0      -1  1  0   0  1 -1   0  1  0
                       0  0  1   1  0  0   0  1  0       0  0 -1  -1  0  0   0 -1  0
                      -1  1  0  -1  0  0  -1  0  1       1 -1  0   1  0  0   1  0 -1
                       0  0  1   0  1  0   1  0  0       0  0 -1   0 -1  0  -1  0  0
                       1 -1  0   0 -1  0   0 -1  1      -1  1  0   0  1  0   0  1 -1
                       0  0 -1   1  0 -1   0  1 -1       0  0  1  -1  0  1   0 -1  1
                      -1  1  0  -1  0  1  -1  0  0       1 -1  0   1  0 -1   1  0  0
           tolwfr      1.00000000E-20
            typat      1  1  2  3  3  3  3  3  3
           useylm           1
              wtk        0.50000    0.50000
           xangst      2.0112127540E+00  1.4221421768E+00  3.4835226748E+00
                       6.0336382620E+00  4.2664265303E+00  1.0450568024E+01
                       0.0000000000E+00  0.0000000000E+00  0.0000000000E+00
                       5.0880142942E+00  1.3373142402E+00  8.8126992672E+00
                       2.9568367218E+00  4.3512544669E+00  8.8126992672E+00
                       5.0880142942E+00  1.3373142402E+00  5.1213914319E+00
                       2.9568367218E+00  4.3512544669E+00  5.1213914319E+00
                       6.1536030803E+00  4.3512544669E+00  6.9670453495E+00
                       1.8912479356E+00  1.3373142402E+00  6.9670453495E+00
            xcart      3.8006413000E+00  2.6874592361E+00  6.5829038330E+00
                       1.1401923900E+01  8.0623777084E+00  1.9748711499E+01
                       0.0000000000E+00  0.0000000000E+00  0.0000000000E+00
                       9.6149535762E+00  2.5271576676E+00  1.6653588106E+01
                       5.5876116239E+00  8.2226792769E+00  1.6653588106E+01
                       9.6149535762E+00  2.5271576676E+00  9.6780272256E+00
                       5.5876116239E+00  8.2226792769E+00  9.6780272256E+00
                       1.1628624552E+01  8.2226792769E+00  1.3165807666E+01
                       3.5739406478E+00  2.5271576676E+00  1.3165807666E+01
             xred      2.5000000000E-01  2.5000000000E-01  2.5000000000E-01
                       7.5000000000E-01  7.5000000000E-01  7.5000000000E-01
                       0.0000000000E+00  0.0000000000E+00  0.0000000000E+00
                       7.6491200000E-01  2.3508800000E-01  7.6491200000E-01
                       2.3508800000E-01  7.6491200000E-01  7.6491200000E-01
                       7.6491200000E-01  2.3508800000E-01  2.3508800000E-01
                       2.3508800000E-01  7.6491200000E-01  2.3508800000E-01
                       7.6491200000E-01  7.6491200000E-01  2.3508800000E-01
                       2.3508800000E-01  2.3508800000E-01  7.6491200000E-01
            znucl       37.00000   46.00000   17.00000

 chkinp: Checking input parameters for consistency.

== DATASET  1 ==================================================================
-   mpi_nproc: 1, omp_nthreads: -1 (-1 if OMP is not activated)

--- !DatasetInfo
iteration_state: {dtset: 1, }
dimensions: {natom: 9, nkpt: 2, mband: 48, nsppol: 1, nspinor: 1, nspden: 1, mpw: 20206, }
cutoff_energies: {ecut:  41.0, pawecutdg:  -1.0, }
electrons: {nelect:   7.80000000E+01, charge:   0.00000000E+00, occopt:   1.00000000E+00, tsmear:   1.00000000E-02, }
meta: {optdriver: 1, rfelfd: 2, }
...

 Real(R)+Recip(G) space primitive vectors, cartesian coordinates (Bohr,Bohr^-1):
 R(1)= 11.4019239  0.0000000  6.5829038  G(1)=  0.0877045 -0.0310082  0.0000000
 R(2)=  3.8006413 10.7498369  6.5829038  G(2)=  0.0000000  0.0930247  0.0000000
 R(3)=  0.0000000  0.0000000 13.1658077  G(3)= -0.0438522 -0.0310082  0.0759543
 Unit cell volume ucvol=  1.6137175E+03 bohr^3
 Angles (23,13,12)=  6.00000000E+01  6.00000000E+01  6.00000000E+01 degrees

 getcut: wavevector=  0.0000  0.0000  0.0000  ngfft=  80  80  80
         ecut(hartree)=     41.000   => boxcut(ratio)=   2.10807

--- Pseudopotential description ------------------------------------------------
- pspini: atom type   1  psp file is /scratch/users/j/a/jabreu/pseudos/PBEsol/Rb.psp8
- pspatm: opening atomic psp file    /scratch/users/j/a/jabreu/pseudos/PBEsol/Rb.psp8
- Rb    ONCVPSP-3.3.0  r_core=   1.71227   1.75361   1.90633
- 37.00000   9.00000    180112                znucl, zion, pspdat
    8 -116133    2    4       600   0.00000   pspcod,pspxc,lmax,lloc,mmax,r2well
    5.99000000000000    7.00000000000000    0.00000000000000   rchrg,fchrg,qchrg
     nproj     2     2     2
     extension_switch     1
  pspatm : epsatm=   34.48400912
         --- l  ekb(1:nproj) -->
             0    8.196957   -0.477221
             1    3.231347   -0.378736
             2   -1.047201    0.996637
 pspatm: atomic psp has been read  and splines computed

- pspini: atom type   2  psp file is /scratch/users/j/a/jabreu/pseudos/PBEsol/Pd.psp8
- pspatm: opening atomic psp file    /scratch/users/j/a/jabreu/pseudos/PBEsol/Pd.psp8
- Pd    ONCVPSP-3.3.0  r_core=   1.41052   1.46191   1.55175
- 46.00000  18.00000    180112                znucl, zion, pspdat
    8 -116133    2    4       600   0.00000   pspcod,pspxc,lmax,lloc,mmax,r2well
    5.99000000000000    7.00000000000000    0.00000000000000   rchrg,fchrg,qchrg
     nproj     2     2     2
     extension_switch     1
  pspatm : epsatm=   26.17262427
         --- l  ekb(1:nproj) -->
             0    7.952303   -2.096627
             1    3.304793   -0.572651
             2   -1.185452   -0.410427
 pspatm: atomic psp has been read  and splines computed

- pspini: atom type   3  psp file is /scratch/users/j/a/jabreu/pseudos/PBEsol/Cl.psp8
- pspatm: opening atomic psp file    /scratch/users/j/a/jabreu/pseudos/PBEsol/Cl.psp8
- Cl    ONCVPSP-3.3.0  r_core=   1.56009   1.35202   1.75774
- 17.00000   7.00000    180112                znucl, zion, pspdat
    8 -116133    2    4       600   0.00000   pspcod,pspxc,lmax,lloc,mmax,r2well
    5.99000000000000    8.00000000000000    0.00000000000000   rchrg,fchrg,qchrg
     nproj     2     2     2
     extension_switch     1
  pspatm : epsatm=    8.95520722
         --- l  ekb(1:nproj) -->
[...]

 Initialisation of the first-order wave-functions :
  ireadwf=   0

--- !BeginCycle
iteration_state: {dtset: 1, }
solver: {iscf: 7, nstep: 2000, nline: 4, wfoptalg: 0, }
tolerances: {tolwfr: 1.00E-20, }
...

     iter   2DEtotal(Ha)        deltaE(Ha) residm    vres2
-ETOT  1  -26.557748651930     -2.656E+01 5.276E-02 0.000E+00
 ETOT  2  -26.604809500977     -4.706E-02 1.913E-03 0.000E+00
 ETOT  3  -26.605073608034     -2.641E-04 6.660E-05 0.000E+00
 ETOT  4  -26.605075903145     -2.295E-06 1.402E-05 0.000E+00
 ETOT  5  -26.605075931086     -2.794E-08 6.899E-07 0.000E+00
 ETOT  6  -26.605075931528     -4.428E-10 1.715E-07 0.000E+00
 ETOT  7  -26.605075931537     -8.122E-12 1.001E-08 0.000E+00
 ETOT  8  -26.605075931537     -1.563E-13 2.468E-09 0.000E+00
 ETOT  9  -26.605075931537     -2.132E-14 1.585E-10 0.000E+00
 ETOT 10  -26.605075931537      0.000E+00 3.777E-11 0.000E+00
 ETOT 11  -26.605075931537      3.553E-15 6.365E-12 0.000E+00
 ETOT 12  -26.605075931537      7.105E-15 1.229E-12 0.000E+00
 ETOT 13  -26.605075931537     -1.066E-14 3.101E-13 0.000E+00
 ETOT 14  -26.605075931537      3.553E-15 6.006E-14 0.000E+00
 ETOT 15  -26.605075931537      3.553E-15 1.517E-14 0.000E+00
 ETOT 16  -26.605075931537      3.553E-15 2.962E-15 0.000E+00
 ETOT 17  -26.605075931537     -3.553E-15 7.476E-16 0.000E+00
 ETOT 18  -26.605075931537      3.553E-15 1.489E-16 0.000E+00
 ETOT 19  -26.605075931537     -3.553E-15 3.738E-17 0.000E+00
 ETOT 20  -26.605075931537      3.553E-15 7.644E-18 0.000E+00
 ETOT 21  -26.605075931537      7.105E-15 1.902E-18 0.000E+00
 ETOT 22  -26.605075931537     -7.105E-15 3.939E-19 0.000E+00
 ETOT 23  -26.605075931537      0.000E+00 9.758E-20 0.000E+00
 ETOT 24  -26.605075931537      0.000E+00 2.026E-20 0.000E+00
 ETOT 25  -26.605075931537      7.105E-15 9.897E-21 0.000E+00

 At SCF step   25   max residual=  9.90E-21 < tolwfr=  1.00E-20 =>converged.

 ----iterations are completed or convergence reached----

 dfpt_looppert: DFPT cycle converged with prtwf=-1. Will skip output of the 1st-order WFK file.
 dfpt_looppert : ek2=    5.3294277800E+01
          f-sum rule ratio=    1.0376519903E+00
 prteigrs : about to open file /scratch/users/j/a/jabreu/flow_simple_9atoms/flow/w156/t1/tmpdata/tmp_1WF1_EIG
 Expectation of eigenvalue derivatives (hartree) for nkpt=   2  k points:
  (in case of degenerate eigenvalues, averaged derivative)
 kpt#   1, nband= 48, wtk=  0.50000, kpt=  0.0000  0.0000  0.0000 (reduced coord)
  -0.00000    0.00000    0.00000    0.00000   -0.00000   -0.00000    0.00000   -0.00000
  -0.00000   -0.00000    0.00000    0.00000    0.00000    0.00000    0.00000   -0.00000
  -0.00000   -0.00000    0.00000    0.00000    0.00000   -0.00000   -0.00000   -0.00000
   0.00000    0.00000    0.00000   -0.00000   -0.00000   -0.00000    0.00000    0.00000
   0.00000   -0.00000   -0.00000   -0.00000   -0.00000   -0.00000   -0.00000   -0.00000
  -0.00000   -0.00000    0.00000    0.00000   -0.00000   -0.00000   -0.00000   -0.00000
 prteigrs : prtvol=0 or 1, do not print more k-points.

 Eight components of 2nd-order total energy (hartree) are
 1,2,3: 0th-order hamiltonian combined with 1st-order wavefunctions
     kin0=   3.77993901E+01 eigvalue=   2.43396431E+00  local=  -2.12119284E+01
 4,5,6: 1st-order hamiltonian combined with 1st and 0th-order wfs
     kin1=  -5.53009134E+01  Hartree=   0.00000000E+00     xc=   0.00000000E+00
 7,8,9: eventually, occupation + non-local contributions
    edocc=   6.54681817E+00     enl0=   1.03683165E+00   enl1=   2.09076157E+00
 1-9 gives the relaxation energy (to be shifted if some occ is /=2.0)
   erelax=  -2.66050759E+01
  No Ewald or frozen-wf contrib.: the relaxation energy is the total one
 2DEtotal=   -0.2660507593E+02 Ha. Also 2DEtotal=   -0.723960933797E+03 eV
    (  non-var. 2DEtotal :   -2.6605075931E+01 Ha)

 CALCULATION OF EFFECTIVE MASSES
 NOTE : Additional infos (eff. mass eigenvalues, eigenvectors and, if degenerate, average mass) are available in stdout.

 COMMENTS:
 - At k-point ( 0.000, 0.000, 0.000), bands    37 through    39
   are DEGENERATE (effective mass tensor is therefore not defined).
   See Section IIIB Eqs. (67)-(70) and Appendix E of PRB 93 205147 (2016).
 - Angular average effective mass for Frohlich model is to be averaged over degenerate bands. See later.
 - Associated theta integrals calculated with ntheta=   1000 points.

 K-point ( 0.000, 0.000, 0.000) | band =    37
 Transport equivalent effective mass tensor:
             -1.1098298442             -0.0000003265              0.0000000006
             -0.0000003265             -1.1098295261             -0.0000000002
              0.0000000006             -0.0000000002             -1.1098280749
 Transport equivalent effective mass tensor eigenvalues:
             -1.1098300483             -1.1098293220             -1.1098280749
 Angular average effective mass 1/(<1/m>)=  -1.0584604594
 Angular average effective mass for Frohlich model (<m**0.5>)**2=  -1.0604582044
 Effective masses along directions: (cart. coord. / red. coord. -> eff. mass)
    1:   1.000000  0.000000  0.000000 /   0.948683  0.316228  0.000000 ->  -1.1231099474
    2:   0.000000  1.000000  0.000000 /   0.000000  1.000000  0.000000 ->  -1.2619302540
    3:   0.000000  0.000000  1.000000 /   0.408248  0.408248  0.816497 ->  -1.0118050020
    4:   0.577350  0.577350  0.577350 /   0.585539  0.688047  0.428644 ->  -1.0875177580
    5:   0.000000  0.707107  0.707107 /   0.289489  0.762222  0.578977 ->  -1.0182793318
    6:   0.707107  0.000000  0.707107 /   0.731423  0.422287  0.535439 ->  -1.0466882484
    7:   0.707107  0.707107  0.000000 /   0.616798  0.787122  0.000000 ->  -1.0204809245

[...]

 K-point ( 0.000, 0.000, 0.000) | band =    39
 Transport equivalent effective mass tensor:
            -49.2824573357             -0.0000000218              0.0000000147
             -0.0000000218            -49.2824572974             -0.0000000149
              0.0000000147             -0.0000000149            -49.2824573101
 Transport equivalent effective mass tensor eigenvalues:
            -49.2824573473            -49.2824573199            -49.2824572759
 Angular average effective mass 1/(<1/m>)=  -3.9893636297
 Angular average effective mass for Frohlich model (<m**0.5>)**2=  -4.9571741398
 Effective masses along directions: (cart. coord. / red. coord. -> eff. mass)
    1:   1.000000  0.000000  0.000000 /   0.948683  0.316228  0.000000 ->  -3.4099375106
    2:   0.000000  1.000000  0.000000 /   0.000000  1.000000  0.000000 ->  -2.3274921552
    3:   0.000000  0.000000  1.000000 /   0.408248  0.408248  0.816497 ->  -3.0147811484
    4:   0.577350  0.577350  0.577350 /   0.585539  0.688047  0.428644 ->  -3.3010496001
    5:   0.000000  0.707107  0.707107 /   0.289489  0.762222  0.578977 ->  -5.7053884516
    6:   0.707107  0.000000  0.707107 /   0.731423  0.422287  0.535439 ->  -3.2148231637
    7:   0.707107  0.707107  0.000000 /   0.616798  0.787122  0.000000 -> -16.3906201305

 Angular average effective mass for Frohlich model, averaged over degenerate bands.
 Value of     (<<m**0.5>>)**2 =     2.117233E+00
 Absolute Value of <<m**0.5>> =     1.455071E+00

 K-point ( 0.500, 0.000, 0.500) | band =    40
 Effective mass tensor:
              0.6990914041              0.0163949470             -0.0200796269
              0.0163949470              0.6874984263              0.0283968805
             -0.0200796269              0.0283968805              0.6759054487
 Effective mass tensor eigenvalues:
              0.6411265144              0.7106843822              0.7106843825
 Angular average effective mass 1/(<1/m>)=   0.6858799454
 Angular average effective mass for Frohlich model (<m**0.5>)**2=   0.6863737464
 Effective masses along directions: (cart. coord. / red. coord. -> eff. mass)
    1:   1.000000  0.000000  0.000000 /   0.948683  0.316228  0.000000 ->   0.6980618873
    2:   0.000000  1.000000  0.000000 /   0.000000  1.000000  0.000000 ->   0.6858799453
    3:   0.000000  0.000000  1.000000 /   0.408248  0.408248  0.816497 ->   0.6741158874
    4:   0.577350  0.577350  0.577350 /   0.585539  0.688047  0.428644 ->   0.7033221778
    5:   0.000000  0.707107  0.707107 /   0.289489  0.762222  0.578977 ->   0.7100358806
    6:   0.707107  0.000000  0.707107 /   0.731423  0.422287  0.535439 ->   0.6657566660
    7:   0.707107  0.707107  0.000000 /   0.616798  0.787122  0.000000 ->   0.7095836710

 END OF EFFECTIVE MASSES SECTION

 ---- first-order wavefunction calculations are completed ----

 Total localisation tensor (bohr^2) in cartesian coordinates
  WARNING : still subject to testing - especially symmetries.
      direction              matrix element
   alpha     beta       real part   imaginary part
     1        1       1.2566392693    0.0000000000
     1        2       0.3554314081    0.0000000000
     1        3       0.8706252851    0.0000000000
     2        1       0.3554314081    0.0000000000
     2        2       1.0053118358    0.0000000000
     2        3       0.6156252575    0.0000000000
     3        1       0.8706252851    0.0000000000
     3        2       0.6156252575    0.0000000000
     3        3       2.2619507200    0.0000000000

 respfn : d/dk was computed, but no 2DTE, so no DDB output.

== END DATASET(S) ==============================================================

 -outvars: echo values of variables after computation  --------
            acell      1.0000000000E+00  1.0000000000E+00  1.0000000000E+00 Bohr
              amu      8.54678000E+01  1.06420000E+02  3.54527000E+01
             ecut      4.10000000E+01 Hartree
           etotal     -2.6605075932E+01
            fcart      0.0000000000E+00  0.0000000000E+00  0.0000000000E+00
                       0.0000000000E+00  0.0000000000E+00  0.0000000000E+00
                       0.0000000000E+00  0.0000000000E+00  0.0000000000E+00
                       0.0000000000E+00  0.0000000000E+00  0.0000000000E+00
                       0.0000000000E+00  0.0000000000E+00  0.0000000000E+00
                       0.0000000000E+00  0.0000000000E+00  0.0000000000E+00
                       0.0000000000E+00  0.0000000000E+00  0.0000000000E+00
                       0.0000000000E+00  0.0000000000E+00  0.0000000000E+00
                       0.0000000000E+00  0.0000000000E+00  0.0000000000E+00
-          fftalg         512
           irdden           1
           irdwfk           1
           istwfk        1    1
              ixc     -116133
              kpt      0.00000000E+00  0.00000000E+00  0.00000000E+00
                       5.00000000E-01  0.00000000E+00  5.00000000E-01
           kptopt           0
P           mkmem           2
P          mkqmem           2
P          mk1mem           2
            natom           9
            nband          48
           nbdbuf           4
            ngfft          80      80      80
             nkpt           2
            nstep        2000
             nsym          48
           ntypat           3
              occ      2.000000  2.000000  2.000000  2.000000  2.000000  2.000000
                       2.000000  2.000000  2.000000  2.000000  2.000000  2.000000
                       2.000000  2.000000  2.000000  2.000000  2.000000  2.000000
                       2.000000  2.000000  2.000000  2.000000  2.000000  2.000000
                       2.000000  2.000000  2.000000  2.000000  2.000000  2.000000
                       2.000000  2.000000  2.000000  2.000000  2.000000  2.000000
                       2.000000  2.000000  2.000000  0.000000  0.000000  0.000000
                       0.000000  0.000000  0.000000  0.000000  0.000000  0.000000
        optdriver           1
            prtwf          -1
            rfdir           1       1       1
           rfelfd           2
            rprim      1.1401923900E+01  0.0000000000E+00  6.5829038330E+00
                       3.8006413000E+00  1.0749836945E+01  6.5829038330E+00
                       0.0000000000E+00  0.0000000000E+00  1.3165807666E+01
          spgroup         225
           strten      0.0000000000E+00  0.0000000000E+00  0.0000000000E+00
                       0.0000000000E+00  0.0000000000E+00  0.0000000000E+00
           symrel      1  0  0   0  1  0   0  0  1      -1  0  0   0 -1  0   0  0 -1
                       0 -1  1   0 -1  0   1 -1  0       0  1 -1   0  1  0  -1  1  0
                      -1  0  0  -1  0  1  -1  1  0       1  0  0   1  0 -1   1 -1  0
                       0  1 -1   1  0 -1   0  0 -1       0 -1  1  -1  0  1   0  0  1
                      -1  0  0  -1  1  0  -1  0  1       1  0  0   1 -1  0   1  0 -1
                       0 -1  1   1 -1  0   0 -1  0       0  1 -1  -1  1  0   0  1  0
                       1  0  0   0  0  1   0  1  0      -1  0  0   0  0 -1   0 -1  0
                       0  1 -1   0  0 -1   1  0 -1       0 -1  1   0  0  1  -1  0  1
                      -1  0  1  -1  1  0  -1  0  0       1  0 -1   1 -1  0   1  0  0
                       0 -1  0   1 -1  0   0 -1  1       0  1  0  -1  1  0   0  1 -1
                       1  0 -1   0  0 -1   0  1 -1      -1  0  1   0  0  1   0 -1  1
                       0  1  0   0  0  1   1  0  0       0 -1  0   0  0 -1  -1  0  0
                       1  0 -1   0  1 -1   0  0 -1      -1  0  1   0 -1  1   0  0  1
                       0 -1  0   0 -1  1   1 -1  0       0  1  0   0  1 -1  -1  1  0
                      -1  0  1  -1  0  0  -1  1  0       1  0 -1   1  0  0   1 -1  0
                       0  1  0   1  0  0   0  0  1       0 -1  0  -1  0  0   0  0 -1
                       0  0 -1   0  1 -1   1  0 -1       0  0  1   0 -1  1  -1  0  1
                       1 -1  0   0 -1  1   0 -1  0      -1  1  0   0  1 -1   0  1  0
                       0  0  1   1  0  0   0  1  0       0  0 -1  -1  0  0   0 -1  0
                      -1  1  0  -1  0  0  -1  0  1       1 -1  0   1  0  0   1  0 -1
                       0  0  1   0  1  0   1  0  0       0  0 -1   0 -1  0  -1  0  0
                       1 -1  0   0 -1  0   0 -1  1      -1  1  0   0  1  0   0  1 -1
                       0  0 -1   1  0 -1   0  1 -1       0  0  1  -1  0  1   0 -1  1
                      -1  1  0  -1  0  1  -1  0  0       1 -1  0   1  0 -1   1  0  0
           tolwfr      1.00000000E-20
            typat      1  1  2  3  3  3  3  3  3
           useylm           1
              wtk        0.50000    0.50000
           xangst      2.0112127540E+00  1.4221421768E+00  3.4835226748E+00
                       6.0336382620E+00  4.2664265303E+00  1.0450568024E+01
                       0.0000000000E+00  0.0000000000E+00  0.0000000000E+00
                       5.0880142942E+00  1.3373142402E+00  8.8126992672E+00
                       2.9568367218E+00  4.3512544669E+00  8.8126992672E+00
                       5.0880142942E+00  1.3373142402E+00  5.1213914319E+00
                       2.9568367218E+00  4.3512544669E+00  5.1213914319E+00
                       6.1536030803E+00  4.3512544669E+00  6.9670453495E+00
                       1.8912479356E+00  1.3373142402E+00  6.9670453495E+00
            xcart      3.8006413000E+00  2.6874592361E+00  6.5829038330E+00
                       1.1401923900E+01  8.0623777084E+00  1.9748711499E+01
                       0.0000000000E+00  0.0000000000E+00  0.0000000000E+00
                       9.6149535762E+00  2.5271576676E+00  1.6653588106E+01
                       5.5876116239E+00  8.2226792769E+00  1.6653588106E+01
                       9.6149535762E+00  2.5271576676E+00  9.6780272256E+00
                       5.5876116239E+00  8.2226792769E+00  9.6780272256E+00
                       1.1628624552E+01  8.2226792769E+00  1.3165807666E+01
                       3.5739406478E+00  2.5271576676E+00  1.3165807666E+01
             xred      2.5000000000E-01  2.5000000000E-01  2.5000000000E-01
                       7.5000000000E-01  7.5000000000E-01  7.5000000000E-01
                       0.0000000000E+00  0.0000000000E+00  0.0000000000E+00
                       7.6491200000E-01  2.3508800000E-01  7.6491200000E-01
                       2.3508800000E-01  7.6491200000E-01  7.6491200000E-01
                       7.6491200000E-01  2.3508800000E-01  2.3508800000E-01
                       2.3508800000E-01  7.6491200000E-01  2.3508800000E-01
                       7.6491200000E-01  7.6491200000E-01  2.3508800000E-01
                       2.3508800000E-01  2.3508800000E-01  7.6491200000E-01
            znucl       37.00000   46.00000   17.00000

- Timing analysis has been suppressed with timopt=0

 Suggested references for the acknowledgment of ABINIT usage.

 Calculation completed.
.Delivered  14 WARNINGs and   9 COMMENTs to log file.