.Version 9.5.1 of ABINIT

 ABINIT is a project of the Universite Catholique de Louvain,
 Corning Inc. and other collaborators, see ~abinit/doc/developers/contributors.txt .
 acknowledgments of the ABINIT effort.

.Starting date : Wed 19 May 2021.
- ( at 01h36 )

- input  file    -> /scratch/users/j/a/jabreu/flow_simple_8atoms/flow/w451/t1/run.abi
- output file    -> /scratch/users/j/a/jabreu/flow_simple_8atoms/flow/w451/t1/run.abo
- root for input  files -> /scratch/users/j/a/jabreu/flow_simple_8atoms/flow/w451/t1/indata/in
- root for output files -> /scratch/users/j/a/jabreu/flow_simple_8atoms/flow/w451/t1/outdata/out

 Symmetries : space group R-3 m (#166); Bravais hR (rhombohedral)
     intxc =       0      iscf =       7    lmnmax =      18     lnmax =       6
     mgfft =     108  mpssoang =       3    mqgrid =    3001     natom =       8
  nloc_mem =       1    nspden =       1   nspinor =       1    nsppol =       1
      nsym =      12    n1xccc =    2501    ntypat =       3    occopt =       1
   xclevel =       2
-    mband =          26        mffmem =           1         mkmem =           2
-   mkqmem =           2        mk1mem =           2           mpw =        9354
      nfft =     1259712          nkpt =           2
  Rough estimation (10% accuracy) of disk space for files :

------------- Echo of variables that govern the present computation ------------
-
- outvars: echo of selected default values
-   iomode0 =  0 , fftalg0 =512 , wfoptalg0 =  0
-
- outvars: echo of global parameters not present in the input file
-  max_nthreads =    0
-
 -outvars: echo values of preprocessed input variables --------
            acell      1.0000000000E+00  1.0000000000E+00  1.0000000000E+00 Bohr
              amu      6.94100000E+00  1.40067400E+01  3.54527000E+01
             ecut      4.20000000E+01 Hartree
-          fftalg         512
           irdden           1
           irdwfk           1
           istwfk        1    1
              ixc     -116133
              kpt      5.00000000E-01  5.00000000E-01  5.00000000E-01
                       5.00000000E-01  0.00000000E+00  0.00000000E+00
           kptopt           0
P           mkmem           2
P          mkqmem           2
P          mk1mem           2
            natom           8
            nband          26
           nbdbuf           4
            ngfft         108     108     108
             nkpt           2
            nstep        2000
             nsym          12
           ntypat           3
              occ      2.000000  2.000000  2.000000  2.000000  2.000000  2.000000
                       2.000000  2.000000  2.000000  2.000000  2.000000  2.000000
                       2.000000  2.000000  2.000000  2.000000  2.000000  0.000000
                       0.000000  0.000000  0.000000  0.000000  0.000000  0.000000
                       0.000000  0.000000
        optdriver           1
            prtwf          -1
            rfdir           1       1       1
           rfelfd           2
            rprim      6.6940025730E+00  0.0000000000E+00  1.7034517605E+01
                       3.2268949668E+00  5.8648801626E+00  1.7034517605E+01
                       0.0000000000E+00  0.0000000000E+00  1.8302580705E+01
          spgroup         166
           symrel      1  0  0   0  1  0   0  0  1      -1  0  0   0 -1  0   0  0 -1
                       0  1  0   1  0  0   0  0  1       0 -1  0  -1  0  0   0  0 -1
                       0  0  1   1  0  0   0  1  0       0  0 -1  -1  0  0   0 -1  0
                       1  0  0   0  0  1   0  1  0      -1  0  0   0  0 -1   0 -1  0
                       0  1  0   0  0  1   1  0  0       0 -1  0   0  0 -1  -1  0  0
                       0  0  1   0  1  0   1  0  0       0  0 -1   0 -1  0  -1  0  0
           tolwfr      1.00000000E-20
            typat      1  1  1  1  1  2  3  3
           useylm           1
              wtk        0.50000    0.50000
           xangst      2.6249564334E+00  1.5517804566E+00  1.3856932760E+01
                       3.5204865702E-01  2.0811858771E-01  1.8584363940E+00
                       4.8978642098E+00  2.8954423254E+00  2.5855429125E+01
                       1.7062374315E+00  1.0086666075E+00  9.0070894354E+00
                       3.5436754354E+00  2.0948943057E+00  1.8706776084E+01
                       0.0000000000E+00  0.0000000000E+00  0.0000000000E+00
                       4.1051956158E+00  2.4268449738E+00  2.1670995712E+01
                       1.1447172510E+00  6.7671593931E-01  6.0428698071E+00
            xcart      4.9604487699E+00  2.9324400813E+00  2.6185807958E+01
                       6.6527554722E-01  3.9328713394E-01  3.5119358200E+00
                       9.2556219926E+00  5.4715930287E+00  4.8859680095E+01
                       3.2243214631E+00  1.9061036475E+00  1.7020932287E+01
                       6.6965760767E+00  3.9587765151E+00  3.5350683628E+01
                       0.0000000000E+00  0.0000000000E+00  0.0000000000E+00
                       7.7576954357E+00  4.5860723675E+00  4.0952246923E+01
                       2.1632021041E+00  1.2788077951E+00  1.1419368992E+01
             xred      5.0000000000E-01  5.0000000000E-01  5.0000000000E-01
                       6.7058000000E-02  6.7058000000E-02  6.7058000000E-02
                       9.3294200000E-01  9.3294200000E-01  9.3294200000E-01
                       3.2500300000E-01  3.2500300000E-01  3.2500300000E-01
                       6.7499700000E-01  6.7499700000E-01  6.7499700000E-01
                       0.0000000000E+00  0.0000000000E+00  0.0000000000E+00
                       7.8195500000E-01  7.8195500000E-01  7.8195500000E-01
                       2.1804500000E-01  2.1804500000E-01  2.1804500000E-01
            znucl        3.00000    7.00000   17.00000

 chkinp: Checking input parameters for consistency.

== DATASET  1 ==================================================================
-   mpi_nproc: 1, omp_nthreads: -1 (-1 if OMP is not activated)

--- !DatasetInfo
iteration_state: {dtset: 1, }
dimensions: {natom: 8, nkpt: 2, mband: 26, nsppol: 1, nspinor: 1, nspden: 1, mpw: 9354, }
cutoff_energies: {ecut:  42.0, pawecutdg:  -1.0, }
electrons: {nelect:   3.40000000E+01, charge:   0.00000000E+00, occopt:   1.00000000E+00, tsmear:   1.00000000E-02, }
meta: {optdriver: 1, rfelfd: 2, }
...

 Real(R)+Recip(G) space primitive vectors, cartesian coordinates (Bohr,Bohr^-1):
 R(1)=  6.6940026  0.0000000 17.0345176  G(1)=  0.1493875 -0.0821939  0.0000000
 R(2)=  3.2268950  5.8648802 17.0345176  G(2)=  0.0000000  0.1705065  0.0000000
 R(3)=  0.0000000  0.0000000 18.3025807  G(3)= -0.1390374 -0.0821939  0.0546371
 Unit cell volume ucvol=  7.1855059E+02 bohr^3
 Angles (23,13,12)=  2.14531869E+01  2.14531868E+01  2.14531869E+01 degrees

 getcut: wavevector=  0.0000  0.0000  0.0000  ngfft= 108 108 108
         ecut(hartree)=     42.000   => boxcut(ratio)=   2.02289

--- Pseudopotential description ------------------------------------------------
- pspini: atom type   1  psp file is /scratch/users/j/a/jabreu/pseudos/PBEsol/Li.psp8
- pspatm: opening atomic psp file    /scratch/users/j/a/jabreu/pseudos/PBEsol/Li.psp8
- Li    ONCVPSP-3.3.0  r_core=   1.40824   1.10935
-  3.00000   3.00000    180112                znucl, zion, pspdat
    8 -116133    1    4       400   0.00000   pspcod,pspxc,lmax,lloc,mmax,r2well
    3.99000000000000    0.00000000000000    0.00000000000000   rchrg,fchrg,qchrg
     nproj     2     2
     extension_switch     1
  pspatm : epsatm=    2.60859637
         --- l  ekb(1:nproj) -->
             0   -4.855856   -1.482423
             1   -2.171544   -0.427615
 pspatm: atomic psp has been read  and splines computed

- pspini: atom type   2  psp file is /scratch/users/j/a/jabreu/pseudos/PBEsol/N.psp8
- pspatm: opening atomic psp file    /scratch/users/j/a/jabreu/pseudos/PBEsol/N.psp8
- N     ONCVPSP-3.3.0  r_core=   1.20551   1.35824
-  7.00000   5.00000    180112                znucl, zion, pspdat
    8 -116133    1    4       600   0.00000   pspcod,pspxc,lmax,lloc,mmax,r2well
    5.99000000000000    4.00000000000000    0.00000000000000   rchrg,fchrg,qchrg
     nproj     2     2
     extension_switch     1
  pspatm : epsatm=    5.26508895
         --- l  ekb(1:nproj) -->
             0    7.464189    0.625868
             1   -4.309714   -1.012941
 pspatm: atomic psp has been read  and splines computed

- pspini: atom type   3  psp file is /scratch/users/j/a/jabreu/pseudos/PBEsol/Cl.psp8
- pspatm: opening atomic psp file    /scratch/users/j/a/jabreu/pseudos/PBEsol/Cl.psp8
- Cl    ONCVPSP-3.3.0  r_core=   1.56009   1.35202   1.75774
- 17.00000   7.00000    180112                znucl, zion, pspdat
    8 -116133    2    4       600   0.00000   pspcod,pspxc,lmax,lloc,mmax,r2well
    5.99000000000000    8.00000000000000    0.00000000000000   rchrg,fchrg,qchrg
     nproj     2     2     2
     extension_switch     1
  pspatm : epsatm=    8.95520722
         --- l  ekb(1:nproj) -->
             0    8.193503    0.707970
             1    3.869736    1.114731
             2   -2.915303   -0.810552
 pspatm: atomic psp has been read  and splines computed

   1.23142850E+03                                ecore*ucvol(ha*bohr**3)

-inwffil : will read wavefunctions from disk file /scratch/users/j/a/jabreu/flow_simple_8atoms/flow/w451/t1/indata/in_WFK

 ==>  initialize data related to q vector <==

 The list of irreducible perturbations for this q vector is:
    1)    idir= 1    ipert=   9
    2)    idir= 2    ipert=   9
    3)    idir= 3    ipert=   9

 Perturbation wavevector (in red.coord.)   0.000000  0.000000  0.000000
 Perturbation : derivative vs k along direction   1

 dfpt_looppert : COMMENT -
  In a d/dk calculation, iscf is set to -3 automatically.
 The set of symmetries contains only one element for this perturbation.
 symkpt : not enough symmetry to change the number of k points.

[...]

 Initialisation of the first-order wave-functions :
  ireadwf=   0

--- !BeginCycle
iteration_state: {dtset: 1, }
solver: {iscf: 7, nstep: 2000, nline: 4, wfoptalg: 0, }
tolerances: {tolwfr: 1.00E-20, }
...

     iter   2DEtotal(Ha)        deltaE(Ha) residm    vres2
-ETOT  1  -43.371215137668     -4.337E+01 4.494E-02 0.000E+00
 ETOT  2  -43.387760275819     -1.655E-02 7.301E-04 0.000E+00
 ETOT  3  -43.387790489931     -3.021E-05 3.185E-05 0.000E+00
 ETOT  4  -43.387790597670     -1.077E-07 1.964E-06 0.000E+00
 ETOT  5  -43.387790598210     -5.401E-10 1.252E-07 0.000E+00
 ETOT  6  -43.387790598213     -3.361E-12 1.046E-08 0.000E+00
 ETOT  7  -43.387790598213     -2.842E-14 6.844E-10 0.000E+00
 ETOT  8  -43.387790598213      7.105E-15 6.686E-11 0.000E+00
 ETOT  9  -43.387790598213     -2.842E-14 4.939E-12 0.000E+00
 ETOT 10  -43.387790598213      1.421E-14 5.558E-13 0.000E+00
 ETOT 11  -43.387790598213     -7.105E-15 4.657E-14 0.000E+00
 ETOT 12  -43.387790598213      7.105E-15 5.702E-15 0.000E+00
 ETOT 13  -43.387790598213     -7.105E-15 5.087E-16 0.000E+00
 ETOT 14  -43.387790598213      0.000E+00 6.437E-17 0.000E+00
 ETOT 15  -43.387790598213      0.000E+00 5.875E-18 0.000E+00
 ETOT 16  -43.387790598213      0.000E+00 7.516E-19 0.000E+00
 ETOT 17  -43.387790598213      7.105E-15 6.922E-20 0.000E+00
 ETOT 18  -43.387790598213      0.000E+00 9.429E-21 0.000E+00

 At SCF step   18   max residual=  9.43E-21 < tolwfr=  1.00E-20 =>converged.

 ----iterations are completed or convergence reached----

 dfpt_looppert: DFPT cycle converged with prtwf=-1. Will skip output of the 1st-order WFK file.
 dfpt_looppert : ek2=    7.8045948727E+01
          f-sum rule ratio=    1.1204846938E+00
 prteigrs : about to open file /scratch/users/j/a/jabreu/flow_simple_8atoms/flow/w451/t1/tmpdata/tmp_1WF1_EIG
 Expectation of eigenvalue derivatives (hartree) for nkpt=   2  k points:
  (in case of degenerate eigenvalues, averaged derivative)
 kpt#   1, nband= 26, wtk=  0.50000, kpt=  0.5000  0.5000  0.5000 (reduced coord)
  -0.00000    0.00000   -0.00000    0.00000    0.00000    0.00000   -0.00000    0.00000
   0.00000    0.00000   -0.00000   -0.00000   -0.00000   -0.00000   -0.00000   -0.00000
  -0.00000   -0.00000    0.00000   -0.00000    0.00000   -0.00000   -0.00000   -0.00020
  -0.00112   -0.00760
 prteigrs : prtvol=0 or 1, do not print more k-points.

 Eight components of 2nd-order total energy (hartree) are
 1,2,3: 0th-order hamiltonian combined with 1st-order wavefunctions
     kin0=   3.72727186E+01 eigvalue=   4.80134102E+00  local=  -1.51832684E+01
 4,5,6: 1st-order hamiltonian combined with 1st and 0th-order wfs
     kin1=  -8.74492910E+01  Hartree=   0.00000000E+00     xc=   0.00000000E+00
 7,8,9: eventually, occupation + non-local contributions
    edocc=   1.78789849E+01     enl0=  -1.38198552E+00   enl1=   6.73709766E-01
 1-9 gives the relaxation energy (to be shifted if some occ is /=2.0)
   erelax=  -4.33877906E+01
  No Ewald or frozen-wf contrib.: the relaxation energy is the total one
 2DEtotal=   -0.4338779060E+02 Ha. Also 2DEtotal=   -0.118064182481E+04 eV
    (  non-var. 2DEtotal :   -4.3387790598E+01 Ha)

 Perturbation wavevector (in red.coord.)   0.000000  0.000000  0.000000
 Perturbation : derivative vs k along direction   2
 The set of symmetries contains only one element for this perturbation.
 symkpt : not enough symmetry to change the number of k points.

[...]

 Perturbation wavevector (in red.coord.)   0.000000  0.000000  0.000000
 Perturbation : derivative vs k along direction   3
 The set of symmetries contains only one element for this perturbation.
 symkpt : not enough symmetry to change the number of k points.

-inwffil : will read wavefunctions from disk file /scratch/users/j/a/jabreu/flow_simple_8atoms/flow/w451/t1/indata/in_WFK

 Initialisation of the first-order wave-functions :
  ireadwf=   0

--- !BeginCycle
iteration_state: {dtset: 1, }
solver: {iscf: 7, nstep: 2000, nline: 4, wfoptalg: 0, }
tolerances: {tolwfr: 1.00E-20, }
...

     iter   2DEtotal(Ha)        deltaE(Ha) residm    vres2
-ETOT  1  -47.490098700035     -4.749E+01 4.612E-02 0.000E+00
 ETOT  2  -47.508983431469     -1.888E-02 2.218E-03 0.000E+00
 ETOT  3  -47.509020965255     -3.753E-05 7.024E-05 0.000E+00
 ETOT  4  -47.509021093995     -1.287E-07 3.078E-06 0.000E+00
 ETOT  5  -47.509021094589     -5.942E-10 1.610E-07 0.000E+00
 ETOT  6  -47.509021094593     -3.332E-12 1.430E-08 0.000E+00
 ETOT  7  -47.509021094593     -7.816E-14 9.407E-10 0.000E+00
 ETOT  8  -47.509021094593     -5.684E-14 6.846E-11 0.000E+00
 ETOT  9  -47.509021094593     -4.974E-14 5.194E-12 0.000E+00
 ETOT 10  -47.509021094593      2.132E-14 3.560E-13 0.000E+00
 ETOT 11  -47.509021094593      0.000E+00 3.053E-14 0.000E+00
 ETOT 12  -47.509021094593     -7.105E-15 2.186E-15 0.000E+00
 ETOT 13  -47.509021094593     -7.105E-15 1.869E-16 0.000E+00
 ETOT 14  -47.509021094593      0.000E+00 1.733E-17 0.000E+00
 ETOT 15  -47.509021094593      0.000E+00 1.175E-18 0.000E+00
 ETOT 16  -47.509021094593      7.105E-15 1.712E-19 0.000E+00
 ETOT 17  -47.509021094593     -7.105E-15 9.745E-21 0.000E+00

 At SCF step   17   max residual=  9.74E-21 < tolwfr=  1.00E-20 =>converged.

 ----iterations are completed or convergence reached----

 dfpt_looppert: DFPT cycle converged with prtwf=-1. Will skip output of the 1st-order WFK file.
 dfpt_looppert : ek2=    7.8045948726E+01
          f-sum rule ratio=    1.2354758786E+00
 prteigrs : about to open file /scratch/users/j/a/jabreu/flow_simple_8atoms/flow/w451/t1/tmpdata/tmp_1WF1_EIG
 Expectation of eigenvalue derivatives (hartree) for nkpt=   2  k points:
  (in case of degenerate eigenvalues, averaged derivative)
 kpt#   1, nband= 26, wtk=  0.50000, kpt=  0.5000  0.5000  0.5000 (reduced coord)
   0.00000    0.00000   -0.00000   -0.00000    0.00000    0.00000    0.00000    0.00000
  -0.00000   -0.00000    0.00000    0.00000   -0.00000   -0.00000    0.00000    0.00000
   0.00000   -0.00000    0.00000   -0.00000    0.00000    0.00000    0.00000    0.00001
  -0.00175    0.00453
 prteigrs : prtvol=0 or 1, do not print more k-points.

 Eight components of 2nd-order total energy (hartree) are
 1,2,3: 0th-order hamiltonian combined with 1st-order wavefunctions
     kin0=   3.82588304E+01 eigvalue=   4.86072285E+00  local=  -1.53821704E+01
 4,5,6: 1st-order hamiltonian combined with 1st and 0th-order wfs
     kin1=  -9.64238871E+01  Hartree=   0.00000000E+00     xc=   0.00000000E+00
 7,8,9: eventually, occupation + non-local contributions
    edocc=   2.15452022E+01     enl0=  -1.77356393E+00   enl1=   1.40584489E+00
 1-9 gives the relaxation energy (to be shifted if some occ is /=2.0)
   erelax=  -4.75090211E+01
  No Ewald or frozen-wf contrib.: the relaxation energy is the total one
 2DEtotal=   -0.4750902109E+02 Ha. Also 2DEtotal=   -0.129278620982E+04 eV
    (  non-var. 2DEtotal :   -4.7509021094E+01 Ha)

 CALCULATION OF EFFECTIVE MASSES
 NOTE : Additional infos (eff. mass eigenvalues, eigenvectors and, if degenerate, average mass) are available in stdout.

 COMMENTS:
 - At k-point ( 0.500, 0.500, 0.500), bands    16 through    17
   are DEGENERATE (effective mass tensor is therefore not defined).
   See Section IIIB Eqs. (67)-(70) and Appendix E of PRB 93 205147 (2016).
 - Angular average effective mass for Frohlich model is to be averaged over degenerate bands. See later.
 - Associated theta integrals calculated with ntheta=   1000 points.

 K-point ( 0.500, 0.500, 0.500) | band =    16
 Transport equivalent effective mass tensor:
            -10.8974533994             -6.0942066875            -54.4132811572
             -6.0942066875             -4.1934592206            -32.1719665966
            -54.4132811572            -32.1719665966           -287.8475604993
 Transport equivalent effective mass tensor eigenvalues:
           -301.7578842274             -0.5903722764             -0.5902166155
 Angular average effective mass 1/(<1/m>)=  -0.8824860529
 Angular average effective mass for Frohlich model (<m**0.5>)**2=  -1.3750164132
 Effective masses along directions: (cart. coord. / red. coord. -> eff. mass)
    1:   1.000000  0.000000  0.000000 /   0.900799  0.434237  0.000000 ->  -0.6098322231
    2:   0.000000  1.000000  0.000000 /   0.000000  1.000000  0.000000 ->  -0.5958032814
    3:   0.000000  0.000000  1.000000 /   0.563041  0.563041  0.604954 -> -12.1242301105
    4:   0.577350  0.577350  0.577350 /   0.596840  0.657151  0.460362 ->  -1.2751898958
    5:   0.000000  0.707107  0.707107 /   0.502421  0.675401  0.539821 ->  -1.4276372740
    6:   0.707107  0.000000  0.707107 /   0.655957  0.560111  0.505961 ->  -1.8003445177
    7:   0.707107  0.707107  0.000000 /   0.592900  0.805276  0.000000 ->  -0.6157413933

 K-point ( 0.500, 0.500, 0.500) | band =    17
 Transport equivalent effective mass tensor:
            -11.6566449348             -6.1460607556            -54.8710637168
             -6.1460607556             -4.8969265332            -32.4470410316
            -54.8710637168            -32.4470410316           -290.9389208901
 Transport equivalent effective mass tensor eigenvalues:
           -304.9671467550             -1.2628894833             -1.2624561198
 Angular average effective mass 1/(<1/m>)=  -1.8806250549
 Angular average effective mass for Frohlich model (<m**0.5>)**2=  -2.8626536028
 Effective masses along directions: (cart. coord. / red. coord. -> eff. mass)
    1:   1.000000  0.000000  0.000000 /   0.900799  0.434237  0.000000 ->  -1.3005943239
    2:   0.000000  1.000000  0.000000 /   0.000000  1.000000  0.000000 ->  -1.2720936274
    3:   0.000000  0.000000  1.000000 /   0.563041  0.563041  0.604954 -> -25.6177258050
    4:   0.577350  0.577350  0.577350 /   0.596840  0.657151  0.460362 ->  -2.7000017070
    5:   0.000000  0.707107  0.707107 /   0.502421  0.675401  0.539821 ->  -3.0597932174
    6:   0.707107  0.000000  0.707107 /   0.655957  0.560111  0.505961 ->  -3.8419087203
    7:   0.707107  0.707107  0.000000 /   0.592900  0.805276  0.000000 ->  -1.3121140635

 Angular average effective mass for Frohlich model, averaged over degenerate bands.
 Value of     (<<m**0.5>>)**2 =     2.051410E+00
 Absolute Value of <<m**0.5>> =     1.432274E+00

 K-point ( 0.500, 0.000, 0.000) | band =    18
 Effective mass tensor:
              0.4818970733             -0.0239597238             -0.1286696373
             -0.0239597238              0.5152523000              0.0602287357
             -0.1286696373              0.0602287357              0.4400268113
 Effective mass tensor eigenvalues:
              0.3254083049              0.4890119295              0.6227559503
 Angular average effective mass 1/(<1/m>)=   0.4461784144
 Angular average effective mass for Frohlich model (<m**0.5>)**2=   0.4561607021
 Effective masses along directions: (cart. coord. / red. coord. -> eff. mass)
    1:   1.000000  0.000000  0.000000 /   0.900799  0.434237  0.000000 ->   0.4441928947
    2:   0.000000  1.000000  0.000000 /   0.000000  1.000000  0.000000 ->   0.5069177778
    3:   0.000000  0.000000  1.000000 /   0.563041  0.563041  0.604954 ->   0.4000340872
    4:   0.577350  0.577350  0.577350 /   0.596840  0.657151  0.460362 ->   0.3965376382
    5:   0.000000  0.707107  0.707107 /   0.502421  0.675401  0.539821 ->   0.5064638517
    6:   0.707107  0.000000  0.707107 /   0.655957  0.560111  0.505961 ->   0.3300357614
    7:   0.707107  0.707107  0.000000 /   0.592900  0.805276  0.000000 ->   0.4672509328

 END OF EFFECTIVE MASSES SECTION

 ---- first-order wavefunction calculations are completed ----

 Total localisation tensor (bohr^2) in cartesian coordinates
  WARNING : still subject to testing - especially symmetries.
      direction              matrix element
   alpha     beta       real part   imaginary part
     1        1       1.9187754462    0.0000000000
     1        2       0.7088246246    0.0000000000
     1        3       5.9491191004    0.0000000000
     2        1       0.7088246246    0.0000000000
     2        2       1.2882884390    0.0000000000
     2        3       3.7418278781    0.0000000000
     3        1       5.9491191004    0.0000000000
     3        2       3.7418278781    0.0000000000
     3        3      33.3140087531    0.0000000000

 respfn : d/dk was computed, but no 2DTE, so no DDB output.

== END DATASET(S) ==============================================================

 -outvars: echo values of variables after computation  --------
            acell      1.0000000000E+00  1.0000000000E+00  1.0000000000E+00 Bohr
              amu      6.94100000E+00  1.40067400E+01  3.54527000E+01
             ecut      4.20000000E+01 Hartree
           etotal     -4.7509021095E+01
            fcart      0.0000000000E+00  0.0000000000E+00  0.0000000000E+00
                       0.0000000000E+00  0.0000000000E+00  0.0000000000E+00
                       0.0000000000E+00  0.0000000000E+00  0.0000000000E+00
                       0.0000000000E+00  0.0000000000E+00  0.0000000000E+00
                       0.0000000000E+00  0.0000000000E+00  0.0000000000E+00
                       0.0000000000E+00  0.0000000000E+00  0.0000000000E+00
                       0.0000000000E+00  0.0000000000E+00  0.0000000000E+00
                       0.0000000000E+00  0.0000000000E+00  0.0000000000E+00
-          fftalg         512
           irdden           1
           irdwfk           1
           istwfk        1    1
              ixc     -116133
              kpt      5.00000000E-01  5.00000000E-01  5.00000000E-01
                       5.00000000E-01  0.00000000E+00  0.00000000E+00
           kptopt           0
P           mkmem           2
P          mkqmem           2
P          mk1mem           2
            natom           8
            nband          26
           nbdbuf           4
            ngfft         108     108     108
             nkpt           2
            nstep        2000
             nsym          12
           ntypat           3
              occ      2.000000  2.000000  2.000000  2.000000  2.000000  2.000000
                       2.000000  2.000000  2.000000  2.000000  2.000000  2.000000
                       2.000000  2.000000  2.000000  2.000000  2.000000  0.000000
                       0.000000  0.000000  0.000000  0.000000  0.000000  0.000000
                       0.000000  0.000000
        optdriver           1
            prtwf          -1
            rfdir           1       1       1
           rfelfd           2
            rprim      6.6940025730E+00  0.0000000000E+00  1.7034517605E+01
                       3.2268949668E+00  5.8648801626E+00  1.7034517605E+01
                       0.0000000000E+00  0.0000000000E+00  1.8302580705E+01
          spgroup         166
           strten      0.0000000000E+00  0.0000000000E+00  0.0000000000E+00
                       0.0000000000E+00  0.0000000000E+00  0.0000000000E+00
           symrel      1  0  0   0  1  0   0  0  1      -1  0  0   0 -1  0   0  0 -1
                       0  1  0   1  0  0   0  0  1       0 -1  0  -1  0  0   0  0 -1
                       0  0  1   1  0  0   0  1  0       0  0 -1  -1  0  0   0 -1  0
                       1  0  0   0  0  1   0  1  0      -1  0  0   0  0 -1   0 -1  0
                       0  1  0   0  0  1   1  0  0       0 -1  0   0  0 -1  -1  0  0
                       0  0  1   0  1  0   1  0  0       0  0 -1   0 -1  0  -1  0  0
           tolwfr      1.00000000E-20
            typat      1  1  1  1  1  2  3  3
           useylm           1
              wtk        0.50000    0.50000
           xangst      2.6249564334E+00  1.5517804566E+00  1.3856932760E+01
                       3.5204865702E-01  2.0811858771E-01  1.8584363940E+00
                       4.8978642098E+00  2.8954423254E+00  2.5855429125E+01
                       1.7062374315E+00  1.0086666075E+00  9.0070894354E+00
                       3.5436754354E+00  2.0948943057E+00  1.8706776084E+01
                       0.0000000000E+00  0.0000000000E+00  0.0000000000E+00
                       4.1051956158E+00  2.4268449738E+00  2.1670995712E+01
                       1.1447172510E+00  6.7671593931E-01  6.0428698071E+00
            xcart      4.9604487699E+00  2.9324400813E+00  2.6185807958E+01
                       6.6527554722E-01  3.9328713394E-01  3.5119358200E+00
                       9.2556219926E+00  5.4715930287E+00  4.8859680095E+01
                       3.2243214631E+00  1.9061036475E+00  1.7020932287E+01
                       6.6965760767E+00  3.9587765151E+00  3.5350683628E+01
                       0.0000000000E+00  0.0000000000E+00  0.0000000000E+00
                       7.7576954357E+00  4.5860723675E+00  4.0952246923E+01
                       2.1632021041E+00  1.2788077951E+00  1.1419368992E+01
             xred      5.0000000000E-01  5.0000000000E-01  5.0000000000E-01
                       6.7058000000E-02  6.7058000000E-02  6.7058000000E-02
                       9.3294200000E-01  9.3294200000E-01  9.3294200000E-01
                       3.2500300000E-01  3.2500300000E-01  3.2500300000E-01
                       6.7499700000E-01  6.7499700000E-01  6.7499700000E-01
                       0.0000000000E+00  0.0000000000E+00  0.0000000000E+00
                       7.8195500000E-01  7.8195500000E-01  7.8195500000E-01
                       2.1804500000E-01  2.1804500000E-01  2.1804500000E-01
            znucl        3.00000    7.00000   17.00000

- Timing analysis has been suppressed with timopt=0

 Suggested references for the acknowledgment of ABINIT usage.

 Calculation completed.
.Delivered  14 WARNINGs and   9 COMMENTs to log file.