.Version 9.5.2 of ABINIT

 ABINIT is a project of the Universite Catholique de Louvain,
 Corning Inc. and other collaborators, see ~abinit/doc/developers/contributors.txt .
 acknowledgments of the ABINIT effort.

.Starting date : Mon 24 May 2021.
- ( at 15h58 )

- input  file    -> /scratch/users/j/a/jabreu/flow_simple_10atoms/flow/w286/t1/run.abi
- output file    -> /scratch/users/j/a/jabreu/flow_simple_10atoms/flow/w286/t1/run.abo
- root for input  files -> /scratch/users/j/a/jabreu/flow_simple_10atoms/flow/w286/t1/indata/in
- root for output files -> /scratch/users/j/a/jabreu/flow_simple_10atoms/flow/w286/t1/outdata/out

 Symmetries : space group C2/m (# 12); Bravais mC (1-face-center monocl.)
     intxc =       0      iscf =       7    lmnmax =      25     lnmax =       7
     mgfft =      90  mpssoang =       4    mqgrid =    3593     natom =      10
  nloc_mem =       1    nspden =       1   nspinor =       1    nsppol =       1
      nsym =       4    n1xccc =    2501    ntypat =       3    occopt =       1
   xclevel =       2
-    mband =          58        mffmem =           1         mkmem =           2
-   mkqmem =           2        mk1mem =           2           mpw =       24325
      nfft =      576000          nkpt =           2
  Rough estimation (10% accuracy) of disk space for files :

------------- Echo of variables that govern the present computation ------------
-
- outvars: echo of selected default values
-   iomode0 =  0 , fftalg0 =512 , wfoptalg0 =  0
-
- outvars: echo of global parameters not present in the input file
-  max_nthreads =    0
-
 -outvars: echo values of preprocessed input variables --------
            acell      1.0000000000E+00  1.0000000000E+00  1.0000000000E+00 Bohr
              amu      8.54678000E+01  1.96966540E+02  7.99040000E+01
             ecut      3.80000000E+01 Hartree
-          fftalg         512
           irdden           1
           irdwfk           1
              ixc     -116133
              kpt      2.08705674E-01 -2.08705674E-01  0.00000000E+00
                       2.46652161E-01 -2.46652161E-01  0.00000000E+00
           kptopt           0
P           mkmem           2
P          mkqmem           2
P          mk1mem           2
            natom          10
            nband          58
           nbdbuf           4
            ngfft          80      80      90
             nkpt           2
            nstep        2000
             nsym           4
           ntypat           3
              occ      2.000000  2.000000  2.000000  2.000000  2.000000  2.000000
                       2.000000  2.000000  2.000000  2.000000  2.000000  2.000000
                       2.000000  2.000000  2.000000  2.000000  2.000000  2.000000
                       2.000000  2.000000  2.000000  2.000000  2.000000  2.000000
                       2.000000  2.000000  2.000000  2.000000  2.000000  2.000000
                       2.000000  2.000000  2.000000  2.000000  2.000000  2.000000
                       2.000000  2.000000  2.000000  2.000000  2.000000  2.000000
                       2.000000  2.000000  2.000000  2.000000  2.000000  2.000000
                       2.000000  0.000000  0.000000  0.000000  0.000000  0.000000
                       0.000000  0.000000  0.000000  0.000000
        optdriver           1
            prtwf          -1
            rfdir           1       1       1
           rfelfd           2
            rprim      1.2561950487E+01  0.0000000000E+00  6.0086015203E+00
                       4.8614094547E+00  1.1583147160E+01  6.0086015203E+00
                       0.0000000000E+00  0.0000000000E+00  1.4928563206E+01
          spgroup          12
           symrel      1  0  0   0  1  0   0  0  1      -1  0  0   0 -1  0   0  0 -1
                       0 -1  0  -1  0  0   0  0 -1       0  1  0   1  0  0   0  0  1
           tolwfr      1.00000000E-20
            typat      1  1  2  2  3  3  3  3  3  3
           useylm           1
              wtk        0.50000    0.50000
           xangst      2.4694968469E+00  1.6417353189E+00  7.4477545084E+00
                       6.7505481311E+00  4.4878021621E+00  6.8113308571E+00
                       0.0000000000E+00  0.0000000000E+00  3.9499277027E+00
                       4.6100224890E+00  3.0647687405E+00  3.1796149800E+00
                       5.4314400121E+00  1.2932282064E+00  5.3901771571E+00
                       5.9256436430E+00  1.6217775449E+00  8.8689082084E+00
                       3.7886049659E+00  4.8363092747E+00  8.8689082084E+00
                       3.2944013351E+00  4.5077599362E+00  5.3901771571E+00
                       6.6319045924E+00  4.4089272738E+00  1.1228491639E+01
                       2.5881403857E+00  1.7206102072E+00  3.0305937266E+00
            xcart      4.6666727267E+00  3.1024301355E+00  1.4074216326E+01
                       1.2756687215E+01  8.4807170250E+00  1.2871549920E+01
                       0.0000000000E+00  0.0000000000E+00  7.4642816028E+00
                       8.7116799707E+00  5.7915735802E+00  6.0086015203E+00
                       1.0263934130E+01  2.4438471374E+00  1.0185958635E+01
                       1.1197843646E+01  3.0647154083E+00  1.6759807612E+01
                       7.1594258113E+00  9.1393000231E+00  1.6759807612E+01
                       6.2255162951E+00  8.5184317522E+00  1.0185958635E+01
                       1.2532483419E+01  8.3316650874E+00  2.1218774083E+01
                       4.8908765224E+00  3.2514820731E+00  5.7269921633E+00
             xred      2.6784000000E-01  2.6784000000E-01  7.2716500000E-01
                       7.3216000000E-01  7.3216000000E-01  2.7283500000E-01
                       0.0000000000E+00  0.0000000000E+00  5.0000000000E-01
                       5.0000000000E-01  5.0000000000E-01  5.5511151231E-17
                       7.3541600000E-01  2.1098300000E-01  3.0139700000E-01
                       7.8901700000E-01  2.6458400000E-01  6.9860300000E-01
                       2.6458400000E-01  7.8901700000E-01  6.9860300000E-01
                       2.1098300000E-01  7.3541600000E-01  3.0139700000E-01
                       7.1929200000E-01  7.1929200000E-01  8.4233800000E-01
                       2.8070800000E-01  2.8070800000E-01  1.5766200000E-01
            znucl       37.00000   79.00000   35.00000

 chkinp: Checking input parameters for consistency.

== DATASET  1 ==================================================================
-   mpi_nproc: 1, omp_nthreads: -1 (-1 if OMP is not activated)

--- !DatasetInfo
iteration_state: {dtset: 1, }
dimensions: {natom: 10, nkpt: 2, mband: 58, nsppol: 1, nspinor: 1, nspden: 1, mpw: 24325, }
cutoff_energies: {ecut:  38.0, pawecutdg:  -1.0, }
electrons: {nelect:   9.80000000E+01, charge:   0.00000000E+00, occopt:   1.00000000E+00, tsmear:   1.00000000E-02, }
meta: {optdriver: 1, rfelfd: 2, }
...

 Real(R)+Recip(G) space primitive vectors, cartesian coordinates (Bohr,Bohr^-1):
 R(1)= 12.5619505  0.0000000  6.0086015  G(1)=  0.0796055 -0.0334102  0.0000000
 R(2)=  4.8614095 11.5831472  6.0086015  G(2)=  0.0000000  0.0863323  0.0000000
 R(3)=  0.0000000  0.0000000 14.9285632  G(3)= -0.0320404 -0.0213007  0.0669857
 Unit cell volume ucvol=  2.1722093E+03 bohr^3
 Angles (23,13,12)=  6.44373914E+01  6.44373914E+01  5.99252057E+01 degrees

 getcut: wavevector=  0.0000  0.0000  0.0000  ngfft=  80  80  90
         ecut(hartree)=     38.000   => boxcut(ratio)=   2.07050

--- Pseudopotential description ------------------------------------------------
- pspini: atom type   1  psp file is /scratch/users/j/a/jabreu/pseudos/PBEsol/Rb.psp8
- pspatm: opening atomic psp file    /scratch/users/j/a/jabreu/pseudos/PBEsol/Rb.psp8
- Rb    ONCVPSP-3.3.0  r_core=   1.71227   1.75361   1.90633
- 37.00000   9.00000    180112                znucl, zion, pspdat
    8 -116133    2    4       600   0.00000   pspcod,pspxc,lmax,lloc,mmax,r2well
    5.99000000000000    7.00000000000000    0.00000000000000   rchrg,fchrg,qchrg
     nproj     2     2     2
     extension_switch     1
  pspatm : epsatm=   34.48400912
         --- l  ekb(1:nproj) -->
             0    8.196957   -0.477221
             1    3.231347   -0.378736
             2   -1.047201    0.996637
 pspatm: atomic psp has been read  and splines computed

- pspini: atom type   2  psp file is /scratch/users/j/a/jabreu/pseudos/PBEsol/Au.psp8
- pspatm: opening atomic psp file    /scratch/users/j/a/jabreu/pseudos/PBEsol/Au.psp8
- Au    ONCVPSP-3.3.0  r_core=   1.45604   1.56407   1.56407   1.60183
- 79.00000  19.00000    180112                znucl, zion, pspdat
    8 -116133    3    4       500   0.00000   pspcod,pspxc,lmax,lloc,mmax,r2well
    4.99000000000000    5.00000000000000    0.00000000000000   rchrg,fchrg,qchrg
     nproj     2     2     2     1
     extension_switch     1
  pspatm : epsatm=   32.21965837
         --- l  ekb(1:nproj) -->
             0    9.413866   -0.196587
             1    2.474292   -1.517497
             2    1.503483    0.298081
             3    1.177996
 pspatm: atomic psp has been read  and splines computed

- pspini: atom type   3  psp file is /scratch/users/j/a/jabreu/pseudos/PBEsol/Br.psp8
- pspatm: opening atomic psp file    /scratch/users/j/a/jabreu/pseudos/PBEsol/Br.psp8
- Br    ONCVPSP-3.3.0  r_core=   1.81012   1.51356   1.92136
- 35.00000   7.00000    180112                znucl, zion, pspdat
    8 -116133    2    4       600   0.00000   pspcod,pspxc,lmax,lloc,mmax,r2well
    5.99000000000000    8.00000000000000    0.00000000000000   rchrg,fchrg,qchrg
     nproj     2     2     2
     extension_switch     1
  pspatm : epsatm=   10.94933070
         --- l  ekb(1:nproj) -->
             0    8.508690    0.897946
             1    5.393311    0.892021
             2    2.527513    0.394763
 pspatm: atomic psp has been read  and splines computed

   1.95121253E+04                                ecore*ucvol(ha*bohr**3)

 ==>  initialize data related to q vector <==

 The list of irreducible perturbations for this q vector is:
    1)    idir= 1    ipert=  11
    2)    idir= 2    ipert=  11
    3)    idir= 3    ipert=  11

 Perturbation wavevector (in red.coord.)   0.000000  0.000000  0.000000
 Perturbation : derivative vs k along direction   1

 dfpt_looppert : COMMENT -
  In a d/dk calculation, iscf is set to -3 automatically.
 The set of symmetries contains only one element for this perturbation.
 symkpt : not enough symmetry to change the number of k points.

 Initialisation of the first-order wave-functions :
  ireadwf=   0

--- !BeginCycle
iteration_state: {dtset: 1, }
solver: {iscf: 7, nstep: 2000, nline: 4, wfoptalg: 0, }
tolerances: {tolwfr: 1.00E-20, }
...

     iter   2DEtotal(Ha)        deltaE(Ha) residm    vres2
-ETOT  1  -31.171453489042     -3.117E+01 2.625E-02 0.000E+00
 ETOT  2  -31.189714811702     -1.826E-02 1.725E-03 0.000E+00
 ETOT  3  -31.189758488968     -4.368E-05 1.005E-04 0.000E+00
 ETOT  4  -31.189758755030     -2.661E-07 1.062E-05 0.000E+00
 ETOT  5  -31.189758757765     -2.735E-09 8.288E-07 0.000E+00
 ETOT  6  -31.189758757801     -3.647E-11 1.186E-07 0.000E+00
 ETOT  7  -31.189758757802     -5.684E-13 9.711E-09 0.000E+00
 ETOT  8  -31.189758757802      3.553E-15 1.468E-09 0.000E+00
 ETOT  9  -31.189758757802      0.000E+00 1.215E-10 0.000E+00
 ETOT 10  -31.189758757802     -7.105E-15 1.866E-11 0.000E+00
 ETOT 11  -31.189758757802     -7.105E-15 1.551E-12 0.000E+00
 ETOT 12  -31.189758757802      1.776E-14 2.399E-13 0.000E+00
 ETOT 13  -31.189758757802     -1.066E-14 2.000E-14 0.000E+00
 ETOT 14  -31.189758757802      1.066E-14 3.105E-15 0.000E+00
 ETOT 15  -31.189758757802      0.000E+00 2.596E-16 0.000E+00
 ETOT 16  -31.189758757802      0.000E+00 4.040E-17 0.000E+00
 ETOT 17  -31.189758757802     -7.105E-15 3.384E-18 0.000E+00
 ETOT 18  -31.189758757802      0.000E+00 5.276E-19 0.000E+00
 ETOT 19  -31.189758757802     -7.105E-15 4.427E-20 0.000E+00
 ETOT 20  -31.189758757802      0.000E+00 9.809E-21 0.000E+00

 At SCF step   20   max residual=  9.81E-21 < tolwfr=  1.00E-20 =>converged.

 ----iterations are completed or convergence reached----

 dfpt_looppert: DFPT cycle converged with prtwf=-1. Will skip output of the 1st-order WFK file.
 dfpt_looppert : ek2=    5.7671687618E+01
          f-sum rule ratio=    1.0347712680E+00
 prteigrs : about to open file /scratch/users/j/a/jabreu/flow_simple_10atoms/flow/w286/t1/tmpdata/tmp_1WF1_EIG
 Expectation of eigenvalue derivatives (hartree) for nkpt=   2  k points:
  (in case of degenerate eigenvalues, averaged derivative)
 kpt#   1, nband= 58, wtk=  0.50000, kpt=  0.2087 -0.2087  0.0000 (reduced coord)
  -0.00000   -0.00000   -0.00000    0.00000   -0.00000   -0.00000    0.00000    0.00000
   0.00008   -0.00007    0.01496   -0.01812    0.00344   -0.00342    0.00101   -0.00217
   0.00262    0.00266    0.00131    0.00030    0.00261    0.00091   -0.00101    0.05599
  -0.01629    0.00432   -0.05172    0.00795    0.01719   -0.00366   -0.01748   -0.01417
   0.02594   -0.01269    0.00646    0.05754   -0.02452   -0.03498   -0.03973   -0.01898
  -0.01331   -0.00004    0.00604    0.00985   -0.03660    0.04486   -0.01039    0.00654
  -0.00455   -0.07516    0.10514   -0.06107    0.10430    0.10746    0.05687    0.04386
   0.05641    0.03037
 prteigrs : prtvol=0 or 1, do not print more k-points.

 Eight components of 2nd-order total energy (hartree) are
 1,2,3: 0th-order hamiltonian combined with 1st-order wavefunctions
     kin0=   4.41577214E+01 eigvalue=   2.48624252E+00  local=  -2.57207109E+01
 4,5,6: 1st-order hamiltonian combined with 1st and 0th-order wfs
     kin1=  -5.96770053E+01  Hartree=   0.00000000E+00     xc=   0.00000000E+00
 7,8,9: eventually, occupation + non-local contributions
    edocc=   6.90721569E+00     enl0=   3.35929001E+00   enl1=  -2.70251219E+00
 1-9 gives the relaxation energy (to be shifted if some occ is /=2.0)
   erelax=  -3.11897588E+01
  No Ewald or frozen-wf contrib.: the relaxation energy is the total one
 2DEtotal=   -0.3118975876E+02 Ha. Also 2DEtotal=   -0.848716498059E+03 eV
    (  non-var. 2DEtotal :   -3.1189758757E+01 Ha)

 Perturbation wavevector (in red.coord.)   0.000000  0.000000  0.000000
 Perturbation : derivative vs k along direction   2
 The set of symmetries contains only one element for this perturbation.
 symkpt : not enough symmetry to change the number of k points.

[...]

 Perturbation wavevector (in red.coord.)   0.000000  0.000000  0.000000
 Perturbation : derivative vs k along direction   3
 The set of symmetries contains only one element for this perturbation.
 symkpt : not enough symmetry to change the number of k points.

 Initialisation of the first-order wave-functions :
  ireadwf=   0

--- !BeginCycle
iteration_state: {dtset: 1, }
solver: {iscf: 7, nstep: 2000, nline: 4, wfoptalg: 0, }
tolerances: {tolwfr: 1.00E-20, }
...

     iter   2DEtotal(Ha)        deltaE(Ha) residm    vres2
-ETOT  1  -31.514840710328     -3.151E+01 1.738E-02 0.000E+00
 ETOT  2  -31.530614655397     -1.577E-02 1.573E-03 0.000E+00
 ETOT  3  -31.530660183708     -4.553E-05 4.102E-05 0.000E+00
 ETOT  4  -31.530660559517     -3.758E-07 6.215E-06 0.000E+00
 ETOT  5  -31.530660564413     -4.896E-09 2.294E-07 0.000E+00
 ETOT  6  -31.530660564487     -7.390E-11 5.809E-08 0.000E+00
 ETOT  7  -31.530660564488     -1.236E-12 2.180E-09 0.000E+00
 ETOT  8  -31.530660564488      7.105E-15 6.041E-10 0.000E+00
 ETOT  9  -31.530660564488     -4.974E-14 2.218E-11 0.000E+00
 ETOT 10  -31.530660564488      3.553E-15 6.328E-12 0.000E+00
 ETOT 11  -31.530660564488     -4.619E-14 2.299E-13 0.000E+00
 ETOT 12  -31.530660564488      1.066E-14 6.660E-14 0.000E+00
 ETOT 13  -31.530660564488      3.553E-15 2.407E-15 0.000E+00
 ETOT 14  -31.530660564488     -1.066E-14 7.049E-16 0.000E+00
 ETOT 15  -31.530660564488      2.132E-14 2.540E-17 0.000E+00
 ETOT 16  -31.530660564488     -3.553E-15 7.508E-18 0.000E+00
 ETOT 17  -31.530660564488      0.000E+00 2.701E-19 0.000E+00
 ETOT 18  -31.530660564488      0.000E+00 8.050E-20 0.000E+00
 ETOT 19  -31.530660564488     -1.776E-14 9.890E-21 0.000E+00

 At SCF step   19   max residual=  9.89E-21 < tolwfr=  1.00E-20 =>converged.

 ----iterations are completed or convergence reached----

 dfpt_looppert: DFPT cycle converged with prtwf=-1. Will skip output of the 1st-order WFK file.
 dfpt_looppert : ek2=    4.6174280432E+01
          f-sum rule ratio=    1.3108724316E+00
 prteigrs : about to open file /scratch/users/j/a/jabreu/flow_simple_10atoms/flow/w286/t1/tmpdata/tmp_1WF1_EIG
 Expectation of eigenvalue derivatives (hartree) for nkpt=   2  k points:
  (in case of degenerate eigenvalues, averaged derivative)
 kpt#   1, nband= 58, wtk=  0.50000, kpt=  0.2087 -0.2087  0.0000 (reduced coord)
   0.00000   -0.00000   -0.00000   -0.00000   -0.00000   -0.00000   -0.00000   -0.00000
   0.00000   -0.00000    0.00000    0.00000   -0.00000   -0.00000    0.00000    0.00000
   0.00000    0.00000   -0.00000    0.00000   -0.00000    0.00000   -0.00000    0.00000
  -0.00000    0.00000    0.00000   -0.00000    0.00000   -0.00000    0.00000   -0.00000
   0.00000   -0.00000   -0.00000   -0.00000   -0.00000    0.00000   -0.00000    0.00000
  -0.00000   -0.00000   -0.00000    0.00000    0.00000   -0.00000   -0.00000    0.00000
   0.00000   -0.00000    0.00000    0.00000    0.00000    0.00000    0.00000   -0.00000
   0.00000   -0.00000
 prteigrs : prtvol=0 or 1, do not print more k-points.

 Eight components of 2nd-order total energy (hartree) are
 1,2,3: 0th-order hamiltonian combined with 1st-order wavefunctions
     kin0=   3.43553658E+01 eigvalue=   1.82956497E+00  local=  -1.98677317E+01
 4,5,6: 1st-order hamiltonian combined with 1st and 0th-order wfs
     kin1=  -6.05285913E+01  Hartree=   0.00000000E+00     xc=   0.00000000E+00
 7,8,9: eventually, occupation + non-local contributions
    edocc=   1.27918763E+01     enl0=   2.42158525E+00   enl1=  -2.53272986E+00
 1-9 gives the relaxation energy (to be shifted if some occ is /=2.0)
   erelax=  -3.15306606E+01
  No Ewald or frozen-wf contrib.: the relaxation energy is the total one
 2DEtotal=   -0.3153066056E+02 Ha. Also 2DEtotal=   -0.857992907980E+03 eV
    (  non-var. 2DEtotal :   -3.1530660564E+01 Ha)

 CALCULATION OF EFFECTIVE MASSES
 NOTE : Additional infos (eff. mass eigenvalues, eigenvectors and, if degenerate, average mass) are available in stdout.

 K-point ( 0.209,-0.209, 0.000) | band =    49
 Effective mass tensor:
             -0.9645934687             -0.3045172181             -0.0320347570
             -0.3045172181             -0.7089833849             -0.0212968775
             -0.0320347570             -0.0212968775             -0.0587828073
 Effective mass tensor eigenvalues:
             -1.1683717590             -0.5065387260             -0.0574491759
 Angular average effective mass 1/(<1/m>)=  -0.1482450399
 Angular average effective mass for Frohlich model (<m**0.5>)**2=  -0.2368818333
 Effective masses along directions: (cart. coord. / red. coord. -> eff. mass)
    1:   1.000000  0.000000  0.000000 /   0.932600  0.360911  0.000000 ->  -0.8247900760
    2:   0.000000  1.000000  0.000000 /   0.000000  1.000000  0.000000 ->  -0.6106819009
    3:   0.000000  0.000000  1.000000 /   0.349794  0.349794  0.869074 ->  -0.0575148259
    4:   0.577350  0.577350  0.577350 /   0.567222  0.685814  0.455981 ->  -0.1701178450
    5:   0.000000  0.707107  0.707107 /   0.252019  0.737851  0.626149 ->  -0.1087561611
    6:   0.707107  0.000000  0.707107 /   0.709087  0.415054  0.570023 ->  -0.1133483066
    7:   0.707107  0.707107  0.000000 /   0.607045  0.794668  0.000000 ->  -1.0886672681

 K-point ( 0.247,-0.247, 0.000) | band =    50
 Effective mass tensor:
             15.5834473265             10.2313291068              0.0679901966
             10.2313291068              6.9953356467              0.0452002636
              0.0679901966              0.0452002636              0.0482955533
 Effective mass tensor eigenvalues:
              0.0479971407              0.1934908540             22.3855905318
 Angular average effective mass 1/(<1/m>)=   0.1151744267
 Angular average effective mass for Frohlich model (<m**0.5>)**2=   0.2060512786
 Effective masses along directions: (cart. coord. / red. coord. -> eff. mass)
    1:   1.000000  0.000000  0.000000 /   0.932600  0.360911  0.000000 ->   0.6191030887
    2:   0.000000  1.000000  0.000000 /   0.000000  1.000000  0.000000 ->   0.2779389527
    3:   0.000000  0.000000  1.000000 /   0.349794  0.349794  0.869074 ->   0.0479977805
    4:   0.577350  0.577350  0.577350 /   0.567222  0.685814  0.455981 ->   0.1420946111
    5:   0.000000  0.707107  0.707107 /   0.252019  0.737851  0.626149 ->   0.0821420277
    6:   0.707107  0.000000  0.707107 /   0.709087  0.415054  0.570023 ->   0.0895937816
    7:   0.707107  0.707107  0.000000 /   0.607045  0.794668  0.000000 ->   4.0892030070

 END OF EFFECTIVE MASSES SECTION

 ---- first-order wavefunction calculations are completed ----

 Total localisation tensor (bohr^2) in cartesian coordinates
  WARNING : still subject to testing - especially symmetries.
      direction              matrix element
   alpha     beta       real part   imaginary part
     1        1       2.1940782581    0.0000000000
     1        2       0.6809537225    0.0000000000
     1        3       1.2660014034    0.0000000000
     2        1       0.6809537225    0.0000000000
     2        2       1.6224897841    0.0000000000
     2        3       0.8416447144    0.0000000000
     3        1       1.2660014034    0.0000000000
     3        2       0.8416447144    0.0000000000
     3        3      15.4647497919    0.0000000000

 respfn : d/dk was computed, but no 2DTE, so no DDB output.

== END DATASET(S) ==============================================================

 -outvars: echo values of variables after computation  --------
            acell      1.0000000000E+00  1.0000000000E+00  1.0000000000E+00 Bohr
              amu      8.54678000E+01  1.96966540E+02  7.99040000E+01
             ecut      3.80000000E+01 Hartree
           etotal     -3.1530660564E+01
            fcart      0.0000000000E+00  0.0000000000E+00  0.0000000000E+00
                       0.0000000000E+00  0.0000000000E+00  0.0000000000E+00
                       0.0000000000E+00  0.0000000000E+00  0.0000000000E+00
                       0.0000000000E+00  0.0000000000E+00  0.0000000000E+00
                       0.0000000000E+00  0.0000000000E+00  0.0000000000E+00
                       0.0000000000E+00  0.0000000000E+00  0.0000000000E+00
                       0.0000000000E+00  0.0000000000E+00  0.0000000000E+00
                       0.0000000000E+00  0.0000000000E+00  0.0000000000E+00
                       0.0000000000E+00  0.0000000000E+00  0.0000000000E+00
                       0.0000000000E+00  0.0000000000E+00  0.0000000000E+00
-          fftalg         512
           irdden           1
           irdwfk           1
              ixc     -116133
              kpt      2.08705674E-01 -2.08705674E-01  0.00000000E+00
                       2.46652161E-01 -2.46652161E-01  0.00000000E+00
           kptopt           0
P           mkmem           2
P          mkqmem           2
P          mk1mem           2
            natom          10
            nband          58
           nbdbuf           4
            ngfft          80      80      90
             nkpt           2
            nstep        2000
             nsym           4
           ntypat           3
              occ      2.000000  2.000000  2.000000  2.000000  2.000000  2.000000
                       2.000000  2.000000  2.000000  2.000000  2.000000  2.000000
                       2.000000  2.000000  2.000000  2.000000  2.000000  2.000000
                       2.000000  2.000000  2.000000  2.000000  2.000000  2.000000
                       2.000000  2.000000  2.000000  2.000000  2.000000  2.000000
                       2.000000  2.000000  2.000000  2.000000  2.000000  2.000000
                       2.000000  2.000000  2.000000  2.000000  2.000000  2.000000
                       2.000000  2.000000  2.000000  2.000000  2.000000  2.000000
                       2.000000  0.000000  0.000000  0.000000  0.000000  0.000000
                       0.000000  0.000000  0.000000  0.000000
        optdriver           1
            prtwf          -1
            rfdir           1       1       1
           rfelfd           2
            rprim      1.2561950487E+01  0.0000000000E+00  6.0086015203E+00
                       4.8614094547E+00  1.1583147160E+01  6.0086015203E+00
                       0.0000000000E+00  0.0000000000E+00  1.4928563206E+01
          spgroup          12
           strten      0.0000000000E+00  0.0000000000E+00  0.0000000000E+00
                       0.0000000000E+00  0.0000000000E+00  0.0000000000E+00
           symrel      1  0  0   0  1  0   0  0  1      -1  0  0   0 -1  0   0  0 -1
                       0 -1  0  -1  0  0   0  0 -1       0  1  0   1  0  0   0  0  1
           tolwfr      1.00000000E-20
            typat      1  1  2  2  3  3  3  3  3  3
           useylm           1
              wtk        0.50000    0.50000
           xangst      2.4694968469E+00  1.6417353189E+00  7.4477545084E+00
                       6.7505481311E+00  4.4878021621E+00  6.8113308571E+00
                       0.0000000000E+00  0.0000000000E+00  3.9499277027E+00
                       4.6100224890E+00  3.0647687405E+00  3.1796149800E+00
                       5.4314400121E+00  1.2932282064E+00  5.3901771571E+00
                       5.9256436430E+00  1.6217775449E+00  8.8689082084E+00
                       3.7886049659E+00  4.8363092747E+00  8.8689082084E+00
                       3.2944013351E+00  4.5077599362E+00  5.3901771571E+00
                       6.6319045924E+00  4.4089272738E+00  1.1228491639E+01
                       2.5881403857E+00  1.7206102072E+00  3.0305937266E+00
            xcart      4.6666727267E+00  3.1024301355E+00  1.4074216326E+01
                       1.2756687215E+01  8.4807170250E+00  1.2871549920E+01
                       0.0000000000E+00  0.0000000000E+00  7.4642816028E+00
                       8.7116799707E+00  5.7915735802E+00  6.0086015203E+00
                       1.0263934130E+01  2.4438471374E+00  1.0185958635E+01
                       1.1197843646E+01  3.0647154083E+00  1.6759807612E+01
                       7.1594258113E+00  9.1393000231E+00  1.6759807612E+01
                       6.2255162951E+00  8.5184317522E+00  1.0185958635E+01
                       1.2532483419E+01  8.3316650874E+00  2.1218774083E+01
                       4.8908765224E+00  3.2514820731E+00  5.7269921633E+00
             xred      2.6784000000E-01  2.6784000000E-01  7.2716500000E-01
                       7.3216000000E-01  7.3216000000E-01  2.7283500000E-01
                       0.0000000000E+00  0.0000000000E+00  5.0000000000E-01
                       5.0000000000E-01  5.0000000000E-01  5.5511151231E-17
                       7.3541600000E-01  2.1098300000E-01  3.0139700000E-01
                       7.8901700000E-01  2.6458400000E-01  6.9860300000E-01
                       2.6458400000E-01  7.8901700000E-01  6.9860300000E-01
                       2.1098300000E-01  7.3541600000E-01  3.0139700000E-01
                       7.1929200000E-01  7.1929200000E-01  8.4233800000E-01
                       2.8070800000E-01  2.8070800000E-01  1.5766200000E-01
            znucl       37.00000   79.00000   35.00000

- Timing analysis has been suppressed with timopt=0

 Suggested references for the acknowledgment of ABINIT usage.

 Calculation completed.
.Delivered   2 WARNINGs and   7 COMMENTs to log file.