.Version 9.5.1 of ABINIT

 ABINIT is a project of the Universite Catholique de Louvain,
 Corning Inc. and other collaborators, see ~abinit/doc/developers/contributors.txt .
 acknowledgments of the ABINIT effort.

.Starting date : Wed 19 May 2021.
- ( at 13h55 )

- input  file    -> /scratch/users/j/a/jabreu/flow_simple_9atoms/flow/w204/t1/run.abi
- output file    -> /scratch/users/j/a/jabreu/flow_simple_9atoms/flow/w204/t1/run.abo
- root for input  files -> /scratch/users/j/a/jabreu/flow_simple_9atoms/flow/w204/t1/indata/in
- root for output files -> /scratch/users/j/a/jabreu/flow_simple_9atoms/flow/w204/t1/outdata/out

 Symmetries : space group Fm -3 m (#225); Bravais cF (face-center cubic)
     intxc =       0      iscf =       7    lmnmax =      18     lnmax =       6
     mgfft =      80  mpssoang =       3    mqgrid =    3041     natom =       9
  nloc_mem =       1    nspden =       1   nspinor =       1    nsppol =       1
      nsym =      48    n1xccc =    2501    ntypat =       3    occopt =       1
   xclevel =       2
-    mband =          48        mffmem =           1         mkmem =           2
-   mkqmem =           2        mk1mem =           2           mpw =       19195
      nfft =      512000          nkpt =           2
  Rough estimation (10% accuracy) of disk space for files :

------------- Echo of variables that govern the present computation ------------
-
- outvars: echo of selected default values
-   iomode0 =  0 , fftalg0 =512 , wfoptalg0 =  0
-
- outvars: echo of global parameters not present in the input file
-  max_nthreads =    0
-
 -outvars: echo values of preprocessed input variables --------
            acell      1.0000000000E+00  1.0000000000E+00  1.0000000000E+00 Bohr
              amu      3.90983000E+01  1.06420000E+02  3.54527000E+01
             ecut      4.10000000E+01 Hartree
-          fftalg         512
           irdden           1
           irdwfk           1
           istwfk        1    1
              ixc     -116133
              kpt      0.00000000E+00  0.00000000E+00  0.00000000E+00
                       5.00000000E-01  0.00000000E+00  5.00000000E-01
           kptopt           0
P           mkmem           2
P          mkqmem           2
P          mk1mem           2
            natom           9
            nband          48
           nbdbuf           4
            ngfft          80      80      80
             nkpt           2
            nstep        2000
             nsym          48
           ntypat           3
              occ      2.000000  2.000000  2.000000  2.000000  2.000000  2.000000
                       2.000000  2.000000  2.000000  2.000000  2.000000  2.000000
                       2.000000  2.000000  2.000000  2.000000  2.000000  2.000000
                       2.000000  2.000000  2.000000  2.000000  2.000000  2.000000
                       2.000000  2.000000  2.000000  2.000000  2.000000  2.000000
                       2.000000  2.000000  2.000000  2.000000  2.000000  2.000000
                       2.000000  2.000000  2.000000  0.000000  0.000000  0.000000
                       0.000000  0.000000  0.000000  0.000000  0.000000  0.000000
        optdriver           1
            prtwf          -1
            rfdir           1       1       1
           rfelfd           2
            rprim      1.1188052237E+01  0.0000000000E+00  6.4594249706E+00
                       3.7293507456E+00  1.0548196807E+01  6.4594249706E+00
                       0.0000000000E+00  0.0000000000E+00  1.2918849941E+01
          spgroup         225
           symrel      1  0  0   0  1  0   0  0  1      -1  0  0   0 -1  0   0  0 -1
                       0 -1  1   0 -1  0   1 -1  0       0  1 -1   0  1  0  -1  1  0
                      -1  0  0  -1  0  1  -1  1  0       1  0  0   1  0 -1   1 -1  0
                       0  1 -1   1  0 -1   0  0 -1       0 -1  1  -1  0  1   0  0  1
                      -1  0  0  -1  1  0  -1  0  1       1  0  0   1 -1  0   1  0 -1
                       0 -1  1   1 -1  0   0 -1  0       0  1 -1  -1  1  0   0  1  0
                       1  0  0   0  0  1   0  1  0      -1  0  0   0  0 -1   0 -1  0
                       0  1 -1   0  0 -1   1  0 -1       0 -1  1   0  0  1  -1  0  1
                      -1  0  1  -1  1  0  -1  0  0       1  0 -1   1 -1  0   1  0  0
                       0 -1  0   1 -1  0   0 -1  1       0  1  0  -1  1  0   0  1 -1
                       1  0 -1   0  0 -1   0  1 -1      -1  0  1   0  0  1   0 -1  1
                       0  1  0   0  0  1   1  0  0       0 -1  0   0  0 -1  -1  0  0
                       1  0 -1   0  1 -1   0  0 -1      -1  0  1   0 -1  1   0  0  1
                       0 -1  0   0 -1  1   1 -1  0       0  1  0   0  1 -1  -1  1  0
                      -1  0  1  -1  0  0  -1  1  0       1  0 -1   1  0  0   1 -1  0
                       0  1  0   1  0  0   0  0  1       0 -1  0  -1  0  0   0  0 -1
                       0  0 -1   0  1 -1   1  0 -1       0  0  1   0 -1  1  -1  0  1
                       1 -1  0   0 -1  1   0 -1  0      -1  1  0   0  1 -1   0  1  0
                       0  0  1   1  0  0   0  1  0       0  0 -1  -1  0  0   0 -1  0
                      -1  1  0  -1  0  0  -1  0  1       1 -1  0   1  0  0   1  0 -1
                       0  0  1   0  1  0   1  0  0       0  0 -1   0 -1  0  -1  0  0
                       1 -1  0   0 -1  0   0 -1  1      -1  1  0   0  1  0   0  1 -1
                       0  0 -1   1  0 -1   0  1 -1       0  0  1  -1  0  1   0 -1  1
                      -1  1  0  -1  0  1  -1  0  0       1 -1  0   1  0 -1   1  0  0
           tolwfr      1.00000000E-20
            typat      1  1  2  3  3  3  3  3  3
           useylm           1
              wtk        0.50000    0.50000
           xangst      1.9734874174E+00  1.3954663354E+00  3.4181804751E+00
                       5.9204622522E+00  4.1863990063E+00  1.0254541425E+01
                       0.0000000000E+00  0.0000000000E+00  0.0000000000E+00
                       2.9173867143E+00  4.2469901546E+00  8.6196598857E+00
                       1.8877985937E+00  1.3348751872E+00  6.8363609501E+00
                       6.0061510759E+00  4.2469901546E+00  6.8363609501E+00
                       4.9765629554E+00  1.3348751872E+00  5.0530620145E+00
                       2.9173867143E+00  4.2469901546E+00  5.0530620145E+00
                       4.9765629554E+00  1.3348751872E+00  8.6196598857E+00
            xcart      3.7293507456E+00  2.6370492016E+00  6.4594249706E+00
                       1.1188052237E+01  7.9111476049E+00  1.9378274912E+01
                       0.0000000000E+00  0.0000000000E+00  0.0000000000E+00
                       5.5130619137E+00  8.0256482813E+00  1.6288796543E+01
                       3.5674223362E+00  2.5225485253E+00  1.2918849941E+01
                       1.1349980646E+01  8.0256482813E+00  1.2918849941E+01
                       9.4043410687E+00  2.5225485253E+00  9.5489033398E+00
                       5.5130619137E+00  8.0256482813E+00  9.5489033398E+00
                       9.4043410687E+00  2.5225485253E+00  1.6288796543E+01
             xred      2.5000000000E-01  2.5000000000E-01  2.5000000000E-01
                       7.5000000000E-01  7.5000000000E-01  7.5000000000E-01
                       0.0000000000E+00  0.0000000000E+00  0.0000000000E+00
                       2.3914500000E-01  7.6085500000E-01  7.6085500000E-01
                       2.3914500000E-01  2.3914500000E-01  7.6085500000E-01
                       7.6085500000E-01  7.6085500000E-01  2.3914500000E-01
                       7.6085500000E-01  2.3914500000E-01  2.3914500000E-01
                       2.3914500000E-01  7.6085500000E-01  2.3914500000E-01
                       7.6085500000E-01  2.3914500000E-01  7.6085500000E-01
            znucl       19.00000   46.00000   17.00000

 chkinp: Checking input parameters for consistency.

== DATASET  1 ==================================================================
-   mpi_nproc: 1, omp_nthreads: -1 (-1 if OMP is not activated)

--- !DatasetInfo
iteration_state: {dtset: 1, }
dimensions: {natom: 9, nkpt: 2, mband: 48, nsppol: 1, nspinor: 1, nspden: 1, mpw: 19195, }
cutoff_energies: {ecut:  41.0, pawecutdg:  -1.0, }
electrons: {nelect:   7.80000000E+01, charge:   0.00000000E+00, occopt:   1.00000000E+00, tsmear:   1.00000000E-02, }
meta: {optdriver: 1, rfelfd: 2, }
...

 Real(R)+Recip(G) space primitive vectors, cartesian coordinates (Bohr,Bohr^-1):
 R(1)= 11.1880522  0.0000000  6.4594250  G(1)=  0.0893811 -0.0316010  0.0000000
 R(2)=  3.7293507 10.5481968  6.4594250  G(2)=  0.0000000  0.0948029  0.0000000
 R(3)=  0.0000000  0.0000000 12.9188499  G(3)= -0.0446905 -0.0316010  0.0774063
 Unit cell volume ucvol=  1.5246023E+03 bohr^3
 Angles (23,13,12)=  6.00000000E+01  6.00000000E+01  6.00000000E+01 degrees

 getcut: wavevector=  0.0000  0.0000  0.0000  ngfft=  80  80  80
         ecut(hartree)=     41.000   => boxcut(ratio)=   2.14837

--- Pseudopotential description ------------------------------------------------
- pspini: atom type   1  psp file is /scratch/users/j/a/jabreu/pseudos/PBEsol/K.psp8
- pspatm: opening atomic psp file    /scratch/users/j/a/jabreu/pseudos/PBEsol/K.psp8
- K     ONCVPSP-3.3.0  r_core=   1.36296   1.46408   1.61068
- 19.00000   9.00000    180112                znucl, zion, pspdat
    8 -116133    2    4       400   0.00000   pspcod,pspxc,lmax,lloc,mmax,r2well
    3.99000000000000    5.00000000000000    0.00000000000000   rchrg,fchrg,qchrg
     nproj     2     2     2
     extension_switch     1
  pspatm : epsatm=    8.32487830
         --- l  ekb(1:nproj) -->
             0   10.921326    0.816676
             1    4.431000    0.560368
             2   -3.384038   -1.043186
 pspatm: atomic psp has been read  and splines computed

- pspini: atom type   2  psp file is /scratch/users/j/a/jabreu/pseudos/PBEsol/Pd.psp8
- pspatm: opening atomic psp file    /scratch/users/j/a/jabreu/pseudos/PBEsol/Pd.psp8
- Pd    ONCVPSP-3.3.0  r_core=   1.41052   1.46191   1.55175
- 46.00000  18.00000    180112                znucl, zion, pspdat
    8 -116133    2    4       600   0.00000   pspcod,pspxc,lmax,lloc,mmax,r2well
    5.99000000000000    7.00000000000000    0.00000000000000   rchrg,fchrg,qchrg
     nproj     2     2     2
     extension_switch     1
  pspatm : epsatm=   26.17262427
         --- l  ekb(1:nproj) -->
             0    7.952303   -2.096627
             1    3.304793   -0.572651
             2   -1.185452   -0.410427
 pspatm: atomic psp has been read  and splines computed

- pspini: atom type   3  psp file is /scratch/users/j/a/jabreu/pseudos/PBEsol/Cl.psp8
- pspatm: opening atomic psp file    /scratch/users/j/a/jabreu/pseudos/PBEsol/Cl.psp8
- Cl    ONCVPSP-3.3.0  r_core=   1.56009   1.35202   1.75774
- 17.00000   7.00000    180112                znucl, zion, pspdat
    8 -116133    2    4       600   0.00000   pspcod,pspxc,lmax,lloc,mmax,r2well
    5.99000000000000    8.00000000000000    0.00000000000000   rchrg,fchrg,qchrg
     nproj     2     2     2
     extension_switch     1
  pspatm : epsatm=    8.95520722
         --- l  ekb(1:nproj) -->
[...]
-ETOT  1  -26.723901108319     -2.672E+01 1.395E-01 0.000E+00
 ETOT  2  -26.781848058262     -5.795E-02 2.058E-03 0.000E+00
 ETOT  3  -26.782356129067     -5.081E-04 7.017E-04 0.000E+00
 ETOT  4  -26.782363723418     -7.594E-06 2.720E-05 0.000E+00
 ETOT  5  -26.782363866705     -1.433E-07 1.091E-05 0.000E+00
 ETOT  6  -26.782363869761     -3.056E-09 5.991E-07 0.000E+00
 ETOT  7  -26.782363869830     -6.940E-11 2.184E-07 0.000E+00
 ETOT  8  -26.782363869832     -1.648E-12 1.841E-08 0.000E+00
 ETOT  9  -26.782363869832     -5.684E-14 4.793E-09 0.000E+00
 ETOT 10  -26.782363869832      0.000E+00 1.231E-09 0.000E+00
 ETOT 11  -26.782363869832      1.776E-14 3.417E-10 0.000E+00
 ETOT 12  -26.782363869832     -2.487E-14 8.349E-11 0.000E+00
 ETOT 13  -26.782363869832      2.132E-14 2.422E-11 0.000E+00
 ETOT 14  -26.782363869832     -1.066E-14 5.627E-12 0.000E+00
 ETOT 15  -26.782363869832      0.000E+00 1.727E-12 0.000E+00
 ETOT 16  -26.782363869832     -7.105E-15 3.859E-13 0.000E+00
 ETOT 17  -26.782363869832      0.000E+00 1.249E-13 0.000E+00
 ETOT 18  -26.782363869832      0.000E+00 2.694E-14 0.000E+00
 ETOT 19  -26.782363869832      0.000E+00 9.139E-15 0.000E+00
 ETOT 20  -26.782363869832      1.421E-14 1.910E-15 0.000E+00
 ETOT 21  -26.782363869832     -1.776E-14 6.738E-16 0.000E+00
 ETOT 22  -26.782363869832      2.132E-14 1.371E-16 0.000E+00
 ETOT 23  -26.782363869832     -1.421E-14 4.996E-17 0.000E+00
 ETOT 24  -26.782363869832      0.000E+00 9.935E-18 0.000E+00
 ETOT 25  -26.782363869832      3.553E-15 3.718E-18 0.000E+00
 ETOT 26  -26.782363869832      3.553E-15 7.249E-19 0.000E+00
 ETOT 27  -26.782363869832     -1.066E-14 2.775E-19 0.000E+00
 ETOT 28  -26.782363869832     -3.553E-15 5.317E-20 0.000E+00
 ETOT 29  -26.782363869832      3.553E-15 2.075E-20 0.000E+00
 ETOT 30  -26.782363869832      0.000E+00 9.886E-21 0.000E+00

 At SCF step   30   max residual=  9.89E-21 < tolwfr=  1.00E-20 =>converged.

 ----iterations are completed or convergence reached----

 dfpt_looppert: DFPT cycle converged with prtwf=-1. Will skip output of the 1st-order WFK file.
 dfpt_looppert : ek2=    5.5351307819E+01
          f-sum rule ratio=    1.0369195911E+00
 prteigrs : about to open file /scratch/users/j/a/jabreu/flow_simple_9atoms/flow/w204/t1/tmpdata/tmp_1WF1_EIG
 Expectation of eigenvalue derivatives (hartree) for nkpt=   2  k points:
  (in case of degenerate eigenvalues, averaged derivative)
 kpt#   1, nband= 48, wtk=  0.50000, kpt=  0.0000  0.0000  0.0000 (reduced coord)
   0.00000    0.00000    0.00000    0.00000   -0.00000   -0.00000    0.00000   -0.00000
  -0.00000   -0.00000   -0.00000   -0.00000   -0.00000   -0.00000   -0.00000    0.00000
   0.00000    0.00000   -0.00000   -0.00000   -0.00000    0.00000    0.00000    0.00000
  -0.00000   -0.00000   -0.00000   -0.00000   -0.00000   -0.00000    0.00000    0.00000
   0.00000   -0.00000   -0.00000   -0.00000    0.00000    0.00000    0.00000    0.00000
   0.00000   -0.00000   -0.00000    0.00000    0.00000    0.00000   -0.00000   -0.00000
 prteigrs : prtvol=0 or 1, do not print more k-points.

 Eight components of 2nd-order total energy (hartree) are
 1,2,3: 0th-order hamiltonian combined with 1st-order wavefunctions
     kin0=   3.95298632E+01 eigvalue=   1.85294251E+00  local=  -2.24896903E+01
 4,5,6: 1st-order hamiltonian combined with 1st and 0th-order wfs
     kin1=  -5.73948555E+01  Hartree=   0.00000000E+00     xc=   0.00000000E+00
 7,8,9: eventually, occupation + non-local contributions
    edocc=   6.53320830E+00     enl0=   1.35604015E+00   enl1=   3.83012773E+00
 1-9 gives the relaxation energy (to be shifted if some occ is /=2.0)
   erelax=  -2.67823639E+01
  No Ewald or frozen-wf contrib.: the relaxation energy is the total one
 2DEtotal=   -0.2678236387E+02 Ha. Also 2DEtotal=   -0.728785183940E+03 eV
    (  non-var. 2DEtotal :   -2.6782363870E+01 Ha)

 CALCULATION OF EFFECTIVE MASSES
 NOTE : Additional infos (eff. mass eigenvalues, eigenvectors and, if degenerate, average mass) are available in stdout.

 COMMENTS:
 - At k-point ( 0.000, 0.000, 0.000), bands    37 through    39
   are DEGENERATE (effective mass tensor is therefore not defined).
   See Section IIIB Eqs. (67)-(70) and Appendix E of PRB 93 205147 (2016).
 - Angular average effective mass for Frohlich model is to be averaged over degenerate bands. See later.
 - Associated theta integrals calculated with ntheta=   1000 points.

 K-point ( 0.000, 0.000, 0.000) | band =    37
 Transport equivalent effective mass tensor:
             -1.0034719621             -0.0000002902              0.0000000027
             -0.0000002902             -1.0034716500              0.0000000046
              0.0000000027              0.0000000046             -1.0034703140
 Transport equivalent effective mass tensor eigenvalues:
             -1.0034721355             -1.0034714766             -1.0034703140
 Angular average effective mass 1/(<1/m>)=  -0.9559765128
 Angular average effective mass for Frohlich model (<m**0.5>)**2=  -0.9578209026
 Effective masses along directions: (cart. coord. / red. coord. -> eff. mass)
    1:   1.000000  0.000000  0.000000 /   0.948683  0.316228  0.000000 ->  -1.0150731733
    2:   0.000000  1.000000  0.000000 /   0.000000  1.000000  0.000000 ->  -1.1421849641
    3:   0.000000  0.000000  1.000000 /   0.408248  0.408248  0.816497 ->  -0.9134201662
    4:   0.577350  0.577350  0.577350 /   0.585539  0.688047  0.428644 ->  -0.9824798139
    5:   0.000000  0.707107  0.707107 /   0.289489  0.762222  0.578977 ->  -0.9193185937
    6:   0.707107  0.000000  0.707107 /   0.731423  0.422287  0.535439 ->  -0.9452134940
    7:   0.707107  0.707107  0.000000 /   0.616798  0.787122  0.000000 ->  -0.9213353146

[...]

 K-point ( 0.000, 0.000, 0.000) | band =    39
 Transport equivalent effective mass tensor:
            -53.1743731844              0.0000001103              0.0000000662
              0.0000001103            -53.1743729056              0.0000001579
              0.0000000662              0.0000001579            -53.1743730027
 Transport equivalent effective mass tensor eigenvalues:
            -53.1743732236            -53.1743731180            -53.1743727511
 Angular average effective mass 1/(<1/m>)=  -3.6394926067
 Angular average effective mass for Frohlich model (<m**0.5>)**2=  -4.5951173587
 Effective masses along directions: (cart. coord. / red. coord. -> eff. mass)
    1:   1.000000  0.000000  0.000000 /   0.948683  0.316228  0.000000 ->  -3.1032783970
    2:   0.000000  1.000000  0.000000 /   0.000000  1.000000  0.000000 ->  -2.1038194580
    3:   0.000000  0.000000  1.000000 /   0.408248  0.408248  0.816497 ->  -2.7345550128
    4:   0.577350  0.577350  0.577350 /   0.585539  0.688047  0.428644 ->  -3.0019388383
    5:   0.000000  0.707107  0.707107 /   0.289489  0.762222  0.578977 ->  -5.2547443939
    6:   0.707107  0.000000  0.707107 /   0.731423  0.422287  0.535439 ->  -2.9211816140
    7:   0.707107  0.707107  0.000000 /   0.616798  0.787122  0.000000 -> -15.9647125820

 Angular average effective mass for Frohlich model, averaged over degenerate bands.
 Value of     (<<m**0.5>>)**2 =     1.938681E+00
 Absolute Value of <<m**0.5>> =     1.392365E+00

 K-point ( 0.500, 0.000, 0.500) | band =    40
 Effective mass tensor:
              0.6025170213              0.0067912666             -0.0083198192
              0.0067912666              0.5977125429              0.0117651695
             -0.0083198192              0.0117651695              0.5929094036
 Effective mass tensor eigenvalues:
              0.5785006152              0.6073178150              0.6073205374
 Angular average effective mass 1/(<1/m>)=   0.5973991727
 Angular average effective mass for Frohlich model (<m**0.5>)**2=   0.5974940964
 Effective masses along directions: (cart. coord. / red. coord. -> eff. mass)
    1:   1.000000  0.000000  0.000000 /   0.948683  0.316228  0.000000 ->   0.6023192842
    2:   0.000000  1.000000  0.000000 /   0.000000  1.000000  0.000000 ->   0.5973987551
    3:   0.000000  0.000000  1.000000 /   0.408248  0.408248  0.816497 ->   0.5925592017
    4:   0.577350  0.577350  0.577350 /   0.585539  0.688047  0.428644 ->   0.6044128592
    5:   0.000000  0.707107  0.707107 /   0.289489  0.762222  0.578977 ->   0.6070641585
    6:   0.707107  0.000000  0.707107 /   0.731423  0.422287  0.535439 ->   0.5890660307
    7:   0.707107  0.707107  0.000000 /   0.616798  0.787122  0.000000 ->   0.6068858281

 END OF EFFECTIVE MASSES SECTION

 ---- first-order wavefunction calculations are completed ----

 Total localisation tensor (bohr^2) in cartesian coordinates
  WARNING : still subject to testing - especially symmetries.
      direction              matrix element
   alpha     beta       real part   imaginary part
     1        1       1.2141452398    0.0000000000
     1        2       0.3434151860    0.0000000000
     1        3       0.8411857436    0.0000000000
     2        1       0.3434151860    0.0000000000
     2        2       0.9713248272    0.0000000000
     2        3       0.5948125503    0.0000000000
     3        1       0.8411857436    0.0000000000
     3        2       0.5948125503    0.0000000000
     3        3       2.1854629146    0.0000000000

 respfn : d/dk was computed, but no 2DTE, so no DDB output.

== END DATASET(S) ==============================================================

 -outvars: echo values of variables after computation  --------
            acell      1.0000000000E+00  1.0000000000E+00  1.0000000000E+00 Bohr
              amu      3.90983000E+01  1.06420000E+02  3.54527000E+01
             ecut      4.10000000E+01 Hartree
           etotal     -2.6782363870E+01
            fcart      0.0000000000E+00  0.0000000000E+00  0.0000000000E+00
                       0.0000000000E+00  0.0000000000E+00  0.0000000000E+00
                       0.0000000000E+00  0.0000000000E+00  0.0000000000E+00
                       0.0000000000E+00  0.0000000000E+00  0.0000000000E+00
                       0.0000000000E+00  0.0000000000E+00  0.0000000000E+00
                       0.0000000000E+00  0.0000000000E+00  0.0000000000E+00
                       0.0000000000E+00  0.0000000000E+00  0.0000000000E+00
                       0.0000000000E+00  0.0000000000E+00  0.0000000000E+00
                       0.0000000000E+00  0.0000000000E+00  0.0000000000E+00
-          fftalg         512
           irdden           1
           irdwfk           1
           istwfk        1    1
              ixc     -116133
              kpt      0.00000000E+00  0.00000000E+00  0.00000000E+00
                       5.00000000E-01  0.00000000E+00  5.00000000E-01
           kptopt           0
P           mkmem           2
P          mkqmem           2
P          mk1mem           2
            natom           9
            nband          48
           nbdbuf           4
            ngfft          80      80      80
             nkpt           2
            nstep        2000
             nsym          48
           ntypat           3
              occ      2.000000  2.000000  2.000000  2.000000  2.000000  2.000000
                       2.000000  2.000000  2.000000  2.000000  2.000000  2.000000
                       2.000000  2.000000  2.000000  2.000000  2.000000  2.000000
                       2.000000  2.000000  2.000000  2.000000  2.000000  2.000000
                       2.000000  2.000000  2.000000  2.000000  2.000000  2.000000
                       2.000000  2.000000  2.000000  2.000000  2.000000  2.000000
                       2.000000  2.000000  2.000000  0.000000  0.000000  0.000000
                       0.000000  0.000000  0.000000  0.000000  0.000000  0.000000
        optdriver           1
            prtwf          -1
            rfdir           1       1       1
           rfelfd           2
            rprim      1.1188052237E+01  0.0000000000E+00  6.4594249706E+00
                       3.7293507456E+00  1.0548196807E+01  6.4594249706E+00
                       0.0000000000E+00  0.0000000000E+00  1.2918849941E+01
          spgroup         225
           strten      0.0000000000E+00  0.0000000000E+00  0.0000000000E+00
                       0.0000000000E+00  0.0000000000E+00  0.0000000000E+00
           symrel      1  0  0   0  1  0   0  0  1      -1  0  0   0 -1  0   0  0 -1
                       0 -1  1   0 -1  0   1 -1  0       0  1 -1   0  1  0  -1  1  0
                      -1  0  0  -1  0  1  -1  1  0       1  0  0   1  0 -1   1 -1  0
                       0  1 -1   1  0 -1   0  0 -1       0 -1  1  -1  0  1   0  0  1
                      -1  0  0  -1  1  0  -1  0  1       1  0  0   1 -1  0   1  0 -1
                       0 -1  1   1 -1  0   0 -1  0       0  1 -1  -1  1  0   0  1  0
                       1  0  0   0  0  1   0  1  0      -1  0  0   0  0 -1   0 -1  0
                       0  1 -1   0  0 -1   1  0 -1       0 -1  1   0  0  1  -1  0  1
                      -1  0  1  -1  1  0  -1  0  0       1  0 -1   1 -1  0   1  0  0
                       0 -1  0   1 -1  0   0 -1  1       0  1  0  -1  1  0   0  1 -1
                       1  0 -1   0  0 -1   0  1 -1      -1  0  1   0  0  1   0 -1  1
                       0  1  0   0  0  1   1  0  0       0 -1  0   0  0 -1  -1  0  0
                       1  0 -1   0  1 -1   0  0 -1      -1  0  1   0 -1  1   0  0  1
                       0 -1  0   0 -1  1   1 -1  0       0  1  0   0  1 -1  -1  1  0
                      -1  0  1  -1  0  0  -1  1  0       1  0 -1   1  0  0   1 -1  0
                       0  1  0   1  0  0   0  0  1       0 -1  0  -1  0  0   0  0 -1
                       0  0 -1   0  1 -1   1  0 -1       0  0  1   0 -1  1  -1  0  1
                       1 -1  0   0 -1  1   0 -1  0      -1  1  0   0  1 -1   0  1  0
                       0  0  1   1  0  0   0  1  0       0  0 -1  -1  0  0   0 -1  0
                      -1  1  0  -1  0  0  -1  0  1       1 -1  0   1  0  0   1  0 -1
                       0  0  1   0  1  0   1  0  0       0  0 -1   0 -1  0  -1  0  0
                       1 -1  0   0 -1  0   0 -1  1      -1  1  0   0  1  0   0  1 -1
                       0  0 -1   1  0 -1   0  1 -1       0  0  1  -1  0  1   0 -1  1
                      -1  1  0  -1  0  1  -1  0  0       1 -1  0   1  0 -1   1  0  0
           tolwfr      1.00000000E-20
            typat      1  1  2  3  3  3  3  3  3
           useylm           1
              wtk        0.50000    0.50000
           xangst      1.9734874174E+00  1.3954663354E+00  3.4181804751E+00
                       5.9204622522E+00  4.1863990063E+00  1.0254541425E+01
                       0.0000000000E+00  0.0000000000E+00  0.0000000000E+00
                       2.9173867143E+00  4.2469901546E+00  8.6196598857E+00
                       1.8877985937E+00  1.3348751872E+00  6.8363609501E+00
                       6.0061510759E+00  4.2469901546E+00  6.8363609501E+00
                       4.9765629554E+00  1.3348751872E+00  5.0530620145E+00
                       2.9173867143E+00  4.2469901546E+00  5.0530620145E+00
                       4.9765629554E+00  1.3348751872E+00  8.6196598857E+00
            xcart      3.7293507456E+00  2.6370492016E+00  6.4594249706E+00
                       1.1188052237E+01  7.9111476049E+00  1.9378274912E+01
                       0.0000000000E+00  0.0000000000E+00  0.0000000000E+00
                       5.5130619137E+00  8.0256482813E+00  1.6288796543E+01
                       3.5674223362E+00  2.5225485253E+00  1.2918849941E+01
                       1.1349980646E+01  8.0256482813E+00  1.2918849941E+01
                       9.4043410687E+00  2.5225485253E+00  9.5489033398E+00
                       5.5130619137E+00  8.0256482813E+00  9.5489033398E+00
                       9.4043410687E+00  2.5225485253E+00  1.6288796543E+01
             xred      2.5000000000E-01  2.5000000000E-01  2.5000000000E-01
                       7.5000000000E-01  7.5000000000E-01  7.5000000000E-01
                       0.0000000000E+00  0.0000000000E+00  0.0000000000E+00
                       2.3914500000E-01  7.6085500000E-01  7.6085500000E-01
                       2.3914500000E-01  2.3914500000E-01  7.6085500000E-01
                       7.6085500000E-01  7.6085500000E-01  2.3914500000E-01
                       7.6085500000E-01  2.3914500000E-01  2.3914500000E-01
                       2.3914500000E-01  7.6085500000E-01  2.3914500000E-01
                       7.6085500000E-01  2.3914500000E-01  7.6085500000E-01
            znucl       19.00000   46.00000   17.00000

- Timing analysis has been suppressed with timopt=0

 Suggested references for the acknowledgment of ABINIT usage.

 Calculation completed.
.Delivered  14 WARNINGs and   9 COMMENTs to log file.