.Version 9.5.2 of ABINIT

 ABINIT is a project of the Universite Catholique de Louvain,
 Corning Inc. and other collaborators, see ~abinit/doc/developers/contributors.txt .
 acknowledgments of the ABINIT effort.

.Starting date : Mon 31 May 2021.
- ( at 22h52 )

- input  file    -> /scratch/users/j/a/jabreu/flow_simple_11atoms/flow/w386/t1/run.abi
- output file    -> /scratch/users/j/a/jabreu/flow_simple_11atoms/flow/w386/t1/run.abo
- root for input  files -> /scratch/users/j/a/jabreu/flow_simple_11atoms/flow/w386/t1/indata/in
- root for output files -> /scratch/users/j/a/jabreu/flow_simple_11atoms/flow/w386/t1/outdata/out

 Symmetries : space group I4_1/a (# 88); Bravais tI (body-center tetrag.)
     intxc =       0      iscf =       7    lmnmax =      18     lnmax =       6
     mgfft =      96  mpssoang =       3    mqgrid =    3212     natom =      12
  nloc_mem =       1    nspden =       1   nspinor =       1    nsppol =       1
      nsym =       8    n1xccc =    2501    ntypat =       3    occopt =       1
   xclevel =       2
-    mband =          59        mffmem =           1         mkmem =           1
-   mkqmem =           1        mk1mem =           1           mpw =       25175
      nfft =      884736          nkpt =           1
  Rough estimation (10% accuracy) of disk space for files :

------------- Echo of variables that govern the present computation ------------
-
- outvars: echo of selected default values
-   iomode0 =  0 , fftalg0 =512 , wfoptalg0 =  0
-
- outvars: echo of global parameters not present in the input file
-  max_nthreads =    0
-
 -outvars: echo values of preprocessed input variables --------
            acell      1.0000000000E+00  1.0000000000E+00  1.0000000000E+00 Bohr
              amu      3.90983000E+01  2.04383300E+02  3.54527000E+01
             ecut      3.60000000E+01 Hartree
-          fftalg         512
           irdden           1
           irdwfk           1
           istwfk        1
              ixc     -116133
           kptopt           0
P           mkmem           1
P          mkqmem           1
P          mk1mem           1
            natom          12
            nband          59
           nbdbuf           4
            ngfft          96      96      96
             nkpt           1
            nstep        2000
             nsym           8
           ntypat           3
              occ      2.000000  2.000000  2.000000  2.000000  2.000000  2.000000
                       2.000000  2.000000  2.000000  2.000000  2.000000  2.000000
                       2.000000  2.000000  2.000000  2.000000  2.000000  2.000000
                       2.000000  2.000000  2.000000  2.000000  2.000000  2.000000
                       2.000000  2.000000  2.000000  2.000000  2.000000  2.000000
                       2.000000  2.000000  2.000000  2.000000  2.000000  2.000000
                       2.000000  2.000000  2.000000  2.000000  2.000000  2.000000
                       2.000000  2.000000  2.000000  2.000000  2.000000  2.000000
                       2.000000  2.000000  0.000000  0.000000  0.000000  0.000000
                       0.000000  0.000000  0.000000  0.000000  0.000000
        optdriver           1
            prtwf          -1
            rfdir           1       1       1
           rfelfd           2
            rprim      1.2072221247E+01  0.0000000000E+00 -1.2009657971E+01
                      -2.0865217010E+00  1.1890540485E+01 -1.2009657971E+01
                       0.0000000000E+00  0.0000000000E+00  1.7028517563E+01
          spgroup          88
           symrel      1  0  0   0  1  0   0  0  1      -1  0  0   0 -1  0   0  0 -1
                       0  1  0   1  0  0  -1 -1 -1       0 -1  0  -1  0  0   1  1  1
                       0  0  1  -1 -1 -1   0  1  0       0  0 -1   1  1  1   0 -1  0
                      -1 -1 -1   0  0  1   1  0  0       1  1  1   0  0 -1  -1  0  0
            tnons      0.0000000  0.0000000  0.0000000    -0.2500000  0.2500000  0.5000000
                      -0.0000000  0.0000000  0.0000000    -0.2500000  0.2500000  0.5000000
                       0.0000000  0.0000000  0.0000000    -0.2500000  0.2500000  0.5000000
                       0.0000000  0.0000000 -0.0000000    -0.2500000  0.2500000  0.5000000
           tolwfr      1.00000000E-20
            typat      1  1  2  2  3  3  3  3  3  3  3  3
           useylm           1
           xangst      2.6421023058E+00  3.1461015112E+00 -6.3552372811E+00
                       7.6898128818E-01  4.7191522669E+00 -1.8496855857E+00
                       4.5152233233E+00  1.5730507556E+00 -1.8496855857E+00
                       4.1046029561E-17  5.2393115034E-16 -5.9894766803E-16
                       3.4627563107E-01  1.0500790206E+00  3.5837221496E+00
                       4.9266862283E+00  5.3037907376E+00 -5.9229296690E+00
                       4.1689476923E+00  5.2297173506E-01  3.5776956553E+00
                       2.1237407147E+00  5.7696465728E+00 -8.1919081289E+00
                       1.2873428793E+00  2.0956072053E+00 -1.3014737862E-02
                       1.8543242319E-01  4.6620363670E+00 -5.0404935914E+00
                       4.8727417065E+00  2.5614630405E+00  3.7387291177E-01
                       3.2256511708E+00  3.2032174111E+00 -3.1644292754E+00
            xcart      4.9928497729E+00  5.9452702425E+00 -1.2009657971E+01
                       1.4531640360E+00  8.9179053638E+00 -3.4953991890E+00
                       8.5325355099E+00  2.9726351213E+00 -3.4953991890E+00
                       7.7565754713E-17  9.9008638663E-16 -1.1318470605E-15
                       6.5436610921E-01  1.9843617667E+00  6.7722533991E+00
                       9.3100877142E+00  1.0022711960E+01 -1.1192714979E+01
                       7.8781694007E+00  9.8827335451E-01  6.7608649753E+00
                       4.0132883280E+00  1.0903051906E+01 -1.5480462869E+01
                       2.4327254809E+00  3.9601237001E+00 -2.4594290251E-02
                       3.5041649599E-01  8.8099719551E+00 -9.5251524623E+00
                       9.2081473417E+00  4.8404636460E+00  7.0651741175E-01
                       6.0955973129E+00  6.0532036511E+00 -5.9799046974E+00
             xred      5.0000000000E-01  5.0000000000E-01  1.3877787808E-17
                       2.5000000000E-01  7.5000000000E-01  5.0000000000E-01
                       7.5000000000E-01  2.5000000000E-01  5.0000000000E-01
                       2.0816681712E-17  8.3266726847E-17  6.9388939039E-18
                       8.3048250000E-02  1.6688575000E-01  5.7397100000E-01
                       9.1688575000E-01  8.4291475000E-01  5.8383750000E-01
                       6.6695175000E-01  8.3114250000E-02  9.2602900000E-01
                       4.9092275000E-01  9.1695175000E-01  8.3837500000E-02
                       2.5907725000E-01  3.3304825000E-01  4.1616250000E-01
                       1.5708525000E-01  7.4092275000E-01  7.3971000000E-02
                       8.3311425000E-01  4.0708525000E-01  9.1616250000E-01
                       5.9291475000E-01  5.0907725000E-01  4.2602900000E-01
            znucl       19.00000   81.00000   17.00000

 chkinp: Checking input parameters for consistency.

== DATASET  1 ==================================================================
-   mpi_nproc: 1, omp_nthreads: -1 (-1 if OMP is not activated)

--- !DatasetInfo
iteration_state: {dtset: 1, }
dimensions: {natom: 12, nkpt: 1, mband: 59, nsppol: 1, nspinor: 1, nspden: 1, mpw: 25175, }
cutoff_energies: {ecut:  36.0, pawecutdg:  -1.0, }
electrons: {nelect:   1.00000000E+02, charge:   0.00000000E+00, occopt:   1.00000000E+00, tsmear:   1.00000000E-02, }
meta: {optdriver: 1, rfelfd: 2, }
...

 Real(R)+Recip(G) space primitive vectors, cartesian coordinates (Bohr,Bohr^-1):
 R(1)= 12.0722212  0.0000000-12.0096580  G(1)=  0.0828348  0.0145356  0.0000000
 R(2)= -2.0865217 11.8905405-12.0096580  G(2)=  0.0000000  0.0841005  0.0000000
 R(3)=  0.0000000  0.0000000 17.0285176  G(3)=  0.0584207  0.0695648  0.0587250
 Unit cell volume ucvol=  2.4443626E+03 bohr^3
 Angles (23,13,12)=  1.34851149E+02  1.34851149E+02  6.57615680E+01 degrees

 getcut: wavevector=  0.0000  0.0000  0.0000  ngfft=  96  96  96
         ecut(hartree)=     36.000   => boxcut(ratio)=   2.08731

--- Pseudopotential description ------------------------------------------------
- pspini: atom type   1  psp file is /scratch/users/j/a/jabreu/pseudos/PBEsol/K.psp8
- pspatm: opening atomic psp file    /scratch/users/j/a/jabreu/pseudos/PBEsol/K.psp8
- K     ONCVPSP-3.3.0  r_core=   1.36296   1.46408   1.61068
- 19.00000   9.00000    180112                znucl, zion, pspdat
    8 -116133    2    4       400   0.00000   pspcod,pspxc,lmax,lloc,mmax,r2well
    3.99000000000000    5.00000000000000    0.00000000000000   rchrg,fchrg,qchrg
     nproj     2     2     2
     extension_switch     1
  pspatm : epsatm=    8.32487830
         --- l  ekb(1:nproj) -->
             0   10.921326    0.816676
             1    4.431000    0.560368
             2   -3.384038   -1.043186
 pspatm: atomic psp has been read  and splines computed

- pspini: atom type   2  psp file is /scratch/users/j/a/jabreu/pseudos/PBEsol/Tl.psp8
- pspatm: opening atomic psp file    /scratch/users/j/a/jabreu/pseudos/PBEsol/Tl.psp8
- Tl    ONCVPSP-3.3.0  r_core=   2.10510   2.60929   2.00701
- 81.00000  13.00000    180112                znucl, zion, pspdat
    8 -116133    2    4       600   0.00000   pspcod,pspxc,lmax,lloc,mmax,r2well
    5.99000000000000    7.00000000000000    0.00000000000000   rchrg,fchrg,qchrg
     nproj     2     2     2
     extension_switch     1
  pspatm : epsatm=   37.24354552
         --- l  ekb(1:nproj) -->
             0    6.297242    0.908324
             1    4.393460    0.899003
             2   -2.697741   -0.589563
 pspatm: atomic psp has been read  and splines computed

- pspini: atom type   3  psp file is /scratch/users/j/a/jabreu/pseudos/PBEsol/Cl.psp8
- pspatm: opening atomic psp file    /scratch/users/j/a/jabreu/pseudos/PBEsol/Cl.psp8
- Cl    ONCVPSP-3.3.0  r_core=   1.56009   1.35202   1.75774
- 17.00000   7.00000    180112                znucl, zion, pspdat
    8 -116133    2    4       600   0.00000   pspcod,pspxc,lmax,lloc,mmax,r2well
    5.99000000000000    8.00000000000000    0.00000000000000   rchrg,fchrg,qchrg
     nproj     2     2     2
     extension_switch     1
  pspatm : epsatm=    8.95520722
         --- l  ekb(1:nproj) -->
             0    8.193503    0.707970
             1    3.869736    1.114731
             2   -2.915303   -0.810552
 pspatm: atomic psp has been read  and splines computed

   1.62778505E+04                                ecore*ucvol(ha*bohr**3)

 ==>  initialize data related to q vector <==

 The list of irreducible perturbations for this q vector is:
    1)    idir= 1    ipert=  13
    2)    idir= 2    ipert=  13
    3)    idir= 3    ipert=  13

 Perturbation wavevector (in red.coord.)   0.000000  0.000000  0.000000
 Perturbation : derivative vs k along direction   1

 dfpt_looppert : COMMENT -
  In a d/dk calculation, iscf is set to -3 automatically.
[...]
solver: {iscf: 7, nstep: 2000, nline: 4, wfoptalg: 0, }
tolerances: {tolwfr: 1.00E-20, }
...

     iter   2DEtotal(Ha)        deltaE(Ha) residm    vres2
-ETOT  1  -58.554852275509     -5.855E+01 6.284E-02 0.000E+00
 ETOT  2  -58.692867408528     -1.380E-01 5.457E-03 0.000E+00
 ETOT  3  -58.695199346367     -2.332E-03 1.486E-03 0.000E+00
 ETOT  4  -58.695272083687     -7.274E-05 2.264E-04 0.000E+00
 ETOT  5  -58.695274825244     -2.742E-06 9.622E-05 0.000E+00
 ETOT  6  -58.695274938012     -1.128E-07 1.590E-05 0.000E+00
 ETOT  7  -58.695274942810     -4.798E-09 7.186E-06 0.000E+00
 ETOT  8  -58.695274943018     -2.084E-10 1.181E-06 0.000E+00
 ETOT  9  -58.695274943028     -9.237E-12 5.546E-07 0.000E+00
 ETOT 10  -58.695274943028     -3.979E-13 8.980E-08 0.000E+00
 ETOT 11  -58.695274943028      6.395E-14 4.339E-08 0.000E+00
 ETOT 12  -58.695274943028     -9.948E-14 6.920E-09 0.000E+00
 ETOT 13  -58.695274943028      4.263E-14 3.422E-09 0.000E+00
 ETOT 14  -58.695274943028      3.553E-14 5.382E-10 0.000E+00
 ETOT 15  -58.695274943028     -3.553E-14 2.712E-10 0.000E+00
 ETOT 16  -58.695274943028     -7.105E-15 4.213E-11 0.000E+00
 ETOT 17  -58.695274943028     -1.421E-14 2.155E-11 0.000E+00
 ETOT 18  -58.695274943028      0.000E+00 3.315E-12 0.000E+00
 ETOT 19  -58.695274943028     -7.105E-15 1.717E-12 0.000E+00
 ETOT 20  -58.695274943028      2.132E-14 2.618E-13 0.000E+00
 ETOT 21  -58.695274943028     -1.421E-14 1.371E-13 0.000E+00
 ETOT 22  -58.695274943028      1.421E-14 2.074E-14 0.000E+00
 ETOT 23  -58.695274943028      0.000E+00 1.095E-14 0.000E+00
 ETOT 24  -58.695274943028      0.000E+00 1.647E-15 0.000E+00
 ETOT 25  -58.695274943028      0.000E+00 8.765E-16 0.000E+00
 ETOT 26  -58.695274943028      0.000E+00 1.312E-16 0.000E+00
 ETOT 27  -58.695274943028      0.000E+00 7.021E-17 0.000E+00
 ETOT 28  -58.695274943028      0.000E+00 1.046E-17 0.000E+00
 ETOT 29  -58.695274943028     -2.842E-14 5.629E-18 0.000E+00
 ETOT 30  -58.695274943028      3.553E-14 8.362E-19 0.000E+00
 ETOT 31  -58.695274943028     -7.105E-15 4.516E-19 0.000E+00
 ETOT 32  -58.695274943028      7.105E-15 6.694E-20 0.000E+00
 ETOT 33  -58.695274943028      7.105E-15 3.626E-20 0.000E+00
 ETOT 34  -58.695274943028     -2.842E-14 9.854E-21 0.000E+00

 At SCF step   34   max residual=  9.85E-21 < tolwfr=  1.00E-20 =>converged.

 ----iterations are completed or convergence reached----

 dfpt_looppert: DFPT cycle converged with prtwf=-1. Will skip output of the 1st-order WFK file.
 dfpt_looppert : ek2=    9.2386357523E+01
          f-sum rule ratio=    1.0169430563E+00
 prteigrs : about to open file /scratch/users/j/a/jabreu/flow_simple_11atoms/flow/w386/t1/tmpdata/tmp_1WF1_EIG
 Expectation of eigenvalue derivatives (hartree) for nkpt=   1  k points:
  (in case of degenerate eigenvalues, averaged derivative)
 kpt#   1, nband= 59, wtk=  1.00000, kpt=  0.0000  0.0000  0.0000 (reduced coord)
  -0.00000    0.00000    0.00000   -0.00000    0.00000    0.00000   -0.00000   -0.00000
  -0.00000   -0.00000    0.00000    0.00000    0.00000   -0.00000   -0.00000   -0.00000
  -0.00000    0.00000   -0.00000    0.00000   -0.00000   -0.00000   -0.00000   -0.00000
  -0.00000   -0.00000    0.00000   -0.00000    0.00000    0.00000    0.00000   -0.00000
  -0.00000   -0.00000    0.00000    0.00000    0.00000    0.00000    0.00000    0.00000
   0.00000    0.00000    0.00000   -0.00000   -0.00000    0.00000    0.00000    0.00000
   0.00000    0.00000   -0.00000   -0.00000    0.00000   -0.00000   -0.00000   -0.00000
  -0.00000    0.00000    0.00000

 Eight components of 2nd-order total energy (hartree) are
 1,2,3: 0th-order hamiltonian combined with 1st-order wavefunctions
     kin0=   7.93367016E+01 eigvalue=   8.54253571E+00  local=  -4.60307280E+01
 4,5,6: 1st-order hamiltonian combined with 1st and 0th-order wfs
     kin1=  -9.39516648E+01  Hartree=   0.00000000E+00     xc=   0.00000000E+00
 7,8,9: eventually, occupation + non-local contributions
    edocc=   9.44232505E+00     enl0=   7.40444060E+00   enl1=  -2.34388851E+01
 1-9 gives the relaxation energy (to be shifted if some occ is /=2.0)
   erelax=  -5.86952749E+01
  No Ewald or frozen-wf contrib.: the relaxation energy is the total one
 2DEtotal=   -0.5869527494E+02 Ha. Also 2DEtotal=   -0.159717965724E+04 eV
    (  non-var. 2DEtotal :   -5.8695274943E+01 Ha)

 CALCULATION OF EFFECTIVE MASSES
 NOTE : Additional infos (eff. mass eigenvalues, eigenvectors and, if degenerate, average mass) are available in stdout.

 COMMENTS:
 - At k-point ( 0.000, 0.000, 0.000), bands    49 through    50
   are DEGENERATE (effective mass tensor is therefore not defined).
   See Section IIIB Eqs. (67)-(70) and Appendix E of PRB 93 205147 (2016).
 - Angular average effective mass for Frohlich model is to be averaged over degenerate bands. See later.
 - Associated theta integrals calculated with ntheta=   1000 points.

 K-point ( 0.000, 0.000, 0.000) | band =    49
 Transport equivalent effective mass tensor:
             -5.8905672894             -5.7906743712             11.6973725929
             -5.7906743712             -7.9228304308             13.9287242053
             11.6973725929             13.9287242053            -29.1640713389
 Transport equivalent effective mass tensor eigenvalues:
            -40.9223773452             -1.0275464522             -1.0275452617
 Angular average effective mass 1/(<1/m>)=  -1.4941814296
 Angular average effective mass for Frohlich model (<m**0.5>)**2=  -2.0648689164
 Effective masses along directions: (cart. coord. / red. coord. -> eff. mass)
    1:   1.000000  0.000000  0.000000 /   0.985390 -0.170312  0.000000 ->  -1.0762551839
    2:   0.000000  1.000000  0.000000 /   0.000000  1.000000  0.000000 ->  -1.1231880542
    3:   0.000000  0.000000  1.000000 /  -0.499348 -0.499348  0.708027 ->  -3.5270820306
    4:   0.577350  0.577350  0.577350 /   0.003644 -0.128452  0.991709 ->  -1.1050882156
    5:   0.000000  0.707107  0.707107 /  -0.576338 -0.005716  0.817191 ->  -1.0672905055
    6:   0.707107  0.000000  0.707107 /   0.002830 -0.637662  0.770311 ->  -1.0728480008
    7:   0.707107  0.707107  0.000000 /   0.776261  0.630412  0.000000 ->  -1.5332037165

 K-point ( 0.000, 0.000, 0.000) | band =    50
 Transport equivalent effective mass tensor:
            -12.1723356749             -8.1296171088             16.4221205569
             -8.1296171088            -15.0254554032             19.5547412318
             16.4221205569             19.5547412318            -44.8463434472
 Transport equivalent effective mass tensor eigenvalues:
            -61.3540091726             -5.3450633494             -5.3450620034
 Angular average effective mass 1/(<1/m>)=  -5.7811102425
 Angular average effective mass for Frohlich model (<m**0.5>)**2=  -7.2422264848
 Effective masses along directions: (cart. coord. / red. coord. -> eff. mass)
    1:   1.000000  0.000000  0.000000 /   0.985390 -0.170312  0.000000 ->  -6.0883583787
    2:   0.000000  1.000000  0.000000 /   0.000000  1.000000  0.000000 ->  -7.0144406484
    3:   0.000000  0.000000  1.000000 /  -0.499348 -0.499348  0.708027 ->  -8.5530158476
    4:   0.577350  0.577350  0.577350 /   0.003644 -0.128452  0.991709 ->  -3.0205866715
    5:   0.000000  0.707107  0.707107 /  -0.576338 -0.005716  0.817191 ->  -5.1432097703
    6:   0.707107  0.000000  0.707107 /   0.002830 -0.637662  0.770311 ->  -6.1311299470
    7:   0.707107  0.707107  0.000000 /   0.776261  0.630412  0.000000 ->  -4.1929228894

 Angular average effective mass for Frohlich model, averaged over degenerate bands.
 Value of     (<<m**0.5>>)**2 =     4.260310E+00
 Absolute Value of <<m**0.5>> =     2.064052E+00

 K-point ( 0.000, 0.000, 0.000) | band =    51
 Effective mass tensor:
              0.6001406522              0.0243914832             -0.0492716660
              0.0243914832              0.6087009626             -0.0586705755
             -0.0492716660             -0.0586705755              0.6981732917
 Effective mass tensor eigenvalues:
              0.5796566361              0.5796566362              0.7477016341
 Angular average effective mass 1/(<1/m>)=   0.6265990873
 Angular average effective mass for Frohlich model (<m**0.5>)**2=   0.6291847866
 Effective masses along directions: (cart. coord. / red. coord. -> eff. mass)
    1:   1.000000  0.000000  0.000000 /   0.985390 -0.170312  0.000000 ->   0.5959842051
    2:   0.000000  1.000000  0.000000 /   0.000000  1.000000  0.000000 ->   0.6030832908
    3:   0.000000  0.000000  1.000000 /  -0.499348 -0.499348  0.708027 ->   0.6888438676
    4:   0.577350  0.577350  0.577350 /   0.003644 -0.128452  0.991709 ->   0.5799005504
    5:   0.000000  0.707107  0.707107 /  -0.576338 -0.005716  0.817191 ->   0.5916122214
    6:   0.707107  0.000000  0.707107 /   0.002830 -0.637662  0.770311 ->   0.5957750120
    7:   0.707107  0.707107  0.000000 /   0.776261  0.630412  0.000000 ->   0.6204462221

 END OF EFFECTIVE MASSES SECTION

 ---- first-order wavefunction calculations are completed ----

 Total localisation tensor (bohr^2) in cartesian coordinates
  WARNING : still subject to testing - especially symmetries.
      direction              matrix element
   alpha     beta       real part   imaginary part
     1        1       1.0981107378    0.0000000000
     1        2      -0.1815151243    0.0000000000
     1        3      -0.8773996164    0.0000000000
     2        1      -0.1815151243    0.0000000000
     2        2       1.0344071344    0.0000000000
     2        3      -1.0447696556    0.0000000000
     3        1      -0.8773996164    0.0000000000
     3        2      -1.0447696556    0.0000000000
     3        3       5.6439594955    0.0000000000

 respfn : d/dk was computed, but no 2DTE, so no DDB output.

== END DATASET(S) ==============================================================

 -outvars: echo values of variables after computation  --------
            acell      1.0000000000E+00  1.0000000000E+00  1.0000000000E+00 Bohr
              amu      3.90983000E+01  2.04383300E+02  3.54527000E+01
             ecut      3.60000000E+01 Hartree
           etotal     -5.8695274943E+01
            fcart      0.0000000000E+00  0.0000000000E+00  0.0000000000E+00
                       0.0000000000E+00  0.0000000000E+00  0.0000000000E+00
                       0.0000000000E+00  0.0000000000E+00  0.0000000000E+00
                       0.0000000000E+00  0.0000000000E+00  0.0000000000E+00
                       0.0000000000E+00  0.0000000000E+00  0.0000000000E+00
                       0.0000000000E+00  0.0000000000E+00  0.0000000000E+00
                       0.0000000000E+00  0.0000000000E+00  0.0000000000E+00
                       0.0000000000E+00  0.0000000000E+00  0.0000000000E+00
                       0.0000000000E+00  0.0000000000E+00  0.0000000000E+00
                       0.0000000000E+00  0.0000000000E+00  0.0000000000E+00
                       0.0000000000E+00  0.0000000000E+00  0.0000000000E+00
                       0.0000000000E+00  0.0000000000E+00  0.0000000000E+00
-          fftalg         512
           irdden           1
           irdwfk           1
           istwfk        1
              ixc     -116133
           kptopt           0
P           mkmem           1
P          mkqmem           1
P          mk1mem           1
            natom          12
            nband          59
           nbdbuf           4
            ngfft          96      96      96
             nkpt           1
            nstep        2000
             nsym           8
           ntypat           3
              occ      2.000000  2.000000  2.000000  2.000000  2.000000  2.000000
                       2.000000  2.000000  2.000000  2.000000  2.000000  2.000000
                       2.000000  2.000000  2.000000  2.000000  2.000000  2.000000
                       2.000000  2.000000  2.000000  2.000000  2.000000  2.000000
                       2.000000  2.000000  2.000000  2.000000  2.000000  2.000000
                       2.000000  2.000000  2.000000  2.000000  2.000000  2.000000
                       2.000000  2.000000  2.000000  2.000000  2.000000  2.000000
                       2.000000  2.000000  2.000000  2.000000  2.000000  2.000000
                       2.000000  2.000000  0.000000  0.000000  0.000000  0.000000
                       0.000000  0.000000  0.000000  0.000000  0.000000
        optdriver           1
            prtwf          -1
            rfdir           1       1       1
           rfelfd           2
            rprim      1.2072221247E+01  0.0000000000E+00 -1.2009657971E+01
                      -2.0865217010E+00  1.1890540485E+01 -1.2009657971E+01
                       0.0000000000E+00  0.0000000000E+00  1.7028517563E+01
          spgroup          88
           strten      0.0000000000E+00  0.0000000000E+00  0.0000000000E+00
                       0.0000000000E+00  0.0000000000E+00  0.0000000000E+00
           symrel      1  0  0   0  1  0   0  0  1      -1  0  0   0 -1  0   0  0 -1
                       0  1  0   1  0  0  -1 -1 -1       0 -1  0  -1  0  0   1  1  1
                       0  0  1  -1 -1 -1   0  1  0       0  0 -1   1  1  1   0 -1  0
                      -1 -1 -1   0  0  1   1  0  0       1  1  1   0  0 -1  -1  0  0
            tnons      0.0000000  0.0000000  0.0000000    -0.2500000  0.2500000  0.5000000
                      -0.0000000  0.0000000  0.0000000    -0.2500000  0.2500000  0.5000000
                       0.0000000  0.0000000  0.0000000    -0.2500000  0.2500000  0.5000000
                       0.0000000  0.0000000 -0.0000000    -0.2500000  0.2500000  0.5000000
           tolwfr      1.00000000E-20
            typat      1  1  2  2  3  3  3  3  3  3  3  3
           useylm           1
           xangst      2.6421023058E+00  3.1461015112E+00 -6.3552372811E+00
                       7.6898128818E-01  4.7191522669E+00 -1.8496855857E+00
                       4.5152233233E+00  1.5730507556E+00 -1.8496855857E+00
                       4.1046029561E-17  5.2393115034E-16 -5.9894766803E-16
                       3.4627563107E-01  1.0500790206E+00  3.5837221496E+00
                       4.9266862283E+00  5.3037907376E+00 -5.9229296690E+00
                       4.1689476923E+00  5.2297173506E-01  3.5776956553E+00
                       2.1237407147E+00  5.7696465728E+00 -8.1919081289E+00
                       1.2873428793E+00  2.0956072053E+00 -1.3014737862E-02
                       1.8543242319E-01  4.6620363670E+00 -5.0404935914E+00
                       4.8727417065E+00  2.5614630405E+00  3.7387291177E-01
                       3.2256511708E+00  3.2032174111E+00 -3.1644292754E+00
            xcart      4.9928497729E+00  5.9452702425E+00 -1.2009657971E+01
                       1.4531640360E+00  8.9179053638E+00 -3.4953991890E+00
                       8.5325355099E+00  2.9726351213E+00 -3.4953991890E+00
                       7.7565754713E-17  9.9008638663E-16 -1.1318470605E-15
                       6.5436610921E-01  1.9843617667E+00  6.7722533991E+00
                       9.3100877142E+00  1.0022711960E+01 -1.1192714979E+01
                       7.8781694007E+00  9.8827335451E-01  6.7608649753E+00
                       4.0132883280E+00  1.0903051906E+01 -1.5480462869E+01
                       2.4327254809E+00  3.9601237001E+00 -2.4594290251E-02
                       3.5041649599E-01  8.8099719551E+00 -9.5251524623E+00
                       9.2081473417E+00  4.8404636460E+00  7.0651741175E-01
                       6.0955973129E+00  6.0532036511E+00 -5.9799046974E+00
             xred      5.0000000000E-01  5.0000000000E-01  1.3877787808E-17
                       2.5000000000E-01  7.5000000000E-01  5.0000000000E-01
                       7.5000000000E-01  2.5000000000E-01  5.0000000000E-01
                       2.0816681712E-17  8.3266726847E-17  6.9388939039E-18
                       8.3048250000E-02  1.6688575000E-01  5.7397100000E-01
                       9.1688575000E-01  8.4291475000E-01  5.8383750000E-01
                       6.6695175000E-01  8.3114250000E-02  9.2602900000E-01
                       4.9092275000E-01  9.1695175000E-01  8.3837500000E-02
                       2.5907725000E-01  3.3304825000E-01  4.1616250000E-01
                       1.5708525000E-01  7.4092275000E-01  7.3971000000E-02
                       8.3311425000E-01  4.0708525000E-01  9.1616250000E-01
                       5.9291475000E-01  5.0907725000E-01  4.2602900000E-01
            znucl       19.00000   81.00000   17.00000

- Timing analysis has been suppressed with timopt=0

 Suggested references for the acknowledgment of ABINIT usage.

 Calculation completed.
.Delivered   2 WARNINGs and   5 COMMENTs to log file.