.Version 9.7.2 of ABINIT

 ABINIT is a project of the Universite Catholique de Louvain,
 Corning Inc. and other collaborators, see ~abinit/doc/developers/contributors.txt .
 acknowledgments of the ABINIT effort.

.Starting date : Wed  1 Dec 2021.
- ( at 21h40 )

- input  file    -> /scratch/users/j/a/jabreu/flow_simple_remain_atoms/flow/w233/t1/run.abi
- output file    -> /scratch/users/j/a/jabreu/flow_simple_remain_atoms/flow/w233/t1/run.abo
- root for input  files -> /scratch/users/j/a/jabreu/flow_simple_remain_atoms/flow/w233/t1/indata/in
- root for output files -> /scratch/users/j/a/jabreu/flow_simple_remain_atoms/flow/w233/t1/outdata/out

 Symmetries : space group Pm -3 m (#221); Bravais cP (primitive cubic)
     intxc =       0      iscf =       7    lmnmax =      18     lnmax =       6
     mgfft =      48  mpssoang =       3    mqgrid =    3001     natom =       5
  nloc_mem =       1    nspden =       1   nspinor =       1    nsppol =       1
      nsym =      48    n1xccc =    2501    ntypat =       3    occopt =       1
   xclevel =       2
-    mband =          20        mffmem =           1         mkmem =           1
-   mkqmem =           1        mk1mem =           1           mpw =        7000
      nfft =      110592          nkpt =           1
  Rough estimation (10% accuracy) of disk space for files :

------------- Echo of variables that govern the present computation ------------
-
- outvars: echo of selected default values
-   iomode0 =  0 , fftalg0 =512 , wfoptalg0 =  0
-
- outvars: echo of global parameters not present in the input file
-  max_nthreads =    0
-
 -outvars: echo values of preprocessed input variables --------
            acell      1.0000000000E+00  1.0000000000E+00  1.0000000000E+00 Bohr
              amu      8.54678000E+01  4.00780000E+01  1.00794000E+00
             ecut      3.90000000E+01 Hartree
-          fftalg         512
           irdden           1
           irdwfk           1
           istwfk        1
              ixc     -116133
              kpt      5.00000000E-01  5.00000000E-01  0.00000000E+00
           kptopt           0
P           mkmem           1
P          mkqmem           1
P          mk1mem           1
            natom           5
            nband          20
           nbdbuf           4
            ngfft          48      48      48
             nkpt           1
            nstep        2000
             nsym          48
           ntypat           3
              occ      2.000000  2.000000  2.000000  2.000000  2.000000  2.000000
                       2.000000  2.000000  2.000000  2.000000  2.000000  0.000000
                       0.000000  0.000000  0.000000  0.000000  0.000000  0.000000
                       0.000000  0.000000
        optdriver           1
            prtwf          -1
            rfdir           1       1       1
           rfelfd           2
            rprim      8.4483045337E+00  0.0000000000E+00  0.0000000000E+00
                       0.0000000000E+00  8.4483045337E+00  0.0000000000E+00
                       0.0000000000E+00  0.0000000000E+00  8.4483045337E+00
          spgroup         221
           symrel      1  0  0   0  1  0   0  0  1      -1  0  0   0 -1  0   0  0 -1
                      -1  0  0   0  1  0   0  0 -1       1  0  0   0 -1  0   0  0  1
                      -1  0  0   0 -1  0   0  0  1       1  0  0   0  1  0   0  0 -1
                       1  0  0   0 -1  0   0  0 -1      -1  0  0   0  1  0   0  0  1
                       0  1  0   1  0  0   0  0  1       0 -1  0  -1  0  0   0  0 -1
                       0 -1  0   1  0  0   0  0 -1       0  1  0  -1  0  0   0  0  1
                       0 -1  0  -1  0  0   0  0  1       0  1  0   1  0  0   0  0 -1
                       0  1  0  -1  0  0   0  0 -1       0 -1  0   1  0  0   0  0  1
                       0  0  1   1  0  0   0  1  0       0  0 -1  -1  0  0   0 -1  0
                       0  0 -1   1  0  0   0 -1  0       0  0  1  -1  0  0   0  1  0
                       0  0 -1  -1  0  0   0  1  0       0  0  1   1  0  0   0 -1  0
                       0  0  1  -1  0  0   0 -1  0       0  0 -1   1  0  0   0  1  0
                       1  0  0   0  0  1   0  1  0      -1  0  0   0  0 -1   0 -1  0
                      -1  0  0   0  0  1   0 -1  0       1  0  0   0  0 -1   0  1  0
                      -1  0  0   0  0 -1   0  1  0       1  0  0   0  0  1   0 -1  0
                       1  0  0   0  0 -1   0 -1  0      -1  0  0   0  0  1   0  1  0
                       0  1  0   0  0  1   1  0  0       0 -1  0   0  0 -1  -1  0  0
                       0 -1  0   0  0  1  -1  0  0       0  1  0   0  0 -1   1  0  0
                       0 -1  0   0  0 -1   1  0  0       0  1  0   0  0  1  -1  0  0
                       0  1  0   0  0 -1  -1  0  0       0 -1  0   0  0  1   1  0  0
                       0  0  1   0  1  0   1  0  0       0  0 -1   0 -1  0  -1  0  0
                       0  0 -1   0  1  0  -1  0  0       0  0  1   0 -1  0   1  0  0
                       0  0 -1   0 -1  0   1  0  0       0  0  1   0  1  0  -1  0  0
                       0  0  1   0 -1  0  -1  0  0       0  0 -1   0  1  0   1  0  0
           tolwfr      1.00000000E-20
            typat      1  2  3  3  3
           useylm           1
           xangst      0.0000000000E+00  0.0000000000E+00  0.0000000000E+00
                       2.2353251052E+00  2.2353251052E+00  2.2353251052E+00
                       2.2353251052E+00  0.0000000000E+00  2.2353251052E+00
                       2.2353251052E+00  2.2353251052E+00  0.0000000000E+00
                       0.0000000000E+00  2.2353251052E+00  2.2353251052E+00
            xcart      0.0000000000E+00  0.0000000000E+00  0.0000000000E+00
                       4.2241522669E+00  4.2241522669E+00  4.2241522669E+00
                       4.2241522669E+00  0.0000000000E+00  4.2241522669E+00
                       4.2241522669E+00  4.2241522669E+00  0.0000000000E+00
                       0.0000000000E+00  4.2241522669E+00  4.2241522669E+00
             xred      0.0000000000E+00  0.0000000000E+00  0.0000000000E+00
                       5.0000000000E-01  5.0000000000E-01  5.0000000000E-01
                       5.0000000000E-01  0.0000000000E+00  5.0000000000E-01
                       5.0000000000E-01  5.0000000000E-01  0.0000000000E+00
                       0.0000000000E+00  5.0000000000E-01  5.0000000000E-01
            znucl       37.00000   20.00000    1.00000

 chkinp: Checking input parameters for consistency.

== DATASET  1 ==================================================================
-   mpi_nproc: 1, omp_nthreads: -1 (-1 if OMP is not activated)

--- !DatasetInfo
iteration_state: {dtset: 1, }
dimensions: {natom: 5, nkpt: 1, mband: 20, nsppol: 1, nspinor: 1, nspden: 1, mpw: 7000, }
cutoff_energies: {ecut:  39.0, pawecutdg:  -1.0, }
electrons: {nelect:   2.20000000E+01, charge:   0.00000000E+00, occopt:   1.00000000E+00, tsmear:   1.00000000E-02, }
meta: {optdriver: 1, rfelfd: 2, }
...

 Real(R)+Recip(G) space primitive vectors, cartesian coordinates (Bohr,Bohr^-1):
 R(1)=  8.4483045  0.0000000  0.0000000  G(1)=  0.1183669  0.0000000  0.0000000
 R(2)=  0.0000000  8.4483045  0.0000000  G(2)=  0.0000000  0.1183669  0.0000000
 R(3)=  0.0000000  0.0000000  8.4483045  G(3)=  0.0000000  0.0000000  0.1183669
 Unit cell volume ucvol=  6.0298802E+02 bohr^3
 Angles (23,13,12)=  9.00000000E+01  9.00000000E+01  9.00000000E+01 degrees

 getcut: wavevector=  0.0000  0.0000  0.0000  ngfft=  48  48  48
         ecut(hartree)=     39.000   => boxcut(ratio)=   2.02104

--- Pseudopotential description ------------------------------------------------
- pspini: atom type   1  psp file is /scratch/users/j/a/jabreu/pseudos/PBEsol/Rb.psp8
- pspatm: opening atomic psp file    /scratch/users/j/a/jabreu/pseudos/PBEsol/Rb.psp8
- Rb    ONCVPSP-3.3.0  r_core=   1.71227   1.75361   1.90633
- 37.00000   9.00000    180112                znucl, zion, pspdat
    8 -116133    2    4       600   0.00000   pspcod,pspxc,lmax,lloc,mmax,r2well
    5.99000000000000    7.00000000000000    0.00000000000000   rchrg,fchrg,qchrg
     nproj     2     2     2
     extension_switch     1
  pspatm : epsatm=   34.48400912
         --- l  ekb(1:nproj) -->
             0    8.196957   -0.477221
             1    3.231347   -0.378736
             2   -1.047201    0.996637
 pspatm: atomic psp has been read  and splines computed

- pspini: atom type   2  psp file is /scratch/users/j/a/jabreu/pseudos/PBEsol/Ca.psp8
- pspatm: opening atomic psp file    /scratch/users/j/a/jabreu/pseudos/PBEsol/Ca.psp8
- Ca    ONCVPSP-3.3.0  r_core=   1.45885   1.45885   1.85192
- 20.00000  10.00000    180112                znucl, zion, pspdat
    8 -116133    2    4       400   0.00000   pspcod,pspxc,lmax,lloc,mmax,r2well
    3.99000000000000    6.00000000000000    0.00000000000000   rchrg,fchrg,qchrg
     nproj     2     2     2
     extension_switch     1
  pspatm : epsatm=   12.46045226
         --- l  ekb(1:nproj) -->
             0   10.054847    0.973777
             1    2.998958    0.458102
             2   -3.447298   -1.091650
 pspatm: atomic psp has been read  and splines computed

- pspini: atom type   3  psp file is /scratch/users/j/a/jabreu/pseudos/PBEsol/H.psp8
- pspatm: opening atomic psp file    /scratch/users/j/a/jabreu/pseudos/PBEsol/H.psp8
- H     ONCVPSP-3.3.0  r_core=   1.00957   0.70586
-  1.00000   1.00000    180112                znucl, zion, pspdat
    8 -116133    1    4       300   0.00000   pspcod,pspxc,lmax,lloc,mmax,r2well
    2.99000000000000    0.00000000000000    0.00000000000000   rchrg,fchrg,qchrg
     nproj     2     1
     extension_switch     1
  pspatm : epsatm=    0.35627032
         --- l  ekb(1:nproj) -->
             0   -1.674911   -0.523609
             1   -0.494138
 pspatm: atomic psp has been read  and splines computed

   1.05629199E+03                                ecore*ucvol(ha*bohr**3)

 ==>  initialize data related to q vector <==

 The list of irreducible perturbations for this q vector is:
    1)    idir= 1    ipert=   6
    2)    idir= 2    ipert=   6
    3)    idir= 3    ipert=   6

 Perturbation wavevector (in red.coord.)   0.000000  0.000000  0.000000
 Perturbation : derivative vs k along direction   1

 dfpt_looppert : COMMENT -
  In a d/dk calculation, iscf is set to -3 automatically.
 The set of symmetries contains only one element for this perturbation.
 symkpt : not enough symmetry to change the number of k points.

 Initialisation of the first-order wave-functions :
  ireadwf=   0

--- !BeginCycle
iteration_state: {dtset: 1, }
solver: {iscf: 7, nstep: 2000, nline: 4, wfoptalg: 0, }
tolerances: {tolwfr: 1.00E-20, }
...

     iter   2DEtotal(Ha)        deltaE(Ha) residm    vres2
-ETOT  1  -13.783813858803     -1.378E+01 1.155E-02 0.000E+00
 ETOT  2  -13.787772543164     -3.959E-03 2.335E-05 0.000E+00
 ETOT  3  -13.787778948357     -6.405E-06 3.440E-08 0.000E+00
 ETOT  4  -13.787778963656     -1.530E-08 1.648E-10 0.000E+00
 ETOT  5  -13.787778963709     -5.346E-11 3.408E-13 0.000E+00
 ETOT  6  -13.787778963709     -2.398E-13 7.951E-15 0.000E+00
 ETOT  7  -13.787778963709     -6.395E-14 1.647E-17 0.000E+00
 ETOT  8  -13.787778963709      1.421E-14 4.185E-19 0.000E+00
 ETOT  9  -13.787778963709     -1.066E-14 9.861E-21 0.000E+00

 At SCF step    9   max residual=  9.86E-21 < tolwfr=  1.00E-20 =>converged.

 ----iterations are completed or convergence reached----

 dfpt_looppert: DFPT cycle converged with prtwf=-1. Will skip output of the 1st-order WFK file.
 dfpt_looppert : ek2=    2.4337350261E+01
          f-sum rule ratio=    1.1937993598E+00
 prteigrs : about to open file /scratch/users/j/a/jabreu/flow_simple_remain_atoms/flow/w233/t1/tmpdata/tmp_1WF1_EIG
 Expectation of eigenvalue derivatives (hartree) for nkpt=   1  k points:
  (in case of degenerate eigenvalues, averaged derivative)
 kpt#   1, nband= 20, wtk=  1.00000, kpt=  0.5000  0.5000  0.0000 (reduced coord)
  -0.00000    0.00000    0.00000    0.00000   -0.00000    0.00000    0.00000    0.00000
   0.00000   -0.00000   -0.00000    0.00000   -0.00000   -0.00000   -0.00000   -0.00000
   0.00000    0.00000    0.00000    0.00002

 Eight components of 2nd-order total energy (hartree) are
 1,2,3: 0th-order hamiltonian combined with 1st-order wavefunctions
     kin0=   1.08326331E+01 eigvalue=   1.67306366E+00  local=  -6.42477872E+00
 4,5,6: 1st-order hamiltonian combined with 1st and 0th-order wfs
     kin1=  -2.90539132E+01  Hartree=   0.00000000E+00     xc=   0.00000000E+00
 7,8,9: eventually, occupation + non-local contributions
    edocc=   7.72264732E+00     enl0=  -1.57864064E-02   enl1=   1.47835523E+00
 1-9 gives the relaxation energy (to be shifted if some occ is /=2.0)
   erelax=  -1.37877790E+01
  No Ewald or frozen-wf contrib.: the relaxation energy is the total one
 2DEtotal=   -0.1378777896E+02 Ha. Also 2DEtotal=   -0.375184545958E+03 eV
    (  non-var. 2DEtotal :   -1.3787778964E+01 Ha)

 Perturbation wavevector (in red.coord.)   0.000000  0.000000  0.000000
 Perturbation : derivative vs k along direction   2
 The set of symmetries contains only one element for this perturbation.
 symkpt : not enough symmetry to change the number of k points.

[...]

 Perturbation wavevector (in red.coord.)   0.000000  0.000000  0.000000
 Perturbation : derivative vs k along direction   3
 The set of symmetries contains only one element for this perturbation.
 symkpt : not enough symmetry to change the number of k points.

 Initialisation of the first-order wave-functions :
  ireadwf=   0

--- !BeginCycle
iteration_state: {dtset: 1, }
solver: {iscf: 7, nstep: 2000, nline: 4, wfoptalg: 0, }
tolerances: {tolwfr: 1.00E-20, }
...

     iter   2DEtotal(Ha)        deltaE(Ha) residm    vres2
-ETOT  1  -11.308292115899     -1.131E+01 1.070E-02 0.000E+00
 ETOT  2  -11.312150168925     -3.858E-03 1.283E-05 0.000E+00
 ETOT  3  -11.312155802518     -5.634E-06 2.763E-08 0.000E+00
 ETOT  4  -11.312155817582     -1.506E-08 7.435E-11 0.000E+00
 ETOT  5  -11.312155817635     -5.311E-11 9.018E-13 0.000E+00
 ETOT  6  -11.312155817635     -2.256E-13 8.981E-15 0.000E+00
 ETOT  7  -11.312155817635     -1.243E-14 1.298E-16 0.000E+00
 ETOT  8  -11.312155817635     -1.066E-14 1.237E-18 0.000E+00
 ETOT  9  -11.312155817635      7.105E-15 1.999E-20 0.000E+00
 ETOT 10  -11.312155817635     -1.776E-15 8.714E-21 0.000E+00

 At SCF step   10   max residual=  8.71E-21 < tolwfr=  1.00E-20 =>converged.

 ----iterations are completed or convergence reached----

 dfpt_looppert: DFPT cycle converged with prtwf=-1. Will skip output of the 1st-order WFK file.
 dfpt_looppert : ek2=    2.4337350261E+01
          f-sum rule ratio=    9.6686410559E-01
 prteigrs : about to open file /scratch/users/j/a/jabreu/flow_simple_remain_atoms/flow/w233/t1/tmpdata/tmp_1WF1_EIG
 Expectation of eigenvalue derivatives (hartree) for nkpt=   1  k points:
  (in case of degenerate eigenvalues, averaged derivative)
 kpt#   1, nband= 20, wtk=  1.00000, kpt=  0.5000  0.5000  0.0000 (reduced coord)
   0.00000   -0.00000   -0.00000   -0.00000   -0.00000    0.00000    0.00000   -0.00000
   0.00000   -0.00000   -0.00000   -0.00000   -0.00000   -0.00000    0.00000    0.00000
  -0.00000   -0.00000   -0.00000    0.00000

 Eight components of 2nd-order total energy (hartree) are
 1,2,3: 0th-order hamiltonian combined with 1st-order wavefunctions
     kin0=   1.11035250E+01 eigvalue=   1.50927386E+00  local=  -6.95231043E+00
 4,5,6: 1st-order hamiltonian combined with 1st and 0th-order wfs
     kin1=  -2.35309104E+01  Hartree=   0.00000000E+00     xc=   0.00000000E+00
 7,8,9: eventually, occupation + non-local contributions
    edocc=   5.88381570E+00     enl0=  -2.32148365E-01   enl1=   9.06598757E-01
 1-9 gives the relaxation energy (to be shifted if some occ is /=2.0)
   erelax=  -1.13121558E+01
  No Ewald or frozen-wf contrib.: the relaxation energy is the total one
 2DEtotal=   -0.1131215582E+02 Ha. Also 2DEtotal=   -0.307819414238E+03 eV
    (  non-var. 2DEtotal :   -1.1312155817E+01 Ha)

 CALCULATION OF EFFECTIVE MASSES
 NOTE : Additional infos (eff. mass eigenvalues, eigenvectors and, if degenerate, average mass) are available in stdout.

 COMMENTS:
 - At k-point ( 0.500, 0.500, 0.000), bands    10 through    11
   are DEGENERATE (effective mass tensor is therefore not defined).
   See Section IIIB Eqs. (67)-(70) and Appendix E of PRB 93 205147 (2016).
 - Angular average effective mass for Frohlich model is to be averaged over degenerate bands. See later.
 - Associated theta integrals calculated with ntheta=   1000 points.

 K-point ( 0.500, 0.500, 0.000) | band =    10
 Transport equivalent effective mass tensor:
             -0.6975622135              0.0000002787              0.0000040859
              0.0000002787             -0.6975586947              0.0000016053
              0.0000040859              0.0000016053             -3.4344027989
 Transport equivalent effective mass tensor eigenvalues:
             -3.4344027989             -0.6975622354             -0.6975586727
 Angular average effective mass 1/(<1/m>)=  -0.9104223183
 Angular average effective mass for Frohlich model (<m**0.5>)**2=  -1.0225813709
 Effective masses along directions: (cart. coord. / red. coord. -> eff. mass)
    1:   1.000000  0.000000  0.000000 /   1.000000  0.000000  0.000000 ->  -0.7767347020
    2:   0.000000  1.000000  0.000000 /   0.000000  1.000000  0.000000 ->  -0.7767347062
    3:   0.000000  0.000000  1.000000 /   0.000000  0.000000  1.000000 ->  -3.2192743093
    4:   0.577350  0.577350  0.577350 /   0.577350  0.577350  0.577350 ->  -0.8259778481
    5:   0.000000  0.707107  0.707107 /   0.000000  0.707107  0.707107 ->  -1.2515103553
    6:   0.707107  0.000000  0.707107 /   0.707107  0.000000  0.707107 ->  -1.2515085467
    7:   0.707107  0.707107  0.000000 /   0.707107  0.707107  0.000000 ->  -0.6021504284

 K-point ( 0.500, 0.500, 0.000) | band =    11
 Transport equivalent effective mass tensor:
             -2.8331977628             -0.0000039922              0.0000221620
             -0.0000039922             -2.8331937284              0.0000079243
              0.0000221620              0.0000079243             -5.3616969662
 Transport equivalent effective mass tensor eigenvalues:
             -5.3616969664             -2.8332002183             -2.8331912727
 Angular average effective mass 1/(<1/m>)=  -2.3263802128
 Angular average effective mass for Frohlich model (<m**0.5>)**2=  -2.4304341833
 Effective masses along directions: (cart. coord. / red. coord. -> eff. mass)
    1:   1.000000  0.000000  0.000000 /   1.000000  0.000000  0.000000 ->  -1.4403009837
    2:   0.000000  1.000000  0.000000 /   0.000000  1.000000  0.000000 ->  -1.4403009836
    3:   0.000000  0.000000  1.000000 /   0.000000  0.000000  1.000000 ->  -3.2193500218
    4:   0.577350  0.577350  0.577350 /   0.577350  0.577350  0.577350 ->  -3.1489954314
    5:   0.000000  0.707107  0.707107 /   0.000000  0.707107  0.707107 ->  -1.9901985838
    6:   0.707107  0.000000  0.707107 /   0.707107  0.000000  0.707107 ->  -1.9901906552
    7:   0.707107  0.707107  0.000000 /   0.707107  0.707107  0.000000 ->  -3.1150163305

 Angular average effective mass for Frohlich model, averaged over degenerate bands.
 Value of     (<<m**0.5>>)**2 =     1.651498E+00
 Absolute Value of <<m**0.5>> =     1.285106E+00

 K-point ( 0.500, 0.500, 0.000) | band =    12
 Effective mass tensor:
              0.4204396992             -0.0000000000             -0.0000000000
             -0.0000000000              0.4204396992             -0.0000000000
             -0.0000000000             -0.0000000000              0.6679127178
 Effective mass tensor eigenvalues:
              0.4204396992              0.4204396992              0.6679127178
 Angular average effective mass 1/(<1/m>)=   0.4796833062
 Angular average effective mass for Frohlich model (<m**0.5>)**2=   0.4859727176
 Effective masses along directions: (cart. coord. / red. coord. -> eff. mass)
    1:   1.000000  0.000000  0.000000 /   1.000000  0.000000  0.000000 ->   0.4204396992
    2:   0.000000  1.000000  0.000000 /   0.000000  1.000000  0.000000 ->   0.4204396992
    3:   0.000000  0.000000  1.000000 /   0.000000  0.000000  1.000000 ->   0.6679127178
    4:   0.577350  0.577350  0.577350 /   0.577350  0.577350  0.577350 ->   0.4796833062
    5:   0.000000  0.707107  0.707107 /   0.000000  0.707107  0.707107 ->   0.5160406092
    6:   0.707107  0.000000  0.707107 /   0.707107  0.000000  0.707107 ->   0.5160406092
    7:   0.707107  0.707107  0.000000 /   0.707107  0.707107  0.000000 ->   0.4204396992

 END OF EFFECTIVE MASSES SECTION

 ---- first-order wavefunction calculations are completed ----

 Total localisation tensor (bohr^2) in cartesian coordinates
  WARNING : still subject to testing - especially symmetries.
      direction              matrix element
   alpha     beta       real part   imaginary part
     1        1       1.4737658131    0.0000000000
     1        2       0.0000000000    0.0000000000
     1        3       0.0000000000    0.0000000000
     2        1       0.0000000000    0.0000000000
     2        2       1.4737656150    0.0000000000
     2        3       0.0000000000    0.0000000000
     3        1       0.0000000000    0.0000000000
     3        2       0.0000000000    0.0000000000
     3        3       0.8304588227    0.0000000000

 respfn : d/dk was computed, but no 2DTE, so no DDB output.

== END DATASET(S) ==============================================================

 -outvars: echo values of variables after computation  --------
            acell      1.0000000000E+00  1.0000000000E+00  1.0000000000E+00 Bohr
              amu      8.54678000E+01  4.00780000E+01  1.00794000E+00
             ecut      3.90000000E+01 Hartree
           etotal     -1.1312155818E+01
            fcart      0.0000000000E+00  0.0000000000E+00  0.0000000000E+00
                       0.0000000000E+00  0.0000000000E+00  0.0000000000E+00
                       0.0000000000E+00  0.0000000000E+00  0.0000000000E+00
                       0.0000000000E+00  0.0000000000E+00  0.0000000000E+00
                       0.0000000000E+00  0.0000000000E+00  0.0000000000E+00
-          fftalg         512
           irdden           1
           irdwfk           1
           istwfk        1
              ixc     -116133
              kpt      5.00000000E-01  5.00000000E-01  0.00000000E+00
           kptopt           0
P           mkmem           1
P          mkqmem           1
P          mk1mem           1
            natom           5
            nband          20
           nbdbuf           4
            ngfft          48      48      48
             nkpt           1
            nstep        2000
             nsym          48
           ntypat           3
              occ      2.000000  2.000000  2.000000  2.000000  2.000000  2.000000
                       2.000000  2.000000  2.000000  2.000000  2.000000  0.000000
                       0.000000  0.000000  0.000000  0.000000  0.000000  0.000000
                       0.000000  0.000000
        optdriver           1
            prtwf          -1
            rfdir           1       1       1
           rfelfd           2
            rprim      8.4483045337E+00  0.0000000000E+00  0.0000000000E+00
                       0.0000000000E+00  8.4483045337E+00  0.0000000000E+00
                       0.0000000000E+00  0.0000000000E+00  8.4483045337E+00
          spgroup         221
           strten      0.0000000000E+00  0.0000000000E+00  0.0000000000E+00
                       0.0000000000E+00  0.0000000000E+00  0.0000000000E+00
           symrel      1  0  0   0  1  0   0  0  1      -1  0  0   0 -1  0   0  0 -1
                      -1  0  0   0  1  0   0  0 -1       1  0  0   0 -1  0   0  0  1
                      -1  0  0   0 -1  0   0  0  1       1  0  0   0  1  0   0  0 -1
                       1  0  0   0 -1  0   0  0 -1      -1  0  0   0  1  0   0  0  1
                       0  1  0   1  0  0   0  0  1       0 -1  0  -1  0  0   0  0 -1
                       0 -1  0   1  0  0   0  0 -1       0  1  0  -1  0  0   0  0  1
                       0 -1  0  -1  0  0   0  0  1       0  1  0   1  0  0   0  0 -1
                       0  1  0  -1  0  0   0  0 -1       0 -1  0   1  0  0   0  0  1
                       0  0  1   1  0  0   0  1  0       0  0 -1  -1  0  0   0 -1  0
                       0  0 -1   1  0  0   0 -1  0       0  0  1  -1  0  0   0  1  0
                       0  0 -1  -1  0  0   0  1  0       0  0  1   1  0  0   0 -1  0
                       0  0  1  -1  0  0   0 -1  0       0  0 -1   1  0  0   0  1  0
                       1  0  0   0  0  1   0  1  0      -1  0  0   0  0 -1   0 -1  0
                      -1  0  0   0  0  1   0 -1  0       1  0  0   0  0 -1   0  1  0
                      -1  0  0   0  0 -1   0  1  0       1  0  0   0  0  1   0 -1  0
                       1  0  0   0  0 -1   0 -1  0      -1  0  0   0  0  1   0  1  0
                       0  1  0   0  0  1   1  0  0       0 -1  0   0  0 -1  -1  0  0
                       0 -1  0   0  0  1  -1  0  0       0  1  0   0  0 -1   1  0  0
                       0 -1  0   0  0 -1   1  0  0       0  1  0   0  0  1  -1  0  0
                       0  1  0   0  0 -1  -1  0  0       0 -1  0   0  0  1   1  0  0
                       0  0  1   0  1  0   1  0  0       0  0 -1   0 -1  0  -1  0  0
                       0  0 -1   0  1  0  -1  0  0       0  0  1   0 -1  0   1  0  0
                       0  0 -1   0 -1  0   1  0  0       0  0  1   0  1  0  -1  0  0
                       0  0  1   0 -1  0  -1  0  0       0  0 -1   0  1  0   1  0  0
           tolwfr      1.00000000E-20
            typat      1  2  3  3  3
           useylm           1
           xangst      0.0000000000E+00  0.0000000000E+00  0.0000000000E+00
                       2.2353251052E+00  2.2353251052E+00  2.2353251052E+00
                       2.2353251052E+00  0.0000000000E+00  2.2353251052E+00
                       2.2353251052E+00  2.2353251052E+00  0.0000000000E+00
                       0.0000000000E+00  2.2353251052E+00  2.2353251052E+00
            xcart      0.0000000000E+00  0.0000000000E+00  0.0000000000E+00
                       4.2241522669E+00  4.2241522669E+00  4.2241522669E+00
                       4.2241522669E+00  0.0000000000E+00  4.2241522669E+00
                       4.2241522669E+00  4.2241522669E+00  0.0000000000E+00
                       0.0000000000E+00  4.2241522669E+00  4.2241522669E+00
             xred      0.0000000000E+00  0.0000000000E+00  0.0000000000E+00
                       5.0000000000E-01  5.0000000000E-01  5.0000000000E-01
                       5.0000000000E-01  0.0000000000E+00  5.0000000000E-01
                       5.0000000000E-01  5.0000000000E-01  0.0000000000E+00
                       0.0000000000E+00  5.0000000000E-01  5.0000000000E-01
            znucl       37.00000   20.00000    1.00000

- Timing analysis has been suppressed with timopt=0

 Suggested references for the acknowledgment of ABINIT usage.

 Calculation completed.
.Delivered   2 WARNINGs and   5 COMMENTs to log file.