.Version 9.5.1 of ABINIT

 ABINIT is a project of the Universite Catholique de Louvain,
 Corning Inc. and other collaborators, see ~abinit/doc/developers/contributors.txt .
 acknowledgments of the ABINIT effort.

.Starting date : Wed  5 May 2021.
- ( at 19h45 )

- input  file    -> /scratch/users/j/a/jabreu/flow_simple_7atoms/flow/w134/t1/run.abi
- output file    -> /scratch/users/j/a/jabreu/flow_simple_7atoms/flow/w134/t1/run.abo
- root for input  files -> /scratch/users/j/a/jabreu/flow_simple_7atoms/flow/w134/t1/indata/in
- root for output files -> /scratch/users/j/a/jabreu/flow_simple_7atoms/flow/w134/t1/outdata/out

 Symmetries : space group R-3 m (#166); Bravais hR (rhombohedral)
     intxc =       0      iscf =       7    lmnmax =      25     lnmax =       7
     mgfft =     108  mpssoang =       4    mqgrid =    3001     natom =       7
  nloc_mem =       1    nspden =       1   nspinor =       1    nsppol =       1
      nsym =      12    n1xccc =    2501    ntypat =       3    occopt =       1
   xclevel =       2
-    mband =          42        mffmem =           1         mkmem =           2
-   mkqmem =           2        mk1mem =           2           mpw =       17016
      nfft =     1259712          nkpt =           2
  Rough estimation (10% accuracy) of disk space for files :

------------- Echo of variables that govern the present computation ------------
-
- outvars: echo of selected default values
-   iomode0 =  0 , fftalg0 =512 , wfoptalg0 =  0
-
- outvars: echo of global parameters not present in the input file
-  max_nthreads =    0
-
 -outvars: echo values of preprocessed input variables --------
            acell      1.0000000000E+00  1.0000000000E+00  1.0000000000E+00 Bohr
              amu      2.29897680E+01  2.00590000E+02  3.09737620E+01
             ecut      4.40000000E+01 Hartree
-          fftalg         512
           irdden           1
           irdwfk           1
           istwfk        1    1
              ixc     -116133
              kpt      5.00000000E-01  5.00000000E-01  5.00000000E-01
                       0.00000000E+00  0.00000000E+00  0.00000000E+00
           kptopt           0
P           mkmem           2
P          mkqmem           2
P          mk1mem           2
            natom           7
            nband          42
           nbdbuf           4
            ngfft         108     108     108
             nkpt           2
            nstep        2000
             nsym          12
           ntypat           3
              occ      2.000000  2.000000  2.000000  2.000000  2.000000  2.000000
                       2.000000  2.000000  2.000000  2.000000  2.000000  2.000000
                       2.000000  2.000000  2.000000  2.000000  2.000000  2.000000
                       2.000000  2.000000  2.000000  2.000000  2.000000  2.000000
                       2.000000  2.000000  2.000000  2.000000  2.000000  2.000000
                       2.000000  2.000000  2.000000  0.000000  0.000000  0.000000
                       0.000000  0.000000  0.000000  0.000000  0.000000  0.000000
        optdriver           1
            prtwf          -1
            rfdir           1       1       1
           rfelfd           2
            rprim      9.0270047851E+00  0.0000000000E+00  1.4267858773E+01
                       4.1344999159E+00  8.0245078252E+00  1.4267858773E+01
                       0.0000000000E+00  0.0000000000E+00  1.6883678786E+01
          spgroup         166
           symrel      1  0  0   0  1  0   0  0  1      -1  0  0   0 -1  0   0  0 -1
                       0  1  0   1  0  0   0  0  1       0 -1  0  -1  0  0   0  0 -1
                       0  0  1   1  0  0   0  1  0       0  0 -1  -1  0  0   0 -1  0
                       1  0  0   0  0  1   0  1  0      -1  0  0   0  0 -1   0 -1  0
                       0  1  0   0  0  1   1  0  0       0 -1  0   0  0 -1  -1  0  0
                       0  0  1   0  1  0   1  0  0       0  0 -1   0 -1  0  -1  0  0
           tolwfr      1.00000000E-20
            typat      1  1  1  1  2  3  3
           useylm           1
              wtk        0.50000    0.50000
           xangst      5.5222812225E+00  3.3669090191E+00  1.9056991218E+01
                       4.1639703164E+00  2.5387532161E+00  1.4369558984E+01
                       1.4424870960E+00  8.7947763211E-01  4.9779181489E+00
                       2.8007980021E+00  1.7076334352E+00  9.6653503832E+00
                       0.0000000000E+00  0.0000000000E+00  0.0000000000E+00
                       6.5239681316E-01  3.9776328401E-01  2.2513739954E+00
                       6.3123715054E+00  3.8486233672E+00  2.1783535372E+01
            xcart      1.0435599139E+01  6.3625359605E+00  3.6012494320E+01
                       7.8687635235E+00  4.7975482974E+00  2.7154531130E+01
                       2.7259055616E+00  1.6619718647E+00  9.4069020133E+00
                       5.2927411775E+00  3.2269595278E+00  1.8264865203E+01
                       0.0000000000E+00  0.0000000000E+00  0.0000000000E+00
                       1.2328513068E+00  7.5166367249E-01  4.2544802739E+00
                       1.1928653394E+01  7.2728441527E+00  4.1164916059E+01
             xred      7.9288800000E-01  7.9288800000E-01  7.9288800000E-01
                       5.9786200000E-01  5.9786200000E-01  5.9786200000E-01
                       2.0711200000E-01  2.0711200000E-01  2.0711200000E-01
                       4.0213800000E-01  4.0213800000E-01  4.0213800000E-01
                       0.0000000000E+00  0.0000000000E+00  0.0000000000E+00
                       9.3671000000E-02  9.3671000000E-02  9.3671000000E-02
                       9.0632900000E-01  9.0632900000E-01  9.0632900000E-01
            znucl       11.00000   80.00000   15.00000

 chkinp: Checking input parameters for consistency.

== DATASET  1 ==================================================================
-   mpi_nproc: 1, omp_nthreads: -1 (-1 if OMP is not activated)

--- !DatasetInfo
iteration_state: {dtset: 1, }
dimensions: {natom: 7, nkpt: 2, mband: 42, nsppol: 1, nspinor: 1, nspden: 1, mpw: 17016, }
cutoff_energies: {ecut:  44.0, pawecutdg:  -1.0, }
electrons: {nelect:   6.60000000E+01, charge:   0.00000000E+00, occopt:   1.00000000E+00, tsmear:   1.00000000E-02, }
meta: {optdriver: 1, rfelfd: 2, }
...

 Real(R)+Recip(G) space primitive vectors, cartesian coordinates (Bohr,Bohr^-1):
 R(1)=  9.0270048  0.0000000 14.2678588  G(1)=  0.1107787 -0.0570770  0.0000000
 R(2)=  4.1344999  8.0245078 14.2678588  G(2)=  0.0000000  0.1246182  0.0000000
 R(3)=  0.0000000  0.0000000 16.8836788  G(3)= -0.0936156 -0.0570770  0.0592288
 Unit cell volume ucvol=  1.2230076E+03 bohr^3
 Angles (23,13,12)=  3.23207644E+01  3.23207644E+01  3.23207644E+01 degrees

 getcut: wavevector=  0.0000  0.0000  0.0000  ngfft= 108 108 108
         ecut(hartree)=     44.000   => boxcut(ratio)=   2.14246

--- Pseudopotential description ------------------------------------------------
- pspini: atom type   1  psp file is /scratch/users/j/a/jabreu/pseudos/PBEsol/Na.psp8
- pspatm: opening atomic psp file    /scratch/users/j/a/jabreu/pseudos/PBEsol/Na.psp8
- Na    ONCVPSP-3.3.0  r_core=   1.20708   1.55069
- 11.00000   9.00000    180112                znucl, zion, pspdat
    8 -116133    1    4       400   0.00000   pspcod,pspxc,lmax,lloc,mmax,r2well
    3.99000000000000    0.00000000000000    0.00000000000000   rchrg,fchrg,qchrg
     nproj     2     2
     extension_switch     1
  pspatm : epsatm=    9.32878306
         --- l  ekb(1:nproj) -->
             0    2.657905   -0.678300
             1   -6.761319   -2.404728
 pspatm: atomic psp has been read  and splines computed

- pspini: atom type   2  psp file is /scratch/users/j/a/jabreu/pseudos/PBEsol/Hg.psp8
- pspatm: opening atomic psp file    /scratch/users/j/a/jabreu/pseudos/PBEsol/Hg.psp8
- Hg    ONCVPSP-3.3.0  r_core=   1.60079   1.60079   1.45509   1.60079
- 80.00000  20.00000    180112                znucl, zion, pspdat
    8 -116133    3    4       600   0.00000   pspcod,pspxc,lmax,lloc,mmax,r2well
    5.99000000000000    5.00000000000000    0.00000000000000   rchrg,fchrg,qchrg
     nproj     2     2     2     1
     extension_switch     1
  pspatm : epsatm=   30.52477316
         --- l  ekb(1:nproj) -->
             0   15.280580    2.063595
             1   11.999965    1.374025
             2    2.245749    0.205661
             3    0.961656
 pspatm: atomic psp has been read  and splines computed

- pspini: atom type   3  psp file is /scratch/users/j/a/jabreu/pseudos/PBEsol/P.psp8
- pspatm: opening atomic psp file    /scratch/users/j/a/jabreu/pseudos/PBEsol/P.psp8
- P     ONCVPSP-3.3.0  r_core=   1.46089   1.55067   1.70594
- 15.00000   5.00000    180112                znucl, zion, pspdat
    8 -116133    2    4       600   0.00000   pspcod,pspxc,lmax,lloc,mmax,r2well
    5.99000000000000    5.00000000000000    0.00000000000000   rchrg,fchrg,qchrg
     nproj     2     2     2
     extension_switch     1
  pspatm : epsatm=    7.31221086
         --- l  ekb(1:nproj) -->
             0    6.742364    1.063650
             1    3.449117    0.910422
             2   -3.077645   -0.799176
 pspatm: atomic psp has been read  and splines computed

   5.44264559E+03                                ecore*ucvol(ha*bohr**3)

-inwffil : will read wavefunctions from disk file /scratch/users/j/a/jabreu/flow_simple_7atoms/flow/w134/t1/indata/in_WFK

 ==>  initialize data related to q vector <==

 The list of irreducible perturbations for this q vector is:
    1)    idir= 1    ipert=   8
    2)    idir= 2    ipert=   8
    3)    idir= 3    ipert=   8

 Perturbation wavevector (in red.coord.)   0.000000  0.000000  0.000000
 Perturbation : derivative vs k along direction   1

 dfpt_looppert : COMMENT -
  In a d/dk calculation, iscf is set to -3 automatically.
 The set of symmetries contains only one element for this perturbation.
 symkpt : not enough symmetry to change the number of k points.

[...]

 Initialisation of the first-order wave-functions :
  ireadwf=   0

--- !BeginCycle
iteration_state: {dtset: 1, }
solver: {iscf: 7, nstep: 2000, nline: 4, wfoptalg: 0, }
tolerances: {tolwfr: 1.00E-20, }
...

     iter   2DEtotal(Ha)        deltaE(Ha) residm    vres2
-ETOT  1  -52.332750997342     -5.233E+01 1.664E-01 0.000E+00
 ETOT  2  -52.357260974056     -2.451E-02 1.982E-03 0.000E+00
 ETOT  3  -52.357309974591     -4.900E-05 5.885E-05 0.000E+00
 ETOT  4  -52.357310208465     -2.339E-07 5.821E-06 0.000E+00
 ETOT  5  -52.357310209904     -1.439E-09 5.739E-07 0.000E+00
 ETOT  6  -52.357310209914     -9.926E-12 7.663E-08 0.000E+00
 ETOT  7  -52.357310209914     -7.105E-14 7.748E-09 0.000E+00
 ETOT  8  -52.357310209914     -4.974E-14 1.121E-09 0.000E+00
 ETOT  9  -52.357310209914     -2.842E-14 1.061E-10 0.000E+00
 ETOT 10  -52.357310209914      7.105E-15 1.680E-11 0.000E+00
 ETOT 11  -52.357310209914      0.000E+00 1.454E-12 0.000E+00
 ETOT 12  -52.357310209914     -7.105E-15 2.533E-13 0.000E+00
 ETOT 13  -52.357310209914      7.105E-15 1.995E-14 0.000E+00
 ETOT 14  -52.357310209914      0.000E+00 3.831E-15 0.000E+00
[...]
 ETOT 21  -52.357310209914      0.000E+00 9.530E-21 0.000E+00

 At SCF step   21   max residual=  9.53E-21 < tolwfr=  1.00E-20 =>converged.

 ----iterations are completed or convergence reached----

 dfpt_looppert: DFPT cycle converged with prtwf=-1. Will skip output of the 1st-order WFK file.
 dfpt_looppert : ek2=    8.0927636719E+01
          f-sum rule ratio=    1.1832920557E+00
 prteigrs : about to open file /scratch/users/j/a/jabreu/flow_simple_7atoms/flow/w134/t1/tmpdata/tmp_1WF1_EIG
 Expectation of eigenvalue derivatives (hartree) for nkpt=   2  k points:
  (in case of degenerate eigenvalues, averaged derivative)
 kpt#   1, nband= 42, wtk=  0.50000, kpt=  0.5000  0.5000  0.5000 (reduced coord)
   0.00000    0.00000   -0.00000   -0.00000   -0.00000    0.00000    0.00000    0.00000
   0.00000    0.00000    0.00000    0.00000    0.00000    0.00000   -0.00000    0.00000
  -0.00000   -0.00000    0.00000    0.00000    0.00000    0.00000    0.00000    0.00000
   0.00000    0.00000    0.00000   -0.00000   -0.00000   -0.00000   -0.00000    0.00000
   0.00000   -0.00000    0.00000    0.00000   -0.00000   -0.00000   -0.00000   -0.00000
   0.00000    0.00000
 prteigrs : prtvol=0 or 1, do not print more k-points.

 Eight components of 2nd-order total energy (hartree) are
 1,2,3: 0th-order hamiltonian combined with 1st-order wavefunctions
     kin0=   5.81797139E+01 eigvalue=   6.76904952E+00  local=  -2.72093540E+01
 4,5,6: 1st-order hamiltonian combined with 1st and 0th-order wfs
     kin1=  -9.57610296E+01  Hartree=   0.00000000E+00     xc=   0.00000000E+00
 7,8,9: eventually, occupation + non-local contributions
    edocc=   1.40413038E+01     enl0=   5.76596962E-01   enl1=  -8.95359080E+00
 1-9 gives the relaxation energy (to be shifted if some occ is /=2.0)
   erelax=  -5.23573102E+01
  No Ewald or frozen-wf contrib.: the relaxation energy is the total one
 2DEtotal=   -0.5235731021E+02 Ha. Also 2DEtotal=   -0.142471486600E+04 eV
    (  non-var. 2DEtotal :   -5.2357310210E+01 Ha)

 Perturbation wavevector (in red.coord.)   0.000000  0.000000  0.000000
 Perturbation : derivative vs k along direction   2
 The set of symmetries contains only one element for this perturbation.
 symkpt : not enough symmetry to change the number of k points.

[...]

 Perturbation wavevector (in red.coord.)   0.000000  0.000000  0.000000
 Perturbation : derivative vs k along direction   3
 The set of symmetries contains only one element for this perturbation.
 symkpt : not enough symmetry to change the number of k points.

-inwffil : will read wavefunctions from disk file /scratch/users/j/a/jabreu/flow_simple_7atoms/flow/w134/t1/indata/in_WFK

 Initialisation of the first-order wave-functions :
  ireadwf=   0

--- !BeginCycle
iteration_state: {dtset: 1, }
solver: {iscf: 7, nstep: 2000, nline: 4, wfoptalg: 0, }
tolerances: {tolwfr: 1.00E-20, }
...

     iter   2DEtotal(Ha)        deltaE(Ha) residm    vres2
-ETOT  1  -52.333156779775     -5.233E+01 2.138E-01 0.000E+00
 ETOT  2  -52.357268401515     -2.411E-02 2.196E-03 0.000E+00
 ETOT  3  -52.357314410797     -4.601E-05 6.857E-05 0.000E+00
 ETOT  4  -52.357314629020     -2.182E-07 3.617E-06 0.000E+00
 ETOT  5  -52.357314630364     -1.344E-09 8.344E-07 0.000E+00
 ETOT  6  -52.357314630373     -9.194E-12 4.906E-08 0.000E+00
 ETOT  7  -52.357314630373      2.132E-14 1.219E-08 0.000E+00
 ETOT  8  -52.357314630373     -1.421E-14 7.161E-10 0.000E+00
 ETOT  9  -52.357314630373     -3.553E-14 1.789E-10 0.000E+00
 ETOT 10  -52.357314630373      0.000E+00 1.059E-11 0.000E+00
 ETOT 11  -52.357314630373      1.421E-14 2.649E-12 0.000E+00
 ETOT 12  -52.357314630373     -1.421E-14 1.574E-13 0.000E+00
 ETOT 13  -52.357314630373      7.105E-15 3.934E-14 0.000E+00
 ETOT 14  -52.357314630373      1.421E-14 2.348E-15 0.000E+00
 ETOT 15  -52.357314630373     -7.105E-15 5.846E-16 0.000E+00
 ETOT 16  -52.357314630373      0.000E+00 3.507E-17 0.000E+00
 ETOT 17  -52.357314630373     -7.105E-15 8.687E-18 0.000E+00
 ETOT 18  -52.357314630373      7.105E-15 5.240E-19 0.000E+00
 ETOT 19  -52.357314630373     -7.105E-15 1.291E-19 0.000E+00
 ETOT 20  -52.357314630373      7.105E-15 9.991E-21 0.000E+00

 At SCF step   20   max residual=  9.99E-21 < tolwfr=  1.00E-20 =>converged.

 ----iterations are completed or convergence reached----

 dfpt_looppert: DFPT cycle converged with prtwf=-1. Will skip output of the 1st-order WFK file.
 dfpt_looppert : ek2=    8.0927636718E+01
          f-sum rule ratio=    1.1832920680E+00
 prteigrs : about to open file /scratch/users/j/a/jabreu/flow_simple_7atoms/flow/w134/t1/tmpdata/tmp_1WF1_EIG
 Expectation of eigenvalue derivatives (hartree) for nkpt=   2  k points:
  (in case of degenerate eigenvalues, averaged derivative)
 kpt#   1, nband= 42, wtk=  0.50000, kpt=  0.5000  0.5000  0.5000 (reduced coord)
  -0.00000   -0.00000    0.00000    0.00000   -0.00000    0.00000    0.00000    0.00000
  -0.00000   -0.00000    0.00000    0.00000   -0.00000   -0.00000    0.00000   -0.00000
   0.00000    0.00000   -0.00000   -0.00000   -0.00000    0.00000   -0.00000   -0.00000
  -0.00000   -0.00000   -0.00000   -0.00000    0.00000    0.00000    0.00000   -0.00000
  -0.00000    0.00000   -0.00000   -0.00000    0.00000    0.00000   -0.00000   -0.00000
  -0.00000    0.00000
 prteigrs : prtvol=0 or 1, do not print more k-points.

 Eight components of 2nd-order total energy (hartree) are
 1,2,3: 0th-order hamiltonian combined with 1st-order wavefunctions
     kin0=   5.83112592E+01 eigvalue=   6.74854008E+00  local=  -2.72323376E+01
 4,5,6: 1st-order hamiltonian combined with 1st and 0th-order wfs
     kin1=  -9.57610306E+01  Hartree=   0.00000000E+00     xc=   0.00000000E+00
 7,8,9: eventually, occupation + non-local contributions
    edocc=   1.40070922E+01     enl0=   5.22760808E-01   enl1=  -8.95359865E+00
 1-9 gives the relaxation energy (to be shifted if some occ is /=2.0)
   erelax=  -5.23573146E+01
  No Ewald or frozen-wf contrib.: the relaxation energy is the total one
 2DEtotal=   -0.5235731463E+02 Ha. Also 2DEtotal=   -0.142471498629E+04 eV
    (  non-var. 2DEtotal :   -5.2357314631E+01 Ha)

 CALCULATION OF EFFECTIVE MASSES
 NOTE : Additional infos (eff. mass eigenvalues, eigenvectors and, if degenerate, average mass) are available in stdout.

 COMMENTS:
 - At k-point ( 0.500, 0.500, 0.500), bands    32 through    33
   are DEGENERATE (effective mass tensor is therefore not defined).
   See Section IIIB Eqs. (67)-(70) and Appendix E of PRB 93 205147 (2016).
 - Angular average effective mass for Frohlich model is to be averaged over degenerate bands. See later.
 - Associated theta integrals calculated with ntheta=   1000 points.

 K-point ( 0.500, 0.500, 0.500) | band =    32
 Transport equivalent effective mass tensor:
             -0.4575245391             -0.0587834614             -0.3327247627
             -0.0587834614             -0.3969504442             -0.2028615698
             -0.3327247627             -0.2028615698             -1.5093195469
 Transport equivalent effective mass tensor eigenvalues:
             -1.6415761743             -0.3611103389             -0.3611080170
 Angular average effective mass 1/(<1/m>)=  -0.4219261614
 Angular average effective mass for Frohlich model (<m**0.5>)**2=  -0.4693281374
 Effective masses along directions: (cart. coord. / red. coord. -> eff. mass)
    1:   1.000000  0.000000  0.000000 /   0.909175  0.416415  0.000000 ->  -0.3297341439
    2:   0.000000  1.000000  0.000000 /   0.000000  1.000000  0.000000 ->  -0.3091457893
    3:   0.000000  0.000000  1.000000 /   0.542303  0.542303  0.641727 ->  -0.8783857953
    4:   0.577350  0.577350  0.577350 /   0.596308  0.676481  0.432192 ->  -0.6790164069
    5:   0.000000  0.707107  0.707107 /   0.454478  0.710085  0.537800 ->  -0.5337213434
    6:   0.707107  0.000000  0.707107 /   0.682095  0.538838  0.494369 ->  -0.6327081491
    7:   0.707107  0.707107  0.000000 /   0.596094  0.802915  0.000000 ->  -0.3599829793

 K-point ( 0.500, 0.500, 0.500) | band =    33
 Transport equivalent effective mass tensor:
            -26.1941115613             -0.3684387285             -2.0855406021
             -0.3684387285            -25.8144274881             -1.2715541196
             -2.0855406021             -1.2715541196            -32.7868202734
 Transport equivalent effective mass tensor eigenvalues:
            -33.6158142002            -25.5897997665            -25.5897453560
 Angular average effective mass 1/(<1/m>)=  -2.5194947402
 Angular average effective mass for Frohlich model (<m**0.5>)**2=  -3.1759020124
 Effective masses along directions: (cart. coord. / red. coord. -> eff. mass)
    1:   1.000000  0.000000  0.000000 /   0.909175  0.416415  0.000000 ->  -3.2646880939
    2:   0.000000  1.000000  0.000000 /   0.000000  1.000000  0.000000 ->  -4.7796901192
    3:   0.000000  0.000000  1.000000 /   0.542303  0.542303  0.641727 ->  -2.6349126831
    4:   0.577350  0.577350  0.577350 /   0.596308  0.676481  0.432192 ->  -1.6441813770
    5:   0.000000  0.707107  0.707107 /   0.454478  0.710085  0.537800 ->  -3.9049991091
    6:   0.707107  0.000000  0.707107 /   0.682095  0.538838  0.494369 ->  -3.6775195749
    7:   0.707107  0.707107  0.000000 /   0.596094  0.802915  0.000000 ->  -1.9538511308

 Angular average effective mass for Frohlich model, averaged over degenerate bands.
 Value of     (<<m**0.5>>)**2 =     1.521746E+00
 Absolute Value of <<m**0.5>> =     1.233591E+00

 K-point ( 0.000, 0.000, 0.000) | band =    34
 Effective mass tensor:
              0.2732556483             -0.0059956394             -0.0339358646
             -0.0059956394              0.2794339713             -0.0206905396
             -0.0339358646             -0.0206905396              0.1659792760
 Effective mass tensor eigenvalues:
              0.1524899205              0.2830894813              0.2830894937
 Angular average effective mass 1/(<1/m>)=   0.2202204299
 Angular average effective mass for Frohlich model (<m**0.5>)**2=   0.2264265786
 Effective masses along directions: (cart. coord. / red. coord. -> eff. mass)
    1:   1.000000  0.000000  0.000000 /   0.909175  0.416415  0.000000 ->   0.2659394636
    2:   0.000000  1.000000  0.000000 /   0.000000  1.000000  0.000000 ->   0.2764620873
    3:   0.000000  0.000000  1.000000 /   0.542303  0.542303  0.641727 ->   0.1601197043
    4:   0.577350  0.577350  0.577350 /   0.596308  0.676481  0.432192 ->   0.1825777955
    5:   0.000000  0.707107  0.707107 /   0.454478  0.710085  0.537800 ->   0.1848247953
    6:   0.707107  0.000000  0.707107 /   0.682095  0.538838  0.494369 ->   0.1727437845
    7:   0.707107  0.707107  0.000000 /   0.596094  0.802915  0.000000 ->   0.2612614579

 END OF EFFECTIVE MASSES SECTION

 ---- first-order wavefunction calculations are completed ----

 Total localisation tensor (bohr^2) in cartesian coordinates
  WARNING : still subject to testing - especially symmetries.
      direction              matrix element
   alpha     beta       real part   imaginary part
     1        1       2.6207643744    0.0000000000
     1        2       0.8820173999    0.0000000000
     1        3       4.9922878761    0.0000000000
     2        1       0.8820173999    0.0000000000
     2        2       1.7118770520    0.0000000000
     2        3       3.0437779547    0.0000000000
     3        1       4.9922878761    0.0000000000
     3        2       3.0437779547    0.0000000000
     3        3      18.4021394415    0.0000000000

 respfn : d/dk was computed, but no 2DTE, so no DDB output.

== END DATASET(S) ==============================================================

 -outvars: echo values of variables after computation  --------
            acell      1.0000000000E+00  1.0000000000E+00  1.0000000000E+00 Bohr
              amu      2.29897680E+01  2.00590000E+02  3.09737620E+01
             ecut      4.40000000E+01 Hartree
           etotal     -5.2357314630E+01
            fcart      0.0000000000E+00  0.0000000000E+00  0.0000000000E+00
                       0.0000000000E+00  0.0000000000E+00  0.0000000000E+00
                       0.0000000000E+00  0.0000000000E+00  0.0000000000E+00
                       0.0000000000E+00  0.0000000000E+00  0.0000000000E+00
                       0.0000000000E+00  0.0000000000E+00  0.0000000000E+00
                       0.0000000000E+00  0.0000000000E+00  0.0000000000E+00
                       0.0000000000E+00  0.0000000000E+00  0.0000000000E+00
-          fftalg         512
           irdden           1
           irdwfk           1
           istwfk        1    1
              ixc     -116133
              kpt      5.00000000E-01  5.00000000E-01  5.00000000E-01
                       0.00000000E+00  0.00000000E+00  0.00000000E+00
           kptopt           0
P           mkmem           2
P          mkqmem           2
P          mk1mem           2
            natom           7
            nband          42
           nbdbuf           4
            ngfft         108     108     108
             nkpt           2
            nstep        2000
             nsym          12
           ntypat           3
              occ      2.000000  2.000000  2.000000  2.000000  2.000000  2.000000
                       2.000000  2.000000  2.000000  2.000000  2.000000  2.000000
                       2.000000  2.000000  2.000000  2.000000  2.000000  2.000000
                       2.000000  2.000000  2.000000  2.000000  2.000000  2.000000
                       2.000000  2.000000  2.000000  2.000000  2.000000  2.000000
                       2.000000  2.000000  2.000000  0.000000  0.000000  0.000000
                       0.000000  0.000000  0.000000  0.000000  0.000000  0.000000
        optdriver           1
            prtwf          -1
            rfdir           1       1       1
           rfelfd           2
            rprim      9.0270047851E+00  0.0000000000E+00  1.4267858773E+01
                       4.1344999159E+00  8.0245078252E+00  1.4267858773E+01
                       0.0000000000E+00  0.0000000000E+00  1.6883678786E+01
          spgroup         166
           strten      0.0000000000E+00  0.0000000000E+00  0.0000000000E+00
                       0.0000000000E+00  0.0000000000E+00  0.0000000000E+00
           symrel      1  0  0   0  1  0   0  0  1      -1  0  0   0 -1  0   0  0 -1
                       0  1  0   1  0  0   0  0  1       0 -1  0  -1  0  0   0  0 -1
                       0  0  1   1  0  0   0  1  0       0  0 -1  -1  0  0   0 -1  0
                       1  0  0   0  0  1   0  1  0      -1  0  0   0  0 -1   0 -1  0
                       0  1  0   0  0  1   1  0  0       0 -1  0   0  0 -1  -1  0  0
                       0  0  1   0  1  0   1  0  0       0  0 -1   0 -1  0  -1  0  0
           tolwfr      1.00000000E-20
            typat      1  1  1  1  2  3  3
           useylm           1
              wtk        0.50000    0.50000
           xangst      5.5222812225E+00  3.3669090191E+00  1.9056991218E+01
                       4.1639703164E+00  2.5387532161E+00  1.4369558984E+01
                       1.4424870960E+00  8.7947763211E-01  4.9779181489E+00
                       2.8007980021E+00  1.7076334352E+00  9.6653503832E+00
                       0.0000000000E+00  0.0000000000E+00  0.0000000000E+00
                       6.5239681316E-01  3.9776328401E-01  2.2513739954E+00
                       6.3123715054E+00  3.8486233672E+00  2.1783535372E+01
            xcart      1.0435599139E+01  6.3625359605E+00  3.6012494320E+01
                       7.8687635235E+00  4.7975482974E+00  2.7154531130E+01
                       2.7259055616E+00  1.6619718647E+00  9.4069020133E+00
                       5.2927411775E+00  3.2269595278E+00  1.8264865203E+01
                       0.0000000000E+00  0.0000000000E+00  0.0000000000E+00
                       1.2328513068E+00  7.5166367249E-01  4.2544802739E+00
                       1.1928653394E+01  7.2728441527E+00  4.1164916059E+01
             xred      7.9288800000E-01  7.9288800000E-01  7.9288800000E-01
                       5.9786200000E-01  5.9786200000E-01  5.9786200000E-01
                       2.0711200000E-01  2.0711200000E-01  2.0711200000E-01
                       4.0213800000E-01  4.0213800000E-01  4.0213800000E-01
                       0.0000000000E+00  0.0000000000E+00  0.0000000000E+00
                       9.3671000000E-02  9.3671000000E-02  9.3671000000E-02
                       9.0632900000E-01  9.0632900000E-01  9.0632900000E-01
            znucl       11.00000   80.00000   15.00000

- Timing analysis has been suppressed with timopt=0

 Suggested references for the acknowledgment of ABINIT usage.

 Calculation completed.
.Delivered  14 WARNINGs and   9 COMMENTs to log file.