.Version 9.5.1 of ABINIT

 ABINIT is a project of the Universite Catholique de Louvain,
 Corning Inc. and other collaborators, see ~abinit/doc/developers/contributors.txt .
 acknowledgments of the ABINIT effort.

.Starting date : Wed 19 May 2021.
- ( at 07h48 )

- input  file    -> /scratch/users/j/a/jabreu/flow_simple_9atoms/flow/w123/t1/run.abi
- output file    -> /scratch/users/j/a/jabreu/flow_simple_9atoms/flow/w123/t1/run.abo
- root for input  files -> /scratch/users/j/a/jabreu/flow_simple_9atoms/flow/w123/t1/indata/in
- root for output files -> /scratch/users/j/a/jabreu/flow_simple_9atoms/flow/w123/t1/outdata/out

 Symmetries : space group Fm -3 m (#225); Bravais cF (face-center cubic)
     intxc =       0      iscf =       7    lmnmax =      18     lnmax =       6
     mgfft =      75  mpssoang =       3    mqgrid =    3001     natom =       9
  nloc_mem =       1    nspden =       1   nspinor =       1    nsppol =       1
      nsym =      48    n1xccc =    2501    ntypat =       3    occopt =       1
   xclevel =       2
-    mband =          46        mffmem =           1         mkmem =           1
-   mkqmem =           1        mk1mem =           1           mpw =       18053
      nfft =      421875          nkpt =           1
  Rough estimation (10% accuracy) of disk space for files :

------------- Echo of variables that govern the present computation ------------
-
- outvars: echo of selected default values
-   iomode0 =  0 , fftalg0 =512 , wfoptalg0 =  0
-
- outvars: echo of global parameters not present in the input file
-  max_nthreads =    0
-
 -outvars: echo values of preprocessed input variables --------
            acell      1.0000000000E+00  1.0000000000E+00  1.0000000000E+00 Bohr
              amu      8.54678000E+01  1.18710000E+02  3.54527000E+01
             ecut      3.60000000E+01 Hartree
-          fftalg         512
           irdden           1
           irdwfk           1
           istwfk        1
              ixc     -116133
           kptopt           0
P           mkmem           1
P          mkqmem           1
P          mk1mem           1
            natom           9
            nband          46
           nbdbuf           4
            ngfft          75      75      75
             nkpt           1
            nstep        2000
             nsym          48
           ntypat           3
              occ      2.000000  2.000000  2.000000  2.000000  2.000000  2.000000
                       2.000000  2.000000  2.000000  2.000000  2.000000  2.000000
                       2.000000  2.000000  2.000000  2.000000  2.000000  2.000000
                       2.000000  2.000000  2.000000  2.000000  2.000000  2.000000
                       2.000000  2.000000  2.000000  2.000000  2.000000  2.000000
                       2.000000  2.000000  2.000000  2.000000  2.000000  2.000000
                       2.000000  0.000000  0.000000  0.000000  0.000000  0.000000
                       0.000000  0.000000  0.000000  0.000000
        optdriver           1
            prtwf          -1
            rfdir           1       1       1
           rfelfd           2
            rprim      1.1694867808E+01  0.0000000000E+00  6.7520350771E+00
                       3.8982892693E+00  1.1026027109E+01  6.7520350771E+00
                       0.0000000000E+00  0.0000000000E+00  1.3504070154E+01
          spgroup         225
           symrel      1  0  0   0  1  0   0  0  1      -1  0  0   0 -1  0   0  0 -1
                       0 -1  1   0 -1  0   1 -1  0       0  1 -1   0  1  0  -1  1  0
                      -1  0  0  -1  0  1  -1  1  0       1  0  0   1  0 -1   1 -1  0
                       0  1 -1   1  0 -1   0  0 -1       0 -1  1  -1  0  1   0  0  1
                      -1  0  0  -1  1  0  -1  0  1       1  0  0   1 -1  0   1  0 -1
                       0 -1  1   1 -1  0   0 -1  0       0  1 -1  -1  1  0   0  1  0
                       1  0  0   0  0  1   0  1  0      -1  0  0   0  0 -1   0 -1  0
                       0  1 -1   0  0 -1   1  0 -1       0 -1  1   0  0  1  -1  0  1
                      -1  0  1  -1  1  0  -1  0  0       1  0 -1   1 -1  0   1  0  0
                       0 -1  0   1 -1  0   0 -1  1       0  1  0  -1  1  0   0  1 -1
                       1  0 -1   0  0 -1   0  1 -1      -1  0  1   0  0  1   0 -1  1
                       0  1  0   0  0  1   1  0  0       0 -1  0   0  0 -1  -1  0  0
                       1  0 -1   0  1 -1   0  0 -1      -1  0  1   0 -1  1   0  0  1
                       0 -1  0   0 -1  1   1 -1  0       0  1  0   0  1 -1  -1  1  0
                      -1  0  1  -1  0  0  -1  1  0       1  0 -1   1  0  0   1 -1  0
                       0  1  0   1  0  0   0  0  1       0 -1  0  -1  0  0   0  0 -1
                       0  0 -1   0  1 -1   1  0 -1       0  0  1   0 -1  1  -1  0  1
                       1 -1  0   0 -1  1   0 -1  0      -1  1  0   0  1 -1   0  1  0
                       0  0  1   1  0  0   0  1  0       0  0 -1  -1  0  0   0 -1  0
                      -1  1  0  -1  0  0  -1  0  1       1 -1  0   1  0  0   1  0 -1
                       0  0  1   0  1  0   1  0  0       0  0 -1   0 -1  0  -1  0  0
                       1 -1  0   0 -1  0   0 -1  1      -1  1  0   0  1  0   0  1 -1
                       0  0 -1   1  0 -1   0  1 -1       0  0  1  -1  0  1   0 -1  1
                      -1  1  0  -1  0  1  -1  0  0       1 -1  0   1  0 -1   1  0  0
           tolwfr      1.00000000E-20
            typat      1  1  2  3  3  3  3  3  3
           useylm           1
           xangst      6.1886575015E+00  4.3760416857E+00  1.0719069223E+01
                       2.0628858338E+00  1.4586805619E+00  3.5730230744E+00
                       0.0000000000E+00  0.0000000000E+00  0.0000000000E+00
                       5.1888675048E+00  1.4139165728E+00  8.9873821520E+00
                       3.0626758305E+00  4.4208056748E+00  8.9873821520E+00
                       5.1888675048E+00  1.4139165728E+00  5.3047101455E+00
                       3.0626758305E+00  4.4208056748E+00  5.3047101455E+00
                       6.2519633419E+00  4.4208056748E+00  7.1460461488E+00
                       1.9995799933E+00  1.4139165728E+00  7.1460461488E+00
            xcart      1.1694867808E+01  8.2695203321E+00  2.0256105231E+01
                       3.8982892693E+00  2.7565067774E+00  6.7520350771E+00
                       0.0000000000E+00  0.0000000000E+00  0.0000000000E+00
                       9.8055385239E+00  2.6719150974E+00  1.6983690919E+01
                       5.7876185534E+00  8.3541120121E+00  1.6983690919E+01
                       9.8055385239E+00  2.6719150974E+00  1.0024449389E+01
                       5.7876185534E+00  8.3541120121E+00  1.0024449389E+01
                       1.1814498509E+01  8.3541120121E+00  1.3504070154E+01
                       3.7786585682E+00  2.6719150974E+00  1.3504070154E+01
             xred      7.5000000000E-01  7.5000000000E-01  7.5000000000E-01
                       2.5000000000E-01  2.5000000000E-01  2.5000000000E-01
                       0.0000000000E+00  0.0000000000E+00  0.0000000000E+00
                       7.5767200000E-01  2.4232800000E-01  7.5767200000E-01
                       2.4232800000E-01  7.5767200000E-01  7.5767200000E-01
                       7.5767200000E-01  2.4232800000E-01  2.4232800000E-01
                       2.4232800000E-01  7.5767200000E-01  2.4232800000E-01
                       7.5767200000E-01  7.5767200000E-01  2.4232800000E-01
                       2.4232800000E-01  2.4232800000E-01  7.5767200000E-01
            znucl       37.00000   50.00000   17.00000

 chkinp: Checking input parameters for consistency.

== DATASET  1 ==================================================================
-   mpi_nproc: 1, omp_nthreads: -1 (-1 if OMP is not activated)

--- !DatasetInfo
iteration_state: {dtset: 1, }
dimensions: {natom: 9, nkpt: 1, mband: 46, nsppol: 1, nspinor: 1, nspden: 1, mpw: 18053, }
cutoff_energies: {ecut:  36.0, pawecutdg:  -1.0, }
electrons: {nelect:   7.40000000E+01, charge:   0.00000000E+00, occopt:   1.00000000E+00, tsmear:   1.00000000E-02, }
meta: {optdriver: 1, rfelfd: 2, }
...

 Real(R)+Recip(G) space primitive vectors, cartesian coordinates (Bohr,Bohr^-1):
 R(1)= 11.6948678  0.0000000  6.7520351  G(1)=  0.0855076 -0.0302315  0.0000000
 R(2)=  3.8982893 11.0260271  6.7520351  G(2)=  0.0000000  0.0906945  0.0000000
 R(3)=  0.0000000  0.0000000 13.5040702  G(3)= -0.0427538 -0.0302315  0.0740517
 Unit cell volume ucvol=  1.7413219E+03 bohr^3
 Angles (23,13,12)=  6.00000000E+01  6.00000000E+01  6.00000000E+01 degrees

 getcut: wavevector=  0.0000  0.0000  0.0000  ngfft=  75  75  75
         ecut(hartree)=     36.000   => boxcut(ratio)=   2.02922

--- Pseudopotential description ------------------------------------------------
- pspini: atom type   1  psp file is /scratch/users/j/a/jabreu/pseudos/PBEsol/Rb.psp8
- pspatm: opening atomic psp file    /scratch/users/j/a/jabreu/pseudos/PBEsol/Rb.psp8
- Rb    ONCVPSP-3.3.0  r_core=   1.71227   1.75361   1.90633
- 37.00000   9.00000    180112                znucl, zion, pspdat
    8 -116133    2    4       600   0.00000   pspcod,pspxc,lmax,lloc,mmax,r2well
    5.99000000000000    7.00000000000000    0.00000000000000   rchrg,fchrg,qchrg
     nproj     2     2     2
     extension_switch     1
  pspatm : epsatm=   34.48400912
         --- l  ekb(1:nproj) -->
             0    8.196957   -0.477221
             1    3.231347   -0.378736
             2   -1.047201    0.996637
 pspatm: atomic psp has been read  and splines computed

- pspini: atom type   2  psp file is /scratch/users/j/a/jabreu/pseudos/PBEsol/Sn.psp8
- pspatm: opening atomic psp file    /scratch/users/j/a/jabreu/pseudos/PBEsol/Sn.psp8
- Sn    ONCVPSP-3.3.0  r_core=   2.27326   2.62311   1.85601
- 50.00000  14.00000    180112                znucl, zion, pspdat
    8 -116133    2    4       600   0.00000   pspcod,pspxc,lmax,lloc,mmax,r2well
    5.99000000000000    6.50000000000000    0.00000000000000   rchrg,fchrg,qchrg
     nproj     2     2     2
     extension_switch     1
  pspatm : epsatm=   32.44586081
         --- l  ekb(1:nproj) -->
             0    5.587869    0.749373
             1    4.197111    0.728791
             2   -5.271877   -1.523486
 pspatm: atomic psp has been read  and splines computed

- pspini: atom type   3  psp file is /scratch/users/j/a/jabreu/pseudos/PBEsol/Cl.psp8
- pspatm: opening atomic psp file    /scratch/users/j/a/jabreu/pseudos/PBEsol/Cl.psp8
- Cl    ONCVPSP-3.3.0  r_core=   1.56009   1.35202   1.75774
- 17.00000   7.00000    180112                znucl, zion, pspdat
    8 -116133    2    4       600   0.00000   pspcod,pspxc,lmax,lloc,mmax,r2well
    5.99000000000000    8.00000000000000    0.00000000000000   rchrg,fchrg,qchrg
     nproj     2     2     2
     extension_switch     1
  pspatm : epsatm=    8.95520722
         --- l  ekb(1:nproj) -->
             0    8.193503    0.707970
             1    3.869736    1.114731
             2   -2.915303   -0.810552
 pspatm: atomic psp has been read  and splines computed

[...]
 Perturbation : derivative vs k along direction   2
 The set of symmetries contains only one element for this perturbation.
 symkpt : not enough symmetry to change the number of k points.

[...]

 Perturbation wavevector (in red.coord.)   0.000000  0.000000  0.000000
 Perturbation : derivative vs k along direction   3
 The set of symmetries contains only one element for this perturbation.
 symkpt : not enough symmetry to change the number of k points.

-inwffil : will read wavefunctions from disk file /scratch/users/j/a/jabreu/flow_simple_9atoms/flow/w123/t1/indata/in_WFK

 Initialisation of the first-order wave-functions :
  ireadwf=   0

--- !BeginCycle
iteration_state: {dtset: 1, }
solver: {iscf: 7, nstep: 2000, nline: 4, wfoptalg: 0, }
tolerances: {tolwfr: 1.00E-20, }
...

     iter   2DEtotal(Ha)        deltaE(Ha) residm    vres2
-ETOT  1  -32.340408296196     -3.234E+01 2.001E-02 0.000E+00
 ETOT  2  -32.375284324181     -3.488E-02 5.862E-04 0.000E+00
 ETOT  3  -32.375460785070     -1.765E-04 3.861E-05 0.000E+00
 ETOT  4  -32.375461984620     -1.200E-06 3.617E-06 0.000E+00
 ETOT  5  -32.375461994784     -1.016E-08 4.066E-07 0.000E+00
 ETOT  6  -32.375461994885     -1.011E-10 5.510E-08 0.000E+00
 ETOT  7  -32.375461994887     -1.130E-12 6.797E-09 0.000E+00
 ETOT  8  -32.375461994887      2.132E-14 9.592E-10 0.000E+00
 ETOT  9  -32.375461994887     -6.395E-14 1.332E-10 0.000E+00
 ETOT 10  -32.375461994887      1.421E-14 1.785E-11 0.000E+00
 ETOT 11  -32.375461994887     -7.105E-15 2.693E-12 0.000E+00
 ETOT 12  -32.375461994887     -7.105E-15 3.405E-13 0.000E+00
 ETOT 13  -32.375461994887      1.421E-14 5.526E-14 0.000E+00
 ETOT 14  -32.375461994887      0.000E+00 6.559E-15 0.000E+00
 ETOT 15  -32.375461994887      0.000E+00 1.142E-15 0.000E+00
 ETOT 16  -32.375461994887     -2.132E-14 1.265E-16 0.000E+00
 ETOT 17  -32.375461994887      7.105E-15 2.369E-17 0.000E+00
 ETOT 18  -32.375461994887      0.000E+00 2.443E-18 0.000E+00
 ETOT 19  -32.375461994887      1.421E-14 4.930E-19 0.000E+00
 ETOT 20  -32.375461994887     -1.421E-14 4.719E-20 0.000E+00
 ETOT 21  -32.375461994887     -7.105E-15 9.304E-21 0.000E+00

 At SCF step   21   max residual=  9.30E-21 < tolwfr=  1.00E-20 =>converged.

 ----iterations are completed or convergence reached----

 dfpt_looppert: DFPT cycle converged with prtwf=-1. Will skip output of the 1st-order WFK file.
 dfpt_looppert : ek2=    4.8059952833E+01
          f-sum rule ratio=    1.1450556750E+00
 prteigrs : about to open file /scratch/users/j/a/jabreu/flow_simple_9atoms/flow/w123/t1/tmpdata/tmp_1WF1_EIG
 Expectation of eigenvalue derivatives (hartree) for nkpt=   1  k points:
  (in case of degenerate eigenvalues, averaged derivative)
 kpt#   1, nband= 46, wtk=  1.00000, kpt=  0.0000  0.0000  0.0000 (reduced coord)
  -0.00000    0.00000    0.00000    0.00000    0.00000    0.00000    0.00000    0.00000
   0.00000    0.00000    0.00000    0.00000    0.00000    0.00000    0.00000    0.00000
  -0.00000   -0.00000   -0.00000    0.00000   -0.00000   -0.00000   -0.00000    0.00000
   0.00000    0.00000    0.00000    0.00000    0.00000    0.00000    0.00000    0.00000
   0.00000    0.00000    0.00000    0.00000    0.00000   -0.00000    0.00000   -0.00000
  -0.00000   -0.00000    0.00000    0.00000   -0.00000    0.00000

 Eight components of 2nd-order total energy (hartree) are
 1,2,3: 0th-order hamiltonian combined with 1st-order wavefunctions
     kin0=   3.84595941E+01 eigvalue=   4.34305510E+00  local=  -2.09939180E+01
 4,5,6: 1st-order hamiltonian combined with 1st and 0th-order wfs
     kin1=  -5.50313217E+01  Hartree=   0.00000000E+00     xc=   0.00000000E+00
 7,8,9: eventually, occupation + non-local contributions
    edocc=   8.36062895E+00     enl0=   2.20610185E+00   enl1=  -9.71960226E+00
 1-9 gives the relaxation energy (to be shifted if some occ is /=2.0)
   erelax=  -3.23754620E+01
  No Ewald or frozen-wf contrib.: the relaxation energy is the total one
 2DEtotal=   -0.3237546199E+02 Ha. Also 2DEtotal=   -0.880981123988E+03 eV
    (  non-var. 2DEtotal :   -3.2375461995E+01 Ha)

 CALCULATION OF EFFECTIVE MASSES
 NOTE : Additional infos (eff. mass eigenvalues, eigenvectors and, if degenerate, average mass) are available in stdout.

 COMMENTS:
 - At k-point ( 0.000, 0.000, 0.000), bands    35 through    37
   are DEGENERATE (effective mass tensor is therefore not defined).
   See Section IIIB Eqs. (67)-(70) and Appendix E of PRB 93 205147 (2016).
 - Angular average effective mass for Frohlich model is to be averaged over degenerate bands. See later.
 - Associated theta integrals calculated with ntheta=   1000 points.

 K-point ( 0.000, 0.000, 0.000) | band =    35
 Transport equivalent effective mass tensor:
             -1.0749509870             -0.0000003040             -0.0000000008
             -0.0000003040             -1.0749506962             -0.0000000006
             -0.0000000008             -0.0000000006             -1.0749493721
 Transport equivalent effective mass tensor eigenvalues:
             -1.0749511786             -1.0749505046             -1.0749493721
 Angular average effective mass 1/(<1/m>)=  -1.0289119494
 Angular average effective mass for Frohlich model (<m**0.5>)**2=  -1.0307151630
 Effective masses along directions: (cart. coord. / red. coord. -> eff. mass)
    1:   1.000000  0.000000  0.000000 /   0.948683  0.316228  0.000000 ->  -1.0891031488
    2:   0.000000  1.000000  0.000000 /   0.000000  1.000000  0.000000 ->  -1.2178183837
    3:   0.000000  0.000000  1.000000 /   0.408248  0.408248  0.816497 ->  -0.9849957095
    4:   0.577350  0.577350  0.577350 /   0.585539  0.688047  0.428644 ->  -1.0563479181
    5:   0.000000  0.707107  0.707107 /   0.289489  0.762222  0.578977 ->  -0.9911329552
    6:   0.707107  0.000000  0.707107 /   0.731423  0.422287  0.535439 ->  -1.0180014409
    7:   0.707107  0.707107  0.000000 /   0.616798  0.787122  0.000000 ->  -0.9931397836

[...]

 K-point ( 0.000, 0.000, 0.000) | band =    37
 Transport equivalent effective mass tensor:
            -57.5719824130             -0.0000000131             -0.0000000218
             -0.0000000131            -57.5719824088             -0.0000000145
             -0.0000000218             -0.0000000145            -57.5719824444
 Transport equivalent effective mass tensor eigenvalues:
            -57.5719824623            -57.5719824067            -57.5719823972
 Angular average effective mass 1/(<1/m>)=  -4.0692364811
 Angular average effective mass for Frohlich model (<m**0.5>)**2=  -5.1124098194
 Effective masses along directions: (cart. coord. / red. coord. -> eff. mass)
    1:   1.000000  0.000000  0.000000 /   0.948683  0.316228  0.000000 ->  -3.4577386607
    2:   0.000000  1.000000  0.000000 /   0.000000  1.000000  0.000000 ->  -2.3715633752
    3:   0.000000  0.000000  1.000000 /   0.408248  0.408248  0.816497 ->  -3.0805571506
    4:   0.577350  0.577350  0.577350 /   0.585539  0.688047  0.428644 ->  -3.3505180897
    5:   0.000000  0.707107  0.707107 /   0.289489  0.762222  0.578977 ->  -5.8306108521
    6:   0.707107  0.000000  0.707107 /   0.731423  0.422287  0.535439 ->  -3.2703250499
    7:   0.707107  0.707107  0.000000 /   0.616798  0.787122  0.000000 -> -17.5965628811

 Angular average effective mass for Frohlich model, averaged over degenerate bands.
 Value of     (<<m**0.5>>)**2 =     2.118921E+00
 Absolute Value of <<m**0.5>> =     1.455651E+00

 K-point ( 0.000, 0.000, 0.000) | band =    38
 Effective mass tensor:
              0.4758021136              0.0000000001              0.0000000001
              0.0000000001              0.4758021136              0.0000000001
              0.0000000001              0.0000000001              0.4758021139
 Effective mass tensor eigenvalues:
              0.4758021136              0.4758021136              0.4758021140
 Angular average effective mass 1/(<1/m>)=   0.4758021137
 Angular average effective mass for Frohlich model (<m**0.5>)**2=   0.4758021137
 Effective masses along directions: (cart. coord. / red. coord. -> eff. mass)
    1:   1.000000  0.000000  0.000000 /   0.948683  0.316228  0.000000 ->   0.4758021136
    2:   0.000000  1.000000  0.000000 /   0.000000  1.000000  0.000000 ->   0.4758021136
    3:   0.000000  0.000000  1.000000 /   0.408248  0.408248  0.816497 ->   0.4758021139
    4:   0.577350  0.577350  0.577350 /   0.585539  0.688047  0.428644 ->   0.4758021139
    5:   0.000000  0.707107  0.707107 /   0.289489  0.762222  0.578977 ->   0.4758021139
    6:   0.707107  0.000000  0.707107 /   0.731423  0.422287  0.535439 ->   0.4758021139
    7:   0.707107  0.707107  0.000000 /   0.616798  0.787122  0.000000 ->   0.4758021137

 END OF EFFECTIVE MASSES SECTION

 ---- first-order wavefunction calculations are completed ----

 Total localisation tensor (bohr^2) in cartesian coordinates
  WARNING : still subject to testing - especially symmetries.
      direction              matrix element
   alpha     beta       real part   imaginary part
     1        1       1.5834369615    0.0000000000
     1        2       0.4478636050    0.0000000000
     1        3       1.0970373071    0.0000000000
     2        1       0.4478636050    0.0000000000
     2        2       1.2667495685    0.0000000000
     2        3       0.7757225187    0.0000000000
     3        1       1.0970373071    0.0000000000
     3        2       0.7757225187    0.0000000000
     3        3       2.8501865307    0.0000000000

 respfn : d/dk was computed, but no 2DTE, so no DDB output.

== END DATASET(S) ==============================================================

 -outvars: echo values of variables after computation  --------
            acell      1.0000000000E+00  1.0000000000E+00  1.0000000000E+00 Bohr
              amu      8.54678000E+01  1.18710000E+02  3.54527000E+01
             ecut      3.60000000E+01 Hartree
           etotal     -3.2375461995E+01
            fcart      0.0000000000E+00  0.0000000000E+00  0.0000000000E+00
                       0.0000000000E+00  0.0000000000E+00  0.0000000000E+00
                       0.0000000000E+00  0.0000000000E+00  0.0000000000E+00
                       0.0000000000E+00  0.0000000000E+00  0.0000000000E+00
                       0.0000000000E+00  0.0000000000E+00  0.0000000000E+00
                       0.0000000000E+00  0.0000000000E+00  0.0000000000E+00
                       0.0000000000E+00  0.0000000000E+00  0.0000000000E+00
                       0.0000000000E+00  0.0000000000E+00  0.0000000000E+00
                       0.0000000000E+00  0.0000000000E+00  0.0000000000E+00
-          fftalg         512
           irdden           1
           irdwfk           1
           istwfk        1
              ixc     -116133
           kptopt           0
P           mkmem           1
P          mkqmem           1
P          mk1mem           1
            natom           9
            nband          46
           nbdbuf           4
            ngfft          75      75      75
             nkpt           1
            nstep        2000
             nsym          48
           ntypat           3
              occ      2.000000  2.000000  2.000000  2.000000  2.000000  2.000000
                       2.000000  2.000000  2.000000  2.000000  2.000000  2.000000
                       2.000000  2.000000  2.000000  2.000000  2.000000  2.000000
                       2.000000  2.000000  2.000000  2.000000  2.000000  2.000000
                       2.000000  2.000000  2.000000  2.000000  2.000000  2.000000
                       2.000000  2.000000  2.000000  2.000000  2.000000  2.000000
                       2.000000  0.000000  0.000000  0.000000  0.000000  0.000000
                       0.000000  0.000000  0.000000  0.000000
        optdriver           1
            prtwf          -1
            rfdir           1       1       1
           rfelfd           2
            rprim      1.1694867808E+01  0.0000000000E+00  6.7520350771E+00
                       3.8982892693E+00  1.1026027109E+01  6.7520350771E+00
                       0.0000000000E+00  0.0000000000E+00  1.3504070154E+01
          spgroup         225
           strten      0.0000000000E+00  0.0000000000E+00  0.0000000000E+00
                       0.0000000000E+00  0.0000000000E+00  0.0000000000E+00
           symrel      1  0  0   0  1  0   0  0  1      -1  0  0   0 -1  0   0  0 -1
                       0 -1  1   0 -1  0   1 -1  0       0  1 -1   0  1  0  -1  1  0
                      -1  0  0  -1  0  1  -1  1  0       1  0  0   1  0 -1   1 -1  0
                       0  1 -1   1  0 -1   0  0 -1       0 -1  1  -1  0  1   0  0  1
                      -1  0  0  -1  1  0  -1  0  1       1  0  0   1 -1  0   1  0 -1
                       0 -1  1   1 -1  0   0 -1  0       0  1 -1  -1  1  0   0  1  0
                       1  0  0   0  0  1   0  1  0      -1  0  0   0  0 -1   0 -1  0
                       0  1 -1   0  0 -1   1  0 -1       0 -1  1   0  0  1  -1  0  1
                      -1  0  1  -1  1  0  -1  0  0       1  0 -1   1 -1  0   1  0  0
                       0 -1  0   1 -1  0   0 -1  1       0  1  0  -1  1  0   0  1 -1
                       1  0 -1   0  0 -1   0  1 -1      -1  0  1   0  0  1   0 -1  1
                       0  1  0   0  0  1   1  0  0       0 -1  0   0  0 -1  -1  0  0
                       1  0 -1   0  1 -1   0  0 -1      -1  0  1   0 -1  1   0  0  1
                       0 -1  0   0 -1  1   1 -1  0       0  1  0   0  1 -1  -1  1  0
                      -1  0  1  -1  0  0  -1  1  0       1  0 -1   1  0  0   1 -1  0
                       0  1  0   1  0  0   0  0  1       0 -1  0  -1  0  0   0  0 -1
                       0  0 -1   0  1 -1   1  0 -1       0  0  1   0 -1  1  -1  0  1
                       1 -1  0   0 -1  1   0 -1  0      -1  1  0   0  1 -1   0  1  0
                       0  0  1   1  0  0   0  1  0       0  0 -1  -1  0  0   0 -1  0
                      -1  1  0  -1  0  0  -1  0  1       1 -1  0   1  0  0   1  0 -1
                       0  0  1   0  1  0   1  0  0       0  0 -1   0 -1  0  -1  0  0
                       1 -1  0   0 -1  0   0 -1  1      -1  1  0   0  1  0   0  1 -1
                       0  0 -1   1  0 -1   0  1 -1       0  0  1  -1  0  1   0 -1  1
                      -1  1  0  -1  0  1  -1  0  0       1 -1  0   1  0 -1   1  0  0
           tolwfr      1.00000000E-20
            typat      1  1  2  3  3  3  3  3  3
           useylm           1
           xangst      6.1886575015E+00  4.3760416857E+00  1.0719069223E+01
                       2.0628858338E+00  1.4586805619E+00  3.5730230744E+00
                       0.0000000000E+00  0.0000000000E+00  0.0000000000E+00
                       5.1888675048E+00  1.4139165728E+00  8.9873821520E+00
                       3.0626758305E+00  4.4208056748E+00  8.9873821520E+00
                       5.1888675048E+00  1.4139165728E+00  5.3047101455E+00
                       3.0626758305E+00  4.4208056748E+00  5.3047101455E+00
                       6.2519633419E+00  4.4208056748E+00  7.1460461488E+00
                       1.9995799933E+00  1.4139165728E+00  7.1460461488E+00
            xcart      1.1694867808E+01  8.2695203321E+00  2.0256105231E+01
                       3.8982892693E+00  2.7565067774E+00  6.7520350771E+00
                       0.0000000000E+00  0.0000000000E+00  0.0000000000E+00
                       9.8055385239E+00  2.6719150974E+00  1.6983690919E+01
                       5.7876185534E+00  8.3541120121E+00  1.6983690919E+01
                       9.8055385239E+00  2.6719150974E+00  1.0024449389E+01
                       5.7876185534E+00  8.3541120121E+00  1.0024449389E+01
                       1.1814498509E+01  8.3541120121E+00  1.3504070154E+01
                       3.7786585682E+00  2.6719150974E+00  1.3504070154E+01
             xred      7.5000000000E-01  7.5000000000E-01  7.5000000000E-01
                       2.5000000000E-01  2.5000000000E-01  2.5000000000E-01
                       0.0000000000E+00  0.0000000000E+00  0.0000000000E+00
                       7.5767200000E-01  2.4232800000E-01  7.5767200000E-01
                       2.4232800000E-01  7.5767200000E-01  7.5767200000E-01
                       7.5767200000E-01  2.4232800000E-01  2.4232800000E-01
                       2.4232800000E-01  7.5767200000E-01  2.4232800000E-01
                       7.5767200000E-01  7.5767200000E-01  2.4232800000E-01
                       2.4232800000E-01  2.4232800000E-01  7.5767200000E-01
            znucl       37.00000   50.00000   17.00000

- Timing analysis has been suppressed with timopt=0

 Suggested references for the acknowledgment of ABINIT usage.

 Calculation completed.
.Delivered   6 WARNINGs and   5 COMMENTs to log file.