.Version 9.5.2 of ABINIT

 ABINIT is a project of the Universite Catholique de Louvain,
 Corning Inc. and other collaborators, see ~abinit/doc/developers/contributors.txt .
 acknowledgments of the ABINIT effort.

.Starting date : Wed 26 May 2021.
- ( at 02h45 )

- input  file    -> /scratch/users/j/a/jabreu/flow_simple_11atoms/flow/w257/t1/run.abi
- output file    -> /scratch/users/j/a/jabreu/flow_simple_11atoms/flow/w257/t1/run.abo
- root for input  files -> /scratch/users/j/a/jabreu/flow_simple_11atoms/flow/w257/t1/indata/in
- root for output files -> /scratch/users/j/a/jabreu/flow_simple_11atoms/flow/w257/t1/outdata/out

 Symmetries : space group Ib a m (# 72); Bravais oI (body-center ortho.)
     intxc =       0      iscf =       7    lmnmax =      18     lnmax =       6
     mgfft =      75  mpssoang =       3    mqgrid =    3001     natom =      12
  nloc_mem =       1    nspden =       1   nspinor =       1    nsppol =       1
      nsym =       8    n1xccc =    2501    ntypat =       3    occopt =       1
   xclevel =       2
-    mband =          81        mffmem =           1         mkmem =           1
-   mkqmem =           1        mk1mem =           1           mpw =       15309
      nfft =      421875          nkpt =           1
  Rough estimation (10% accuracy) of disk space for files :

------------- Echo of variables that govern the present computation ------------
-
- outvars: echo of selected default values
-   iomode0 =  0 , fftalg0 =512 , wfoptalg0 =  0
-
- outvars: echo of global parameters not present in the input file
-  max_nthreads =    0
-
 -outvars: echo values of preprocessed input variables --------
            acell      1.0000000000E+00  1.0000000000E+00  1.0000000000E+00 Bohr
              amu      6.94100000E+00  1.07868200E+02  1.59994000E+01
             ecut      4.40000000E+01 Hartree
-          fftalg         512
           irdden           1
           irdwfk           1
           istwfk        1
              ixc     -116133
           kptopt           0
P           mkmem           1
P          mkqmem           1
P          mk1mem           1
            natom          12
            nband          81
           nbdbuf           4
            ngfft          75      75      75
             nkpt           1
            nstep        2000
             nsym           8
           ntypat           3
              occ      2.000000  2.000000  2.000000  2.000000  2.000000  2.000000
                       2.000000  2.000000  2.000000  2.000000  2.000000  2.000000
                       2.000000  2.000000  2.000000  2.000000  2.000000  2.000000
                       2.000000  2.000000  2.000000  2.000000  2.000000  2.000000
                       2.000000  2.000000  2.000000  2.000000  2.000000  2.000000
                       2.000000  2.000000  2.000000  2.000000  2.000000  2.000000
                       2.000000  2.000000  2.000000  2.000000  2.000000  2.000000
                       2.000000  2.000000  2.000000  2.000000  2.000000  2.000000
                       2.000000  2.000000  2.000000  2.000000  2.000000  2.000000
                       2.000000  2.000000  2.000000  2.000000  2.000000  2.000000
                       2.000000  2.000000  2.000000  2.000000  2.000000  2.000000
                       2.000000  2.000000  2.000000  2.000000  2.000000  2.000000
                       0.000000  0.000000  0.000000  0.000000  0.000000  0.000000
                       0.000000  0.000000  0.000000
        optdriver           1
            prtwf          -1
            rfdir           1       1       1
           rfelfd           2
            rprim      9.9156151209E+00  0.0000000000E+00 -6.8670849236E+00
                      -2.4659447769E+00  9.2365756425E+00 -7.3539829570E+00
                       0.0000000000E+00  0.0000000000E+00  1.2061354757E+01
          spgroup          72
           symrel      1  0  0   0  1  0   0  0  1      -1  0  0   0 -1  0   0  0 -1
                       0  0  1  -1 -1 -1   1  0  0       0  0 -1   1  1  1  -1  0  0
                      -1 -1 -1   0  0  1   0  1  0       1  1  1   0  0 -1   0 -1  0
                       0  1  0   1  0  0  -1 -1 -1       0 -1  0  -1  0  0   1  1  1
            tnons      0.0000000  0.0000000  0.0000000     0.0000000 -0.0000000 -0.0000000
                       0.0000000  0.5000000  0.5000000     0.0000000  0.5000000  0.5000000
                       0.0000000  0.0000000  0.0000000    -0.0000000 -0.0000000 -0.0000000
                       0.0000000  0.5000000  0.5000000    -0.0000000  0.5000000  0.5000000
           tolwfr      1.00000000E-20
            typat      1  1  2  2  2  2  2  2  3  3  3  3
           useylm           1
           xangst      2.2973283222E+00  1.2219463289E+00  1.9971030728E+00
                       1.6448674354E+00  3.6658389866E+00 -3.1399740349E+00
                       1.9710978788E+00  2.4438926577E+00 -5.7143548105E-01
                      -1.3734340122E-16 -5.7656900339E-16  3.1912970211E+00
                       2.6235587656E+00 -6.7831647458E-16 -1.8169524155E+00
                      -6.5246088679E-01  2.4438926577E+00  1.2455169345E+00
                      -1.1017926000E-16 -6.7831647458E-16 -6.7543586859E-16
                      -6.5246088679E-01  2.4438926577E+00 -1.9457800866E+00
                       2.0514858208E+00  4.6955364995E-01  1.5333034510E-01
                       3.3005986922E+00  2.9134463077E+00 -3.9876121720E+00
                       1.8907099368E+00  4.4182316655E+00 -1.2962013072E+00
                       6.4159706539E-01  1.9743390078E+00  2.8447412099E+00
            xcart      4.3413213662E+00  2.3091439106E+00  3.7739778667E+00
                       3.1083489778E+00  6.9274317319E+00 -5.9336909903E+00
                       3.7248351720E+00  4.6182878212E+00 -1.0798565618E+00
                      -2.5954141447E-16 -1.0895575131E-15  6.0306773785E+00
                       4.9578075604E+00 -1.2818323684E-15 -3.4335424618E+00
                      -1.2329723884E+00  4.6182878212E+00  2.3536859000E+00
                      -2.0820862693E-16 -1.2818323684E-15 -1.2763888120E-15
                      -1.2329723884E+00  4.6182878212E+00 -3.6769914785E+00
                       3.8767463667E+00  8.8732780310E-01  2.8975236010E-01
                       6.2372276028E+00  5.5056156244E+00 -7.5354949293E+00
                       3.5729239773E+00  8.3492478394E+00 -2.4494654837E+00
                       1.2124427412E+00  3.7309600181E+00  5.3757818057E+00
             xred      5.0000000000E-01  2.5000000000E-01  7.5000000000E-01
                       5.0000000000E-01  7.5000000000E-01  2.5000000000E-01
                       5.0000000000E-01  5.0000000000E-01  5.0000000000E-01
                      -5.5511151231E-17 -1.1796119637E-16  5.0000000000E-01
                       5.0000000000E-01 -1.3877787808E-16 -2.2204460493E-16
                      -5.5511151231E-17  5.0000000000E-01  5.0000000000E-01
                      -5.5511151231E-17 -1.3877787808E-16 -2.2204460493E-16
                      -5.5511151231E-17  5.0000000000E-01 -2.0816681712E-16
                       4.1486500000E-01  9.6066750000E-02  3.1879825000E-01
                       7.7726850000E-01  5.9606675000E-01  1.8120175000E-01
                       5.8513500000E-01  9.0393325000E-01  6.8120175000E-01
                       2.2273150000E-01  4.0393325000E-01  8.1879825000E-01
            znucl        3.00000   47.00000    8.00000

 chkinp: Checking input parameters for consistency.

== DATASET  1 ==================================================================
-   mpi_nproc: 1, omp_nthreads: -1 (-1 if OMP is not activated)

--- !DatasetInfo
iteration_state: {dtset: 1, }
dimensions: {natom: 12, nkpt: 1, mband: 81, nsppol: 1, nspinor: 1, nspden: 1, mpw: 15309, }
cutoff_energies: {ecut:  44.0, pawecutdg:  -1.0, }
electrons: {nelect:   1.44000000E+02, charge:   0.00000000E+00, occopt:   1.00000000E+00, tsmear:   1.00000000E-02, }
meta: {optdriver: 1, rfelfd: 2, }
...

 Real(R)+Recip(G) space primitive vectors, cartesian coordinates (Bohr,Bohr^-1):
 R(1)=  9.9156151  0.0000000 -6.8670849  G(1)=  0.1008510  0.0269248  0.0000000
 R(2)= -2.4659448  9.2365756 -7.3539830  G(2)=  0.0000000  0.1082652  0.0000000
 R(3)=  0.0000000  0.0000000 12.0613548  G(3)=  0.0574191  0.0813404  0.0829094
 Unit cell volume ucvol=  1.1046552E+03 bohr^3
 Angles (23,13,12)=  1.27568863E+02  1.24704638E+02  7.96849542E+01 degrees

 getcut: wavevector=  0.0000  0.0000  0.0000  ngfft=  75  75  75
         ecut(hartree)=     44.000   => boxcut(ratio)=   2.05491

--- Pseudopotential description ------------------------------------------------
- pspini: atom type   1  psp file is /scratch/users/j/a/jabreu/pseudos/PBEsol/Li.psp8
- pspatm: opening atomic psp file    /scratch/users/j/a/jabreu/pseudos/PBEsol/Li.psp8
- Li    ONCVPSP-3.3.0  r_core=   1.40824   1.10935
-  3.00000   3.00000    180112                znucl, zion, pspdat
    8 -116133    1    4       400   0.00000   pspcod,pspxc,lmax,lloc,mmax,r2well
    3.99000000000000    0.00000000000000    0.00000000000000   rchrg,fchrg,qchrg
     nproj     2     2
     extension_switch     1
  pspatm : epsatm=    2.60859637
         --- l  ekb(1:nproj) -->
             0   -4.855856   -1.482423
             1   -2.171544   -0.427615
 pspatm: atomic psp has been read  and splines computed

- pspini: atom type   2  psp file is /scratch/users/j/a/jabreu/pseudos/PBEsol/Ag.psp8
- pspatm: opening atomic psp file    /scratch/users/j/a/jabreu/pseudos/PBEsol/Ag.psp8
- Ag    ONCVPSP-3.3.0  r_core=   1.41384   1.46535   1.61207
- 47.00000  19.00000    180112                znucl, zion, pspdat
    8 -116133    2    4       600   0.00000   pspcod,pspxc,lmax,lloc,mmax,r2well
    5.99000000000000    7.00000000000000    0.00000000000000   rchrg,fchrg,qchrg
     nproj     2     2     2
     extension_switch     1
  pspatm : epsatm=   27.64581383
         --- l  ekb(1:nproj) -->
             0    9.559407   -0.398585
             1    3.418858   -0.136622
             2   -1.644397   -0.401551
 pspatm: atomic psp has been read  and splines computed

- pspini: atom type   3  psp file is /scratch/users/j/a/jabreu/pseudos/PBEsol/O.psp8
- pspatm: opening atomic psp file    /scratch/users/j/a/jabreu/pseudos/PBEsol/O.psp8
- O     ONCVPSP-3.3.0  r_core=   1.35509   1.45563   1.26150
-  8.00000   6.00000    180112                znucl, zion, pspdat
    8 -116133    2    4       600   0.00000   pspcod,pspxc,lmax,lloc,mmax,r2well
    5.99000000000000    4.00000000000000    0.00000000000000   rchrg,fchrg,qchrg
     nproj     2     2     1
     extension_switch     1
  pspatm : epsatm=    6.22910522
         --- l  ekb(1:nproj) -->
             0    6.050032    0.820363
             1   -4.739617   -1.153841
             2   -1.335834
 pspatm: atomic psp has been read  and splines computed

   2.82252235E+04                                ecore*ucvol(ha*bohr**3)

 ==>  initialize data related to q vector <==

 The list of irreducible perturbations for this q vector is:
    1)    idir= 1    ipert=  13
    2)    idir= 2    ipert=  13
    3)    idir= 3    ipert=  13

[...]
 prteigrs : about to open file /scratch/users/j/a/jabreu/flow_simple_11atoms/flow/w257/t1/tmpdata/tmp_1WF1_EIG
 Expectation of eigenvalue derivatives (hartree) for nkpt=   1  k points:
  (in case of degenerate eigenvalues, averaged derivative)
 kpt#   1, nband= 81, wtk=  1.00000, kpt=  0.0000  0.0000  0.0000 (reduced coord)
  -0.00000    0.00000    0.00000    0.00000   -0.00000   -0.00000   -0.00000    0.00000
   0.00000    0.00000    0.00000   -0.00000   -0.00000    0.00000    0.00000   -0.00000
   0.00000    0.00000   -0.00000    0.00000   -0.00000    0.00000   -0.00000    0.00000
   0.00000    0.00000    0.00000   -0.00000   -0.00000   -0.00000    0.00000    0.00000
  -0.00000   -0.00000    0.00000    0.00000    0.00000   -0.00000    0.00000   -0.00000
  -0.00000    0.00000   -0.00000    0.00000   -0.00000    0.00000    0.00000   -0.00000
  -0.00000   -0.00000   -0.00000    0.00000    0.00000   -0.00000    0.00000   -0.00000
   0.00000    0.00000   -0.00000    0.00000    0.00000    0.00000    0.00000   -0.00000
   0.00000    0.00000    0.00000    0.00000   -0.00000   -0.00000    0.00000    0.00000
   0.00000   -0.00000    0.00000   -0.00000    0.00000    0.00000    0.00000   -0.00002
  -0.00000

 Eight components of 2nd-order total energy (hartree) are
 1,2,3: 0th-order hamiltonian combined with 1st-order wavefunctions
     kin0=   1.09632378E+02 eigvalue=  -2.75282709E+00  local=  -4.92000277E+01
 4,5,6: 1st-order hamiltonian combined with 1st and 0th-order wfs
     kin1=  -1.34693206E+02  Hartree=   0.00000000E+00     xc=   0.00000000E+00
 7,8,9: eventually, occupation + non-local contributions
    edocc=   1.12001196E+01     enl0=   8.04088805E-01   enl1=  -4.67425733E+00
 1-9 gives the relaxation energy (to be shifted if some occ is /=2.0)
   erelax=  -6.96837319E+01
  No Ewald or frozen-wf contrib.: the relaxation energy is the total one
 2DEtotal=   -0.6968373191E+02 Ha. Also 2DEtotal=   -0.189619077771E+04 eV
    (  non-var. 2DEtotal :   -6.9683731906E+01 Ha)

 Perturbation wavevector (in red.coord.)   0.000000  0.000000  0.000000
 Perturbation : derivative vs k along direction   2
 The set of symmetries contains only one element for this perturbation.
 symkpt : not enough symmetry to change the number of k points.

[...]

 Perturbation wavevector (in red.coord.)   0.000000  0.000000  0.000000
 Perturbation : derivative vs k along direction   3
 The set of symmetries contains only one element for this perturbation.
 symkpt : not enough symmetry to change the number of k points.

 Initialisation of the first-order wave-functions :
  ireadwf=   0

--- !BeginCycle
iteration_state: {dtset: 1, }
solver: {iscf: 7, nstep: 2000, nline: 4, wfoptalg: 0, }
tolerances: {tolwfr: 1.00E-20, }
...

     iter   2DEtotal(Ha)        deltaE(Ha) residm    vres2
-ETOT  1  -108.38043092282     -1.084E+02 8.103E-02 0.000E+00
 ETOT  2  -108.52217499749     -1.417E-01 1.031E-03 0.000E+00
 ETOT  3  -108.52356157298     -1.387E-03 1.166E-05 0.000E+00
 ETOT  4  -108.52359014543     -2.857E-05 4.773E-07 0.000E+00
 ETOT  5  -108.52359085236     -7.069E-07 5.173E-09 0.000E+00
 ETOT  6  -108.52359087104     -1.868E-08 3.564E-10 0.000E+00
 ETOT  7  -108.52359087155     -5.127E-10 4.136E-12 0.000E+00
 ETOT  8  -108.52359087157     -1.440E-11 2.831E-13 0.000E+00
 ETOT  9  -108.52359087157     -1.705E-13 3.347E-15 0.000E+00
 ETOT 10  -108.52359087157     -1.421E-13 2.281E-16 0.000E+00
 ETOT 11  -108.52359087157      0.000E+00 3.476E-18 0.000E+00
 ETOT 12  -108.52359087157     -8.527E-14 1.850E-19 0.000E+00
 ETOT 13  -108.52359087157     -1.421E-14 9.204E-21 0.000E+00

 At SCF step   13   max residual=  9.20E-21 < tolwfr=  1.00E-20 =>converged.

 ----iterations are completed or convergence reached----

 dfpt_looppert: DFPT cycle converged with prtwf=-1. Will skip output of the 1st-order WFK file.
 dfpt_looppert : ek2=    1.9086677404E+02
          f-sum rule ratio=    1.1009059672E+00
 prteigrs : about to open file /scratch/users/j/a/jabreu/flow_simple_11atoms/flow/w257/t1/tmpdata/tmp_1WF1_EIG
 Expectation of eigenvalue derivatives (hartree) for nkpt=   1  k points:
  (in case of degenerate eigenvalues, averaged derivative)
 kpt#   1, nband= 81, wtk=  1.00000, kpt=  0.0000  0.0000  0.0000 (reduced coord)
   0.00000   -0.00000    0.00000    0.00000   -0.00000   -0.00000   -0.00000   -0.00000
   0.00000    0.00000    0.00000   -0.00000   -0.00000   -0.00000   -0.00000   -0.00000
  -0.00000    0.00000   -0.00000    0.00000   -0.00000   -0.00000   -0.00000    0.00000
   0.00000   -0.00000   -0.00000   -0.00000    0.00000   -0.00000   -0.00000    0.00000
  -0.00000   -0.00000   -0.00000    0.00000   -0.00000   -0.00000   -0.00000   -0.00000
   0.00000   -0.00000   -0.00000   -0.00000    0.00000    0.00000    0.00000   -0.00000
  -0.00000   -0.00000    0.00000   -0.00000    0.00000   -0.00000   -0.00000    0.00000
   0.00000   -0.00000   -0.00000    0.00000    0.00000    0.00000    0.00000    0.00000
   0.00000    0.00000    0.00000    0.00000   -0.00000   -0.00000    0.00000    0.00000
   0.00000   -0.00000    0.00000   -0.00000    0.00000    0.00000   -0.00000   -0.00003
  -0.00000

 Eight components of 2nd-order total energy (hartree) are
 1,2,3: 0th-order hamiltonian combined with 1st-order wavefunctions
     kin0=   1.69211611E+02 eigvalue=  -4.30066440E+00  local=  -7.60285145E+01
 4,5,6: 1st-order hamiltonian combined with 1st and 0th-order wfs
     kin1=  -2.10126370E+02  Hartree=   0.00000000E+00     xc=   0.00000000E+00
 7,8,9: eventually, occupation + non-local contributions
    edocc=   1.83075775E+01     enl0=   1.33358136E+00   enl1=  -6.92081127E+00
 1-9 gives the relaxation energy (to be shifted if some occ is /=2.0)
   erelax=  -1.08523591E+02
  No Ewald or frozen-wf contrib.: the relaxation energy is the total one
 2DEtotal=   -0.1085235909E+03 Ha. Also 2DEtotal=   -0.295307708907E+04 eV
    (  non-var. 2DEtotal :   -1.0852359087E+02 Ha)

 CALCULATION OF EFFECTIVE MASSES
 NOTE : Additional infos (eff. mass eigenvalues, eigenvectors and, if degenerate, average mass) are available in stdout.

 K-point ( 0.000, 0.000, 0.000) | band =    72
 Effective mass tensor:
             -0.9064805788             -0.5083576815              0.6535444511
             -0.5083576815             -0.8802282761              0.9704307176
              0.6535444511              0.9704307176             -1.8117083379
 Effective mass tensor eigenvalues:
             -2.7843601638             -0.5641229661             -0.2499340629
 Angular average effective mass 1/(<1/m>)=  -0.4891675978
 Angular average effective mass for Frohlich model (<m**0.5>)**2=  -0.6056531605
 Effective masses along directions: (cart. coord. / red. coord. -> eff. mass)
    1:   1.000000  0.000000  0.000000 /   0.970440 -0.241342  0.000000 ->  -0.6012069753
    2:   0.000000  1.000000  0.000000 /   0.000000  1.000000  0.000000 ->  -0.3230664540
    3:   0.000000  0.000000  1.000000 /  -0.437195 -0.468194  0.767890 ->  -0.7276917264
    4:   0.577350  0.577350  0.577350 /   0.244777 -0.046839  0.968447 ->  -0.3807927549
    5:   0.000000  0.707107  0.707107 /  -0.490284  0.134410  0.861136 ->  -0.2755384316
    6:   0.707107  0.000000  0.707107 /   0.192345 -0.619581  0.761002 ->  -0.5788731864
    7:   0.707107  0.707107  0.000000 /   0.825840  0.563904  0.000000 ->  -0.6064897819

 K-point ( 0.000, 0.000, 0.000) | band =    73
 Effective mass tensor:
              1.9670709793              0.8295954067             -1.4074909835
              0.8295954067              2.5751130042             -1.5836594192
             -1.4074909835             -1.5836594192              3.9165960261
 Effective mass tensor eigenvalues:
              1.2297608273              1.5465272508              5.6824919315
 Angular average effective mass 1/(<1/m>)=   1.8340150464
 Angular average effective mass for Frohlich model (<m**0.5>)**2=   2.0257915692
 Effective masses along directions: (cart. coord. / red. coord. -> eff. mass)
    1:   1.000000  0.000000  0.000000 /   0.970440 -0.241342  0.000000 ->   1.4261974001
    2:   0.000000  1.000000  0.000000 /   0.000000  1.000000  0.000000 ->   1.8883338615
    3:   0.000000  0.000000  1.000000 /  -0.437195 -0.468194  0.767890 ->   2.4689967502
    4:   0.577350  0.577350  0.577350 /   0.244777 -0.046839  0.968447 ->   1.3422970574
    5:   0.000000  0.707107  0.707107 /  -0.490284  0.134410  0.861136 ->   1.5444027421
    6:   0.707107  0.000000  0.707107 /   0.192345 -0.619581  0.761002 ->   1.3039530069
    7:   0.707107  0.707107  0.000000 /   0.825840  0.563904  0.000000 ->   1.9195082669

 END OF EFFECTIVE MASSES SECTION

 ---- first-order wavefunction calculations are completed ----

 Total localisation tensor (bohr^2) in cartesian coordinates
  WARNING : still subject to testing - especially symmetries.
      direction              matrix element
   alpha     beta       real part   imaginary part
     1        1       1.2608151969    0.0000000000
     1        2      -0.3257280271    0.0000000000
     1        3      -0.5536169949    0.0000000000
     2        1      -0.3257280271    0.0000000000
     2        2       1.2200644513    0.0000000000
     2        3      -0.9713917288    0.0000000000
     3        1      -0.5536169949    0.0000000000
     3        2      -0.9713917288    0.0000000000
     3        3       4.0134397538    0.0000000000

 respfn : d/dk was computed, but no 2DTE, so no DDB output.

== END DATASET(S) ==============================================================

 -outvars: echo values of variables after computation  --------
            acell      1.0000000000E+00  1.0000000000E+00  1.0000000000E+00 Bohr
              amu      6.94100000E+00  1.07868200E+02  1.59994000E+01
             ecut      4.40000000E+01 Hartree
           etotal     -1.0852359087E+02
            fcart      0.0000000000E+00  0.0000000000E+00  0.0000000000E+00
                       0.0000000000E+00  0.0000000000E+00  0.0000000000E+00
                       0.0000000000E+00  0.0000000000E+00  0.0000000000E+00
                       0.0000000000E+00  0.0000000000E+00  0.0000000000E+00
                       0.0000000000E+00  0.0000000000E+00  0.0000000000E+00
                       0.0000000000E+00  0.0000000000E+00  0.0000000000E+00
                       0.0000000000E+00  0.0000000000E+00  0.0000000000E+00
                       0.0000000000E+00  0.0000000000E+00  0.0000000000E+00
                       0.0000000000E+00  0.0000000000E+00  0.0000000000E+00
                       0.0000000000E+00  0.0000000000E+00  0.0000000000E+00
                       0.0000000000E+00  0.0000000000E+00  0.0000000000E+00
                       0.0000000000E+00  0.0000000000E+00  0.0000000000E+00
-          fftalg         512
           irdden           1
           irdwfk           1
           istwfk        1
              ixc     -116133
           kptopt           0
P           mkmem           1
P          mkqmem           1
P          mk1mem           1
            natom          12
            nband          81
           nbdbuf           4
            ngfft          75      75      75
             nkpt           1
            nstep        2000
             nsym           8
           ntypat           3
              occ      2.000000  2.000000  2.000000  2.000000  2.000000  2.000000
                       2.000000  2.000000  2.000000  2.000000  2.000000  2.000000
                       2.000000  2.000000  2.000000  2.000000  2.000000  2.000000
                       2.000000  2.000000  2.000000  2.000000  2.000000  2.000000
                       2.000000  2.000000  2.000000  2.000000  2.000000  2.000000
                       2.000000  2.000000  2.000000  2.000000  2.000000  2.000000
                       2.000000  2.000000  2.000000  2.000000  2.000000  2.000000
                       2.000000  2.000000  2.000000  2.000000  2.000000  2.000000
                       2.000000  2.000000  2.000000  2.000000  2.000000  2.000000
                       2.000000  2.000000  2.000000  2.000000  2.000000  2.000000
                       2.000000  2.000000  2.000000  2.000000  2.000000  2.000000
                       2.000000  2.000000  2.000000  2.000000  2.000000  2.000000
                       0.000000  0.000000  0.000000  0.000000  0.000000  0.000000
                       0.000000  0.000000  0.000000
        optdriver           1
            prtwf          -1
            rfdir           1       1       1
           rfelfd           2
            rprim      9.9156151209E+00  0.0000000000E+00 -6.8670849236E+00
                      -2.4659447769E+00  9.2365756425E+00 -7.3539829570E+00
                       0.0000000000E+00  0.0000000000E+00  1.2061354757E+01
          spgroup          72
           strten      0.0000000000E+00  0.0000000000E+00  0.0000000000E+00
                       0.0000000000E+00  0.0000000000E+00  0.0000000000E+00
           symrel      1  0  0   0  1  0   0  0  1      -1  0  0   0 -1  0   0  0 -1
                       0  0  1  -1 -1 -1   1  0  0       0  0 -1   1  1  1  -1  0  0
                      -1 -1 -1   0  0  1   0  1  0       1  1  1   0  0 -1   0 -1  0
                       0  1  0   1  0  0  -1 -1 -1       0 -1  0  -1  0  0   1  1  1
            tnons      0.0000000  0.0000000  0.0000000     0.0000000 -0.0000000 -0.0000000
                       0.0000000  0.5000000  0.5000000     0.0000000  0.5000000  0.5000000
                       0.0000000  0.0000000  0.0000000    -0.0000000 -0.0000000 -0.0000000
                       0.0000000  0.5000000  0.5000000    -0.0000000  0.5000000  0.5000000
           tolwfr      1.00000000E-20
            typat      1  1  2  2  2  2  2  2  3  3  3  3
           useylm           1
           xangst      2.2973283222E+00  1.2219463289E+00  1.9971030728E+00
                       1.6448674354E+00  3.6658389866E+00 -3.1399740349E+00
                       1.9710978788E+00  2.4438926577E+00 -5.7143548105E-01
                      -1.3734340122E-16 -5.7656900339E-16  3.1912970211E+00
                       2.6235587656E+00 -6.7831647458E-16 -1.8169524155E+00
                      -6.5246088679E-01  2.4438926577E+00  1.2455169345E+00
                      -1.1017926000E-16 -6.7831647458E-16 -6.7543586859E-16
                      -6.5246088679E-01  2.4438926577E+00 -1.9457800866E+00
                       2.0514858208E+00  4.6955364995E-01  1.5333034510E-01
                       3.3005986922E+00  2.9134463077E+00 -3.9876121720E+00
                       1.8907099368E+00  4.4182316655E+00 -1.2962013072E+00
                       6.4159706539E-01  1.9743390078E+00  2.8447412099E+00
            xcart      4.3413213662E+00  2.3091439106E+00  3.7739778667E+00
                       3.1083489778E+00  6.9274317319E+00 -5.9336909903E+00
                       3.7248351720E+00  4.6182878212E+00 -1.0798565618E+00
                      -2.5954141447E-16 -1.0895575131E-15  6.0306773785E+00
                       4.9578075604E+00 -1.2818323684E-15 -3.4335424618E+00
                      -1.2329723884E+00  4.6182878212E+00  2.3536859000E+00
                      -2.0820862693E-16 -1.2818323684E-15 -1.2763888120E-15
                      -1.2329723884E+00  4.6182878212E+00 -3.6769914785E+00
                       3.8767463667E+00  8.8732780310E-01  2.8975236010E-01
                       6.2372276028E+00  5.5056156244E+00 -7.5354949293E+00
                       3.5729239773E+00  8.3492478394E+00 -2.4494654837E+00
                       1.2124427412E+00  3.7309600181E+00  5.3757818057E+00
             xred      5.0000000000E-01  2.5000000000E-01  7.5000000000E-01
                       5.0000000000E-01  7.5000000000E-01  2.5000000000E-01
                       5.0000000000E-01  5.0000000000E-01  5.0000000000E-01
                      -5.5511151231E-17 -1.1796119637E-16  5.0000000000E-01
                       5.0000000000E-01 -1.3877787808E-16 -2.2204460493E-16
                      -5.5511151231E-17  5.0000000000E-01  5.0000000000E-01
                      -5.5511151231E-17 -1.3877787808E-16 -2.2204460493E-16
                      -5.5511151231E-17  5.0000000000E-01 -2.0816681712E-16
                       4.1486500000E-01  9.6066750000E-02  3.1879825000E-01
                       7.7726850000E-01  5.9606675000E-01  1.8120175000E-01
                       5.8513500000E-01  9.0393325000E-01  6.8120175000E-01
                       2.2273150000E-01  4.0393325000E-01  8.1879825000E-01
            znucl        3.00000   47.00000    8.00000

- Timing analysis has been suppressed with timopt=0

 Suggested references for the acknowledgment of ABINIT usage.

 Calculation completed.
.Delivered   2 WARNINGs and   5 COMMENTs to log file.