.Version 9.5.1 of ABINIT

 ABINIT is a project of the Universite Catholique de Louvain,
 Corning Inc. and other collaborators, see ~abinit/doc/developers/contributors.txt .
 acknowledgments of the ABINIT effort.

.Starting date : Wed 19 May 2021.
- ( at 01h43 )

- input  file    -> /scratch/users/j/a/jabreu/flow_simple_8atoms/flow/w470/t1/run.abi
- output file    -> /scratch/users/j/a/jabreu/flow_simple_8atoms/flow/w470/t1/run.abo
- root for input  files -> /scratch/users/j/a/jabreu/flow_simple_8atoms/flow/w470/t1/indata/in
- root for output files -> /scratch/users/j/a/jabreu/flow_simple_8atoms/flow/w470/t1/outdata/out

 Symmetries : space group Pm m n (# 59); Bravais oP (primitive ortho.)
     intxc =       0      iscf =       7    lmnmax =      18     lnmax =       6
     mgfft =      75  mpssoang =       3    mqgrid =    3628     natom =       8
  nloc_mem =       1    nspden =       1   nspinor =       1    nsppol =       1
      nsym =       8    n1xccc =    2501    ntypat =       3    occopt =       1
   xclevel =       2
-    mband =          39        mffmem =           1         mkmem =           1
-   mkqmem =           1        mk1mem =           1           mpw =       15979
      nfft =      270000          nkpt =           1
  Rough estimation (10% accuracy) of disk space for files :

------------- Echo of variables that govern the present computation ------------
-
- outvars: echo of selected default values
-   iomode0 =  0 , fftalg0 =512 , wfoptalg0 =  0
-
- outvars: echo of global parameters not present in the input file
-  max_nthreads =    0
-
 -outvars: echo values of preprocessed input variables --------
            acell      1.0000000000E+00  1.0000000000E+00  1.0000000000E+00 Bohr
              amu      3.90983000E+01  6.94100000E+00  7.49215900E+01
             ecut      4.20000000E+01 Hartree
-          fftalg         512
           irdden           1
           irdwfk           1
           istwfk        1
              ixc     -116133
           kptopt           0
P           mkmem           1
P          mkqmem           1
P          mk1mem           1
            natom           8
            nband          39
           nbdbuf           4
            ngfft          50      72      75
             nkpt           1
            nstep        2000
             nsym           8
           ntypat           3
              occ      2.000000  2.000000  2.000000  2.000000  2.000000  2.000000
                       2.000000  2.000000  2.000000  2.000000  2.000000  2.000000
                       2.000000  2.000000  2.000000  2.000000  2.000000  2.000000
                       2.000000  2.000000  2.000000  2.000000  2.000000  2.000000
                       2.000000  2.000000  2.000000  2.000000  2.000000  2.000000
                       0.000000  0.000000  0.000000  0.000000  0.000000  0.000000
                       0.000000  0.000000  0.000000
        optdriver           1
            prtwf          -1
            rfdir           1       1       1
           rfelfd           2
            rprim      8.3660637661E+00  0.0000000000E+00  0.0000000000E+00
                       0.0000000000E+00  1.1842139667E+01  0.0000000000E+00
                       0.0000000000E+00  0.0000000000E+00  1.2433291787E+01
          spgroup          59
           symrel      1  0  0   0  1  0   0  0  1      -1  0  0   0 -1  0   0  0 -1
                      -1  0  0   0  1  0   0  0 -1       1  0  0   0 -1  0   0  0  1
                      -1  0  0   0 -1  0   0  0  1       1  0  0   0  1  0   0  0 -1
                       1  0  0   0 -1  0   0  0 -1      -1  0  0   0  1  0   0  0  1
            tnons      0.0000000  0.0000000  0.0000000     0.5000000  0.0000000  0.5000000
                       0.0000000  0.0000000 -0.0000000     0.5000000  0.0000000  0.5000000
                       0.5000000  0.0000000  0.5000000     0.0000000  0.0000000 -0.0000000
                       0.5000000  0.0000000  0.5000000     0.0000000  0.0000000  0.0000000
           tolwfr      1.00000000E-20
            typat      1  1  2  2  2  2  3  3
           useylm           1
           xangst      2.2135651353E+00  5.6520760236E+00  3.2897073206E+00
                       0.0000000000E+00  6.1451438904E-01  0.0000000000E+00
                       0.0000000000E+00  3.7487558505E+00  1.3004015656E+00
                       2.2135651353E+00  2.5178345621E+00  1.9893057550E+00
                       2.2135651353E+00  2.5178345621E+00  4.5901088862E+00
                       0.0000000000E+00  3.7487558505E+00  5.2790130756E+00
                       0.0000000000E+00  2.0902400319E+00  3.2897073206E+00
                       2.2135651353E+00  4.1763503807E+00  0.0000000000E+00
            xcart      4.1830318830E+00  1.0680875767E+01  6.2166458933E+00
                       0.0000000000E+00  1.1612639000E+00  0.0000000000E+00
                       0.0000000000E+00  7.0841218965E+00  2.4574028217E+00
                       4.1830318830E+00  4.7580177703E+00  3.7592430716E+00
                       4.1830318830E+00  4.7580177703E+00  8.6740487150E+00
                       0.0000000000E+00  7.0841218965E+00  9.9758889649E+00
                       0.0000000000E+00  3.9499812123E+00  6.2166458933E+00
                       4.1830318830E+00  7.8921584545E+00  0.0000000000E+00
             xred      5.0000000000E-01  9.0193800000E-01  5.0000000000E-01
                       0.0000000000E+00  9.8062000000E-02  0.0000000000E+00
                       0.0000000000E+00  5.9821300000E-01  1.9764700000E-01
                       5.0000000000E-01  4.0178700000E-01  3.0235300000E-01
                       5.0000000000E-01  4.0178700000E-01  6.9764700000E-01
                       0.0000000000E+00  5.9821300000E-01  8.0235300000E-01
                       0.0000000000E+00  3.3355300000E-01  5.0000000000E-01
                       5.0000000000E-01  6.6644700000E-01  0.0000000000E+00
            znucl       19.00000    3.00000   33.00000

 chkinp: Checking input parameters for consistency.

== DATASET  1 ==================================================================
-   mpi_nproc: 1, omp_nthreads: -1 (-1 if OMP is not activated)

--- !DatasetInfo
iteration_state: {dtset: 1, }
dimensions: {natom: 8, nkpt: 1, mband: 39, nsppol: 1, nspinor: 1, nspden: 1, mpw: 15979, }
cutoff_energies: {ecut:  42.0, pawecutdg:  -1.0, }
electrons: {nelect:   6.00000000E+01, charge:   0.00000000E+00, occopt:   1.00000000E+00, tsmear:   1.00000000E-02, }
meta: {optdriver: 1, rfelfd: 2, }
...

 Real(R)+Recip(G) space primitive vectors, cartesian coordinates (Bohr,Bohr^-1):
 R(1)=  8.3660638  0.0000000  0.0000000  G(1)=  0.1195305  0.0000000  0.0000000
 R(2)=  0.0000000 11.8421397  0.0000000  G(2)=  0.0000000  0.0844442  0.0000000
 R(3)=  0.0000000  0.0000000 12.4332918  G(3)=  0.0000000  0.0000000  0.0804292
 Unit cell volume ucvol=  1.2317923E+03 bohr^3
 Angles (23,13,12)=  9.00000000E+01  9.00000000E+01  9.00000000E+01 degrees

 getcut: wavevector=  0.0000  0.0000  0.0000  ngfft=  50  72  75
         ecut(hartree)=     42.000   => boxcut(ratio)=   2.04012

--- Pseudopotential description ------------------------------------------------
- pspini: atom type   1  psp file is /scratch/users/j/a/jabreu/pseudos/PBEsol/K.psp8
- pspatm: opening atomic psp file    /scratch/users/j/a/jabreu/pseudos/PBEsol/K.psp8
- K     ONCVPSP-3.3.0  r_core=   1.36296   1.46408   1.61068
- 19.00000   9.00000    180112                znucl, zion, pspdat
    8 -116133    2    4       400   0.00000   pspcod,pspxc,lmax,lloc,mmax,r2well
    3.99000000000000    5.00000000000000    0.00000000000000   rchrg,fchrg,qchrg
     nproj     2     2     2
     extension_switch     1
  pspatm : epsatm=    8.32487830
         --- l  ekb(1:nproj) -->
             0   10.921326    0.816676
             1    4.431000    0.560368
             2   -3.384038   -1.043186
 pspatm: atomic psp has been read  and splines computed

- pspini: atom type   2  psp file is /scratch/users/j/a/jabreu/pseudos/PBEsol/Li.psp8
- pspatm: opening atomic psp file    /scratch/users/j/a/jabreu/pseudos/PBEsol/Li.psp8
- Li    ONCVPSP-3.3.0  r_core=   1.40824   1.10935
-  3.00000   3.00000    180112                znucl, zion, pspdat
    8 -116133    1    4       400   0.00000   pspcod,pspxc,lmax,lloc,mmax,r2well
    3.99000000000000    0.00000000000000    0.00000000000000   rchrg,fchrg,qchrg
     nproj     2     2
     extension_switch     1
  pspatm : epsatm=    2.60859637
         --- l  ekb(1:nproj) -->
             0   -4.855856   -1.482423
             1   -2.171544   -0.427615
 pspatm: atomic psp has been read  and splines computed

- pspini: atom type   3  psp file is /scratch/users/j/a/jabreu/pseudos/PBEsol/As.psp8
- pspatm: opening atomic psp file    /scratch/users/j/a/jabreu/pseudos/PBEsol/As.psp8
- As    ONCVPSP-3.3.0  r_core=   1.76603   1.70395   1.80867
- 33.00000  15.00000    180112                znucl, zion, pspdat
    8 -116133    2    4       600   0.00000   pspcod,pspxc,lmax,lloc,mmax,r2well
    5.99000000000000    5.00000000000000    0.00000000000000   rchrg,fchrg,qchrg
     nproj     2     2     2
     extension_switch     1
  pspatm : epsatm=   28.79155382
         --- l  ekb(1:nproj) -->
             0    8.270760    0.868950
             1    4.919053    0.756587
             2  -10.048665   -4.076802
 pspatm: atomic psp has been read  and splines computed

   5.08003498E+03                                ecore*ucvol(ha*bohr**3)

-inwffil : will read wavefunctions from disk file /scratch/users/j/a/jabreu/flow_simple_8atoms/flow/w470/t1/indata/in_WFK

 ==>  initialize data related to q vector <==

 The list of irreducible perturbations for this q vector is:
    1)    idir= 1    ipert=   9
    2)    idir= 2    ipert=   9
    3)    idir= 3    ipert=   9

 Perturbation wavevector (in red.coord.)   0.000000  0.000000  0.000000
 Perturbation : derivative vs k along direction   1

 dfpt_looppert : COMMENT -
  In a d/dk calculation, iscf is set to -3 automatically.
 The set of symmetries contains only one element for this perturbation.
 symkpt : not enough symmetry to change the number of k points.

[...]

 Initialisation of the first-order wave-functions :
  ireadwf=   0

--- !BeginCycle
iteration_state: {dtset: 1, }
solver: {iscf: 7, nstep: 2000, nline: 4, wfoptalg: 0, }
tolerances: {tolwfr: 1.00E-20, }
...

     iter   2DEtotal(Ha)        deltaE(Ha) residm    vres2
-ETOT  1  -69.289682031171     -6.929E+01 7.029E-02 0.000E+00
 ETOT  2  -69.356369363353     -6.669E-02 7.253E-03 0.000E+00
 ETOT  3  -69.357230624569     -8.613E-04 5.532E-04 0.000E+00
 ETOT  4  -69.357254432883     -2.381E-05 1.563E-04 0.000E+00
 ETOT  5  -69.357255341722     -9.088E-07 1.122E-05 0.000E+00
 ETOT  6  -69.357255382688     -4.097E-08 2.628E-06 0.000E+00
 ETOT  7  -69.357255384749     -2.061E-09 2.482E-07 0.000E+00
 ETOT  8  -69.357255384857     -1.079E-10 5.757E-08 0.000E+00
 ETOT  9  -69.357255384863     -5.940E-12 6.284E-09 0.000E+00
 ETOT 10  -69.357255384863     -2.558E-13 1.503E-09 0.000E+00
 ETOT 11  -69.357255384863     -2.842E-13 1.672E-10 0.000E+00
 ETOT 12  -69.357255384863     -1.421E-14 4.086E-11 0.000E+00
 ETOT 13  -69.357255384863      4.263E-14 4.528E-12 0.000E+00
 ETOT 14  -69.357255384863     -1.421E-13 1.116E-12 0.000E+00
 ETOT 15  -69.357255384863      1.705E-13 1.232E-13 0.000E+00
 ETOT 16  -69.357255384863     -1.137E-13 3.043E-14 0.000E+00
 ETOT 17  -69.357255384863      2.842E-14 3.362E-15 0.000E+00
 ETOT 18  -69.357255384863      0.000E+00 8.290E-16 0.000E+00
 ETOT 19  -69.357255384863      0.000E+00 9.184E-17 0.000E+00
 ETOT 20  -69.357255384863      0.000E+00 2.258E-17 0.000E+00
 ETOT 21  -69.357255384863      0.000E+00 2.511E-18 0.000E+00
 ETOT 22  -69.357255384863     -1.421E-14 6.149E-19 0.000E+00
 ETOT 23  -69.357255384863      4.263E-14 6.868E-20 0.000E+00
 ETOT 24  -69.357255384863     -1.421E-14 1.675E-20 0.000E+00
 ETOT 25  -69.357255384863      0.000E+00 9.843E-21 0.000E+00

 At SCF step   25   max residual=  9.84E-21 < tolwfr=  1.00E-20 =>converged.

 ----iterations are completed or convergence reached----

 dfpt_looppert: DFPT cycle converged with prtwf=-1. Will skip output of the 1st-order WFK file.
 dfpt_looppert : ek2=    6.7685967623E+01
          f-sum rule ratio=    1.2790431120E+00
 prteigrs : about to open file /scratch/users/j/a/jabreu/flow_simple_8atoms/flow/w470/t1/tmpdata/tmp_1WF1_EIG
 Expectation of eigenvalue derivatives (hartree) for nkpt=   1  k points:
  (in case of degenerate eigenvalues, averaged derivative)
 kpt#   1, nband= 39, wtk=  1.00000, kpt=  0.0000  0.0000  0.0000 (reduced coord)
   0.00000    0.00000   -0.00000    0.00000   -0.00000    0.00000    0.00000   -0.00000
   0.00000   -0.00000    0.00000   -0.00000   -0.00000   -0.00000   -0.00000   -0.00000
  -0.00000   -0.00000    0.00000    0.00000   -0.00000    0.00000    0.00000   -0.00000
   0.00000    0.00000   -0.00000    0.00000   -0.00000   -0.00000   -0.00000    0.00000
  -0.00000   -0.00000    0.00000    0.00000    0.00000   -0.00001    0.02623

 Eight components of 2nd-order total energy (hartree) are
 1,2,3: 0th-order hamiltonian combined with 1st-order wavefunctions
     kin0=   6.54556474E+01 eigvalue=   1.08980027E+01  local=  -2.91699639E+01
 4,5,6: 1st-order hamiltonian combined with 1st and 0th-order wfs
     kin1=  -8.65732707E+01  Hartree=   0.00000000E+00     xc=   0.00000000E+00
 7,8,9: eventually, occupation + non-local contributions
    edocc=   1.79862340E+01     enl0=   4.18733512E+00   enl1=  -5.21412401E+01
 1-9 gives the relaxation energy (to be shifted if some occ is /=2.0)
   erelax=  -6.93572554E+01
  No Ewald or frozen-wf contrib.: the relaxation energy is the total one
 2DEtotal=   -0.6935725538E+02 Ha. Also 2DEtotal=   -0.188730689975E+04 eV
    (  non-var. 2DEtotal :   -6.9357255385E+01 Ha)

 Perturbation wavevector (in red.coord.)   0.000000  0.000000  0.000000
 Perturbation : derivative vs k along direction   2
 The set of symmetries contains only one element for this perturbation.
 symkpt : not enough symmetry to change the number of k points.

[...]

 Perturbation wavevector (in red.coord.)   0.000000  0.000000  0.000000
 Perturbation : derivative vs k along direction   3
 The set of symmetries contains only one element for this perturbation.
 symkpt : not enough symmetry to change the number of k points.

-inwffil : will read wavefunctions from disk file /scratch/users/j/a/jabreu/flow_simple_8atoms/flow/w470/t1/indata/in_WFK

 Initialisation of the first-order wave-functions :
  ireadwf=   0

--- !BeginCycle
iteration_state: {dtset: 1, }
solver: {iscf: 7, nstep: 2000, nline: 4, wfoptalg: 0, }
tolerances: {tolwfr: 1.00E-20, }
...

     iter   2DEtotal(Ha)        deltaE(Ha) residm    vres2
-ETOT  1  -28.636769242109     -2.864E+01 5.683E-02 0.000E+00
 ETOT  2  -28.668367234106     -3.160E-02 6.254E-03 0.000E+00
 ETOT  3  -28.668694349388     -3.271E-04 4.725E-04 0.000E+00
 ETOT  4  -28.668702448674     -8.099E-06 3.753E-05 0.000E+00
 ETOT  5  -28.668702748238     -2.996E-07 3.917E-06 0.000E+00
 ETOT  6  -28.668702761231     -1.299E-08 3.300E-07 0.000E+00
 ETOT  7  -28.668702761849     -6.181E-10 3.417E-08 0.000E+00
 ETOT  8  -28.668702761880     -3.112E-11 2.961E-09 0.000E+00
 ETOT  9  -28.668702761882     -1.688E-12 3.016E-10 0.000E+00
 ETOT 10  -28.668702761882     -7.461E-14 2.667E-11 0.000E+00
 ETOT 11  -28.668702761882      0.000E+00 2.683E-12 0.000E+00
 ETOT 12  -28.668702761882     -7.105E-15 2.412E-13 0.000E+00
 ETOT 13  -28.668702761882     -7.105E-15 2.400E-14 0.000E+00
 ETOT 14  -28.668702761882      3.553E-14 2.189E-15 0.000E+00
 ETOT 15  -28.668702761882     -1.421E-14 2.157E-16 0.000E+00
 ETOT 16  -28.668702761882     -2.487E-14 1.993E-17 0.000E+00
 ETOT 17  -28.668702761882      0.000E+00 1.945E-18 0.000E+00
 ETOT 18  -28.668702761882      7.105E-15 1.818E-19 0.000E+00
 ETOT 19  -28.668702761882     -3.553E-15 1.758E-20 0.000E+00
 ETOT 20  -28.668702761882      0.000E+00 9.932E-21 0.000E+00

 At SCF step   20   max residual=  9.93E-21 < tolwfr=  1.00E-20 =>converged.

 ----iterations are completed or convergence reached----

 dfpt_looppert: DFPT cycle converged with prtwf=-1. Will skip output of the 1st-order WFK file.
 dfpt_looppert : ek2=    3.0645642505E+01
          f-sum rule ratio=    1.1054608887E+00
 prteigrs : about to open file /scratch/users/j/a/jabreu/flow_simple_8atoms/flow/w470/t1/tmpdata/tmp_1WF1_EIG
 Expectation of eigenvalue derivatives (hartree) for nkpt=   1  k points:
  (in case of degenerate eigenvalues, averaged derivative)
 kpt#   1, nband= 39, wtk=  1.00000, kpt=  0.0000  0.0000  0.0000 (reduced coord)
  -0.00000    0.00000   -0.00000   -0.00000    0.00000    0.00000    0.00000   -0.00000
   0.00000    0.00000    0.00000    0.00000    0.00000   -0.00000    0.00000    0.00000
   0.00000    0.00000    0.00000   -0.00000    0.00000    0.00000   -0.00000   -0.00000
   0.00000   -0.00000   -0.00000   -0.00000    0.00000   -0.00000   -0.00000    0.00000
   0.00000    0.00000    0.00000   -0.00000    0.00000    0.00000   -0.00017

 Eight components of 2nd-order total energy (hartree) are
 1,2,3: 0th-order hamiltonian combined with 1st-order wavefunctions
     kin0=   3.00025683E+01 eigvalue=   5.13928756E+00  local=  -1.35832348E+01
 4,5,6: 1st-order hamiltonian combined with 1st and 0th-order wfs
     kin1=  -3.38775592E+01  Hartree=   0.00000000E+00     xc=   0.00000000E+00
 7,8,9: eventually, occupation + non-local contributions
    edocc=   5.05318875E+00     enl0=   2.05689296E+00   enl1=  -2.34598463E+01
 1-9 gives the relaxation energy (to be shifted if some occ is /=2.0)
   erelax=  -2.86687028E+01
  No Ewald or frozen-wf contrib.: the relaxation energy is the total one
 2DEtotal=   -0.2866870276E+02 Ha. Also 2DEtotal=   -0.780115075622E+03 eV
    (  non-var. 2DEtotal :   -2.8668702762E+01 Ha)

 CALCULATION OF EFFECTIVE MASSES
 NOTE : Additional infos (eff. mass eigenvalues, eigenvectors and, if degenerate, average mass) are available in stdout.

 K-point ( 0.000, 0.000, 0.000) | band =    30
 Effective mass tensor:
             -0.1487702494             -0.0000064284             -0.0000002252
             -0.0000064284             -8.9796018013              0.0000010030
             -0.0000002252              0.0000010030             -0.8900165819
 Effective mass tensor eigenvalues:
             -8.9796018013             -0.8900165819             -0.1487702494
 Angular average effective mass 1/(<1/m>)=  -0.3770401584
 Angular average effective mass for Frohlich model (<m**0.5>)**2=  -0.6385372846
 Effective masses along directions: (cart. coord. / red. coord. -> eff. mass)
    1:   1.000000  0.000000  0.000000 /   1.000000  0.000000  0.000000 ->  -0.1487702494
    2:   0.000000  1.000000  0.000000 /   0.000000  1.000000  0.000000 ->  -8.9796018010
    3:   0.000000  0.000000  1.000000 /   0.000000  0.000000  1.000000 ->  -0.8900165819
    4:   0.577350  0.577350  0.577350 /   0.438011  0.620004  0.650954 ->  -0.3770407638
    5:   0.000000  0.707107  0.707107 /   0.000000  0.689683  0.724111 ->  -1.6195140617
    6:   0.707107  0.000000  0.707107 /   0.558262  0.000000  0.829665 ->  -0.2549282341
    7:   0.707107  0.707107  0.000000 /   0.577001  0.816743  0.000000 ->  -0.2926917249

 K-point ( 0.000, 0.000, 0.000) | band =    31
 Effective mass tensor:
              0.2278773517              0.0000000792             -0.0000000154
              0.0000000792              0.2761328501              0.0000000005
             -0.0000000154              0.0000000005              0.1752537131
 Effective mass tensor eigenvalues:
              0.1752537131              0.2278773517              0.2761328501
 Angular average effective mass 1/(<1/m>)=   0.2187261044
 Angular average effective mass for Frohlich model (<m**0.5>)**2=   0.2210437594
 Effective masses along directions: (cart. coord. / red. coord. -> eff. mass)
    1:   1.000000  0.000000  0.000000 /   1.000000  0.000000  0.000000 ->   0.2278773517
    2:   0.000000  1.000000  0.000000 /   0.000000  1.000000  0.000000 ->   0.2761328501
    3:   0.000000  0.000000  1.000000 /   0.000000  0.000000  1.000000 ->   0.1752537131
    4:   0.577350  0.577350  0.577350 /   0.438011  0.620004  0.650954 ->   0.2187261327
    5:   0.000000  0.707107  0.707107 /   0.000000  0.689683  0.724111 ->   0.2144206822
    6:   0.707107  0.000000  0.707107 /   0.558262  0.000000  0.829665 ->   0.1981308436
    7:   0.707107  0.707107  0.000000 /   0.577001  0.816743  0.000000 ->   0.2496951139

 END OF EFFECTIVE MASSES SECTION

 ---- first-order wavefunction calculations are completed ----

 Total localisation tensor (bohr^2) in cartesian coordinates
  WARNING : still subject to testing - especially symmetries.
      direction              matrix element
   alpha     beta       real part   imaginary part
     1        1       3.6357773743    0.0000000000
     1        2       0.0000000000    0.0000000000
     1        3       0.0000000000    0.0000000000
     2        1       0.0000000000    0.0000000000
     2        2       2.0270257061    0.0000000000
     2        3       0.0000000000    0.0000000000
     3        1       0.0000000000    0.0000000000
     3        2       0.0000000000    0.0000000000
     3        3       2.4030589990    0.0000000000

 respfn : d/dk was computed, but no 2DTE, so no DDB output.

== END DATASET(S) ==============================================================

 -outvars: echo values of variables after computation  --------
            acell      1.0000000000E+00  1.0000000000E+00  1.0000000000E+00 Bohr
              amu      3.90983000E+01  6.94100000E+00  7.49215900E+01
             ecut      4.20000000E+01 Hartree
           etotal     -2.8668702762E+01
            fcart      0.0000000000E+00  0.0000000000E+00  0.0000000000E+00
                       0.0000000000E+00  0.0000000000E+00  0.0000000000E+00
                       0.0000000000E+00  0.0000000000E+00  0.0000000000E+00
                       0.0000000000E+00  0.0000000000E+00  0.0000000000E+00
                       0.0000000000E+00  0.0000000000E+00  0.0000000000E+00
                       0.0000000000E+00  0.0000000000E+00  0.0000000000E+00
                       0.0000000000E+00  0.0000000000E+00  0.0000000000E+00
                       0.0000000000E+00  0.0000000000E+00  0.0000000000E+00
-          fftalg         512
           irdden           1
           irdwfk           1
           istwfk        1
              ixc     -116133
           kptopt           0
P           mkmem           1
P          mkqmem           1
P          mk1mem           1
            natom           8
            nband          39
           nbdbuf           4
            ngfft          50      72      75
             nkpt           1
            nstep        2000
             nsym           8
           ntypat           3
              occ      2.000000  2.000000  2.000000  2.000000  2.000000  2.000000
                       2.000000  2.000000  2.000000  2.000000  2.000000  2.000000
                       2.000000  2.000000  2.000000  2.000000  2.000000  2.000000
                       2.000000  2.000000  2.000000  2.000000  2.000000  2.000000
                       2.000000  2.000000  2.000000  2.000000  2.000000  2.000000
                       0.000000  0.000000  0.000000  0.000000  0.000000  0.000000
                       0.000000  0.000000  0.000000
        optdriver           1
            prtwf          -1
            rfdir           1       1       1
           rfelfd           2
            rprim      8.3660637661E+00  0.0000000000E+00  0.0000000000E+00
                       0.0000000000E+00  1.1842139667E+01  0.0000000000E+00
                       0.0000000000E+00  0.0000000000E+00  1.2433291787E+01
          spgroup          59
           strten      0.0000000000E+00  0.0000000000E+00  0.0000000000E+00
                       0.0000000000E+00  0.0000000000E+00  0.0000000000E+00
           symrel      1  0  0   0  1  0   0  0  1      -1  0  0   0 -1  0   0  0 -1
                      -1  0  0   0  1  0   0  0 -1       1  0  0   0 -1  0   0  0  1
                      -1  0  0   0 -1  0   0  0  1       1  0  0   0  1  0   0  0 -1
                       1  0  0   0 -1  0   0  0 -1      -1  0  0   0  1  0   0  0  1
            tnons      0.0000000  0.0000000  0.0000000     0.5000000  0.0000000  0.5000000
                       0.0000000  0.0000000 -0.0000000     0.5000000  0.0000000  0.5000000
                       0.5000000  0.0000000  0.5000000     0.0000000  0.0000000 -0.0000000
                       0.5000000  0.0000000  0.5000000     0.0000000  0.0000000  0.0000000
           tolwfr      1.00000000E-20
            typat      1  1  2  2  2  2  3  3
           useylm           1
           xangst      2.2135651353E+00  5.6520760236E+00  3.2897073206E+00
                       0.0000000000E+00  6.1451438904E-01  0.0000000000E+00
                       0.0000000000E+00  3.7487558505E+00  1.3004015656E+00
                       2.2135651353E+00  2.5178345621E+00  1.9893057550E+00
                       2.2135651353E+00  2.5178345621E+00  4.5901088862E+00
                       0.0000000000E+00  3.7487558505E+00  5.2790130756E+00
                       0.0000000000E+00  2.0902400319E+00  3.2897073206E+00
                       2.2135651353E+00  4.1763503807E+00  0.0000000000E+00
            xcart      4.1830318830E+00  1.0680875767E+01  6.2166458933E+00
                       0.0000000000E+00  1.1612639000E+00  0.0000000000E+00
                       0.0000000000E+00  7.0841218965E+00  2.4574028217E+00
                       4.1830318830E+00  4.7580177703E+00  3.7592430716E+00
                       4.1830318830E+00  4.7580177703E+00  8.6740487150E+00
                       0.0000000000E+00  7.0841218965E+00  9.9758889649E+00
                       0.0000000000E+00  3.9499812123E+00  6.2166458933E+00
                       4.1830318830E+00  7.8921584545E+00  0.0000000000E+00
             xred      5.0000000000E-01  9.0193800000E-01  5.0000000000E-01
                       0.0000000000E+00  9.8062000000E-02  0.0000000000E+00
                       0.0000000000E+00  5.9821300000E-01  1.9764700000E-01
                       5.0000000000E-01  4.0178700000E-01  3.0235300000E-01
                       5.0000000000E-01  4.0178700000E-01  6.9764700000E-01
                       0.0000000000E+00  5.9821300000E-01  8.0235300000E-01
                       0.0000000000E+00  3.3355300000E-01  5.0000000000E-01
                       5.0000000000E-01  6.6644700000E-01  0.0000000000E+00
            znucl       19.00000    3.00000   33.00000

- Timing analysis has been suppressed with timopt=0

 Suggested references for the acknowledgment of ABINIT usage.

 Calculation completed.
.Delivered   6 WARNINGs and   5 COMMENTs to log file.