.Version 9.5.1 of ABINIT

 ABINIT is a project of the Universite Catholique de Louvain,
 Corning Inc. and other collaborators, see ~abinit/doc/developers/contributors.txt .
 acknowledgments of the ABINIT effort.

.Starting date : Sun 25 Apr 2021.
- ( at 17h13 )

- input  file    -> /scratch/users/j/a/jabreu/flow_simple2/flow/w138/t1/run.abi
- output file    -> /scratch/users/j/a/jabreu/flow_simple2/flow/w138/t1/run.abo
- root for input  files -> /scratch/users/j/a/jabreu/flow_simple2/flow/w138/t1/indata/in
- root for output files -> /scratch/users/j/a/jabreu/flow_simple2/flow/w138/t1/outdata/out

 Symmetries : space group Fm -3 m (#225); Bravais cF (face-center cubic)
     intxc =       0      iscf =       7    lmnmax =      18     lnmax =       6
     mgfft =      40  mpssoang =       3    mqgrid =    3001     natom =       2
  nloc_mem =       1    nspden =       1   nspinor =       1    nsppol =       1
      nsym =      48    n1xccc =    2501    ntypat =       2    occopt =       1
   xclevel =       2
-    mband =          17        mffmem =           1         mkmem =           2
-   mkqmem =           2        mk1mem =           2           mpw =        2637
      nfft =       64000          nkpt =           2
  Rough estimation (10% accuracy) of disk space for files :

------------- Echo of variables that govern the present computation ------------
-
- outvars: echo of selected default values
-   iomode0 =  0 , fftalg0 =512 , wfoptalg0 =  0
-
- outvars: echo of global parameters not present in the input file
-  max_nthreads =    0
-
 -outvars: echo values of preprocessed input variables --------
            acell      1.0000000000E+00  1.0000000000E+00  1.0000000000E+00 Bohr
              amu      4.00780000E+01  1.59994000E+01
             ecut      4.40000000E+01 Hartree
-          fftalg         512
           irdden           1
           irdwfk           1
           istwfk        1    1
              ixc     -116133
              kpt      0.00000000E+00  0.00000000E+00  0.00000000E+00
                       5.00000000E-01  4.93038066E-32  5.00000000E-01
           kptopt           0
P           mkmem           2
P          mkqmem           2
P          mk1mem           2
            natom           2
            nband          17
           nbdbuf           4
            ngfft          40      40      40
             nkpt           2
            nstep         100
             nsym          48
           ntypat           2
              occ      2.000000  2.000000  2.000000  2.000000  2.000000  2.000000
                       2.000000  2.000000  0.000000  0.000000  0.000000  0.000000
                       0.000000  0.000000  0.000000  0.000000  0.000000
        optdriver           1
            prtwf          -1
            rfdir           1       1       1
           rfelfd           2
            rprim      5.5119518178E+00  0.0000000000E+00  3.1823268658E+00
                       1.8373172726E+00  5.1967180106E+00  3.1823268658E+00
                       0.0000000000E+00  0.0000000000E+00  6.3646537315E+00
          spgroup         225
           symrel      1  0  0   0  1  0   0  0  1      -1  0  0   0 -1  0   0  0 -1
                       0 -1  1   0 -1  0   1 -1  0       0  1 -1   0  1  0  -1  1  0
                      -1  0  0  -1  0  1  -1  1  0       1  0  0   1  0 -1   1 -1  0
                       0  1 -1   1  0 -1   0  0 -1       0 -1  1  -1  0  1   0  0  1
                      -1  0  0  -1  1  0  -1  0  1       1  0  0   1 -1  0   1  0 -1
                       0 -1  1   1 -1  0   0 -1  0       0  1 -1  -1  1  0   0  1  0
                       1  0  0   0  0  1   0  1  0      -1  0  0   0  0 -1   0 -1  0
                       0  1 -1   0  0 -1   1  0 -1       0 -1  1   0  0  1  -1  0  1
                      -1  0  1  -1  1  0  -1  0  0       1  0 -1   1 -1  0   1  0  0
                       0 -1  0   1 -1  0   0 -1  1       0  1  0  -1  1  0   0  1 -1
                       1  0 -1   0  0 -1   0  1 -1      -1  0  1   0  0  1   0 -1  1
                       0  1  0   0  0  1   1  0  0       0 -1  0   0  0 -1  -1  0  0
                       1  0 -1   0  1 -1   0  0 -1      -1  0  1   0 -1  1   0  0  1
                       0 -1  0   0 -1  1   1 -1  0       0  1  0   0  1 -1  -1  1  0
                      -1  0  1  -1  0  0  -1  1  0       1  0 -1   1  0  0   1 -1  0
                       0  1  0   1  0  0   0  0  1       0 -1  0  -1  0  0   0  0 -1
                       0  0 -1   0  1 -1   1  0 -1       0  0  1   0 -1  1  -1  0  1
                       1 -1  0   0 -1  1   0 -1  0      -1  1  0   0  1 -1   0  1  0
                       0  0  1   1  0  0   0  1  0       0  0 -1  -1  0  0   0 -1  0
                      -1  1  0  -1  0  0  -1  0  1       1 -1  0   1  0  0   1  0 -1
                       0  0  1   0  1  0   1  0  0       0  0 -1   0 -1  0  -1  0  0
                       1 -1  0   0 -1  0   0 -1  1      -1  1  0   0  1  0   0  1 -1
                       0  0 -1   1  0 -1   0  1 -1       0  0  1  -1  0  1   0 -1  1
                      -1  1  0  -1  0  1  -1  0  0       1 -1  0   1  0 -1   1  0  0
           tolwfr      1.00000000E-20
            typat      1  2
           useylm           1
              wtk        0.50000    0.50000
           xangst      0.0000000000E+00  0.0000000000E+00  0.0000000000E+00
                       1.9445328512E+00  1.3749923653E+00  3.3680296953E+00
            xcart      0.0000000000E+00  0.0000000000E+00  0.0000000000E+00
                       3.6746345452E+00  2.5983590053E+00  6.3646537315E+00
             xred      0.0000000000E+00  0.0000000000E+00  0.0000000000E+00
                       5.0000000000E-01  5.0000000000E-01  5.0000000000E-01
            znucl       20.00000    8.00000

 chkinp: Checking input parameters for consistency.

== DATASET  1 ==================================================================
-   mpi_nproc: 1, omp_nthreads: -1 (-1 if OMP is not activated)

--- !DatasetInfo
iteration_state: {dtset: 1, }
dimensions: {natom: 2, nkpt: 2, mband: 17, nsppol: 1, nspinor: 1, nspden: 1, mpw: 2637, }
cutoff_energies: {ecut:  44.0, pawecutdg:  -1.0, }
electrons: {nelect:   1.60000000E+01, charge:   0.00000000E+00, occopt:   1.00000000E+00, tsmear:   1.00000000E-02, }
meta: {optdriver: 1, rfelfd: 2, }
...

 Real(R)+Recip(G) space primitive vectors, cartesian coordinates (Bohr,Bohr^-1):
 R(1)=  5.5119518  0.0000000  3.1823269  G(1)=  0.1814239 -0.0641430  0.0000000
 R(2)=  1.8373173  5.1967180  3.1823269  G(2)=  0.0000000  0.1924291  0.0000000
 R(3)=  0.0000000  0.0000000  6.3646537  G(3)= -0.0907120 -0.0641430  0.1571177
 Unit cell volume ucvol=  1.8230952E+02 bohr^3
 Angles (23,13,12)=  6.00000000E+01  6.00000000E+01  6.00000000E+01 degrees

 getcut: wavevector=  0.0000  0.0000  0.0000  ngfft=  40  40  40
         ecut(hartree)=     44.000   => boxcut(ratio)=   2.10472

--- Pseudopotential description ------------------------------------------------
- pspini: atom type   1  psp file is /scratch/users/j/a/jabreu/pseudos/PBEsol/Ca.psp8
- pspatm: opening atomic psp file    /scratch/users/j/a/jabreu/pseudos/PBEsol/Ca.psp8
- Ca    ONCVPSP-3.3.0  r_core=   1.45885   1.45885   1.85192
- 20.00000  10.00000    180112                znucl, zion, pspdat
    8 -116133    2    4       400   0.00000   pspcod,pspxc,lmax,lloc,mmax,r2well
    3.99000000000000    6.00000000000000    0.00000000000000   rchrg,fchrg,qchrg
     nproj     2     2     2
     extension_switch     1
  pspatm : epsatm=   12.46045226
         --- l  ekb(1:nproj) -->
             0   10.054847    0.973777
             1    2.998958    0.458102
             2   -3.447298   -1.091650
 pspatm: atomic psp has been read  and splines computed

- pspini: atom type   2  psp file is /scratch/users/j/a/jabreu/pseudos/PBEsol/O.psp8
- pspatm: opening atomic psp file    /scratch/users/j/a/jabreu/pseudos/PBEsol/O.psp8
- O     ONCVPSP-3.3.0  r_core=   1.35509   1.45563   1.26150
-  8.00000   6.00000    180112                znucl, zion, pspdat
    8 -116133    2    4       600   0.00000   pspcod,pspxc,lmax,lloc,mmax,r2well
    5.99000000000000    4.00000000000000    0.00000000000000   rchrg,fchrg,qchrg
     nproj     2     2     1
     extension_switch     1
  pspatm : epsatm=    6.22910522
         --- l  ekb(1:nproj) -->
             0    6.050032    0.820363
             1   -4.739617   -1.153841
             2   -1.335834
 pspatm: atomic psp has been read  and splines computed

   2.99032920E+02                                ecore*ucvol(ha*bohr**3)

-inwffil : will read wavefunctions from disk file /scratch/users/j/a/jabreu/flow_simple2/flow/w138/t1/indata/in_WFK

 ==>  initialize data related to q vector <==

 The list of irreducible perturbations for this q vector is:
    1)    idir= 1    ipert=   3
    2)    idir= 2    ipert=   3
    3)    idir= 3    ipert=   3

 Perturbation wavevector (in red.coord.)   0.000000  0.000000  0.000000
 Perturbation : derivative vs k along direction   1

 dfpt_looppert : COMMENT -
  In a d/dk calculation, iscf is set to -3 automatically.
 The set of symmetries contains only one element for this perturbation.
 symkpt : not enough symmetry to change the number of k points.

[...]

 Initialisation of the first-order wave-functions :
  ireadwf=   0

--- !BeginCycle
iteration_state: {dtset: 1, }
solver: {iscf: 7, nstep: 100, nline: 4, wfoptalg: 0, }
tolerances: {tolwfr: 1.00E-20, }
...

     iter   2DEtotal(Ha)        deltaE(Ha) residm    vres2
-ETOT  1  -29.434314772705     -2.943E+01 3.519E-02 0.000E+00
 ETOT  2  -29.441430223989     -7.115E-03 5.921E-05 0.000E+00
 ETOT  3  -29.441444126039     -1.390E-05 3.108E-07 0.000E+00
 ETOT  4  -29.441444176246     -5.021E-08 7.848E-10 0.000E+00
 ETOT  5  -29.441444176455     -2.093E-10 6.371E-12 0.000E+00
 ETOT  6  -29.441444176456     -9.130E-13 1.626E-13 0.000E+00
 ETOT  7  -29.441444176456      0.000E+00 7.688E-15 0.000E+00
 ETOT  8  -29.441444176456     -7.105E-15 2.222E-16 0.000E+00
 ETOT  9  -29.441444176456      3.553E-15 1.009E-17 0.000E+00
 ETOT 10  -29.441444176456      3.553E-15 3.048E-19 0.000E+00
 ETOT 11  -29.441444176456     -7.105E-15 1.353E-20 0.000E+00
 ETOT 12  -29.441444176456      1.421E-14 9.399E-21 0.000E+00

 At SCF step   12   max residual=  9.40E-21 < tolwfr=  1.00E-20 =>converged.

 ----iterations are completed or convergence reached----

 dfpt_looppert: DFPT cycle converged with prtwf=-1. Will skip output of the 1st-order WFK file.
 dfpt_looppert : ek2=    4.6779051565E+01
          f-sum rule ratio=    1.3797334935E+00
 prteigrs : about to open file /scratch/users/j/a/jabreu/flow_simple2/flow/w138/t1/tmpdata/tmp_1WF1_EIG
 Expectation of eigenvalue derivatives (hartree) for nkpt=   2  k points:
  (in case of degenerate eigenvalues, averaged derivative)
 kpt#   1, nband= 17, wtk=  0.50000, kpt=  0.0000  0.0000  0.0000 (reduced coord)
   0.00000    0.00000    0.00000    0.00000    0.00000    0.00000    0.00000    0.00000
  -0.00000    0.00000    0.00000    0.00000    0.00000    0.00000   -0.00000   -0.00000
  -0.00000
 prteigrs : prtvol=0 or 1, do not print more k-points.

 Eight components of 2nd-order total energy (hartree) are
 1,2,3: 0th-order hamiltonian combined with 1st-order wavefunctions
     kin0=   1.72411139E+01 eigvalue=  -2.83677515E-01  local=  -6.49642417E+00
 4,5,6: 1st-order hamiltonian combined with 1st and 0th-order wfs
     kin1=  -6.45426242E+01  Hartree=   0.00000000E+00     xc=   0.00000000E+00
 7,8,9: eventually, occupation + non-local contributions
    edocc=   1.98482181E+01     enl0=  -8.67786125E-01   enl1=   5.65973589E+00
 1-9 gives the relaxation energy (to be shifted if some occ is /=2.0)
   erelax=  -2.94414442E+01
  No Ewald or frozen-wf contrib.: the relaxation energy is the total one
 2DEtotal=   -0.2944144418E+02 Ha. Also 2DEtotal=   -0.801142438878E+03 eV
    (  non-var. 2DEtotal :   -2.9441444176E+01 Ha)

 Perturbation wavevector (in red.coord.)   0.000000  0.000000  0.000000
 Perturbation : derivative vs k along direction   2
 The set of symmetries contains only one element for this perturbation.
 symkpt : not enough symmetry to change the number of k points.

[...]

 Perturbation wavevector (in red.coord.)   0.000000  0.000000  0.000000
 Perturbation : derivative vs k along direction   3
 The set of symmetries contains only one element for this perturbation.
 symkpt : not enough symmetry to change the number of k points.

-inwffil : will read wavefunctions from disk file /scratch/users/j/a/jabreu/flow_simple2/flow/w138/t1/indata/in_WFK

 Initialisation of the first-order wave-functions :
  ireadwf=   0

--- !BeginCycle
iteration_state: {dtset: 1, }
solver: {iscf: 7, nstep: 100, nline: 4, wfoptalg: 0, }
tolerances: {tolwfr: 1.00E-20, }
...

     iter   2DEtotal(Ha)        deltaE(Ha) residm    vres2
-ETOT  1  -29.434583902039     -2.943E+01 3.517E-02 0.000E+00
 ETOT  2  -29.441429332904     -6.845E-03 5.921E-05 0.000E+00
 ETOT  3  -29.441443074240     -1.374E-05 3.108E-07 0.000E+00
 ETOT  4  -29.441443124479     -5.024E-08 7.848E-10 0.000E+00
 ETOT  5  -29.441443124689     -2.098E-10 6.371E-12 0.000E+00
 ETOT  6  -29.441443124690     -9.308E-13 1.626E-13 0.000E+00
 ETOT  7  -29.441443124690     -1.776E-14 7.688E-15 0.000E+00
 ETOT  8  -29.441443124690      2.132E-14 2.222E-16 0.000E+00
 ETOT  9  -29.441443124690      3.553E-15 1.009E-17 0.000E+00
 ETOT 10  -29.441443124690     -3.553E-15 3.048E-19 0.000E+00
 ETOT 11  -29.441443124690      0.000E+00 1.353E-20 0.000E+00
 ETOT 12  -29.441443124690      3.553E-15 9.572E-21 0.000E+00

 At SCF step   12   max residual=  9.57E-21 < tolwfr=  1.00E-20 =>converged.

 ----iterations are completed or convergence reached----

 dfpt_looppert: DFPT cycle converged with prtwf=-1. Will skip output of the 1st-order WFK file.
 dfpt_looppert : ek2=    4.6779051566E+01
          f-sum rule ratio=    1.3797334683E+00
 prteigrs : about to open file /scratch/users/j/a/jabreu/flow_simple2/flow/w138/t1/tmpdata/tmp_1WF1_EIG
 Expectation of eigenvalue derivatives (hartree) for nkpt=   2  k points:
  (in case of degenerate eigenvalues, averaged derivative)
 kpt#   1, nband= 17, wtk=  0.50000, kpt=  0.0000  0.0000  0.0000 (reduced coord)
  -0.00000   -0.00000   -0.00000   -0.00000    0.00000    0.00000    0.00000    0.00000
   0.00000   -0.00000   -0.00000   -0.00000   -0.00000   -0.00000    0.00000    0.00000
   0.00000
 prteigrs : prtvol=0 or 1, do not print more k-points.

 Eight components of 2nd-order total energy (hartree) are
 1,2,3: 0th-order hamiltonian combined with 1st-order wavefunctions
     kin0=   1.70593707E+01 eigvalue=  -2.68938406E-01  local=  -6.41819251E+00
 4,5,6: 1st-order hamiltonian combined with 1st and 0th-order wfs
     kin1=  -6.45426231E+01  Hartree=   0.00000000E+00     xc=   0.00000000E+00
 7,8,9: eventually, occupation + non-local contributions
    edocc=   1.99233184E+01     enl0=  -8.54115135E-01   enl1=   5.65973681E+00
 1-9 gives the relaxation energy (to be shifted if some occ is /=2.0)
   erelax=  -2.94414431E+01
  No Ewald or frozen-wf contrib.: the relaxation energy is the total one
 2DEtotal=   -0.2944144312E+02 Ha. Also 2DEtotal=   -0.801142410258E+03 eV
    (  non-var. 2DEtotal :   -2.9441443125E+01 Ha)

 CALCULATION OF EFFECTIVE MASSES
 NOTE : Additional infos (eff. mass eigenvalues, eigenvectors and, if degenerate, average mass) are available in stdout.

 COMMENTS:
 - At k-point ( 0.000, 0.000, 0.000), bands     6 through     8
   are DEGENERATE (effective mass tensor is therefore not defined).
   See Section IIIB Eqs. (67)-(70) and Appendix E of PRB 93 205147 (2016).
 - Angular average effective mass for Frohlich model is to be averaged over degenerate bands. See later.
 - Associated theta integrals calculated with ntheta=   1000 points.

 K-point ( 0.000, 0.000, 0.000) | band =     6
 Transport equivalent effective mass tensor:
             -0.4440991963             -0.0000000234             -0.0000000372
             -0.0000000234             -0.4440992705             -0.0000000246
             -0.0000000372             -0.0000000246             -0.4440992646
 Transport equivalent effective mass tensor eigenvalues:
             -0.4440993086             -0.4440992445             -0.4440991783
 Angular average effective mass 1/(<1/m>)=  -0.4055236973
 Angular average effective mass for Frohlich model (<m**0.5>)**2=  -0.4080824772
 Effective masses along directions: (cart. coord. / red. coord. -> eff. mass)
    1:   1.000000  0.000000  0.000000 /   0.948683  0.316228  0.000000 ->  -0.4234341411
    2:   0.000000  1.000000  0.000000 /   0.000000  1.000000  0.000000 ->  -0.4777385912
    3:   0.000000  0.000000  1.000000 /   0.408248  0.408248  0.816497 ->  -0.4338605835
    4:   0.577350  0.577350  0.577350 /   0.585539  0.688047  0.428644 ->  -0.4265628052
    5:   0.000000  0.707107  0.707107 /   0.289489  0.762222  0.578977 ->  -0.3811663735
    6:   0.707107  0.000000  0.707107 /   0.731423  0.422287  0.535439 ->  -0.4284037771
    7:   0.707107  0.707107  0.000000 /   0.616798  0.787122  0.000000 ->  -0.3465628432

[...]

 K-point ( 0.000, 0.000, 0.000) | band =     8
 Transport equivalent effective mass tensor:
             -4.0621377277              0.0000019709             -0.0000001411
              0.0000019709             -4.0621383624             -0.0000003589
             -0.0000001411             -0.0000003589             -4.0621396882
 Transport equivalent effective mass tensor eigenvalues:
             -4.0621401227             -4.0621396384             -4.0621360172
 Angular average effective mass 1/(<1/m>)=  -2.1987187026
 Angular average effective mass for Frohlich model (<m**0.5>)**2=  -2.2701340925
 Effective masses along directions: (cart. coord. / red. coord. -> eff. mass)
    1:   1.000000  0.000000  0.000000 /   0.948683  0.316228  0.000000 ->  -1.7521920837
    2:   0.000000  1.000000  0.000000 /   0.000000  1.000000  0.000000 ->  -1.2781078756
    3:   0.000000  0.000000  1.000000 /   0.408248  0.408248  0.816497 ->  -2.7853544639
    4:   0.577350  0.577350  0.577350 /   0.585539  0.688047  0.428644 ->  -1.9546680160
    5:   0.000000  0.707107  0.707107 /   0.289489  0.762222  0.578977 ->  -2.6794287866
    6:   0.707107  0.000000  0.707107 /   0.731423  0.422287  0.535439 ->  -2.3093852984
    7:   0.707107  0.707107  0.000000 /   0.616798  0.787122  0.000000 ->  -2.6512461518

 Angular average effective mass for Frohlich model, averaged over degenerate bands.
 Value of     (<<m**0.5>>)**2 =     1.239703E+00
 Absolute Value of <<m**0.5>> =     1.113419E+00

 K-point ( 0.500, 0.000, 0.500) | band =     9
 Effective mass tensor:
              0.5812689304             -0.2281810179              0.2794643985
             -0.2281810179              0.7426160162             -0.3952211813
              0.2794643985             -0.3952211813              0.9039669309
 Effective mass tensor eigenvalues:
              0.4199201419              0.4199202906              1.3880114449
 Angular average effective mass 1/(<1/m>)=   0.5471193136
 Angular average effective mass for Frohlich model (<m**0.5>)**2=   0.5881728818
 Effective masses along directions: (cart. coord. / red. coord. -> eff. mass)
    1:   1.000000  0.000000  0.000000 /   0.948683  0.316228  0.000000 ->   0.4751542409
    2:   0.000000  1.000000  0.000000 /   0.000000  1.000000  0.000000 ->   0.5471187010
    3:   0.000000  0.000000  1.000000 /   0.408248  0.408248  0.816497 ->   0.6447752709
    4:   0.577350  0.577350  0.577350 /   0.585539  0.688047  0.428644 ->   0.4502172748
    5:   0.000000  0.707107  0.707107 /   0.289489  0.762222  0.578977 ->   0.4224005042
    6:   0.707107  0.000000  0.707107 /   0.731423  0.422287  0.535439 ->   0.7416867839
    7:   0.707107  0.707107  0.000000 /   0.616798  0.787122  0.000000 ->   0.4241498096

 END OF EFFECTIVE MASSES SECTION

 ---- first-order wavefunction calculations are completed ----

 Total localisation tensor (bohr^2) in cartesian coordinates
  WARNING : still subject to testing - especially symmetries.
      direction              matrix element
   alpha     beta       real part   imaginary part
     1        1       1.6136209903    0.0000000000
     1        2       0.4564009206    0.0000000000
     1        3       1.1179494087    0.0000000000
     2        1       0.4564009206    0.0000000000
     2        2       1.2908967435    0.0000000000
     2        3       0.7905095831    0.0000000000
     3        1       1.1179494087    0.0000000000
     3        2       0.7905095831    0.0000000000
     3        3       2.9045177397    0.0000000000

 respfn : d/dk was computed, but no 2DTE, so no DDB output.

== END DATASET(S) ==============================================================

 -outvars: echo values of variables after computation  --------
            acell      1.0000000000E+00  1.0000000000E+00  1.0000000000E+00 Bohr
              amu      4.00780000E+01  1.59994000E+01
             ecut      4.40000000E+01 Hartree
           etotal     -2.9441443125E+01
            fcart      0.0000000000E+00  0.0000000000E+00  0.0000000000E+00
                       0.0000000000E+00  0.0000000000E+00  0.0000000000E+00
-          fftalg         512
           irdden           1
           irdwfk           1
           istwfk        1    1
              ixc     -116133
              kpt      0.00000000E+00  0.00000000E+00  0.00000000E+00
                       5.00000000E-01  4.93038066E-32  5.00000000E-01
           kptopt           0
P           mkmem           2
P          mkqmem           2
P          mk1mem           2
            natom           2
            nband          17
           nbdbuf           4
            ngfft          40      40      40
             nkpt           2
            nstep         100
             nsym          48
           ntypat           2
              occ      2.000000  2.000000  2.000000  2.000000  2.000000  2.000000
                       2.000000  2.000000  0.000000  0.000000  0.000000  0.000000
                       0.000000  0.000000  0.000000  0.000000  0.000000
        optdriver           1
            prtwf          -1
            rfdir           1       1       1
           rfelfd           2
            rprim      5.5119518178E+00  0.0000000000E+00  3.1823268658E+00
                       1.8373172726E+00  5.1967180106E+00  3.1823268658E+00
                       0.0000000000E+00  0.0000000000E+00  6.3646537315E+00
          spgroup         225
           strten      0.0000000000E+00  0.0000000000E+00  0.0000000000E+00
                       0.0000000000E+00  0.0000000000E+00  0.0000000000E+00
           symrel      1  0  0   0  1  0   0  0  1      -1  0  0   0 -1  0   0  0 -1
                       0 -1  1   0 -1  0   1 -1  0       0  1 -1   0  1  0  -1  1  0
                      -1  0  0  -1  0  1  -1  1  0       1  0  0   1  0 -1   1 -1  0
                       0  1 -1   1  0 -1   0  0 -1       0 -1  1  -1  0  1   0  0  1
                      -1  0  0  -1  1  0  -1  0  1       1  0  0   1 -1  0   1  0 -1
                       0 -1  1   1 -1  0   0 -1  0       0  1 -1  -1  1  0   0  1  0
                       1  0  0   0  0  1   0  1  0      -1  0  0   0  0 -1   0 -1  0
                       0  1 -1   0  0 -1   1  0 -1       0 -1  1   0  0  1  -1  0  1
                      -1  0  1  -1  1  0  -1  0  0       1  0 -1   1 -1  0   1  0  0
                       0 -1  0   1 -1  0   0 -1  1       0  1  0  -1  1  0   0  1 -1
                       1  0 -1   0  0 -1   0  1 -1      -1  0  1   0  0  1   0 -1  1
                       0  1  0   0  0  1   1  0  0       0 -1  0   0  0 -1  -1  0  0
                       1  0 -1   0  1 -1   0  0 -1      -1  0  1   0 -1  1   0  0  1
                       0 -1  0   0 -1  1   1 -1  0       0  1  0   0  1 -1  -1  1  0
                      -1  0  1  -1  0  0  -1  1  0       1  0 -1   1  0  0   1 -1  0
                       0  1  0   1  0  0   0  0  1       0 -1  0  -1  0  0   0  0 -1
                       0  0 -1   0  1 -1   1  0 -1       0  0  1   0 -1  1  -1  0  1
                       1 -1  0   0 -1  1   0 -1  0      -1  1  0   0  1 -1   0  1  0
                       0  0  1   1  0  0   0  1  0       0  0 -1  -1  0  0   0 -1  0
                      -1  1  0  -1  0  0  -1  0  1       1 -1  0   1  0  0   1  0 -1
                       0  0  1   0  1  0   1  0  0       0  0 -1   0 -1  0  -1  0  0
                       1 -1  0   0 -1  0   0 -1  1      -1  1  0   0  1  0   0  1 -1
                       0  0 -1   1  0 -1   0  1 -1       0  0  1  -1  0  1   0 -1  1
                      -1  1  0  -1  0  1  -1  0  0       1 -1  0   1  0 -1   1  0  0
           tolwfr      1.00000000E-20
            typat      1  2
           useylm           1
              wtk        0.50000    0.50000
           xangst      0.0000000000E+00  0.0000000000E+00  0.0000000000E+00
                       1.9445328512E+00  1.3749923653E+00  3.3680296953E+00
            xcart      0.0000000000E+00  0.0000000000E+00  0.0000000000E+00
                       3.6746345452E+00  2.5983590053E+00  6.3646537315E+00
             xred      0.0000000000E+00  0.0000000000E+00  0.0000000000E+00
                       5.0000000000E-01  5.0000000000E-01  5.0000000000E-01
            znucl       20.00000    8.00000

- Timing analysis has been suppressed with timopt=0

 Suggested references for the acknowledgment of ABINIT usage.

 Calculation completed.
.Delivered  14 WARNINGs and   9 COMMENTs to log file.