.Version 9.5.1 of ABINIT

 ABINIT is a project of the Universite Catholique de Louvain,
 Corning Inc. and other collaborators, see ~abinit/doc/developers/contributors.txt .
 acknowledgments of the ABINIT effort.

.Starting date : Wed  5 May 2021.
- ( at 19h46 )

- input  file    -> /scratch/users/j/a/jabreu/flow_simple_7atoms/flow/w138/t1/run.abi
- output file    -> /scratch/users/j/a/jabreu/flow_simple_7atoms/flow/w138/t1/run.abo
- root for input  files -> /scratch/users/j/a/jabreu/flow_simple_7atoms/flow/w138/t1/indata/in
- root for output files -> /scratch/users/j/a/jabreu/flow_simple_7atoms/flow/w138/t1/outdata/out

 Symmetries : space group I4/m m m (#139); Bravais tI (body-center tetrag.)
     intxc =       0      iscf =       7    lmnmax =      18     lnmax =       6
     mgfft =     100  mpssoang =       3    mqgrid =    3001     natom =       7
  nloc_mem =       1    nspden =       1   nspinor =       1    nsppol =       1
      nsym =      16    n1xccc =    2501    ntypat =       3    occopt =       1
   xclevel =       2
-    mband =          37        mffmem =           1         mkmem =           1
-   mkqmem =           1        mk1mem =           1           mpw =       16033
      nfft =     1000000          nkpt =           1
  Rough estimation (10% accuracy) of disk space for files :

------------- Echo of variables that govern the present computation ------------
-
- outvars: echo of selected default values
-   iomode0 =  0 , fftalg0 =512 , wfoptalg0 =  0
-
- outvars: echo of global parameters not present in the input file
-  max_nthreads =    0
-
 -outvars: echo values of preprocessed input variables --------
            acell      1.0000000000E+00  1.0000000000E+00  1.0000000000E+00 Bohr
              amu      2.29897680E+01  1.26904470E+02  1.59994000E+01
             ecut      4.40000000E+01 Hartree
-          fftalg         512
           irdden           1
           irdwfk           1
           istwfk        1
              ixc     -116133
           kptopt           0
P           mkmem           1
P          mkqmem           1
P          mk1mem           1
            natom           7
            nband          37
           nbdbuf           4
            ngfft         100     100     100
             nkpt           1
            nstep        2000
             nsym          16
           ntypat           3
              occ      2.000000  2.000000  2.000000  2.000000  2.000000  2.000000
                       2.000000  2.000000  2.000000  2.000000  2.000000  2.000000
                       2.000000  2.000000  2.000000  2.000000  2.000000  2.000000
                       2.000000  2.000000  2.000000  2.000000  2.000000  2.000000
                       2.000000  2.000000  2.000000  2.000000  0.000000  0.000000
                       0.000000  0.000000  0.000000  0.000000  0.000000  0.000000
                       0.000000
        optdriver           1
            prtwf          -1
            rfdir           1       1       1
           rfelfd           2
            rprim      8.4240065924E+00  0.0000000000E+00 -1.3860450482E+01
                      -6.6069114370E-01  8.3980577684E+00 -1.3860450482E+01
                       0.0000000000E+00  0.0000000000E+00  1.6219616970E+01
          spgroup         139
           symrel      1  0  0   0  1  0   0  0  1      -1  0  0   0 -1  0   0  0 -1
                      -1 -1 -1   0  0  1   0  1  0       1  1  1   0  0 -1   0 -1  0
                       0  1  0   1  0  0  -1 -1 -1       0 -1  0  -1  0  0   1  1  1
                       0  0  1  -1 -1 -1   1  0  0       0  0 -1   1  1  1  -1  0  0
                       0  1  0   1  0  0   0  0  1       0 -1  0  -1  0  0   0  0 -1
                      -1 -1 -1   0  0  1   1  0  0       1  1  1   0  0 -1  -1  0  0
                       1  0  0   0  1  0  -1 -1 -1      -1  0  0   0 -1  0   1  1  1
                       0  0  1  -1 -1 -1   0  1  0       0  0 -1   1  1  1   0 -1  0
           tolwfr      1.00000000E-20
            typat      1  1  1  1  2  2  3
           useylm           1
           xangst      3.5217653619E+00  3.8097110895E+00 -1.2575362867E+01
                       2.2288961469E+00  0.0000000000E+00  6.2420856817E-01
                       5.8640423667E-01  6.3434967801E-01 -2.0939061252E+00
                      -1.7481134758E-01  2.2220303837E+00  6.2420856817E-01
                       2.6830537812E+00  2.9024249753E+00 -9.5805289174E+00
                       1.4251158174E+00  1.5416357921E+00 -5.0887400749E+00
                       0.0000000000E+00  0.0000000000E+00  0.0000000000E+00
            xcart      6.6551720382E+00  7.1993106045E+00 -2.3763991840E+01
                       4.2120032962E+00  0.0000000000E+00  1.1795832437E+00
                       1.1081434105E+00  1.1987471639E+00 -3.9569091246E+00
                      -3.3034557185E-01  4.1990288842E+00  1.1795832436E+00
                       5.0702368462E+00  5.4847883247E+00 -1.8104575862E+01
                       2.6930786025E+00  2.9132694437E+00 -9.6163251030E+00
                       0.0000000000E+00  0.0000000000E+00  0.0000000000E+00
             xred      8.5725900000E-01  8.5725900000E-01  3.3306690739E-16
                       5.0000000000E-01  0.0000000000E+00  5.0000000000E-01
                       1.4274100000E-01  1.4274100000E-01  4.1633363423E-17
                      -6.9388939039E-18  5.0000000000E-01  5.0000000000E-01
                       6.5310200000E-01  6.5310200000E-01  1.1102230246E-16
                       3.4689800000E-01  3.4689800000E-01  0.0000000000E+00
                       0.0000000000E+00  0.0000000000E+00  0.0000000000E+00
            znucl       11.00000   53.00000    8.00000

 chkinp: Checking input parameters for consistency.

== DATASET  1 ==================================================================
-   mpi_nproc: 1, omp_nthreads: -1 (-1 if OMP is not activated)

--- !DatasetInfo
iteration_state: {dtset: 1, }
dimensions: {natom: 7, nkpt: 1, mband: 37, nsppol: 1, nspinor: 1, nspden: 1, mpw: 16033, }
cutoff_energies: {ecut:  44.0, pawecutdg:  -1.0, }
electrons: {nelect:   5.60000000E+01, charge:   0.00000000E+00, occopt:   1.00000000E+00, tsmear:   1.00000000E-02, }
meta: {optdriver: 1, rfelfd: 2, }
...

 Real(R)+Recip(G) space primitive vectors, cartesian coordinates (Bohr,Bohr^-1):
 R(1)=  8.4240066  0.0000000-13.8604505  G(1)=  0.1187084  0.0093390  0.0000000
 R(2)= -0.6606911  8.3980578-13.8604505  G(2)=  0.0000000  0.1190752  0.0000000
 R(3)=  0.0000000  0.0000000 16.2196170  G(3)=  0.1014421  0.1097361  0.0616537
 Unit cell volume ucvol=  1.1474616E+03 bohr^3
 Angles (23,13,12)=  1.48709898E+02  1.48709898E+02  4.48384965E+01 degrees

 getcut: wavevector=  0.0000  0.0000  0.0000  ngfft= 100 100 100
         ecut(hartree)=     44.000   => boxcut(ratio)=   2.06500

--- Pseudopotential description ------------------------------------------------
- pspini: atom type   1  psp file is /scratch/users/j/a/jabreu/pseudos/PBEsol/Na.psp8
- pspatm: opening atomic psp file    /scratch/users/j/a/jabreu/pseudos/PBEsol/Na.psp8
- Na    ONCVPSP-3.3.0  r_core=   1.20708   1.55069
- 11.00000   9.00000    180112                znucl, zion, pspdat
    8 -116133    1    4       400   0.00000   pspcod,pspxc,lmax,lloc,mmax,r2well
    3.99000000000000    0.00000000000000    0.00000000000000   rchrg,fchrg,qchrg
     nproj     2     2
     extension_switch     1
  pspatm : epsatm=    9.32878306
         --- l  ekb(1:nproj) -->
             0    2.657905   -0.678300
             1   -6.761319   -2.404728
 pspatm: atomic psp has been read  and splines computed

- pspini: atom type   2  psp file is /scratch/users/j/a/jabreu/pseudos/PBEsol/I.psp8
- pspatm: opening atomic psp file    /scratch/users/j/a/jabreu/pseudos/PBEsol/I.psp8
- I     ONCVPSP-3.3.0  r_core=   2.02042   2.17032   2.27639
- 53.00000   7.00000    180112                znucl, zion, pspdat
    8 -116133    2    4       600   0.00000   pspcod,pspxc,lmax,lloc,mmax,r2well
    5.99000000000000    4.00000000000000    0.00000000000000   rchrg,fchrg,qchrg
     nproj     2     2     2
     extension_switch     1
  pspatm : epsatm=   18.14229533
         --- l  ekb(1:nproj) -->
             0    6.015861    0.935228
             1    4.063749    0.754139
             2    4.149534    0.722940
 pspatm: atomic psp has been read  and splines computed

- pspini: atom type   3  psp file is /scratch/users/j/a/jabreu/pseudos/PBEsol/O.psp8
- pspatm: opening atomic psp file    /scratch/users/j/a/jabreu/pseudos/PBEsol/O.psp8
- O     ONCVPSP-3.3.0  r_core=   1.35509   1.45563   1.26150
-  8.00000   6.00000    180112                znucl, zion, pspdat
    8 -116133    2    4       600   0.00000   pspcod,pspxc,lmax,lloc,mmax,r2well
    5.99000000000000    4.00000000000000    0.00000000000000   rchrg,fchrg,qchrg
     nproj     2     2     1
     extension_switch     1
  pspatm : epsatm=    6.22910522
         --- l  ekb(1:nproj) -->
             0    6.050032    0.820363
             1   -4.739617   -1.153841
             2   -1.335834
 pspatm: atomic psp has been read  and splines computed

   4.47041437E+03                                ecore*ucvol(ha*bohr**3)

-inwffil : will read wavefunctions from disk file /scratch/users/j/a/jabreu/flow_simple_7atoms/flow/w138/t1/indata/in_WFK

 ==>  initialize data related to q vector <==

 The list of irreducible perturbations for this q vector is:
    1)    idir= 1    ipert=   8
    2)    idir= 2    ipert=   8
    3)    idir= 3    ipert=   8

 Perturbation wavevector (in red.coord.)   0.000000  0.000000  0.000000
 Perturbation : derivative vs k along direction   1

 dfpt_looppert : COMMENT -
  In a d/dk calculation, iscf is set to -3 automatically.
 The set of symmetries contains only one element for this perturbation.
 symkpt : not enough symmetry to change the number of k points.

[...]

 Initialisation of the first-order wave-functions :
  ireadwf=   0

--- !BeginCycle
iteration_state: {dtset: 1, }
solver: {iscf: 7, nstep: 2000, nline: 4, wfoptalg: 0, }
tolerances: {tolwfr: 1.00E-20, }
...

     iter   2DEtotal(Ha)        deltaE(Ha) residm    vres2
-ETOT  1  -41.491711830659     -4.149E+01 1.953E-02 0.000E+00
 ETOT  2  -41.507952753345     -1.624E-02 4.810E-05 0.000E+00
 ETOT  3  -41.507982740676     -2.999E-05 4.479E-07 0.000E+00
 ETOT  4  -41.507982862351     -1.217E-07 1.371E-09 0.000E+00
 ETOT  5  -41.507982862973     -6.222E-10 1.500E-11 0.000E+00
 ETOT  6  -41.507982862977     -3.880E-12 7.214E-14 0.000E+00
 ETOT  7  -41.507982862977      2.132E-14 7.230E-16 0.000E+00
 ETOT  8  -41.507982862977     -4.974E-14 4.544E-18 0.000E+00
 ETOT  9  -41.507982862977      2.842E-14 5.310E-20 0.000E+00
 ETOT 10  -41.507982862977      1.421E-14 9.479E-21 0.000E+00

 At SCF step   10   max residual=  9.48E-21 < tolwfr=  1.00E-20 =>converged.

 ----iterations are completed or convergence reached----

 dfpt_looppert: DFPT cycle converged with prtwf=-1. Will skip output of the 1st-order WFK file.
 dfpt_looppert : ek2=    6.2693143148E+01
          f-sum rule ratio=    1.1525165806E+00
 prteigrs : about to open file /scratch/users/j/a/jabreu/flow_simple_7atoms/flow/w138/t1/tmpdata/tmp_1WF1_EIG
 Expectation of eigenvalue derivatives (hartree) for nkpt=   1  k points:
  (in case of degenerate eigenvalues, averaged derivative)
 kpt#   1, nband= 37, wtk=  1.00000, kpt=  0.0000  0.0000  0.0000 (reduced coord)
  -0.00000   -0.00000   -0.00000   -0.00000   -0.00000   -0.00000    0.00000    0.00000
  -0.00000    0.00000   -0.00000    0.00000    0.00000   -0.00000    0.00000    0.00000
   0.00000    0.00000   -0.00000   -0.00000    0.00000    0.00000    0.00000   -0.00000
  -0.00000   -0.00000    0.00000    0.00000    0.00000    0.00000   -0.00000   -0.00000
   0.00000    0.00000    0.00000   -0.00458    0.00008

 Eight components of 2nd-order total energy (hartree) are
 1,2,3: 0th-order hamiltonian combined with 1st-order wavefunctions
     kin0=   4.07175771E+01 eigvalue=   4.82222310E+00  local=  -1.59918825E+01
 4,5,6: 1st-order hamiltonian combined with 1st and 0th-order wfs
     kin1=  -7.22548870E+01  Hartree=   0.00000000E+00     xc=   0.00000000E+00
 7,8,9: eventually, occupation + non-local contributions
    edocc=   1.13135348E+01     enl0=   6.46530364E-01   enl1=  -1.07610788E+01
 1-9 gives the relaxation energy (to be shifted if some occ is /=2.0)
   erelax=  -4.15079829E+01
  No Ewald or frozen-wf contrib.: the relaxation energy is the total one
 2DEtotal=   -0.4150798286E+02 Ha. Also 2DEtotal=   -0.112948965494E+04 eV
    (  non-var. 2DEtotal :   -4.1507982863E+01 Ha)

 Perturbation wavevector (in red.coord.)   0.000000  0.000000  0.000000
 Perturbation : derivative vs k along direction   2
 The set of symmetries contains only one element for this perturbation.
 symkpt : not enough symmetry to change the number of k points.

[...]

 Perturbation wavevector (in red.coord.)   0.000000  0.000000  0.000000
 Perturbation : derivative vs k along direction   3
 The set of symmetries contains only one element for this perturbation.
 symkpt : not enough symmetry to change the number of k points.

-inwffil : will read wavefunctions from disk file /scratch/users/j/a/jabreu/flow_simple_7atoms/flow/w138/t1/indata/in_WFK

 Initialisation of the first-order wave-functions :
  ireadwf=   0

--- !BeginCycle
iteration_state: {dtset: 1, }
solver: {iscf: 7, nstep: 2000, nline: 4, wfoptalg: 0, }
tolerances: {tolwfr: 1.00E-20, }
...

     iter   2DEtotal(Ha)        deltaE(Ha) residm    vres2
-ETOT  1  -76.949135944424     -7.695E+01 5.532E-02 0.000E+00
 ETOT  2  -76.974928603191     -2.579E-02 1.104E-04 0.000E+00
 ETOT  3  -76.974974039167     -4.544E-05 3.229E-07 0.000E+00
 ETOT  4  -76.974974245664     -2.065E-07 1.966E-09 0.000E+00
 ETOT  5  -76.974974246819     -1.155E-09 1.226E-11 0.000E+00
 ETOT  6  -76.974974246827     -7.716E-12 9.802E-14 0.000E+00
 ETOT  7  -76.974974246827     -1.421E-14 1.253E-15 0.000E+00
 ETOT  8  -76.974974246827      4.263E-14 1.616E-17 0.000E+00
 ETOT  9  -76.974974246827     -5.684E-14 2.298E-19 0.000E+00
 ETOT 10  -76.974974246827      4.263E-14 9.555E-21 0.000E+00

 At SCF step   10   max residual=  9.55E-21 < tolwfr=  1.00E-20 =>converged.

 ----iterations are completed or convergence reached----

 dfpt_looppert: DFPT cycle converged with prtwf=-1. Will skip output of the 1st-order WFK file.
 dfpt_looppert : ek2=    1.1555229494E+02
          f-sum rule ratio=    1.1606319346E+00
 prteigrs : about to open file /scratch/users/j/a/jabreu/flow_simple_7atoms/flow/w138/t1/tmpdata/tmp_1WF1_EIG
 Expectation of eigenvalue derivatives (hartree) for nkpt=   1  k points:
  (in case of degenerate eigenvalues, averaged derivative)
 kpt#   1, nband= 37, wtk=  1.00000, kpt=  0.0000  0.0000  0.0000 (reduced coord)
  -0.00000   -0.00000   -0.00000   -0.00000   -0.00000   -0.00000    0.00000    0.00000
   0.00000    0.00000   -0.00000    0.00000    0.00000   -0.00000    0.00000    0.00000
   0.00000    0.00000   -0.00000   -0.00000    0.00000    0.00000    0.00000    0.00000
   0.00000   -0.00000    0.00000    0.00000    0.00000    0.00000    0.00000    0.00000
   0.00000    0.00000    0.00000   -0.00040    0.00052

 Eight components of 2nd-order total energy (hartree) are
 1,2,3: 0th-order hamiltonian combined with 1st-order wavefunctions
     kin0=   7.53786286E+01 eigvalue=   8.89032589E+00  local=  -2.96234871E+01
 4,5,6: 1st-order hamiltonian combined with 1st and 0th-order wfs
     kin1=  -1.34113684E+02  Hartree=   0.00000000E+00     xc=   0.00000000E+00
 7,8,9: eventually, occupation + non-local contributions
    edocc=   2.10727300E+01     enl0=   1.25677681E+00   enl1=  -1.98362649E+01
 1-9 gives the relaxation energy (to be shifted if some occ is /=2.0)
   erelax=  -7.69749742E+01
  No Ewald or frozen-wf contrib.: the relaxation energy is the total one
 2DEtotal=   -0.7697497425E+02 Ha. Also 2DEtotal=   -0.209459557184E+04 eV
    (  non-var. 2DEtotal :   -7.6974974247E+01 Ha)

 CALCULATION OF EFFECTIVE MASSES
 NOTE : Additional infos (eff. mass eigenvalues, eigenvectors and, if degenerate, average mass) are available in stdout.

 COMMENTS:
 - At k-point ( 0.000, 0.000, 0.000), bands    27 through    28
   are DEGENERATE (effective mass tensor is therefore not defined).
   See Section IIIB Eqs. (67)-(70) and Appendix E of PRB 93 205147 (2016).
 - Angular average effective mass for Frohlich model is to be averaged over degenerate bands. See later.
 - Associated theta integrals calculated with ntheta=   1000 points.

 K-point ( 0.000, 0.000, 0.000) | band =    27
 Transport equivalent effective mass tensor:
             -1.0641210734             -0.3368198811              1.1120549374
             -0.3368198811             -1.1174318895              1.2028741538
              1.1120549374              1.2028741538             -4.7235395315
 Transport equivalent effective mass tensor eigenvalues:
             -5.3993782760             -0.7530351123             -0.7526791061
 Angular average effective mass 1/(<1/m>)=  -1.0549230240
 Angular average effective mass for Frohlich model (<m**0.5>)**2=  -1.2340833769
 Effective masses along directions: (cart. coord. / red. coord. -> eff. mass)
    1:   1.000000  0.000000  0.000000 /   0.996939 -0.078189  0.000000 ->  -0.7859596354
    2:   0.000000  1.000000  0.000000 /   0.000000  1.000000  0.000000 ->  -0.7940010252
    3:   0.000000  0.000000  1.000000 /  -0.544784 -0.544784  0.637511 ->  -2.8691960626
    4:   0.577350  0.577350  0.577350 /  -0.299211 -0.337002  0.892694 ->  -0.7990124745
    5:   0.000000  0.707107  0.707107 /  -0.629354 -0.248028  0.736475 ->  -0.9066328093
    6:   0.707107  0.000000  0.707107 /  -0.242280 -0.647148  0.722842 ->  -0.9173652215
    7:   0.707107  0.707107  0.000000 /   0.736485  0.676454  0.000000 ->  -0.8738759958

 K-point ( 0.000, 0.000, 0.000) | band =    28
 Transport equivalent effective mass tensor:
             -5.1651012926             -0.0385162042              0.1271810711
             -0.0385162042             -5.1710548792              0.1376044809
              0.1271810711              0.1376044809             -5.5835452608
 Transport equivalent effective mass tensor eigenvalues:
             -5.6608552218             -5.1294836462             -5.1293625647
 Angular average effective mass 1/(<1/m>)=  -5.1079316819
 Angular average effective mass for Frohlich model (<m**0.5>)**2=  -5.1227971695
 Effective masses along directions: (cart. coord. / red. coord. -> eff. mass)
    1:   1.000000  0.000000  0.000000 /   0.996939 -0.078189  0.000000 ->  -5.5433768069
    2:   0.000000  1.000000  0.000000 /   0.000000  1.000000  0.000000 ->  -5.5710058764
    3:   0.000000  0.000000  1.000000 /  -0.544784 -0.544784  0.637511 ->  -5.2374905665
    4:   0.577350  0.577350  0.577350 /  -0.299211 -0.337002  0.892694 ->  -4.5191864934
    5:   0.000000  0.707107  0.707107 /  -0.629354 -0.248028  0.736475 ->  -5.3679147013
    6:   0.707107  0.000000  0.707107 /  -0.242280 -0.647148  0.722842 ->  -5.4475619616
    7:   0.707107  0.707107  0.000000 /   0.736485  0.676454  0.000000 ->  -4.5965843944

 Angular average effective mass for Frohlich model, averaged over degenerate bands.
 Value of     (<<m**0.5>>)**2 =     2.846395E+00
 Absolute Value of <<m**0.5>> =     1.687126E+00

 K-point ( 0.000, 0.000, 0.000) | band =    29
 Effective mass tensor:
              0.2638223355              0.0001683536             -0.0005548823
              0.0001683536              0.2638501287             -0.0005992922
             -0.0005548823             -0.0005992922              0.2656476130
 Effective mass tensor eigenvalues:
              0.2636667865              0.2636686913              0.2659845995
 Angular average effective mass 1/(<1/m>)=   0.2644355280
 Angular average effective mass for Frohlich model (<m**0.5>)**2=   0.2644368753
 Effective masses along directions: (cart. coord. / red. coord. -> eff. mass)
    1:   1.000000  0.000000  0.000000 /   0.996939 -0.078189  0.000000 ->   0.2638210706
    2:   0.000000  1.000000  0.000000 /   0.000000  1.000000  0.000000 ->   0.2638486709
    3:   0.000000  0.000000  1.000000 /  -0.544784 -0.544784  0.637511 ->   0.2656450864
    4:   0.577350  0.577350  0.577350 /  -0.299211 -0.337002  0.892694 ->   0.2637818619
    5:   0.000000  0.707107  0.707107 /  -0.629354 -0.248028  0.736475 ->   0.2641462550
    6:   0.707107  0.000000  0.707107 /  -0.242280 -0.647148  0.722842 ->   0.2641766047
    7:   0.707107  0.707107  0.000000 /   0.736485  0.676454  0.000000 ->   0.2640020777

 END OF EFFECTIVE MASSES SECTION

 ---- first-order wavefunction calculations are completed ----

 Total localisation tensor (bohr^2) in cartesian coordinates
  WARNING : still subject to testing - especially symmetries.
      direction              matrix element
   alpha     beta       real part   imaginary part
     1        1       1.2803754013    0.0000000000
     1        2      -0.0994933213    0.0000000000
     1        3      -1.9295813855    0.0000000000
     2        1      -0.0994933213    0.0000000000
     2        2       1.2646615104    0.0000000000
     2        3      -2.0872419226    0.0000000000
     3        1      -1.9295813855    0.0000000000
     3        2      -2.0872419226    0.0000000000
     3        3      15.7165331337    0.0000000000

 respfn : d/dk was computed, but no 2DTE, so no DDB output.

== END DATASET(S) ==============================================================

 -outvars: echo values of variables after computation  --------
            acell      1.0000000000E+00  1.0000000000E+00  1.0000000000E+00 Bohr
              amu      2.29897680E+01  1.26904470E+02  1.59994000E+01
             ecut      4.40000000E+01 Hartree
           etotal     -7.6974974247E+01
            fcart      0.0000000000E+00  0.0000000000E+00  0.0000000000E+00
                       0.0000000000E+00  0.0000000000E+00  0.0000000000E+00
                       0.0000000000E+00  0.0000000000E+00  0.0000000000E+00
                       0.0000000000E+00  0.0000000000E+00  0.0000000000E+00
                       0.0000000000E+00  0.0000000000E+00  0.0000000000E+00
                       0.0000000000E+00  0.0000000000E+00  0.0000000000E+00
                       0.0000000000E+00  0.0000000000E+00  0.0000000000E+00
-          fftalg         512
           irdden           1
           irdwfk           1
           istwfk        1
              ixc     -116133
           kptopt           0
P           mkmem           1
P          mkqmem           1
P          mk1mem           1
            natom           7
            nband          37
           nbdbuf           4
            ngfft         100     100     100
             nkpt           1
            nstep        2000
             nsym          16
           ntypat           3
              occ      2.000000  2.000000  2.000000  2.000000  2.000000  2.000000
                       2.000000  2.000000  2.000000  2.000000  2.000000  2.000000
                       2.000000  2.000000  2.000000  2.000000  2.000000  2.000000
                       2.000000  2.000000  2.000000  2.000000  2.000000  2.000000
                       2.000000  2.000000  2.000000  2.000000  0.000000  0.000000
                       0.000000  0.000000  0.000000  0.000000  0.000000  0.000000
                       0.000000
        optdriver           1
            prtwf          -1
            rfdir           1       1       1
           rfelfd           2
            rprim      8.4240065924E+00  0.0000000000E+00 -1.3860450482E+01
                      -6.6069114370E-01  8.3980577684E+00 -1.3860450482E+01
                       0.0000000000E+00  0.0000000000E+00  1.6219616970E+01
          spgroup         139
           strten      0.0000000000E+00  0.0000000000E+00  0.0000000000E+00
                       0.0000000000E+00  0.0000000000E+00  0.0000000000E+00
           symrel      1  0  0   0  1  0   0  0  1      -1  0  0   0 -1  0   0  0 -1
                      -1 -1 -1   0  0  1   0  1  0       1  1  1   0  0 -1   0 -1  0
                       0  1  0   1  0  0  -1 -1 -1       0 -1  0  -1  0  0   1  1  1
                       0  0  1  -1 -1 -1   1  0  0       0  0 -1   1  1  1  -1  0  0
                       0  1  0   1  0  0   0  0  1       0 -1  0  -1  0  0   0  0 -1
                      -1 -1 -1   0  0  1   1  0  0       1  1  1   0  0 -1  -1  0  0
                       1  0  0   0  1  0  -1 -1 -1      -1  0  0   0 -1  0   1  1  1
                       0  0  1  -1 -1 -1   0  1  0       0  0 -1   1  1  1   0 -1  0
           tolwfr      1.00000000E-20
            typat      1  1  1  1  2  2  3
           useylm           1
           xangst      3.5217653619E+00  3.8097110895E+00 -1.2575362867E+01
                       2.2288961469E+00  0.0000000000E+00  6.2420856817E-01
                       5.8640423667E-01  6.3434967801E-01 -2.0939061252E+00
                      -1.7481134758E-01  2.2220303837E+00  6.2420856817E-01
                       2.6830537812E+00  2.9024249753E+00 -9.5805289174E+00
                       1.4251158174E+00  1.5416357921E+00 -5.0887400749E+00
                       0.0000000000E+00  0.0000000000E+00  0.0000000000E+00
            xcart      6.6551720382E+00  7.1993106045E+00 -2.3763991840E+01
                       4.2120032962E+00  0.0000000000E+00  1.1795832437E+00
                       1.1081434105E+00  1.1987471639E+00 -3.9569091246E+00
                      -3.3034557185E-01  4.1990288842E+00  1.1795832436E+00
                       5.0702368462E+00  5.4847883247E+00 -1.8104575862E+01
                       2.6930786025E+00  2.9132694437E+00 -9.6163251030E+00
                       0.0000000000E+00  0.0000000000E+00  0.0000000000E+00
             xred      8.5725900000E-01  8.5725900000E-01  3.3306690739E-16
                       5.0000000000E-01  0.0000000000E+00  5.0000000000E-01
                       1.4274100000E-01  1.4274100000E-01  4.1633363423E-17
                      -6.9388939039E-18  5.0000000000E-01  5.0000000000E-01
                       6.5310200000E-01  6.5310200000E-01  1.1102230246E-16
                       3.4689800000E-01  3.4689800000E-01  0.0000000000E+00
                       0.0000000000E+00  0.0000000000E+00  0.0000000000E+00
            znucl       11.00000   53.00000    8.00000

- Timing analysis has been suppressed with timopt=0

 Suggested references for the acknowledgment of ABINIT usage.

 Calculation completed.
.Delivered   6 WARNINGs and   5 COMMENTs to log file.