.Version 9.5.1 of ABINIT

 ABINIT is a project of the Universite Catholique de Louvain,
 Corning Inc. and other collaborators, see ~abinit/doc/developers/contributors.txt .
 acknowledgments of the ABINIT effort.

.Starting date : Sun 25 Apr 2021.
- ( at 18h05 )

- input  file    -> /scratch/users/j/a/jabreu/flow_simple2/flow/w261/t1/run.abi
- output file    -> /scratch/users/j/a/jabreu/flow_simple2/flow/w261/t1/run.abo
- root for input  files -> /scratch/users/j/a/jabreu/flow_simple2/flow/w261/t1/indata/in
- root for output files -> /scratch/users/j/a/jabreu/flow_simple2/flow/w261/t1/outdata/out

 Symmetries : space group F-4 3 m (#216); Bravais cF (face-center cubic)
     intxc =       0      iscf =       7    lmnmax =      18     lnmax =       6
     mgfft =      50  mpssoang =       3    mqgrid =    3001     natom =       2
  nloc_mem =       1    nspden =       1   nspinor =       1    nsppol =       1
      nsym =      24    n1xccc =    2501    ntypat =       2    occopt =       1
   xclevel =       2
-    mband =          22        mffmem =           1         mkmem =           1
-   mkqmem =           1        mk1mem =           1           mpw =        5209
      nfft =      125000          nkpt =           1
  Rough estimation (10% accuracy) of disk space for files :

------------- Echo of variables that govern the present computation ------------
-
- outvars: echo of selected default values
-   iomode0 =  0 , fftalg0 =512 , wfoptalg0 =  0
-
- outvars: echo of global parameters not present in the input file
-  max_nthreads =    0
-
 -outvars: echo values of preprocessed input variables --------
            acell      1.0000000000E+00  1.0000000000E+00  1.0000000000E+00 Bohr
              amu      6.35460000E+01  1.26904470E+02
             ecut      4.60000000E+01 Hartree
-          fftalg         512
           irdden           1
           irdwfk           1
           istwfk        1
              ixc     -116133
           kptopt           0
P           mkmem           1
P          mkqmem           1
P          mk1mem           1
            natom           2
            nband          22
           nbdbuf           4
            ngfft          50      50      50
             nkpt           1
            nstep         100
             nsym          24
           ntypat           2
              occ      2.000000  2.000000  2.000000  2.000000  2.000000  2.000000
                       2.000000  2.000000  2.000000  2.000000  2.000000  2.000000
                       2.000000  0.000000  0.000000  0.000000  0.000000  0.000000
                       0.000000  0.000000  0.000000  0.000000
        optdriver           1
            prtwf          -1
            rfdir           1       1       1
           rfelfd           2
            rprim      6.8844548598E+00  0.0000000000E+00  3.9747418665E+00
                       2.2948182866E+00  6.4907262882E+00  3.9747418665E+00
                       0.0000000000E+00  0.0000000000E+00  7.9494837331E+00
          spgroup         216
           symrel      1  0  0   0  1  0   0  0  1       0 -1  1   0 -1  0   1 -1  0
                      -1  0  0  -1  0  1  -1  1  0       0  1 -1   1  0 -1   0  0 -1
                      -1  0  0  -1  1  0  -1  0  1       0 -1  1   1 -1  0   0 -1  0
                       1  0  0   0  0  1   0  1  0       0  1 -1   0  0 -1   1  0 -1
                      -1  0  1  -1  1  0  -1  0  0       0 -1  0   1 -1  0   0 -1  1
                       1  0 -1   0  0 -1   0  1 -1       0  1  0   0  0  1   1  0  0
                       1  0 -1   0  1 -1   0  0 -1       0 -1  0   0 -1  1   1 -1  0
                      -1  0  1  -1  0  0  -1  1  0       0  1  0   1  0  0   0  0  1
                       0  0 -1   0  1 -1   1  0 -1       1 -1  0   0 -1  1   0 -1  0
                       0  0  1   1  0  0   0  1  0      -1  1  0  -1  0  0  -1  0  1
                       0  0  1   0  1  0   1  0  0       1 -1  0   0 -1  0   0 -1  1
                       0  0 -1   1  0 -1   0  1 -1      -1  1  0  -1  0  1  -1  0  0
           tolwfr      1.00000000E-20
            typat      1  2
           useylm           1
           xangst      1.2143655351E+00  8.5868610473E-01  2.1033428058E+00
                       2.4287310702E+00  1.7173722095E+00  4.2066856116E+00
            xcart      2.2948182866E+00  1.6226815721E+00  3.9747418665E+00
                       4.5896365732E+00  3.2453631441E+00  7.9494837331E+00
             xred      2.5000000000E-01  2.5000000000E-01  2.5000000000E-01
                       5.0000000000E-01  5.0000000000E-01  5.0000000000E-01
            znucl       29.00000   53.00000

 chkinp: Checking input parameters for consistency.

== DATASET  1 ==================================================================
-   mpi_nproc: 1, omp_nthreads: -1 (-1 if OMP is not activated)

--- !DatasetInfo
iteration_state: {dtset: 1, }
dimensions: {natom: 2, nkpt: 1, mband: 22, nsppol: 1, nspinor: 1, nspden: 1, mpw: 5209, }
cutoff_energies: {ecut:  46.0, pawecutdg:  -1.0, }
electrons: {nelect:   2.60000000E+01, charge:   0.00000000E+00, occopt:   1.00000000E+00, tsmear:   1.00000000E-02, }
meta: {optdriver: 1, rfelfd: 2, }
...

 Real(R)+Recip(G) space primitive vectors, cartesian coordinates (Bohr,Bohr^-1):
 R(1)=  6.8844549  0.0000000  3.9747419  G(1)=  0.1452548 -0.0513553  0.0000000
 R(2)=  2.2948183  6.4907263  3.9747419  G(2)=  0.0000000  0.1540660  0.0000000
 R(3)=  0.0000000  0.0000000  7.9494837  G(3)= -0.0726274 -0.0513553  0.1257943
 Unit cell volume ucvol=  3.5522357E+02 bohr^3
 Angles (23,13,12)=  6.00000000E+01  6.00000000E+01  6.00000000E+01 degrees

 getcut: wavevector=  0.0000  0.0000  0.0000  ngfft=  50  50  50
         ecut(hartree)=     46.000   => boxcut(ratio)=   2.06092

--- Pseudopotential description ------------------------------------------------
- pspini: atom type   1  psp file is /scratch/users/j/a/jabreu/pseudos/PBEsol/Cu.psp8
- pspatm: opening atomic psp file    /scratch/users/j/a/jabreu/pseudos/PBEsol/Cu.psp8
- Cu    ONCVPSP-3.3.0  r_core=   1.26204   1.45626   1.76249
- 29.00000  19.00000    180112                znucl, zion, pspdat
    8 -116133    2    4       600   0.00000   pspcod,pspxc,lmax,lloc,mmax,r2well
    5.99000000000000    3.50000000000000    0.00000000000000   rchrg,fchrg,qchrg
     nproj     2     2     2
     extension_switch     1
  pspatm : epsatm=   21.63488701
         --- l  ekb(1:nproj) -->
             0    5.008230   -0.401634
             1   -3.496700   -0.765945
             2   -6.895851   -2.521180
 pspatm: atomic psp has been read  and splines computed

- pspini: atom type   2  psp file is /scratch/users/j/a/jabreu/pseudos/PBEsol/I.psp8
- pspatm: opening atomic psp file    /scratch/users/j/a/jabreu/pseudos/PBEsol/I.psp8
- I     ONCVPSP-3.3.0  r_core=   2.02042   2.17032   2.27639
- 53.00000   7.00000    180112                znucl, zion, pspdat
    8 -116133    2    4       600   0.00000   pspcod,pspxc,lmax,lloc,mmax,r2well
    5.99000000000000    4.00000000000000    0.00000000000000   rchrg,fchrg,qchrg
     nproj     2     2     2
     extension_switch     1
  pspatm : epsatm=   18.14229533
         --- l  ekb(1:nproj) -->
             0    6.015861    0.935228
             1    4.063749    0.754139
             2    4.149534    0.722940
 pspatm: atomic psp has been read  and splines computed

   1.03420674E+03                                ecore*ucvol(ha*bohr**3)

-inwffil : will read wavefunctions from disk file /scratch/users/j/a/jabreu/flow_simple2/flow/w261/t1/indata/in_WFK

 ==>  initialize data related to q vector <==

 The list of irreducible perturbations for this q vector is:
    1)    idir= 1    ipert=   3
    2)    idir= 2    ipert=   3
    3)    idir= 3    ipert=   3

 Perturbation wavevector (in red.coord.)   0.000000  0.000000  0.000000
 Perturbation : derivative vs k along direction   1

 dfpt_looppert : COMMENT -
  In a d/dk calculation, iscf is set to -3 automatically.
 The set of symmetries contains only one element for this perturbation.
 symkpt : not enough symmetry to change the number of k points.

[...]

 Initialisation of the first-order wave-functions :
  ireadwf=   0

--- !BeginCycle
iteration_state: {dtset: 1, }
solver: {iscf: 7, nstep: 100, nline: 4, wfoptalg: 0, }
tolerances: {tolwfr: 1.00E-20, }
...

     iter   2DEtotal(Ha)        deltaE(Ha) residm    vres2
-ETOT  1  -46.428113159906     -4.643E+01 2.288E-02 0.000E+00
 ETOT  2  -46.456962470034     -2.885E-02 2.947E-04 0.000E+00
 ETOT  3  -46.457128121441     -1.657E-04 8.439E-07 0.000E+00
 ETOT  4  -46.457129823197     -1.702E-06 2.091E-08 0.000E+00
 ETOT  5  -46.457129848497     -2.530E-08 2.581E-10 0.000E+00
 ETOT  6  -46.457129848974     -4.769E-10 6.221E-12 0.000E+00
 ETOT  7  -46.457129848984     -9.749E-12 1.109E-13 0.000E+00
 ETOT  8  -46.457129848984     -2.984E-13 2.751E-15 0.000E+00
 ETOT  9  -46.457129848984      1.990E-13 5.066E-17 0.000E+00
 ETOT 10  -46.457129848984     -4.974E-14 1.265E-18 0.000E+00
 ETOT 11  -46.457129848984      3.553E-14 2.394E-20 0.000E+00
 ETOT 12  -46.457129848984     -9.948E-14 9.531E-21 0.000E+00

 At SCF step   12   max residual=  9.53E-21 < tolwfr=  1.00E-20 =>converged.

 ----iterations are completed or convergence reached----

 dfpt_looppert: DFPT cycle converged with prtwf=-1. Will skip output of the 1st-order WFK file.
 dfpt_looppert : ek2=    4.8727764709E+01
          f-sum rule ratio=    1.6943626669E+00
 prteigrs : about to open file /scratch/users/j/a/jabreu/flow_simple2/flow/w261/t1/tmpdata/tmp_1WF1_EIG
 Expectation of eigenvalue derivatives (hartree) for nkpt=   1  k points:
  (in case of degenerate eigenvalues, averaged derivative)
 kpt#   1, nband= 22, wtk=  1.00000, kpt=  0.0000  0.0000  0.0000 (reduced coord)
  -0.00000    0.00000    0.00000    0.00000    0.00000   -0.00000   -0.00000   -0.00000
  -0.00000   -0.00000    0.00000    0.00000    0.00000   -0.00000    0.00000    0.00000
   0.00000   -0.00000   -0.00000   -0.00000    0.00000    0.00000

 Eight components of 2nd-order total energy (hartree) are
 1,2,3: 0th-order hamiltonian combined with 1st-order wavefunctions
     kin0=   3.19887059E+01 eigvalue=  -2.37847080E-01  local=  -1.17991978E+01
 4,5,6: 1st-order hamiltonian combined with 1st and 0th-order wfs
     kin1=  -8.25625054E+01  Hartree=   0.00000000E+00     xc=   0.00000000E+00
 7,8,9: eventually, occupation + non-local contributions
    edocc=   2.61721148E+01     enl0=   3.33353949E-01   enl1=  -1.03517543E+01
 1-9 gives the relaxation energy (to be shifted if some occ is /=2.0)
   erelax=  -4.64571298E+01
  No Ewald or frozen-wf contrib.: the relaxation energy is the total one
 2DEtotal=   -0.4645712985E+02 Ha. Also 2DEtotal=   -0.126416279335E+04 eV
    (  non-var. 2DEtotal :   -4.6457129849E+01 Ha)

 Perturbation wavevector (in red.coord.)   0.000000  0.000000  0.000000
 Perturbation : derivative vs k along direction   2
 The set of symmetries contains only one element for this perturbation.
 symkpt : not enough symmetry to change the number of k points.

[...]

 Perturbation wavevector (in red.coord.)   0.000000  0.000000  0.000000
 Perturbation : derivative vs k along direction   3
 The set of symmetries contains only one element for this perturbation.
 symkpt : not enough symmetry to change the number of k points.

-inwffil : will read wavefunctions from disk file /scratch/users/j/a/jabreu/flow_simple2/flow/w261/t1/indata/in_WFK

 Initialisation of the first-order wave-functions :
  ireadwf=   0

--- !BeginCycle
iteration_state: {dtset: 1, }
solver: {iscf: 7, nstep: 100, nline: 4, wfoptalg: 0, }
tolerances: {tolwfr: 1.00E-20, }
...

     iter   2DEtotal(Ha)        deltaE(Ha) residm    vres2
-ETOT  1  -46.425925057899     -4.643E+01 2.267E-02 0.000E+00
 ETOT  2  -46.456941610825     -3.102E-02 3.865E-04 0.000E+00
 ETOT  3  -46.457127952238     -1.863E-04 8.953E-07 0.000E+00
 ETOT  4  -46.457129914423     -1.962E-06 2.669E-08 0.000E+00
 ETOT  5  -46.457129942563     -2.814E-08 2.098E-10 0.000E+00
 ETOT  6  -46.457129943062     -4.994E-10 5.026E-12 0.000E+00
 ETOT  7  -46.457129943072     -9.578E-12 9.128E-14 0.000E+00
 ETOT  8  -46.457129943072     -1.705E-13 2.116E-15 0.000E+00
 ETOT  9  -46.457129943072      0.000E+00 4.198E-17 0.000E+00
 ETOT 10  -46.457129943072     -5.684E-14 9.660E-19 0.000E+00
 ETOT 11  -46.457129943072      7.105E-14 2.000E-20 0.000E+00
 ETOT 12  -46.457129943072     -7.816E-14 9.710E-21 0.000E+00

 At SCF step   12   max residual=  9.71E-21 < tolwfr=  1.00E-20 =>converged.

 ----iterations are completed or convergence reached----

 dfpt_looppert: DFPT cycle converged with prtwf=-1. Will skip output of the 1st-order WFK file.
 dfpt_looppert : ek2=    4.8727764709E+01
          f-sum rule ratio=    1.6943626699E+00
 prteigrs : about to open file /scratch/users/j/a/jabreu/flow_simple2/flow/w261/t1/tmpdata/tmp_1WF1_EIG
 Expectation of eigenvalue derivatives (hartree) for nkpt=   1  k points:
  (in case of degenerate eigenvalues, averaged derivative)
 kpt#   1, nband= 22, wtk=  1.00000, kpt=  0.0000  0.0000  0.0000 (reduced coord)
  -0.00000    0.00000    0.00000    0.00000   -0.00000    0.00000    0.00000    0.00000
  -0.00000   -0.00000    0.00000    0.00000    0.00000   -0.00000    0.00000    0.00000
   0.00000    0.00000    0.00000    0.00000   -0.00000   -0.00000

 Eight components of 2nd-order total energy (hartree) are
 1,2,3: 0th-order hamiltonian combined with 1st-order wavefunctions
     kin0=   3.19183587E+01 eigvalue=  -2.42995350E-01  local=  -1.17530763E+01
 4,5,6: 1st-order hamiltonian combined with 1st and 0th-order wfs
     kin1=  -8.25625055E+01  Hartree=   0.00000000E+00     xc=   0.00000000E+00
 7,8,9: eventually, occupation + non-local contributions
    edocc=   2.61837343E+01     enl0=   3.51108611E-01   enl1=  -1.03517544E+01
 1-9 gives the relaxation energy (to be shifted if some occ is /=2.0)
   erelax=  -4.64571299E+01
  No Ewald or frozen-wf contrib.: the relaxation energy is the total one
 2DEtotal=   -0.4645712994E+02 Ha. Also 2DEtotal=   -0.126416279591E+04 eV
    (  non-var. 2DEtotal :   -4.6457129943E+01 Ha)

 CALCULATION OF EFFECTIVE MASSES
 NOTE : Additional infos (eff. mass eigenvalues, eigenvectors and, if degenerate, average mass) are available in stdout.

 COMMENTS:
 - At k-point ( 0.000, 0.000, 0.000), bands    11 through    13
   are DEGENERATE (effective mass tensor is therefore not defined).
   See Section IIIB Eqs. (67)-(70) and Appendix E of PRB 93 205147 (2016).
 - Angular average effective mass for Frohlich model is to be averaged over degenerate bands. See later.
 - Associated theta integrals calculated with ntheta=   1000 points.

 K-point ( 0.000, 0.000, 0.000) | band =    11
 Transport equivalent effective mass tensor:
             -0.1722507844              0.0000000006             -0.0000000001
              0.0000000006             -0.1722507844             -0.0000000008
             -0.0000000001             -0.0000000008             -0.1722507852
 Transport equivalent effective mass tensor eigenvalues:
             -0.1722507858             -0.1722507848             -0.1722507835
 Angular average effective mass 1/(<1/m>)=  -0.1635480394
 Angular average effective mass for Frohlich model (<m**0.5>)**2=  -0.1641224743
 Effective masses along directions: (cart. coord. / red. coord. -> eff. mass)
    1:   1.000000  0.000000  0.000000 /   0.948683  0.316228  0.000000 ->  -0.1569554060
    2:   0.000000  1.000000  0.000000 /   0.000000  1.000000  0.000000 ->  -0.1488449277
    3:   0.000000  0.000000  1.000000 /   0.408248  0.408248  0.816497 ->  -0.1584069537
    4:   0.577350  0.577350  0.577350 /   0.585539  0.688047  0.428644 ->  -0.1568786648
    5:   0.000000  0.707107  0.707107 /   0.289489  0.762222  0.578977 ->  -0.1700068996
    6:   0.707107  0.000000  0.707107 /   0.731423  0.422287  0.535439 ->  -0.1576699605
    7:   0.707107  0.707107  0.000000 /   0.616798  0.787122  0.000000 ->  -0.1896893295

[...]

 K-point ( 0.000, 0.000, 0.000) | band =    13
 Transport equivalent effective mass tensor:
             -6.7082967374              0.0000077851             -0.0000000040
              0.0000077851             -6.7082953652             -0.0000000276
             -0.0000000040             -0.0000000276             -6.7082897741
 Transport equivalent effective mass tensor eigenvalues:
             -6.7083038666             -6.7082897744             -6.7082882358
 Angular average effective mass 1/(<1/m>)=  -1.3806814622
 Angular average effective mass for Frohlich model (<m**0.5>)**2=  -1.5524915501
 Effective masses along directions: (cart. coord. / red. coord. -> eff. mass)
    1:   1.000000  0.000000  0.000000 /   0.948683  0.316228  0.000000 ->  -1.4735104222
    2:   0.000000  1.000000  0.000000 /   0.000000  1.000000  0.000000 ->  -1.3567901228
    3:   0.000000  0.000000  1.000000 /   0.408248  0.408248  0.816497 ->  -3.0167158566
    4:   0.577350  0.577350  0.577350 /   0.585539  0.688047  0.428644 ->  -1.7054451429
    5:   0.000000  0.707107  0.707107 /   0.289489  0.762222  0.578977 ->  -1.2582070566
    6:   0.707107  0.000000  0.707107 /   0.731423  0.422287  0.535439 ->  -2.1465430272
    7:   0.707107  0.707107  0.000000 /   0.616798  0.787122  0.000000 ->  -0.7105536938

 Angular average effective mass for Frohlich model, averaged over degenerate bands.
 Value of     (<<m**0.5>>)**2 =     7.048135E-01
 Absolute Value of <<m**0.5>> =     8.395317E-01

 K-point ( 0.000, 0.000, 0.000) | band =    14
 Effective mass tensor:
              0.1398907376              0.0000000000             -0.0000000000
              0.0000000000              0.1398907376             -0.0000000000
             -0.0000000000             -0.0000000000              0.1398907376
 Effective mass tensor eigenvalues:
              0.1398907376              0.1398907376              0.1398907376
 Angular average effective mass 1/(<1/m>)=   0.1398907376
 Angular average effective mass for Frohlich model (<m**0.5>)**2=   0.1398907376
 Effective masses along directions: (cart. coord. / red. coord. -> eff. mass)
    1:   1.000000  0.000000  0.000000 /   0.948683  0.316228  0.000000 ->   0.1398907376
    2:   0.000000  1.000000  0.000000 /   0.000000  1.000000  0.000000 ->   0.1398907376
    3:   0.000000  0.000000  1.000000 /   0.408248  0.408248  0.816497 ->   0.1398907376
    4:   0.577350  0.577350  0.577350 /   0.585539  0.688047  0.428644 ->   0.1398907376
    5:   0.000000  0.707107  0.707107 /   0.289489  0.762222  0.578977 ->   0.1398907376
    6:   0.707107  0.000000  0.707107 /   0.731423  0.422287  0.535439 ->   0.1398907376
    7:   0.707107  0.707107  0.000000 /   0.616798  0.787122  0.000000 ->   0.1398907376

 END OF EFFECTIVE MASSES SECTION

 ---- first-order wavefunction calculations are completed ----

 Total localisation tensor (bohr^2) in cartesian coordinates
  WARNING : still subject to testing - especially symmetries.
      direction              matrix element
   alpha     beta       real part   imaginary part
     1        1       7.4145023937    0.0000000000
     1        2       2.0971379687    0.0000000000
     1        3       5.1369179435    0.0000000000
     2        1       2.0971379687    0.0000000000
     2        2       5.9316019150    0.0000000000
     2        3       3.6323495123    0.0000000000
     3        1       5.1369179435    0.0000000000
     3        2       3.6323495123    0.0000000000
     3        3      13.3461043110    0.0000000000

 respfn : d/dk was computed, but no 2DTE, so no DDB output.

== END DATASET(S) ==============================================================

 -outvars: echo values of variables after computation  --------
            acell      1.0000000000E+00  1.0000000000E+00  1.0000000000E+00 Bohr
              amu      6.35460000E+01  1.26904470E+02
             ecut      4.60000000E+01 Hartree
           etotal     -4.6457129943E+01
            fcart      0.0000000000E+00  0.0000000000E+00  0.0000000000E+00
                       0.0000000000E+00  0.0000000000E+00  0.0000000000E+00
-          fftalg         512
           irdden           1
           irdwfk           1
           istwfk        1
              ixc     -116133
           kptopt           0
P           mkmem           1
P          mkqmem           1
P          mk1mem           1
            natom           2
            nband          22
           nbdbuf           4
            ngfft          50      50      50
             nkpt           1
            nstep         100
             nsym          24
           ntypat           2
              occ      2.000000  2.000000  2.000000  2.000000  2.000000  2.000000
                       2.000000  2.000000  2.000000  2.000000  2.000000  2.000000
                       2.000000  0.000000  0.000000  0.000000  0.000000  0.000000
                       0.000000  0.000000  0.000000  0.000000
        optdriver           1
            prtwf          -1
            rfdir           1       1       1
           rfelfd           2
            rprim      6.8844548598E+00  0.0000000000E+00  3.9747418665E+00
                       2.2948182866E+00  6.4907262882E+00  3.9747418665E+00
                       0.0000000000E+00  0.0000000000E+00  7.9494837331E+00
          spgroup         216
           strten      0.0000000000E+00  0.0000000000E+00  0.0000000000E+00
                       0.0000000000E+00  0.0000000000E+00  0.0000000000E+00
           symrel      1  0  0   0  1  0   0  0  1       0 -1  1   0 -1  0   1 -1  0
                      -1  0  0  -1  0  1  -1  1  0       0  1 -1   1  0 -1   0  0 -1
                      -1  0  0  -1  1  0  -1  0  1       0 -1  1   1 -1  0   0 -1  0
                       1  0  0   0  0  1   0  1  0       0  1 -1   0  0 -1   1  0 -1
                      -1  0  1  -1  1  0  -1  0  0       0 -1  0   1 -1  0   0 -1  1
                       1  0 -1   0  0 -1   0  1 -1       0  1  0   0  0  1   1  0  0
                       1  0 -1   0  1 -1   0  0 -1       0 -1  0   0 -1  1   1 -1  0
                      -1  0  1  -1  0  0  -1  1  0       0  1  0   1  0  0   0  0  1
                       0  0 -1   0  1 -1   1  0 -1       1 -1  0   0 -1  1   0 -1  0
                       0  0  1   1  0  0   0  1  0      -1  1  0  -1  0  0  -1  0  1
                       0  0  1   0  1  0   1  0  0       1 -1  0   0 -1  0   0 -1  1
                       0  0 -1   1  0 -1   0  1 -1      -1  1  0  -1  0  1  -1  0  0
           tolwfr      1.00000000E-20
            typat      1  2
           useylm           1
           xangst      1.2143655351E+00  8.5868610473E-01  2.1033428058E+00
                       2.4287310702E+00  1.7173722095E+00  4.2066856116E+00
            xcart      2.2948182866E+00  1.6226815721E+00  3.9747418665E+00
                       4.5896365732E+00  3.2453631441E+00  7.9494837331E+00
             xred      2.5000000000E-01  2.5000000000E-01  2.5000000000E-01
                       5.0000000000E-01  5.0000000000E-01  5.0000000000E-01
            znucl       29.00000   53.00000

- Timing analysis has been suppressed with timopt=0

 Suggested references for the acknowledgment of ABINIT usage.

 Calculation completed.
.Delivered   6 WARNINGs and   5 COMMENTs to log file.