.Version 9.5.1 of ABINIT

 ABINIT is a project of the Universite Catholique de Louvain,
 Corning Inc. and other collaborators, see ~abinit/doc/developers/contributors.txt .
 acknowledgments of the ABINIT effort.

.Starting date : Wed 19 May 2021.
- ( at 12h05 )

- input  file    -> /scratch/users/j/a/jabreu/flow_simple_9atoms/flow/w130/t1/run.abi
- output file    -> /scratch/users/j/a/jabreu/flow_simple_9atoms/flow/w130/t1/run.abo
- root for input  files -> /scratch/users/j/a/jabreu/flow_simple_9atoms/flow/w130/t1/indata/in
- root for output files -> /scratch/users/j/a/jabreu/flow_simple_9atoms/flow/w130/t1/outdata/out

 Symmetries : space group Im m m (# 71); Bravais oI (body-center ortho.)
     intxc =       0      iscf =       7    lmnmax =      18     lnmax =       6
     mgfft =      90  mpssoang =       3    mqgrid =    3001     natom =       9
  nloc_mem =       1    nspden =       1   nspinor =       1    nsppol =       1
      nsym =       8    n1xccc =    2501    ntypat =       3    occopt =       1
   xclevel =       2
-    mband =          57        mffmem =           1         mkmem =           2
-   mkqmem =           2        mk1mem =           2           mpw =       10289
      nfft =      729000          nkpt =           2
  Rough estimation (10% accuracy) of disk space for files :

------------- Echo of variables that govern the present computation ------------
-
- outvars: echo of selected default values
-   iomode0 =  0 , fftalg0 =512 , wfoptalg0 =  0
-
- outvars: echo of global parameters not present in the input file
-  max_nthreads =    0
-
 -outvars: echo values of preprocessed input variables --------
            acell      1.0000000000E+00  1.0000000000E+00  1.0000000000E+00 Bohr
              amu      2.29897680E+01  1.06420000E+02  1.59994000E+01
             ecut      4.40000000E+01 Hartree
-          fftalg         512
           irdden           1
           irdwfk           1
           istwfk        1    0
              ixc     -116133
              kpt      0.00000000E+00  5.00000000E-01  0.00000000E+00
                      -2.39392498E-01  2.39392498E-01  2.39392498E-01
           kptopt           0
P           mkmem           2
P          mkqmem           2
P          mk1mem           2
            natom           9
            nband          57
           nbdbuf           4
            ngfft          90      90      90
             nkpt           2
            nstep        2000
             nsym           8
           ntypat           3
              occ      2.000000  2.000000  2.000000  2.000000  2.000000  2.000000
                       2.000000  2.000000  2.000000  2.000000  2.000000  2.000000
                       2.000000  2.000000  2.000000  2.000000  2.000000  2.000000
                       2.000000  2.000000  2.000000  2.000000  2.000000  2.000000
                       2.000000  2.000000  2.000000  2.000000  2.000000  2.000000
                       2.000000  2.000000  2.000000  2.000000  2.000000  2.000000
                       2.000000  2.000000  2.000000  2.000000  2.000000  2.000000
                       2.000000  2.000000  2.000000  2.000000  2.000000  2.000000
                       0.000000  0.000000  0.000000  0.000000  0.000000  0.000000
                       0.000000  0.000000  0.000000
        optdriver           1
            prtwf          -1
            rfdir           1       1       1
           rfelfd           2
            rprim      9.5246781421E+00  0.0000000000E+00 -9.9718043738E+00
                      -4.8220775150E-01  5.6122912632E+00 -1.2586740588E+01
                       0.0000000000E+00  0.0000000000E+00  1.3789719946E+01
          spgroup          71
           symrel      1  0  0   0  1  0   0  0  1      -1  0  0   0 -1  0   0  0 -1
                       0  0  1  -1 -1 -1   1  0  0       0  0 -1   1  1  1  -1  0  0
                      -1 -1 -1   0  0  1   0  1  0       1  1  1   0  0 -1   0 -1  0
                       0  1  0   1  0  0  -1 -1 -1       0 -1  0  -1  0  0   1  1  1
           tolwfr      1.00000000E-20
            typat      1  1  2  2  2  3  3  3  3
           useylm           1
              wtk        0.50000    0.50000
           xangst      9.6614854519E-01  5.9964885755E-01 -2.4102821967E+00
                       3.8189206949E+00  2.3702477669E+00 -9.5271856563E+00
                       1.7624917485E+00  2.6580426294E+00 -4.3969454855E+00
                       3.0225774915E+00  3.1185399505E-01 -2.4331685942E-01
                      -1.2758667595E-01  1.4849483122E+00  3.1829462912E-01
                       6.0685740416E-01  1.1456457901E+00  2.1956495436E+00
                       4.1782118359E+00  1.8242508344E+00 -6.8359118885E+00
                       1.7002194076E+00  1.8242508344E+00 -5.3199620475E-01
                       3.0848498324E+00  1.1456457901E+00 -4.1082661401E+00
            xcart      1.8257561541E+00  1.1331721167E+00 -4.5547732548E+00
                       7.2167142365E+00  4.4791191465E+00 -1.8003771708E+01
                       3.3306267162E+00  5.0229726191E+00 -8.3090227888E+00
                       5.7118436744E+00  5.8931864409E-01 -4.5980222782E-01
                      -2.4110387575E-01  2.8061456316E+00  6.0148967860E-01
                       1.1467942956E+00  2.1649567886E+00  4.1491763212E+00
                       7.8956760950E+00  3.4473344746E+00 -1.2918001338E+01
                       3.2129490462E+00  3.4473344746E+00 -1.0053271307E+00
                       5.8295213444E+00  2.1649567886E+00 -7.7634978859E+00
             xred      2.0190900000E-01  2.0190900000E-01  5.5511151231E-17
                       7.9809100000E-01  7.9809100000E-01  5.5511151231E-17
                       3.9499500000E-01  8.9499500000E-01  5.0000000000E-01
                       6.0500500000E-01  1.0500500000E-01  5.0000000000E-01
                      -4.8572257327E-17  5.0000000000E-01  5.0000000000E-01
                       1.3993200000E-01  3.8575275000E-01  7.5417925000E-01
                       8.6006800000E-01  6.1424725000E-01  2.4582075000E-01
                       3.6842650000E-01  6.1424725000E-01  7.5417925000E-01
                       6.3157350000E-01  3.8575275000E-01  2.4582075000E-01
            znucl       11.00000   46.00000    8.00000

 chkinp: Checking input parameters for consistency.

== DATASET  1 ==================================================================
-   mpi_nproc: 1, omp_nthreads: -1 (-1 if OMP is not activated)

--- !DatasetInfo
iteration_state: {dtset: 1, }
dimensions: {natom: 9, nkpt: 2, mband: 57, nsppol: 1, nspinor: 1, nspden: 1, mpw: 10289, }
cutoff_energies: {ecut:  44.0, pawecutdg:  -1.0, }
electrons: {nelect:   9.60000000E+01, charge:   0.00000000E+00, occopt:   1.00000000E+00, tsmear:   1.00000000E-02, }
meta: {optdriver: 1, rfelfd: 2, }
...

 Real(R)+Recip(G) space primitive vectors, cartesian coordinates (Bohr,Bohr^-1):
 R(1)=  9.5246781  0.0000000 -9.9718044  G(1)=  0.1049904  0.0090208  0.0000000
 R(2)= -0.4822078  5.6122913-12.5867406  G(2)=  0.0000000  0.1781803  0.0000000
 R(3)=  0.0000000  0.0000000 13.7897199  G(3)=  0.0759221  0.1691596  0.0725178
 Unit cell volume ucvol=  7.3713317E+02 bohr^3
 Angles (23,13,12)=  1.55889958E+02  1.36313773E+02  5.05135439E+01 degrees

 getcut: wavevector=  0.0000  0.0000  0.0000  ngfft=  90  90  90
         ecut(hartree)=     44.000   => boxcut(ratio)=   2.18597

--- Pseudopotential description ------------------------------------------------
- pspini: atom type   1  psp file is /scratch/users/j/a/jabreu/pseudos/PBEsol/Na.psp8
- pspatm: opening atomic psp file    /scratch/users/j/a/jabreu/pseudos/PBEsol/Na.psp8
- Na    ONCVPSP-3.3.0  r_core=   1.20708   1.55069
- 11.00000   9.00000    180112                znucl, zion, pspdat
    8 -116133    1    4       400   0.00000   pspcod,pspxc,lmax,lloc,mmax,r2well
    3.99000000000000    0.00000000000000    0.00000000000000   rchrg,fchrg,qchrg
     nproj     2     2
     extension_switch     1
  pspatm : epsatm=    9.32878306
         --- l  ekb(1:nproj) -->
             0    2.657905   -0.678300
             1   -6.761319   -2.404728
 pspatm: atomic psp has been read  and splines computed

- pspini: atom type   2  psp file is /scratch/users/j/a/jabreu/pseudos/PBEsol/Pd.psp8
- pspatm: opening atomic psp file    /scratch/users/j/a/jabreu/pseudos/PBEsol/Pd.psp8
- Pd    ONCVPSP-3.3.0  r_core=   1.41052   1.46191   1.55175
- 46.00000  18.00000    180112                znucl, zion, pspdat
    8 -116133    2    4       600   0.00000   pspcod,pspxc,lmax,lloc,mmax,r2well
    5.99000000000000    7.00000000000000    0.00000000000000   rchrg,fchrg,qchrg
     nproj     2     2     2
     extension_switch     1
  pspatm : epsatm=   26.17262427
         --- l  ekb(1:nproj) -->
             0    7.952303   -2.096627
             1    3.304793   -0.572651
             2   -1.185452   -0.410427
 pspatm: atomic psp has been read  and splines computed

- pspini: atom type   3  psp file is /scratch/users/j/a/jabreu/pseudos/PBEsol/O.psp8
- pspatm: opening atomic psp file    /scratch/users/j/a/jabreu/pseudos/PBEsol/O.psp8
- O     ONCVPSP-3.3.0  r_core=   1.35509   1.45563   1.26150
-  8.00000   6.00000    180112                znucl, zion, pspdat
    8 -116133    2    4       600   0.00000   pspcod,pspxc,lmax,lloc,mmax,r2well
    5.99000000000000    4.00000000000000    0.00000000000000   rchrg,fchrg,qchrg
     nproj     2     2     1
     extension_switch     1
  pspatm : epsatm=    6.22910522
         --- l  ekb(1:nproj) -->
             0    6.050032    0.820363
             1   -4.739617   -1.153841
             2   -1.335834
 pspatm: atomic psp has been read  and splines computed

   1.17208185E+04                                ecore*ucvol(ha*bohr**3)

-inwffil : will read wavefunctions from disk file /scratch/users/j/a/jabreu/flow_simple_9atoms/flow/w130/t1/indata/in_WFK

 ==>  initialize data related to q vector <==

 The list of irreducible perturbations for this q vector is:
    1)    idir= 1    ipert=  10
    2)    idir= 2    ipert=  10
    3)    idir= 3    ipert=  10

 Perturbation wavevector (in red.coord.)   0.000000  0.000000  0.000000
 Perturbation : derivative vs k along direction   1

 dfpt_looppert : COMMENT -
  In a d/dk calculation, iscf is set to -3 automatically.
 The set of symmetries contains only one element for this perturbation.
 symkpt : not enough symmetry to change the number of k points.

[...]

 Initialisation of the first-order wave-functions :
  ireadwf=   0

--- !BeginCycle
iteration_state: {dtset: 1, }
solver: {iscf: 7, nstep: 2000, nline: 4, wfoptalg: 0, }
tolerances: {tolwfr: 1.00E-20, }
...

     iter   2DEtotal(Ha)        deltaE(Ha) residm    vres2
-ETOT  1  -45.501049203613     -4.550E+01 8.434E-02 0.000E+00
 ETOT  2  -45.533703923835     -3.265E-02 1.357E-03 0.000E+00
 ETOT  3  -45.533795138949     -9.122E-05 1.800E-05 0.000E+00
 ETOT  4  -45.533795745530     -6.066E-07 8.545E-07 0.000E+00
 ETOT  5  -45.533795750931     -5.402E-09 1.478E-08 0.000E+00
 ETOT  6  -45.533795750988     -5.675E-11 8.405E-10 0.000E+00
 ETOT  7  -45.533795750989     -6.679E-13 1.560E-11 0.000E+00
 ETOT  8  -45.533795750989      1.421E-14 8.855E-13 0.000E+00
 ETOT  9  -45.533795750989      1.421E-14 1.712E-14 0.000E+00
 ETOT 10  -45.533795750989     -1.421E-14 9.654E-16 0.000E+00
 ETOT 11  -45.533795750989      7.105E-15 1.924E-17 0.000E+00
 ETOT 12  -45.533795750989      1.421E-14 1.081E-18 0.000E+00
 ETOT 13  -45.533795750989     -1.421E-14 2.212E-20 0.000E+00
 ETOT 14  -45.533795750989     -7.105E-15 9.712E-21 0.000E+00

 At SCF step   14   max residual=  9.71E-21 < tolwfr=  1.00E-20 =>converged.

 ----iterations are completed or convergence reached----

 dfpt_looppert: DFPT cycle converged with prtwf=-1. Will skip output of the 1st-order WFK file.
 dfpt_looppert : ek2=    8.4169478476E+01
          f-sum rule ratio=    1.0305700603E+00
 prteigrs : about to open file /scratch/users/j/a/jabreu/flow_simple_9atoms/flow/w130/t1/tmpdata/tmp_1WF1_EIG
 Expectation of eigenvalue derivatives (hartree) for nkpt=   2  k points:
  (in case of degenerate eigenvalues, averaged derivative)
 kpt#   1, nband= 57, wtk=  0.50000, kpt=  0.0000  0.5000  0.0000 (reduced coord)
  -0.00000    0.00000    0.00000    0.00000   -0.00000    0.00000   -0.00000   -0.00000
   0.00000   -0.00000    0.00000    0.00000    0.00000   -0.00000   -0.00000    0.00000
   0.00000   -0.00000   -0.00000    0.00000    0.00000   -0.00000    0.00000   -0.00000
  -0.00000   -0.00000    0.00000    0.00000   -0.00000    0.00000   -0.00000    0.00000
  -0.00000   -0.00000   -0.00000   -0.00000   -0.00000    0.00000    0.00000   -0.00000
  -0.00000    0.00000    0.00000   -0.00000    0.00000   -0.00000   -0.00000   -0.00000
  -0.00000   -0.00000   -0.00000    0.00000    0.00000    0.00000   -0.00000   -0.00000
   0.02177
 prteigrs : prtvol=0 or 1, do not print more k-points.

 Eight components of 2nd-order total energy (hartree) are
 1,2,3: 0th-order hamiltonian combined with 1st-order wavefunctions
     kin0=   6.78703072E+01 eigvalue=  -6.39440106E-01  local=  -2.87041309E+01
 4,5,6: 1st-order hamiltonian combined with 1st and 0th-order wfs
     kin1=  -8.67425445E+01  Hartree=   0.00000000E+00     xc=   0.00000000E+00
 7,8,9: eventually, occupation + non-local contributions
    edocc=   7.68074883E+00     enl0=  -6.73689275E-01   enl1=  -4.32504699E+00
 1-9 gives the relaxation energy (to be shifted if some occ is /=2.0)
   erelax=  -4.55337958E+01
  No Ewald or frozen-wf contrib.: the relaxation energy is the total one
 2DEtotal=   -0.4553379575E+02 Ha. Also 2DEtotal=   -0.123903759478E+04 eV
    (  non-var. 2DEtotal :   -4.5533795751E+01 Ha)

 Perturbation wavevector (in red.coord.)   0.000000  0.000000  0.000000
 Perturbation : derivative vs k along direction   2
 The set of symmetries contains only one element for this perturbation.
 symkpt : not enough symmetry to change the number of k points.

[...]

 Perturbation wavevector (in red.coord.)   0.000000  0.000000  0.000000
 Perturbation : derivative vs k along direction   3
 The set of symmetries contains only one element for this perturbation.
 symkpt : not enough symmetry to change the number of k points.

-inwffil : will read wavefunctions from disk file /scratch/users/j/a/jabreu/flow_simple_9atoms/flow/w130/t1/indata/in_WFK

 Initialisation of the first-order wave-functions :
  ireadwf=   0

--- !BeginCycle
iteration_state: {dtset: 1, }
solver: {iscf: 7, nstep: 2000, nline: 4, wfoptalg: 0, }
tolerances: {tolwfr: 1.00E-20, }
...

     iter   2DEtotal(Ha)        deltaE(Ha) residm    vres2
-ETOT  1  -164.97193918360     -1.650E+02 1.373E-01 0.000E+00
 ETOT  2  -165.08203985277     -1.101E-01 2.935E-03 0.000E+00
 ETOT  3  -165.08235157143     -3.117E-04 3.796E-05 0.000E+00
 ETOT  4  -165.08235367510     -2.104E-06 1.704E-06 0.000E+00
 ETOT  5  -165.08235369389     -1.879E-08 2.829E-08 0.000E+00
 ETOT  6  -165.08235369409     -2.023E-10 1.527E-09 0.000E+00
 ETOT  7  -165.08235369410     -2.359E-12 2.645E-11 0.000E+00
 ETOT  8  -165.08235369410     -1.705E-13 1.441E-12 0.000E+00
 ETOT  9  -165.08235369410      0.000E+00 2.542E-14 0.000E+00
 ETOT 10  -165.08235369410      5.684E-14 1.388E-15 0.000E+00
 ETOT 11  -165.08235369410      0.000E+00 2.482E-17 0.000E+00
 ETOT 12  -165.08235369410      0.000E+00 1.359E-18 0.000E+00
 ETOT 13  -165.08235369410      0.000E+00 2.459E-20 0.000E+00
 ETOT 14  -165.08235369410      5.684E-14 9.690E-21 0.000E+00

 At SCF step   14   max residual=  9.69E-21 < tolwfr=  1.00E-20 =>converged.

 ----iterations are completed or convergence reached----

 dfpt_looppert: DFPT cycle converged with prtwf=-1. Will skip output of the 1st-order WFK file.
 dfpt_looppert : ek2=    3.0044996749E+02
          f-sum rule ratio=    1.0443079850E+00
 prteigrs : about to open file /scratch/users/j/a/jabreu/flow_simple_9atoms/flow/w130/t1/tmpdata/tmp_1WF1_EIG
 Expectation of eigenvalue derivatives (hartree) for nkpt=   2  k points:
  (in case of degenerate eigenvalues, averaged derivative)
 kpt#   1, nband= 57, wtk=  0.50000, kpt=  0.0000  0.5000  0.0000 (reduced coord)
  -0.00000    0.00000   -0.00000   -0.00000    0.00000   -0.00000   -0.00000   -0.00000
   0.00000    0.00000    0.00000    0.00000    0.00000   -0.00000    0.00000    0.00000
   0.00000   -0.00000   -0.00000    0.00000    0.00000   -0.00000    0.00000   -0.00000
  -0.00000   -0.00000   -0.00000   -0.00000    0.00000    0.00000   -0.00000    0.00000
  -0.00000   -0.00000   -0.00000   -0.00000    0.00000    0.00000   -0.00000   -0.00000
   0.00000    0.00000    0.00000   -0.00000   -0.00000   -0.00000    0.00000   -0.00000
   0.00000   -0.00000   -0.00000    0.00000   -0.00000    0.00000   -0.00000   -0.00000
  -0.34700
 prteigrs : prtvol=0 or 1, do not print more k-points.

 Eight components of 2nd-order total energy (hartree) are
 1,2,3: 0th-order hamiltonian combined with 1st-order wavefunctions
     kin0=   2.39693636E+02 eigvalue=  -2.64019954E+00  local=  -1.01716498E+02
 4,5,6: 1st-order hamiltonian combined with 1st and 0th-order wfs
     kin1=  -3.13762300E+02  Hartree=   0.00000000E+00     xc=   0.00000000E+00
 7,8,9: eventually, occupation + non-local contributions
    edocc=   3.21598289E+01     enl0=  -2.41441416E+00   enl1=  -1.64024072E+01
 1-9 gives the relaxation energy (to be shifted if some occ is /=2.0)
   erelax=  -1.65082354E+02
  No Ewald or frozen-wf contrib.: the relaxation energy is the total one
 2DEtotal=   -0.1650823537E+03 Ha. Also 2DEtotal=   -0.449211929488E+04 eV
    (  non-var. 2DEtotal :   -1.6508235369E+02 Ha)

 CALCULATION OF EFFECTIVE MASSES
 NOTE : Additional infos (eff. mass eigenvalues, eigenvectors and, if degenerate, average mass) are available in stdout.

 K-point ( 0.000, 0.500, 0.000) | band =    48
 Effective mass tensor:
             -2.8833401777             -0.1902192034              0.8511853510
             -0.1902192034             -0.3243544383              0.4745609223
              0.8511853510              0.4745609223             -4.6656661758
 Effective mass tensor eigenvalues:
             -5.0620267354             -2.5421525803             -0.2691814761
 Angular average effective mass 1/(<1/m>)=  -0.6967212660
 Angular average effective mass for Frohlich model (<m**0.5>)**2=  -1.1140148415
 Effective masses along directions: (cart. coord. / red. coord. -> eff. mass)
    1:   1.000000  0.000000  0.000000 /   0.998721 -0.050562  0.000000 ->  -2.6891461246
    2:   0.000000  1.000000  0.000000 /   0.000000  1.000000  0.000000 ->  -0.2721477180
    3:   0.000000  0.000000  1.000000 /  -0.471113 -0.594655  0.651489 ->  -3.8529360309
    4:   0.577350  0.577350  0.577350 /  -0.028510 -0.475460  0.879275 ->  -0.6210507082
    5:   0.000000  0.707107  0.707107 /  -0.542205 -0.379228  0.749800 ->  -0.4319123693
    6:   0.707107  0.000000  0.707107 /  -0.023528 -0.687693  0.725620 ->  -2.7074854362
    7:   0.707107  0.707107  0.000000 /   0.880417  0.474201  0.000000 ->  -0.5309061250

 K-point (-0.239, 0.239, 0.239) | band =    49
 Effective mass tensor:
              5.8900724227              2.9850700562            -12.9149473798
              2.9850700562              5.2195596451             -7.4470405105
            -12.9149473798             -7.4470405105             32.9327968086
 Effective mass tensor eigenvalues:
              0.7132234344              3.3668297042             39.9623757377
 Angular average effective mass 1/(<1/m>)=   1.7400140327
 Angular average effective mass for Frohlich model (<m**0.5>)**2=   2.8037458408
 Effective masses along directions: (cart. coord. / red. coord. -> eff. mass)
    1:   1.000000  0.000000  0.000000 /   0.998721 -0.050562  0.000000 ->   0.8241565479
    2:   0.000000  1.000000  0.000000 /   0.000000  1.000000  0.000000 ->   3.5305107371
    3:   0.000000  0.000000  1.000000 /  -0.471113 -0.594655  0.651489 ->   4.3952725476
    4:   0.577350  0.577350  0.577350 /  -0.028510 -0.475460  0.879275 ->   1.0980576205
    5:   0.000000  0.707107  0.707107 /  -0.542205 -0.379228  0.749800 ->   3.2182048701
    6:   0.707107  0.000000  0.707107 /  -0.023528 -0.687693  0.725620 ->   0.8394498994
    7:   0.707107  0.707107  0.000000 /   0.880417  0.474201  0.000000 ->   1.3771790704

 END OF EFFECTIVE MASSES SECTION

 ---- first-order wavefunction calculations are completed ----

 Total localisation tensor (bohr^2) in cartesian coordinates
  WARNING : still subject to testing - especially symmetries.
      direction              matrix element
   alpha     beta       real part   imaginary part
     1        1       0.8947852396    0.0000000000
     1        2      -0.0721205300    0.0000000000
     1        3      -0.7685571099    0.0000000000
     2        1      -0.0721205300    0.0000000000
     2        2       0.8393921902    0.0000000000
     2        3      -1.8825130868    0.0000000000
     3        1      -0.7685571099    0.0000000000
     3        2      -1.8825130868    0.0000000000
     3        3      11.7397381337    0.0000000000

 respfn : d/dk was computed, but no 2DTE, so no DDB output.

== END DATASET(S) ==============================================================

 -outvars: echo values of variables after computation  --------
            acell      1.0000000000E+00  1.0000000000E+00  1.0000000000E+00 Bohr
              amu      2.29897680E+01  1.06420000E+02  1.59994000E+01
             ecut      4.40000000E+01 Hartree
           etotal     -1.6508235369E+02
            fcart      0.0000000000E+00  0.0000000000E+00  0.0000000000E+00
                       0.0000000000E+00  0.0000000000E+00  0.0000000000E+00
                       0.0000000000E+00  0.0000000000E+00  0.0000000000E+00
                       0.0000000000E+00  0.0000000000E+00  0.0000000000E+00
                       0.0000000000E+00  0.0000000000E+00  0.0000000000E+00
                       0.0000000000E+00  0.0000000000E+00  0.0000000000E+00
                       0.0000000000E+00  0.0000000000E+00  0.0000000000E+00
                       0.0000000000E+00  0.0000000000E+00  0.0000000000E+00
                       0.0000000000E+00  0.0000000000E+00  0.0000000000E+00
-          fftalg         512
           irdden           1
           irdwfk           1
           istwfk        1    0
              ixc     -116133
              kpt      0.00000000E+00  5.00000000E-01  0.00000000E+00
                      -2.39392498E-01  2.39392498E-01  2.39392498E-01
           kptopt           0
P           mkmem           2
P          mkqmem           2
P          mk1mem           2
            natom           9
            nband          57
           nbdbuf           4
            ngfft          90      90      90
             nkpt           2
            nstep        2000
             nsym           8
           ntypat           3
              occ      2.000000  2.000000  2.000000  2.000000  2.000000  2.000000
                       2.000000  2.000000  2.000000  2.000000  2.000000  2.000000
                       2.000000  2.000000  2.000000  2.000000  2.000000  2.000000
                       2.000000  2.000000  2.000000  2.000000  2.000000  2.000000
                       2.000000  2.000000  2.000000  2.000000  2.000000  2.000000
                       2.000000  2.000000  2.000000  2.000000  2.000000  2.000000
                       2.000000  2.000000  2.000000  2.000000  2.000000  2.000000
                       2.000000  2.000000  2.000000  2.000000  2.000000  2.000000
                       0.000000  0.000000  0.000000  0.000000  0.000000  0.000000
                       0.000000  0.000000  0.000000
        optdriver           1
            prtwf          -1
            rfdir           1       1       1
           rfelfd           2
            rprim      9.5246781421E+00  0.0000000000E+00 -9.9718043738E+00
                      -4.8220775150E-01  5.6122912632E+00 -1.2586740588E+01
                       0.0000000000E+00  0.0000000000E+00  1.3789719946E+01
          spgroup          71
           strten      0.0000000000E+00  0.0000000000E+00  0.0000000000E+00
                       0.0000000000E+00  0.0000000000E+00  0.0000000000E+00
           symrel      1  0  0   0  1  0   0  0  1      -1  0  0   0 -1  0   0  0 -1
                       0  0  1  -1 -1 -1   1  0  0       0  0 -1   1  1  1  -1  0  0
                      -1 -1 -1   0  0  1   0  1  0       1  1  1   0  0 -1   0 -1  0
                       0  1  0   1  0  0  -1 -1 -1       0 -1  0  -1  0  0   1  1  1
           tolwfr      1.00000000E-20
            typat      1  1  2  2  2  3  3  3  3
           useylm           1
              wtk        0.50000    0.50000
           xangst      9.6614854519E-01  5.9964885755E-01 -2.4102821967E+00
                       3.8189206949E+00  2.3702477669E+00 -9.5271856563E+00
                       1.7624917485E+00  2.6580426294E+00 -4.3969454855E+00
                       3.0225774915E+00  3.1185399505E-01 -2.4331685942E-01
                      -1.2758667595E-01  1.4849483122E+00  3.1829462912E-01
                       6.0685740416E-01  1.1456457901E+00  2.1956495436E+00
                       4.1782118359E+00  1.8242508344E+00 -6.8359118885E+00
                       1.7002194076E+00  1.8242508344E+00 -5.3199620475E-01
                       3.0848498324E+00  1.1456457901E+00 -4.1082661401E+00
            xcart      1.8257561541E+00  1.1331721167E+00 -4.5547732548E+00
                       7.2167142365E+00  4.4791191465E+00 -1.8003771708E+01
                       3.3306267162E+00  5.0229726191E+00 -8.3090227888E+00
                       5.7118436744E+00  5.8931864409E-01 -4.5980222782E-01
                      -2.4110387575E-01  2.8061456316E+00  6.0148967860E-01
                       1.1467942956E+00  2.1649567886E+00  4.1491763212E+00
                       7.8956760950E+00  3.4473344746E+00 -1.2918001338E+01
                       3.2129490462E+00  3.4473344746E+00 -1.0053271307E+00
                       5.8295213444E+00  2.1649567886E+00 -7.7634978859E+00
             xred      2.0190900000E-01  2.0190900000E-01  5.5511151231E-17
                       7.9809100000E-01  7.9809100000E-01  5.5511151231E-17
                       3.9499500000E-01  8.9499500000E-01  5.0000000000E-01
                       6.0500500000E-01  1.0500500000E-01  5.0000000000E-01
                      -4.8572257327E-17  5.0000000000E-01  5.0000000000E-01
                       1.3993200000E-01  3.8575275000E-01  7.5417925000E-01
                       8.6006800000E-01  6.1424725000E-01  2.4582075000E-01
                       3.6842650000E-01  6.1424725000E-01  7.5417925000E-01
                       6.3157350000E-01  3.8575275000E-01  2.4582075000E-01
            znucl       11.00000   46.00000    8.00000

- Timing analysis has been suppressed with timopt=0

 Suggested references for the acknowledgment of ABINIT usage.

 Calculation completed.
.Delivered  14 WARNINGs and   9 COMMENTs to log file.