.Version 9.5.1 of ABINIT

 ABINIT is a project of the Universite Catholique de Louvain,
 Corning Inc. and other collaborators, see ~abinit/doc/developers/contributors.txt .
 acknowledgments of the ABINIT effort.

.Starting date : Tue  4 May 2021.
- ( at 19h15 )

- input  file    -> /scratch/users/j/a/jabreu/flow_simple_6atoms/flow/w171/t1/run.abi
- output file    -> /scratch/users/j/a/jabreu/flow_simple_6atoms/flow/w171/t1/run.abo
- root for input  files -> /scratch/users/j/a/jabreu/flow_simple_6atoms/flow/w171/t1/indata/in
- root for output files -> /scratch/users/j/a/jabreu/flow_simple_6atoms/flow/w171/t1/outdata/out

 Symmetries : space group P4_2/m n m (#136); Bravais tP (primitive tetrag.)
     intxc =       0      iscf =       7    lmnmax =       8     lnmax =       4
     mgfft =      50  mpssoang =       2    mqgrid =    3001     natom =       6
  nloc_mem =       1    nspden =       1   nspinor =       1    nsppol =       1
      nsym =      16    n1xccc =       0    ntypat =       2    occopt =       1
   xclevel =       2
-    mband =          21        mffmem =           1         mkmem =           2
-   mkqmem =           2        mk1mem =           2           mpw =        5295
      nfft =       90000          nkpt =           2
  Rough estimation (10% accuracy) of disk space for files :

------------- Echo of variables that govern the present computation ------------
-
- outvars: echo of selected default values
-   iomode0 =  0 , fftalg0 =512 , wfoptalg0 =  0
-
- outvars: echo of global parameters not present in the input file
-  max_nthreads =    0
-
 -outvars: echo values of preprocessed input variables --------
            acell      1.0000000000E+00  1.0000000000E+00  1.0000000000E+00 Bohr
              amu      2.43050000E+01  1.00794000E+00
             ecut      4.20000000E+01 Hartree
-          fftalg         512
           irdden           1
           irdwfk           1
              ixc     -116133
              kpt      1.50000000E-01  1.50000000E-01  0.00000000E+00
                       4.00000000E-01  4.00000000E-01  5.00000000E-01
           kptopt           0
P           mkmem           2
P          mkqmem           2
P          mk1mem           2
            natom           6
            nband          21
           nbdbuf           4
            ngfft          50      50      36
             nkpt           2
            nstep        1000
             nsym          16
           ntypat           2
              occ      2.000000  2.000000  2.000000  2.000000  2.000000  2.000000
                       2.000000  2.000000  2.000000  2.000000  2.000000  2.000000
                       0.000000  0.000000  0.000000  0.000000  0.000000  0.000000
                       0.000000  0.000000  0.000000
        optdriver           1
            prtwf          -1
            rfdir           1       1       1
           rfelfd           2
            rprim      8.4625983465E+00  0.0000000000E+00  0.0000000000E+00
                       0.0000000000E+00  8.4625983465E+00  0.0000000000E+00
                       0.0000000000E+00  0.0000000000E+00  5.6862542982E+00
          spgroup         136
           symrel      1  0  0   0  1  0   0  0  1      -1  0  0   0 -1  0   0  0 -1
                      -1  0  0   0  1  0   0  0 -1       1  0  0   0 -1  0   0  0  1
                      -1  0  0   0 -1  0   0  0  1       1  0  0   0  1  0   0  0 -1
                       1  0  0   0 -1  0   0  0 -1      -1  0  0   0  1  0   0  0  1
                       0  1  0   1  0  0   0  0  1       0 -1  0  -1  0  0   0  0 -1
                       0 -1  0   1  0  0   0  0 -1       0  1  0  -1  0  0   0  0  1
                       0 -1  0  -1  0  0   0  0  1       0  1  0   1  0  0   0  0 -1
                       0  1  0  -1  0  0   0  0 -1       0 -1  0   1  0  0   0  0  1
            tnons      0.0000000  0.0000000  0.0000000     0.0000000  0.0000000  0.0000000
                       0.5000000  0.5000000  0.5000000     0.5000000  0.5000000  0.5000000
                       0.0000000  0.0000000  0.0000000     0.0000000  0.0000000  0.0000000
                       0.5000000  0.5000000  0.5000000     0.5000000  0.5000000  0.5000000
                       0.0000000  0.0000000  0.0000000     0.0000000  0.0000000  0.0000000
                       0.5000000  0.5000000  0.5000000     0.5000000  0.5000000  0.5000000
                       0.0000000  0.0000000  0.0000000     0.0000000  0.0000000  0.0000000
                       0.5000000  0.5000000  0.5000000     0.5000000  0.5000000  0.5000000
           tolwfr      1.00000000E-20
            typat      1  1  2  2  2  2
           useylm           1
              wtk        0.50000    0.50000
           xangst      0.0000000000E+00  0.0000000000E+00  1.5045180884E+00
                       2.2391070852E+00  2.2391070852E+00  0.0000000000E+00
                       8.7571478103E-01  8.7571478103E-01  0.0000000000E+00
                       1.3633923042E+00  3.1148218662E+00  1.5045180884E+00
                       3.6024993894E+00  3.6024993894E+00  0.0000000000E+00
                       3.1148218662E+00  1.3633923042E+00  1.5045180884E+00
            xcart      0.0000000000E+00  0.0000000000E+00  2.8431271491E+00
                       4.2312991733E+00  4.2312991733E+00  0.0000000000E+00
                       1.6548611067E+00  1.6548611067E+00  0.0000000000E+00
                       2.5764380666E+00  5.8861602799E+00  2.8431271491E+00
                       6.8077372398E+00  6.8077372398E+00  0.0000000000E+00
                       5.8861602799E+00  2.5764380666E+00  2.8431271491E+00
             xred      0.0000000000E+00  0.0000000000E+00  5.0000000000E-01
                       5.0000000000E-01  5.0000000000E-01  0.0000000000E+00
                       1.9555000000E-01  1.9555000000E-01  0.0000000000E+00
                       3.0445000000E-01  6.9555000000E-01  5.0000000000E-01
                       8.0445000000E-01  8.0445000000E-01  0.0000000000E+00
                       6.9555000000E-01  3.0445000000E-01  5.0000000000E-01
            znucl       12.00000    1.00000

 chkinp: Checking input parameters for consistency.

== DATASET  1 ==================================================================
-   mpi_nproc: 1, omp_nthreads: -1 (-1 if OMP is not activated)

--- !DatasetInfo
iteration_state: {dtset: 1, }
dimensions: {natom: 6, nkpt: 2, mband: 21, nsppol: 1, nspinor: 1, nspden: 1, mpw: 5295, }
cutoff_energies: {ecut:  42.0, pawecutdg:  -1.0, }
electrons: {nelect:   2.40000000E+01, charge:   0.00000000E+00, occopt:   1.00000000E+00, tsmear:   1.00000000E-02, }
meta: {optdriver: 1, rfelfd: 2, }
...

 Real(R)+Recip(G) space primitive vectors, cartesian coordinates (Bohr,Bohr^-1):
 R(1)=  8.4625983  0.0000000  0.0000000  G(1)=  0.1181670  0.0000000  0.0000000
 R(2)=  0.0000000  8.4625983  0.0000000  G(2)=  0.0000000  0.1181670  0.0000000
 R(3)=  0.0000000  0.0000000  5.6862543  G(3)=  0.0000000  0.0000000  0.1758627
 Unit cell volume ucvol=  4.0722435E+02 bohr^3
 Angles (23,13,12)=  9.00000000E+01  9.00000000E+01  9.00000000E+01 degrees

 getcut: wavevector=  0.0000  0.0000  0.0000  ngfft=  50  50  36
         ecut(hartree)=     42.000   => boxcut(ratio)=   2.02524

--- Pseudopotential description ------------------------------------------------
- pspini: atom type   1  psp file is /scratch/users/j/a/jabreu/pseudos/PBEsol/Mg.psp8
- pspatm: opening atomic psp file    /scratch/users/j/a/jabreu/pseudos/PBEsol/Mg.psp8
- Mg    ONCVPSP-3.3.0  r_core=   1.16056   1.56380
- 12.00000  10.00000    180112                znucl, zion, pspdat
    8 -116133    1    4       400   0.00000   pspcod,pspxc,lmax,lloc,mmax,r2well
    3.99000000000000    0.00000000000000    0.00000000000000   rchrg,fchrg,qchrg
     nproj     2     2
     extension_switch     1
  pspatm : epsatm=    9.18164846
         --- l  ekb(1:nproj) -->
             0    2.230603   -0.826587
             1   -6.503151   -2.501445
 pspatm: atomic psp has been read  and splines computed

- pspini: atom type   2  psp file is /scratch/users/j/a/jabreu/pseudos/PBEsol/H.psp8
- pspatm: opening atomic psp file    /scratch/users/j/a/jabreu/pseudos/PBEsol/H.psp8
- H     ONCVPSP-3.3.0  r_core=   1.00957   0.70586
-  1.00000   1.00000    180112                znucl, zion, pspdat
    8 -116133    1    4       300   0.00000   pspcod,pspxc,lmax,lloc,mmax,r2well
    2.99000000000000    0.00000000000000    0.00000000000000   rchrg,fchrg,qchrg
     nproj     2     1
     extension_switch     1
  pspatm : epsatm=    0.35627032
         --- l  ekb(1:nproj) -->
             0   -1.674911   -0.523609
             1   -0.494138
 pspatm: atomic psp has been read  and splines computed

   4.74921077E+02                                ecore*ucvol(ha*bohr**3)

-inwffil : will read wavefunctions from disk file /scratch/users/j/a/jabreu/flow_simple_6atoms/flow/w171/t1/indata/in_WFK

 ==>  initialize data related to q vector <==

 The list of irreducible perturbations for this q vector is:
    1)    idir= 1    ipert=   7
    2)    idir= 2    ipert=   7
    3)    idir= 3    ipert=   7

 Perturbation wavevector (in red.coord.)   0.000000  0.000000  0.000000
 Perturbation : derivative vs k along direction   1

 dfpt_looppert : COMMENT -
  In a d/dk calculation, iscf is set to -3 automatically.
 The set of symmetries contains only one element for this perturbation.
 symkpt : not enough symmetry to change the number of k points.

[...]

 Initialisation of the first-order wave-functions :
  ireadwf=   0

--- !BeginCycle
iteration_state: {dtset: 1, }
solver: {iscf: 7, nstep: 1000, nline: 4, wfoptalg: 0, }
tolerances: {tolwfr: 1.00E-20, }
...

     iter   2DEtotal(Ha)        deltaE(Ha) residm    vres2
-ETOT  1  -16.918390897793     -1.692E+01 4.750E-03 0.000E+00
 ETOT  2  -16.919675498559     -1.285E-03 3.022E-05 0.000E+00
 ETOT  3  -16.919675937887     -4.393E-07 8.086E-08 0.000E+00
 ETOT  4  -16.919675938019     -1.322E-10 2.824E-10 0.000E+00
 ETOT  5  -16.919675938020     -8.882E-14 1.009E-12 0.000E+00
 ETOT  6  -16.919675938020     -7.105E-15 4.670E-15 0.000E+00
 ETOT  7  -16.919675938020      7.105E-15 1.902E-17 0.000E+00
 ETOT  8  -16.919675938020     -7.105E-15 9.065E-20 0.000E+00
 ETOT  9  -16.919675938020      0.000E+00 9.833E-21 0.000E+00

 At SCF step    9   max residual=  9.83E-21 < tolwfr=  1.00E-20 =>converged.

 ----iterations are completed or convergence reached----

 dfpt_looppert: DFPT cycle converged with prtwf=-1. Will skip output of the 1st-order WFK file.
 dfpt_looppert : ek2=    2.6460224006E+01
          f-sum rule ratio=    1.0931107053E+00
 prteigrs : about to open file /scratch/users/j/a/jabreu/flow_simple_6atoms/flow/w171/t1/tmpdata/tmp_1WF1_EIG
 Expectation of eigenvalue derivatives (hartree) for nkpt=   2  k points:
  (in case of degenerate eigenvalues, averaged derivative)
 kpt#   1, nband= 21, wtk=  0.50000, kpt=  0.1500  0.1500  0.0000 (reduced coord)
   0.00002   -0.00002   -0.00003    0.00012   -0.00014    0.00001    0.00007   -0.00007
   0.07426   -0.13865   -0.07624    0.00696    0.04191    0.20266   -0.06936    0.07925
   0.06973    0.08055    0.31965   -0.13364   -0.07905
 prteigrs : prtvol=0 or 1, do not print more k-points.

 Eight components of 2nd-order total energy (hartree) are
 1,2,3: 0th-order hamiltonian combined with 1st-order wavefunctions
     kin0=   1.43725264E+01 eigvalue=   3.34255050E+00  local=  -5.86185442E+00
 4,5,6: 1st-order hamiltonian combined with 1st and 0th-order wfs
     kin1=  -2.89239541E+01  Hartree=   0.00000000E+00     xc=   0.00000000E+00
 7,8,9: eventually, occupation + non-local contributions
    edocc=   5.17520189E+00     enl0=  -1.08748443E-01   enl1=  -4.91539775E+00
 1-9 gives the relaxation energy (to be shifted if some occ is /=2.0)
   erelax=  -1.69196759E+01
  No Ewald or frozen-wf contrib.: the relaxation energy is the total one
 2DEtotal=   -0.1691967594E+02 Ha. Also 2DEtotal=   -0.460407796736E+03 eV
    (  non-var. 2DEtotal :   -1.6919675938E+01 Ha)

 Perturbation wavevector (in red.coord.)   0.000000  0.000000  0.000000
 Perturbation : derivative vs k along direction   2
 The set of symmetries contains only one element for this perturbation.
 symkpt : not enough symmetry to change the number of k points.

[...]

 Perturbation wavevector (in red.coord.)   0.000000  0.000000  0.000000
 Perturbation : derivative vs k along direction   3
 The set of symmetries contains only one element for this perturbation.
 symkpt : not enough symmetry to change the number of k points.

-inwffil : will read wavefunctions from disk file /scratch/users/j/a/jabreu/flow_simple_6atoms/flow/w171/t1/indata/in_WFK

 Initialisation of the first-order wave-functions :
  ireadwf=   0

--- !BeginCycle
iteration_state: {dtset: 1, }
solver: {iscf: 7, nstep: 1000, nline: 4, wfoptalg: 0, }
tolerances: {tolwfr: 1.00E-20, }
...

     iter   2DEtotal(Ha)        deltaE(Ha) residm    vres2
-ETOT  1  -39.534519857506     -3.953E+01 2.042E-02 0.000E+00
 ETOT  2  -39.537259346237     -2.739E-03 2.634E-05 0.000E+00
 ETOT  3  -39.537260271798     -9.256E-07 1.483E-08 0.000E+00
 ETOT  4  -39.537260272021     -2.231E-10 1.085E-10 0.000E+00
 ETOT  5  -39.537260272022     -1.990E-13 1.212E-13 0.000E+00
 ETOT  6  -39.537260272021      2.132E-14 9.871E-16 0.000E+00
 ETOT  7  -39.537260272022     -2.842E-14 1.182E-18 0.000E+00
 ETOT  8  -39.537260272022      0.000E+00 9.470E-21 0.000E+00

 At SCF step    8   max residual=  9.47E-21 < tolwfr=  1.00E-20 =>converged.

 ----iterations are completed or convergence reached----

 dfpt_looppert: DFPT cycle converged with prtwf=-1. Will skip output of the 1st-order WFK file.
 dfpt_looppert : ek2=    5.8606855168E+01
          f-sum rule ratio=    1.1651399182E+00
 prteigrs : about to open file /scratch/users/j/a/jabreu/flow_simple_6atoms/flow/w171/t1/tmpdata/tmp_1WF1_EIG
 Expectation of eigenvalue derivatives (hartree) for nkpt=   2  k points:
  (in case of degenerate eigenvalues, averaged derivative)
 kpt#   1, nband= 21, wtk=  0.50000, kpt=  0.1500  0.1500  0.0000 (reduced coord)
   0.00000   -0.00000    0.00000    0.00000    0.00000    0.00000    0.00000   -0.00000
   0.00000    0.00000    0.00000   -0.00000   -0.00000    0.00000   -0.00000   -0.00000
  -0.00000    0.00000    0.00000    0.00087    0.00003
 prteigrs : prtvol=0 or 1, do not print more k-points.

 Eight components of 2nd-order total energy (hartree) are
 1,2,3: 0th-order hamiltonian combined with 1st-order wavefunctions
     kin0=   3.21565625E+01 eigvalue=   7.46777881E+00  local=  -1.32503574E+01
 4,5,6: 1st-order hamiltonian combined with 1st and 0th-order wfs
     kin1=  -6.82851864E+01  Hartree=   0.00000000E+00     xc=   0.00000000E+00
 7,8,9: eventually, occupation + non-local contributions
    edocc=   1.34330466E+01     enl0=  -2.69770210E-01   enl1=  -1.07893341E+01
 1-9 gives the relaxation energy (to be shifted if some occ is /=2.0)
   erelax=  -3.95372603E+01
  No Ewald or frozen-wf contrib.: the relaxation energy is the total one
 2DEtotal=   -0.3953726027E+02 Ha. Also 2DEtotal=   -0.107586356603E+04 eV
    (  non-var. 2DEtotal :   -3.9537260272E+01 Ha)

 CALCULATION OF EFFECTIVE MASSES
 NOTE : Additional infos (eff. mass eigenvalues, eigenvectors and, if degenerate, average mass) are available in stdout.

--- !WARNING
src_file: m_efmas.F90
src_line: 0
message: |

    Band(s)    12,
    are not band extrema, but saddle points;
    the transport equivalent formalism breaks down in these conditions.
    The associated tensor(s) will therefore not be printed.
...

 K-point ( 0.150, 0.150, 0.000) | band =    12
 Effective mass tensor:
     *** SADDLE POINT: TRANSPORT EQV. EFF. MASS NOT DEFINED (see WARNING above) ***
 Angular average effective mass 1/(<1/m>)=  -0.9732130985
 Angular average effective mass for Frohlich model (<m**0.5>)**2=  -2.8831622175
 Effective masses along directions: (cart. coord. / red. coord. -> eff. mass)
    1:   1.000000  0.000000  0.000000 /   1.000000  0.000000  0.000000 ->  -0.6421528351
    2:   0.000000  1.000000  0.000000 /   0.000000  1.000000  0.000000 ->  -0.6421524645
    3:   0.000000  0.000000  1.000000 /   0.000000  0.000000  1.000000 ->  31.2972563736
    4:   0.577350  0.577350  0.577350 /   0.638683  0.638683  0.429149 ->  -0.5311172564
    5:   0.000000  0.707107  0.707107 /   0.000000  0.830029  0.557720 ->  -1.3112131053
    6:   0.707107  0.000000  0.707107 /   0.830029  0.000000  0.557720 ->  -1.3112035325
    7:   0.707107  0.707107  0.000000 /   0.707107  0.707107  0.000000 ->  -0.3520865488

 K-point ( 0.400, 0.400, 0.500) | band =    13
 Effective mass tensor:
              0.5098401808              0.1367058451              0.0000042917
              0.1367058451              0.5098479438              0.0000039641
              0.0000042917              0.0000039641              0.4637914141
 Effective mass tensor eigenvalues:
              0.3731382171              0.4637914139              0.6465499077
 Angular average effective mass 1/(<1/m>)=   0.4700142823
 Angular average effective mass for Frohlich model (<m**0.5>)**2=   0.4769955520
 Effective masses along directions: (cart. coord. / red. coord. -> eff. mass)
    1:   1.000000  0.000000  0.000000 /   1.000000  0.000000  0.000000 ->   0.4731851578
    2:   0.000000  1.000000  0.000000 /   0.000000  1.000000  0.000000 ->   0.4731923627
    3:   0.000000  0.000000  1.000000 /   0.000000  0.000000  1.000000 ->   0.4637914141
    4:   0.577350  0.577350  0.577350 /   0.638683  0.638683  0.429149 ->   0.5714907666
    5:   0.000000  0.707107  0.707107 /   0.000000  0.830029  0.557720 ->   0.4684475406
    6:   0.707107  0.000000  0.707107 /   0.830029  0.000000  0.557720 ->   0.4684444256
    7:   0.707107  0.707107  0.000000 /   0.707107  0.707107  0.000000 ->   0.6465499074

 END OF EFFECTIVE MASSES SECTION

 ---- first-order wavefunction calculations are completed ----

 Total localisation tensor (bohr^2) in cartesian coordinates
  WARNING : still subject to testing - especially symmetries.
      direction              matrix element
   alpha     beta       real part   imaginary part
     1        1       0.9188743870    0.0000000000
     1        2       0.0000000000    0.0000000000
     1        3       0.0000000000    0.0000000000
     2        1       0.0000000000    0.0000000000
     2        2       0.9188740777    0.0000000000
     2        3       0.0000000000    0.0000000000
     3        1       0.0000000000    0.0000000000
     3        2       0.0000000000    0.0000000000
     3        3       1.1313721125    0.0000000000

 respfn : d/dk was computed, but no 2DTE, so no DDB output.

== END DATASET(S) ==============================================================

 -outvars: echo values of variables after computation  --------
            acell      1.0000000000E+00  1.0000000000E+00  1.0000000000E+00 Bohr
              amu      2.43050000E+01  1.00794000E+00
             ecut      4.20000000E+01 Hartree
           etotal     -3.9537260272E+01
            fcart      0.0000000000E+00  0.0000000000E+00  0.0000000000E+00
                       0.0000000000E+00  0.0000000000E+00  0.0000000000E+00
                       0.0000000000E+00  0.0000000000E+00  0.0000000000E+00
                       0.0000000000E+00  0.0000000000E+00  0.0000000000E+00
                       0.0000000000E+00  0.0000000000E+00  0.0000000000E+00
                       0.0000000000E+00  0.0000000000E+00  0.0000000000E+00
-          fftalg         512
           irdden           1
           irdwfk           1
              ixc     -116133
              kpt      1.50000000E-01  1.50000000E-01  0.00000000E+00
                       4.00000000E-01  4.00000000E-01  5.00000000E-01
           kptopt           0
P           mkmem           2
P          mkqmem           2
P          mk1mem           2
            natom           6
            nband          21
           nbdbuf           4
            ngfft          50      50      36
             nkpt           2
            nstep        1000
             nsym          16
           ntypat           2
              occ      2.000000  2.000000  2.000000  2.000000  2.000000  2.000000
                       2.000000  2.000000  2.000000  2.000000  2.000000  2.000000
                       0.000000  0.000000  0.000000  0.000000  0.000000  0.000000
                       0.000000  0.000000  0.000000
        optdriver           1
            prtwf          -1
            rfdir           1       1       1
           rfelfd           2
            rprim      8.4625983465E+00  0.0000000000E+00  0.0000000000E+00
                       0.0000000000E+00  8.4625983465E+00  0.0000000000E+00
                       0.0000000000E+00  0.0000000000E+00  5.6862542982E+00
          spgroup         136
           strten      0.0000000000E+00  0.0000000000E+00  0.0000000000E+00
                       0.0000000000E+00  0.0000000000E+00  0.0000000000E+00
           symrel      1  0  0   0  1  0   0  0  1      -1  0  0   0 -1  0   0  0 -1
                      -1  0  0   0  1  0   0  0 -1       1  0  0   0 -1  0   0  0  1
                      -1  0  0   0 -1  0   0  0  1       1  0  0   0  1  0   0  0 -1
                       1  0  0   0 -1  0   0  0 -1      -1  0  0   0  1  0   0  0  1
                       0  1  0   1  0  0   0  0  1       0 -1  0  -1  0  0   0  0 -1
                       0 -1  0   1  0  0   0  0 -1       0  1  0  -1  0  0   0  0  1
                       0 -1  0  -1  0  0   0  0  1       0  1  0   1  0  0   0  0 -1
                       0  1  0  -1  0  0   0  0 -1       0 -1  0   1  0  0   0  0  1
            tnons      0.0000000  0.0000000  0.0000000     0.0000000  0.0000000  0.0000000
                       0.5000000  0.5000000  0.5000000     0.5000000  0.5000000  0.5000000
                       0.0000000  0.0000000  0.0000000     0.0000000  0.0000000  0.0000000
                       0.5000000  0.5000000  0.5000000     0.5000000  0.5000000  0.5000000
                       0.0000000  0.0000000  0.0000000     0.0000000  0.0000000  0.0000000
                       0.5000000  0.5000000  0.5000000     0.5000000  0.5000000  0.5000000
                       0.0000000  0.0000000  0.0000000     0.0000000  0.0000000  0.0000000
                       0.5000000  0.5000000  0.5000000     0.5000000  0.5000000  0.5000000
           tolwfr      1.00000000E-20
            typat      1  1  2  2  2  2
           useylm           1
              wtk        0.50000    0.50000
           xangst      0.0000000000E+00  0.0000000000E+00  1.5045180884E+00
                       2.2391070852E+00  2.2391070852E+00  0.0000000000E+00
                       8.7571478103E-01  8.7571478103E-01  0.0000000000E+00
                       1.3633923042E+00  3.1148218662E+00  1.5045180884E+00
                       3.6024993894E+00  3.6024993894E+00  0.0000000000E+00
                       3.1148218662E+00  1.3633923042E+00  1.5045180884E+00
            xcart      0.0000000000E+00  0.0000000000E+00  2.8431271491E+00
                       4.2312991733E+00  4.2312991733E+00  0.0000000000E+00
                       1.6548611067E+00  1.6548611067E+00  0.0000000000E+00
                       2.5764380666E+00  5.8861602799E+00  2.8431271491E+00
                       6.8077372398E+00  6.8077372398E+00  0.0000000000E+00
                       5.8861602799E+00  2.5764380666E+00  2.8431271491E+00
             xred      0.0000000000E+00  0.0000000000E+00  5.0000000000E-01
                       5.0000000000E-01  5.0000000000E-01  0.0000000000E+00
                       1.9555000000E-01  1.9555000000E-01  0.0000000000E+00
                       3.0445000000E-01  6.9555000000E-01  5.0000000000E-01
                       8.0445000000E-01  8.0445000000E-01  0.0000000000E+00
                       6.9555000000E-01  3.0445000000E-01  5.0000000000E-01
            znucl       12.00000    1.00000

- Timing analysis has been suppressed with timopt=0

 Suggested references for the acknowledgment of ABINIT usage.

 Calculation completed.
.Delivered  15 WARNINGs and   9 COMMENTs to log file.