.Version 9.5.2 of ABINIT

 ABINIT is a project of the Universite Catholique de Louvain,
 Corning Inc. and other collaborators, see ~abinit/doc/developers/contributors.txt .
 acknowledgments of the ABINIT effort.

.Starting date : Wed 26 May 2021.
- ( at 02h38 )

- input  file    -> /scratch/users/j/a/jabreu/flow_simple_11atoms/flow/w244/t1/run.abi
- output file    -> /scratch/users/j/a/jabreu/flow_simple_11atoms/flow/w244/t1/run.abo
- root for input  files -> /scratch/users/j/a/jabreu/flow_simple_11atoms/flow/w244/t1/indata/in
- root for output files -> /scratch/users/j/a/jabreu/flow_simple_11atoms/flow/w244/t1/outdata/out

 Symmetries : space group Pa -3 (#205); Bravais cP (primitive cubic)
     intxc =       0      iscf =       7    lmnmax =      18     lnmax =       6
     mgfft =      64  mpssoang =       3    mqgrid =    3150     natom =      12
  nloc_mem =       1    nspden =       1   nspinor =       1    nsppol =       1
      nsym =      24    n1xccc =    2501    ntypat =       2    occopt =       1
   xclevel =       2
-    mband =          65        mffmem =           1         mkmem =           2
-   mkqmem =           2        mk1mem =           2           mpw =       16375
      nfft =      262144          nkpt =           2
  Rough estimation (10% accuracy) of disk space for files :

------------- Echo of variables that govern the present computation ------------
-
- outvars: echo of selected default values
-   iomode0 =  0 , fftalg0 =512 , wfoptalg0 =  0
-
- outvars: echo of global parameters not present in the input file
-  max_nthreads =    0
-
 -outvars: echo values of preprocessed input variables --------
            acell      1.0000000000E+00  1.0000000000E+00  1.0000000000E+00 Bohr
              amu      1.01070000E+02  3.20660000E+01
             ecut      4.40000000E+01 Hartree
-          fftalg         512
           irdden           1
           irdwfk           1
           istwfk        0    1
              ixc     -116133
              kpt      0.00000000E+00  4.41176471E-01  0.00000000E+00
                       0.00000000E+00  0.00000000E+00  0.00000000E+00
           kptopt           0
P           mkmem           2
P          mkqmem           2
P          mk1mem           2
            natom          12
            nband          65
           nbdbuf           4
            ngfft          64      64      64
             nkpt           2
            nstep        2000
             nsym          24
           ntypat           2
              occ      2.000000  2.000000  2.000000  2.000000  2.000000  2.000000
                       2.000000  2.000000  2.000000  2.000000  2.000000  2.000000
                       2.000000  2.000000  2.000000  2.000000  2.000000  2.000000
                       2.000000  2.000000  2.000000  2.000000  2.000000  2.000000
                       2.000000  2.000000  2.000000  2.000000  2.000000  2.000000
                       2.000000  2.000000  2.000000  2.000000  2.000000  2.000000
                       2.000000  2.000000  2.000000  2.000000  2.000000  2.000000
                       2.000000  2.000000  2.000000  2.000000  2.000000  2.000000
                       2.000000  2.000000  2.000000  2.000000  2.000000  2.000000
                       2.000000  2.000000  0.000000  0.000000  0.000000  0.000000
                       0.000000  0.000000  0.000000  0.000000  0.000000
        optdriver           1
            prtwf          -1
            rfdir           1       1       1
           rfelfd           2
            rprim      1.0547928511E+01  0.0000000000E+00  0.0000000000E+00
                       0.0000000000E+00  1.0547928511E+01  0.0000000000E+00
                       0.0000000000E+00  0.0000000000E+00  1.0547928511E+01
          spgroup         205
           symrel      1  0  0   0  1  0   0  0  1      -1  0  0   0 -1  0   0  0 -1
                      -1  0  0   0  1  0   0  0 -1       1  0  0   0 -1  0   0  0  1
                      -1  0  0   0 -1  0   0  0  1       1  0  0   0  1  0   0  0 -1
                       1  0  0   0 -1  0   0  0 -1      -1  0  0   0  1  0   0  0  1
                       0  0  1   1  0  0   0  1  0       0  0 -1  -1  0  0   0 -1  0
                       0  0 -1   1  0  0   0 -1  0       0  0  1  -1  0  0   0  1  0
                       0  0 -1  -1  0  0   0  1  0       0  0  1   1  0  0   0 -1  0
                       0  0  1  -1  0  0   0 -1  0       0  0 -1   1  0  0   0  1  0
                       0  1  0   0  0  1   1  0  0       0 -1  0   0  0 -1  -1  0  0
                       0 -1  0   0  0  1  -1  0  0       0  1  0   0  0 -1   1  0  0
                       0 -1  0   0  0 -1   1  0  0       0  1  0   0  0  1  -1  0  0
                       0  1  0   0  0 -1  -1  0  0       0 -1  0   0  0  1   1  0  0
            tnons      0.0000000  0.0000000  0.0000000     0.0000000  0.0000000  0.0000000
                       0.0000000  0.5000000  0.5000000     0.0000000  0.5000000  0.5000000
                       0.5000000  0.0000000  0.5000000     0.5000000  0.0000000  0.5000000
                       0.5000000  0.5000000  0.0000000     0.5000000  0.5000000  0.0000000
                       0.0000000  0.0000000  0.0000000     0.0000000  0.0000000  0.0000000
                       0.5000000  0.5000000  0.0000000     0.5000000  0.5000000  0.0000000
                       0.0000000  0.5000000  0.5000000     0.0000000  0.5000000  0.5000000
                       0.5000000  0.0000000  0.5000000     0.5000000  0.0000000  0.5000000
                       0.0000000  0.0000000  0.0000000     0.0000000  0.0000000  0.0000000
                       0.5000000  0.0000000  0.5000000     0.5000000  0.0000000  0.5000000
                       0.5000000  0.5000000  0.0000000     0.5000000  0.5000000  0.0000000
                       0.0000000  0.5000000  0.5000000     0.0000000  0.5000000  0.5000000
           tolwfr      1.00000000E-20
            typat      1  1  1  1  2  2  2  2  2  2  2  2
           useylm           1
              wtk        0.50000    0.50000
           xangst      0.0000000000E+00  2.7908616828E+00  2.7908616828E+00
                       2.7908616828E+00  2.7908616828E+00  0.0000000000E+00
                       2.7908616828E+00  0.0000000000E+00  2.7908616828E+00
                       0.0000000000E+00  0.0000000000E+00  0.0000000000E+00
                       2.1562476447E+00  6.3461403805E-01  4.9471093275E+00
                       6.3461403805E-01  4.9471093275E+00  2.1562476447E+00
                       4.9471093275E+00  2.1562476447E+00  6.3461403805E-01
                       3.4254757208E+00  3.4254757208E+00  3.4254757208E+00
                       2.1562476447E+00  2.1562476447E+00  2.1562476447E+00
                       6.3461403805E-01  3.4254757208E+00  4.9471093275E+00
                       4.9471093275E+00  6.3461403805E-01  3.4254757208E+00
                       3.4254757208E+00  4.9471093275E+00  6.3461403805E-01
            xcart      0.0000000000E+00  5.2739642553E+00  5.2739642553E+00
                       5.2739642553E+00  5.2739642553E+00  0.0000000000E+00
                       5.2739642553E+00  0.0000000000E+00  5.2739642553E+00
                       0.0000000000E+00  0.0000000000E+00  0.0000000000E+00
                       4.0747175232E+00  1.1992467320E+00  9.3486817785E+00
                       1.1992467320E+00  9.3486817785E+00  4.0747175232E+00
                       9.3486817785E+00  4.0747175232E+00  1.1992467320E+00
                       6.4732109873E+00  6.4732109873E+00  6.4732109873E+00
                       4.0747175232E+00  4.0747175232E+00  4.0747175232E+00
                       1.1992467320E+00  6.4732109873E+00  9.3486817785E+00
                       9.3486817785E+00  1.1992467320E+00  6.4732109873E+00
                       6.4732109873E+00  9.3486817785E+00  1.1992467320E+00
             xred      0.0000000000E+00  5.0000000000E-01  5.0000000000E-01
                       5.0000000000E-01  5.0000000000E-01  0.0000000000E+00
                       5.0000000000E-01  0.0000000000E+00  5.0000000000E-01
                       0.0000000000E+00  0.0000000000E+00  0.0000000000E+00
                       3.8630500000E-01  1.1369500000E-01  8.8630500000E-01
                       1.1369500000E-01  8.8630500000E-01  3.8630500000E-01
                       8.8630500000E-01  3.8630500000E-01  1.1369500000E-01
                       6.1369500000E-01  6.1369500000E-01  6.1369500000E-01
                       3.8630500000E-01  3.8630500000E-01  3.8630500000E-01
                       1.1369500000E-01  6.1369500000E-01  8.8630500000E-01
                       8.8630500000E-01  1.1369500000E-01  6.1369500000E-01
                       6.1369500000E-01  8.8630500000E-01  1.1369500000E-01
            znucl       44.00000   16.00000

 chkinp: Checking input parameters for consistency.

== DATASET  1 ==================================================================
-   mpi_nproc: 1, omp_nthreads: -1 (-1 if OMP is not activated)

--- !DatasetInfo
iteration_state: {dtset: 1, }
dimensions: {natom: 12, nkpt: 2, mband: 65, nsppol: 1, nspinor: 1, nspden: 1, mpw: 16375, }
cutoff_energies: {ecut:  44.0, pawecutdg:  -1.0, }
electrons: {nelect:   1.12000000E+02, charge:   0.00000000E+00, occopt:   1.00000000E+00, tsmear:   1.00000000E-02, }
meta: {optdriver: 1, rfelfd: 2, }
...

 Real(R)+Recip(G) space primitive vectors, cartesian coordinates (Bohr,Bohr^-1):
 R(1)= 10.5479285  0.0000000  0.0000000  G(1)=  0.0948053  0.0000000  0.0000000
 R(2)=  0.0000000 10.5479285  0.0000000  G(2)=  0.0000000  0.0948053  0.0000000
 R(3)=  0.0000000  0.0000000 10.5479285  G(3)=  0.0000000  0.0000000  0.0948053
 Unit cell volume ucvol=  1.1735498E+03 bohr^3
 Angles (23,13,12)=  9.00000000E+01  9.00000000E+01  9.00000000E+01 degrees

 getcut: wavevector=  0.0000  0.0000  0.0000  ngfft=  64  64  64
         ecut(hartree)=     44.000   => boxcut(ratio)=   2.03199

--- Pseudopotential description ------------------------------------------------
- pspini: atom type   1  psp file is /scratch/users/j/a/jabreu/pseudos/PBEsol/Ru.psp8
- pspatm: opening atomic psp file    /scratch/users/j/a/jabreu/pseudos/PBEsol/Ru.psp8
- Ru    ONCVPSP-3.3.0  r_core=   1.35650   1.40592   1.30881
- 44.00000  16.00000    180112                znucl, zion, pspdat
    8 -116133    2    4       600   0.00000   pspcod,pspxc,lmax,lloc,mmax,r2well
    5.99000000000000    7.00000000000000    0.00000000000000   rchrg,fchrg,qchrg
     nproj     2     2     2
     extension_switch     1
  pspatm : epsatm=   20.24388641
         --- l  ekb(1:nproj) -->
             0   14.596908    1.144598
             1    7.305594    1.039251
             2    1.509539    0.405296
 pspatm: atomic psp has been read  and splines computed

- pspini: atom type   2  psp file is /scratch/users/j/a/jabreu/pseudos/PBEsol/S.psp8
- pspatm: opening atomic psp file    /scratch/users/j/a/jabreu/pseudos/PBEsol/S.psp8
- S     ONCVPSP-3.3.0  r_core=   1.45376   1.45376   1.61851
- 16.00000   6.00000    180112                znucl, zion, pspdat
    8 -116133    2    4       600   0.00000   pspcod,pspxc,lmax,lloc,mmax,r2well
[...]
 ETOT  3  -36.082718355720     -7.767E-03 4.611E-04 0.000E+00
 ETOT  4  -36.083396011745     -6.777E-04 1.312E-04 0.000E+00
 ETOT  5  -36.083468086278     -7.207E-05 5.063E-05 0.000E+00
 ETOT  6  -36.083476237418     -8.151E-06 1.322E-05 0.000E+00
 ETOT  7  -36.083477190018     -9.526E-07 5.620E-06 0.000E+00
 ETOT  8  -36.083477303572     -1.136E-07 1.446E-06 0.000E+00
 ETOT  9  -36.083477317323     -1.375E-08 6.562E-07 0.000E+00
 ETOT 10  -36.083477319007     -1.685E-09 1.691E-07 0.000E+00
 ETOT 11  -36.083477319216     -2.085E-10 7.967E-08 0.000E+00
 ETOT 12  -36.083477319242     -2.597E-11 2.050E-08 0.000E+00
 ETOT 13  -36.083477319245     -3.325E-12 9.867E-09 0.000E+00
 ETOT 14  -36.083477319246     -3.766E-13 2.532E-09 0.000E+00
 ETOT 15  -36.083477319246     -4.263E-14 1.235E-09 0.000E+00
 ETOT 16  -36.083477319246     -2.842E-14 3.158E-10 0.000E+00
 ETOT 17  -36.083477319246      1.421E-14 1.553E-10 0.000E+00
 ETOT 18  -36.083477319246     -1.421E-14 3.962E-11 0.000E+00
 ETOT 19  -36.083477319246      0.000E+00 1.960E-11 0.000E+00
 ETOT 20  -36.083477319246      2.842E-14 4.987E-12 0.000E+00
 ETOT 21  -36.083477319246     -1.421E-14 2.477E-12 0.000E+00
 ETOT 22  -36.083477319246      1.421E-14 6.482E-13 0.000E+00
 ETOT 23  -36.083477319246     -1.421E-14 3.394E-13 0.000E+00
 ETOT 24  -36.083477319246      0.000E+00 9.182E-14 0.000E+00
 ETOT 25  -36.083477319246      0.000E+00 4.852E-14 0.000E+00
 ETOT 26  -36.083477319246      0.000E+00 1.304E-14 0.000E+00
 ETOT 27  -36.083477319246      0.000E+00 6.948E-15 0.000E+00
 ETOT 28  -36.083477319246      0.000E+00 1.856E-15 0.000E+00
 ETOT 29  -36.083477319246      7.105E-15 9.964E-16 0.000E+00
 ETOT 30  -36.083477319246      1.421E-14 2.645E-16 0.000E+00
 ETOT 31  -36.083477319246      1.421E-14 1.430E-16 0.000E+00
 ETOT 32  -36.083477319246     -1.421E-14 3.775E-17 0.000E+00
 ETOT 33  -36.083477319246      0.000E+00 2.055E-17 0.000E+00
 ETOT 34  -36.083477319246     -1.421E-14 5.395E-18 0.000E+00
 ETOT 35  -36.083477319246     -7.105E-15 2.954E-18 0.000E+00
 ETOT 36  -36.083477319246      1.421E-14 7.715E-19 0.000E+00
 ETOT 37  -36.083477319246      7.105E-15 4.248E-19 0.000E+00
 ETOT 38  -36.083477319246     -1.421E-14 1.104E-19 0.000E+00
 ETOT 39  -36.083477319246      0.000E+00 6.111E-20 0.000E+00
 ETOT 40  -36.083477319246      0.000E+00 1.582E-20 0.000E+00
 ETOT 41  -36.083477319246     -1.421E-14 9.896E-21 0.000E+00

 At SCF step   41   max residual=  9.90E-21 < tolwfr=  1.00E-20 =>converged.

 ----iterations are completed or convergence reached----

 dfpt_looppert: DFPT cycle converged with prtwf=-1. Will skip output of the 1st-order WFK file.
 dfpt_looppert : ek2=    7.9482844253E+01
          f-sum rule ratio=    9.3859212894E-01
 prteigrs : about to open file /scratch/users/j/a/jabreu/flow_simple_11atoms/flow/w244/t1/tmpdata/tmp_1WF1_EIG
 Expectation of eigenvalue derivatives (hartree) for nkpt=   2  k points:
  (in case of degenerate eigenvalues, averaged derivative)
 kpt#   1, nband= 65, wtk=  0.50000, kpt=  0.0000  0.4412  0.0000 (reduced coord)
  -0.00000   -0.00000    0.00000    0.00000   -0.00000    0.00000    0.00000    0.00000
   0.00000    0.00000    0.00000    0.00000    0.00000   -0.00000    0.00000   -0.00000
   0.00000   -0.00000   -0.00000    0.00000    0.00000   -0.00000    0.00000    0.00000
  -0.00000    0.00000   -0.00000   -0.00000   -0.00000    0.00000   -0.00000   -0.00000
   0.00000    0.00000   -0.00000   -0.00000   -0.00000    0.00000    0.00000   -0.00000
   0.00000   -0.00000    0.00000    0.00000    0.00000   -0.00000    0.00000    0.00000
   0.00000   -0.00000    0.00000    0.00000    0.00000   -0.00000    0.00000    0.00000
  -0.00000    0.00000   -0.00000   -0.00000    0.00000    0.00000    0.00000    0.00000
   0.00000
 prteigrs : prtvol=0 or 1, do not print more k-points.

 Eight components of 2nd-order total energy (hartree) are
 1,2,3: 0th-order hamiltonian combined with 1st-order wavefunctions
     kin0=   6.75146264E+01 eigvalue=  -1.02416260E+01  local=  -3.51430223E+01
 4,5,6: 1st-order hamiltonian combined with 1st and 0th-order wfs
     kin1=  -7.46019720E+01  Hartree=   0.00000000E+00     xc=   0.00000000E+00
 7,8,9: eventually, occupation + non-local contributions
    edocc=   8.74884214E+00     enl0=   5.20465707E+00   enl1=   2.43501736E+00
 1-9 gives the relaxation energy (to be shifted if some occ is /=2.0)
   erelax=  -3.60834773E+01
  No Ewald or frozen-wf contrib.: the relaxation energy is the total one
 2DEtotal=   -0.3608347732E+02 Ha. Also 2DEtotal=   -0.981881352338E+03 eV
    (  non-var. 2DEtotal :   -3.6083477319E+01 Ha)

 CALCULATION OF EFFECTIVE MASSES
 NOTE : Additional infos (eff. mass eigenvalues, eigenvectors and, if degenerate, average mass) are available in stdout.

 K-point ( 0.000, 0.441, 0.000) | band =    56
 Effective mass tensor:
             -2.4744934674              0.0000409986              0.0000000008
              0.0000409986             -0.5528289667              0.0000004824
              0.0000000008              0.0000004824             -0.8859341429
 Effective mass tensor eigenvalues:
             -2.4744934683             -0.8859341429             -0.5528289658
 Angular average effective mass 1/(<1/m>)=  -0.8977324430
 Angular average effective mass for Frohlich model (<m**0.5>)**2=  -0.9879673897
 Effective masses along directions: (cart. coord. / red. coord. -> eff. mass)
    1:   1.000000  0.000000  0.000000 /   1.000000  0.000000  0.000000 ->  -2.4744934644
    2:   0.000000  1.000000  0.000000 /   0.000000  1.000000  0.000000 ->  -0.5528289660
    3:   0.000000  0.000000  1.000000 /   0.000000  0.000000  1.000000 ->  -0.8859341429
    4:   0.577350  0.577350  0.577350 /   0.577350  0.577350  0.577350 ->  -0.8977158114
    5:   0.000000  0.707107  0.707107 /   0.000000  0.707107  0.707107 ->  -0.6808205252
    6:   0.707107  0.000000  0.707107 /   0.707107  0.000000  0.707107 ->  -1.3047376713
    7:   0.707107  0.707107  0.000000 /   0.707107  0.707107  0.000000 ->  -0.9037257466

 K-point ( 0.000, 0.000, 0.000) | band =    57
 Effective mass tensor:
              0.3353165481              0.0000015024              0.0000020604
              0.0000015024              0.3353114347             -0.0000005946
              0.0000020604             -0.0000005946              0.3353108598
 Effective mass tensor eigenvalues:
              0.3353095591              0.3353118044              0.3353174792
 Angular average effective mass 1/(<1/m>)=   0.3353129475
 Angular average effective mass for Frohlich model (<m**0.5>)**2=   0.3353129475
 Effective masses along directions: (cart. coord. / red. coord. -> eff. mass)
    1:   1.000000  0.000000  0.000000 /   1.000000  0.000000  0.000000 ->   0.3353165481
    2:   0.000000  1.000000  0.000000 /   0.000000  1.000000  0.000000 ->   0.3353114347
    3:   0.000000  0.000000  1.000000 /   0.000000  0.000000  1.000000 ->   0.3353108598
    4:   0.577350  0.577350  0.577350 /   0.577350  0.577350  0.577350 ->   0.3353149264
    5:   0.000000  0.707107  0.707107 /   0.000000  0.707107  0.707107 ->   0.3353105526
    6:   0.707107  0.000000  0.707107 /   0.707107  0.000000  0.707107 ->   0.3353157644
    7:   0.707107  0.707107  0.000000 /   0.707107  0.707107  0.000000 ->   0.3353154938

 END OF EFFECTIVE MASSES SECTION

 ---- first-order wavefunction calculations are completed ----

 Total localisation tensor (bohr^2) in cartesian coordinates
  WARNING : still subject to testing - especially symmetries.
      direction              matrix element
   alpha     beta       real part   imaginary part
     1        1       1.2178204711    0.0000000000
     1        2       0.0000000000    0.0000000000
     1        3       0.0000000000    0.0000000000
     2        1       0.0000000000    0.0000000000
     2        2       1.4352579196    0.0000000000
     2        3       0.0000000000    0.0000000000
     3        1       0.0000000000    0.0000000000
     3        2       0.0000000000    0.0000000000
     3        3       1.2065634899    0.0000000000

 respfn : d/dk was computed, but no 2DTE, so no DDB output.

== END DATASET(S) ==============================================================

 -outvars: echo values of variables after computation  --------
            acell      1.0000000000E+00  1.0000000000E+00  1.0000000000E+00 Bohr
              amu      1.01070000E+02  3.20660000E+01
             ecut      4.40000000E+01 Hartree
           etotal     -3.6083477319E+01
            fcart      0.0000000000E+00  0.0000000000E+00  0.0000000000E+00
                       0.0000000000E+00  0.0000000000E+00  0.0000000000E+00
                       0.0000000000E+00  0.0000000000E+00  0.0000000000E+00
                       0.0000000000E+00  0.0000000000E+00  0.0000000000E+00
                       0.0000000000E+00  0.0000000000E+00  0.0000000000E+00
                       0.0000000000E+00  0.0000000000E+00  0.0000000000E+00
                       0.0000000000E+00  0.0000000000E+00  0.0000000000E+00
                       0.0000000000E+00  0.0000000000E+00  0.0000000000E+00
                       0.0000000000E+00  0.0000000000E+00  0.0000000000E+00
                       0.0000000000E+00  0.0000000000E+00  0.0000000000E+00
                       0.0000000000E+00  0.0000000000E+00  0.0000000000E+00
                       0.0000000000E+00  0.0000000000E+00  0.0000000000E+00
-          fftalg         512
           irdden           1
           irdwfk           1
           istwfk        0    1
              ixc     -116133
              kpt      0.00000000E+00  4.41176471E-01  0.00000000E+00
                       0.00000000E+00  0.00000000E+00  0.00000000E+00
           kptopt           0
P           mkmem           2
P          mkqmem           2
P          mk1mem           2
            natom          12
            nband          65
           nbdbuf           4
            ngfft          64      64      64
             nkpt           2
            nstep        2000
             nsym          24
           ntypat           2
              occ      2.000000  2.000000  2.000000  2.000000  2.000000  2.000000
                       2.000000  2.000000  2.000000  2.000000  2.000000  2.000000
                       2.000000  2.000000  2.000000  2.000000  2.000000  2.000000
                       2.000000  2.000000  2.000000  2.000000  2.000000  2.000000
                       2.000000  2.000000  2.000000  2.000000  2.000000  2.000000
                       2.000000  2.000000  2.000000  2.000000  2.000000  2.000000
                       2.000000  2.000000  2.000000  2.000000  2.000000  2.000000
                       2.000000  2.000000  2.000000  2.000000  2.000000  2.000000
                       2.000000  2.000000  2.000000  2.000000  2.000000  2.000000
                       2.000000  2.000000  0.000000  0.000000  0.000000  0.000000
                       0.000000  0.000000  0.000000  0.000000  0.000000
        optdriver           1
            prtwf          -1
            rfdir           1       1       1
           rfelfd           2
            rprim      1.0547928511E+01  0.0000000000E+00  0.0000000000E+00
                       0.0000000000E+00  1.0547928511E+01  0.0000000000E+00
                       0.0000000000E+00  0.0000000000E+00  1.0547928511E+01
          spgroup         205
           strten      0.0000000000E+00  0.0000000000E+00  0.0000000000E+00
                       0.0000000000E+00  0.0000000000E+00  0.0000000000E+00
           symrel      1  0  0   0  1  0   0  0  1      -1  0  0   0 -1  0   0  0 -1
                      -1  0  0   0  1  0   0  0 -1       1  0  0   0 -1  0   0  0  1
                      -1  0  0   0 -1  0   0  0  1       1  0  0   0  1  0   0  0 -1
                       1  0  0   0 -1  0   0  0 -1      -1  0  0   0  1  0   0  0  1
                       0  0  1   1  0  0   0  1  0       0  0 -1  -1  0  0   0 -1  0
                       0  0 -1   1  0  0   0 -1  0       0  0  1  -1  0  0   0  1  0
                       0  0 -1  -1  0  0   0  1  0       0  0  1   1  0  0   0 -1  0
                       0  0  1  -1  0  0   0 -1  0       0  0 -1   1  0  0   0  1  0
                       0  1  0   0  0  1   1  0  0       0 -1  0   0  0 -1  -1  0  0
                       0 -1  0   0  0  1  -1  0  0       0  1  0   0  0 -1   1  0  0
                       0 -1  0   0  0 -1   1  0  0       0  1  0   0  0  1  -1  0  0
                       0  1  0   0  0 -1  -1  0  0       0 -1  0   0  0  1   1  0  0
            tnons      0.0000000  0.0000000  0.0000000     0.0000000  0.0000000  0.0000000
                       0.0000000  0.5000000  0.5000000     0.0000000  0.5000000  0.5000000
                       0.5000000  0.0000000  0.5000000     0.5000000  0.0000000  0.5000000
                       0.5000000  0.5000000  0.0000000     0.5000000  0.5000000  0.0000000
                       0.0000000  0.0000000  0.0000000     0.0000000  0.0000000  0.0000000
                       0.5000000  0.5000000  0.0000000     0.5000000  0.5000000  0.0000000
                       0.0000000  0.5000000  0.5000000     0.0000000  0.5000000  0.5000000
                       0.5000000  0.0000000  0.5000000     0.5000000  0.0000000  0.5000000
                       0.0000000  0.0000000  0.0000000     0.0000000  0.0000000  0.0000000
                       0.5000000  0.0000000  0.5000000     0.5000000  0.0000000  0.5000000
                       0.5000000  0.5000000  0.0000000     0.5000000  0.5000000  0.0000000
                       0.0000000  0.5000000  0.5000000     0.0000000  0.5000000  0.5000000
           tolwfr      1.00000000E-20
            typat      1  1  1  1  2  2  2  2  2  2  2  2
           useylm           1
              wtk        0.50000    0.50000
           xangst      0.0000000000E+00  2.7908616828E+00  2.7908616828E+00
                       2.7908616828E+00  2.7908616828E+00  0.0000000000E+00
                       2.7908616828E+00  0.0000000000E+00  2.7908616828E+00
                       0.0000000000E+00  0.0000000000E+00  0.0000000000E+00
                       2.1562476447E+00  6.3461403805E-01  4.9471093275E+00
                       6.3461403805E-01  4.9471093275E+00  2.1562476447E+00
                       4.9471093275E+00  2.1562476447E+00  6.3461403805E-01
                       3.4254757208E+00  3.4254757208E+00  3.4254757208E+00
                       2.1562476447E+00  2.1562476447E+00  2.1562476447E+00
                       6.3461403805E-01  3.4254757208E+00  4.9471093275E+00
                       4.9471093275E+00  6.3461403805E-01  3.4254757208E+00
                       3.4254757208E+00  4.9471093275E+00  6.3461403805E-01
            xcart      0.0000000000E+00  5.2739642553E+00  5.2739642553E+00
                       5.2739642553E+00  5.2739642553E+00  0.0000000000E+00
                       5.2739642553E+00  0.0000000000E+00  5.2739642553E+00
                       0.0000000000E+00  0.0000000000E+00  0.0000000000E+00
                       4.0747175232E+00  1.1992467320E+00  9.3486817785E+00
                       1.1992467320E+00  9.3486817785E+00  4.0747175232E+00
                       9.3486817785E+00  4.0747175232E+00  1.1992467320E+00
                       6.4732109873E+00  6.4732109873E+00  6.4732109873E+00
                       4.0747175232E+00  4.0747175232E+00  4.0747175232E+00
                       1.1992467320E+00  6.4732109873E+00  9.3486817785E+00
                       9.3486817785E+00  1.1992467320E+00  6.4732109873E+00
                       6.4732109873E+00  9.3486817785E+00  1.1992467320E+00
             xred      0.0000000000E+00  5.0000000000E-01  5.0000000000E-01
                       5.0000000000E-01  5.0000000000E-01  0.0000000000E+00
                       5.0000000000E-01  0.0000000000E+00  5.0000000000E-01
                       0.0000000000E+00  0.0000000000E+00  0.0000000000E+00
                       3.8630500000E-01  1.1369500000E-01  8.8630500000E-01
                       1.1369500000E-01  8.8630500000E-01  3.8630500000E-01
                       8.8630500000E-01  3.8630500000E-01  1.1369500000E-01
                       6.1369500000E-01  6.1369500000E-01  6.1369500000E-01
                       3.8630500000E-01  3.8630500000E-01  3.8630500000E-01
                       1.1369500000E-01  6.1369500000E-01  8.8630500000E-01
                       8.8630500000E-01  1.1369500000E-01  6.1369500000E-01
                       6.1369500000E-01  8.8630500000E-01  1.1369500000E-01
            znucl       44.00000   16.00000

- Timing analysis has been suppressed with timopt=0

 Suggested references for the acknowledgment of ABINIT usage.

 Calculation completed.
.Delivered   2 WARNINGs and   5 COMMENTs to log file.