.Version 9.5.1 of ABINIT

 ABINIT is a project of the Universite Catholique de Louvain,
 Corning Inc. and other collaborators, see ~abinit/doc/developers/contributors.txt .
 acknowledgments of the ABINIT effort.

.Starting date : Wed  5 May 2021.
- ( at 19h55 )

- input  file    -> /scratch/users/j/a/jabreu/flow_simple_7atoms/flow/w159/t1/run.abi
- output file    -> /scratch/users/j/a/jabreu/flow_simple_7atoms/flow/w159/t1/run.abo
- root for input  files -> /scratch/users/j/a/jabreu/flow_simple_7atoms/flow/w159/t1/indata/in
- root for output files -> /scratch/users/j/a/jabreu/flow_simple_7atoms/flow/w159/t1/outdata/out

 Symmetries : space group Pm -3 m (#221); Bravais cP (primitive cubic)
     intxc =       0      iscf =       7    lmnmax =      18     lnmax =       6
     mgfft =      64  mpssoang =       3    mqgrid =    3134     natom =       7
  nloc_mem =       1    nspden =       1   nspinor =       1    nsppol =       1
      nsym =      48    n1xccc =    2501    ntypat =       3    occopt =       1
   xclevel =       2
-    mband =          42        mffmem =           1         mkmem =           1
-   mkqmem =           1        mk1mem =           1           mpw =       16135
      nfft =      262144          nkpt =           1
  Rough estimation (10% accuracy) of disk space for files :

------------- Echo of variables that govern the present computation ------------
-
- outvars: echo of selected default values
-   iomode0 =  0 , fftalg0 =512 , wfoptalg0 =  0
-
- outvars: echo of global parameters not present in the input file
-  max_nthreads =    0
-
 -outvars: echo values of preprocessed input variables --------
            acell      1.0000000000E+00  1.0000000000E+00  1.0000000000E+00 Bohr
              amu      4.00780000E+01  7.49215900E+01  3.54527000E+01
             ecut      4.20000000E+01 Hartree
-          fftalg         512
           irdden           1
           irdwfk           1
           istwfk        1
              ixc     -116133
           kptopt           0
P           mkmem           1
P          mkqmem           1
P          mk1mem           1
            natom           7
            nband          42
           nbdbuf           4
            ngfft          64      64      64
             nkpt           1
            nstep        2000
             nsym          48
           ntypat           3
              occ      2.000000  2.000000  2.000000  2.000000  2.000000  2.000000
                       2.000000  2.000000  2.000000  2.000000  2.000000  2.000000
                       2.000000  2.000000  2.000000  2.000000  2.000000  2.000000
                       2.000000  2.000000  2.000000  2.000000  2.000000  2.000000
                       2.000000  2.000000  2.000000  2.000000  2.000000  2.000000
                       2.000000  2.000000  2.000000  0.000000  0.000000  0.000000
                       0.000000  0.000000  0.000000  0.000000  0.000000  0.000000
        optdriver           1
            prtwf          -1
            rfdir           1       1       1
           rfelfd           2
            rprim      1.0740606819E+01  0.0000000000E+00  0.0000000000E+00
                       0.0000000000E+00  1.0740606819E+01  0.0000000000E+00
                       0.0000000000E+00  0.0000000000E+00  1.0740606819E+01
          spgroup         221
           symrel      1  0  0   0  1  0   0  0  1      -1  0  0   0 -1  0   0  0 -1
                      -1  0  0   0  1  0   0  0 -1       1  0  0   0 -1  0   0  0  1
                      -1  0  0   0 -1  0   0  0  1       1  0  0   0  1  0   0  0 -1
                       1  0  0   0 -1  0   0  0 -1      -1  0  0   0  1  0   0  0  1
                       0  1  0   1  0  0   0  0  1       0 -1  0  -1  0  0   0  0 -1
                       0 -1  0   1  0  0   0  0 -1       0  1  0  -1  0  0   0  0  1
                       0 -1  0  -1  0  0   0  0  1       0  1  0   1  0  0   0  0 -1
                       0  1  0  -1  0  0   0  0 -1       0 -1  0   1  0  0   0  0  1
                       0  0  1   1  0  0   0  1  0       0  0 -1  -1  0  0   0 -1  0
                       0  0 -1   1  0  0   0 -1  0       0  0  1  -1  0  0   0  1  0
                       0  0 -1  -1  0  0   0  1  0       0  0  1   1  0  0   0 -1  0
                       0  0  1  -1  0  0   0 -1  0       0  0 -1   1  0  0   0  1  0
                       1  0  0   0  0  1   0  1  0      -1  0  0   0  0 -1   0 -1  0
                      -1  0  0   0  0  1   0 -1  0       1  0  0   0  0 -1   0  1  0
                      -1  0  0   0  0 -1   0  1  0       1  0  0   0  0  1   0 -1  0
                       1  0  0   0  0 -1   0 -1  0      -1  0  0   0  0  1   0  1  0
                       0  1  0   0  0  1   1  0  0       0 -1  0   0  0 -1  -1  0  0
                       0 -1  0   0  0  1  -1  0  0       0  1  0   0  0 -1   1  0  0
                       0 -1  0   0  0 -1   1  0  0       0  1  0   0  0  1  -1  0  0
                       0  1  0   0  0 -1  -1  0  0       0 -1  0   0  0  1   1  0  0
                       0  0  1   0  1  0   1  0  0       0  0 -1   0 -1  0  -1  0  0
                       0  0 -1   0  1  0  -1  0  0       0  0  1   0 -1  0   1  0  0
                       0  0 -1   0 -1  0   1  0  0       0  0  1   0  1  0  -1  0  0
                       0  0  1   0 -1  0  -1  0  0       0  0 -1   0  1  0   1  0  0
           tolwfr      1.00000000E-20
            typat      1  1  1  2  3  3  3
           useylm           1
           xangst      2.8418421676E+00  0.0000000000E+00  0.0000000000E+00
                       0.0000000000E+00  2.8418421676E+00  0.0000000000E+00
                       0.0000000000E+00  0.0000000000E+00  2.8418421676E+00
                       0.0000000000E+00  0.0000000000E+00  0.0000000000E+00
                       2.8418421676E+00  0.0000000000E+00  2.8418421676E+00
                       2.8418421676E+00  2.8418421676E+00  0.0000000000E+00
                       0.0000000000E+00  2.8418421676E+00  2.8418421676E+00
            xcart      5.3703034096E+00  0.0000000000E+00  0.0000000000E+00
                       0.0000000000E+00  5.3703034096E+00  0.0000000000E+00
                       0.0000000000E+00  0.0000000000E+00  5.3703034096E+00
                       0.0000000000E+00  0.0000000000E+00  0.0000000000E+00
                       5.3703034096E+00  0.0000000000E+00  5.3703034096E+00
                       5.3703034096E+00  5.3703034096E+00  0.0000000000E+00
                       0.0000000000E+00  5.3703034096E+00  5.3703034096E+00
             xred      5.0000000000E-01  0.0000000000E+00  0.0000000000E+00
                       0.0000000000E+00  5.0000000000E-01  0.0000000000E+00
                       0.0000000000E+00  0.0000000000E+00  5.0000000000E-01
                       0.0000000000E+00  0.0000000000E+00  0.0000000000E+00
                       5.0000000000E-01  0.0000000000E+00  5.0000000000E-01
                       5.0000000000E-01  5.0000000000E-01  0.0000000000E+00
                       0.0000000000E+00  5.0000000000E-01  5.0000000000E-01
            znucl       20.00000   33.00000   17.00000

 chkinp: Checking input parameters for consistency.

== DATASET  1 ==================================================================
-   mpi_nproc: 1, omp_nthreads: -1 (-1 if OMP is not activated)

--- !DatasetInfo
iteration_state: {dtset: 1, }
dimensions: {natom: 7, nkpt: 1, mband: 42, nsppol: 1, nspinor: 1, nspden: 1, mpw: 16135, }
cutoff_energies: {ecut:  42.0, pawecutdg:  -1.0, }
electrons: {nelect:   6.60000000E+01, charge:   0.00000000E+00, occopt:   1.00000000E+00, tsmear:   1.00000000E-02, }
meta: {optdriver: 1, rfelfd: 2, }
...

 Real(R)+Recip(G) space primitive vectors, cartesian coordinates (Bohr,Bohr^-1):
 R(1)= 10.7406068  0.0000000  0.0000000  G(1)=  0.0931046  0.0000000  0.0000000
 R(2)=  0.0000000 10.7406068  0.0000000  G(2)=  0.0000000  0.0931046  0.0000000
 R(3)=  0.0000000  0.0000000 10.7406068  G(3)=  0.0000000  0.0000000  0.0931046
 Unit cell volume ucvol=  1.2390432E+03 bohr^3
 Angles (23,13,12)=  9.00000000E+01  9.00000000E+01  9.00000000E+01 degrees

 getcut: wavevector=  0.0000  0.0000  0.0000  ngfft=  64  64  64
         ecut(hartree)=     42.000   => boxcut(ratio)=   2.04250

--- Pseudopotential description ------------------------------------------------
- pspini: atom type   1  psp file is /scratch/users/j/a/jabreu/pseudos/PBEsol/Ca.psp8
- pspatm: opening atomic psp file    /scratch/users/j/a/jabreu/pseudos/PBEsol/Ca.psp8
- Ca    ONCVPSP-3.3.0  r_core=   1.45885   1.45885   1.85192
- 20.00000  10.00000    180112                znucl, zion, pspdat
    8 -116133    2    4       400   0.00000   pspcod,pspxc,lmax,lloc,mmax,r2well
    3.99000000000000    6.00000000000000    0.00000000000000   rchrg,fchrg,qchrg
     nproj     2     2     2
     extension_switch     1
  pspatm : epsatm=   12.46045226
         --- l  ekb(1:nproj) -->
             0   10.054847    0.973777
             1    2.998958    0.458102
             2   -3.447298   -1.091650
 pspatm: atomic psp has been read  and splines computed

- pspini: atom type   2  psp file is /scratch/users/j/a/jabreu/pseudos/PBEsol/As.psp8
- pspatm: opening atomic psp file    /scratch/users/j/a/jabreu/pseudos/PBEsol/As.psp8
- As    ONCVPSP-3.3.0  r_core=   1.76603   1.70395   1.80867
- 33.00000  15.00000    180112                znucl, zion, pspdat
    8 -116133    2    4       600   0.00000   pspcod,pspxc,lmax,lloc,mmax,r2well
    5.99000000000000    5.00000000000000    0.00000000000000   rchrg,fchrg,qchrg
     nproj     2     2     2
     extension_switch     1
  pspatm : epsatm=   28.79155382
         --- l  ekb(1:nproj) -->
             0    8.270760    0.868950
             1    4.919053    0.756587
             2  -10.048665   -4.076802
 pspatm: atomic psp has been read  and splines computed

- pspini: atom type   3  psp file is /scratch/users/j/a/jabreu/pseudos/PBEsol/Cl.psp8
- pspatm: opening atomic psp file    /scratch/users/j/a/jabreu/pseudos/PBEsol/Cl.psp8
- Cl    ONCVPSP-3.3.0  r_core=   1.56009   1.35202   1.75774
- 17.00000   7.00000    180112                znucl, zion, pspdat
    8 -116133    2    4       600   0.00000   pspcod,pspxc,lmax,lloc,mmax,r2well
    5.99000000000000    8.00000000000000    0.00000000000000   rchrg,fchrg,qchrg
     nproj     2     2     2
     extension_switch     1
  pspatm : epsatm=    8.95520722
         --- l  ekb(1:nproj) -->
             0    8.193503    0.707970
             1    3.869736    1.114731
             2   -2.915303   -0.810552
 pspatm: atomic psp has been read  and splines computed

   6.14054313E+03                                ecore*ucvol(ha*bohr**3)

-inwffil : will read wavefunctions from disk file /scratch/users/j/a/jabreu/flow_simple_7atoms/flow/w159/t1/indata/in_WFK

 ==>  initialize data related to q vector <==

 The list of irreducible perturbations for this q vector is:
    1)    idir= 1    ipert=   8
    2)    idir= 2    ipert=   8
    3)    idir= 3    ipert=   8

 Perturbation wavevector (in red.coord.)   0.000000  0.000000  0.000000
 Perturbation : derivative vs k along direction   1

 dfpt_looppert : COMMENT -
[...]
   0.00000    0.00000    0.00000   -0.00000   -0.00000   -0.00000    0.00000    0.00000
   0.00000    0.00000    0.00000    0.00000    0.00000   -0.00000   -0.00000   -0.00000
  -0.00000   -0.00000

 Eight components of 2nd-order total energy (hartree) are
 1,2,3: 0th-order hamiltonian combined with 1st-order wavefunctions
     kin0=   5.78695540E+01 eigvalue=   2.65588974E+00  local=  -3.54578214E+01
 4,5,6: 1st-order hamiltonian combined with 1st and 0th-order wfs
     kin1=  -5.97458916E+01  Hartree=   0.00000000E+00     xc=   0.00000000E+00
 7,8,9: eventually, occupation + non-local contributions
    edocc=   9.71244806E+00     enl0=   8.28138777E-01   enl1=  -1.14705268E+01
 1-9 gives the relaxation energy (to be shifted if some occ is /=2.0)
   erelax=  -3.56082092E+01
  No Ewald or frozen-wf contrib.: the relaxation energy is the total one
 2DEtotal=   -0.3560820920E+02 Ha. Also 2DEtotal=   -0.968948649170E+03 eV
    (  non-var. 2DEtotal :   -3.5608209202E+01 Ha)

 Perturbation wavevector (in red.coord.)   0.000000  0.000000  0.000000
 Perturbation : derivative vs k along direction   2
 The set of symmetries contains only one element for this perturbation.
 symkpt : not enough symmetry to change the number of k points.

[...]

 Perturbation wavevector (in red.coord.)   0.000000  0.000000  0.000000
 Perturbation : derivative vs k along direction   3
 The set of symmetries contains only one element for this perturbation.
 symkpt : not enough symmetry to change the number of k points.

-inwffil : will read wavefunctions from disk file /scratch/users/j/a/jabreu/flow_simple_7atoms/flow/w159/t1/indata/in_WFK

 Initialisation of the first-order wave-functions :
  ireadwf=   0

--- !BeginCycle
iteration_state: {dtset: 1, }
solver: {iscf: 7, nstep: 2000, nline: 4, wfoptalg: 0, }
tolerances: {tolwfr: 1.00E-20, }
...

     iter   2DEtotal(Ha)        deltaE(Ha) residm    vres2
-ETOT  1  -35.292594999726     -3.529E+01 1.055E-01 0.000E+00
 ETOT  2  -35.578821330394     -2.862E-01 1.967E-02 0.000E+00
 ETOT  3  -35.604339614136     -2.552E-02 1.468E-03 0.000E+00
 ETOT  4  -35.607630296692     -3.291E-03 3.244E-04 0.000E+00
 ETOT  5  -35.608116122215     -4.858E-04 3.288E-05 0.000E+00
 ETOT  6  -35.608193732539     -7.761E-05 8.928E-06 0.000E+00
 ETOT  7  -35.608206595084     -1.286E-05 8.882E-07 0.000E+00
 ETOT  8  -35.608208756835     -2.162E-06 2.581E-07 0.000E+00
 ETOT  9  -35.608209124553     -3.677E-07 2.526E-08 0.000E+00
 ETOT 10  -35.608209187465     -6.291E-08 7.543E-09 0.000E+00
 ETOT 11  -35.608209198308     -1.084E-08 7.294E-10 0.000E+00
 ETOT 12  -35.608209200185     -1.877E-09 2.210E-10 0.000E+00
 ETOT 13  -35.608209200511     -3.264E-10 2.124E-11 0.000E+00
 ETOT 14  -35.608209200568     -5.706E-11 6.485E-12 0.000E+00
 ETOT 15  -35.608209200578     -9.862E-12 6.212E-13 0.000E+00
 ETOT 16  -35.608209200580     -1.847E-12 1.905E-13 0.000E+00
 ETOT 17  -35.608209200580     -3.268E-13 1.822E-14 0.000E+00
 ETOT 18  -35.608209200580     -8.527E-14 5.602E-15 0.000E+00
 ETOT 19  -35.608209200580      2.842E-14 5.351E-16 0.000E+00
 ETOT 20  -35.608209200580      0.000E+00 1.649E-16 0.000E+00
 ETOT 21  -35.608209200580     -1.421E-14 1.574E-17 0.000E+00
 ETOT 22  -35.608209200581     -5.684E-14 4.857E-18 0.000E+00
 ETOT 23  -35.608209200580      1.066E-13 4.632E-19 0.000E+00
 ETOT 24  -35.608209200581     -1.350E-13 1.432E-19 0.000E+00
 ETOT 25  -35.608209200580      7.105E-14 1.528E-20 0.000E+00
 ETOT 26  -35.608209200580      2.132E-14 9.472E-21 0.000E+00

 At SCF step   26   max residual=  9.47E-21 < tolwfr=  1.00E-20 =>converged.

 ----iterations are completed or convergence reached----

 dfpt_looppert: DFPT cycle converged with prtwf=-1. Will skip output of the 1st-order WFK file.
 dfpt_looppert : ek2=    4.5172698042E+01
          f-sum rule ratio=    1.3226106513E+00
 prteigrs : about to open file /scratch/users/j/a/jabreu/flow_simple_7atoms/flow/w159/t1/tmpdata/tmp_1WF1_EIG
 Expectation of eigenvalue derivatives (hartree) for nkpt=   1  k points:
  (in case of degenerate eigenvalues, averaged derivative)
 kpt#   1, nband= 42, wtk=  1.00000, kpt=  0.0000  0.0000  0.0000 (reduced coord)
   0.00000   -0.00000   -0.00000    0.00000    0.00000    0.00000    0.00000    0.00000
   0.00000    0.00000    0.00000   -0.00000   -0.00000   -0.00000    0.00000    0.00000
   0.00000   -0.00000    0.00000    0.00000   -0.00000    0.00000    0.00000    0.00000
   0.00000    0.00000    0.00000    0.00000    0.00000    0.00000    0.00000    0.00000
   0.00000   -0.00000   -0.00000   -0.00000    0.00000   -0.00000   -0.00000   -0.00000
  -0.00000   -0.00000

 Eight components of 2nd-order total energy (hartree) are
 1,2,3: 0th-order hamiltonian combined with 1st-order wavefunctions
     kin0=   5.78695540E+01 eigvalue=   2.65588974E+00  local=  -3.54578214E+01
 4,5,6: 1st-order hamiltonian combined with 1st and 0th-order wfs
     kin1=  -5.97458916E+01  Hartree=   0.00000000E+00     xc=   0.00000000E+00
 7,8,9: eventually, occupation + non-local contributions
    edocc=   9.71244804E+00     enl0=   8.28138802E-01   enl1=  -1.14705268E+01
 1-9 gives the relaxation energy (to be shifted if some occ is /=2.0)
   erelax=  -3.56082092E+01
  No Ewald or frozen-wf contrib.: the relaxation energy is the total one
 2DEtotal=   -0.3560820920E+02 Ha. Also 2DEtotal=   -0.968948649124E+03 eV
    (  non-var. 2DEtotal :   -3.5608209200E+01 Ha)

 CALCULATION OF EFFECTIVE MASSES
 NOTE : Additional infos (eff. mass eigenvalues, eigenvectors and, if degenerate, average mass) are available in stdout.

 COMMENTS:
 - At k-point ( 0.000, 0.000, 0.000), bands    31 through    33
   are DEGENERATE (effective mass tensor is therefore not defined).
   See Section IIIB Eqs. (67)-(70) and Appendix E of PRB 93 205147 (2016).
 - Angular average effective mass for Frohlich model is to be averaged over degenerate bands. See later.
 - Associated theta integrals calculated with ntheta=   1000 points.

 K-point ( 0.000, 0.000, 0.000) | band =    31
 Transport equivalent effective mass tensor:
             -0.2383071580              0.0000000000              0.0000000000
              0.0000000000             -0.2383071580              0.0000000000
              0.0000000000              0.0000000000             -0.2383071581
 Transport equivalent effective mass tensor eigenvalues:
             -0.2383071581             -0.2383071580             -0.2383071580
 Angular average effective mass 1/(<1/m>)=  -0.2343256308
 Angular average effective mass for Frohlich model (<m**0.5>)**2=  -0.2346011505
 Effective masses along directions: (cart. coord. / red. coord. -> eff. mass)
    1:   1.000000  0.000000  0.000000 /   1.000000  0.000000  0.000000 ->  -0.2157555012
    2:   0.000000  1.000000  0.000000 /   0.000000  1.000000  0.000000 ->  -0.2157555012
    3:   0.000000  0.000000  1.000000 /   0.000000  0.000000  1.000000 ->  -0.2157555012
    4:   0.577350  0.577350  0.577350 /   0.577350  0.577350  0.577350 ->  -0.2501099514
    5:   0.000000  0.707107  0.707107 /   0.000000  0.707107  0.707107 ->  -0.2405349399
    6:   0.707107  0.000000  0.707107 /   0.707107  0.000000  0.707107 ->  -0.2405349399
    7:   0.707107  0.707107  0.000000 /   0.707107  0.707107  0.000000 ->  -0.2405349399

[...]

 Angular average effective mass for Frohlich model, averaged over degenerate bands.
 Value of     (<<m**0.5>>)**2 =     4.230180E-01
 Absolute Value of <<m**0.5>> =     6.503983E-01

 COMMENTS:
 - At k-point ( 0.000, 0.000, 0.000), bands    34 through    36
   are DEGENERATE (effective mass tensor is therefore not defined).
   See Section IIIB Eqs. (67)-(70) and Appendix E of PRB 93 205147 (2016).
 - Angular average effective mass for Frohlich model is to be averaged over degenerate bands. See later.
 - Associated theta integrals calculated with ntheta=   1000 points.

[...]

 K-point ( 0.000, 0.000, 0.000) | band =    36
 Transport equivalent effective mass tensor:
              0.3007124586             -0.0000000000             -0.0000000000
             -0.0000000000              0.3007124586             -0.0000000000
             -0.0000000000             -0.0000000000              0.3007124586
 Transport equivalent effective mass tensor eigenvalues:
              0.3007124586              0.3007124586              0.3007124586
 Angular average effective mass 1/(<1/m>)=   0.2998193774
 Angular average effective mass for Frohlich model (<m**0.5>)**2=   0.2998589744
 Effective masses along directions: (cart. coord. / red. coord. -> eff. mass)
    1:   1.000000  0.000000  0.000000 /   1.000000  0.000000  0.000000 ->   0.2956172180
    2:   0.000000  1.000000  0.000000 /   0.000000  1.000000  0.000000 ->   0.2956172180
    3:   0.000000  0.000000  1.000000 /   0.000000  0.000000  1.000000 ->   0.2956172180
    4:   0.577350  0.577350  0.577350 /   0.577350  0.577350  0.577350 ->   0.3093511656
    5:   0.000000  0.707107  0.707107 /   0.000000  0.707107  0.707107 ->   0.2956172180
    6:   0.707107  0.000000  0.707107 /   0.707107  0.000000  0.707107 ->   0.2956172180
    7:   0.707107  0.707107  0.000000 /   0.707107  0.707107  0.000000 ->   0.2956172180

 Angular average effective mass for Frohlich model, averaged over degenerate bands.
 Value of     (<<m**0.5>>)**2 =     5.070048E-01
 Absolute Value of <<m**0.5>> =     7.120427E-01

 END OF EFFECTIVE MASSES SECTION

 ---- first-order wavefunction calculations are completed ----

 Total localisation tensor (bohr^2) in cartesian coordinates
  WARNING : still subject to testing - especially symmetries.
      direction              matrix element
   alpha     beta       real part   imaginary part
     1        1       2.3354713828    0.0000000000
     1        2       0.0000000000    0.0000000000
     1        3       0.0000000000    0.0000000000
     2        1       0.0000000000    0.0000000000
     2        2       2.3354713828    0.0000000000
     2        3       0.0000000000    0.0000000000
     3        1       0.0000000000    0.0000000000
     3        2       0.0000000000    0.0000000000
     3        3       2.3354713826    0.0000000000

 respfn : d/dk was computed, but no 2DTE, so no DDB output.

== END DATASET(S) ==============================================================

 -outvars: echo values of variables after computation  --------
            acell      1.0000000000E+00  1.0000000000E+00  1.0000000000E+00 Bohr
              amu      4.00780000E+01  7.49215900E+01  3.54527000E+01
             ecut      4.20000000E+01 Hartree
           etotal     -3.5608209201E+01
            fcart      0.0000000000E+00  0.0000000000E+00  0.0000000000E+00
                       0.0000000000E+00  0.0000000000E+00  0.0000000000E+00
                       0.0000000000E+00  0.0000000000E+00  0.0000000000E+00
                       0.0000000000E+00  0.0000000000E+00  0.0000000000E+00
                       0.0000000000E+00  0.0000000000E+00  0.0000000000E+00
                       0.0000000000E+00  0.0000000000E+00  0.0000000000E+00
                       0.0000000000E+00  0.0000000000E+00  0.0000000000E+00
-          fftalg         512
           irdden           1
           irdwfk           1
           istwfk        1
              ixc     -116133
           kptopt           0
P           mkmem           1
P          mkqmem           1
P          mk1mem           1
            natom           7
            nband          42
           nbdbuf           4
            ngfft          64      64      64
             nkpt           1
            nstep        2000
             nsym          48
           ntypat           3
              occ      2.000000  2.000000  2.000000  2.000000  2.000000  2.000000
                       2.000000  2.000000  2.000000  2.000000  2.000000  2.000000
                       2.000000  2.000000  2.000000  2.000000  2.000000  2.000000
                       2.000000  2.000000  2.000000  2.000000  2.000000  2.000000
                       2.000000  2.000000  2.000000  2.000000  2.000000  2.000000
                       2.000000  2.000000  2.000000  0.000000  0.000000  0.000000
                       0.000000  0.000000  0.000000  0.000000  0.000000  0.000000
        optdriver           1
            prtwf          -1
            rfdir           1       1       1
           rfelfd           2
            rprim      1.0740606819E+01  0.0000000000E+00  0.0000000000E+00
                       0.0000000000E+00  1.0740606819E+01  0.0000000000E+00
                       0.0000000000E+00  0.0000000000E+00  1.0740606819E+01
          spgroup         221
           strten      0.0000000000E+00  0.0000000000E+00  0.0000000000E+00
                       0.0000000000E+00  0.0000000000E+00  0.0000000000E+00
           symrel      1  0  0   0  1  0   0  0  1      -1  0  0   0 -1  0   0  0 -1
                      -1  0  0   0  1  0   0  0 -1       1  0  0   0 -1  0   0  0  1
                      -1  0  0   0 -1  0   0  0  1       1  0  0   0  1  0   0  0 -1
                       1  0  0   0 -1  0   0  0 -1      -1  0  0   0  1  0   0  0  1
                       0  1  0   1  0  0   0  0  1       0 -1  0  -1  0  0   0  0 -1
                       0 -1  0   1  0  0   0  0 -1       0  1  0  -1  0  0   0  0  1
                       0 -1  0  -1  0  0   0  0  1       0  1  0   1  0  0   0  0 -1
                       0  1  0  -1  0  0   0  0 -1       0 -1  0   1  0  0   0  0  1
                       0  0  1   1  0  0   0  1  0       0  0 -1  -1  0  0   0 -1  0
                       0  0 -1   1  0  0   0 -1  0       0  0  1  -1  0  0   0  1  0
                       0  0 -1  -1  0  0   0  1  0       0  0  1   1  0  0   0 -1  0
                       0  0  1  -1  0  0   0 -1  0       0  0 -1   1  0  0   0  1  0
                       1  0  0   0  0  1   0  1  0      -1  0  0   0  0 -1   0 -1  0
                      -1  0  0   0  0  1   0 -1  0       1  0  0   0  0 -1   0  1  0
                      -1  0  0   0  0 -1   0  1  0       1  0  0   0  0  1   0 -1  0
                       1  0  0   0  0 -1   0 -1  0      -1  0  0   0  0  1   0  1  0
                       0  1  0   0  0  1   1  0  0       0 -1  0   0  0 -1  -1  0  0
                       0 -1  0   0  0  1  -1  0  0       0  1  0   0  0 -1   1  0  0
                       0 -1  0   0  0 -1   1  0  0       0  1  0   0  0  1  -1  0  0
                       0  1  0   0  0 -1  -1  0  0       0 -1  0   0  0  1   1  0  0
                       0  0  1   0  1  0   1  0  0       0  0 -1   0 -1  0  -1  0  0
                       0  0 -1   0  1  0  -1  0  0       0  0  1   0 -1  0   1  0  0
                       0  0 -1   0 -1  0   1  0  0       0  0  1   0  1  0  -1  0  0
                       0  0  1   0 -1  0  -1  0  0       0  0 -1   0  1  0   1  0  0
           tolwfr      1.00000000E-20
            typat      1  1  1  2  3  3  3
           useylm           1
           xangst      2.8418421676E+00  0.0000000000E+00  0.0000000000E+00
                       0.0000000000E+00  2.8418421676E+00  0.0000000000E+00
                       0.0000000000E+00  0.0000000000E+00  2.8418421676E+00
                       0.0000000000E+00  0.0000000000E+00  0.0000000000E+00
                       2.8418421676E+00  0.0000000000E+00  2.8418421676E+00
                       2.8418421676E+00  2.8418421676E+00  0.0000000000E+00
                       0.0000000000E+00  2.8418421676E+00  2.8418421676E+00
            xcart      5.3703034096E+00  0.0000000000E+00  0.0000000000E+00
                       0.0000000000E+00  5.3703034096E+00  0.0000000000E+00
                       0.0000000000E+00  0.0000000000E+00  5.3703034096E+00
                       0.0000000000E+00  0.0000000000E+00  0.0000000000E+00
                       5.3703034096E+00  0.0000000000E+00  5.3703034096E+00
                       5.3703034096E+00  5.3703034096E+00  0.0000000000E+00
                       0.0000000000E+00  5.3703034096E+00  5.3703034096E+00
             xred      5.0000000000E-01  0.0000000000E+00  0.0000000000E+00
                       0.0000000000E+00  5.0000000000E-01  0.0000000000E+00
                       0.0000000000E+00  0.0000000000E+00  5.0000000000E-01
                       0.0000000000E+00  0.0000000000E+00  0.0000000000E+00
                       5.0000000000E-01  0.0000000000E+00  5.0000000000E-01
                       5.0000000000E-01  5.0000000000E-01  0.0000000000E+00
                       0.0000000000E+00  5.0000000000E-01  5.0000000000E-01
            znucl       20.00000   33.00000   17.00000

- Timing analysis has been suppressed with timopt=0

 Suggested references for the acknowledgment of ABINIT usage.

 Calculation completed.
.Delivered   6 WARNINGs and   5 COMMENTs to log file.