.Version 9.5.1 of ABINIT

 ABINIT is a project of the Universite Catholique de Louvain,
 Corning Inc. and other collaborators, see ~abinit/doc/developers/contributors.txt .
 acknowledgments of the ABINIT effort.

.Starting date : Sun 25 Apr 2021.
- ( at 17h18 )

- input  file    -> /scratch/users/j/a/jabreu/flow_simple2/flow/w164/t1/run.abi
- output file    -> /scratch/users/j/a/jabreu/flow_simple2/flow/w164/t1/run.abo
- root for input  files -> /scratch/users/j/a/jabreu/flow_simple2/flow/w164/t1/indata/in
- root for output files -> /scratch/users/j/a/jabreu/flow_simple2/flow/w164/t1/outdata/out

 Symmetries : space group Pm -3 m (#221); Bravais cP (primitive cubic)
     intxc =       0      iscf =       7    lmnmax =      32     lnmax =       8
     mgfft =      36  mpssoang =       4    mqgrid =    3001     natom =       2
  nloc_mem =       1    nspden =       1   nspinor =       1    nsppol =       1
      nsym =      48    n1xccc =    2501    ntypat =       2    occopt =       1
   xclevel =       2
-    mband =          17        mffmem =           1         mkmem =           1
-   mkqmem =           1        mk1mem =           1           mpw =        2945
      nfft =       46656          nkpt =           1
  Rough estimation (10% accuracy) of disk space for files :

------------- Echo of variables that govern the present computation ------------
-
- outvars: echo of selected default values
-   iomode0 =  0 , fftalg0 =512 , wfoptalg0 =  0
-
- outvars: echo of global parameters not present in the input file
-  max_nthreads =    0
-
 -outvars: echo values of preprocessed input variables --------
            acell      1.0000000000E+00  1.0000000000E+00  1.0000000000E+00 Bohr
              amu      1.32905430E+02  7.99040000E+01
             ecut      2.40000000E+01 Hartree
-          fftalg         512
           irdden           1
           irdwfk           1
           istwfk        1
              ixc     -116133
           kptopt           0
P           mkmem           1
P          mkqmem           1
P          mk1mem           1
            natom           2
            nband          17
           nbdbuf           4
            ngfft          36      36      36
             nkpt           1
            nstep         100
             nsym          48
           ntypat           2
              occ      2.000000  2.000000  2.000000  2.000000  2.000000  2.000000
                       2.000000  2.000000  0.000000  0.000000  0.000000  0.000000
                       0.000000  0.000000  0.000000  0.000000  0.000000
        optdriver           1
            prtwf          -1
            rfdir           1       1       1
           rfelfd           2
            rprim      8.0123327926E+00  0.0000000000E+00  0.0000000000E+00
                       0.0000000000E+00  8.0123327926E+00  0.0000000000E+00
                       0.0000000000E+00  0.0000000000E+00  8.0123327926E+00
          spgroup         221
           symrel      1  0  0   0  1  0   0  0  1      -1  0  0   0 -1  0   0  0 -1
                      -1  0  0   0  1  0   0  0 -1       1  0  0   0 -1  0   0  0  1
                      -1  0  0   0 -1  0   0  0  1       1  0  0   0  1  0   0  0 -1
                       1  0  0   0 -1  0   0  0 -1      -1  0  0   0  1  0   0  0  1
                       0  1  0   1  0  0   0  0  1       0 -1  0  -1  0  0   0  0 -1
                       0 -1  0   1  0  0   0  0 -1       0  1  0  -1  0  0   0  0  1
                       0 -1  0  -1  0  0   0  0  1       0  1  0   1  0  0   0  0 -1
                       0  1  0  -1  0  0   0  0 -1       0 -1  0   1  0  0   0  0  1
                       0  0  1   1  0  0   0  1  0       0  0 -1  -1  0  0   0 -1  0
                       0  0 -1   1  0  0   0 -1  0       0  0  1  -1  0  0   0  1  0
                       0  0 -1  -1  0  0   0  1  0       0  0  1   1  0  0   0 -1  0
                       0  0  1  -1  0  0   0 -1  0       0  0 -1   1  0  0   0  1  0
                       1  0  0   0  0  1   0  1  0      -1  0  0   0  0 -1   0 -1  0
                      -1  0  0   0  0  1   0 -1  0       1  0  0   0  0 -1   0  1  0
                      -1  0  0   0  0 -1   0  1  0       1  0  0   0  0  1   0 -1  0
                       1  0  0   0  0 -1   0 -1  0      -1  0  0   0  0  1   0  1  0
                       0  1  0   0  0  1   1  0  0       0 -1  0   0  0 -1  -1  0  0
                       0 -1  0   0  0  1  -1  0  0       0  1  0   0  0 -1   1  0  0
                       0 -1  0   0  0 -1   1  0  0       0  1  0   0  0  1  -1  0  0
                       0  1  0   0  0 -1  -1  0  0       0 -1  0   0  0  1   1  0  0
                       0  0  1   0  1  0   1  0  0       0  0 -1   0 -1  0  -1  0  0
                       0  0 -1   0  1  0  -1  0  0       0  0  1   0 -1  0   1  0  0
                       0  0 -1   0 -1  0   1  0  0       0  0  1   0  1  0  -1  0  0
                       0  0  1   0 -1  0  -1  0  0       0  0 -1   0  1  0   1  0  0
           tolwfr      1.00000000E-20
            typat      1  2
           useylm           1
           xangst      0.0000000000E+00  0.0000000000E+00  0.0000000000E+00
                       2.1199719507E+00  2.1199719507E+00  2.1199719507E+00
            xcart      0.0000000000E+00  0.0000000000E+00  0.0000000000E+00
                       4.0061663963E+00  4.0061663963E+00  4.0061663963E+00
             xred      0.0000000000E+00  0.0000000000E+00  0.0000000000E+00
                       5.0000000000E-01  5.0000000000E-01  5.0000000000E-01
            znucl       55.00000   35.00000

 chkinp: Checking input parameters for consistency.

== DATASET  1 ==================================================================
-   mpi_nproc: 1, omp_nthreads: -1 (-1 if OMP is not activated)

--- !DatasetInfo
iteration_state: {dtset: 1, }
dimensions: {natom: 2, nkpt: 1, mband: 17, nsppol: 1, nspinor: 1, nspden: 1, mpw: 2945, }
cutoff_energies: {ecut:  24.0, pawecutdg:  -1.0, }
electrons: {nelect:   1.60000000E+01, charge:   0.00000000E+00, occopt:   1.00000000E+00, tsmear:   1.00000000E-02, }
meta: {optdriver: 1, rfelfd: 2, }
...

 Real(R)+Recip(G) space primitive vectors, cartesian coordinates (Bohr,Bohr^-1):
 R(1)=  8.0123328  0.0000000  0.0000000  G(1)=  0.1248076  0.0000000  0.0000000
 R(2)=  0.0000000  8.0123328  0.0000000  G(2)=  0.0000000  0.1248076  0.0000000
 R(3)=  0.0000000  0.0000000  8.0123328  G(3)=  0.0000000  0.0000000  0.1248076
 Unit cell volume ucvol=  5.1437155E+02 bohr^3
 Angles (23,13,12)=  9.00000000E+01  9.00000000E+01  9.00000000E+01 degrees

 getcut: wavevector=  0.0000  0.0000  0.0000  ngfft=  36  36  36
         ecut(hartree)=     24.000   => boxcut(ratio)=   2.03738

--- Pseudopotential description ------------------------------------------------
- pspini: atom type   1  psp file is /scratch/users/j/a/jabreu/pseudos/PBEsol/Cs.psp8
- pspatm: opening atomic psp file    /scratch/users/j/a/jabreu/pseudos/PBEsol/Cs.psp8
- Cs    ONCVPSP-3.3.0  r_core=   2.27353   1.85623   2.01788   1.90105
- 55.00000   9.00000    180112                znucl, zion, pspdat
    8 -116133    3    4       600   0.00000   pspcod,pspxc,lmax,lloc,mmax,r2well
    5.99000000000000    5.00000000000000    0.00000000000000   rchrg,fchrg,qchrg
     nproj     2     2     2     2
     extension_switch     1
  pspatm : epsatm=   22.12462445
         --- l  ekb(1:nproj) -->
             0    6.214110    0.767882
             1    6.311966    0.793598
             2    3.769790    0.913105
             3   -9.247129   -2.432478
 pspatm: atomic psp has been read  and splines computed

- pspini: atom type   2  psp file is /scratch/users/j/a/jabreu/pseudos/PBEsol/Br.psp8
- pspatm: opening atomic psp file    /scratch/users/j/a/jabreu/pseudos/PBEsol/Br.psp8
- Br    ONCVPSP-3.3.0  r_core=   1.81012   1.51356   1.92136
- 35.00000   7.00000    180112                znucl, zion, pspdat
    8 -116133    2    4       600   0.00000   pspcod,pspxc,lmax,lloc,mmax,r2well
    5.99000000000000    8.00000000000000    0.00000000000000   rchrg,fchrg,qchrg
     nproj     2     2     2
     extension_switch     1
  pspatm : epsatm=   10.94933070
         --- l  ekb(1:nproj) -->
             0    8.508690    0.897946
             1    5.393311    0.892021
             2    2.527513    0.394763
 pspatm: atomic psp has been read  and splines computed

   5.29183282E+02                                ecore*ucvol(ha*bohr**3)

-inwffil : will read wavefunctions from disk file /scratch/users/j/a/jabreu/flow_simple2/flow/w164/t1/indata/in_WFK

 ==>  initialize data related to q vector <==

 The list of irreducible perturbations for this q vector is:
    1)    idir= 1    ipert=   3
    2)    idir= 2    ipert=   3
    3)    idir= 3    ipert=   3

 Perturbation wavevector (in red.coord.)   0.000000  0.000000  0.000000
 Perturbation : derivative vs k along direction   1

 dfpt_looppert : COMMENT -
  In a d/dk calculation, iscf is set to -3 automatically.
 The set of symmetries contains only one element for this perturbation.
 symkpt : not enough symmetry to change the number of k points.

[...]

 Initialisation of the first-order wave-functions :
  ireadwf=   0

--- !BeginCycle
iteration_state: {dtset: 1, }
solver: {iscf: 7, nstep: 100, nline: 4, wfoptalg: 0, }
tolerances: {tolwfr: 1.00E-20, }
...

     iter   2DEtotal(Ha)        deltaE(Ha) residm    vres2
-ETOT  1  -14.857223535744     -1.486E+01 4.457E-02 0.000E+00
 ETOT  2  -14.858531895715     -1.308E-03 6.733E-03 0.000E+00
 ETOT  3  -14.858532953062     -1.057E-06 4.886E-05 0.000E+00
 ETOT  4  -14.858532958637     -5.575E-09 1.661E-05 0.000E+00
 ETOT  5  -14.858532958694     -5.698E-11 3.241E-07 0.000E+00
 ETOT  6  -14.858532958694     -6.679E-13 7.017E-08 0.000E+00
 ETOT  7  -14.858532958694      2.665E-14 2.270E-09 0.000E+00
 ETOT  8  -14.858532958694      8.882E-15 4.897E-10 0.000E+00
 ETOT  9  -14.858532958694     -5.329E-15 1.840E-11 0.000E+00
 ETOT 10  -14.858532958694     -2.665E-14 4.265E-12 0.000E+00
 ETOT 11  -14.858532958694      0.000E+00 1.843E-13 0.000E+00
 ETOT 12  -14.858532958694      1.776E-15 4.261E-14 0.000E+00
 ETOT 13  -14.858532958694     -5.329E-15 2.367E-15 0.000E+00
 ETOT 14  -14.858532958694      0.000E+00 5.205E-16 0.000E+00
 ETOT 15  -14.858532958694     -1.776E-15 4.157E-17 0.000E+00
 ETOT 16  -14.858532958694      1.776E-15 8.650E-18 0.000E+00
 ETOT 17  -14.858532958694     -3.553E-15 8.949E-19 0.000E+00
 ETOT 18  -14.858532958694      5.329E-15 1.834E-19 0.000E+00
 ETOT 19  -14.858532958694      0.000E+00 2.097E-20 0.000E+00
 ETOT 20  -14.858532958694      0.000E+00 9.636E-21 0.000E+00

 At SCF step   20   max residual=  9.64E-21 < tolwfr=  1.00E-20 =>converged.

 ----iterations are completed or convergence reached----

 dfpt_looppert: DFPT cycle converged with prtwf=-1. Will skip output of the 1st-order WFK file.
 dfpt_looppert : ek2=    1.9678489354E+01
          f-sum rule ratio=    1.3854080979E+00
 prteigrs : about to open file /scratch/users/j/a/jabreu/flow_simple2/flow/w164/t1/tmpdata/tmp_1WF1_EIG
 Expectation of eigenvalue derivatives (hartree) for nkpt=   1  k points:
  (in case of degenerate eigenvalues, averaged derivative)
 kpt#   1, nband= 17, wtk=  1.00000, kpt=  0.0000  0.0000  0.0000 (reduced coord)
   0.00000   -0.00000    0.00000    0.00000    0.00000   -0.00000   -0.00000   -0.00000
  -0.00000    0.00000    0.00000   -0.00000   -0.00000   -0.00000   -0.00000   -0.00000
  -0.00000

 Eight components of 2nd-order total energy (hartree) are
 1,2,3: 0th-order hamiltonian combined with 1st-order wavefunctions
     kin0=   4.18562779E+00 eigvalue=   9.14145978E-02  local=  -2.33386587E+00
 4,5,6: 1st-order hamiltonian combined with 1st and 0th-order wfs
     kin1=  -2.72627385E+01  Hartree=   0.00000000E+00     xc=   0.00000000E+00
 7,8,9: eventually, occupation + non-local contributions
    edocc=   1.18496613E+01     enl0=   1.06569515E+00   enl1=  -2.45432741E+00
 1-9 gives the relaxation energy (to be shifted if some occ is /=2.0)
   erelax=  -1.48585330E+01
  No Ewald or frozen-wf contrib.: the relaxation energy is the total one
 2DEtotal=   -0.1485853296E+02 Ha. Also 2DEtotal=   -0.404321243935E+03 eV
    (  non-var. 2DEtotal :   -1.4858532959E+01 Ha)

 Perturbation wavevector (in red.coord.)   0.000000  0.000000  0.000000
 Perturbation : derivative vs k along direction   2
 The set of symmetries contains only one element for this perturbation.
 symkpt : not enough symmetry to change the number of k points.

[...]

 Perturbation wavevector (in red.coord.)   0.000000  0.000000  0.000000
 Perturbation : derivative vs k along direction   3
 The set of symmetries contains only one element for this perturbation.
 symkpt : not enough symmetry to change the number of k points.

-inwffil : will read wavefunctions from disk file /scratch/users/j/a/jabreu/flow_simple2/flow/w164/t1/indata/in_WFK

 Initialisation of the first-order wave-functions :
  ireadwf=   0

--- !BeginCycle
iteration_state: {dtset: 1, }
solver: {iscf: 7, nstep: 100, nline: 4, wfoptalg: 0, }
tolerances: {tolwfr: 1.00E-20, }
...

     iter   2DEtotal(Ha)        deltaE(Ha) residm    vres2
-ETOT  1  -14.857226016332     -1.486E+01 4.292E-02 0.000E+00
 ETOT  2  -14.858534396375     -1.308E-03 6.445E-03 0.000E+00
 ETOT  3  -14.858535431985     -1.036E-06 9.049E-05 0.000E+00
 ETOT  4  -14.858535437624     -5.639E-09 1.023E-05 0.000E+00
 ETOT  5  -14.858535437683     -5.904E-11 2.065E-06 0.000E+00
 ETOT  6  -14.858535437683     -6.501E-13 3.464E-07 0.000E+00
 ETOT  7  -14.858535437683     -4.263E-14 7.199E-08 0.000E+00
 ETOT  8  -14.858535437683      3.908E-14 9.963E-09 0.000E+00
 ETOT  9  -14.858535437683     -2.487E-14 2.456E-09 0.000E+00
 ETOT 10  -14.858535437683      5.329E-15 3.779E-10 0.000E+00
 ETOT 11  -14.858535437683      0.000E+00 1.014E-10 0.000E+00
 ETOT 12  -14.858535437683     -5.329E-15 1.514E-11 0.000E+00
 ETOT 13  -14.858535437683      1.066E-14 4.352E-12 0.000E+00
 ETOT 14  -14.858535437683     -7.105E-15 6.309E-13 0.000E+00
 ETOT 15  -14.858535437683      7.105E-15 1.908E-13 0.000E+00
 ETOT 16  -14.858535437683     -7.105E-15 2.712E-14 0.000E+00
 ETOT 17  -14.858535437683      0.000E+00 8.470E-15 0.000E+00
 ETOT 18  -14.858535437683      0.000E+00 1.183E-15 0.000E+00
 ETOT 19  -14.858535437683      3.553E-15 3.786E-16 0.000E+00
 ETOT 20  -14.858535437683     -3.553E-15 5.197E-17 0.000E+00
 ETOT 21  -14.858535437683     -1.776E-15 1.698E-17 0.000E+00
 ETOT 22  -14.858535437683      1.776E-15 2.291E-18 0.000E+00
 ETOT 23  -14.858535437683     -1.776E-15 7.635E-19 0.000E+00
 ETOT 24  -14.858535437683      0.000E+00 1.012E-19 0.000E+00
 ETOT 25  -14.858535437683      1.776E-15 3.437E-20 0.000E+00
 ETOT 26  -14.858535437683     -3.553E-15 9.380E-21 0.000E+00

 At SCF step   26   max residual=  9.38E-21 < tolwfr=  1.00E-20 =>converged.

 ----iterations are completed or convergence reached----

 dfpt_looppert: DFPT cycle converged with prtwf=-1. Will skip output of the 1st-order WFK file.
 dfpt_looppert : ek2=    1.9678489354E+01
          f-sum rule ratio=    1.3854083034E+00
 prteigrs : about to open file /scratch/users/j/a/jabreu/flow_simple2/flow/w164/t1/tmpdata/tmp_1WF1_EIG
 Expectation of eigenvalue derivatives (hartree) for nkpt=   1  k points:
  (in case of degenerate eigenvalues, averaged derivative)
 kpt#   1, nband= 17, wtk=  1.00000, kpt=  0.0000  0.0000  0.0000 (reduced coord)
   0.00000    0.00000    0.00000    0.00000    0.00000   -0.00000   -0.00000   -0.00000
   0.00000    0.00000    0.00000   -0.00000   -0.00000   -0.00000    0.00001    0.00001
   0.00000

 Eight components of 2nd-order total energy (hartree) are
 1,2,3: 0th-order hamiltonian combined with 1st-order wavefunctions
     kin0=   4.18562738E+00 eigvalue=   9.14144461E-02  local=  -2.33386525E+00
 4,5,6: 1st-order hamiltonian combined with 1st and 0th-order wfs
     kin1=  -2.72627425E+01  Hartree=   0.00000000E+00     xc=   0.00000000E+00
 7,8,9: eventually, occupation + non-local contributions
    edocc=   1.18496644E+01     enl0=   1.06569449E+00   enl1=  -2.45432833E+00
 1-9 gives the relaxation energy (to be shifted if some occ is /=2.0)
   erelax=  -1.48585354E+01
  No Ewald or frozen-wf contrib.: the relaxation energy is the total one
 2DEtotal=   -0.1485853544E+02 Ha. Also 2DEtotal=   -0.404321311392E+03 eV
    (  non-var. 2DEtotal :   -1.4858535438E+01 Ha)

 CALCULATION OF EFFECTIVE MASSES
 NOTE : Additional infos (eff. mass eigenvalues, eigenvectors and, if degenerate, average mass) are available in stdout.

 COMMENTS:
 - At k-point ( 0.000, 0.000, 0.000), bands     6 through     8
   are DEGENERATE (effective mass tensor is therefore not defined).
   See Section IIIB Eqs. (67)-(70) and Appendix E of PRB 93 205147 (2016).
 - Angular average effective mass for Frohlich model is to be averaged over degenerate bands. See later.
 - Associated theta integrals calculated with ntheta=   1000 points.

 K-point ( 0.000, 0.000, 0.000) | band =     6
 Transport equivalent effective mass tensor:
             -0.4690491681             -0.0000000016             -0.0000000001
             -0.0000000016             -0.4690490716              0.0000000005
             -0.0000000001              0.0000000005             -0.4690489415
 Transport equivalent effective mass tensor eigenvalues:
             -0.4690491681             -0.4690490716             -0.4690489415
 Angular average effective mass 1/(<1/m>)=  -0.4584787664
 Angular average effective mass for Frohlich model (<m**0.5>)**2=  -0.4592115144
 Effective masses along directions: (cart. coord. / red. coord. -> eff. mass)
    1:   1.000000  0.000000  0.000000 /   1.000000  0.000000  0.000000 ->  -0.4161855874
    2:   0.000000  1.000000  0.000000 /   0.000000  1.000000  0.000000 ->  -0.4161855016
    3:   0.000000  0.000000  1.000000 /   0.000000  0.000000  1.000000 ->  -0.4161853907
    4:   0.577350  0.577350  0.577350 /   0.577350  0.577350  0.577350 ->  -0.4946292787
    5:   0.000000  0.707107  0.707107 /   0.000000  0.707107  0.707107 ->  -0.4723707835
    6:   0.707107  0.000000  0.707107 /   0.707107  0.000000  0.707107 ->  -0.4723708313
    7:   0.707107  0.707107  0.000000 /   0.707107  0.707107  0.000000 ->  -0.4723709075

[...]

 K-point ( 0.000, 0.000, 0.000) | band =     8
 Transport equivalent effective mass tensor:
             -4.2212691740             -0.0000000554              0.0000000007
             -0.0000000554             -4.2212660617             -0.0000000049
              0.0000000007             -0.0000000049             -4.2212779139
 Transport equivalent effective mass tensor eigenvalues:
             -4.2212779139             -4.2212691750             -4.2212660607
 Angular average effective mass 1/(<1/m>)=  -3.1545859775
 Angular average effective mass for Frohlich model (<m**0.5>)**2=  -3.1991883448
 Effective masses along directions: (cart. coord. / red. coord. -> eff. mass)
    1:   1.000000  0.000000  0.000000 /   1.000000  0.000000  0.000000 ->  -3.6630236948
    2:   0.000000  1.000000  0.000000 /   0.000000  1.000000  0.000000 ->  -3.6630236947
    3:   0.000000  0.000000  1.000000 /   0.000000  0.000000  1.000000 ->  -3.6630236948
    4:   0.577350  0.577350  0.577350 /   0.577350  0.577350  0.577350 ->  -2.1573679142
    5:   0.000000  0.707107  0.707107 /   0.000000  0.707107  0.707107 ->  -3.6630236947
    6:   0.707107  0.000000  0.707107 /   0.707107  0.000000  0.707107 ->  -3.6630236947
    7:   0.707107  0.707107  0.000000 /   0.707107  0.707107  0.000000 ->  -3.6630236944

 Angular average effective mass for Frohlich model, averaged over degenerate bands.
 Value of     (<<m**0.5>>)**2 =     1.755458E+00
 Absolute Value of <<m**0.5>> =     1.324937E+00

 K-point ( 0.000, 0.000, 0.000) | band =     9
 Effective mass tensor:
              0.2930931173             -0.0000000000              0.0000000000
             -0.0000000000              0.2930931173             -0.0000000000
              0.0000000000             -0.0000000000              0.2930931173
 Effective mass tensor eigenvalues:
              0.2930931173              0.2930931173              0.2930931173
 Angular average effective mass 1/(<1/m>)=   0.2930931173
 Angular average effective mass for Frohlich model (<m**0.5>)**2=   0.2930931173
 Effective masses along directions: (cart. coord. / red. coord. -> eff. mass)
    1:   1.000000  0.000000  0.000000 /   1.000000  0.000000  0.000000 ->   0.2930931173
    2:   0.000000  1.000000  0.000000 /   0.000000  1.000000  0.000000 ->   0.2930931173
    3:   0.000000  0.000000  1.000000 /   0.000000  0.000000  1.000000 ->   0.2930931173
    4:   0.577350  0.577350  0.577350 /   0.577350  0.577350  0.577350 ->   0.2930931173
    5:   0.000000  0.707107  0.707107 /   0.000000  0.707107  0.707107 ->   0.2930931173
    6:   0.707107  0.000000  0.707107 /   0.707107  0.000000  0.707107 ->   0.2930931173
    7:   0.707107  0.707107  0.000000 /   0.707107  0.707107  0.000000 ->   0.2930931173

 END OF EFFECTIVE MASSES SECTION

 ---- first-order wavefunction calculations are completed ----

 Total localisation tensor (bohr^2) in cartesian coordinates
  WARNING : still subject to testing - especially symmetries.
      direction              matrix element
   alpha     beta       real part   imaginary part
     1        1       2.1868755609    0.0000000000
     1        2       0.0000000000    0.0000000000
     1        3       0.0000000000    0.0000000000
     2        1       0.0000000000    0.0000000000
     2        2       2.1868755480    0.0000000000
     2        3       0.0000000000    0.0000000000
     3        1       0.0000000000    0.0000000000
     3        2       0.0000000000    0.0000000000
     3        3       2.1868758336    0.0000000000

 respfn : d/dk was computed, but no 2DTE, so no DDB output.

== END DATASET(S) ==============================================================

 -outvars: echo values of variables after computation  --------
            acell      1.0000000000E+00  1.0000000000E+00  1.0000000000E+00 Bohr
              amu      1.32905430E+02  7.99040000E+01
             ecut      2.40000000E+01 Hartree
           etotal     -1.4858535438E+01
            fcart      0.0000000000E+00  0.0000000000E+00  0.0000000000E+00
                       0.0000000000E+00  0.0000000000E+00  0.0000000000E+00
-          fftalg         512
           irdden           1
           irdwfk           1
           istwfk        1
              ixc     -116133
           kptopt           0
P           mkmem           1
P          mkqmem           1
P          mk1mem           1
            natom           2
            nband          17
           nbdbuf           4
            ngfft          36      36      36
             nkpt           1
            nstep         100
             nsym          48
           ntypat           2
              occ      2.000000  2.000000  2.000000  2.000000  2.000000  2.000000
                       2.000000  2.000000  0.000000  0.000000  0.000000  0.000000
                       0.000000  0.000000  0.000000  0.000000  0.000000
        optdriver           1
            prtwf          -1
            rfdir           1       1       1
           rfelfd           2
            rprim      8.0123327926E+00  0.0000000000E+00  0.0000000000E+00
                       0.0000000000E+00  8.0123327926E+00  0.0000000000E+00
                       0.0000000000E+00  0.0000000000E+00  8.0123327926E+00
          spgroup         221
           strten      0.0000000000E+00  0.0000000000E+00  0.0000000000E+00
                       0.0000000000E+00  0.0000000000E+00  0.0000000000E+00
           symrel      1  0  0   0  1  0   0  0  1      -1  0  0   0 -1  0   0  0 -1
                      -1  0  0   0  1  0   0  0 -1       1  0  0   0 -1  0   0  0  1
                      -1  0  0   0 -1  0   0  0  1       1  0  0   0  1  0   0  0 -1
                       1  0  0   0 -1  0   0  0 -1      -1  0  0   0  1  0   0  0  1
                       0  1  0   1  0  0   0  0  1       0 -1  0  -1  0  0   0  0 -1
                       0 -1  0   1  0  0   0  0 -1       0  1  0  -1  0  0   0  0  1
                       0 -1  0  -1  0  0   0  0  1       0  1  0   1  0  0   0  0 -1
                       0  1  0  -1  0  0   0  0 -1       0 -1  0   1  0  0   0  0  1
                       0  0  1   1  0  0   0  1  0       0  0 -1  -1  0  0   0 -1  0
                       0  0 -1   1  0  0   0 -1  0       0  0  1  -1  0  0   0  1  0
                       0  0 -1  -1  0  0   0  1  0       0  0  1   1  0  0   0 -1  0
                       0  0  1  -1  0  0   0 -1  0       0  0 -1   1  0  0   0  1  0
                       1  0  0   0  0  1   0  1  0      -1  0  0   0  0 -1   0 -1  0
                      -1  0  0   0  0  1   0 -1  0       1  0  0   0  0 -1   0  1  0
                      -1  0  0   0  0 -1   0  1  0       1  0  0   0  0  1   0 -1  0
                       1  0  0   0  0 -1   0 -1  0      -1  0  0   0  0  1   0  1  0
                       0  1  0   0  0  1   1  0  0       0 -1  0   0  0 -1  -1  0  0
                       0 -1  0   0  0  1  -1  0  0       0  1  0   0  0 -1   1  0  0
                       0 -1  0   0  0 -1   1  0  0       0  1  0   0  0  1  -1  0  0
                       0  1  0   0  0 -1  -1  0  0       0 -1  0   0  0  1   1  0  0
                       0  0  1   0  1  0   1  0  0       0  0 -1   0 -1  0  -1  0  0
                       0  0 -1   0  1  0  -1  0  0       0  0  1   0 -1  0   1  0  0
                       0  0 -1   0 -1  0   1  0  0       0  0  1   0  1  0  -1  0  0
                       0  0  1   0 -1  0  -1  0  0       0  0 -1   0  1  0   1  0  0
           tolwfr      1.00000000E-20
            typat      1  2
           useylm           1
           xangst      0.0000000000E+00  0.0000000000E+00  0.0000000000E+00
                       2.1199719507E+00  2.1199719507E+00  2.1199719507E+00
            xcart      0.0000000000E+00  0.0000000000E+00  0.0000000000E+00
                       4.0061663963E+00  4.0061663963E+00  4.0061663963E+00
             xred      0.0000000000E+00  0.0000000000E+00  0.0000000000E+00
                       5.0000000000E-01  5.0000000000E-01  5.0000000000E-01
            znucl       55.00000   35.00000

- Timing analysis has been suppressed with timopt=0

 Suggested references for the acknowledgment of ABINIT usage.

 Calculation completed.
.Delivered   6 WARNINGs and   5 COMMENTs to log file.