.Version 9.5.1 of ABINIT

 ABINIT is a project of the Universite Catholique de Louvain,
 Corning Inc. and other collaborators, see ~abinit/doc/developers/contributors.txt .
 acknowledgments of the ABINIT effort.

.Starting date : Wed  5 May 2021.
- ( at 19h41 )

- input  file    -> /scratch/users/j/a/jabreu/flow_simple_7atoms/flow/w123/t1/run.abi
- output file    -> /scratch/users/j/a/jabreu/flow_simple_7atoms/flow/w123/t1/run.abo
- root for input  files -> /scratch/users/j/a/jabreu/flow_simple_7atoms/flow/w123/t1/indata/in
- root for output files -> /scratch/users/j/a/jabreu/flow_simple_7atoms/flow/w123/t1/outdata/out

 Symmetries : space group I4/m m m (#139); Bravais tI (body-center tetrag.)
     intxc =       0      iscf =       7    lmnmax =      18     lnmax =       6
     mgfft =      96  mpssoang =       3    mqgrid =    3001     natom =       7
  nloc_mem =       1    nspden =       1   nspinor =       1    nsppol =       1
      nsym =      16    n1xccc =    2501    ntypat =       3    occopt =       1
   xclevel =       2
-    mband =          37        mffmem =           1         mkmem =           2
-   mkqmem =           2        mk1mem =           2           mpw =       16463
      nfft =      884736          nkpt =           2
  Rough estimation (10% accuracy) of disk space for files :

------------- Echo of variables that govern the present computation ------------
-
- outvars: echo of selected default values
-   iomode0 =  0 , fftalg0 =512 , wfoptalg0 =  0
-
- outvars: echo of global parameters not present in the input file
-  max_nthreads =    0
-
 -outvars: echo values of preprocessed input variables --------
            acell      1.0000000000E+00  1.0000000000E+00  1.0000000000E+00 Bohr
              amu      3.90983000E+01  2.43050000E+01  3.54527000E+01
             ecut      4.20000000E+01 Hartree
-          fftalg         512
           irdden           1
           irdwfk           1
           istwfk        1    1
              ixc     -116133
              kpt      2.77555756E-17 -2.77555756E-17  5.00000000E-01
                       0.00000000E+00  0.00000000E+00  0.00000000E+00
           kptopt           0
P           mkmem           2
P          mkqmem           2
P          mk1mem           2
            natom           7
            nband          37
           nbdbuf           4
            ngfft          96      96      96
             nkpt           2
            nstep        2000
             nsym          16
           ntypat           3
              occ      2.000000  2.000000  2.000000  2.000000  2.000000  2.000000
                       2.000000  2.000000  2.000000  2.000000  2.000000  2.000000
                       2.000000  2.000000  2.000000  2.000000  2.000000  2.000000
                       2.000000  2.000000  2.000000  2.000000  2.000000  2.000000
                       2.000000  2.000000  2.000000  2.000000  0.000000  0.000000
                       0.000000  0.000000  0.000000  0.000000  0.000000  0.000000
                       0.000000
        optdriver           1
            prtwf          -1
            rfdir           1       1       1
           rfelfd           2
            rprim      8.9038447392E+00  0.0000000000E+00 -1.3310920020E+01
                      -8.2082207890E-01  8.8659292945E+00 -1.3310920020E+01
                       0.0000000000E+00  0.0000000000E+00  1.6014338666E+01
          spgroup         139
           symrel      1  0  0   0  1  0   0  0  1      -1  0  0   0 -1  0   0  0 -1
                       0  0  1  -1 -1 -1   1  0  0       0  0 -1   1  1  1  -1  0  0
                       0  1  0   1  0  0  -1 -1 -1       0 -1  0  -1  0  0   1  1  1
                      -1 -1 -1   0  0  1   0  1  0       1  1  1   0  0 -1   0 -1  0
                       0  1  0   1  0  0   0  0  1       0 -1  0  -1  0  0   0  0 -1
                       0  0  1  -1 -1 -1   0  1  0       0  0 -1   1  1  1   0 -1  0
                       1  0  0   0  1  0  -1 -1 -1      -1  0  0   0 -1  0   1  1  1
                      -1 -1 -1   0  0  1   1  0  0       1  1  1   0  0 -1  -1  0  0
           tolwfr      1.00000000E-20
            typat      1  1  2  3  3  3  3
           useylm           1
              wtk        0.50000    0.50000
           xangst      1.5338753101E+00  1.6824436374E+00 -5.0518951713E+00
                       2.7434760583E+00  3.0092040782E+00 -9.0357758288E+00
                       0.0000000000E+00  0.0000000000E+00  0.0000000000E+00
                       6.8670309808E-01  7.5321589086E-01 -2.2616910530E+00
                       3.5906482703E+00  3.9384318248E+00 -1.1825979947E+01
                       2.3558558524E+00  0.0000000000E+00  7.1529376645E-01
                      -2.1718016823E-01  2.3458238578E+00  7.1529376645E-01
            xcart      2.8986042581E+00  3.1793577087E+00 -9.5466983258E+00
                       5.1844184022E+00  5.6865715858E+00 -1.7075141715E+01
                       0.0000000000E+00  0.0000000000E+00  0.0000000000E+00
                       1.2976807900E+00  1.4233717527E+00 -4.2739766874E+00
                       6.7853418703E+00  7.4425575418E+00 -2.2347863353E+01
                       4.4519223696E+00  0.0000000000E+00  1.3517093231E+00
                      -4.1041103945E-01  4.4329646473E+00  1.3517093231E+00
             xred      3.5860400000E-01  3.5860400000E-01  0.0000000000E+00
                       6.4139600000E-01  6.4139600000E-01  0.0000000000E+00
                       0.0000000000E+00  0.0000000000E+00  0.0000000000E+00
                       1.6054400000E-01  1.6054400000E-01  0.0000000000E+00
                       8.3945600000E-01  8.3945600000E-01  0.0000000000E+00
                       5.0000000000E-01  0.0000000000E+00  5.0000000000E-01
                      -6.9388939039E-18  5.0000000000E-01  5.0000000000E-01
            znucl       19.00000   12.00000   17.00000

 chkinp: Checking input parameters for consistency.

== DATASET  1 ==================================================================
-   mpi_nproc: 1, omp_nthreads: -1 (-1 if OMP is not activated)

--- !DatasetInfo
iteration_state: {dtset: 1, }
dimensions: {natom: 7, nkpt: 2, mband: 37, nsppol: 1, nspinor: 1, nspden: 1, mpw: 16463, }
cutoff_energies: {ecut:  42.0, pawecutdg:  -1.0, }
electrons: {nelect:   5.60000000E+01, charge:   0.00000000E+00, occopt:   1.00000000E+00, tsmear:   1.00000000E-02, }
meta: {optdriver: 1, rfelfd: 2, }
...

 Real(R)+Recip(G) space primitive vectors, cartesian coordinates (Bohr,Bohr^-1):
 R(1)=  8.9038447  0.0000000-13.3109200  G(1)=  0.1123110  0.0103979  0.0000000
 R(2)= -0.8208221  8.8659293-13.3109200  G(2)=  0.0000000  0.1127913  0.0000000
 R(3)=  0.0000000  0.0000000 16.0143387  G(3)=  0.0933515  0.1023934  0.0624440
 Unit cell volume ucvol=  1.2641856E+03 bohr^3
 Angles (23,13,12)=  1.46220929E+02  1.46220929E+02  4.85187255E+01 degrees

 getcut: wavevector=  0.0000  0.0000  0.0000  ngfft=  96  96  96
         ecut(hartree)=     42.000   => boxcut(ratio)=   2.05485

--- Pseudopotential description ------------------------------------------------
- pspini: atom type   1  psp file is /scratch/users/j/a/jabreu/pseudos/PBEsol/K.psp8
- pspatm: opening atomic psp file    /scratch/users/j/a/jabreu/pseudos/PBEsol/K.psp8
- K     ONCVPSP-3.3.0  r_core=   1.36296   1.46408   1.61068
- 19.00000   9.00000    180112                znucl, zion, pspdat
    8 -116133    2    4       400   0.00000   pspcod,pspxc,lmax,lloc,mmax,r2well
    3.99000000000000    5.00000000000000    0.00000000000000   rchrg,fchrg,qchrg
     nproj     2     2     2
     extension_switch     1
  pspatm : epsatm=    8.32487830
         --- l  ekb(1:nproj) -->
             0   10.921326    0.816676
             1    4.431000    0.560368
             2   -3.384038   -1.043186
 pspatm: atomic psp has been read  and splines computed

- pspini: atom type   2  psp file is /scratch/users/j/a/jabreu/pseudos/PBEsol/Mg.psp8
- pspatm: opening atomic psp file    /scratch/users/j/a/jabreu/pseudos/PBEsol/Mg.psp8
- Mg    ONCVPSP-3.3.0  r_core=   1.16056   1.56380
- 12.00000  10.00000    180112                znucl, zion, pspdat
    8 -116133    1    4       400   0.00000   pspcod,pspxc,lmax,lloc,mmax,r2well
    3.99000000000000    0.00000000000000    0.00000000000000   rchrg,fchrg,qchrg
     nproj     2     2
     extension_switch     1
  pspatm : epsatm=    9.18164846
         --- l  ekb(1:nproj) -->
             0    2.230603   -0.826587
             1   -6.503151   -2.501445
 pspatm: atomic psp has been read  and splines computed

- pspini: atom type   3  psp file is /scratch/users/j/a/jabreu/pseudos/PBEsol/Cl.psp8
- pspatm: opening atomic psp file    /scratch/users/j/a/jabreu/pseudos/PBEsol/Cl.psp8
- Cl    ONCVPSP-3.3.0  r_core=   1.56009   1.35202   1.75774
- 17.00000   7.00000    180112                znucl, zion, pspdat
    8 -116133    2    4       600   0.00000   pspcod,pspxc,lmax,lloc,mmax,r2well
    5.99000000000000    8.00000000000000    0.00000000000000   rchrg,fchrg,qchrg
     nproj     2     2     2
     extension_switch     1
  pspatm : epsatm=    8.95520722
         --- l  ekb(1:nproj) -->
             0    8.193503    0.707970
             1    3.869736    1.114731
             2   -2.915303   -0.810552
 pspatm: atomic psp has been read  and splines computed

   3.45252510E+03                                ecore*ucvol(ha*bohr**3)

-inwffil : will read wavefunctions from disk file /scratch/users/j/a/jabreu/flow_simple_7atoms/flow/w123/t1/indata/in_WFK

 ==>  initialize data related to q vector <==

 The list of irreducible perturbations for this q vector is:
    1)    idir= 1    ipert=   8
    2)    idir= 2    ipert=   8
    3)    idir= 3    ipert=   8

 Perturbation wavevector (in red.coord.)   0.000000  0.000000  0.000000
 Perturbation : derivative vs k along direction   1

 dfpt_looppert : COMMENT -
  In a d/dk calculation, iscf is set to -3 automatically.
 The set of symmetries contains only one element for this perturbation.
 symkpt : not enough symmetry to change the number of k points.

[...]

 Initialisation of the first-order wave-functions :
  ireadwf=   0

--- !BeginCycle
iteration_state: {dtset: 1, }
solver: {iscf: 7, nstep: 2000, nline: 4, wfoptalg: 0, }
tolerances: {tolwfr: 1.00E-20, }
...

     iter   2DEtotal(Ha)        deltaE(Ha) residm    vres2
-ETOT  1  -28.497777019441     -2.850E+01 5.499E-02 0.000E+00
 ETOT  2  -28.551092745526     -5.332E-02 5.848E-03 0.000E+00
 ETOT  3  -28.551567891796     -4.751E-04 2.874E-04 0.000E+00
 ETOT  4  -28.551574393057     -6.501E-06 5.909E-05 0.000E+00
 ETOT  5  -28.551574504206     -1.111E-07 4.266E-06 0.000E+00
 ETOT  6  -28.551574506392     -2.187E-09 8.949E-07 0.000E+00
 ETOT  7  -28.551574506439     -4.665E-11 1.105E-07 0.000E+00
 ETOT  8  -28.551574506440     -1.037E-12 1.798E-08 0.000E+00
 ETOT  9  -28.551574506440     -1.066E-14 2.951E-09 0.000E+00
 ETOT 10  -28.551574506440     -2.487E-14 4.696E-10 0.000E+00
 ETOT 11  -28.551574506440     -7.105E-15 8.041E-11 0.000E+00
 ETOT 12  -28.551574506440      1.421E-14 1.269E-11 0.000E+00
 ETOT 13  -28.551574506440     -3.553E-15 2.219E-12 0.000E+00
 ETOT 14  -28.551574506440      1.421E-14 3.492E-13 0.000E+00
 ETOT 15  -28.551574506440     -3.553E-15 6.176E-14 0.000E+00
 ETOT 16  -28.551574506440      1.421E-14 9.716E-15 0.000E+00
 ETOT 17  -28.551574506440     -3.553E-15 1.728E-15 0.000E+00
 ETOT 18  -28.551574506440     -1.066E-14 2.721E-16 0.000E+00
 ETOT 19  -28.551574506440      3.553E-15 4.849E-17 0.000E+00
 ETOT 20  -28.551574506440      3.553E-15 7.657E-18 0.000E+00
 ETOT 21  -28.551574506440     -3.553E-15 1.364E-18 0.000E+00
 ETOT 22  -28.551574506440     -3.553E-15 2.161E-19 0.000E+00
 ETOT 23  -28.551574506440      0.000E+00 3.843E-20 0.000E+00
 ETOT 24  -28.551574506440      7.105E-15 9.943E-21 0.000E+00

 At SCF step   24   max residual=  9.94E-21 < tolwfr=  1.00E-20 =>converged.

 ----iterations are completed or convergence reached----

 dfpt_looppert: DFPT cycle converged with prtwf=-1. Will skip output of the 1st-order WFK file.
 dfpt_looppert : ek2=    5.6250868521E+01
          f-sum rule ratio=    1.0560057734E+00
 prteigrs : about to open file /scratch/users/j/a/jabreu/flow_simple_7atoms/flow/w123/t1/tmpdata/tmp_1WF1_EIG
 Expectation of eigenvalue derivatives (hartree) for nkpt=   2  k points:
  (in case of degenerate eigenvalues, averaged derivative)
 kpt#   1, nband= 37, wtk=  0.50000, kpt=  0.0000  0.0000  0.5000 (reduced coord)
   0.00000   -0.00000   -0.00000    0.00000    0.00000    0.00000   -0.00000   -0.00000
  -0.00000    0.00000   -0.00000   -0.00000    0.00000   -0.00000    0.00000   -0.00000
   0.00000    0.00000   -0.00000   -0.00000    0.00000   -0.00000    0.00000   -0.00000
  -0.00000    0.00000    0.00000    0.00000    0.00000    0.00000   -0.00000    0.00000
   0.00000    0.00000    0.00000   -0.00005    0.00005
 prteigrs : prtvol=0 or 1, do not print more k-points.

 Eight components of 2nd-order total energy (hartree) are
 1,2,3: 0th-order hamiltonian combined with 1st-order wavefunctions
     kin0=   3.36949705E+01 eigvalue=   3.87724594E+00  local=  -1.83897765E+01
 4,5,6: 1st-order hamiltonian combined with 1st and 0th-order wfs
     kin1=  -5.94012419E+01  Hartree=   0.00000000E+00     xc=   0.00000000E+00
 7,8,9: eventually, occupation + non-local contributions
    edocc=   8.70727698E+00     enl0=   6.61857552E-01   enl1=   2.29809290E+00
 1-9 gives the relaxation energy (to be shifted if some occ is /=2.0)
   erelax=  -2.85515745E+01
  No Ewald or frozen-wf contrib.: the relaxation energy is the total one
 2DEtotal=   -0.2855157451E+02 Ha. Also 2DEtotal=   -0.776927853702E+03 eV
    (  non-var. 2DEtotal :   -2.8551574506E+01 Ha)

 Perturbation wavevector (in red.coord.)   0.000000  0.000000  0.000000
 Perturbation : derivative vs k along direction   2
 The set of symmetries contains only one element for this perturbation.
 symkpt : not enough symmetry to change the number of k points.

[...]

 Perturbation wavevector (in red.coord.)   0.000000  0.000000  0.000000
 Perturbation : derivative vs k along direction   3
 The set of symmetries contains only one element for this perturbation.
 symkpt : not enough symmetry to change the number of k points.

-inwffil : will read wavefunctions from disk file /scratch/users/j/a/jabreu/flow_simple_7atoms/flow/w123/t1/indata/in_WFK

 Initialisation of the first-order wave-functions :
  ireadwf=   0

--- !BeginCycle
iteration_state: {dtset: 1, }
solver: {iscf: 7, nstep: 2000, nline: 4, wfoptalg: 0, }
tolerances: {tolwfr: 1.00E-20, }
...

     iter   2DEtotal(Ha)        deltaE(Ha) residm    vres2
-ETOT  1  -52.028167653217     -5.203E+01 9.089E-02 0.000E+00
 ETOT  2  -52.104514803352     -7.635E-02 4.156E-03 0.000E+00
 ETOT  3  -52.105060807153     -5.460E-04 1.454E-04 0.000E+00
 ETOT  4  -52.105066761042     -5.954E-06 1.916E-05 0.000E+00
 ETOT  5  -52.105066846042     -8.500E-08 1.504E-06 0.000E+00
 ETOT  6  -52.105066847463     -1.422E-09 2.749E-07 0.000E+00
 ETOT  7  -52.105066847490     -2.644E-11 1.968E-08 0.000E+00
 ETOT  8  -52.105066847490     -5.613E-13 3.752E-09 0.000E+00
 ETOT  9  -52.105066847490      7.105E-14 2.303E-10 0.000E+00
 ETOT 10  -52.105066847490     -2.132E-14 4.458E-11 0.000E+00
 ETOT 11  -52.105066847490      3.553E-14 2.234E-12 0.000E+00
 ETOT 12  -52.105066847490     -7.105E-15 6.103E-13 0.000E+00
 ETOT 13  -52.105066847490     -7.105E-15 2.972E-14 0.000E+00
 ETOT 14  -52.105066847490      2.842E-14 1.234E-14 0.000E+00
 ETOT 15  -52.105066847490     -2.132E-14 5.507E-16 0.000E+00
 ETOT 16  -52.105066847490      2.132E-14 2.796E-16 0.000E+00
 ETOT 17  -52.105066847490     -7.105E-15 1.118E-17 0.000E+00
 ETOT 18  -52.105066847490     -1.421E-14 5.903E-18 0.000E+00
 ETOT 19  -52.105066847490      7.105E-15 2.017E-19 0.000E+00
 ETOT 20  -52.105066847490     -7.105E-15 1.164E-19 0.000E+00
 ETOT 21  -52.105066847490      0.000E+00 9.980E-21 0.000E+00

 At SCF step   21   max residual=  9.98E-21 < tolwfr=  1.00E-20 =>converged.

 ----iterations are completed or convergence reached----

 dfpt_looppert: DFPT cycle converged with prtwf=-1. Will skip output of the 1st-order WFK file.
 dfpt_looppert : ek2=    1.0213049709E+02
          f-sum rule ratio=    1.0615910031E+00
 prteigrs : about to open file /scratch/users/j/a/jabreu/flow_simple_7atoms/flow/w123/t1/tmpdata/tmp_1WF1_EIG
 Expectation of eigenvalue derivatives (hartree) for nkpt=   2  k points:
  (in case of degenerate eigenvalues, averaged derivative)
 kpt#   1, nband= 37, wtk=  0.50000, kpt=  0.0000  0.0000  0.5000 (reduced coord)
   0.00000   -0.00000   -0.00000    0.00000    0.00000    0.00000    0.00000   -0.00000
  -0.00000    0.00000   -0.00000    0.00000   -0.00000   -0.00000    0.00000   -0.00000
  -0.00000   -0.00000   -0.00000    0.00000    0.00000   -0.00000    0.00000   -0.00000
  -0.00000    0.00000    0.00000    0.00000    0.00000    0.00000   -0.00000    0.00000
   0.00000   -0.00000    0.00000    0.00001   -0.00002
 prteigrs : prtvol=0 or 1, do not print more k-points.

 Eight components of 2nd-order total energy (hartree) are
 1,2,3: 0th-order hamiltonian combined with 1st-order wavefunctions
     kin0=   6.09548912E+01 eigvalue=   7.01172139E+00  local=  -3.31594591E+01
 4,5,6: 1st-order hamiltonian combined with 1st and 0th-order wfs
     kin1=  -1.08420817E+02  Hartree=   0.00000000E+00     xc=   0.00000000E+00
 7,8,9: eventually, occupation + non-local contributions
    edocc=   1.62463524E+01     enl0=   1.05156094E+00   enl1=   4.21068316E+00
 1-9 gives the relaxation energy (to be shifted if some occ is /=2.0)
   erelax=  -5.21050668E+01
  No Ewald or frozen-wf contrib.: the relaxation energy is the total one
 2DEtotal=   -0.5210506685E+02 Ha. Also 2DEtotal=   -0.141785097504E+04 eV
    (  non-var. 2DEtotal :   -5.2105066847E+01 Ha)

 CALCULATION OF EFFECTIVE MASSES
 NOTE : Additional infos (eff. mass eigenvalues, eigenvectors and, if degenerate, average mass) are available in stdout.

 K-point ( 0.000,-0.000, 0.500) | band =    28
 Effective mass tensor:
             -3.8022133153              1.7359658726             -0.1994072674
              1.7359658726             -3.4807762566             -0.2187214851
             -0.1994072674             -0.2187214851             -1.3747332523
 Effective mass tensor eigenvalues:
             -5.3848845751             -2.0314910701             -1.2413471792
 Angular average effective mass 1/(<1/m>)=  -2.0222028703
 Angular average effective mass for Frohlich model (<m**0.5>)**2=  -2.2189114561
 Effective masses along directions: (cart. coord. / red. coord. -> eff. mass)
    1:   1.000000  0.000000  0.000000 /   0.995778 -0.091798  0.000000 ->  -2.8665116438
    2:   0.000000  1.000000  0.000000 /   0.000000  1.000000  0.000000 ->  -2.6178579318
    3:   0.000000  0.000000  1.000000 /  -0.538581 -0.538581  0.647966 ->  -1.3285807231
    4:   0.577350  0.577350  0.577350 /  -0.252925 -0.302209  0.919075 ->  -1.9869857488
    5:   0.000000  0.707107  0.707107 /  -0.625127 -0.208752  0.752089 ->  -2.0807128373
    6:   0.707107  0.000000  0.707107 /  -0.202086 -0.648008  0.734334 ->  -2.1200110456
    7:   0.707107  0.707107  0.000000 /   0.741981  0.670420  0.000000 ->  -1.8369606625

 K-point ( 0.000, 0.000, 0.000) | band =    29
 Effective mass tensor:
              0.3915889315              0.0027746514             -0.0083314820
              0.0027746514              0.3921026949             -0.0091384539
             -0.0083314820             -0.0091384539              0.4164994491
 Effective mass tensor eigenvalues:
              0.3890592957              0.3890592959              0.4220724839
 Angular average effective mass 1/(<1/m>)=   0.3994745109
 Angular average effective mass for Frohlich model (<m**0.5>)**2=   0.3996486474
 Effective masses along directions: (cart. coord. / red. coord. -> eff. mass)
    1:   1.000000  0.000000  0.000000 /   0.995778 -0.091798  0.000000 ->   0.3914051308
    2:   0.000000  1.000000  0.000000 /   0.000000  1.000000  0.000000 ->   0.3918850250
    3:   0.000000  0.000000  1.000000 /  -0.538581 -0.538581  0.647966 ->   0.4161119367
    4:   0.577350  0.577350  0.577350 /  -0.252925 -0.302209  0.919075 ->   0.3901755792
    5:   0.000000  0.707107  0.707107 /  -0.625127 -0.208752  0.752089 ->   0.3947677821
    6:   0.707107  0.000000  0.707107 /  -0.202086 -0.648008  0.734334 ->   0.3952905263
    7:   0.707107  0.707107  0.000000 /   0.741981  0.670420  0.000000 ->   0.3942539312

 END OF EFFECTIVE MASSES SECTION

 ---- first-order wavefunction calculations are completed ----

 Total localisation tensor (bohr^2) in cartesian coordinates
  WARNING : still subject to testing - especially symmetries.
      direction              matrix element
   alpha     beta       real part   imaginary part
     1        1       0.8681751011    0.0000000000
     1        2      -0.0790223895    0.0000000000
     1        3      -1.1683118527    0.0000000000
     2        1      -0.0790223895    0.0000000000
     2        2       0.8535429739    0.0000000000
     2        3      -1.2814722385    0.0000000000
     3        1      -1.1683118527    0.0000000000
     3        2      -1.2814722385    0.0000000000
     3        3       8.9646712169    0.0000000000

 respfn : d/dk was computed, but no 2DTE, so no DDB output.

== END DATASET(S) ==============================================================

 -outvars: echo values of variables after computation  --------
            acell      1.0000000000E+00  1.0000000000E+00  1.0000000000E+00 Bohr
              amu      3.90983000E+01  2.43050000E+01  3.54527000E+01
             ecut      4.20000000E+01 Hartree
           etotal     -5.2105066847E+01
            fcart      0.0000000000E+00  0.0000000000E+00  0.0000000000E+00
                       0.0000000000E+00  0.0000000000E+00  0.0000000000E+00
                       0.0000000000E+00  0.0000000000E+00  0.0000000000E+00
                       0.0000000000E+00  0.0000000000E+00  0.0000000000E+00
                       0.0000000000E+00  0.0000000000E+00  0.0000000000E+00
                       0.0000000000E+00  0.0000000000E+00  0.0000000000E+00
                       0.0000000000E+00  0.0000000000E+00  0.0000000000E+00
-          fftalg         512
           irdden           1
           irdwfk           1
           istwfk        1    1
              ixc     -116133
              kpt      2.77555756E-17 -2.77555756E-17  5.00000000E-01
                       0.00000000E+00  0.00000000E+00  0.00000000E+00
           kptopt           0
P           mkmem           2
P          mkqmem           2
P          mk1mem           2
            natom           7
            nband          37
           nbdbuf           4
            ngfft          96      96      96
             nkpt           2
            nstep        2000
             nsym          16
           ntypat           3
              occ      2.000000  2.000000  2.000000  2.000000  2.000000  2.000000
                       2.000000  2.000000  2.000000  2.000000  2.000000  2.000000
                       2.000000  2.000000  2.000000  2.000000  2.000000  2.000000
                       2.000000  2.000000  2.000000  2.000000  2.000000  2.000000
                       2.000000  2.000000  2.000000  2.000000  0.000000  0.000000
                       0.000000  0.000000  0.000000  0.000000  0.000000  0.000000
                       0.000000
        optdriver           1
            prtwf          -1
            rfdir           1       1       1
           rfelfd           2
            rprim      8.9038447392E+00  0.0000000000E+00 -1.3310920020E+01
                      -8.2082207890E-01  8.8659292945E+00 -1.3310920020E+01
                       0.0000000000E+00  0.0000000000E+00  1.6014338666E+01
          spgroup         139
           strten      0.0000000000E+00  0.0000000000E+00  0.0000000000E+00
                       0.0000000000E+00  0.0000000000E+00  0.0000000000E+00
           symrel      1  0  0   0  1  0   0  0  1      -1  0  0   0 -1  0   0  0 -1
                       0  0  1  -1 -1 -1   1  0  0       0  0 -1   1  1  1  -1  0  0
                       0  1  0   1  0  0  -1 -1 -1       0 -1  0  -1  0  0   1  1  1
                      -1 -1 -1   0  0  1   0  1  0       1  1  1   0  0 -1   0 -1  0
                       0  1  0   1  0  0   0  0  1       0 -1  0  -1  0  0   0  0 -1
                       0  0  1  -1 -1 -1   0  1  0       0  0 -1   1  1  1   0 -1  0
                       1  0  0   0  1  0  -1 -1 -1      -1  0  0   0 -1  0   1  1  1
                      -1 -1 -1   0  0  1   1  0  0       1  1  1   0  0 -1  -1  0  0
           tolwfr      1.00000000E-20
            typat      1  1  2  3  3  3  3
           useylm           1
              wtk        0.50000    0.50000
           xangst      1.5338753101E+00  1.6824436374E+00 -5.0518951713E+00
                       2.7434760583E+00  3.0092040782E+00 -9.0357758288E+00
                       0.0000000000E+00  0.0000000000E+00  0.0000000000E+00
                       6.8670309808E-01  7.5321589086E-01 -2.2616910530E+00
                       3.5906482703E+00  3.9384318248E+00 -1.1825979947E+01
                       2.3558558524E+00  0.0000000000E+00  7.1529376645E-01
                      -2.1718016823E-01  2.3458238578E+00  7.1529376645E-01
            xcart      2.8986042581E+00  3.1793577087E+00 -9.5466983258E+00
                       5.1844184022E+00  5.6865715858E+00 -1.7075141715E+01
                       0.0000000000E+00  0.0000000000E+00  0.0000000000E+00
                       1.2976807900E+00  1.4233717527E+00 -4.2739766874E+00
                       6.7853418703E+00  7.4425575418E+00 -2.2347863353E+01
                       4.4519223696E+00  0.0000000000E+00  1.3517093231E+00
                      -4.1041103945E-01  4.4329646473E+00  1.3517093231E+00
             xred      3.5860400000E-01  3.5860400000E-01  0.0000000000E+00
                       6.4139600000E-01  6.4139600000E-01  0.0000000000E+00
                       0.0000000000E+00  0.0000000000E+00  0.0000000000E+00
                       1.6054400000E-01  1.6054400000E-01  0.0000000000E+00
                       8.3945600000E-01  8.3945600000E-01  0.0000000000E+00
                       5.0000000000E-01  0.0000000000E+00  5.0000000000E-01
                      -6.9388939039E-18  5.0000000000E-01  5.0000000000E-01
            znucl       19.00000   12.00000   17.00000

- Timing analysis has been suppressed with timopt=0

 Suggested references for the acknowledgment of ABINIT usage.

 Calculation completed.
.Delivered  14 WARNINGs and   9 COMMENTs to log file.