.Version 9.5.2 of ABINIT

 ABINIT is a project of the Universite Catholique de Louvain,
 Corning Inc. and other collaborators, see ~abinit/doc/developers/contributors.txt .
 acknowledgments of the ABINIT effort.

.Starting date : Mon 31 May 2021.
- ( at 21h51 )

- input  file    -> /scratch/users/j/a/jabreu/flow_simple_11atoms/flow/w305/t1/run.abi
- output file    -> /scratch/users/j/a/jabreu/flow_simple_11atoms/flow/w305/t1/run.abo
- root for input  files -> /scratch/users/j/a/jabreu/flow_simple_11atoms/flow/w305/t1/indata/in
- root for output files -> /scratch/users/j/a/jabreu/flow_simple_11atoms/flow/w305/t1/outdata/out

 Symmetries : space group C2/m (# 12); Bravais mC (1-face-center monocl.)
     intxc =       0      iscf =       7    lmnmax =      18     lnmax =       6
     mgfft =      72  mpssoang =       3    mqgrid =    3097     natom =      11
  nloc_mem =       1    nspden =       1   nspinor =       1    nsppol =       1
      nsym =       4    n1xccc =    2501    ntypat =       3    occopt =       1
   xclevel =       2
-    mband =          39        mffmem =           1         mkmem =           2
-   mkqmem =           2        mk1mem =           2           mpw =       10081
      nfft =      259200          nkpt =           2
  Rough estimation (10% accuracy) of disk space for files :

------------- Echo of variables that govern the present computation ------------
-
- outvars: echo of selected default values
-   iomode0 =  0 , fftalg0 =512 , wfoptalg0 =  0
-
- outvars: echo of global parameters not present in the input file
-  max_nthreads =    0
-
 -outvars: echo values of preprocessed input variables --------
            acell      1.0000000000E+00  1.0000000000E+00  1.0000000000E+00 Bohr
              amu      6.94100000E+00  1.21753000E+02  1.59994000E+01
             ecut      4.40000000E+01 Hartree
-          fftalg         512
           irdden           1
           irdwfk           1
           istwfk        1    1
              ixc     -116133
              kpt      5.00000000E-01  5.00000000E-01  0.00000000E+00
                       0.00000000E+00  0.00000000E+00  0.00000000E+00
           kptopt           0
P           mkmem           2
P          mkqmem           2
P          mk1mem           2
            natom          11
            nband          39
           nbdbuf           4
            ngfft          60      60      72
             nkpt           2
            nstep        2000
             nsym           4
           ntypat           3
              occ      2.000000  2.000000  2.000000  2.000000  2.000000  2.000000
                       2.000000  2.000000  2.000000  2.000000  2.000000  2.000000
                       2.000000  2.000000  2.000000  2.000000  2.000000  2.000000
                       2.000000  2.000000  2.000000  2.000000  2.000000  2.000000
                       2.000000  2.000000  2.000000  2.000000  2.000000  2.000000
                       0.000000  0.000000  0.000000  0.000000  0.000000  0.000000
                       0.000000  0.000000  0.000000
        optdriver           1
            prtwf          -1
            rfdir           1       1       1
           rfelfd           2
            rprim      9.4456725758E+00  0.0000000000E+00  2.9692783195E+00
                       6.3686912682E+00  6.9757079884E+00  2.9692783195E+00
                       0.0000000000E+00  0.0000000000E+00  1.0966299532E+01
          spgroup          12
           symrel      1  0  0   0  1  0   0  0  1      -1  0  0   0 -1  0   0  0 -1
                       0 -1  0  -1  0  0   0  0 -1       0  1  0   1  0  0   0  0  1
           tolwfr      1.00000000E-20
            typat      1  1  1  1  1  2  3  3  3  3  3
           useylm           1
              wtk        0.50000    0.50000
           xangst      2.4132785515E+00  1.0644959631E+00  2.8962771188E+00
                       0.0000000000E+00  0.0000000000E+00  2.9015578873E+00
                       5.7619491017E+00  2.5415928692E+00  2.9762193661E+00
                       2.6066518129E+00  1.1497928120E+00  5.9694452338E+00
                       5.9553223631E+00  2.6268897182E+00  6.0493874812E+00
                       0.0000000000E+00  0.0000000000E+00  0.0000000000E+00
                       1.2162840883E+00  5.3650230353E-01  1.4689491758E+00
                       4.1843004573E+00  1.8456928406E+00  1.5712744126E+00
                       7.0443786117E+00  3.1072718852E+00  4.4967305960E+00
                       1.3242223029E+00  5.8411379604E-01  4.4489340039E+00
                       7.1523168263E+00  3.1548833777E+00  7.4767154241E+00
            xcart      4.5604355448E+00  2.0116058397E+00  5.4731705594E+00
                       0.0000000000E+00  0.0000000000E+00  5.4831497658E+00
                       1.0888505794E+01  4.8029144642E+00  5.6242395134E+00
                       4.9258580501E+00  2.1727935242E+00  1.1280616657E+01
                       1.1253928299E+01  4.9641021487E+00  1.1431685611E+01
                       0.0000000000E+00  0.0000000000E+00  0.0000000000E+00
                       2.2984438267E+00  1.0138424233E+00  2.7759116454E+00
                       7.9071819220E+00  3.4878539942E+00  2.9692783195E+00
                       1.3311946352E+01  5.8718928834E+00  8.4975893198E+00
                       2.5024174916E+00  1.1038151050E+00  8.4072668507E+00
                       1.3515920017E+01  5.9618655651E+00  1.4128944525E+01
             xred      2.8837300000E-01  2.8837300000E-01  3.4292800000E-01
                       0.0000000000E+00  0.0000000000E+00  5.0000000000E-01
                       6.8852000000E-01  6.8852000000E-01  1.4001300000E-01
                       3.1148000000E-01  3.1148000000E-01  8.5998700000E-01
                       7.1162700000E-01  7.1162700000E-01  6.5707200000E-01
                       0.0000000000E+00  0.0000000000E+00  0.0000000000E+00
                       1.4533900000E-01  1.4533900000E-01  1.7442600000E-01
                       5.0000000000E-01  5.0000000000E-01  5.5511151231E-17
                       8.4176300000E-01  8.4176300000E-01  3.1904400000E-01
                       1.5823700000E-01  1.5823700000E-01  6.8095600000E-01
                       8.5466100000E-01  8.5466100000E-01  8.2557400000E-01
            znucl        3.00000   51.00000    8.00000

 chkinp: Checking input parameters for consistency.

== DATASET  1 ==================================================================
-   mpi_nproc: 1, omp_nthreads: -1 (-1 if OMP is not activated)

--- !DatasetInfo
iteration_state: {dtset: 1, }
dimensions: {natom: 11, nkpt: 2, mband: 39, nsppol: 1, nspinor: 1, nspden: 1, mpw: 10081, }
cutoff_energies: {ecut:  44.0, pawecutdg:  -1.0, }
electrons: {nelect:   6.00000000E+01, charge:   0.00000000E+00, occopt:   1.00000000E+00, tsmear:   1.00000000E-02, }
meta: {optdriver: 1, rfelfd: 2, }
...

 Real(R)+Recip(G) space primitive vectors, cartesian coordinates (Bohr,Bohr^-1):
 R(1)=  9.4456726  0.0000000  2.9692783  G(1)=  0.1058686 -0.0966560  0.0000000
 R(2)=  6.3686913  6.9757080  2.9692783  G(2)=  0.0000000  0.1433546  0.0000000
 R(3)=  0.0000000  0.0000000 10.9662995  G(3)= -0.0286654 -0.0126443  0.0911885
 Unit cell volume ucvol=  7.2257226E+02 bohr^3
 Angles (23,13,12)=  7.25492875E+01  7.25492875E+01  4.52882925E+01 degrees

 getcut: wavevector=  0.0000  0.0000  0.0000  ngfft=  60  60  72
         ecut(hartree)=     44.000   => boxcut(ratio)=   2.02941

--- Pseudopotential description ------------------------------------------------
- pspini: atom type   1  psp file is /scratch/users/j/a/jabreu/pseudos/PBEsol/Li.psp8
- pspatm: opening atomic psp file    /scratch/users/j/a/jabreu/pseudos/PBEsol/Li.psp8
- Li    ONCVPSP-3.3.0  r_core=   1.40824   1.10935
-  3.00000   3.00000    180112                znucl, zion, pspdat
    8 -116133    1    4       400   0.00000   pspcod,pspxc,lmax,lloc,mmax,r2well
    3.99000000000000    0.00000000000000    0.00000000000000   rchrg,fchrg,qchrg
     nproj     2     2
     extension_switch     1
  pspatm : epsatm=    2.60859637
         --- l  ekb(1:nproj) -->
             0   -4.855856   -1.482423
             1   -2.171544   -0.427615
 pspatm: atomic psp has been read  and splines computed

- pspini: atom type   2  psp file is /scratch/users/j/a/jabreu/pseudos/PBEsol/Sb.psp8
- pspatm: opening atomic psp file    /scratch/users/j/a/jabreu/pseudos/PBEsol/Sb.psp8
- Sb    ONCVPSP-3.3.0  r_core=   1.81962   2.12485   1.81962
- 51.00000  15.00000    180112                znucl, zion, pspdat
    8 -116133    2    4       600   0.00000   pspcod,pspxc,lmax,lloc,mmax,r2well
    5.99000000000000    5.00000000000000    0.00000000000000   rchrg,fchrg,qchrg
     nproj     2     2     2
     extension_switch     1
  pspatm : epsatm=   26.35641246
         --- l  ekb(1:nproj) -->
             0    9.727814    1.485032
             1    5.505335    0.704623
             2   -4.710637   -1.436443
 pspatm: atomic psp has been read  and splines computed

- pspini: atom type   3  psp file is /scratch/users/j/a/jabreu/pseudos/PBEsol/O.psp8
- pspatm: opening atomic psp file    /scratch/users/j/a/jabreu/pseudos/PBEsol/O.psp8
- O     ONCVPSP-3.3.0  r_core=   1.35509   1.45563   1.26150
-  8.00000   6.00000    180112                znucl, zion, pspdat
    8 -116133    2    4       600   0.00000   pspcod,pspxc,lmax,lloc,mmax,r2well
    5.99000000000000    4.00000000000000    0.00000000000000   rchrg,fchrg,qchrg
     nproj     2     2     1
     extension_switch     1
  pspatm : epsatm=    6.22910522
         --- l  ekb(1:nproj) -->
             0    6.050032    0.820363
             1   -4.739617   -1.153841
             2   -1.335834
 pspatm: atomic psp has been read  and splines computed

   4.23269522E+03                                ecore*ucvol(ha*bohr**3)

 ==>  initialize data related to q vector <==

 The list of irreducible perturbations for this q vector is:
    1)    idir= 1    ipert=  12
    2)    idir= 2    ipert=  12
    3)    idir= 3    ipert=  12

 Perturbation wavevector (in red.coord.)   0.000000  0.000000  0.000000
 Perturbation : derivative vs k along direction   1

 dfpt_looppert : COMMENT -
  In a d/dk calculation, iscf is set to -3 automatically.
 The set of symmetries contains only one element for this perturbation.
 symkpt : not enough symmetry to change the number of k points.

 Initialisation of the first-order wave-functions :
  ireadwf=   0

--- !BeginCycle
iteration_state: {dtset: 1, }
solver: {iscf: 7, nstep: 2000, nline: 4, wfoptalg: 0, }
tolerances: {tolwfr: 1.00E-20, }
...

     iter   2DEtotal(Ha)        deltaE(Ha) residm    vres2
-ETOT  1  -62.350479922070     -6.235E+01 1.833E-01 0.000E+00
 ETOT  2  -62.399290908713     -4.881E-02 6.948E-03 0.000E+00
 ETOT  3  -62.399350166469     -5.926E-05 2.246E-04 0.000E+00
 ETOT  4  -62.399350410012     -2.435E-07 1.913E-05 0.000E+00
 ETOT  5  -62.399350411613     -1.601E-09 1.606E-06 0.000E+00
 ETOT  6  -62.399350411626     -1.319E-11 1.765E-07 0.000E+00
 ETOT  7  -62.399350411627     -1.705E-13 2.081E-08 0.000E+00
 ETOT  8  -62.399350411626      2.842E-14 2.265E-09 0.000E+00
 ETOT  9  -62.399350411626      2.842E-14 2.684E-10 0.000E+00
 ETOT 10  -62.399350411626      2.132E-14 3.096E-11 0.000E+00
 ETOT 11  -62.399350411626     -7.105E-15 3.681E-12 0.000E+00
 ETOT 12  -62.399350411626      1.421E-14 4.337E-13 0.000E+00
 ETOT 13  -62.399350411626      1.421E-14 5.236E-14 0.000E+00
 ETOT 14  -62.399350411626     -1.421E-14 6.185E-15 0.000E+00
 ETOT 15  -62.399350411626      7.105E-15 7.630E-16 0.000E+00
 ETOT 16  -62.399350411626      7.105E-15 8.934E-17 0.000E+00
 ETOT 17  -62.399350411626     -1.421E-14 1.130E-17 0.000E+00
 ETOT 18  -62.399350411626      7.105E-15 1.305E-18 0.000E+00
 ETOT 19  -62.399350411626      7.105E-15 1.693E-19 0.000E+00
 ETOT 20  -62.399350411626     -7.105E-15 1.928E-20 0.000E+00
 ETOT 21  -62.399350411626     -7.105E-15 9.997E-21 0.000E+00

 At SCF step   21   max residual=  1.00E-20 < tolwfr=  1.00E-20 =>converged.

 ----iterations are completed or convergence reached----

 dfpt_looppert: DFPT cycle converged with prtwf=-1. Will skip output of the 1st-order WFK file.
 dfpt_looppert : ek2=    9.7356375781E+01
          f-sum rule ratio=    9.5792065868E-01
 prteigrs : about to open file /scratch/users/j/a/jabreu/flow_simple_11atoms/flow/w305/t1/tmpdata/tmp_1WF1_EIG
 Expectation of eigenvalue derivatives (hartree) for nkpt=   2  k points:
  (in case of degenerate eigenvalues, averaged derivative)
 kpt#   1, nband= 39, wtk=  0.50000, kpt=  0.5000  0.5000  0.0000 (reduced coord)
  -0.00000    0.00000    0.00000    0.00000    0.00000    0.00000   -0.00000    0.00000
   0.00000    0.00000    0.00000    0.00000   -0.00000   -0.00000    0.00000    0.00000
  -0.00000    0.00000   -0.00000    0.00000   -0.00000   -0.00000    0.00000    0.00000
  -0.00000    0.00000   -0.00000   -0.00000   -0.00000   -0.00000    0.00000   -0.00000
  -0.00000    0.00000   -0.00000    0.00000   -0.00000    0.00000    0.00000
 prteigrs : prtvol=0 or 1, do not print more k-points.

 Eight components of 2nd-order total energy (hartree) are
 1,2,3: 0th-order hamiltonian combined with 1st-order wavefunctions
     kin0=   8.07959269E+01 eigvalue=   8.73961115E+00  local=  -3.61831499E+01
 4,5,6: 1st-order hamiltonian combined with 1st and 0th-order wfs
     kin1=  -9.32596836E+01  Hartree=   0.00000000E+00     xc=   0.00000000E+00
 7,8,9: eventually, occupation + non-local contributions
    edocc=   8.24667046E+00     enl0=   8.00291799E-01   enl1=  -3.15390172E+01
 1-9 gives the relaxation energy (to be shifted if some occ is /=2.0)
   erelax=  -6.23993504E+01
  No Ewald or frozen-wf contrib.: the relaxation energy is the total one
 2DEtotal=   -0.6239935041E+02 Ha. Also 2DEtotal=   -0.169797267667E+04 eV
    (  non-var. 2DEtotal :   -6.2399350412E+01 Ha)

 Perturbation wavevector (in red.coord.)   0.000000  0.000000  0.000000
 Perturbation : derivative vs k along direction   2
 The set of symmetries contains only one element for this perturbation.
 symkpt : not enough symmetry to change the number of k points.

[...]

 Perturbation wavevector (in red.coord.)   0.000000  0.000000  0.000000
 Perturbation : derivative vs k along direction   3
 The set of symmetries contains only one element for this perturbation.
 symkpt : not enough symmetry to change the number of k points.

 Initialisation of the first-order wave-functions :
  ireadwf=   0

--- !BeginCycle
iteration_state: {dtset: 1, }
solver: {iscf: 7, nstep: 2000, nline: 4, wfoptalg: 0, }
tolerances: {tolwfr: 1.00E-20, }
...

     iter   2DEtotal(Ha)        deltaE(Ha) residm    vres2
-ETOT  1  -30.423100581368     -3.042E+01 6.920E-02 0.000E+00
 ETOT  2  -30.444451376525     -2.135E-02 5.098E-03 0.000E+00
 ETOT  3  -30.444483704279     -3.233E-05 2.243E-04 0.000E+00
 ETOT  4  -30.444483858213     -1.539E-07 3.175E-05 0.000E+00
 ETOT  5  -30.444483859317     -1.104E-09 1.932E-06 0.000E+00
 ETOT  6  -30.444483859327     -9.933E-12 3.326E-07 0.000E+00
 ETOT  7  -30.444483859327     -9.948E-14 2.334E-08 0.000E+00
 ETOT  8  -30.444483859327     -1.421E-14 4.155E-09 0.000E+00
 ETOT  9  -30.444483859327      2.487E-14 3.036E-10 0.000E+00
 ETOT 10  -30.444483859327     -1.066E-14 5.422E-11 0.000E+00
 ETOT 11  -30.444483859327      7.105E-15 4.002E-12 0.000E+00
 ETOT 12  -30.444483859327     -3.553E-15 7.243E-13 0.000E+00
 ETOT 13  -30.444483859327      3.553E-15 5.343E-14 0.000E+00
 ETOT 14  -30.444483859327     -3.553E-15 9.821E-15 0.000E+00
 ETOT 15  -30.444483859327     -3.553E-15 7.222E-16 0.000E+00
 ETOT 16  -30.444483859327      7.105E-15 1.345E-16 0.000E+00
 ETOT 17  -30.444483859327      3.553E-15 9.859E-18 0.000E+00
 ETOT 18  -30.444483859327      0.000E+00 1.856E-18 0.000E+00
 ETOT 19  -30.444483859327     -3.553E-15 1.356E-19 0.000E+00
 ETOT 20  -30.444483859327      0.000E+00 2.576E-20 0.000E+00
 ETOT 21  -30.444483859327      3.553E-15 9.524E-21 0.000E+00

 At SCF step   21   max residual=  9.52E-21 < tolwfr=  1.00E-20 =>converged.

 ----iterations are completed or convergence reached----

 dfpt_looppert: DFPT cycle converged with prtwf=-1. Will skip output of the 1st-order WFK file.
 dfpt_looppert : ek2=    4.4043316713E+01
          f-sum rule ratio=    1.0669291640E+00
 prteigrs : about to open file /scratch/users/j/a/jabreu/flow_simple_11atoms/flow/w305/t1/tmpdata/tmp_1WF1_EIG
 Expectation of eigenvalue derivatives (hartree) for nkpt=   2  k points:
  (in case of degenerate eigenvalues, averaged derivative)
 kpt#   1, nband= 39, wtk=  0.50000, kpt=  0.5000  0.5000  0.0000 (reduced coord)
   0.00000   -0.00000   -0.00000   -0.00000   -0.00000   -0.00000    0.00000    0.00000
  -0.00000   -0.00000    0.00000   -0.00000    0.00000    0.00000   -0.00000   -0.00000
  -0.00000   -0.00000    0.00000    0.00000   -0.00000    0.00000    0.00000   -0.00000
  -0.00000    0.00000   -0.00000   -0.00000    0.00000    0.00000    0.00000   -0.00000
  -0.00000   -0.00000    0.00000    0.00000    0.00000    0.00000    0.00000
 prteigrs : prtvol=0 or 1, do not print more k-points.

 Eight components of 2nd-order total energy (hartree) are
 1,2,3: 0th-order hamiltonian combined with 1st-order wavefunctions
     kin0=   3.83841751E+01 eigvalue=   3.92829866E+00  local=  -1.73076567E+01
 4,5,6: 1st-order hamiltonian combined with 1st and 0th-order wfs
     kin1=  -4.69910991E+01  Hartree=   0.00000000E+00     xc=   0.00000000E+00
 7,8,9: eventually, occupation + non-local contributions
    edocc=   5.14503452E+00     enl0=   2.94632287E-01   enl1=  -1.38978686E+01
 1-9 gives the relaxation energy (to be shifted if some occ is /=2.0)
   erelax=  -3.04444839E+01
  No Ewald or frozen-wf contrib.: the relaxation energy is the total one
 2DEtotal=   -0.3044448386E+02 Ha. Also 2DEtotal=   -0.828436536716E+03 eV
    (  non-var. 2DEtotal :   -3.0444483859E+01 Ha)

 CALCULATION OF EFFECTIVE MASSES
 NOTE : Additional infos (eff. mass eigenvalues, eigenvectors and, if degenerate, average mass) are available in stdout.

 K-point ( 0.500, 0.500, 0.000) | band =    30
 Effective mass tensor:
             -4.3824360219              2.4356141481              0.0925301825
              2.4356141481             -8.8297767726              0.0408150433
              0.0925301825              0.0408150433             -0.5843926738
 Effective mass tensor eigenvalues:
             -9.9041249261             -3.3118377889             -0.5806427533
 Angular average effective mass 1/(<1/m>)=  -1.4116686780
 Angular average effective mass for Frohlich model (<m**0.5>)**2=  -2.0519217424
 Effective masses along directions: (cart. coord. / red. coord. -> eff. mass)
    1:   1.000000  0.000000  0.000000 /   0.829139  0.559042  0.000000 ->  -3.6921549588
    2:   0.000000  1.000000  0.000000 /   0.000000  1.000000  0.000000 ->  -7.4615343431
    3:   0.000000  0.000000  1.000000 /   0.252860  0.252860  0.933876 ->  -0.5813009475
    4:   0.577350  0.577350  0.577350 /   0.533994  0.701687  0.471684 ->  -1.2429079708
    5:   0.000000  0.707107  0.707107 /   0.196654  0.658653  0.726294 ->  -1.0544355177
    6:   0.707107  0.000000  0.707107 /   0.652887  0.491072  0.576704 ->  -0.9581483782
    7:   0.707107  0.707107  0.000000 /   0.577748  0.816215  0.000000 ->  -3.6053568557

 K-point ( 0.000, 0.000, 0.000) | band =    31
 Effective mass tensor:
              0.6259922209              0.0606792844              0.0731288677
              0.0606792844              0.5151903182              0.0322565929
              0.0731288677              0.0322565929              0.5304359250
 Effective mass tensor eigenvalues:
              0.4884253340              0.4909539152              0.6922392148
 Angular average effective mass 1/(<1/m>)=   0.5426098657
 Angular average effective mass for Frohlich model (<m**0.5>)**2=   0.5466803751
 Effective masses along directions: (cart. coord. / red. coord. -> eff. mass)
    1:   1.000000  0.000000  0.000000 /   0.829139  0.559042  0.000000 ->   0.6097491504
    2:   0.000000  1.000000  0.000000 /   0.000000  1.000000  0.000000 ->   0.5080947826
    3:   0.000000  0.000000  1.000000 /   0.252860  0.252860  0.933876 ->   0.5206492554
    4:   0.577350  0.577350  0.577350 /   0.533994  0.701687  0.471684 ->   0.6594449401
    5:   0.000000  0.707107  0.707107 /   0.196654  0.658653  0.726294 ->   0.5406879918
    6:   0.707107  0.000000  0.707107 /   0.652887  0.491072  0.576704 ->   0.6389066889
    7:   0.707107  0.707107  0.000000 /   0.577748  0.816215  0.000000 ->   0.6156164315

 END OF EFFECTIVE MASSES SECTION

 ---- first-order wavefunction calculations are completed ----

 Total localisation tensor (bohr^2) in cartesian coordinates
  WARNING : still subject to testing - especially symmetries.
      direction              matrix element
   alpha     beta       real part   imaginary part
     1        1       1.4948332037    0.0000000000
     1        2       0.5117055280    0.0000000000
     1        3       0.5408593889    0.0000000000
     2        1       0.5117055280    0.0000000000
     2        2       0.5604775281    0.0000000000
     2        3       0.2385727407    0.0000000000
     3        1       0.5408593889    0.0000000000
     3        2       0.2385727407    0.0000000000
     3        3       1.0226469516    0.0000000000

 respfn : d/dk was computed, but no 2DTE, so no DDB output.

== END DATASET(S) ==============================================================

 -outvars: echo values of variables after computation  --------
            acell      1.0000000000E+00  1.0000000000E+00  1.0000000000E+00 Bohr
              amu      6.94100000E+00  1.21753000E+02  1.59994000E+01
             ecut      4.40000000E+01 Hartree
           etotal     -3.0444483859E+01
            fcart      0.0000000000E+00  0.0000000000E+00  0.0000000000E+00
                       0.0000000000E+00  0.0000000000E+00  0.0000000000E+00
                       0.0000000000E+00  0.0000000000E+00  0.0000000000E+00
                       0.0000000000E+00  0.0000000000E+00  0.0000000000E+00
                       0.0000000000E+00  0.0000000000E+00  0.0000000000E+00
                       0.0000000000E+00  0.0000000000E+00  0.0000000000E+00
                       0.0000000000E+00  0.0000000000E+00  0.0000000000E+00
                       0.0000000000E+00  0.0000000000E+00  0.0000000000E+00
                       0.0000000000E+00  0.0000000000E+00  0.0000000000E+00
                       0.0000000000E+00  0.0000000000E+00  0.0000000000E+00
                       0.0000000000E+00  0.0000000000E+00  0.0000000000E+00
-          fftalg         512
           irdden           1
           irdwfk           1
           istwfk        1    1
              ixc     -116133
              kpt      5.00000000E-01  5.00000000E-01  0.00000000E+00
                       0.00000000E+00  0.00000000E+00  0.00000000E+00
           kptopt           0
P           mkmem           2
P          mkqmem           2
P          mk1mem           2
            natom          11
            nband          39
           nbdbuf           4
            ngfft          60      60      72
             nkpt           2
            nstep        2000
             nsym           4
           ntypat           3
              occ      2.000000  2.000000  2.000000  2.000000  2.000000  2.000000
                       2.000000  2.000000  2.000000  2.000000  2.000000  2.000000
                       2.000000  2.000000  2.000000  2.000000  2.000000  2.000000
                       2.000000  2.000000  2.000000  2.000000  2.000000  2.000000
                       2.000000  2.000000  2.000000  2.000000  2.000000  2.000000
                       0.000000  0.000000  0.000000  0.000000  0.000000  0.000000
                       0.000000  0.000000  0.000000
        optdriver           1
            prtwf          -1
            rfdir           1       1       1
           rfelfd           2
            rprim      9.4456725758E+00  0.0000000000E+00  2.9692783195E+00
                       6.3686912682E+00  6.9757079884E+00  2.9692783195E+00
                       0.0000000000E+00  0.0000000000E+00  1.0966299532E+01
          spgroup          12
           strten      0.0000000000E+00  0.0000000000E+00  0.0000000000E+00
                       0.0000000000E+00  0.0000000000E+00  0.0000000000E+00
           symrel      1  0  0   0  1  0   0  0  1      -1  0  0   0 -1  0   0  0 -1
                       0 -1  0  -1  0  0   0  0 -1       0  1  0   1  0  0   0  0  1
           tolwfr      1.00000000E-20
            typat      1  1  1  1  1  2  3  3  3  3  3
           useylm           1
              wtk        0.50000    0.50000
           xangst      2.4132785515E+00  1.0644959631E+00  2.8962771188E+00
                       0.0000000000E+00  0.0000000000E+00  2.9015578873E+00
                       5.7619491017E+00  2.5415928692E+00  2.9762193661E+00
                       2.6066518129E+00  1.1497928120E+00  5.9694452338E+00
                       5.9553223631E+00  2.6268897182E+00  6.0493874812E+00
                       0.0000000000E+00  0.0000000000E+00  0.0000000000E+00
                       1.2162840883E+00  5.3650230353E-01  1.4689491758E+00
                       4.1843004573E+00  1.8456928406E+00  1.5712744126E+00
                       7.0443786117E+00  3.1072718852E+00  4.4967305960E+00
                       1.3242223029E+00  5.8411379604E-01  4.4489340039E+00
                       7.1523168263E+00  3.1548833777E+00  7.4767154241E+00
            xcart      4.5604355448E+00  2.0116058397E+00  5.4731705594E+00
                       0.0000000000E+00  0.0000000000E+00  5.4831497658E+00
                       1.0888505794E+01  4.8029144642E+00  5.6242395134E+00
                       4.9258580501E+00  2.1727935242E+00  1.1280616657E+01
                       1.1253928299E+01  4.9641021487E+00  1.1431685611E+01
                       0.0000000000E+00  0.0000000000E+00  0.0000000000E+00
                       2.2984438267E+00  1.0138424233E+00  2.7759116454E+00
                       7.9071819220E+00  3.4878539942E+00  2.9692783195E+00
                       1.3311946352E+01  5.8718928834E+00  8.4975893198E+00
                       2.5024174916E+00  1.1038151050E+00  8.4072668507E+00
                       1.3515920017E+01  5.9618655651E+00  1.4128944525E+01
             xred      2.8837300000E-01  2.8837300000E-01  3.4292800000E-01
                       0.0000000000E+00  0.0000000000E+00  5.0000000000E-01
                       6.8852000000E-01  6.8852000000E-01  1.4001300000E-01
                       3.1148000000E-01  3.1148000000E-01  8.5998700000E-01
                       7.1162700000E-01  7.1162700000E-01  6.5707200000E-01
                       0.0000000000E+00  0.0000000000E+00  0.0000000000E+00
                       1.4533900000E-01  1.4533900000E-01  1.7442600000E-01
                       5.0000000000E-01  5.0000000000E-01  5.5511151231E-17
                       8.4176300000E-01  8.4176300000E-01  3.1904400000E-01
                       1.5823700000E-01  1.5823700000E-01  6.8095600000E-01
                       8.5466100000E-01  8.5466100000E-01  8.2557400000E-01
            znucl        3.00000   51.00000    8.00000

- Timing analysis has been suppressed with timopt=0

 Suggested references for the acknowledgment of ABINIT usage.

 Calculation completed.
.Delivered   2 WARNINGs and   5 COMMENTs to log file.