.Version 9.5.1 of ABINIT

 ABINIT is a project of the Universite Catholique de Louvain,
 Corning Inc. and other collaborators, see ~abinit/doc/developers/contributors.txt .
 acknowledgments of the ABINIT effort.

.Starting date : Tue  4 May 2021.
- ( at 19h50 )

- input  file    -> /scratch/users/j/a/jabreu/flow_simple_6atoms/flow/w250/t1/run.abi
- output file    -> /scratch/users/j/a/jabreu/flow_simple_6atoms/flow/w250/t1/run.abo
- root for input  files -> /scratch/users/j/a/jabreu/flow_simple_6atoms/flow/w250/t1/indata/in
- root for output files -> /scratch/users/j/a/jabreu/flow_simple_6atoms/flow/w250/t1/outdata/out

 Symmetries : space group Pn n m (# 58); Bravais oP (primitive ortho.)
     intxc =       0      iscf =       7    lmnmax =      18     lnmax =       6
     mgfft =      72  mpssoang =       3    mqgrid =    3494     natom =       6
  nloc_mem =       1    nspden =       1   nspinor =       1    nsppol =       1
      nsym =       8    n1xccc =    2501    ntypat =       2    occopt =       1
   xclevel =       2
-    mband =          33        mffmem =           1         mkmem =           1
-   mkqmem =           1        mk1mem =           1           mpw =       13267
      nfft =      233280          nkpt =           1
  Rough estimation (10% accuracy) of disk space for files :

------------- Echo of variables that govern the present computation ------------
-
- outvars: echo of selected default values
-   iomode0 =  0 , fftalg0 =512 , wfoptalg0 =  0
-
- outvars: echo of global parameters not present in the input file
-  max_nthreads =    0
-
 -outvars: echo values of preprocessed input variables --------
            acell      1.0000000000E+00  1.0000000000E+00  1.0000000000E+00 Bohr
              amu      4.00780000E+01  7.99040000E+01
             ecut      3.60000000E+01 Hartree
-          fftalg         512
           irdden           1
           irdwfk           1
           istwfk        1
              ixc     -116133
           kptopt           0
P           mkmem           1
P          mkqmem           1
P          mk1mem           1
            natom           6
            nband          33
           nbdbuf           4
            ngfft          45      72      72
             nkpt           1
            nstep        1000
             nsym           8
           ntypat           2
              occ      2.000000  2.000000  2.000000  2.000000  2.000000  2.000000
                       2.000000  2.000000  2.000000  2.000000  2.000000  2.000000
                       2.000000  2.000000  2.000000  2.000000  2.000000  2.000000
                       2.000000  2.000000  2.000000  2.000000  2.000000  2.000000
                       0.000000  0.000000  0.000000  0.000000  0.000000  0.000000
                       0.000000  0.000000  0.000000
        optdriver           1
            prtwf          -1
            rfdir           1       1       1
           rfelfd           2
            rprim      8.1181683593E+00  0.0000000000E+00  0.0000000000E+00
                       0.0000000000E+00  1.2288205153E+01  0.0000000000E+00
                       0.0000000000E+00  0.0000000000E+00  1.2933163747E+01
          spgroup          58
           symrel      1  0  0   0  1  0   0  0  1      -1  0  0   0 -1  0   0  0 -1
                      -1  0  0   0  1  0   0  0 -1       1  0  0   0 -1  0   0  0  1
                      -1  0  0   0 -1  0   0  0  1       1  0  0   0  1  0   0  0 -1
                       1  0  0   0 -1  0   0  0 -1      -1  0  0   0  1  0   0  0  1
            tnons      0.0000000  0.0000000  0.0000000     0.0000000  0.0000000  0.0000000
                       0.5000000  0.5000000  0.5000000     0.5000000  0.5000000  0.5000000
                       0.5000000  0.5000000  0.5000000     0.5000000  0.5000000  0.5000000
                       0.0000000  0.0000000  0.0000000     0.0000000  0.0000000  0.0000000
           tolwfr      1.00000000E-20
            typat      1  1  2  2  2  2
           useylm           1
           xangst      0.0000000000E+00  0.0000000000E+00  0.0000000000E+00
                       2.1479748356E+00  3.2513190508E+00  3.4219677450E+00
                       0.0000000000E+00  1.6935730777E+00  2.3381279012E+00
                       0.0000000000E+00  4.8090650238E+00  4.5058075889E+00
                       2.1479748356E+00  4.9448921285E+00  1.0838398439E+00
                       2.1479748356E+00  1.5577459731E+00  5.7600956462E+00
            xcart      0.0000000000E+00  0.0000000000E+00  0.0000000000E+00
                       4.0590841797E+00  6.1441025766E+00  6.4665818737E+00
                       0.0000000000E+00  3.2003893029E+00  4.4184213968E+00
                       0.0000000000E+00  9.0878158503E+00  8.5147423506E+00
                       4.0590841797E+00  9.3444918795E+00  2.0481604769E+00
                       4.0590841797E+00  2.9437132737E+00  1.0885003271E+01
             xred      0.0000000000E+00  0.0000000000E+00  0.0000000000E+00
                       5.0000000000E-01  5.0000000000E-01  5.0000000000E-01
                       0.0000000000E+00  2.6044400000E-01  3.4163500000E-01
                       0.0000000000E+00  7.3955600000E-01  6.5836500000E-01
                       5.0000000000E-01  7.6044400000E-01  1.5836500000E-01
                       5.0000000000E-01  2.3955600000E-01  8.4163500000E-01
            znucl       20.00000   35.00000

 chkinp: Checking input parameters for consistency.

== DATASET  1 ==================================================================
-   mpi_nproc: 1, omp_nthreads: -1 (-1 if OMP is not activated)

--- !DatasetInfo
iteration_state: {dtset: 1, }
dimensions: {natom: 6, nkpt: 1, mband: 33, nsppol: 1, nspinor: 1, nspden: 1, mpw: 13267, }
cutoff_energies: {ecut:  36.0, pawecutdg:  -1.0, }
electrons: {nelect:   4.80000000E+01, charge:   0.00000000E+00, occopt:   1.00000000E+00, tsmear:   1.00000000E-02, }
meta: {optdriver: 1, rfelfd: 2, }
...

 Real(R)+Recip(G) space primitive vectors, cartesian coordinates (Bohr,Bohr^-1):
 R(1)=  8.1181684  0.0000000  0.0000000  G(1)=  0.1231805  0.0000000  0.0000000
 R(2)=  0.0000000 12.2882052  0.0000000  G(2)=  0.0000000  0.0813788  0.0000000
 R(3)=  0.0000000  0.0000000 12.9331637  G(3)=  0.0000000  0.0000000  0.0773206
 Unit cell volume ucvol=  1.2901829E+03 bohr^3
 Angles (23,13,12)=  9.00000000E+01  9.00000000E+01  9.00000000E+01 degrees

 getcut: wavevector=  0.0000  0.0000  0.0000  ngfft=  45  72  72
         ecut(hartree)=     36.000   => boxcut(ratio)=   2.00668

--- Pseudopotential description ------------------------------------------------
- pspini: atom type   1  psp file is /scratch/users/j/a/jabreu/pseudos/PBEsol/Ca.psp8
- pspatm: opening atomic psp file    /scratch/users/j/a/jabreu/pseudos/PBEsol/Ca.psp8
- Ca    ONCVPSP-3.3.0  r_core=   1.45885   1.45885   1.85192
- 20.00000  10.00000    180112                znucl, zion, pspdat
    8 -116133    2    4       400   0.00000   pspcod,pspxc,lmax,lloc,mmax,r2well
    3.99000000000000    6.00000000000000    0.00000000000000   rchrg,fchrg,qchrg
     nproj     2     2     2
     extension_switch     1
  pspatm : epsatm=   12.46045226
         --- l  ekb(1:nproj) -->
             0   10.054847    0.973777
             1    2.998958    0.458102
             2   -3.447298   -1.091650
 pspatm: atomic psp has been read  and splines computed

- pspini: atom type   2  psp file is /scratch/users/j/a/jabreu/pseudos/PBEsol/Br.psp8
- pspatm: opening atomic psp file    /scratch/users/j/a/jabreu/pseudos/PBEsol/Br.psp8
- Br    ONCVPSP-3.3.0  r_core=   1.81012   1.51356   1.92136
- 35.00000   7.00000    180112                znucl, zion, pspdat
    8 -116133    2    4       600   0.00000   pspcod,pspxc,lmax,lloc,mmax,r2well
    5.99000000000000    8.00000000000000    0.00000000000000   rchrg,fchrg,qchrg
     nproj     2     2     2
     extension_switch     1
  pspatm : epsatm=   10.94933070
         --- l  ekb(1:nproj) -->
             0    8.508690    0.897946
             1    5.393311    0.892021
             2    2.527513    0.394763
 pspatm: atomic psp has been read  and splines computed

   3.29847491E+03                                ecore*ucvol(ha*bohr**3)

-inwffil : will read wavefunctions from disk file /scratch/users/j/a/jabreu/flow_simple_6atoms/flow/w250/t1/indata/in_WFK

 ==>  initialize data related to q vector <==

 The list of irreducible perturbations for this q vector is:
    1)    idir= 1    ipert=   7
    2)    idir= 2    ipert=   7
    3)    idir= 3    ipert=   7

 Perturbation wavevector (in red.coord.)   0.000000  0.000000  0.000000
 Perturbation : derivative vs k along direction   1

 dfpt_looppert : COMMENT -
  In a d/dk calculation, iscf is set to -3 automatically.
 The set of symmetries contains only one element for this perturbation.
 symkpt : not enough symmetry to change the number of k points.

[...]

 Initialisation of the first-order wave-functions :
  ireadwf=   0

--- !BeginCycle
iteration_state: {dtset: 1, }
solver: {iscf: 7, nstep: 1000, nline: 4, wfoptalg: 0, }
tolerances: {tolwfr: 1.00E-20, }
...

     iter   2DEtotal(Ha)        deltaE(Ha) residm    vres2
-ETOT  1  -33.155804636677     -3.316E+01 3.881E-02 0.000E+00
 ETOT  2  -33.256032005902     -1.002E-01 2.271E-03 0.000E+00
 ETOT  3  -33.258678040093     -2.646E-03 6.917E-05 0.000E+00
 ETOT  4  -33.258787054784     -1.090E-04 2.463E-06 0.000E+00
 ETOT  5  -33.258792728136     -5.673E-06 3.256E-07 0.000E+00
 ETOT  6  -33.258793054622     -3.265E-07 1.123E-08 0.000E+00
 ETOT  7  -33.258793075649     -2.103E-08 1.534E-09 0.000E+00
 ETOT  8  -33.258793077056     -1.407E-09 5.798E-11 0.000E+00
 ETOT  9  -33.258793077156     -1.005E-10 8.492E-12 0.000E+00
 ETOT 10  -33.258793077163     -7.283E-12 2.755E-13 0.000E+00
 ETOT 11  -33.258793077164     -5.400E-13 5.248E-14 0.000E+00
 ETOT 12  -33.258793077164      2.842E-14 1.638E-15 0.000E+00
 ETOT 13  -33.258793077164      1.421E-14 3.166E-16 0.000E+00
 ETOT 14  -33.258793077164     -1.350E-13 9.940E-18 0.000E+00
 ETOT 15  -33.258793077164      4.974E-14 3.080E-18 0.000E+00
 ETOT 16  -33.258793077164      4.974E-14 6.096E-19 0.000E+00
 ETOT 17  -33.258793077164     -3.553E-14 3.670E-19 0.000E+00
 ETOT 18  -33.258793077164     -7.105E-15 7.406E-20 0.000E+00
 ETOT 19  -33.258793077164     -7.105E-15 4.400E-20 0.000E+00
 ETOT 20  -33.258793077164      7.105E-15 9.486E-21 0.000E+00

 At SCF step   20   max residual=  9.49E-21 < tolwfr=  1.00E-20 =>converged.

 ----iterations are completed or convergence reached----

 dfpt_looppert: DFPT cycle converged with prtwf=-1. Will skip output of the 1st-order WFK file.
 dfpt_looppert : ek2=    5.7506225405E+01
          f-sum rule ratio=    1.1698296178E+00
 prteigrs : about to open file /scratch/users/j/a/jabreu/flow_simple_6atoms/flow/w250/t1/tmpdata/tmp_1WF1_EIG
 Expectation of eigenvalue derivatives (hartree) for nkpt=   1  k points:
  (in case of degenerate eigenvalues, averaged derivative)
 kpt#   1, nband= 33, wtk=  1.00000, kpt=  0.0000  0.0000  0.0000 (reduced coord)
   0.00000   -0.00000   -0.00000    0.00000   -0.00000   -0.00000    0.00000    0.00000
   0.00000    0.00000    0.00000    0.00000    0.00000   -0.00000   -0.00000   -0.00000
   0.00000    0.00000   -0.00000   -0.00000    0.00000   -0.00000    0.00000    0.00000
  -0.00000    0.00000   -0.00000   -0.00000   -0.00000    0.00000    0.00000   -0.00000
  -0.00003

 Eight components of 2nd-order total energy (hartree) are
 1,2,3: 0th-order hamiltonian combined with 1st-order wavefunctions
     kin0=   4.67672258E+01 eigvalue=   2.49875357E+00  local=  -3.02343223E+01
 4,5,6: 1st-order hamiltonian combined with 1st and 0th-order wfs
     kin1=  -6.72724857E+01  Hartree=   0.00000000E+00     xc=   0.00000000E+00
 7,8,9: eventually, occupation + non-local contributions
    edocc=   1.20120454E+01     enl0=   2.21509068E+00   enl1=   7.54899532E-01
 1-9 gives the relaxation energy (to be shifted if some occ is /=2.0)
   erelax=  -3.32587931E+01
  No Ewald or frozen-wf contrib.: the relaxation energy is the total one
 2DEtotal=   -0.3325879308E+02 Ha. Also 2DEtotal=   -0.905017785143E+03 eV
    (  non-var. 2DEtotal :   -3.3258793077E+01 Ha)

 Perturbation wavevector (in red.coord.)   0.000000  0.000000  0.000000
 Perturbation : derivative vs k along direction   2
 The set of symmetries contains only one element for this perturbation.
 symkpt : not enough symmetry to change the number of k points.

[...]

 Perturbation wavevector (in red.coord.)   0.000000  0.000000  0.000000
 Perturbation : derivative vs k along direction   3
 The set of symmetries contains only one element for this perturbation.
 symkpt : not enough symmetry to change the number of k points.

-inwffil : will read wavefunctions from disk file /scratch/users/j/a/jabreu/flow_simple_6atoms/flow/w250/t1/indata/in_WFK

 Initialisation of the first-order wave-functions :
  ireadwf=   0

--- !BeginCycle
iteration_state: {dtset: 1, }
solver: {iscf: 7, nstep: 1000, nline: 4, wfoptalg: 0, }
tolerances: {tolwfr: 1.00E-20, }
...

     iter   2DEtotal(Ha)        deltaE(Ha) residm    vres2
-ETOT  1  -12.210828752485     -1.221E+01 1.266E-02 0.000E+00
 ETOT  2  -12.235418884784     -2.459E-02 8.342E-04 0.000E+00
 ETOT  3  -12.236041918957     -6.230E-04 6.669E-06 0.000E+00
 ETOT  4  -12.236064358641     -2.244E-05 7.191E-07 0.000E+00
 ETOT  5  -12.236065313189     -9.545E-07 1.620E-08 0.000E+00
 ETOT  6  -12.236065355768     -4.258E-08 2.054E-09 0.000E+00
 ETOT  7  -12.236065357893     -2.125E-09 4.716E-11 0.000E+00
 ETOT  8  -12.236065358003     -1.103E-10 6.587E-12 0.000E+00
 ETOT  9  -12.236065358009     -6.109E-12 1.657E-13 0.000E+00
 ETOT 10  -12.236065358010     -3.570E-13 2.099E-14 0.000E+00
 ETOT 11  -12.236065358010     -2.842E-14 6.761E-16 0.000E+00
 ETOT 12  -12.236065358010      1.421E-14 1.274E-16 0.000E+00
 ETOT 13  -12.236065358010     -1.243E-14 4.833E-17 0.000E+00
 ETOT 14  -12.236065358010      0.000E+00 8.054E-18 0.000E+00
 ETOT 15  -12.236065358010      3.553E-15 2.994E-18 0.000E+00
 ETOT 16  -12.236065358010     -1.776E-15 1.191E-18 0.000E+00
 ETOT 17  -12.236065358010      0.000E+00 3.734E-19 0.000E+00
 ETOT 18  -12.236065358010      1.776E-15 2.144E-19 0.000E+00
 ETOT 19  -12.236065358010     -3.553E-15 6.704E-20 0.000E+00
 ETOT 20  -12.236065358010      0.000E+00 3.870E-20 0.000E+00
 ETOT 21  -12.236065358010      0.000E+00 1.209E-20 0.000E+00
 ETOT 22  -12.236065358010      1.066E-14 9.879E-21 0.000E+00

 At SCF step   22   max residual=  9.88E-21 < tolwfr=  1.00E-20 =>converged.

 ----iterations are completed or convergence reached----

 dfpt_looppert: DFPT cycle converged with prtwf=-1. Will skip output of the 1st-order WFK file.
 dfpt_looppert : ek2=    2.2657991905E+01
          f-sum rule ratio=    1.1014678914E+00
 prteigrs : about to open file /scratch/users/j/a/jabreu/flow_simple_6atoms/flow/w250/t1/tmpdata/tmp_1WF1_EIG
 Expectation of eigenvalue derivatives (hartree) for nkpt=   1  k points:
  (in case of degenerate eigenvalues, averaged derivative)
 kpt#   1, nband= 33, wtk=  1.00000, kpt=  0.0000  0.0000  0.0000 (reduced coord)
   0.00000    0.00000   -0.00000   -0.00000   -0.00000    0.00000   -0.00000   -0.00000
   0.00000    0.00000    0.00000   -0.00000   -0.00000   -0.00000   -0.00000    0.00000
   0.00000    0.00000    0.00000   -0.00000    0.00000    0.00000    0.00000    0.00000
  -0.00000   -0.00000   -0.00000   -0.00000    0.00000   -0.00000   -0.00000    0.00000
   0.01412

 Eight components of 2nd-order total energy (hartree) are
 1,2,3: 0th-order hamiltonian combined with 1st-order wavefunctions
     kin0=   1.41303917E+01 eigvalue=   7.29456659E-01  local=  -8.43932557E+00
 4,5,6: 1st-order hamiltonian combined with 1st and 0th-order wfs
     kin1=  -2.49570506E+01  Hartree=   0.00000000E+00     xc=   0.00000000E+00
 7,8,9: eventually, occupation + non-local contributions
    edocc=   4.89409411E+00     enl0=   9.21448423E-01   enl1=   4.84919850E-01
 1-9 gives the relaxation energy (to be shifted if some occ is /=2.0)
   erelax=  -1.22360654E+01
  No Ewald or frozen-wf contrib.: the relaxation energy is the total one
 2DEtotal=   -0.1223606536E+02 Ha. Also 2DEtotal=   -0.332960271393E+03 eV
    (  non-var. 2DEtotal :   -1.2236065358E+01 Ha)

 CALCULATION OF EFFECTIVE MASSES
 NOTE : Additional infos (eff. mass eigenvalues, eigenvectors and, if degenerate, average mass) are available in stdout.

 K-point ( 0.000, 0.000, 0.000) | band =    24
 Effective mass tensor:
             -1.9314350454             -0.0000000052              0.0000334653
             -0.0000000052             -0.3804025374             -0.0000004464
              0.0000334653             -0.0000004464             -1.8949353286
 Effective mass tensor eigenvalues:
             -1.9314350761             -1.8949352979             -0.3804025374
 Angular average effective mass 1/(<1/m>)=  -0.8164894993
 Angular average effective mass for Frohlich model (<m**0.5>)**2=  -0.9940011496
 Effective masses along directions: (cart. coord. / red. coord. -> eff. mass)
    1:   1.000000  0.000000  0.000000 /   1.000000  0.000000  0.000000 ->  -1.9314350448
    2:   0.000000  1.000000  0.000000 /   0.000000  1.000000  0.000000 ->  -0.3804025374
    3:   0.000000  0.000000  1.000000 /   0.000000  0.000000  1.000000 ->  -1.8949353280
    4:   0.577350  0.577350  0.577350 /   0.414186  0.626940  0.659846 ->  -0.8164857139
    5:   0.000000  0.707107  0.707107 /   0.000000  0.688800  0.724952 ->  -0.6336100680
    6:   0.707107  0.000000  0.707107 /   0.531643  0.000000  0.846968 ->  -1.9129776395
    7:   0.707107  0.707107  0.000000 /   0.551218  0.834361  0.000000 ->  -0.6356180043

 K-point ( 0.000, 0.000, 0.000) | band =    25
 Effective mass tensor:
              0.5000993291             -0.0000000001              0.0000000053
             -0.0000000001              1.1055998901              0.0000030437
              0.0000000053              0.0000030437              1.0154234238
 Effective mass tensor eigenvalues:
              0.5000993291              1.0154234237              1.1055998902
 Angular average effective mass 1/(<1/m>)=   0.7714263774
 Angular average effective mass for Frohlich model (<m**0.5>)**2=   0.8042249318
 Effective masses along directions: (cart. coord. / red. coord. -> eff. mass)
    1:   1.000000  0.000000  0.000000 /   1.000000  0.000000  0.000000 ->   0.5000993291
    2:   0.000000  1.000000  0.000000 /   0.000000  1.000000  0.000000 ->   1.1055998901
    3:   0.000000  0.000000  1.000000 /   0.000000  0.000000  1.000000 ->   1.0154234237
    4:   0.577350  0.577350  0.577350 /   0.414186  0.626940  0.659846 ->   0.7714274571
    5:   0.000000  0.707107  0.707107 /   0.000000  0.688800  0.724952 ->   1.0585977442
    6:   0.707107  0.000000  0.707107 /   0.531643  0.000000  0.846968 ->   0.6701484033
    7:   0.707107  0.707107  0.000000 /   0.551218  0.834361  0.000000 ->   0.6886841030

 END OF EFFECTIVE MASSES SECTION

 ---- first-order wavefunction calculations are completed ----

 Total localisation tensor (bohr^2) in cartesian coordinates
  WARNING : still subject to testing - especially symmetries.
      direction              matrix element
   alpha     beta       real part   imaginary part
     1        1       1.4794600394    0.0000000000
     1        2       0.0000000000    0.0000000000
     1        3       0.0000000000    0.0000000000
     2        1       0.0000000000    0.0000000000
     2        2       1.1981081261    0.0000000000
     2        3       0.0000000000    0.0000000000
     3        1       0.0000000000    0.0000000000
     3        2       0.0000000000    0.0000000000
     3        3       1.2979805812    0.0000000000

 respfn : d/dk was computed, but no 2DTE, so no DDB output.

== END DATASET(S) ==============================================================

 -outvars: echo values of variables after computation  --------
            acell      1.0000000000E+00  1.0000000000E+00  1.0000000000E+00 Bohr
              amu      4.00780000E+01  7.99040000E+01
             ecut      3.60000000E+01 Hartree
           etotal     -1.2236065358E+01
            fcart      0.0000000000E+00  0.0000000000E+00  0.0000000000E+00
                       0.0000000000E+00  0.0000000000E+00  0.0000000000E+00
                       0.0000000000E+00  0.0000000000E+00  0.0000000000E+00
                       0.0000000000E+00  0.0000000000E+00  0.0000000000E+00
                       0.0000000000E+00  0.0000000000E+00  0.0000000000E+00
                       0.0000000000E+00  0.0000000000E+00  0.0000000000E+00
-          fftalg         512
           irdden           1
           irdwfk           1
           istwfk        1
              ixc     -116133
           kptopt           0
P           mkmem           1
P          mkqmem           1
P          mk1mem           1
            natom           6
            nband          33
           nbdbuf           4
            ngfft          45      72      72
             nkpt           1
            nstep        1000
             nsym           8
           ntypat           2
              occ      2.000000  2.000000  2.000000  2.000000  2.000000  2.000000
                       2.000000  2.000000  2.000000  2.000000  2.000000  2.000000
                       2.000000  2.000000  2.000000  2.000000  2.000000  2.000000
                       2.000000  2.000000  2.000000  2.000000  2.000000  2.000000
                       0.000000  0.000000  0.000000  0.000000  0.000000  0.000000
                       0.000000  0.000000  0.000000
        optdriver           1
            prtwf          -1
            rfdir           1       1       1
           rfelfd           2
            rprim      8.1181683593E+00  0.0000000000E+00  0.0000000000E+00
                       0.0000000000E+00  1.2288205153E+01  0.0000000000E+00
                       0.0000000000E+00  0.0000000000E+00  1.2933163747E+01
          spgroup          58
           strten      0.0000000000E+00  0.0000000000E+00  0.0000000000E+00
                       0.0000000000E+00  0.0000000000E+00  0.0000000000E+00
           symrel      1  0  0   0  1  0   0  0  1      -1  0  0   0 -1  0   0  0 -1
                      -1  0  0   0  1  0   0  0 -1       1  0  0   0 -1  0   0  0  1
                      -1  0  0   0 -1  0   0  0  1       1  0  0   0  1  0   0  0 -1
                       1  0  0   0 -1  0   0  0 -1      -1  0  0   0  1  0   0  0  1
            tnons      0.0000000  0.0000000  0.0000000     0.0000000  0.0000000  0.0000000
                       0.5000000  0.5000000  0.5000000     0.5000000  0.5000000  0.5000000
                       0.5000000  0.5000000  0.5000000     0.5000000  0.5000000  0.5000000
                       0.0000000  0.0000000  0.0000000     0.0000000  0.0000000  0.0000000
           tolwfr      1.00000000E-20
            typat      1  1  2  2  2  2
           useylm           1
           xangst      0.0000000000E+00  0.0000000000E+00  0.0000000000E+00
                       2.1479748356E+00  3.2513190508E+00  3.4219677450E+00
                       0.0000000000E+00  1.6935730777E+00  2.3381279012E+00
                       0.0000000000E+00  4.8090650238E+00  4.5058075889E+00
                       2.1479748356E+00  4.9448921285E+00  1.0838398439E+00
                       2.1479748356E+00  1.5577459731E+00  5.7600956462E+00
            xcart      0.0000000000E+00  0.0000000000E+00  0.0000000000E+00
                       4.0590841797E+00  6.1441025766E+00  6.4665818737E+00
                       0.0000000000E+00  3.2003893029E+00  4.4184213968E+00
                       0.0000000000E+00  9.0878158503E+00  8.5147423506E+00
                       4.0590841797E+00  9.3444918795E+00  2.0481604769E+00
                       4.0590841797E+00  2.9437132737E+00  1.0885003271E+01
             xred      0.0000000000E+00  0.0000000000E+00  0.0000000000E+00
                       5.0000000000E-01  5.0000000000E-01  5.0000000000E-01
                       0.0000000000E+00  2.6044400000E-01  3.4163500000E-01
                       0.0000000000E+00  7.3955600000E-01  6.5836500000E-01
                       5.0000000000E-01  7.6044400000E-01  1.5836500000E-01
                       5.0000000000E-01  2.3955600000E-01  8.4163500000E-01
            znucl       20.00000   35.00000

- Timing analysis has been suppressed with timopt=0

 Suggested references for the acknowledgment of ABINIT usage.

 Calculation completed.
.Delivered   6 WARNINGs and   5 COMMENTs to log file.