.Version 9.5.2 of ABINIT

 ABINIT is a project of the Universite Catholique de Louvain,
 Corning Inc. and other collaborators, see ~abinit/doc/developers/contributors.txt .
 acknowledgments of the ABINIT effort.

.Starting date : Mon 24 May 2021.
- ( at 16h01 )

- input  file    -> /scratch/users/j/a/jabreu/flow_simple_10atoms/flow/w365/t1/run.abi
- output file    -> /scratch/users/j/a/jabreu/flow_simple_10atoms/flow/w365/t1/run.abo
- root for input  files -> /scratch/users/j/a/jabreu/flow_simple_10atoms/flow/w365/t1/indata/in
- root for output files -> /scratch/users/j/a/jabreu/flow_simple_10atoms/flow/w365/t1/outdata/out

 Symmetries : space group C2/c (# 15); Bravais mC (1-face-center monocl.)
     intxc =       0      iscf =       7    lmnmax =      18     lnmax =       6
     mgfft =      72  mpssoang =       3    mqgrid =    3001     natom =      10
  nloc_mem =       1    nspden =       1   nspinor =       1    nsppol =       1
      nsym =       4    n1xccc =    2501    ntypat =       3    occopt =       1
   xclevel =       2
-    mband =          73        mffmem =           1         mkmem =           2
-   mkqmem =           2        mk1mem =           2           mpw =       14660
      nfft =      373248          nkpt =           2
  Rough estimation (10% accuracy) of disk space for files :

------------- Echo of variables that govern the present computation ------------
-
- outvars: echo of selected default values
-   iomode0 =  0 , fftalg0 =512 , wfoptalg0 =  0
-
- outvars: echo of global parameters not present in the input file
-  max_nthreads =    0
-
 -outvars: echo values of preprocessed input variables --------
            acell      1.0000000000E+00  1.0000000000E+00  1.0000000000E+00 Bohr
              amu      6.35460000E+01  2.07200000E+02  1.59994000E+01
             ecut      4.60000000E+01 Hartree
-          fftalg         512
           irdden           1
           irdwfk           1
           istwfk        1    0
              ixc     -116133
              kpt      5.00000000E-01  0.00000000E+00  5.00000000E-01
                       5.00000000E-01 -5.00000000E-01  0.00000000E+00
           kptopt           0
P           mkmem           2
P          mkqmem           2
P          mk1mem           2
            natom          10
            nband          73
           nbdbuf           4
            ngfft          72      72      72
             nkpt           2
            nstep        2000
             nsym           4
           ntypat           3
              occ      2.000000  2.000000  2.000000  2.000000  2.000000  2.000000
                       2.000000  2.000000  2.000000  2.000000  2.000000  2.000000
                       2.000000  2.000000  2.000000  2.000000  2.000000  2.000000
                       2.000000  2.000000  2.000000  2.000000  2.000000  2.000000
                       2.000000  2.000000  2.000000  2.000000  2.000000  2.000000
                       2.000000  2.000000  2.000000  2.000000  2.000000  2.000000
                       2.000000  2.000000  2.000000  2.000000  2.000000  2.000000
                       2.000000  2.000000  2.000000  2.000000  2.000000  2.000000
                       2.000000  2.000000  2.000000  2.000000  2.000000  2.000000
                       2.000000  2.000000  2.000000  2.000000  2.000000  2.000000
                       2.000000  2.000000  2.000000  2.000000  0.000000  0.000000
                       0.000000  0.000000  0.000000  0.000000  0.000000  0.000000
                       0.000000
        optdriver           1
            prtwf          -1
            rfdir           1       1       1
           rfelfd           2
            rprim      9.6034636760E+00  0.0000000000E+00  5.0447117086E+00
                      -2.8383423487E+00  9.1744387996E+00  5.0447117086E+00
                       0.0000000000E+00  0.0000000000E+00  1.1171571164E+01
          spgroup          15
           symrel      1  0  0   0  1  0   0  0  1      -1  0  0   0 -1  0   0  0 -1
                       0 -1  0  -1  0  0   0  0 -1       0  1  0   1  0  0   0  0  1
            tnons      0.0000000  0.0000000  0.0000000     0.0000000 -0.0000000  0.0000000
                      -0.0000000 -0.0000000  0.5000000     0.0000000  0.0000000  0.5000000
           tolwfr      1.00000000E-20
            typat      1  1  1  1  2  2  3  3  3  3
           useylm           1
              wtk        0.50000    0.50000
           xangst      1.7899740099E+00  2.4274519572E+00  2.6695464601E+00
                       1.7899740099E+00  2.4274519572E+00  5.6254168822E+00
                       2.5409670504E+00  0.0000000000E+00  4.2906436521E+00
                      -7.5099304055E-01  2.4274519572E+00  1.3347732300E+00
                      -6.1422345161E-01  4.2002783803E+00  4.1474816711E+00
                       4.1941714714E+00  6.5462553400E-01  7.1033520932E+00
                       2.3579368057E+00  4.1493358736E+00  5.8993870252E+00
                       3.1287717964E-01  1.3759525929E+00  2.3955763171E+00
                       1.2220112140E+00  7.0556804078E-01  5.3514467392E+00
                       3.2670708401E+00  3.4789513215E+00  8.8552574473E+00
            xcart      3.3825606637E+00  4.5872193998E+00  5.0447117086E+00
                       3.3825606637E+00  4.5872193998E+00  1.0630497291E+01
                       4.8017318380E+00  0.0000000000E+00  8.1081414363E+00
                      -1.4191711743E+00  4.5872193998E+00  2.5223558543E+00
                      -1.1607141079E+00  7.9373758207E+00  7.8376044996E+00
                       7.9258354352E+00  1.2370629789E+00  1.3423390082E+01
                       4.4558548014E+00  7.8411084344E+00  1.1148225830E+01
                       5.9125218274E-01  2.6001735724E+00  4.5269831697E+00
                       2.3092665259E+00  1.3333303652E+00  1.0112768752E+01
                       6.1738691446E+00  6.5742652272E+00  1.6734011412E+01
             xred      5.0000000000E-01  5.0000000000E-01  2.7755575616E-17
                       5.0000000000E-01  5.0000000000E-01  5.0000000000E-01
                       5.0000000000E-01  0.0000000000E+00  5.0000000000E-01
                      -2.7755575616E-17  5.0000000000E-01  2.7755575616E-17
                       1.3483800000E-01  8.6516200000E-01  2.5000000000E-01
                       8.6516200000E-01  1.3483800000E-01  7.5000000000E-01
                       7.1658500000E-01  8.5466900000E-01  2.8838400000E-01
                       1.4533100000E-01  2.8341500000E-01  2.1161600000E-01
                       2.8341500000E-01  1.4533100000E-01  7.1161600000E-01
                       8.5466900000E-01  7.1658500000E-01  7.8838400000E-01
            znucl       29.00000   82.00000    8.00000

 chkinp: Checking input parameters for consistency.

== DATASET  1 ==================================================================
-   mpi_nproc: 1, omp_nthreads: -1 (-1 if OMP is not activated)

--- !DatasetInfo
iteration_state: {dtset: 1, }
dimensions: {natom: 10, nkpt: 2, mband: 73, nsppol: 1, nspinor: 1, nspden: 1, mpw: 14660, }
cutoff_energies: {ecut:  46.0, pawecutdg:  -1.0, }
electrons: {nelect:   1.28000000E+02, charge:   0.00000000E+00, occopt:   1.00000000E+00, tsmear:   1.00000000E-02, }
meta: {optdriver: 1, rfelfd: 2, }
...

 Real(R)+Recip(G) space primitive vectors, cartesian coordinates (Bohr,Bohr^-1):
 R(1)=  9.6034637  0.0000000  5.0447117  G(1)=  0.1041291  0.0322149  0.0000000
 R(2)= -2.8383423  9.1744388  5.0447117  G(2)=  0.0000000  0.1089985  0.0000000
 R(3)=  0.0000000  0.0000000 11.1715712  G(3)= -0.0470213 -0.0637673  0.0895129
 Unit cell volume ucvol=  9.8428680E+02 bohr^3
 Angles (23,13,12)=  6.22869969E+01  6.22869969E+01  9.08807326E+01 degrees

 getcut: wavevector=  0.0000  0.0000  0.0000  ngfft=  72  72  72
         ecut(hartree)=     46.000   => boxcut(ratio)=   2.11114

--- Pseudopotential description ------------------------------------------------
- pspini: atom type   1  psp file is /scratch/users/j/a/jabreu/pseudos/PBEsol/Cu.psp8
- pspatm: opening atomic psp file    /scratch/users/j/a/jabreu/pseudos/PBEsol/Cu.psp8
- Cu    ONCVPSP-3.3.0  r_core=   1.26204   1.45626   1.76249
- 29.00000  19.00000    180112                znucl, zion, pspdat
    8 -116133    2    4       600   0.00000   pspcod,pspxc,lmax,lloc,mmax,r2well
    5.99000000000000    3.50000000000000    0.00000000000000   rchrg,fchrg,qchrg
     nproj     2     2     2
     extension_switch     1
  pspatm : epsatm=   21.63488701
         --- l  ekb(1:nproj) -->
             0    5.008230   -0.401634
             1   -3.496700   -0.765945
             2   -6.895851   -2.521180
 pspatm: atomic psp has been read  and splines computed

- pspini: atom type   2  psp file is /scratch/users/j/a/jabreu/pseudos/PBEsol/Pb.psp8
- pspatm: opening atomic psp file    /scratch/users/j/a/jabreu/pseudos/PBEsol/Pb.psp8
- Pb    ONCVPSP-3.3.0  r_core=   2.42823   2.42823   2.10438
- 82.00000  14.00000    180112                znucl, zion, pspdat
    8 -116133    2    4       600   0.00000   pspcod,pspxc,lmax,lloc,mmax,r2well
    5.99000000000000    6.00000000000000    0.00000000000000   rchrg,fchrg,qchrg
     nproj     2     2     2
     extension_switch     1
  pspatm : epsatm=   44.32675151
         --- l  ekb(1:nproj) -->
             0    6.256780    1.206521
             1    4.272336    0.573876
             2   -3.251371   -0.847363
 pspatm: atomic psp has been read  and splines computed

- pspini: atom type   3  psp file is /scratch/users/j/a/jabreu/pseudos/PBEsol/O.psp8
- pspatm: opening atomic psp file    /scratch/users/j/a/jabreu/pseudos/PBEsol/O.psp8
- O     ONCVPSP-3.3.0  r_core=   1.35509   1.45563   1.26150
-  8.00000   6.00000    180112                znucl, zion, pspdat
    8 -116133    2    4       600   0.00000   pspcod,pspxc,lmax,lloc,mmax,r2well
    5.99000000000000    4.00000000000000    0.00000000000000   rchrg,fchrg,qchrg
     nproj     2     2     1
     extension_switch     1
  pspatm : epsatm=    6.22910522
         --- l  ekb(1:nproj) -->
             0    6.050032    0.820363
             1   -4.739617   -1.153841
             2   -1.335834
 pspatm: atomic psp has been read  and splines computed

   2.56140124E+04                                ecore*ucvol(ha*bohr**3)

 ==>  initialize data related to q vector <==

 The list of irreducible perturbations for this q vector is:
    1)    idir= 1    ipert=  11
    2)    idir= 2    ipert=  11
    3)    idir= 3    ipert=  11

 Perturbation wavevector (in red.coord.)   0.000000  0.000000  0.000000
 Perturbation : derivative vs k along direction   1

 dfpt_looppert : COMMENT -
  In a d/dk calculation, iscf is set to -3 automatically.
 The set of symmetries contains only one element for this perturbation.
 symkpt : not enough symmetry to change the number of k points.

 Initialisation of the first-order wave-functions :
  ireadwf=   0

--- !BeginCycle
iteration_state: {dtset: 1, }
solver: {iscf: 7, nstep: 2000, nline: 4, wfoptalg: 0, }
tolerances: {tolwfr: 1.00E-20, }
...

     iter   2DEtotal(Ha)        deltaE(Ha) residm    vres2
[...]
 prteigrs : about to open file /scratch/users/j/a/jabreu/flow_simple_10atoms/flow/w365/t1/tmpdata/tmp_1WF1_EIG
 Expectation of eigenvalue derivatives (hartree) for nkpt=   2  k points:
  (in case of degenerate eigenvalues, averaged derivative)
 kpt#   1, nband= 73, wtk=  0.50000, kpt=  0.5000  0.0000  0.5000 (reduced coord)
  -0.00000   -0.00000    0.00000    0.00000    0.00000    0.00000    0.00000    0.00000
  -0.00000   -0.00000   -0.00000    0.00000    0.00000    0.00000    0.00000   -0.00000
   0.00000   -0.00000   -0.00000   -0.00000    0.00000   -0.00000   -0.00000    0.00000
  -0.00000   -0.00000   -0.00000    0.00000   -0.00000    0.00000   -0.00000    0.00000
   0.00000    0.00000   -0.00000    0.00000    0.00000    0.00000    0.00000    0.00000
   0.00000    0.00000   -0.00000    0.00000    0.00000    0.00000   -0.00000   -0.00000
   0.00000   -0.00000    0.00000    0.00000    0.00000   -0.00000    0.00000   -0.00000
  -0.00000   -0.00000    0.00000   -0.00000    0.00000   -0.00000   -0.00000    0.00000
  -0.00000    0.00000    0.00000   -0.00000    0.00000   -0.00000   -0.00000    0.00000
  -0.00001
 prteigrs : prtvol=0 or 1, do not print more k-points.

 Eight components of 2nd-order total energy (hartree) are
 1,2,3: 0th-order hamiltonian combined with 1st-order wavefunctions
     kin0=   1.20078150E+02 eigvalue=   2.66748608E+00  local=  -4.98521157E+01
 4,5,6: 1st-order hamiltonian combined with 1st and 0th-order wfs
     kin1=  -1.27294266E+02  Hartree=   0.00000000E+00     xc=   0.00000000E+00
 7,8,9: eventually, occupation + non-local contributions
    edocc=   1.27083351E+01     enl0=   2.12054994E+00   enl1=  -4.81505455E+01
 1-9 gives the relaxation energy (to be shifted if some occ is /=2.0)
   erelax=  -8.77224059E+01
  No Ewald or frozen-wf contrib.: the relaxation energy is the total one
 2DEtotal=   -0.8772240589E+02 Ha. Also 2DEtotal=   -0.238704805977E+04 eV
    (  non-var. 2DEtotal :   -8.7722405889E+01 Ha)

 Perturbation wavevector (in red.coord.)   0.000000  0.000000  0.000000
 Perturbation : derivative vs k along direction   2
 The set of symmetries contains only one element for this perturbation.
 symkpt : not enough symmetry to change the number of k points.

[...]

 Perturbation wavevector (in red.coord.)   0.000000  0.000000  0.000000
 Perturbation : derivative vs k along direction   3
 The set of symmetries contains only one element for this perturbation.
 symkpt : not enough symmetry to change the number of k points.

 Initialisation of the first-order wave-functions :
  ireadwf=   0

--- !BeginCycle
iteration_state: {dtset: 1, }
solver: {iscf: 7, nstep: 2000, nline: 4, wfoptalg: 0, }
tolerances: {tolwfr: 1.00E-20, }
...

     iter   2DEtotal(Ha)        deltaE(Ha) residm    vres2
-ETOT  1  -102.58849828537     -1.026E+02 1.629E-01 0.000E+00
 ETOT  2  -102.95752492855     -3.690E-01 1.389E-02 0.000E+00
 ETOT  3  -102.97035306986     -1.283E-02 1.917E-03 0.000E+00
 ETOT  4  -102.97109433387     -7.413E-04 3.863E-04 0.000E+00
 ETOT  5  -102.97114434280     -5.001E-05 5.147E-05 0.000E+00
 ETOT  6  -102.97114799187     -3.649E-06 1.131E-05 0.000E+00
 ETOT  7  -102.97114827302     -2.812E-07 3.375E-06 0.000E+00
 ETOT  8  -102.97114829554     -2.251E-08 3.787E-07 0.000E+00
 ETOT  9  -102.97114829740     -1.862E-09 1.064E-07 0.000E+00
 ETOT 10  -102.97114829756     -1.577E-10 1.411E-08 0.000E+00
 ETOT 11  -102.97114829757     -1.364E-11 4.573E-09 0.000E+00
 ETOT 12  -102.97114829757     -1.251E-12 6.313E-10 0.000E+00
 ETOT 13  -102.97114829757     -8.527E-14 2.033E-10 0.000E+00
 ETOT 14  -102.97114829757      8.527E-14 2.835E-11 0.000E+00
 ETOT 15  -102.97114829757     -1.421E-13 9.088E-12 0.000E+00
 ETOT 16  -102.97114829757      5.684E-14 1.278E-12 0.000E+00
 ETOT 17  -102.97114829757     -1.421E-14 4.234E-13 0.000E+00
 ETOT 18  -102.97114829757      4.263E-14 5.943E-14 0.000E+00
 ETOT 19  -102.97114829757     -2.842E-14 2.035E-14 0.000E+00
 ETOT 20  -102.97114829757     -2.842E-14 2.859E-15 0.000E+00
 ETOT 21  -102.97114829757      0.000E+00 9.845E-16 0.000E+00
 ETOT 22  -102.97114829757      0.000E+00 1.409E-16 0.000E+00
 ETOT 23  -102.97114829757      0.000E+00 4.770E-17 0.000E+00
 ETOT 24  -102.97114829757      0.000E+00 7.060E-18 0.000E+00
 ETOT 25  -102.97114829757      2.842E-14 2.326E-18 0.000E+00
 ETOT 26  -102.97114829757     -2.842E-14 3.585E-19 0.000E+00
 ETOT 27  -102.97114829757      0.000E+00 1.148E-19 0.000E+00
 ETOT 28  -102.97114829757      0.000E+00 1.840E-20 0.000E+00
 ETOT 29  -102.97114829757      0.000E+00 9.957E-21 0.000E+00

 At SCF step   29   max residual=  9.96E-21 < tolwfr=  1.00E-20 =>converged.

 ----iterations are completed or convergence reached----

 dfpt_looppert: DFPT cycle converged with prtwf=-1. Will skip output of the 1st-order WFK file.
 dfpt_looppert : ek2=    1.4441982833E+02
          f-sum rule ratio=    1.0246524312E+00
 prteigrs : about to open file /scratch/users/j/a/jabreu/flow_simple_10atoms/flow/w365/t1/tmpdata/tmp_1WF1_EIG
 Expectation of eigenvalue derivatives (hartree) for nkpt=   2  k points:
  (in case of degenerate eigenvalues, averaged derivative)
 kpt#   1, nband= 73, wtk=  0.50000, kpt=  0.5000  0.0000  0.5000 (reduced coord)
   0.00000    0.00000   -0.00000   -0.00000   -0.00000    0.00000    0.00000   -0.00000
   0.00000    0.00000    0.00000   -0.00000   -0.00000   -0.00000    0.00000    0.00000
   0.00000    0.00000    0.00000    0.00000   -0.00000    0.00000    0.00000   -0.00000
  -0.00000    0.00000    0.00000    0.00000    0.00000   -0.00000    0.00000   -0.00000
  -0.00000   -0.00000    0.00000    0.00000    0.00000    0.00000   -0.00000   -0.00000
  -0.00000   -0.00000   -0.00000    0.00000    0.00000    0.00000   -0.00000   -0.00000
  -0.00000    0.00000   -0.00000   -0.00000   -0.00000    0.00000    0.00000   -0.00000
  -0.00000    0.00000    0.00000    0.00000   -0.00000    0.00000    0.00000   -0.00000
   0.00000    0.00000   -0.00000   -0.00000   -0.00000    0.00000   -0.00000   -0.00000
   0.00003
 prteigrs : prtvol=0 or 1, do not print more k-points.

 Eight components of 2nd-order total energy (hartree) are
 1,2,3: 0th-order hamiltonian combined with 1st-order wavefunctions
     kin0=   1.47374576E+02 eigvalue=   2.99498807E+00  local=  -6.14927564E+01
 4,5,6: 1st-order hamiltonian combined with 1st and 0th-order wfs
     kin1=  -1.47980128E+02  Hartree=   0.00000000E+00     xc=   0.00000000E+00
 7,8,9: eventually, occupation + non-local contributions
    edocc=   1.14788933E+01     enl0=   2.61544771E+00   enl1=  -5.79621684E+01
 1-9 gives the relaxation energy (to be shifted if some occ is /=2.0)
   erelax=  -1.02971148E+02
  No Ewald or frozen-wf contrib.: the relaxation energy is the total one
 2DEtotal=   -0.1029711483E+03 Ha. Also 2DEtotal=   -0.280198744283E+04 eV
    (  non-var. 2DEtotal :   -1.0297114830E+02 Ha)

 CALCULATION OF EFFECTIVE MASSES
 NOTE : Additional infos (eff. mass eigenvalues, eigenvectors and, if degenerate, average mass) are available in stdout.

 K-point ( 0.500, 0.000, 0.500) | band =    64
 Effective mass tensor:
             -0.8008001100              0.1882585850              0.3923116139
              0.1882585850             -2.6949980534             -1.2346041489
              0.3923116139             -1.2346041489             -1.7522914547
 Effective mass tensor eigenvalues:
             -3.5964740332             -1.0532636981             -0.5983518869
 Angular average effective mass 1/(<1/m>)=  -1.0349333709
 Angular average effective mass for Frohlich model (<m**0.5>)**2=  -1.1789702794
 Effective masses along directions: (cart. coord. / red. coord. -> eff. mass)
    1:   1.000000  0.000000  0.000000 /   0.958992 -0.283434  0.000000 ->  -0.7087099541
    2:   0.000000  1.000000  0.000000 /   0.000000  1.000000  0.000000 ->  -1.8142396657
    3:   0.000000  0.000000  1.000000 /   0.380582  0.380582  0.842802 ->  -1.0677739949
    4:   0.577350  0.577350  0.577350 /   0.676465  0.525575  0.515913 ->  -1.1181269683
    5:   0.000000  0.707107  0.707107 /   0.268717  0.757413  0.595077 ->  -2.9390086877
    6:   0.707107  0.000000  0.707107 /   0.789500  0.118918  0.602120 ->  -0.6503254664
    7:   0.707107  0.707107  0.000000 /   0.834697  0.550710  0.000000 ->  -1.0953436189

 K-point ( 0.500,-0.500, 0.000) | band =    65
 Effective mass tensor:
              0.3953335583             -0.0664196685              0.0231424582
             -0.0664196685              0.3542363834              0.0313843699
              0.0231424582              0.0313843699              0.5197677651
 Effective mass tensor eigenvalues:
              0.2983907079              0.4443106266              0.5266363723
 Angular average effective mass 1/(<1/m>)=   0.3999556396
 Angular average effective mass for Frohlich model (<m**0.5>)**2=   0.4071211363
 Effective masses along directions: (cart. coord. / red. coord. -> eff. mass)
    1:   1.000000  0.000000  0.000000 /   0.958992 -0.283434  0.000000 ->   0.3812500357
    2:   0.000000  1.000000  0.000000 /   0.000000  1.000000  0.000000 ->   0.3406773480
    3:   0.000000  0.000000  1.000000 /   0.380582  0.380582  0.842802 ->   0.5147865836
    4:   0.577350  0.577350  0.577350 /   0.676465  0.525575  0.515913 ->   0.3838003790
    5:   0.000000  0.707107  0.707107 /   0.268717  0.757413  0.595077 ->   0.4465835577
    6:   0.707107  0.000000  0.707107 /   0.789500  0.118918  0.602120 ->   0.4682783799
    7:   0.707107  0.707107  0.000000 /   0.834697  0.550710  0.000000 ->   0.3045073362

 END OF EFFECTIVE MASSES SECTION

 ---- first-order wavefunction calculations are completed ----

 Total localisation tensor (bohr^2) in cartesian coordinates
  WARNING : still subject to testing - especially symmetries.
      direction              matrix element
   alpha     beta       real part   imaginary part
     1        1       1.1257907976    0.0000000000
     1        2      -0.2458830825    0.0000000000
     1        3       0.4162168865    0.0000000000
     2        1      -0.2458830825    0.0000000000
     2        2       0.7947735033    0.0000000000
     2        3       0.4370189050    0.0000000000
     3        1       0.4162168865    0.0000000000
     3        2       0.4370189050    0.0000000000
     3        3       1.9892278579    0.0000000000

 respfn : d/dk was computed, but no 2DTE, so no DDB output.

== END DATASET(S) ==============================================================

 -outvars: echo values of variables after computation  --------
            acell      1.0000000000E+00  1.0000000000E+00  1.0000000000E+00 Bohr
              amu      6.35460000E+01  2.07200000E+02  1.59994000E+01
             ecut      4.60000000E+01 Hartree
           etotal     -1.0297114830E+02
            fcart      0.0000000000E+00  0.0000000000E+00  0.0000000000E+00
                       0.0000000000E+00  0.0000000000E+00  0.0000000000E+00
                       0.0000000000E+00  0.0000000000E+00  0.0000000000E+00
                       0.0000000000E+00  0.0000000000E+00  0.0000000000E+00
                       0.0000000000E+00  0.0000000000E+00  0.0000000000E+00
                       0.0000000000E+00  0.0000000000E+00  0.0000000000E+00
                       0.0000000000E+00  0.0000000000E+00  0.0000000000E+00
                       0.0000000000E+00  0.0000000000E+00  0.0000000000E+00
                       0.0000000000E+00  0.0000000000E+00  0.0000000000E+00
                       0.0000000000E+00  0.0000000000E+00  0.0000000000E+00
-          fftalg         512
           irdden           1
           irdwfk           1
           istwfk        1    0
              ixc     -116133
              kpt      5.00000000E-01  0.00000000E+00  5.00000000E-01
                       5.00000000E-01 -5.00000000E-01  0.00000000E+00
           kptopt           0
P           mkmem           2
P          mkqmem           2
P          mk1mem           2
            natom          10
            nband          73
           nbdbuf           4
            ngfft          72      72      72
             nkpt           2
            nstep        2000
             nsym           4
           ntypat           3
              occ      2.000000  2.000000  2.000000  2.000000  2.000000  2.000000
                       2.000000  2.000000  2.000000  2.000000  2.000000  2.000000
                       2.000000  2.000000  2.000000  2.000000  2.000000  2.000000
                       2.000000  2.000000  2.000000  2.000000  2.000000  2.000000
                       2.000000  2.000000  2.000000  2.000000  2.000000  2.000000
                       2.000000  2.000000  2.000000  2.000000  2.000000  2.000000
                       2.000000  2.000000  2.000000  2.000000  2.000000  2.000000
                       2.000000  2.000000  2.000000  2.000000  2.000000  2.000000
                       2.000000  2.000000  2.000000  2.000000  2.000000  2.000000
                       2.000000  2.000000  2.000000  2.000000  2.000000  2.000000
                       2.000000  2.000000  2.000000  2.000000  0.000000  0.000000
                       0.000000  0.000000  0.000000  0.000000  0.000000  0.000000
                       0.000000
        optdriver           1
            prtwf          -1
            rfdir           1       1       1
           rfelfd           2
            rprim      9.6034636760E+00  0.0000000000E+00  5.0447117086E+00
                      -2.8383423487E+00  9.1744387996E+00  5.0447117086E+00
                       0.0000000000E+00  0.0000000000E+00  1.1171571164E+01
          spgroup          15
           strten      0.0000000000E+00  0.0000000000E+00  0.0000000000E+00
                       0.0000000000E+00  0.0000000000E+00  0.0000000000E+00
           symrel      1  0  0   0  1  0   0  0  1      -1  0  0   0 -1  0   0  0 -1
                       0 -1  0  -1  0  0   0  0 -1       0  1  0   1  0  0   0  0  1
            tnons      0.0000000  0.0000000  0.0000000     0.0000000 -0.0000000  0.0000000
                      -0.0000000 -0.0000000  0.5000000     0.0000000  0.0000000  0.5000000
           tolwfr      1.00000000E-20
            typat      1  1  1  1  2  2  3  3  3  3
           useylm           1
              wtk        0.50000    0.50000
           xangst      1.7899740099E+00  2.4274519572E+00  2.6695464601E+00
                       1.7899740099E+00  2.4274519572E+00  5.6254168822E+00
                       2.5409670504E+00  0.0000000000E+00  4.2906436521E+00
                      -7.5099304055E-01  2.4274519572E+00  1.3347732300E+00
                      -6.1422345161E-01  4.2002783803E+00  4.1474816711E+00
                       4.1941714714E+00  6.5462553400E-01  7.1033520932E+00
                       2.3579368057E+00  4.1493358736E+00  5.8993870252E+00
                       3.1287717964E-01  1.3759525929E+00  2.3955763171E+00
                       1.2220112140E+00  7.0556804078E-01  5.3514467392E+00
                       3.2670708401E+00  3.4789513215E+00  8.8552574473E+00
            xcart      3.3825606637E+00  4.5872193998E+00  5.0447117086E+00
                       3.3825606637E+00  4.5872193998E+00  1.0630497291E+01
                       4.8017318380E+00  0.0000000000E+00  8.1081414363E+00
                      -1.4191711743E+00  4.5872193998E+00  2.5223558543E+00
                      -1.1607141079E+00  7.9373758207E+00  7.8376044996E+00
                       7.9258354352E+00  1.2370629789E+00  1.3423390082E+01
                       4.4558548014E+00  7.8411084344E+00  1.1148225830E+01
                       5.9125218274E-01  2.6001735724E+00  4.5269831697E+00
                       2.3092665259E+00  1.3333303652E+00  1.0112768752E+01
                       6.1738691446E+00  6.5742652272E+00  1.6734011412E+01
             xred      5.0000000000E-01  5.0000000000E-01  2.7755575616E-17
                       5.0000000000E-01  5.0000000000E-01  5.0000000000E-01
                       5.0000000000E-01  0.0000000000E+00  5.0000000000E-01
                      -2.7755575616E-17  5.0000000000E-01  2.7755575616E-17
                       1.3483800000E-01  8.6516200000E-01  2.5000000000E-01
                       8.6516200000E-01  1.3483800000E-01  7.5000000000E-01
                       7.1658500000E-01  8.5466900000E-01  2.8838400000E-01
                       1.4533100000E-01  2.8341500000E-01  2.1161600000E-01
                       2.8341500000E-01  1.4533100000E-01  7.1161600000E-01
                       8.5466900000E-01  7.1658500000E-01  7.8838400000E-01
            znucl       29.00000   82.00000    8.00000

- Timing analysis has been suppressed with timopt=0

 Suggested references for the acknowledgment of ABINIT usage.

 Calculation completed.
.Delivered   2 WARNINGs and   7 COMMENTs to log file.