.Version 9.5.1 of ABINIT

 ABINIT is a project of the Universite Catholique de Louvain,
 Corning Inc. and other collaborators, see ~abinit/doc/developers/contributors.txt .
 acknowledgments of the ABINIT effort.

.Starting date : Tue 27 Apr 2021.
- ( at 18h45 )

- input  file    -> /scratch/users/j/a/jabreu/flow_simple_4atoms/flow/w255/t1/run.abi
- output file    -> /scratch/users/j/a/jabreu/flow_simple_4atoms/flow/w255/t1/run.abo
- root for input  files -> /scratch/users/j/a/jabreu/flow_simple_4atoms/flow/w255/t1/indata/in
- root for output files -> /scratch/users/j/a/jabreu/flow_simple_4atoms/flow/w255/t1/outdata/out

 Symmetries : space group R-3 m (#166); Bravais hR (rhombohedral)
     intxc =       0      iscf =       7    lmnmax =      18     lnmax =       6
     mgfft =      90  mpssoang =       3    mqgrid =    3001     natom =       4
  nloc_mem =       1    nspden =       1   nspinor =       1    nsppol =       1
      nsym =      12    n1xccc =    2501    ntypat =       3    occopt =       1
   xclevel =       2
-    mband =          36        mffmem =           1         mkmem =           2
-   mkqmem =           2        mk1mem =           2           mpw =        8968
      nfft =      729000          nkpt =           2
  Rough estimation (10% accuracy) of disk space for files :

------------- Echo of variables that govern the present computation ------------
-
- outvars: echo of selected default values
-   iomode0 =  0 , fftalg0 =512 , wfoptalg0 =  0
-
- outvars: echo of global parameters not present in the input file
-  max_nthreads =    0
-
 -outvars: echo values of preprocessed input variables --------
            acell      1.0000000000E+00  1.0000000000E+00  1.0000000000E+00 Bohr
              amu      2.29897680E+01  1.14820000E+02  7.89600000E+01
             ecut      4.40000000E+01 Hartree
-          fftalg         512
           irdden           1
           irdwfk           1
           istwfk        0    1
              ixc     -116133
              kpt      5.42437310E-01  5.42437310E-01  4.15125380E-01
                       5.00000000E-01  5.00000000E-01  0.00000000E+00
           kptopt           0
P           mkmem           2
P          mkqmem           2
P          mk1mem           2
            natom           4
            nband          36
           nbdbuf           4
            ngfft          90      90      90
             nkpt           2
            nstep         100
             nsym          12
           ntypat           3
              occ      2.000000  2.000000  2.000000  2.000000  2.000000  2.000000
                       2.000000  2.000000  2.000000  2.000000  2.000000  2.000000
                       2.000000  2.000000  2.000000  2.000000  2.000000  2.000000
                       2.000000  2.000000  2.000000  2.000000  2.000000  2.000000
                       2.000000  2.000000  2.000000  0.000000  0.000000  0.000000
                       0.000000  0.000000  0.000000  0.000000  0.000000  0.000000
        optdriver           1
            prtwf          -1
            rfdir           1       1       1
           rfelfd           2
            rprim      7.2282972397E+00  0.0000000000E+00  1.1822405173E+01
                       3.3277923103E+00  6.4167031508E+00  1.1822405173E+01
                       0.0000000000E+00  0.0000000000E+00  1.3857039549E+01
          spgroup         166
           symrel      1  0  0   0  1  0   0  0  1      -1  0  0   0 -1  0   0  0 -1
                       0  1  0   1  0  0   0  0  1       0 -1  0  -1  0  0   0  0 -1
                       0  0  1   1  0  0   0  1  0       0  0 -1  -1  0  0   0 -1  0
                       1  0  0   0  0  1   0  1  0      -1  0  0   0  0 -1   0 -1  0
                       0  1  0   0  0  1   1  0  0       0 -1  0   0  0 -1  -1  0  0
                       0  0  1   0  1  0   1  0  0       0  0 -1   0 -1  0  -1  0  0
           tolwfr      1.00000000E-20
            typat      1  2  3  3
           useylm           1
              wtk        0.50000    0.50000
           xangst      2.7930210008E+00  1.6977865308E+00  9.9225621224E+00
                       0.0000000000E+00  0.0000000000E+00  0.0000000000E+00
                       4.1354753728E+00  2.5138208358E+00  1.4691801916E+01
                       1.4505666289E+00  8.8175222594E-01  5.1533223285E+00
            xcart      5.2780447750E+00  3.2083515754E+00  1.8750924948E+01
                       0.0000000000E+00  0.0000000000E+00  0.0000000000E+00
                       7.8149158839E+00  4.7504329267E+00  2.7763482020E+01
                       2.7411736661E+00  1.6662702241E+00  9.7383678754E+00
             xred      5.0000000000E-01  5.0000000000E-01  5.0000000000E-01
                       0.0000000000E+00  0.0000000000E+00  0.0000000000E+00
                       7.4032300000E-01  7.4032300000E-01  7.4032300000E-01
                       2.5967700000E-01  2.5967700000E-01  2.5967700000E-01
            znucl       11.00000   49.00000   34.00000

 chkinp: Checking input parameters for consistency.

== DATASET  1 ==================================================================
-   mpi_nproc: 1, omp_nthreads: -1 (-1 if OMP is not activated)

--- !DatasetInfo
iteration_state: {dtset: 1, }
dimensions: {natom: 4, nkpt: 2, mband: 36, nsppol: 1, nspinor: 1, nspden: 1, mpw: 8968, }
cutoff_energies: {ecut:  44.0, pawecutdg:  -1.0, }
electrons: {nelect:   5.40000000E+01, charge:   0.00000000E+00, occopt:   1.00000000E+00, tsmear:   1.00000000E-02, }
meta: {optdriver: 1, rfelfd: 2, }
...

 Real(R)+Recip(G) space primitive vectors, cartesian coordinates (Bohr,Bohr^-1):
 R(1)=  7.2282972  0.0000000 11.8224052  G(1)=  0.1383452 -0.0717477  0.0000000
 R(2)=  3.3277923  6.4167032 11.8224052  G(2)=  0.0000000  0.1558433  0.0000000
 R(3)=  0.0000000  0.0000000 13.8570395  G(3)= -0.1180319 -0.0717477  0.0721655
 Unit cell volume ucvol=  6.4271496E+02 bohr^3
 Angles (23,13,12)=  3.14418932E+01  3.14418932E+01  3.14418932E+01 degrees

 getcut: wavevector=  0.0000  0.0000  0.0000  ngfft=  90  90  90
         ecut(hartree)=     44.000   => boxcut(ratio)=   2.17552

--- Pseudopotential description ------------------------------------------------
- pspini: atom type   1  psp file is /scratch/users/j/a/jabreu/pseudos/PBEsol/Na.psp8
- pspatm: opening atomic psp file    /scratch/users/j/a/jabreu/pseudos/PBEsol/Na.psp8
- Na    ONCVPSP-3.3.0  r_core=   1.20708   1.55069
- 11.00000   9.00000    180112                znucl, zion, pspdat
    8 -116133    1    4       400   0.00000   pspcod,pspxc,lmax,lloc,mmax,r2well
    3.99000000000000    0.00000000000000    0.00000000000000   rchrg,fchrg,qchrg
     nproj     2     2
     extension_switch     1
  pspatm : epsatm=    9.32878306
         --- l  ekb(1:nproj) -->
             0    2.657905   -0.678300
             1   -6.761319   -2.404728
 pspatm: atomic psp has been read  and splines computed

- pspini: atom type   2  psp file is /scratch/users/j/a/jabreu/pseudos/PBEsol/In.psp8
- pspatm: opening atomic psp file    /scratch/users/j/a/jabreu/pseudos/PBEsol/In.psp8
- In    ONCVPSP-3.3.0  r_core=   2.10853   2.37566   1.87143
- 49.00000  13.00000    180112                znucl, zion, pspdat
    8 -116133    2    4       600   0.00000   pspcod,pspxc,lmax,lloc,mmax,r2well
    5.99000000000000    5.00000000000000    0.00000000000000   rchrg,fchrg,qchrg
     nproj     2     2     2
     extension_switch     1
  pspatm : epsatm=   25.17984752
         --- l  ekb(1:nproj) -->
             0   12.999887    1.931740
             1    5.981707    1.012544
             2   -4.048011   -1.239028
 pspatm: atomic psp has been read  and splines computed

- pspini: atom type   3  psp file is /scratch/users/j/a/jabreu/pseudos/PBEsol/Se.psp8
- pspatm: opening atomic psp file    /scratch/users/j/a/jabreu/pseudos/PBEsol/Se.psp8
- Se    ONCVPSP-3.3.0  r_core=   1.81943   1.50330   1.90835
- 34.00000  16.00000    180112                znucl, zion, pspdat
    8 -116133    2    4       600   0.00000   pspcod,pspxc,lmax,lloc,mmax,r2well
    5.99000000000000    5.00000000000000    0.00000000000000   rchrg,fchrg,qchrg
     nproj     2     2     2
     extension_switch     1
  pspatm : epsatm=   29.17862020
         --- l  ekb(1:nproj) -->
             0    8.973804    1.019550
             1    6.849857    1.297308
             2   -9.203962   -3.731027
 pspatm: atomic psp has been read  and splines computed

   5.01475703E+03                                ecore*ucvol(ha*bohr**3)

-inwffil : will read wavefunctions from disk file /scratch/users/j/a/jabreu/flow_simple_4atoms/flow/w255/t1/indata/in_WFK

 ==>  initialize data related to q vector <==

 The list of irreducible perturbations for this q vector is:
    1)    idir= 1    ipert=   5
    2)    idir= 2    ipert=   5
    3)    idir= 3    ipert=   5

 Perturbation wavevector (in red.coord.)   0.000000  0.000000  0.000000
 Perturbation : derivative vs k along direction   1

 dfpt_looppert : COMMENT -
  In a d/dk calculation, iscf is set to -3 automatically.
 The set of symmetries contains only one element for this perturbation.
 symkpt : not enough symmetry to change the number of k points.

[...]

 Initialisation of the first-order wave-functions :
  ireadwf=   0

--- !BeginCycle
iteration_state: {dtset: 1, }
solver: {iscf: 7, nstep: 100, nline: 4, wfoptalg: 0, }
tolerances: {tolwfr: 1.00E-20, }
...

     iter   2DEtotal(Ha)        deltaE(Ha) residm    vres2
-ETOT  1  -126.44550606559     -1.264E+02 1.930E-01 0.000E+00
 ETOT  2  -126.50668747355     -6.118E-02 8.878E-03 0.000E+00
 ETOT  3  -126.50690077299     -2.133E-04 2.639E-04 0.000E+00
 ETOT  4  -126.50690459570     -3.823E-06 1.345E-05 0.000E+00
 ETOT  5  -126.50690472004     -1.243E-07 1.872E-06 0.000E+00
 ETOT  6  -126.50690472901     -8.968E-09 1.907E-07 0.000E+00
 ETOT  7  -126.50690472982     -8.077E-10 3.194E-08 0.000E+00
 ETOT  8  -126.50690472990     -7.577E-11 3.522E-09 0.000E+00
 ETOT  9  -126.50690472990     -7.262E-12 5.795E-10 0.000E+00
 ETOT 10  -126.50690472990     -6.821E-13 6.549E-11 0.000E+00
 ETOT 11  -126.50690472990     -4.263E-14 1.063E-11 0.000E+00
 ETOT 12  -126.50690472990     -5.684E-14 1.220E-12 0.000E+00
 ETOT 13  -126.50690472990      5.684E-14 1.963E-13 0.000E+00
 ETOT 14  -126.50690472990     -5.684E-14 2.277E-14 0.000E+00
 ETOT 15  -126.50690472990      0.000E+00 3.641E-15 0.000E+00
 ETOT 16  -126.50690472990      5.684E-14 4.260E-16 0.000E+00
 ETOT 17  -126.50690472990      5.684E-14 6.775E-17 0.000E+00
 ETOT 18  -126.50690472990     -1.421E-14 7.983E-18 0.000E+00
 ETOT 19  -126.50690472990      0.000E+00 1.264E-18 0.000E+00
 ETOT 20  -126.50690472990      0.000E+00 1.498E-19 0.000E+00
 ETOT 21  -126.50690472990      0.000E+00 2.364E-20 0.000E+00
 ETOT 22  -126.50690472990      0.000E+00 9.672E-21 0.000E+00

 At SCF step   22   max residual=  9.67E-21 < tolwfr=  1.00E-20 =>converged.

 ----iterations are completed or convergence reached----

 dfpt_looppert: DFPT cycle converged with prtwf=-1. Will skip output of the 1st-order WFK file.
 dfpt_looppert : ek2=    1.0355226325E+02
          f-sum rule ratio=    1.1656452301E+00
 prteigrs : about to open file /scratch/users/j/a/jabreu/flow_simple_4atoms/flow/w255/t1/tmpdata/tmp_1WF1_EIG
 Expectation of eigenvalue derivatives (hartree) for nkpt=   2  k points:
  (in case of degenerate eigenvalues, averaged derivative)
 kpt#   1, nband= 36, wtk=  0.50000, kpt=  0.5424  0.5424  0.4151 (reduced coord)
   0.00002   -0.00000    0.00000    0.00001    0.00001   -0.00000   -0.00000   -0.00001
  -0.00000    0.00001    0.00001    0.00018   -0.00073   -0.00016   -0.01562    0.00229
   0.00291   -0.00178    0.00069    0.03238    0.03943   -0.02159   -0.01022   -0.15522
  -0.07575   -0.12704   -0.00449    0.02735    0.13292    0.06805    0.07601   -0.05924
  -0.13086   -0.15620    0.10298   -0.01010
 prteigrs : prtvol=0 or 1, do not print more k-points.

 Eight components of 2nd-order total energy (hartree) are
 1,2,3: 0th-order hamiltonian combined with 1st-order wavefunctions
     kin0=   1.20180104E+02 eigvalue=   1.93249428E+01  local=  -5.11400229E+01
 4,5,6: 1st-order hamiltonian combined with 1st and 0th-order wfs
     kin1=  -1.20705202E+02  Hartree=   0.00000000E+00     xc=   0.00000000E+00
 7,8,9: eventually, occupation + non-local contributions
    edocc=   2.36633449E+01     enl0=   1.44785363E+01   enl1=  -1.32308608E+02
 1-9 gives the relaxation energy (to be shifted if some occ is /=2.0)
   erelax=  -1.26506905E+02
  No Ewald or frozen-wf contrib.: the relaxation energy is the total one
 2DEtotal=   -0.1265069047E+03 Ha. Also 2DEtotal=   -0.344242794555E+04 eV
    (  non-var. 2DEtotal :   -1.2650690473E+02 Ha)

 Perturbation wavevector (in red.coord.)   0.000000  0.000000  0.000000
 Perturbation : derivative vs k along direction   2
 The set of symmetries contains only one element for this perturbation.
 symkpt : not enough symmetry to change the number of k points.

[...]

 Perturbation wavevector (in red.coord.)   0.000000  0.000000  0.000000
 Perturbation : derivative vs k along direction   3
 The set of symmetries contains only one element for this perturbation.
 symkpt : not enough symmetry to change the number of k points.

-inwffil : will read wavefunctions from disk file /scratch/users/j/a/jabreu/flow_simple_4atoms/flow/w255/t1/indata/in_WFK

 Initialisation of the first-order wave-functions :
  ireadwf=   0

--- !BeginCycle
iteration_state: {dtset: 1, }
solver: {iscf: 7, nstep: 100, nline: 4, wfoptalg: 0, }
tolerances: {tolwfr: 1.00E-20, }
...

     iter   2DEtotal(Ha)        deltaE(Ha) residm    vres2
-ETOT  1  -116.47531597958     -1.165E+02 2.219E-01 0.000E+00
 ETOT  2  -116.52788327307     -5.257E-02 4.717E-03 0.000E+00
 ETOT  3  -116.52805116417     -1.679E-04 2.132E-04 0.000E+00
 ETOT  4  -116.52805455372     -3.390E-06 1.754E-05 0.000E+00
 ETOT  5  -116.52805470519     -1.515E-07 2.301E-06 0.000E+00
 ETOT  6  -116.52805471731     -1.212E-08 2.646E-07 0.000E+00
 ETOT  7  -116.52805471838     -1.072E-09 3.596E-08 0.000E+00
 ETOT  8  -116.52805471848     -9.770E-11 4.172E-09 0.000E+00
 ETOT  9  -116.52805471849     -8.939E-12 5.655E-10 0.000E+00
 ETOT 10  -116.52805471849     -8.527E-13 6.643E-11 0.000E+00
 ETOT 11  -116.52805471849     -4.263E-14 8.958E-12 0.000E+00
 ETOT 12  -116.52805471849     -5.684E-14 1.064E-12 0.000E+00
 ETOT 13  -116.52805471849      4.263E-14 1.427E-13 0.000E+00
 ETOT 14  -116.52805471849      1.421E-14 1.713E-14 0.000E+00
 ETOT 15  -116.52805471849     -2.842E-14 2.283E-15 0.000E+00
 ETOT 16  -116.52805471849      0.000E+00 2.765E-16 0.000E+00
 ETOT 17  -116.52805471849      2.842E-14 3.665E-17 0.000E+00
 ETOT 18  -116.52805471849     -2.842E-14 4.473E-18 0.000E+00
 ETOT 19  -116.52805471849      1.421E-14 5.900E-19 0.000E+00
 ETOT 20  -116.52805471849      0.000E+00 7.249E-20 0.000E+00
 ETOT 21  -116.52805471849     -1.421E-14 9.911E-21 0.000E+00

 At SCF step   21   max residual=  9.91E-21 < tolwfr=  1.00E-20 =>converged.

 ----iterations are completed or convergence reached----

 dfpt_looppert: DFPT cycle converged with prtwf=-1. Will skip output of the 1st-order WFK file.
 dfpt_looppert : ek2=    1.0355226325E+02
          f-sum rule ratio=    9.8692315558E-01
 prteigrs : about to open file /scratch/users/j/a/jabreu/flow_simple_4atoms/flow/w255/t1/tmpdata/tmp_1WF1_EIG
 Expectation of eigenvalue derivatives (hartree) for nkpt=   2  k points:
  (in case of degenerate eigenvalues, averaged derivative)
 kpt#   1, nband= 36, wtk=  0.50000, kpt=  0.5424  0.5424  0.4151 (reduced coord)
  -0.00004    0.00000   -0.00001   -0.00003   -0.00003    0.00000   -0.00000    0.00002
   0.00000   -0.00002   -0.00001   -0.00036    0.00145    0.00033    0.03118   -0.00458
  -0.00583    0.00356   -0.00138   -0.06441   -0.07917    0.04194    0.04628    0.27044
   0.15816    0.26472   -0.00035   -0.05513   -0.24010   -0.09116   -0.15506    0.04906
   0.25099    0.31463   -0.18431   -0.00718
 prteigrs : prtvol=0 or 1, do not print more k-points.

 Eight components of 2nd-order total energy (hartree) are
 1,2,3: 0th-order hamiltonian combined with 1st-order wavefunctions
     kin0=   1.20534727E+02 eigvalue=   1.91123305E+01  local=  -5.09186769E+01
 4,5,6: 1st-order hamiltonian combined with 1st and 0th-order wfs
     kin1=  -1.02198126E+02  Hartree=   0.00000000E+00     xc=   0.00000000E+00
 7,8,9: eventually, occupation + non-local contributions
    edocc=   1.37750237E+01     enl0=   1.40246501E+01   enl1=  -1.30857983E+02
 1-9 gives the relaxation energy (to be shifted if some occ is /=2.0)
   erelax=  -1.16528055E+02
  No Ewald or frozen-wf contrib.: the relaxation energy is the total one
 2DEtotal=   -0.1165280547E+03 Ha. Also 2DEtotal=   -0.317088962740E+04 eV
    (  non-var. 2DEtotal :   -1.1652805472E+02 Ha)

 CALCULATION OF EFFECTIVE MASSES
 NOTE : Additional infos (eff. mass eigenvalues, eigenvectors and, if degenerate, average mass) are available in stdout.

 K-point ( 0.542, 0.542, 0.415) | band =    27
 Effective mass tensor:
             -1.5454208079             -0.7851442339             -0.4016110325
             -0.7851442339             -0.7312977872             -0.2450544685
             -0.4016110325             -0.2450544685             -5.7209640207
 Effective mass tensor eigenvalues:
             -5.7798768698             -1.9638393105             -0.2539664356
 Angular average effective mass 1/(<1/m>)=  -0.6493859452
 Angular average effective mass for Frohlich model (<m**0.5>)**2=  -1.0302033110
 Effective masses along directions: (cart. coord. / red. coord. -> eff. mass)
    1:   1.000000  0.000000  0.000000 /   0.908358  0.418193  0.000000 ->  -0.6990629048
    2:   0.000000  1.000000  0.000000 /   0.000000  1.000000  0.000000 ->  -0.3321091669
    3:   0.000000  0.000000  1.000000 /   0.544426  0.544426  0.638122 ->  -5.6115352973
    4:   0.577350  0.577350  0.577350 /   0.596478  0.675260  0.433864 ->  -2.0584434120
    5:   0.000000  0.707107  0.707107 /   0.458642  0.707574  0.537575 ->  -0.6358727856
    6:   0.707107  0.000000  0.707107 /   0.680176  0.540915  0.494744 ->  -1.3000403989
    7:   0.707107  0.707107  0.000000 /   0.595768  0.803157  0.000000 ->  -1.4352722214

 K-point ( 0.500, 0.500, 0.000) | band =    28
 Effective mass tensor:
              0.3487746606              0.0752721900             -0.0804641696
              0.0752721900              0.2706991696             -0.0489107871
             -0.0804641696             -0.0489107871              0.5644487175
 Effective mass tensor eigenvalues:
              0.2249439428              0.3526632409              0.6063153640
 Angular average effective mass 1/(<1/m>)=   0.3359302596
 Angular average effective mass for Frohlich model (<m**0.5>)**2=   0.3520132736
 Effective masses along directions: (cart. coord. / red. coord. -> eff. mass)
    1:   1.000000  0.000000  0.000000 /   0.908358  0.418193  0.000000 ->   0.3197974746
    2:   0.000000  1.000000  0.000000 /   0.000000  1.000000  0.000000 ->   0.2526311050
    3:   0.000000  0.000000  1.000000 /   0.544426  0.544426  0.638122 ->   0.5419745071
    4:   0.577350  0.577350  0.577350 /   0.596478  0.675260  0.433864 ->   0.3513910056
    5:   0.000000  0.707107  0.707107 /   0.458642  0.707574  0.537575 ->   0.3194414825
    6:   0.707107  0.000000  0.707107 /   0.680176  0.540915  0.494744 ->   0.3493631484
    7:   0.707107  0.707107  0.000000 /   0.595768  0.803157  0.000000 ->   0.3648108458

 END OF EFFECTIVE MASSES SECTION

 ---- first-order wavefunction calculations are completed ----

 Total localisation tensor (bohr^2) in cartesian coordinates
  WARNING : still subject to testing - especially symmetries.
      direction              matrix element
   alpha     beta       real part   imaginary part
     1        1       2.3303380674    0.0000000000
     1        2       0.7858051686    0.0000000000
     1        3       4.5926935977    0.0000000000
     2        1       0.7858051686    0.0000000000
     2        2       1.5152022816    0.0000000000
     2        3       2.7916727440    0.0000000000
     3        1       4.5926935977    0.0000000000
     3        2       2.7916727440    0.0000000000
     3        3      13.9606227297    0.0000000000

 respfn : d/dk was computed, but no 2DTE, so no DDB output.

== END DATASET(S) ==============================================================

 -outvars: echo values of variables after computation  --------
            acell      1.0000000000E+00  1.0000000000E+00  1.0000000000E+00 Bohr
              amu      2.29897680E+01  1.14820000E+02  7.89600000E+01
             ecut      4.40000000E+01 Hartree
           etotal     -1.1652805472E+02
            fcart      0.0000000000E+00  0.0000000000E+00  0.0000000000E+00
                       0.0000000000E+00  0.0000000000E+00  0.0000000000E+00
                       0.0000000000E+00  0.0000000000E+00  0.0000000000E+00
                       0.0000000000E+00  0.0000000000E+00  0.0000000000E+00
-          fftalg         512
           irdden           1
           irdwfk           1
           istwfk        0    1
              ixc     -116133
              kpt      5.42437310E-01  5.42437310E-01  4.15125380E-01
                       5.00000000E-01  5.00000000E-01  0.00000000E+00
           kptopt           0
P           mkmem           2
P          mkqmem           2
P          mk1mem           2
            natom           4
            nband          36
           nbdbuf           4
            ngfft          90      90      90
             nkpt           2
            nstep         100
             nsym          12
           ntypat           3
              occ      2.000000  2.000000  2.000000  2.000000  2.000000  2.000000
                       2.000000  2.000000  2.000000  2.000000  2.000000  2.000000
                       2.000000  2.000000  2.000000  2.000000  2.000000  2.000000
                       2.000000  2.000000  2.000000  2.000000  2.000000  2.000000
                       2.000000  2.000000  2.000000  0.000000  0.000000  0.000000
                       0.000000  0.000000  0.000000  0.000000  0.000000  0.000000
        optdriver           1
            prtwf          -1
            rfdir           1       1       1
           rfelfd           2
            rprim      7.2282972397E+00  0.0000000000E+00  1.1822405173E+01
                       3.3277923103E+00  6.4167031508E+00  1.1822405173E+01
                       0.0000000000E+00  0.0000000000E+00  1.3857039549E+01
          spgroup         166
           strten      0.0000000000E+00  0.0000000000E+00  0.0000000000E+00
                       0.0000000000E+00  0.0000000000E+00  0.0000000000E+00
           symrel      1  0  0   0  1  0   0  0  1      -1  0  0   0 -1  0   0  0 -1
                       0  1  0   1  0  0   0  0  1       0 -1  0  -1  0  0   0  0 -1
                       0  0  1   1  0  0   0  1  0       0  0 -1  -1  0  0   0 -1  0
                       1  0  0   0  0  1   0  1  0      -1  0  0   0  0 -1   0 -1  0
                       0  1  0   0  0  1   1  0  0       0 -1  0   0  0 -1  -1  0  0
                       0  0  1   0  1  0   1  0  0       0  0 -1   0 -1  0  -1  0  0
           tolwfr      1.00000000E-20
            typat      1  2  3  3
           useylm           1
              wtk        0.50000    0.50000
           xangst      2.7930210008E+00  1.6977865308E+00  9.9225621224E+00
                       0.0000000000E+00  0.0000000000E+00  0.0000000000E+00
                       4.1354753728E+00  2.5138208358E+00  1.4691801916E+01
                       1.4505666289E+00  8.8175222594E-01  5.1533223285E+00
            xcart      5.2780447750E+00  3.2083515754E+00  1.8750924948E+01
                       0.0000000000E+00  0.0000000000E+00  0.0000000000E+00
                       7.8149158839E+00  4.7504329267E+00  2.7763482020E+01
                       2.7411736661E+00  1.6662702241E+00  9.7383678754E+00
             xred      5.0000000000E-01  5.0000000000E-01  5.0000000000E-01
                       0.0000000000E+00  0.0000000000E+00  0.0000000000E+00
                       7.4032300000E-01  7.4032300000E-01  7.4032300000E-01
                       2.5967700000E-01  2.5967700000E-01  2.5967700000E-01
            znucl       11.00000   49.00000   34.00000

- Timing analysis has been suppressed with timopt=0

 Suggested references for the acknowledgment of ABINIT usage.

 Calculation completed.
.Delivered  14 WARNINGs and   9 COMMENTs to log file.