.Version 9.5.1 of ABINIT

 ABINIT is a project of the Universite Catholique de Louvain,
 Corning Inc. and other collaborators, see ~abinit/doc/developers/contributors.txt .
 acknowledgments of the ABINIT effort.

.Starting date : Mon 10 May 2021.
- ( at 09h21 )

- input  file    -> /scratch/users/j/a/jabreu/flow_simple_7atoms/flow/w203/t1/run.abi
- output file    -> /scratch/users/j/a/jabreu/flow_simple_7atoms/flow/w203/t1/run.abo
- root for input  files -> /scratch/users/j/a/jabreu/flow_simple_7atoms/flow/w203/t1/indata/in
- root for output files -> /scratch/users/j/a/jabreu/flow_simple_7atoms/flow/w203/t1/outdata/out

 Symmetries : space group R-3 m (#166); Bravais hR (rhombohedral)
     intxc =       0      iscf =       7    lmnmax =      18     lnmax =       6
     mgfft =     120  mpssoang =       3    mqgrid =    3001     natom =       7
  nloc_mem =       1    nspden =       1   nspinor =       1    nsppol =       1
      nsym =      12    n1xccc =    2501    ntypat =       3    occopt =       1
   xclevel =       2
-    mband =          52        mffmem =           1         mkmem =           2
-   mkqmem =           2        mk1mem =           2           mpw =       30769
      nfft =     1728000          nkpt =           2
  Rough estimation (10% accuracy) of disk space for files :

------------- Echo of variables that govern the present computation ------------
-
- outvars: echo of selected default values
-   iomode0 =  0 , fftalg0 =512 , wfoptalg0 =  0
-
- outvars: echo of global parameters not present in the input file
-  max_nthreads =    0
-
 -outvars: echo values of preprocessed input variables --------
            acell      1.0000000000E+00  1.0000000000E+00  1.0000000000E+00 Bohr
              amu      3.90983000E+01  1.12411000E+02  7.49215900E+01
        autoparal           1
             ecut      5.10000000E+01 Hartree
-          fftalg         512
           irdden           1
           irdwfk           1
           istwfk        1    1
              ixc     -116133
              kpt      5.00000000E-01  5.00000000E-01  5.55111512E-17
                       0.00000000E+00  0.00000000E+00  0.00000000E+00
           kptopt           0
P           mkmem           2
P          mkqmem           2
P          mk1mem           2
            natom           7
            nband          52
           nbdbuf           4
            ngfft         120     120     120
             nkpt           2
            nstep        2000
             nsym          12
           ntypat           3
              occ      2.000000  2.000000  2.000000  2.000000  2.000000  2.000000
                       2.000000  2.000000  2.000000  2.000000  2.000000  2.000000
                       2.000000  2.000000  2.000000  2.000000  2.000000  2.000000
                       2.000000  2.000000  2.000000  2.000000  2.000000  2.000000
                       2.000000  2.000000  2.000000  2.000000  2.000000  2.000000
                       2.000000  2.000000  2.000000  2.000000  2.000000  2.000000
                       2.000000  2.000000  2.000000  2.000000  2.000000  2.000000
                       2.000000  0.000000  0.000000  0.000000  0.000000  0.000000
                       0.000000  0.000000  0.000000  0.000000
        optdriver           1
            prtwf          -1
            rfdir           1       1       1
           rfelfd           2
            rprim      1.0360750855E+01  0.0000000000E+00  1.5303405875E+01
                       4.6931648951E+00  9.2368480310E+00  1.5303405875E+01
                       0.0000000000E+00  0.0000000000E+00  1.8480784336E+01
          spgroup         166
           symrel      1  0  0   0  1  0   0  0  1      -1  0  0   0 -1  0   0  0 -1
                       0  1  0   1  0  0   0  0  1       0 -1  0  -1  0  0   0  0 -1
                       0  0  1   1  0  0   0  1  0       0  0 -1  -1  0  0   0 -1  0
                       1  0  0   0  0  1   0  1  0      -1  0  0   0  0 -1   0 -1  0
                       0  1  0   0  0  1   1  0  0       0 -1  0   0  0 -1  -1  0  0
                       0  0  1   0  1  0   1  0  0       0  0 -1   0 -1  0  -1  0  0
           tolwfr      1.00000000E-20
            typat      1  1  1  1  2  3  3
           useylm           1
              wtk        0.50000    0.50000
           xangst      1.6576842929E+00  1.0171292408E+00  5.4053535545E+00
                       6.3085048220E+00  3.8708002165E+00  2.0570683519E+01
                       3.1191533818E+00  1.9138638910E+00  1.0170891340E+01
                       4.8470357332E+00  2.9740655662E+00  1.5805145733E+01
                       0.0000000000E+00  0.0000000000E+00  0.0000000000E+00
                       7.2521636522E+00  4.4498145641E+00  2.3647752918E+01
                       7.1402546275E-01  4.3811489311E-01  2.3282841549E+00
            xcart      3.1325693284E+00  1.9220957068E+00  1.0214637869E+01
                       1.1921346422E+01  7.3147523242E+00  3.8872958216E+01
                       5.8943456580E+00  3.6166786097E+00  1.9220199160E+01
                       9.1595700921E+00  5.6201694213E+00  2.9867396926E+01
                       0.0000000000E+00  0.0000000000E+00  0.0000000000E+00
                       1.3704603174E+01  8.4089308683E+00  4.4687776673E+01
                       1.3493125765E+00  8.2791716271E-01  4.3998194124E+00
             xred      2.0809000000E-01  2.0809000000E-01  2.0809000000E-01
                       7.9191000000E-01  7.9191000000E-01  7.9191000000E-01
                       3.9154900000E-01  3.9154900000E-01  3.9154900000E-01
                       6.0845100000E-01  6.0845100000E-01  6.0845100000E-01
                       0.0000000000E+00  0.0000000000E+00  0.0000000000E+00
                       9.1036800000E-01  9.1036800000E-01  9.1036800000E-01
                       8.9632000000E-02  8.9632000000E-02  8.9632000000E-02
            znucl       19.00000   48.00000   33.00000

 chkinp: Checking input parameters for consistency.

== DATASET  1 ==================================================================
-   mpi_nproc: 1, omp_nthreads: -1 (-1 if OMP is not activated)

--- !DatasetInfo
iteration_state: {dtset: 1, }
dimensions: {natom: 7, nkpt: 2, mband: 52, nsppol: 1, nspinor: 1, nspden: 1, mpw: 30769, }
cutoff_energies: {ecut:  51.0, pawecutdg:  -1.0, }
electrons: {nelect:   8.60000000E+01, charge:   0.00000000E+00, occopt:   1.00000000E+00, tsmear:   1.00000000E-02, }
meta: {optdriver: 1, rfelfd: 2, }
...

 Real(R)+Recip(G) space primitive vectors, cartesian coordinates (Bohr,Bohr^-1):
 R(1)= 10.3607509  0.0000000 15.3034059  G(1)=  0.0965181 -0.0490400  0.0000000
 R(2)=  4.6931649  9.2368480 15.3034059  G(2)=  0.0000000  0.1082620  0.0000000
 R(3)=  0.0000000  0.0000000 18.4807843  G(3)= -0.0799239 -0.0490400  0.0541103
 Unit cell volume ucvol=  1.7686236E+03 bohr^3
 Angles (23,13,12)=  3.40988862E+01  3.40988862E+01  3.40988862E+01 degrees

 getcut: wavevector=  0.0000  0.0000  0.0000  ngfft= 120 120 120
         ecut(hartree)=     51.000   => boxcut(ratio)=   2.01993

--- Pseudopotential description ------------------------------------------------
- pspini: atom type   1  psp file is /scratch/users/j/a/jabreu/pseudos/PBEsol/K.psp8
- pspatm: opening atomic psp file    /scratch/users/j/a/jabreu/pseudos/PBEsol/K.psp8
- K     ONCVPSP-3.3.0  r_core=   1.36296   1.46408   1.61068
- 19.00000   9.00000    180112                znucl, zion, pspdat
    8 -116133    2    4       400   0.00000   pspcod,pspxc,lmax,lloc,mmax,r2well
    3.99000000000000    5.00000000000000    0.00000000000000   rchrg,fchrg,qchrg
     nproj     2     2     2
     extension_switch     1
  pspatm : epsatm=    8.32487830
         --- l  ekb(1:nproj) -->
             0   10.921326    0.816676
             1    4.431000    0.560368
             2   -3.384038   -1.043186
 pspatm: atomic psp has been read  and splines computed

- pspini: atom type   2  psp file is /scratch/users/j/a/jabreu/pseudos/PBEsol/Cd.psp8
- pspatm: opening atomic psp file    /scratch/users/j/a/jabreu/pseudos/PBEsol/Cd.psp8
- Cd    ONCVPSP-3.3.0  r_core=   1.25838   1.30423   1.35174
- 48.00000  20.00000    180112                znucl, zion, pspdat
    8 -116133    2    4       600   0.00000   pspcod,pspxc,lmax,lloc,mmax,r2well
    5.99000000000000    6.00000000000000    0.00000000000000   rchrg,fchrg,qchrg
     nproj     2     2     2
     extension_switch     1
  pspatm : epsatm=   23.26728021
         --- l  ekb(1:nproj) -->
             0   63.701523    3.700425
             1    8.703569    1.290373
             2    0.983656   -0.721725
 pspatm: atomic psp has been read  and splines computed

- pspini: atom type   3  psp file is /scratch/users/j/a/jabreu/pseudos/PBEsol/As.psp8
- pspatm: opening atomic psp file    /scratch/users/j/a/jabreu/pseudos/PBEsol/As.psp8
- As    ONCVPSP-3.3.0  r_core=   1.76603   1.70395   1.80867
- 33.00000  15.00000    180112                znucl, zion, pspdat
    8 -116133    2    4       600   0.00000   pspcod,pspxc,lmax,lloc,mmax,r2well
    5.99000000000000    5.00000000000000    0.00000000000000   rchrg,fchrg,qchrg
     nproj     2     2     2
     extension_switch     1
  pspatm : epsatm=   28.79155382
         --- l  ekb(1:nproj) -->
             0    8.270760    0.868950
             1    4.919053    0.756587
             2  -10.048665   -4.076802
 pspatm: atomic psp has been read  and splines computed

   9.81689149E+03                                ecore*ucvol(ha*bohr**3)

-inwffil : will read wavefunctions from disk file /scratch/users/j/a/jabreu/flow_simple_7atoms/flow/w203/t1/indata/in_WFK

 ==>  initialize data related to q vector <==

 The list of irreducible perturbations for this q vector is:
    1)    idir= 1    ipert=   8
    2)    idir= 2    ipert=   8
    3)    idir= 3    ipert=   8

 Perturbation wavevector (in red.coord.)   0.000000  0.000000  0.000000
 Perturbation : derivative vs k along direction   1

 dfpt_looppert : COMMENT -
  In a d/dk calculation, iscf is set to -3 automatically.
 The set of symmetries contains only one element for this perturbation.
 symkpt : not enough symmetry to change the number of k points.

[...]

 Initialisation of the first-order wave-functions :
  ireadwf=   0

--- !BeginCycle
iteration_state: {dtset: 1, }
solver: {iscf: 7, nstep: 2000, nline: 4, wfoptalg: 0, }
tolerances: {tolwfr: 1.00E-20, }
...

     iter   2DEtotal(Ha)        deltaE(Ha) residm    vres2
-ETOT  1  -61.505854657764     -6.151E+01 1.346E-01 0.000E+00
 ETOT  2  -61.731662432671     -2.258E-01 1.955E-01 0.000E+00
 ETOT  3  -61.741472010828     -9.810E-03 2.880E-03 0.000E+00
 ETOT  4  -61.742359329865     -8.873E-04 7.438E-03 0.000E+00
 ETOT  5  -61.742466728492     -1.074E-04 1.838E-04 0.000E+00
 ETOT  6  -61.742481728696     -1.500E-05 5.211E-04 0.000E+00
 ETOT  7  -61.742483976525     -2.248E-06 1.344E-05 0.000E+00
 ETOT  8  -61.742484326036     -3.495E-07 3.842E-05 0.000E+00
 ETOT  9  -61.742484381529     -5.549E-08 1.004E-06 0.000E+00
 ETOT 10  -61.742484390455     -8.927E-09 2.889E-06 0.000E+00
 ETOT 11  -61.742484391906     -1.450E-09 7.577E-08 0.000E+00
[...]
 ETOT 27  -61.742484392190     -1.421E-14 9.570E-17 0.000E+00
 ETOT 28  -61.742484392190      0.000E+00 2.982E-16 0.000E+00
 ETOT 29  -61.742484392190      0.000E+00 7.498E-18 0.000E+00
 ETOT 30  -61.742484392190      1.421E-14 2.349E-17 0.000E+00
 ETOT 31  -61.742484392190      0.000E+00 5.886E-19 0.000E+00
 ETOT 32  -61.742484392190      0.000E+00 1.852E-18 0.000E+00
 ETOT 33  -61.742484392190      0.000E+00 4.628E-20 0.000E+00
 ETOT 34  -61.742484392190      1.421E-14 1.461E-19 0.000E+00
 ETOT 35  -61.742484392190      0.000E+00 9.996E-21 0.000E+00

 At SCF step   35   max residual=  1.00E-20 < tolwfr=  1.00E-20 =>converged.

 ----iterations are completed or convergence reached----

 dfpt_looppert: DFPT cycle converged with prtwf=-1. Will skip output of the 1st-order WFK file.
 dfpt_looppert : ek2=    7.9586716366E+01
          f-sum rule ratio=    1.0419761333E+00
 prteigrs : about to open file /scratch/users/j/a/jabreu/flow_simple_7atoms/flow/w203/t1/tmpdata/tmp_1WF1_EIG
 Expectation of eigenvalue derivatives (hartree) for nkpt=   2  k points:
  (in case of degenerate eigenvalues, averaged derivative)
 kpt#   1, nband= 52, wtk=  0.50000, kpt=  0.5000  0.5000  0.0000 (reduced coord)
  -0.00000   -0.00000   -0.00000   -0.00000    0.00000    0.00000    0.00000    0.00000
  -0.00000   -0.00000   -0.00000    0.00000   -0.00000    0.00000   -0.00000   -0.00000
  -0.00000   -0.00000    0.00000    0.00000   -0.00000   -0.00000    0.00000    0.00000
   0.00000   -0.00000   -0.00000   -0.00000    0.00000    0.00000    0.00000   -0.00000
  -0.00000   -0.00000   -0.00000    0.00000    0.00000   -0.00000   -0.00000   -0.00000
   0.00000    0.00000    0.00000    0.00000    0.00000    0.00000   -0.00000    0.00000
  -0.00000   -0.00000    0.00000    0.00022
 prteigrs : prtvol=0 or 1, do not print more k-points.

 Eight components of 2nd-order total energy (hartree) are
 1,2,3: 0th-order hamiltonian combined with 1st-order wavefunctions
     kin0=   8.04507743E+01 eigvalue=   1.05989531E+01  local=  -4.18185882E+01
 4,5,6: 1st-order hamiltonian combined with 1st and 0th-order wfs
     kin1=  -8.29274590E+01  Hartree=   0.00000000E+00     xc=   0.00000000E+00
 7,8,9: eventually, occupation + non-local contributions
    edocc=   7.56938652E+00     enl0=   4.94195862E+00   enl1=  -4.05575098E+01
 1-9 gives the relaxation energy (to be shifted if some occ is /=2.0)
   erelax=  -6.17424844E+01
  No Ewald or frozen-wf contrib.: the relaxation energy is the total one
 2DEtotal=   -0.6174248439E+02 Ha. Also 2DEtotal=   -0.168009844327E+04 eV
    (  non-var. 2DEtotal :   -6.1742484392E+01 Ha)

 Perturbation wavevector (in red.coord.)   0.000000  0.000000  0.000000
 Perturbation : derivative vs k along direction   2
 The set of symmetries contains only one element for this perturbation.
 symkpt : not enough symmetry to change the number of k points.

[...]

 Perturbation wavevector (in red.coord.)   0.000000  0.000000  0.000000
 Perturbation : derivative vs k along direction   3
 The set of symmetries contains only one element for this perturbation.
 symkpt : not enough symmetry to change the number of k points.

-inwffil : will read wavefunctions from disk file /scratch/users/j/a/jabreu/flow_simple_7atoms/flow/w203/t1/indata/in_WFK

 Initialisation of the first-order wave-functions :
  ireadwf=   0

--- !BeginCycle
iteration_state: {dtset: 1, }
solver: {iscf: 7, nstep: 2000, nline: 4, wfoptalg: 0, }
tolerances: {tolwfr: 1.00E-20, }
...

     iter   2DEtotal(Ha)        deltaE(Ha) residm    vres2
-ETOT  1  -61.159028162375     -6.116E+01 1.728E-01 0.000E+00
 ETOT  2  -61.356842757837     -1.978E-01 2.070E-01 0.000E+00
 ETOT  3  -61.364544758936     -7.702E-03 3.742E-03 0.000E+00
 ETOT  4  -61.365283537872     -7.388E-04 7.961E-03 0.000E+00
 ETOT  5  -61.365378120301     -9.458E-05 2.131E-04 0.000E+00
 ETOT  6  -61.365391668439     -1.355E-05 5.706E-04 0.000E+00
 ETOT  7  -61.365393715082     -2.047E-06 1.685E-05 0.000E+00
 ETOT  8  -61.365394033804     -3.187E-07 4.303E-05 0.000E+00
 ETOT  9  -61.365394084320     -5.052E-08 1.389E-06 0.000E+00
 ETOT 10  -61.365394092421     -8.101E-09 3.304E-06 0.000E+00
 ETOT 11  -61.365394093732     -1.311E-09 1.156E-07 0.000E+00
 ETOT 12  -61.365394093946     -2.136E-10 2.566E-07 0.000E+00
 ETOT 13  -61.365394093981     -3.504E-11 9.642E-09 0.000E+00
 ETOT 14  -61.365394093986     -5.755E-12 2.046E-08 0.000E+00
 ETOT 15  -61.365394093987     -9.379E-13 8.059E-10 0.000E+00
 ETOT 16  -61.365394093987     -1.990E-13 1.701E-09 0.000E+00
 ETOT 17  -61.365394093988     -3.553E-14 6.744E-11 0.000E+00
 ETOT 18  -61.365394093987      7.105E-14 1.416E-10 0.000E+00
 ETOT 19  -61.365394093987     -2.842E-14 5.651E-12 0.000E+00
 ETOT 20  -61.365394093987      0.000E+00 1.181E-11 0.000E+00
 ETOT 21  -61.365394093987     -7.105E-15 4.740E-13 0.000E+00
 ETOT 22  -61.365394093988     -1.421E-14 9.861E-13 0.000E+00
 ETOT 23  -61.365394093987      2.132E-14 3.981E-14 0.000E+00
 ETOT 24  -61.365394093987      4.263E-14 8.246E-14 0.000E+00
 ETOT 25  -61.365394093987     -3.553E-14 3.348E-15 0.000E+00
 ETOT 26  -61.365394093987     -1.421E-14 6.904E-15 0.000E+00
 ETOT 27  -61.365394093988     -1.421E-14 2.819E-16 0.000E+00
 ETOT 28  -61.365394093987      1.421E-14 5.787E-16 0.000E+00
 ETOT 29  -61.365394093987      1.421E-14 2.376E-17 0.000E+00
 ETOT 30  -61.365394093988     -2.842E-14 4.857E-17 0.000E+00
 ETOT 31  -61.365394093988      0.000E+00 2.006E-18 0.000E+00
 ETOT 32  -61.365394093987      1.421E-14 4.082E-18 0.000E+00
 ETOT 33  -61.365394093987      1.421E-14 1.696E-19 0.000E+00
 ETOT 34  -61.365394093987      0.000E+00 3.434E-19 0.000E+00
 ETOT 35  -61.365394093987      1.421E-14 1.436E-20 0.000E+00
 ETOT 36  -61.365394093987     -1.421E-14 9.965E-21 0.000E+00

 At SCF step   36   max residual=  9.97E-21 < tolwfr=  1.00E-20 =>converged.

 ----iterations are completed or convergence reached----

 dfpt_looppert: DFPT cycle converged with prtwf=-1. Will skip output of the 1st-order WFK file.
 dfpt_looppert : ek2=    7.9586716365E+01
          f-sum rule ratio=    1.0336517477E+00
 prteigrs : about to open file /scratch/users/j/a/jabreu/flow_simple_7atoms/flow/w203/t1/tmpdata/tmp_1WF1_EIG
 Expectation of eigenvalue derivatives (hartree) for nkpt=   2  k points:
  (in case of degenerate eigenvalues, averaged derivative)
 kpt#   1, nband= 52, wtk=  0.50000, kpt=  0.5000  0.5000  0.0000 (reduced coord)
   0.00000    0.00000    0.00000    0.00000   -0.00000   -0.00000   -0.00000    0.00000
   0.00000   -0.00000    0.00000   -0.00000    0.00000    0.00000    0.00000    0.00000
  -0.00000    0.00000   -0.00000    0.00000   -0.00000    0.00000   -0.00000    0.00000
  -0.00000   -0.00000    0.00000    0.00000   -0.00000   -0.00000   -0.00000   -0.00000
  -0.00000    0.00000    0.00000   -0.00000    0.00000    0.00000    0.00000   -0.00000
  -0.00000   -0.00000   -0.00000   -0.00000    0.00000   -0.00000    0.00000   -0.00000
   0.00000   -0.00000   -0.00001   -0.00007
 prteigrs : prtvol=0 or 1, do not print more k-points.

 Eight components of 2nd-order total energy (hartree) are
 1,2,3: 0th-order hamiltonian combined with 1st-order wavefunctions
     kin0=   8.16863745E+01 eigvalue=   1.04621003E+01  local=  -4.24615430E+01
 4,5,6: 1st-order hamiltonian combined with 1st and 0th-order wfs
     kin1=  -8.22649485E+01  Hartree=   0.00000000E+00     xc=   0.00000000E+00
 7,8,9: eventually, occupation + non-local contributions
    edocc=   6.81958751E+00     enl0=   4.85887482E+00   enl1=  -4.04658397E+01
 1-9 gives the relaxation energy (to be shifted if some occ is /=2.0)
   erelax=  -6.13653941E+01
  No Ewald or frozen-wf contrib.: the relaxation energy is the total one
 2DEtotal=   -0.6136539409E+02 Ha. Also 2DEtotal=   -0.166983729441E+04 eV
    (  non-var. 2DEtotal :   -6.1365394093E+01 Ha)

 CALCULATION OF EFFECTIVE MASSES
 NOTE : Additional infos (eff. mass eigenvalues, eigenvectors and, if degenerate, average mass) are available in stdout.

 K-point ( 0.500, 0.500, 0.000) | band =    43
 Effective mass tensor:
             -5.2857132506             -2.6976007752             -0.5037126932
             -2.6976007752             -2.5442134430             -0.3085383491
             -0.5037126932             -0.3085383491             -3.0454263938
 Effective mass tensor eigenvalues:
             -7.0284547499             -2.9578242495             -0.8890740881
 Angular average effective mass 1/(<1/m>)=  -1.8690065757
 Angular average effective mass for Frohlich model (<m**0.5>)**2=  -2.2962252835
 Effective masses along directions: (cart. coord. / red. coord. -> eff. mass)
    1:   1.000000  0.000000  0.000000 /   0.910904  0.412617  0.000000 ->  -2.4151126226
    2:   0.000000  1.000000  0.000000 /   0.000000  1.000000  0.000000 ->  -1.1665903527
    3:   0.000000  0.000000  1.000000 /   0.537731  0.537731  0.649377 ->  -2.9951553754
    4:   0.577350  0.577350  0.577350 /   0.595910  0.678787  0.429115 ->  -4.5806153212
    5:   0.000000  0.707107  0.707107 /   0.445885  0.715013  0.538463 ->  -1.7217102807
    6:   0.707107  0.000000  0.707107 /   0.685891  0.534421  0.493911 ->  -2.8599189300
    7:   0.707107  0.707107  0.000000 /   0.596797  0.802392  0.000000 ->  -5.0111688337

 K-point ( 0.000, 0.000, 0.000) | band =    44
 Effective mass tensor:
              0.2405868789             -0.0020987298             -0.0111534397
             -0.0020987298              0.2427194929             -0.0068437125
             -0.0111534397             -0.0068437125              0.2076373811
 Effective mass tensor eigenvalues:
              0.2029292122              0.2440072608              0.2440072799
 Angular average effective mass 1/(<1/m>)=   0.2285835529
 Angular average effective mass for Frohlich model (<m**0.5>)**2=   0.2291179242
 Effective masses along directions: (cart. coord. / red. coord. -> eff. mass)
    1:   1.000000  0.000000  0.000000 /   0.910904  0.412617  0.000000 ->   0.2399626766
    2:   0.000000  1.000000  0.000000 /   0.000000  1.000000  0.000000 ->   0.2424685781
    3:   0.000000  0.000000  1.000000 /   0.537731  0.537731  0.649377 ->   0.2069218096
    4:   0.577350  0.577350  0.577350 /   0.595910  0.678787  0.429115 ->   0.2152699129
    5:   0.000000  0.707107  0.707107 /   0.445885  0.715013  0.538463 ->   0.2166046475
    6:   0.707107  0.000000  0.707107 /   0.685891  0.534421  0.493911 ->   0.2116277904
    7:   0.707107  0.707107  0.000000 /   0.596797  0.802392  0.000000 ->   0.2387680536

 END OF EFFECTIVE MASSES SECTION

 ---- first-order wavefunction calculations are completed ----

 Total localisation tensor (bohr^2) in cartesian coordinates
  WARNING : still subject to testing - especially symmetries.
      direction              matrix element
   alpha     beta       real part   imaginary part
     1        1       1.8554026856    0.0000000000
     1        2       0.6216889932    0.0000000000
     1        3       3.3039687725    0.0000000000
     2        1       0.6216889932    0.0000000000
     2        2       1.2235766015    0.0000000000
     2        3       2.0271946977    0.0000000000
     3        1       3.3039687725    0.0000000000
     3        2       2.0271946977    0.0000000000
     3        3      11.3306057367    0.0000000000

 respfn : d/dk was computed, but no 2DTE, so no DDB output.

== END DATASET(S) ==============================================================

 -outvars: echo values of variables after computation  --------
            acell      1.0000000000E+00  1.0000000000E+00  1.0000000000E+00 Bohr
              amu      3.90983000E+01  1.12411000E+02  7.49215900E+01
        autoparal           1
             ecut      5.10000000E+01 Hartree
           etotal     -6.1365394094E+01
            fcart      0.0000000000E+00  0.0000000000E+00  0.0000000000E+00
                       0.0000000000E+00  0.0000000000E+00  0.0000000000E+00
                       0.0000000000E+00  0.0000000000E+00  0.0000000000E+00
                       0.0000000000E+00  0.0000000000E+00  0.0000000000E+00
                       0.0000000000E+00  0.0000000000E+00  0.0000000000E+00
                       0.0000000000E+00  0.0000000000E+00  0.0000000000E+00
                       0.0000000000E+00  0.0000000000E+00  0.0000000000E+00
-          fftalg         512
           irdden           1
           irdwfk           1
           istwfk        1    1
              ixc     -116133
              kpt      5.00000000E-01  5.00000000E-01  5.55111512E-17
                       0.00000000E+00  0.00000000E+00  0.00000000E+00
           kptopt           0
P           mkmem           2
P          mkqmem           2
P          mk1mem           2
            natom           7
            nband          52
           nbdbuf           4
            ngfft         120     120     120
             nkpt           2
            nstep        2000
             nsym          12
           ntypat           3
              occ      2.000000  2.000000  2.000000  2.000000  2.000000  2.000000
                       2.000000  2.000000  2.000000  2.000000  2.000000  2.000000
                       2.000000  2.000000  2.000000  2.000000  2.000000  2.000000
                       2.000000  2.000000  2.000000  2.000000  2.000000  2.000000
                       2.000000  2.000000  2.000000  2.000000  2.000000  2.000000
                       2.000000  2.000000  2.000000  2.000000  2.000000  2.000000
                       2.000000  2.000000  2.000000  2.000000  2.000000  2.000000
                       2.000000  0.000000  0.000000  0.000000  0.000000  0.000000
                       0.000000  0.000000  0.000000  0.000000
        optdriver           1
            prtwf          -1
            rfdir           1       1       1
           rfelfd           2
            rprim      1.0360750855E+01  0.0000000000E+00  1.5303405875E+01
                       4.6931648951E+00  9.2368480310E+00  1.5303405875E+01
                       0.0000000000E+00  0.0000000000E+00  1.8480784336E+01
          spgroup         166
           strten      0.0000000000E+00  0.0000000000E+00  0.0000000000E+00
                       0.0000000000E+00  0.0000000000E+00  0.0000000000E+00
           symrel      1  0  0   0  1  0   0  0  1      -1  0  0   0 -1  0   0  0 -1
                       0  1  0   1  0  0   0  0  1       0 -1  0  -1  0  0   0  0 -1
                       0  0  1   1  0  0   0  1  0       0  0 -1  -1  0  0   0 -1  0
                       1  0  0   0  0  1   0  1  0      -1  0  0   0  0 -1   0 -1  0
                       0  1  0   0  0  1   1  0  0       0 -1  0   0  0 -1  -1  0  0
                       0  0  1   0  1  0   1  0  0       0  0 -1   0 -1  0  -1  0  0
           tolwfr      1.00000000E-20
            typat      1  1  1  1  2  3  3
           useylm           1
              wtk        0.50000    0.50000
           xangst      1.6576842929E+00  1.0171292408E+00  5.4053535545E+00
                       6.3085048220E+00  3.8708002165E+00  2.0570683519E+01
                       3.1191533818E+00  1.9138638910E+00  1.0170891340E+01
                       4.8470357332E+00  2.9740655662E+00  1.5805145733E+01
                       0.0000000000E+00  0.0000000000E+00  0.0000000000E+00
                       7.2521636522E+00  4.4498145641E+00  2.3647752918E+01
                       7.1402546275E-01  4.3811489311E-01  2.3282841549E+00
            xcart      3.1325693284E+00  1.9220957068E+00  1.0214637869E+01
                       1.1921346422E+01  7.3147523242E+00  3.8872958216E+01
                       5.8943456580E+00  3.6166786097E+00  1.9220199160E+01
                       9.1595700921E+00  5.6201694213E+00  2.9867396926E+01
                       0.0000000000E+00  0.0000000000E+00  0.0000000000E+00
                       1.3704603174E+01  8.4089308683E+00  4.4687776673E+01
                       1.3493125765E+00  8.2791716271E-01  4.3998194124E+00
             xred      2.0809000000E-01  2.0809000000E-01  2.0809000000E-01
                       7.9191000000E-01  7.9191000000E-01  7.9191000000E-01
                       3.9154900000E-01  3.9154900000E-01  3.9154900000E-01
                       6.0845100000E-01  6.0845100000E-01  6.0845100000E-01
                       0.0000000000E+00  0.0000000000E+00  0.0000000000E+00
                       9.1036800000E-01  9.1036800000E-01  9.1036800000E-01
                       8.9632000000E-02  8.9632000000E-02  8.9632000000E-02
            znucl       19.00000   48.00000   33.00000

- Timing analysis has been suppressed with timopt=0

 Suggested references for the acknowledgment of ABINIT usage.

 Calculation completed.
.Delivered  14 WARNINGs and  11 COMMENTs to log file.