.Version 9.5.1 of ABINIT

 ABINIT is a project of the Universite Catholique de Louvain,
 Corning Inc. and other collaborators, see ~abinit/doc/developers/contributors.txt .
 acknowledgments of the ABINIT effort.

.Starting date : Tue  4 May 2021.
- ( at 21h48 )

- input  file    -> /scratch/users/j/a/jabreu/flow_simple_6atoms/flow/w258/t1/run.abi
- output file    -> /scratch/users/j/a/jabreu/flow_simple_6atoms/flow/w258/t1/run.abo
- root for input  files -> /scratch/users/j/a/jabreu/flow_simple_6atoms/flow/w258/t1/indata/in
- root for output files -> /scratch/users/j/a/jabreu/flow_simple_6atoms/flow/w258/t1/outdata/out

 Symmetries : space group P4/n m m (#129); Bravais tP (primitive tetrag.)
     intxc =       0      iscf =       7    lmnmax =      18     lnmax =       6
     mgfft =      90  mpssoang =       3    mqgrid =    4029     natom =       6
  nloc_mem =       1    nspden =       1   nspinor =       1    nsppol =       1
      nsym =      16    n1xccc =    2501    ntypat =       3    occopt =       1
   xclevel =       2
-    mband =          27        mffmem =           1         mkmem =           1
-   mkqmem =           1        mk1mem =           1           mpw =       13032
      nfft =      225000          nkpt =           1
  Rough estimation (10% accuracy) of disk space for files :

------------- Echo of variables that govern the present computation ------------
-
- outvars: echo of selected default values
-   iomode0 =  0 , fftalg0 =512 , wfoptalg0 =  0
-
- outvars: echo of global parameters not present in the input file
-  max_nthreads =    0
-
 -outvars: echo values of preprocessed input variables --------
            acell      1.0000000000E+00  1.0000000000E+00  1.0000000000E+00 Bohr
              amu      1.37327000E+02  1.00794000E+00  1.26904470E+02
             ecut      3.90000000E+01 Hartree
-          fftalg         512
           irdden           1
           irdwfk           1
           istwfk        1
              ixc     -116133
              kpt      1.88742137E-17  1.88742137E-17  5.00000000E-01
           kptopt           0
P           mkmem           1
P          mkqmem           1
P          mk1mem           1
            natom           6
            nband          27
           nbdbuf           4
            ngfft          50      50      90
             nkpt           1
            nstep        1000
             nsym          16
           ntypat           3
              occ      2.000000  2.000000  2.000000  2.000000  2.000000  2.000000
                       2.000000  2.000000  2.000000  2.000000  2.000000  2.000000
                       2.000000  2.000000  2.000000  2.000000  2.000000  2.000000
                       0.000000  0.000000  0.000000  0.000000  0.000000  0.000000
                       0.000000  0.000000  0.000000
        optdriver           1
            prtwf          -1
            rfdir           1       1       1
           rfelfd           2
            rprim      8.8337702639E+00  0.0000000000E+00  0.0000000000E+00
                       0.0000000000E+00  8.8337702639E+00  0.0000000000E+00
                       0.0000000000E+00  0.0000000000E+00  1.4329402861E+01
          spgroup         129
           symrel      1  0  0   0  1  0   0  0  1      -1  0  0   0 -1  0   0  0 -1
                      -1  0  0   0  1  0   0  0 -1       1  0  0   0 -1  0   0  0  1
                      -1  0  0   0 -1  0   0  0  1       1  0  0   0  1  0   0  0 -1
                       1  0  0   0 -1  0   0  0 -1      -1  0  0   0  1  0   0  0  1
                       0  1  0   1  0  0   0  0  1       0 -1  0  -1  0  0   0  0 -1
                       0 -1  0   1  0  0   0  0 -1       0  1  0  -1  0  0   0  0  1
                       0 -1  0  -1  0  0   0  0  1       0  1  0   1  0  0   0  0 -1
                       0  1  0  -1  0  0   0  0 -1       0 -1  0   1  0  0   0  0  1
            tnons      0.0000000  0.0000000  0.0000000     0.5000000  0.5000000  0.0000000
                       0.5000000  0.5000000  0.0000000     0.0000000  0.0000000  0.0000000
                       0.0000000  0.0000000  0.0000000     0.5000000  0.5000000  0.0000000
                       0.5000000  0.5000000  0.0000000     0.0000000  0.0000000  0.0000000
                       0.5000000  0.5000000  0.0000000     0.0000000  0.0000000  0.0000000
                       0.0000000  0.0000000  0.0000000     0.5000000  0.5000000  0.0000000
                       0.5000000  0.5000000  0.0000000     0.0000000  0.0000000  0.0000000
                       0.0000000  0.0000000  0.0000000     0.5000000  0.5000000  0.0000000
           tolwfr      1.00000000E-20
            typat      1  1  2  2  3  3
           useylm           1
           xangst      0.0000000000E+00  2.3373149448E+00  6.2685360708E+00
                       2.3373149448E+00  0.0000000000E+00  1.3142573361E+00
                       0.0000000000E+00  0.0000000000E+00  0.0000000000E+00
                       2.3373149448E+00  2.3373149448E+00  0.0000000000E+00
                       2.3373149448E+00  0.0000000000E+00  5.0029451028E+00
                       0.0000000000E+00  2.3373149448E+00  2.5798483041E+00
            xcart      0.0000000000E+00  4.4168851319E+00  1.1845816428E+01
                       4.4168851319E+00  0.0000000000E+00  2.4835864333E+00
                       0.0000000000E+00  0.0000000000E+00  0.0000000000E+00
                       4.4168851319E+00  4.4168851319E+00  0.0000000000E+00
                       4.4168851319E+00  0.0000000000E+00  9.4541961022E+00
                       0.0000000000E+00  4.4168851319E+00  4.8752067590E+00
             xred      0.0000000000E+00  5.0000000000E-01  8.2667900000E-01
                       5.0000000000E-01  0.0000000000E+00  1.7332100000E-01
                       0.0000000000E+00  0.0000000000E+00  0.0000000000E+00
                       5.0000000000E-01  5.0000000000E-01  0.0000000000E+00
                       5.0000000000E-01  0.0000000000E+00  6.5977600000E-01
                       0.0000000000E+00  5.0000000000E-01  3.4022400000E-01
            znucl       56.00000    1.00000   53.00000

 chkinp: Checking input parameters for consistency.

== DATASET  1 ==================================================================
-   mpi_nproc: 1, omp_nthreads: -1 (-1 if OMP is not activated)

--- !DatasetInfo
iteration_state: {dtset: 1, }
dimensions: {natom: 6, nkpt: 1, mband: 27, nsppol: 1, nspinor: 1, nspden: 1, mpw: 13032, }
cutoff_energies: {ecut:  39.0, pawecutdg:  -1.0, }
electrons: {nelect:   3.60000000E+01, charge:   0.00000000E+00, occopt:   1.00000000E+00, tsmear:   1.00000000E-02, }
meta: {optdriver: 1, rfelfd: 2, }
...

 Real(R)+Recip(G) space primitive vectors, cartesian coordinates (Bohr,Bohr^-1):
 R(1)=  8.8337703  0.0000000  0.0000000  G(1)=  0.1132019  0.0000000  0.0000000
 R(2)=  0.0000000  8.8337703  0.0000000  G(2)=  0.0000000  0.1132019  0.0000000
 R(3)=  0.0000000  0.0000000 14.3294029  G(3)=  0.0000000  0.0000000  0.0697866
 Unit cell volume ucvol=  1.1182021E+03 bohr^3
 Angles (23,13,12)=  9.00000000E+01  9.00000000E+01  9.00000000E+01 degrees

 getcut: wavevector=  0.0000  0.0000  0.0000  ngfft=  50  50  90
         ecut(hartree)=     39.000   => boxcut(ratio)=   2.01338

--- Pseudopotential description ------------------------------------------------
- pspini: atom type   1  psp file is /scratch/users/j/a/jabreu/pseudos/PBEsol/Ba.psp8
- pspatm: opening atomic psp file    /scratch/users/j/a/jabreu/pseudos/PBEsol/Ba.psp8
- Ba    ONCVPSP-3.3.0  r_core=   2.15444   1.91218   2.15444
- 56.00000  10.00000    180112                znucl, zion, pspdat
    8 -116133    2    4       600   0.00000   pspcod,pspxc,lmax,lloc,mmax,r2well
    5.99000000000000    5.00000000000000    0.00000000000000   rchrg,fchrg,qchrg
     nproj     2     2     2
     extension_switch     1
  pspatm : epsatm=   26.37418029
         --- l  ekb(1:nproj) -->
             0    6.652372    0.677024
             1    5.027722    0.408462
             2    2.543237    0.416854
 pspatm: atomic psp has been read  and splines computed

- pspini: atom type   2  psp file is /scratch/users/j/a/jabreu/pseudos/PBEsol/H.psp8
- pspatm: opening atomic psp file    /scratch/users/j/a/jabreu/pseudos/PBEsol/H.psp8
- H     ONCVPSP-3.3.0  r_core=   1.00957   0.70586
-  1.00000   1.00000    180112                znucl, zion, pspdat
    8 -116133    1    4       300   0.00000   pspcod,pspxc,lmax,lloc,mmax,r2well
    2.99000000000000    0.00000000000000    0.00000000000000   rchrg,fchrg,qchrg
     nproj     2     1
     extension_switch     1
  pspatm : epsatm=    0.35627032
         --- l  ekb(1:nproj) -->
             0   -1.674911   -0.523609
             1   -0.494138
 pspatm: atomic psp has been read  and splines computed

- pspini: atom type   3  psp file is /scratch/users/j/a/jabreu/pseudos/PBEsol/I.psp8
- pspatm: opening atomic psp file    /scratch/users/j/a/jabreu/pseudos/PBEsol/I.psp8
- I     ONCVPSP-3.3.0  r_core=   2.02042   2.17032   2.27639
- 53.00000   7.00000    180112                znucl, zion, pspdat
    8 -116133    2    4       600   0.00000   pspcod,pspxc,lmax,lloc,mmax,r2well
    5.99000000000000    4.00000000000000    0.00000000000000   rchrg,fchrg,qchrg
     nproj     2     2     2
     extension_switch     1
  pspatm : epsatm=   18.14229533
         --- l  ekb(1:nproj) -->
             0    6.015861    0.935228
             1    4.063749    0.754139
             2    4.149534    0.722940
 pspatm: atomic psp has been read  and splines computed

   3.23083771E+03                                ecore*ucvol(ha*bohr**3)

-inwffil : will read wavefunctions from disk file /scratch/users/j/a/jabreu/flow_simple_6atoms/flow/w258/t1/indata/in_WFK

 ==>  initialize data related to q vector <==

 The list of irreducible perturbations for this q vector is:
    1)    idir= 1    ipert=   7
    2)    idir= 2    ipert=   7
    3)    idir= 3    ipert=   7

 Perturbation wavevector (in red.coord.)   0.000000  0.000000  0.000000
 Perturbation : derivative vs k along direction   1

 dfpt_looppert : COMMENT -
  In a d/dk calculation, iscf is set to -3 automatically.
 The set of symmetries contains only one element for this perturbation.
 symkpt : not enough symmetry to change the number of k points.

[...]

 Initialisation of the first-order wave-functions :
  ireadwf=   0

--- !BeginCycle
iteration_state: {dtset: 1, }
solver: {iscf: 7, nstep: 1000, nline: 4, wfoptalg: 0, }
tolerances: {tolwfr: 1.00E-20, }
...

     iter   2DEtotal(Ha)        deltaE(Ha) residm    vres2
-ETOT  1  -23.899369057543     -2.390E+01 1.292E-02 0.000E+00
 ETOT  2  -23.903721175169     -4.352E-03 1.406E-03 0.000E+00
 ETOT  3  -23.903725112129     -3.937E-06 9.827E-06 0.000E+00
 ETOT  4  -23.903725117160     -5.031E-09 1.550E-06 0.000E+00
 ETOT  5  -23.903725117168     -8.431E-12 1.411E-08 0.000E+00
 ETOT  6  -23.903725117168     -2.842E-14 2.179E-09 0.000E+00
 ETOT  7  -23.903725117168      4.263E-14 3.001E-11 0.000E+00
 ETOT  8  -23.903725117168      1.776E-14 3.950E-12 0.000E+00
 ETOT  9  -23.903725117168     -7.105E-15 6.043E-14 0.000E+00
 ETOT 10  -23.903725117168     -7.105E-15 8.093E-15 0.000E+00
 ETOT 11  -23.903725117168      0.000E+00 1.347E-16 0.000E+00
 ETOT 12  -23.903725117168      3.553E-15 1.830E-17 0.000E+00
 ETOT 13  -23.903725117168     -3.553E-15 3.191E-19 0.000E+00
 ETOT 14  -23.903725117168      0.000E+00 4.384E-20 0.000E+00
 ETOT 15  -23.903725117168     -3.553E-15 9.026E-21 0.000E+00

 At SCF step   15   max residual=  9.03E-21 < tolwfr=  1.00E-20 =>converged.

 ----iterations are completed or convergence reached----

 dfpt_looppert: DFPT cycle converged with prtwf=-1. Will skip output of the 1st-order WFK file.
 dfpt_looppert : ek2=    3.6425039553E+01
          f-sum rule ratio=    1.1693639046E+00
 prteigrs : about to open file /scratch/users/j/a/jabreu/flow_simple_6atoms/flow/w258/t1/tmpdata/tmp_1WF1_EIG
 Expectation of eigenvalue derivatives (hartree) for nkpt=   1  k points:
  (in case of degenerate eigenvalues, averaged derivative)
 kpt#   1, nband= 27, wtk=  1.00000, kpt=  0.0000  0.0000  0.5000 (reduced coord)
  -0.00000   -0.00000   -0.00000    0.00000   -0.00000   -0.00000   -0.00000   -0.00000
  -0.00000    0.00000   -0.00000    0.00000    0.00000    0.00000   -0.00000   -0.00000
  -0.00000    0.00000    0.00000   -0.00000    0.00000    0.00000    0.00000    0.00000
   0.00000   -0.00000   -0.00000

 Eight components of 2nd-order total energy (hartree) are
 1,2,3: 0th-order hamiltonian combined with 1st-order wavefunctions
     kin0=   1.86817048E+01 eigvalue=  -5.91382489E-01  local=  -1.12227433E+01
 4,5,6: 1st-order hamiltonian combined with 1st and 0th-order wfs
     kin1=  -4.25941265E+01  Hartree=   0.00000000E+00     xc=   0.00000000E+00
 7,8,9: eventually, occupation + non-local contributions
    edocc=   1.30903832E+01     enl0=   3.94576288E+00   enl1=  -5.21332376E+00
 1-9 gives the relaxation energy (to be shifted if some occ is /=2.0)
   erelax=  -2.39037251E+01
  No Ewald or frozen-wf contrib.: the relaxation energy is the total one
 2DEtotal=   -0.2390372512E+02 Ha. Also 2DEtotal=   -0.650453439847E+03 eV
    (  non-var. 2DEtotal :   -2.3903725117E+01 Ha)

 Perturbation wavevector (in red.coord.)   0.000000  0.000000  0.000000
 Perturbation : derivative vs k along direction   2
 The set of symmetries contains only one element for this perturbation.
 symkpt : not enough symmetry to change the number of k points.

[...]

 Perturbation wavevector (in red.coord.)   0.000000  0.000000  0.000000
 Perturbation : derivative vs k along direction   3
 The set of symmetries contains only one element for this perturbation.
 symkpt : not enough symmetry to change the number of k points.

-inwffil : will read wavefunctions from disk file /scratch/users/j/a/jabreu/flow_simple_6atoms/flow/w258/t1/indata/in_WFK

 Initialisation of the first-order wave-functions :
  ireadwf=   0

--- !BeginCycle
iteration_state: {dtset: 1, }
solver: {iscf: 7, nstep: 1000, nline: 4, wfoptalg: 0, }
tolerances: {tolwfr: 1.00E-20, }
...

     iter   2DEtotal(Ha)        deltaE(Ha) residm    vres2
-ETOT  1  -7.7890985967567     -7.789E+00 4.720E-03 0.000E+00
 ETOT  2  -7.7937130452796     -4.614E-03 6.587E-05 0.000E+00
 ETOT  3  -7.7937225753511     -9.530E-06 1.279E-06 0.000E+00
 ETOT  4  -7.7937226101261     -3.477E-08 1.661E-08 0.000E+00
 ETOT  5  -7.7937226102650     -1.390E-10 4.301E-10 0.000E+00
 ETOT  6  -7.7937226102656     -5.578E-13 2.150E-11 0.000E+00
 ETOT  7  -7.7937226102656      8.882E-16 6.125E-13 0.000E+00
 ETOT  8  -7.7937226102656      8.882E-16 2.483E-14 0.000E+00
 ETOT  9  -7.7937226102656     -5.329E-15 1.334E-15 0.000E+00
 ETOT 10  -7.7937226102656      2.665E-15 6.286E-17 0.000E+00
 ETOT 11  -7.7937226102656     -8.882E-16 3.578E-18 0.000E+00
 ETOT 12  -7.7937226102656      0.000E+00 1.711E-19 0.000E+00
 ETOT 13  -7.7937226102656      0.000E+00 9.841E-21 0.000E+00

 At SCF step   13   max residual=  9.84E-21 < tolwfr=  1.00E-20 =>converged.

 ----iterations are completed or convergence reached----

 dfpt_looppert: DFPT cycle converged with prtwf=-1. Will skip output of the 1st-order WFK file.
 dfpt_looppert : ek2=    1.3843185792E+01
          f-sum rule ratio=    9.9176332566E-01
 prteigrs : about to open file /scratch/users/j/a/jabreu/flow_simple_6atoms/flow/w258/t1/tmpdata/tmp_1WF1_EIG
 Expectation of eigenvalue derivatives (hartree) for nkpt=   1  k points:
  (in case of degenerate eigenvalues, averaged derivative)
 kpt#   1, nband= 27, wtk=  1.00000, kpt=  0.0000  0.0000  0.5000 (reduced coord)
   0.00000   -0.00000   -0.00000    0.00000   -0.00000   -0.00000   -0.00000   -0.00000
  -0.00000   -0.00000   -0.00000   -0.00000    0.00000    0.00000    0.00000   -0.00000
  -0.00000    0.00000   -0.00000   -0.00000    0.00000    0.00000    0.00000   -0.00000
  -0.00001    0.00000    0.00117

 Eight components of 2nd-order total energy (hartree) are
 1,2,3: 0th-order hamiltonian combined with 1st-order wavefunctions
     kin0=   8.64936863E+00 eigvalue=  -6.25920427E-02  local=  -5.43051448E+00
 4,5,6: 1st-order hamiltonian combined with 1st and 0th-order wfs
     kin1=  -1.37291640E+01  Hartree=   0.00000000E+00     xc=   0.00000000E+00
 7,8,9: eventually, occupation + non-local contributions
    edocc=   2.65322059E+00     enl0=   1.98423992E+00   enl1=  -1.85828124E+00
 1-9 gives the relaxation energy (to be shifted if some occ is /=2.0)
   erelax=  -7.79372261E+00
  No Ewald or frozen-wf contrib.: the relaxation energy is the total one
 2DEtotal=   -0.7793722610E+01 Ha. Also 2DEtotal=   -0.212077977646E+03 eV
    (  non-var. 2DEtotal :   -7.7937226102E+00 Ha)

 CALCULATION OF EFFECTIVE MASSES
 NOTE : Additional infos (eff. mass eigenvalues, eigenvectors and, if degenerate, average mass) are available in stdout.

 K-point ( 0.000, 0.000, 0.500) | band =    18
 Effective mass tensor:
             -0.9168944684             -0.0000000000              0.0000000161
             -0.0000000000             -0.9168944670             -0.0000000062
              0.0000000161             -0.0000000062             -0.4226672677
 Effective mass tensor eigenvalues:
             -0.9168944684             -0.9168944670             -0.4226672677
 Angular average effective mass 1/(<1/m>)=  -0.6597461716
 Angular average effective mass for Frohlich model (<m**0.5>)**2=  -0.6895338068
 Effective masses along directions: (cart. coord. / red. coord. -> eff. mass)
    1:   1.000000  0.000000  0.000000 /   1.000000  0.000000  0.000000 ->  -0.9168944684
    2:   0.000000  1.000000  0.000000 /   0.000000  1.000000  0.000000 ->  -0.9168944670
    3:   0.000000  0.000000  1.000000 /   0.000000  0.000000  1.000000 ->  -0.4226672677
    4:   0.577350  0.577350  0.577350 /   0.464676  0.464676  0.753759 ->  -0.6597461642
    5:   0.000000  0.707107  0.707107 /   0.000000  0.524773  0.851242 ->  -0.5786090670
    6:   0.707107  0.000000  0.707107 /   0.524773  0.000000  0.851242 ->  -0.5786090480
    7:   0.707107  0.707107  0.000000 /   0.707107  0.707107  0.000000 ->  -0.9168944677

 K-point ( 0.000, 0.000, 0.500) | band =    19
 Effective mass tensor:
              0.3788541319              0.0000000002             -0.0000000303
              0.0000000002              0.3788541318              0.0000000963
             -0.0000000303              0.0000000963              0.7956030462
 Effective mass tensor eigenvalues:
              0.3788541317              0.3788541320              0.7956030462
 Angular average effective mass 1/(<1/m>)=   0.4589973916
 Angular average effective mass for Frohlich model (<m**0.5>)**2=   0.4736196170
 Effective masses along directions: (cart. coord. / red. coord. -> eff. mass)
    1:   1.000000  0.000000  0.000000 /   1.000000  0.000000  0.000000 ->   0.3788541319
    2:   0.000000  1.000000  0.000000 /   0.000000  1.000000  0.000000 ->   0.3788541318
    3:   0.000000  0.000000  1.000000 /   0.000000  0.000000  1.000000 ->   0.7956030462
    4:   0.577350  0.577350  0.577350 /   0.464676  0.464676  0.753759 ->   0.4589974225
    5:   0.000000  0.707107  0.707107 /   0.000000  0.524773  0.851242 ->   0.5132882772
    6:   0.707107  0.000000  0.707107 /   0.524773  0.000000  0.851242 ->   0.5132881667
    7:   0.707107  0.707107  0.000000 /   0.707107  0.707107  0.000000 ->   0.3788541320

 END OF EFFECTIVE MASSES SECTION

 ---- first-order wavefunction calculations are completed ----

 Total localisation tensor (bohr^2) in cartesian coordinates
  WARNING : still subject to testing - especially symmetries.
      direction              matrix element
   alpha     beta       real part   imaginary part
     1        1       1.9473612478    0.0000000000
     1        2       0.0000000000    0.0000000000
     1        3       0.0000000000    0.0000000000
     2        1       0.0000000000    0.0000000000
     2        2       1.9473631398    0.0000000000
     2        3       0.0000000000    0.0000000000
     3        1       0.0000000000    0.0000000000
     3        2       0.0000000000    0.0000000000
     3        3       1.5027061128    0.0000000000

 respfn : d/dk was computed, but no 2DTE, so no DDB output.

== END DATASET(S) ==============================================================

 -outvars: echo values of variables after computation  --------
            acell      1.0000000000E+00  1.0000000000E+00  1.0000000000E+00 Bohr
              amu      1.37327000E+02  1.00794000E+00  1.26904470E+02
             ecut      3.90000000E+01 Hartree
           etotal     -7.7937226103E+00
            fcart      0.0000000000E+00  0.0000000000E+00  0.0000000000E+00
                       0.0000000000E+00  0.0000000000E+00  0.0000000000E+00
                       0.0000000000E+00  0.0000000000E+00  0.0000000000E+00
                       0.0000000000E+00  0.0000000000E+00  0.0000000000E+00
                       0.0000000000E+00  0.0000000000E+00  0.0000000000E+00
                       0.0000000000E+00  0.0000000000E+00  0.0000000000E+00
-          fftalg         512
           irdden           1
           irdwfk           1
           istwfk        1
              ixc     -116133
              kpt      1.88742137E-17  1.88742137E-17  5.00000000E-01
           kptopt           0
P           mkmem           1
P          mkqmem           1
P          mk1mem           1
            natom           6
            nband          27
           nbdbuf           4
            ngfft          50      50      90
             nkpt           1
            nstep        1000
             nsym          16
           ntypat           3
              occ      2.000000  2.000000  2.000000  2.000000  2.000000  2.000000
                       2.000000  2.000000  2.000000  2.000000  2.000000  2.000000
                       2.000000  2.000000  2.000000  2.000000  2.000000  2.000000
                       0.000000  0.000000  0.000000  0.000000  0.000000  0.000000
                       0.000000  0.000000  0.000000
        optdriver           1
            prtwf          -1
            rfdir           1       1       1
           rfelfd           2
            rprim      8.8337702639E+00  0.0000000000E+00  0.0000000000E+00
                       0.0000000000E+00  8.8337702639E+00  0.0000000000E+00
                       0.0000000000E+00  0.0000000000E+00  1.4329402861E+01
          spgroup         129
           strten      0.0000000000E+00  0.0000000000E+00  0.0000000000E+00
                       0.0000000000E+00  0.0000000000E+00  0.0000000000E+00
           symrel      1  0  0   0  1  0   0  0  1      -1  0  0   0 -1  0   0  0 -1
                      -1  0  0   0  1  0   0  0 -1       1  0  0   0 -1  0   0  0  1
                      -1  0  0   0 -1  0   0  0  1       1  0  0   0  1  0   0  0 -1
                       1  0  0   0 -1  0   0  0 -1      -1  0  0   0  1  0   0  0  1
                       0  1  0   1  0  0   0  0  1       0 -1  0  -1  0  0   0  0 -1
                       0 -1  0   1  0  0   0  0 -1       0  1  0  -1  0  0   0  0  1
                       0 -1  0  -1  0  0   0  0  1       0  1  0   1  0  0   0  0 -1
                       0  1  0  -1  0  0   0  0 -1       0 -1  0   1  0  0   0  0  1
            tnons      0.0000000  0.0000000  0.0000000     0.5000000  0.5000000  0.0000000
                       0.5000000  0.5000000  0.0000000     0.0000000  0.0000000  0.0000000
                       0.0000000  0.0000000  0.0000000     0.5000000  0.5000000  0.0000000
                       0.5000000  0.5000000  0.0000000     0.0000000  0.0000000  0.0000000
                       0.5000000  0.5000000  0.0000000     0.0000000  0.0000000  0.0000000
                       0.0000000  0.0000000  0.0000000     0.5000000  0.5000000  0.0000000
                       0.5000000  0.5000000  0.0000000     0.0000000  0.0000000  0.0000000
                       0.0000000  0.0000000  0.0000000     0.5000000  0.5000000  0.0000000
           tolwfr      1.00000000E-20
            typat      1  1  2  2  3  3
           useylm           1
           xangst      0.0000000000E+00  2.3373149448E+00  6.2685360708E+00
                       2.3373149448E+00  0.0000000000E+00  1.3142573361E+00
                       0.0000000000E+00  0.0000000000E+00  0.0000000000E+00
                       2.3373149448E+00  2.3373149448E+00  0.0000000000E+00
                       2.3373149448E+00  0.0000000000E+00  5.0029451028E+00
                       0.0000000000E+00  2.3373149448E+00  2.5798483041E+00
            xcart      0.0000000000E+00  4.4168851319E+00  1.1845816428E+01
                       4.4168851319E+00  0.0000000000E+00  2.4835864333E+00
                       0.0000000000E+00  0.0000000000E+00  0.0000000000E+00
                       4.4168851319E+00  4.4168851319E+00  0.0000000000E+00
                       4.4168851319E+00  0.0000000000E+00  9.4541961022E+00
                       0.0000000000E+00  4.4168851319E+00  4.8752067590E+00
             xred      0.0000000000E+00  5.0000000000E-01  8.2667900000E-01
                       5.0000000000E-01  0.0000000000E+00  1.7332100000E-01
                       0.0000000000E+00  0.0000000000E+00  0.0000000000E+00
                       5.0000000000E-01  5.0000000000E-01  0.0000000000E+00
                       5.0000000000E-01  0.0000000000E+00  6.5977600000E-01
                       0.0000000000E+00  5.0000000000E-01  3.4022400000E-01
            znucl       56.00000    1.00000   53.00000

- Timing analysis has been suppressed with timopt=0

 Suggested references for the acknowledgment of ABINIT usage.

 Calculation completed.
.Delivered   6 WARNINGs and   5 COMMENTs to log file.