.Version 9.5.1 of ABINIT

 ABINIT is a project of the Universite Catholique de Louvain,
 Corning Inc. and other collaborators, see ~abinit/doc/developers/contributors.txt .
 acknowledgments of the ABINIT effort.

.Starting date : Wed 19 May 2021.
- ( at 01h43 )

- input  file    -> /scratch/users/j/a/jabreu/flow_simple_8atoms/flow/w468/t1/run.abi
- output file    -> /scratch/users/j/a/jabreu/flow_simple_8atoms/flow/w468/t1/run.abo
- root for input  files -> /scratch/users/j/a/jabreu/flow_simple_8atoms/flow/w468/t1/indata/in
- root for output files -> /scratch/users/j/a/jabreu/flow_simple_8atoms/flow/w468/t1/outdata/out

 Symmetries : space group R-3 (#148); Bravais hR (rhombohedral)
     intxc =       0      iscf =       7    lmnmax =      18     lnmax =       6
     mgfft =      64  mpssoang =       3    mqgrid =    3001     natom =       8
  nloc_mem =       1    nspden =       1   nspinor =       1    nsppol =       1
      nsym =       6    n1xccc =    2501    ntypat =       3    occopt =       1
   xclevel =       2
-    mband =          39        mffmem =           1         mkmem =           2
-   mkqmem =           2        mk1mem =           2           mpw =        9859
      nfft =      262144          nkpt =           2
  Rough estimation (10% accuracy) of disk space for files :

------------- Echo of variables that govern the present computation ------------
-
- outvars: echo of selected default values
-   iomode0 =  0 , fftalg0 =512 , wfoptalg0 =  0
-
- outvars: echo of global parameters not present in the input file
-  max_nthreads =    0
-
 -outvars: echo values of preprocessed input variables --------
            acell      1.0000000000E+00  1.0000000000E+00  1.0000000000E+00 Bohr
              amu      6.94100000E+00  2.08980370E+02  1.89984032E+01
             ecut      4.20000000E+01 Hartree
-          fftalg         512
           irdden           1
           irdwfk           1
           istwfk        0    1
              ixc     -116133
              kpt      1.59090909E-01  1.38777878E-17  6.93889390E-18
                       0.00000000E+00  0.00000000E+00  0.00000000E+00
           kptopt           0
P           mkmem           2
P          mkqmem           2
P          mk1mem           2
            natom           8
            nband          39
           nbdbuf           4
            ngfft          64      64      64
             nkpt           2
            nstep        2000
             nsym           6
           ntypat           3
              occ      2.000000  2.000000  2.000000  2.000000  2.000000  2.000000
                       2.000000  2.000000  2.000000  2.000000  2.000000  2.000000
                       2.000000  2.000000  2.000000  2.000000  2.000000  2.000000
                       2.000000  2.000000  2.000000  2.000000  2.000000  2.000000
                       2.000000  2.000000  2.000000  2.000000  2.000000  2.000000
                       0.000000  0.000000  0.000000  0.000000  0.000000  0.000000
                       0.000000  0.000000  0.000000
        optdriver           1
            prtwf          -1
            rfdir           1       1       1
           rfelfd           2
            rprim      8.7593834178E+00  0.0000000000E+00  5.8664050891E+00
                       3.1316231649E+00  8.1804482893E+00  5.8664050891E+00
                       0.0000000000E+00  0.0000000000E+00  1.0542367217E+01
          spgroup         148
           symrel      1  0  0   0  1  0   0  0  1      -1  0  0   0 -1  0   0  0 -1
                       0  0  1   1  0  0   0  1  0       0  0 -1  -1  0  0   0 -1  0
                       0  1  0   0  0  1   1  0  0       0 -1  0   0  0 -1  -1  0  0
           tolwfr      1.00000000E-20
            typat      1  2  3  3  3  3  3  3
           useylm           1
              wtk        0.50000    0.50000
           xangst      3.1462248354E+00  2.1644533954E+00  5.8937580973E+00
                       0.0000000000E+00  0.0000000000E+00  0.0000000000E+00
                       4.3500097148E+00  3.7918582854E+00  6.0524116810E+00
                       4.4737124328E+00  1.0801531513E+00  6.9822365450E+00
                       2.1928281606E+00  2.7068524295E+00  7.6024282644E+00
                       1.8187372379E+00  3.2487536394E+00  4.8052796497E+00
                       4.0996215102E+00  1.6220543612E+00  4.1850879303E+00
                       1.9424399559E+00  5.3704850537E-01  5.7351045136E+00
            xcart      5.9455032913E+00  4.0902241446E+00  1.1137588697E+01
                       0.0000000000E+00  0.0000000000E+00  0.0000000000E+00
                       8.2203270364E+00  7.1655736941E+00  1.1437400521E+01
                       8.4540912953E+00  2.0411936376E+00  1.3194514865E+01
                       4.1438446799E+00  5.1152097740E+00  1.4366507365E+01
                       3.4369152874E+00  6.1392546517E+00  9.0806625298E+00
                       7.7471619028E+00  3.0652385153E+00  7.9086700302E+00
                       3.6706795463E+00  1.0148745952E+00  1.0837776874E+01
             xred      5.0000000000E-01  5.0000000000E-01  5.0000000000E-01
                       0.0000000000E+00  0.0000000000E+00  0.0000000000E+00
                       6.2529700000E-01  8.7593900000E-01  2.4952100000E-01
                       8.7593900000E-01  2.4952100000E-01  6.2529700000E-01
                       2.4952100000E-01  6.2529700000E-01  8.7593900000E-01
                       1.2406100000E-01  7.5047900000E-01  3.7470300000E-01
                       7.5047900000E-01  3.7470300000E-01  1.2406100000E-01
                       3.7470300000E-01  1.2406100000E-01  7.5047900000E-01
            znucl        3.00000   83.00000    9.00000

 chkinp: Checking input parameters for consistency.

== DATASET  1 ==================================================================
-   mpi_nproc: 1, omp_nthreads: -1 (-1 if OMP is not activated)

--- !DatasetInfo
iteration_state: {dtset: 1, }
dimensions: {natom: 8, nkpt: 2, mband: 39, nsppol: 1, nspinor: 1, nspden: 1, mpw: 9859, }
cutoff_energies: {ecut:  42.0, pawecutdg:  -1.0, }
electrons: {nelect:   6.00000000E+01, charge:   0.00000000E+00, occopt:   1.00000000E+00, tsmear:   1.00000000E-02, }
meta: {optdriver: 1, rfelfd: 2, }
...

 Real(R)+Recip(G) space primitive vectors, cartesian coordinates (Bohr,Bohr^-1):
 R(1)=  8.7593834  0.0000000  5.8664051  G(1)=  0.1141633 -0.0437038  0.0000000
 R(2)=  3.1316232  8.1804483  5.8664051  G(2)=  0.0000000  0.1222427  0.0000000
 R(3)=  0.0000000  0.0000000 10.5423672  G(3)= -0.0635273 -0.0437038  0.0948554
 Unit cell volume ucvol=  7.5542052E+02 bohr^3
 Angles (23,13,12)=  5.61886688E+01  5.61886688E+01  5.61886688E+01 degrees

 getcut: wavevector=  0.0000  0.0000  0.0000  ngfft=  64  64  64
         ecut(hartree)=     42.000   => boxcut(ratio)=   2.08099

--- Pseudopotential description ------------------------------------------------
- pspini: atom type   1  psp file is /scratch/users/j/a/jabreu/pseudos/PBEsol/Li.psp8
- pspatm: opening atomic psp file    /scratch/users/j/a/jabreu/pseudos/PBEsol/Li.psp8
- Li    ONCVPSP-3.3.0  r_core=   1.40824   1.10935
-  3.00000   3.00000    180112                znucl, zion, pspdat
    8 -116133    1    4       400   0.00000   pspcod,pspxc,lmax,lloc,mmax,r2well
    3.99000000000000    0.00000000000000    0.00000000000000   rchrg,fchrg,qchrg
     nproj     2     2
     extension_switch     1
  pspatm : epsatm=    2.60859637
         --- l  ekb(1:nproj) -->
             0   -4.855856   -1.482423
             1   -2.171544   -0.427615
 pspatm: atomic psp has been read  and splines computed

- pspini: atom type   2  psp file is /scratch/users/j/a/jabreu/pseudos/PBEsol/Bi.psp8
- pspatm: opening atomic psp file    /scratch/users/j/a/jabreu/pseudos/PBEsol/Bi.psp8
- Bi    ONCVPSP-3.3.0  r_core=   2.42776   2.51622   2.10397
- 83.00000  15.00000    180112                znucl, zion, pspdat
    8 -116133    2    4       600   0.00000   pspcod,pspxc,lmax,lloc,mmax,r2well
    5.99000000000000    6.00000000000000    0.00000000000000   rchrg,fchrg,qchrg
     nproj     2     2     2
     extension_switch     1
  pspatm : epsatm=   42.90078186
         --- l  ekb(1:nproj) -->
             0    6.017688    0.961606
             1    4.379371    0.528498
             2   -3.458170   -0.753782
 pspatm: atomic psp has been read  and splines computed

- pspini: atom type   3  psp file is /scratch/users/j/a/jabreu/pseudos/PBEsol/F.psp8
- pspatm: opening atomic psp file    /scratch/users/j/a/jabreu/pseudos/PBEsol/F.psp8
- F     ONCVPSP-3.3.0  r_core=   1.30942   1.45782   1.60379
-  9.00000   7.00000    180112                znucl, zion, pspdat
    8 -116133    2    4       600   0.00000   pspcod,pspxc,lmax,lloc,mmax,r2well
    5.99000000000000    2.50000000000000    0.00000000000000   rchrg,fchrg,qchrg
     nproj     2     2     1
     extension_switch     1
  pspatm : epsatm=    4.89824824
         --- l  ekb(1:nproj) -->
             0    6.506434    1.065875
             1   -3.978753   -1.295852
             2   -2.394754
 pspatm: atomic psp has been read  and splines computed

   4.49393206E+03                                ecore*ucvol(ha*bohr**3)

-inwffil : will read wavefunctions from disk file /scratch/users/j/a/jabreu/flow_simple_8atoms/flow/w468/t1/indata/in_WFK

 ==>  initialize data related to q vector <==

 The list of irreducible perturbations for this q vector is:
    1)    idir= 1    ipert=   9
    2)    idir= 2    ipert=   9
    3)    idir= 3    ipert=   9

 Perturbation wavevector (in red.coord.)   0.000000  0.000000  0.000000
 Perturbation : derivative vs k along direction   1

 dfpt_looppert : COMMENT -
  In a d/dk calculation, iscf is set to -3 automatically.
 The set of symmetries contains only one element for this perturbation.
 symkpt : not enough symmetry to change the number of k points.

[...]

 Initialisation of the first-order wave-functions :
  ireadwf=   0

--- !BeginCycle
iteration_state: {dtset: 1, }
solver: {iscf: 7, nstep: 2000, nline: 4, wfoptalg: 0, }
tolerances: {tolwfr: 1.00E-20, }
...

     iter   2DEtotal(Ha)        deltaE(Ha) residm    vres2
-ETOT  1  -48.677821121226     -4.868E+01 5.516E-02 0.000E+00
 ETOT  2  -48.709946500532     -3.213E-02 7.859E-04 0.000E+00
 ETOT  3  -48.709995500728     -4.900E-05 1.533E-05 0.000E+00
 ETOT  4  -48.709995666997     -1.663E-07 3.821E-07 0.000E+00
 ETOT  5  -48.709995667759     -7.621E-10 1.482E-08 0.000E+00
 ETOT  6  -48.709995667763     -3.993E-12 3.742E-10 0.000E+00
 ETOT  7  -48.709995667763     -2.842E-14 1.594E-11 0.000E+00
 ETOT  8  -48.709995667763     -1.421E-14 4.313E-13 0.000E+00
 ETOT  9  -48.709995667763      0.000E+00 1.840E-14 0.000E+00
 ETOT 10  -48.709995667763      1.421E-14 5.248E-16 0.000E+00
 ETOT 11  -48.709995667763     -2.132E-14 2.219E-17 0.000E+00
 ETOT 12  -48.709995667763      2.132E-14 6.556E-19 0.000E+00
 ETOT 13  -48.709995667763     -1.421E-14 2.749E-20 0.000E+00
 ETOT 14  -48.709995667763     -2.132E-14 9.351E-21 0.000E+00

 At SCF step   14   max residual=  9.35E-21 < tolwfr=  1.00E-20 =>converged.

 ----iterations are completed or convergence reached----

 dfpt_looppert: DFPT cycle converged with prtwf=-1. Will skip output of the 1st-order WFK file.
 dfpt_looppert : ek2=    7.0792422717E+01
          f-sum rule ratio=    1.0217750705E+00
 prteigrs : about to open file /scratch/users/j/a/jabreu/flow_simple_8atoms/flow/w468/t1/tmpdata/tmp_1WF1_EIG
 Expectation of eigenvalue derivatives (hartree) for nkpt=   2  k points:
  (in case of degenerate eigenvalues, averaged derivative)
 kpt#   1, nband= 39, wtk=  0.50000, kpt=  0.1591  0.0000  0.0000 (reduced coord)
   0.00000   -0.00174   -0.00062    0.01420   -0.00002    0.00008    0.00010   -0.01351
   0.00284    0.00303   -0.00549   -0.00361    0.00524   -0.00410    0.03964    0.01106
   0.02464   -0.01165    0.03815   -0.04147   -0.04194    0.02718   -0.04145   -0.02194
   0.00290   -0.01409   -0.00771   -0.00035   -0.00743   -0.00033    0.05208   -0.10139
   0.03519    0.00177    0.19388   -0.06244   -0.09861    0.00974   -0.07139
 prteigrs : prtvol=0 or 1, do not print more k-points.

 Eight components of 2nd-order total energy (hartree) are
 1,2,3: 0th-order hamiltonian combined with 1st-order wavefunctions
     kin0=   5.94800583E+01 eigvalue=   7.13105214E+00  local=  -2.71052799E+01
 4,5,6: 1st-order hamiltonian combined with 1st and 0th-order wfs
     kin1=  -7.23339327E+01  Hartree=   0.00000000E+00     xc=   0.00000000E+00
 7,8,9: eventually, occupation + non-local contributions
    edocc=   6.78116028E+00     enl0=   2.42300486E+00   enl1=  -2.50860586E+01
 1-9 gives the relaxation energy (to be shifted if some occ is /=2.0)
   erelax=  -4.87099957E+01
  No Ewald or frozen-wf contrib.: the relaxation energy is the total one
 2DEtotal=   -0.4870999567E+02 Ha. Also 2DEtotal=   -0.132546638993E+04 eV
    (  non-var. 2DEtotal :   -4.8709995668E+01 Ha)

 Perturbation wavevector (in red.coord.)   0.000000  0.000000  0.000000
 Perturbation : derivative vs k along direction   2
 The set of symmetries contains only one element for this perturbation.
 symkpt : not enough symmetry to change the number of k points.

[...]

 Perturbation wavevector (in red.coord.)   0.000000  0.000000  0.000000
 Perturbation : derivative vs k along direction   3
 The set of symmetries contains only one element for this perturbation.
 symkpt : not enough symmetry to change the number of k points.

-inwffil : will read wavefunctions from disk file /scratch/users/j/a/jabreu/flow_simple_8atoms/flow/w468/t1/indata/in_WFK

 Initialisation of the first-order wave-functions :
  ireadwf=   0

--- !BeginCycle
iteration_state: {dtset: 1, }
solver: {iscf: 7, nstep: 2000, nline: 4, wfoptalg: 0, }
tolerances: {tolwfr: 1.00E-20, }
...

     iter   2DEtotal(Ha)        deltaE(Ha) residm    vres2
-ETOT  1  -48.853113483698     -4.885E+01 5.304E-02 0.000E+00
 ETOT  2  -48.888876052019     -3.576E-02 7.686E-04 0.000E+00
 ETOT  3  -48.888933845299     -5.779E-05 1.055E-05 0.000E+00
 ETOT  4  -48.888934047086     -2.018E-07 2.907E-07 0.000E+00
 ETOT  5  -48.888934048018     -9.320E-10 4.879E-09 0.000E+00
 ETOT  6  -48.888934048023     -4.910E-12 2.530E-10 0.000E+00
 ETOT  7  -48.888934048023      0.000E+00 4.585E-12 0.000E+00
 ETOT  8  -48.888934048023     -1.421E-14 2.487E-13 0.000E+00
 ETOT  9  -48.888934048023     -7.105E-15 4.472E-15 0.000E+00
 ETOT 10  -48.888934048023      0.000E+00 2.555E-16 0.000E+00
 ETOT 11  -48.888934048023     -1.421E-14 4.463E-18 0.000E+00
 ETOT 12  -48.888934048023      1.421E-14 2.682E-19 0.000E+00
 ETOT 13  -48.888934048023      0.000E+00 9.846E-21 0.000E+00

 At SCF step   13   max residual=  9.85E-21 < tolwfr=  1.00E-20 =>converged.

 ----iterations are completed or convergence reached----

 dfpt_looppert: DFPT cycle converged with prtwf=-1. Will skip output of the 1st-order WFK file.
 dfpt_looppert : ek2=    7.0792422716E+01
          f-sum rule ratio=    1.0284198952E+00
 prteigrs : about to open file /scratch/users/j/a/jabreu/flow_simple_8atoms/flow/w468/t1/tmpdata/tmp_1WF1_EIG
 Expectation of eigenvalue derivatives (hartree) for nkpt=   2  k points:
  (in case of degenerate eigenvalues, averaged derivative)
 kpt#   1, nband= 39, wtk=  0.50000, kpt=  0.1591  0.0000  0.0000 (reduced coord)
  -0.00000   -0.00045    0.00137   -0.00513    0.00001   -0.00002   -0.00005    0.00437
  -0.00456    0.00278   -0.00182    0.00507   -0.00052    0.00431   -0.01137   -0.00685
  -0.01399    0.01414   -0.01636    0.03589   -0.01788   -0.00343    0.01988   -0.00368
   0.00100    0.01162   -0.00499    0.00133   -0.00240    0.00404   -0.01651    0.01814
  -0.01692    0.03562   -0.08200    0.02474    0.03965    0.01722    0.01351
 prteigrs : prtvol=0 or 1, do not print more k-points.

 Eight components of 2nd-order total energy (hartree) are
 1,2,3: 0th-order hamiltonian combined with 1st-order wavefunctions
     kin0=   5.96990408E+01 eigvalue=   7.12597820E+00  local=  -2.72776353E+01
 4,5,6: 1st-order hamiltonian combined with 1st and 0th-order wfs
     kin1=  -7.28043360E+01  Hartree=   0.00000000E+00     xc=   0.00000000E+00
 7,8,9: eventually, occupation + non-local contributions
    edocc=   6.89112935E+00     enl0=   2.45042107E+00   enl1=  -2.49735321E+01
 1-9 gives the relaxation energy (to be shifted if some occ is /=2.0)
   erelax=  -4.88889340E+01
  No Ewald or frozen-wf contrib.: the relaxation energy is the total one
 2DEtotal=   -0.4888893405E+02 Ha. Also 2DEtotal=   -0.133033555089E+04 eV
    (  non-var. 2DEtotal :   -4.8888934048E+01 Ha)

 CALCULATION OF EFFECTIVE MASSES
 NOTE : Additional infos (eff. mass eigenvalues, eigenvectors and, if degenerate, average mass) are available in stdout.

 K-point ( 0.159, 0.000, 0.000) | band =    30
 Effective mass tensor:
             -8.1108926578              4.4052601011             -0.0086917379
              4.4052601011            -27.9191189613             12.1098157083
             -0.0086917379             12.1098157083            -15.8650803511
 Effective mass tensor eigenvalues:
            -35.9278617903            -10.3058061220             -5.6614240578
 Angular average effective mass 1/(<1/m>)=  -9.9502409346
 Angular average effective mass for Frohlich model (<m**0.5>)**2= -11.4171390804
 Effective masses along directions: (cart. coord. / red. coord. -> eff. mass)
    1:   1.000000  0.000000  0.000000 /   0.941630  0.336648  0.000000 ->  -7.0748939885
    2:   0.000000  1.000000  0.000000 /   0.000000  1.000000  0.000000 -> -16.2902725556
    3:   0.000000  0.000000  1.000000 /   0.437291  0.437291  0.785845 -> -10.1246305789
    4:   0.577350  0.577350  0.577350 /   0.587312  0.689818  0.423339 ->  -5.8545322689
    5:   0.000000  0.707107  0.707107 /   0.316816  0.758602  0.569342 ->  -7.8792504144
    6:   0.707107  0.000000  0.707107 /   0.725848  0.446554  0.523196 ->  -6.8780448725
    7:   0.707107  0.707107  0.000000 /   0.612245  0.790668  0.000000 ->  -7.4263255053

 K-point ( 0.000, 0.000, 0.000) | band =    31
 Effective mass tensor:
              1.3232825305             -0.0350437982             -0.0950519094
             -0.0350437982              1.3501835505             -0.0654607052
             -0.0950519094             -0.0654607052              1.1958151144
 Effective mass tensor eigenvalues:
              1.1210467788              1.3739540441              1.3742803725
 Angular average effective mass 1/(<1/m>)=   1.2779534350
 Angular average effective mass for Frohlich model (<m**0.5>)**2=   1.2816076190
 Effective masses along directions: (cart. coord. / red. coord. -> eff. mass)
    1:   1.000000  0.000000  0.000000 /   0.941630  0.336648  0.000000 ->   1.3145242255
    2:   0.000000  1.000000  0.000000 /   0.000000  1.000000  0.000000 ->   1.3453690065
    3:   0.000000  0.000000  1.000000 /   0.437291  0.437291  0.785845 ->   1.1855626486
    4:   0.577350  0.577350  0.577350 /   0.587312  0.689818  0.423339 ->   1.1532274198
    5:   0.000000  0.707107  0.707107 /   0.316816  0.758602  0.569342 ->   1.1963410571
    6:   0.707107  0.000000  0.707107 /   0.725848  0.446554  0.523196 ->   1.1576493338
    7:   0.707107  0.707107  0.000000 /   0.612245  0.790668  0.000000 ->   1.2907427966

 END OF EFFECTIVE MASSES SECTION

 ---- first-order wavefunction calculations are completed ----

 Total localisation tensor (bohr^2) in cartesian coordinates
  WARNING : still subject to testing - especially symmetries.
      direction              matrix element
   alpha     beta       real part   imaginary part
     1        1       0.7370805241    0.0000000000
     1        2       0.2234048538    0.0000000000
     1        3       0.5965753363    0.0000000000
     2        1       0.2234048538    0.0000000000
     2        2       0.5835797469    0.0000000000
     2        3       0.4184997052    0.0000000000
     3        1       0.5965753363    0.0000000000
     3        2       0.4184997052    0.0000000000
     3        3       1.5608036716    0.0000000000

 respfn : d/dk was computed, but no 2DTE, so no DDB output.

== END DATASET(S) ==============================================================

 -outvars: echo values of variables after computation  --------
            acell      1.0000000000E+00  1.0000000000E+00  1.0000000000E+00 Bohr
              amu      6.94100000E+00  2.08980370E+02  1.89984032E+01
             ecut      4.20000000E+01 Hartree
           etotal     -4.8888934048E+01
            fcart      0.0000000000E+00  0.0000000000E+00  0.0000000000E+00
                       0.0000000000E+00  0.0000000000E+00  0.0000000000E+00
                       0.0000000000E+00  0.0000000000E+00  0.0000000000E+00
                       0.0000000000E+00  0.0000000000E+00  0.0000000000E+00
                       0.0000000000E+00  0.0000000000E+00  0.0000000000E+00
                       0.0000000000E+00  0.0000000000E+00  0.0000000000E+00
                       0.0000000000E+00  0.0000000000E+00  0.0000000000E+00
                       0.0000000000E+00  0.0000000000E+00  0.0000000000E+00
-          fftalg         512
           irdden           1
           irdwfk           1
           istwfk        0    1
              ixc     -116133
              kpt      1.59090909E-01  1.38777878E-17  6.93889390E-18
                       0.00000000E+00  0.00000000E+00  0.00000000E+00
           kptopt           0
P           mkmem           2
P          mkqmem           2
P          mk1mem           2
            natom           8
            nband          39
           nbdbuf           4
            ngfft          64      64      64
             nkpt           2
            nstep        2000
             nsym           6
           ntypat           3
              occ      2.000000  2.000000  2.000000  2.000000  2.000000  2.000000
                       2.000000  2.000000  2.000000  2.000000  2.000000  2.000000
                       2.000000  2.000000  2.000000  2.000000  2.000000  2.000000
                       2.000000  2.000000  2.000000  2.000000  2.000000  2.000000
                       2.000000  2.000000  2.000000  2.000000  2.000000  2.000000
                       0.000000  0.000000  0.000000  0.000000  0.000000  0.000000
                       0.000000  0.000000  0.000000
        optdriver           1
            prtwf          -1
            rfdir           1       1       1
           rfelfd           2
            rprim      8.7593834178E+00  0.0000000000E+00  5.8664050891E+00
                       3.1316231649E+00  8.1804482893E+00  5.8664050891E+00
                       0.0000000000E+00  0.0000000000E+00  1.0542367217E+01
          spgroup         148
           strten      0.0000000000E+00  0.0000000000E+00  0.0000000000E+00
                       0.0000000000E+00  0.0000000000E+00  0.0000000000E+00
           symrel      1  0  0   0  1  0   0  0  1      -1  0  0   0 -1  0   0  0 -1
                       0  0  1   1  0  0   0  1  0       0  0 -1  -1  0  0   0 -1  0
                       0  1  0   0  0  1   1  0  0       0 -1  0   0  0 -1  -1  0  0
           tolwfr      1.00000000E-20
            typat      1  2  3  3  3  3  3  3
           useylm           1
              wtk        0.50000    0.50000
           xangst      3.1462248354E+00  2.1644533954E+00  5.8937580973E+00
                       0.0000000000E+00  0.0000000000E+00  0.0000000000E+00
                       4.3500097148E+00  3.7918582854E+00  6.0524116810E+00
                       4.4737124328E+00  1.0801531513E+00  6.9822365450E+00
                       2.1928281606E+00  2.7068524295E+00  7.6024282644E+00
                       1.8187372379E+00  3.2487536394E+00  4.8052796497E+00
                       4.0996215102E+00  1.6220543612E+00  4.1850879303E+00
                       1.9424399559E+00  5.3704850537E-01  5.7351045136E+00
            xcart      5.9455032913E+00  4.0902241446E+00  1.1137588697E+01
                       0.0000000000E+00  0.0000000000E+00  0.0000000000E+00
                       8.2203270364E+00  7.1655736941E+00  1.1437400521E+01
                       8.4540912953E+00  2.0411936376E+00  1.3194514865E+01
                       4.1438446799E+00  5.1152097740E+00  1.4366507365E+01
                       3.4369152874E+00  6.1392546517E+00  9.0806625298E+00
                       7.7471619028E+00  3.0652385153E+00  7.9086700302E+00
                       3.6706795463E+00  1.0148745952E+00  1.0837776874E+01
             xred      5.0000000000E-01  5.0000000000E-01  5.0000000000E-01
                       0.0000000000E+00  0.0000000000E+00  0.0000000000E+00
                       6.2529700000E-01  8.7593900000E-01  2.4952100000E-01
                       8.7593900000E-01  2.4952100000E-01  6.2529700000E-01
                       2.4952100000E-01  6.2529700000E-01  8.7593900000E-01
                       1.2406100000E-01  7.5047900000E-01  3.7470300000E-01
                       7.5047900000E-01  3.7470300000E-01  1.2406100000E-01
                       3.7470300000E-01  1.2406100000E-01  7.5047900000E-01
            znucl        3.00000   83.00000    9.00000

- Timing analysis has been suppressed with timopt=0

 Suggested references for the acknowledgment of ABINIT usage.

 Calculation completed.
.Delivered  14 WARNINGs and   9 COMMENTs to log file.