.Version 9.5.2 of ABINIT

 ABINIT is a project of the Universite Catholique de Louvain,
 Corning Inc. and other collaborators, see ~abinit/doc/developers/contributors.txt .
 acknowledgments of the ABINIT effort.

.Starting date : Mon 24 May 2021.
- ( at 18h26 )

- input  file    -> /scratch/users/j/a/jabreu/flow_simple_10atoms/flow/w413/t1/run.abi
- output file    -> /scratch/users/j/a/jabreu/flow_simple_10atoms/flow/w413/t1/run.abo
- root for input  files -> /scratch/users/j/a/jabreu/flow_simple_10atoms/flow/w413/t1/indata/in
- root for output files -> /scratch/users/j/a/jabreu/flow_simple_10atoms/flow/w413/t1/outdata/out

 Symmetries : space group C2/m (# 12); Bravais mC (1-face-center monocl.)
     intxc =       0      iscf =       7    lmnmax =      18     lnmax =       6
     mgfft =     108  mpssoang =       3    mqgrid =    4519     natom =      10
  nloc_mem =       1    nspden =       1   nspinor =       1    nsppol =       1
      nsym =       4    n1xccc =    2501    ntypat =       2    occopt =       1
   xclevel =       2
-    mband =          52        mffmem =           1         mkmem =           2
-   mkqmem =           2        mk1mem =           2           mpw =       17620
      nfft =      691200          nkpt =           2
  Rough estimation (10% accuracy) of disk space for files :

------------- Echo of variables that govern the present computation ------------
-
- outvars: echo of selected default values
-   iomode0 =  0 , fftalg0 =512 , wfoptalg0 =  0
-
- outvars: echo of global parameters not present in the input file
-  max_nthreads =    0
-
 -outvars: echo values of preprocessed input variables --------
            acell      1.0000000000E+00  1.0000000000E+00  1.0000000000E+00 Bohr
              amu      8.89058500E+01  3.54527000E+01
             ecut      3.60000000E+01 Hartree
-          fftalg         512
           irdden           1
           irdwfk           1
              ixc     -116133
              kpt      1.77193998E-01 -1.77193998E-01  5.00000000E-01
                       7.09374042E-01  2.90625958E-01  0.00000000E+00
           kptopt           0
P           mkmem           2
P          mkqmem           2
P          mk1mem           2
            natom          10
            nband          52
           nbdbuf           4
            ngfft          80      80     108
             nkpt           2
            nstep        2000
             nsym           4
           ntypat           2
              occ      2.000000  2.000000  2.000000  2.000000  2.000000  2.000000
                       2.000000  2.000000  2.000000  2.000000  2.000000  2.000000
                       2.000000  2.000000  2.000000  2.000000  2.000000  2.000000
                       2.000000  2.000000  2.000000  2.000000  2.000000  2.000000
                       2.000000  2.000000  2.000000  2.000000  2.000000  2.000000
                       2.000000  2.000000  2.000000  2.000000  2.000000  2.000000
                       2.000000  2.000000  2.000000  2.000000  2.000000  2.000000
                       2.000000  0.000000  0.000000  0.000000  0.000000  0.000000
                       0.000000  0.000000  0.000000  0.000000
        optdriver           1
            prtwf          -1
            rfdir           1       1       1
           rfelfd           2
            rprim      1.2989396604E+01  0.0000000000E+00  6.7833125071E+00
                       1.1004118208E+01  6.9017249012E+00  6.7833125071E+00
                       0.0000000000E+00  0.0000000000E+00  1.9040597559E+01
          spgroup          12
           symrel      1  0  0   0  1  0   0  0  1      -1  0  0   0 -1  0   0  0 -1
                       0 -1  0  -1  0  0   0  0 -1       0  1  0   1  0  0   0  0  1
           tolwfr      1.00000000E-20
            typat      1  1  1  1  2  2  2  2  2  2
           useylm           1
              wtk        0.50000    0.50000
           xangst      1.7629790163E+00  5.0712020610E-01  8.1278710509E+00
                       1.0933842176E+01  3.1451153116E+00  9.1271279700E+00
                       5.2130608453E+00  1.4995348588E+00  1.2518262029E+01
                       7.4837603474E+00  2.1527006588E+00  4.7367369915E+00
                       1.2100883193E+01  3.4808141914E+00  1.4254336339E+01
                       5.9593799950E-01  1.7142132626E-01  3.0006626815E+00
                       9.7705340252E+00  2.8104901890E+00  6.7228121177E+00
                       2.9262871676E+00  8.4174532870E-01  1.0532186903E+01
                       4.3444332171E+00  1.2496744704E+00  7.5647425116E+00
                       8.3523879757E+00  2.4025610473E+00  9.6902565094E+00
            xcart      3.3315475187E+00  9.5831830598E-01  1.5359450330E+01
                       2.0661967294E+01  5.9434065952E+00  1.7247772243E+01
                       9.8512573117E+00  2.8337102099E+00  2.3656086895E+01
                       1.4142257501E+01  4.0680146913E+00  8.9511356775E+00
                       2.2867355201E+01  6.5777855412E+00  2.6936791888E+01
                       1.1261596112E+00  3.2393935996E-01  5.6704306852E+00
                       1.8463633480E+01  5.3110567563E+00  1.2704273745E+01
                       5.5298813329E+00  1.5906681449E+00  1.9902948827E+01
                       8.2097889828E+00  2.3615425043E+00  1.4295291613E+01
                       1.5783725830E+01  4.5401823969E+00  1.8311930960E+01
             xred      1.3885200000E-01  1.3885200000E-01  7.0773500000E-01
                       8.6114800000E-01  8.6114800000E-01  2.9226500000E-01
                       4.1058000000E-01  4.1058000000E-01  9.4986000000E-01
                       5.8942000000E-01  5.8942000000E-01  5.0140000000E-02
                       9.5306400000E-01  9.5306400000E-01  7.3563500000E-01
                       4.6936000000E-02  4.6936000000E-02  2.6436500000E-01
                       7.6952600000E-01  7.6952600000E-01  1.1892500000E-01
                       2.3047400000E-01  2.3047400000E-01  8.8107500000E-01
                       3.4216700000E-01  3.4216700000E-01  5.0698200000E-01
                       6.5783300000E-01  6.5783300000E-01  4.9301800000E-01
            znucl       39.00000   17.00000

 chkinp: Checking input parameters for consistency.

== DATASET  1 ==================================================================
-   mpi_nproc: 1, omp_nthreads: -1 (-1 if OMP is not activated)

--- !DatasetInfo
iteration_state: {dtset: 1, }
dimensions: {natom: 10, nkpt: 2, mband: 52, nsppol: 1, nspinor: 1, nspden: 1, mpw: 17620, }
cutoff_energies: {ecut:  36.0, pawecutdg:  -1.0, }
electrons: {nelect:   8.60000000E+01, charge:   0.00000000E+00, occopt:   1.00000000E+00, tsmear:   1.00000000E-02, }
meta: {optdriver: 1, rfelfd: 2, }
...

 Real(R)+Recip(G) space primitive vectors, cartesian coordinates (Bohr,Bohr^-1):
 R(1)= 12.9893966  0.0000000  6.7833125  G(1)=  0.0769859 -0.1227464  0.0000000
 R(2)= 11.0041182  6.9017249  6.7833125  G(2)=  0.0000000  0.1448913  0.0000000
 R(3)=  0.0000000  0.0000000 19.0405976  G(3)= -0.0274266 -0.0078893  0.0525194
 Unit cell volume ucvol=  1.7069751E+03 bohr^3
 Angles (23,13,12)=  6.24255714E+01  6.24255714E+01  2.83683294E+01 degrees

 getcut: wavevector=  0.0000  0.0000  0.0000  ngfft=  80  80 108
         ecut(hartree)=     36.000   => boxcut(ratio)=   2.02136

--- Pseudopotential description ------------------------------------------------
- pspini: atom type   1  psp file is /scratch/users/j/a/jabreu/pseudos/PBEsol/Y.psp8
- pspatm: opening atomic psp file    /scratch/users/j/a/jabreu/pseudos/PBEsol/Y.psp8
- Y     ONCVPSP-3.3.0  r_core=   1.60520   1.51226   1.56736
- 39.00000  11.00000    180112                znucl, zion, pspdat
    8 -116133    2    4       600   0.00000   pspcod,pspxc,lmax,lloc,mmax,r2well
    5.99000000000000    4.00000000000000    0.00000000000000   rchrg,fchrg,qchrg
     nproj     2     2     2
     extension_switch     1
  pspatm : epsatm=   18.54790046
         --- l  ekb(1:nproj) -->
             0   10.130768    0.866504
             1    5.598307    0.427135
             2    1.217602    0.315447
 pspatm: atomic psp has been read  and splines computed

- pspini: atom type   2  psp file is /scratch/users/j/a/jabreu/pseudos/PBEsol/Cl.psp8
- pspatm: opening atomic psp file    /scratch/users/j/a/jabreu/pseudos/PBEsol/Cl.psp8
- Cl    ONCVPSP-3.3.0  r_core=   1.56009   1.35202   1.75774
- 17.00000   7.00000    180112                znucl, zion, pspdat
    8 -116133    2    4       600   0.00000   pspcod,pspxc,lmax,lloc,mmax,r2well
    5.99000000000000    8.00000000000000    0.00000000000000   rchrg,fchrg,qchrg
     nproj     2     2     2
     extension_switch     1
  pspatm : epsatm=    8.95520722
         --- l  ekb(1:nproj) -->
             0    8.193503    0.707970
             1    3.869736    1.114731
             2   -2.915303   -0.810552
 pspatm: atomic psp has been read  and splines computed

   1.10013647E+04                                ecore*ucvol(ha*bohr**3)

 ==>  initialize data related to q vector <==

 The list of irreducible perturbations for this q vector is:
    1)    idir= 1    ipert=  11
    2)    idir= 2    ipert=  11
    3)    idir= 3    ipert=  11

 Perturbation wavevector (in red.coord.)   0.000000  0.000000  0.000000
 Perturbation : derivative vs k along direction   1

 dfpt_looppert : COMMENT -
  In a d/dk calculation, iscf is set to -3 automatically.
 The set of symmetries contains only one element for this perturbation.
 symkpt : not enough symmetry to change the number of k points.

 Initialisation of the first-order wave-functions :
  ireadwf=   0

--- !BeginCycle
iteration_state: {dtset: 1, }
solver: {iscf: 7, nstep: 2000, nline: 4, wfoptalg: 0, }
tolerances: {tolwfr: 1.00E-20, }
...

     iter   2DEtotal(Ha)        deltaE(Ha) residm    vres2
-ETOT  1  -64.954531297230     -6.495E+01 1.040E-01 0.000E+00
 ETOT  2  -65.205076093967     -2.505E-01 2.879E-02 0.000E+00
 ETOT  3  -65.210719529890     -5.643E-03 1.898E-03 0.000E+00
 ETOT  4  -65.210946895929     -2.274E-04 6.802E-04 0.000E+00
 ETOT  5  -65.210958086637     -1.119E-05 7.167E-05 0.000E+00
 ETOT  6  -65.210958674369     -5.877E-07 2.747E-05 0.000E+00
 ETOT  7  -65.210958706507     -3.214E-08 3.155E-06 0.000E+00
 ETOT  8  -65.210958708305     -1.798E-09 1.291E-06 0.000E+00
 ETOT  9  -65.210958708408     -1.027E-10 1.507E-07 0.000E+00
 ETOT 10  -65.210958708414     -6.196E-12 6.487E-08 0.000E+00
 ETOT 11  -65.210958708414     -3.126E-13 7.673E-09 0.000E+00
 ETOT 12  -65.210958708414      7.105E-14 3.406E-09 0.000E+00
 ETOT 13  -65.210958708414     -5.684E-14 4.083E-10 0.000E+00
 ETOT 14  -65.210958708414     -1.137E-13 2.119E-10 0.000E+00
 ETOT 15  -65.210958708414      2.274E-13 2.478E-11 0.000E+00
 ETOT 16  -65.210958708414     -4.263E-14 1.530E-11 0.000E+00
 ETOT 17  -65.210958708414     -2.842E-14 1.795E-12 0.000E+00
 ETOT 18  -65.210958708414      0.000E+00 1.116E-12 0.000E+00
 ETOT 19  -65.210958708414      0.000E+00 1.311E-13 0.000E+00
 ETOT 20  -65.210958708414      1.421E-14 8.192E-14 0.000E+00
 ETOT 21  -65.210958708414      0.000E+00 9.618E-15 0.000E+00
[...]
 ETOT 26  -65.210958708414      0.000E+00 3.286E-17 0.000E+00
 ETOT 27  -65.210958708414      0.000E+00 3.848E-18 0.000E+00
 ETOT 28  -65.210958708414      0.000E+00 2.431E-18 0.000E+00
 ETOT 29  -65.210958708414      0.000E+00 2.844E-19 0.000E+00
 ETOT 30  -65.210958708414      0.000E+00 1.800E-19 0.000E+00
 ETOT 31  -65.210958708414     -1.421E-14 2.105E-20 0.000E+00
 ETOT 32  -65.210958708414      4.263E-14 1.335E-20 0.000E+00
 ETOT 33  -65.210958708414      0.000E+00 9.961E-21 0.000E+00

 At SCF step   33   max residual=  9.96E-21 < tolwfr=  1.00E-20 =>converged.

 ----iterations are completed or convergence reached----

 dfpt_looppert: DFPT cycle converged with prtwf=-1. Will skip output of the 1st-order WFK file.
 dfpt_looppert : ek2=    1.4255186203E+02
          f-sum rule ratio=    9.5046783482E-01
 prteigrs : about to open file /scratch/users/j/a/jabreu/flow_simple_10atoms/flow/w413/t1/tmpdata/tmp_1WF1_EIG
 Expectation of eigenvalue derivatives (hartree) for nkpt=   2  k points:
  (in case of degenerate eigenvalues, averaged derivative)
 kpt#   1, nband= 52, wtk=  0.50000, kpt=  0.1772 -0.1772  0.5000 (reduced coord)
   0.00110    0.00095    0.00109    0.00112   -0.00594    0.00757   -0.02112   -0.01468
   0.01288   -0.01574   -0.01721    0.00159   -0.00161    0.00112   -0.00063    0.00135
   0.03379   -0.00477    0.02105   -0.00008    0.00647   -0.00204   -0.00033   -0.07635
   0.02193   -0.05983   -0.06092    0.05989   -0.00578   -0.09565   -0.04534    0.01631
  -0.00874    0.00149   -0.04225    0.02752   -0.03380    0.02329   -0.01255   -0.05710
   0.04410    0.02242    0.00228   -0.06910   -0.05278   -0.00180    0.04472    0.01972
   0.28631    0.11671    0.12993    0.00862
 prteigrs : prtvol=0 or 1, do not print more k-points.

 Eight components of 2nd-order total energy (hartree) are
 1,2,3: 0th-order hamiltonian combined with 1st-order wavefunctions
     kin0=   1.22754998E+02 eigvalue=   2.09723312E+00  local=  -8.47503854E+01
 4,5,6: 1st-order hamiltonian combined with 1st and 0th-order wfs
     kin1=  -1.35490960E+02  Hartree=   0.00000000E+00     xc=   0.00000000E+00
 7,8,9: eventually, occupation + non-local contributions
    edocc=   1.21490963E+01     enl0=   1.29600165E+01   enl1=   5.06904223E+00
 1-9 gives the relaxation energy (to be shifted if some occ is /=2.0)
   erelax=  -6.52109587E+01
  No Ewald or frozen-wf contrib.: the relaxation energy is the total one
 2DEtotal=   -0.6521095871E+02 Ha. Also 2DEtotal=   -0.177448042929E+04 eV
    (  non-var. 2DEtotal :   -6.5210958708E+01 Ha)

 Perturbation wavevector (in red.coord.)   0.000000  0.000000  0.000000
 Perturbation : derivative vs k along direction   2
 The set of symmetries contains only one element for this perturbation.
 symkpt : not enough symmetry to change the number of k points.

[...]

 Perturbation wavevector (in red.coord.)   0.000000  0.000000  0.000000
 Perturbation : derivative vs k along direction   3
 The set of symmetries contains only one element for this perturbation.
 symkpt : not enough symmetry to change the number of k points.

 Initialisation of the first-order wave-functions :
  ireadwf=   0

--- !BeginCycle
iteration_state: {dtset: 1, }
solver: {iscf: 7, nstep: 2000, nline: 4, wfoptalg: 0, }
tolerances: {tolwfr: 1.00E-20, }
...

     iter   2DEtotal(Ha)        deltaE(Ha) residm    vres2
-ETOT  1  -11.586123089069     -1.159E+01 2.313E-02 0.000E+00
 ETOT  2  -11.632333287508     -4.621E-02 5.444E-03 0.000E+00
 ETOT  3  -11.633421460360     -1.088E-03 3.242E-04 0.000E+00
 ETOT  4  -11.633468769947     -4.731E-05 1.476E-04 0.000E+00
 ETOT  5  -11.633471284428     -2.514E-06 1.345E-05 0.000E+00
 ETOT  6  -11.633471429464     -1.450E-07 6.708E-06 0.000E+00
 ETOT  7  -11.633471438206     -8.741E-09 7.262E-07 0.000E+00
 ETOT  8  -11.633471438751     -5.456E-10 3.957E-07 0.000E+00
 ETOT  9  -11.633471438786     -3.490E-11 4.298E-08 0.000E+00
 ETOT 10  -11.633471438789     -2.304E-12 2.482E-08 0.000E+00
 ETOT 11  -11.633471438789     -1.723E-13 2.703E-09 0.000E+00
 ETOT 12  -11.633471438789     -1.776E-15 1.608E-09 0.000E+00
 ETOT 13  -11.633471438789      1.776E-15 1.765E-10 0.000E+00
 ETOT 14  -11.633471438789     -1.243E-14 1.062E-10 0.000E+00
 ETOT 15  -11.633471438789      1.066E-14 1.178E-11 0.000E+00
 ETOT 16  -11.633471438789     -3.553E-15 7.110E-12 0.000E+00
 ETOT 17  -11.633471438789      5.329E-15 7.964E-13 0.000E+00
 ETOT 18  -11.633471438789     -1.776E-15 4.797E-13 0.000E+00
 ETOT 19  -11.633471438789      3.553E-15 5.426E-14 0.000E+00
 ETOT 20  -11.633471438789      0.000E+00 3.257E-14 0.000E+00
 ETOT 21  -11.633471438789      0.000E+00 3.716E-15 0.000E+00
 ETOT 22  -11.633471438789      0.000E+00 2.221E-15 0.000E+00
 ETOT 23  -11.633471438789      3.553E-15 2.555E-16 0.000E+00
 ETOT 24  -11.633471438789     -3.553E-15 1.521E-16 0.000E+00
 ETOT 25  -11.633471438789      0.000E+00 1.762E-17 0.000E+00
 ETOT 26  -11.633471438789      0.000E+00 1.045E-17 0.000E+00
 ETOT 27  -11.633471438789     -5.329E-15 1.219E-18 0.000E+00
 ETOT 28  -11.633471438789      0.000E+00 7.200E-19 0.000E+00
 ETOT 29  -11.633471438789      0.000E+00 8.449E-20 0.000E+00
 ETOT 30  -11.633471438789      8.882E-15 4.975E-20 0.000E+00
 ETOT 31  -11.633471438789      3.553E-15 9.899E-21 0.000E+00

 At SCF step   31   max residual=  9.90E-21 < tolwfr=  1.00E-20 =>converged.

 ----iterations are completed or convergence reached----

 dfpt_looppert: DFPT cycle converged with prtwf=-1. Will skip output of the 1st-order WFK file.
 dfpt_looppert : ek2=    2.4259953162E+01
          f-sum rule ratio=    9.9872990555E-01
 prteigrs : about to open file /scratch/users/j/a/jabreu/flow_simple_10atoms/flow/w413/t1/tmpdata/tmp_1WF1_EIG
 Expectation of eigenvalue derivatives (hartree) for nkpt=   2  k points:
  (in case of degenerate eigenvalues, averaged derivative)
 kpt#   1, nband= 52, wtk=  0.50000, kpt=  0.1772 -0.1772  0.5000 (reduced coord)
   0.00000    0.00000    0.00000   -0.00000    0.00000   -0.00000   -0.00000    0.00000
   0.00000   -0.00000    0.00000   -0.00000   -0.00000   -0.00000    0.00000    0.00000
  -0.00000    0.00000    0.00000    0.00000    0.00000   -0.00000    0.00000   -0.00000
  -0.00000   -0.00000   -0.00000    0.00000    0.00000   -0.00000   -0.00000   -0.00000
  -0.00000    0.00000    0.00000    0.00000    0.00000   -0.00000   -0.00000    0.00000
  -0.00000   -0.00000    0.00000   -0.00000    0.00000   -0.00000    0.00000   -0.00000
  -0.00000    0.00001    0.00000    0.00163
 prteigrs : prtvol=0 or 1, do not print more k-points.

 Eight components of 2nd-order total energy (hartree) are
 1,2,3: 0th-order hamiltonian combined with 1st-order wavefunctions
     kin0=   2.22514195E+01 eigvalue=   2.96670440E-02  local=  -1.53899108E+01
 4,5,6: 1st-order hamiltonian combined with 1st and 0th-order wfs
     kin1=  -2.42291407E+01  Hartree=   0.00000000E+00     xc=   0.00000000E+00
 7,8,9: eventually, occupation + non-local contributions
    edocc=   2.46123656E+00     enl0=   2.28105910E+00   enl1=   9.62197853E-01
 1-9 gives the relaxation energy (to be shifted if some occ is /=2.0)
   erelax=  -1.16334714E+01
  No Ewald or frozen-wf contrib.: the relaxation energy is the total one
 2DEtotal=   -0.1163347144E+02 Ha. Also 2DEtotal=   -0.316562856945E+03 eV
    (  non-var. 2DEtotal :   -1.1633471439E+01 Ha)

 CALCULATION OF EFFECTIVE MASSES
 NOTE : Additional infos (eff. mass eigenvalues, eigenvectors and, if degenerate, average mass) are available in stdout.

 K-point ( 0.177,-0.177, 0.500) | band =    43
 Effective mass tensor:
             -5.6949430185             -1.2106955266              6.3117316505
             -1.2106955266             -1.8327983951              1.8150314764
              6.3117316505              1.8150314764            -10.2907125319
 Effective mass tensor eigenvalues:
            -15.0692814729             -1.4846550712             -1.2645174014
 Angular average effective mass 1/(<1/m>)=  -1.9598456123
 Angular average effective mass for Frohlich model (<m**0.5>)**2=  -2.4078226670
 Effective masses along directions: (cart. coord. / red. coord. -> eff. mass)
    1:   1.000000  0.000000  0.000000 /   0.763007  0.646390  0.000000 ->  -1.8174103673
    2:   0.000000  1.000000  0.000000 /   0.000000  1.000000  0.000000 ->  -1.5074626537
    3:   0.000000  0.000000  1.000000 /   0.318157  0.318157  0.893058 ->  -3.1532511049
    4:   0.577350  0.577350  0.577350 /   0.535561  0.668727  0.515731 ->  -1.2971260721
    5:   0.000000  0.707107  0.707107 /   0.277893  0.560637  0.780039 ->  -1.7079190319
    6:   0.707107  0.000000  0.707107 /   0.604498  0.543804  0.582116 ->  -1.3073396775
    7:   0.707107  0.707107  0.000000 /   0.587195  0.809446  0.000000 ->  -1.7502435936

 K-point ( 0.709, 0.291, 0.000) | band =    44
 Effective mass tensor:
              9.6886405225              2.5694981518              1.7216271204
              2.5694981518              1.4918899834              0.4950482142
              1.7216271204              0.4950482142              1.4214107296
 Effective mass tensor eigenvalues:
              0.7530139043              1.0781704004             10.7707569308
 Angular average effective mass 1/(<1/m>)=   1.2774992973
 Angular average effective mass for Frohlich model (<m**0.5>)**2=   1.5973834704
 Effective masses along directions: (cart. coord. / red. coord. -> eff. mass)
    1:   1.000000  0.000000  0.000000 /   0.763007  0.646390  0.000000 ->   4.6624686245
    2:   0.000000  1.000000  0.000000 /   0.000000  1.000000  0.000000 ->   0.8091142835
    3:   0.000000  0.000000  1.000000 /   0.318157  0.318157  0.893058 ->   1.1136603033
    4:   0.577350  0.577350  0.577350 /   0.535561  0.668727  0.515731 ->   2.2621193333
    5:   0.000000  0.707107  0.707107 /   0.277893  0.560637  0.780039 ->   0.9762601759
    6:   0.707107  0.000000  0.707107 /   0.604498  0.543804  0.582116 ->   2.4512771598
    7:   0.707107  0.707107  0.000000 /   0.587195  0.809446  0.000000 ->   2.4691588356

 END OF EFFECTIVE MASSES SECTION

 ---- first-order wavefunction calculations are completed ----

 Total localisation tensor (bohr^2) in cartesian coordinates
  WARNING : still subject to testing - especially symmetries.
      direction              matrix element
   alpha     beta       real part   imaginary part
     1        1       6.4749776398    0.0000000000
     1        2       1.6967926917    0.0000000000
     1        3       3.6362434063    0.0000000000
     2        1       1.6967926917    0.0000000000
     2        2       1.0642194269    0.0000000000
     2        3       1.0459606912    0.0000000000
     3        1       3.6362434063    0.0000000000
     3        2       1.0459606912    0.0000000000
     3        3       3.4757070261    0.0000000000

 respfn : d/dk was computed, but no 2DTE, so no DDB output.

== END DATASET(S) ==============================================================

 -outvars: echo values of variables after computation  --------
            acell      1.0000000000E+00  1.0000000000E+00  1.0000000000E+00 Bohr
              amu      8.89058500E+01  3.54527000E+01
             ecut      3.60000000E+01 Hartree
           etotal     -1.1633471439E+01
            fcart      0.0000000000E+00  0.0000000000E+00  0.0000000000E+00
                       0.0000000000E+00  0.0000000000E+00  0.0000000000E+00
                       0.0000000000E+00  0.0000000000E+00  0.0000000000E+00
                       0.0000000000E+00  0.0000000000E+00  0.0000000000E+00
                       0.0000000000E+00  0.0000000000E+00  0.0000000000E+00
                       0.0000000000E+00  0.0000000000E+00  0.0000000000E+00
                       0.0000000000E+00  0.0000000000E+00  0.0000000000E+00
                       0.0000000000E+00  0.0000000000E+00  0.0000000000E+00
                       0.0000000000E+00  0.0000000000E+00  0.0000000000E+00
                       0.0000000000E+00  0.0000000000E+00  0.0000000000E+00
-          fftalg         512
           irdden           1
           irdwfk           1
              ixc     -116133
              kpt      1.77193998E-01 -1.77193998E-01  5.00000000E-01
                       7.09374042E-01  2.90625958E-01  0.00000000E+00
           kptopt           0
P           mkmem           2
P          mkqmem           2
P          mk1mem           2
            natom          10
            nband          52
           nbdbuf           4
            ngfft          80      80     108
             nkpt           2
            nstep        2000
             nsym           4
           ntypat           2
              occ      2.000000  2.000000  2.000000  2.000000  2.000000  2.000000
                       2.000000  2.000000  2.000000  2.000000  2.000000  2.000000
                       2.000000  2.000000  2.000000  2.000000  2.000000  2.000000
                       2.000000  2.000000  2.000000  2.000000  2.000000  2.000000
                       2.000000  2.000000  2.000000  2.000000  2.000000  2.000000
                       2.000000  2.000000  2.000000  2.000000  2.000000  2.000000
                       2.000000  2.000000  2.000000  2.000000  2.000000  2.000000
                       2.000000  0.000000  0.000000  0.000000  0.000000  0.000000
                       0.000000  0.000000  0.000000  0.000000
        optdriver           1
            prtwf          -1
            rfdir           1       1       1
           rfelfd           2
            rprim      1.2989396604E+01  0.0000000000E+00  6.7833125071E+00
                       1.1004118208E+01  6.9017249012E+00  6.7833125071E+00
                       0.0000000000E+00  0.0000000000E+00  1.9040597559E+01
          spgroup          12
           strten      0.0000000000E+00  0.0000000000E+00  0.0000000000E+00
                       0.0000000000E+00  0.0000000000E+00  0.0000000000E+00
           symrel      1  0  0   0  1  0   0  0  1      -1  0  0   0 -1  0   0  0 -1
                       0 -1  0  -1  0  0   0  0 -1       0  1  0   1  0  0   0  0  1
           tolwfr      1.00000000E-20
            typat      1  1  1  1  2  2  2  2  2  2
           useylm           1
              wtk        0.50000    0.50000
           xangst      1.7629790163E+00  5.0712020610E-01  8.1278710509E+00
                       1.0933842176E+01  3.1451153116E+00  9.1271279700E+00
                       5.2130608453E+00  1.4995348588E+00  1.2518262029E+01
                       7.4837603474E+00  2.1527006588E+00  4.7367369915E+00
                       1.2100883193E+01  3.4808141914E+00  1.4254336339E+01
                       5.9593799950E-01  1.7142132626E-01  3.0006626815E+00
                       9.7705340252E+00  2.8104901890E+00  6.7228121177E+00
                       2.9262871676E+00  8.4174532870E-01  1.0532186903E+01
                       4.3444332171E+00  1.2496744704E+00  7.5647425116E+00
                       8.3523879757E+00  2.4025610473E+00  9.6902565094E+00
            xcart      3.3315475187E+00  9.5831830598E-01  1.5359450330E+01
                       2.0661967294E+01  5.9434065952E+00  1.7247772243E+01
                       9.8512573117E+00  2.8337102099E+00  2.3656086895E+01
                       1.4142257501E+01  4.0680146913E+00  8.9511356775E+00
                       2.2867355201E+01  6.5777855412E+00  2.6936791888E+01
                       1.1261596112E+00  3.2393935996E-01  5.6704306852E+00
                       1.8463633480E+01  5.3110567563E+00  1.2704273745E+01
                       5.5298813329E+00  1.5906681449E+00  1.9902948827E+01
                       8.2097889828E+00  2.3615425043E+00  1.4295291613E+01
                       1.5783725830E+01  4.5401823969E+00  1.8311930960E+01
             xred      1.3885200000E-01  1.3885200000E-01  7.0773500000E-01
                       8.6114800000E-01  8.6114800000E-01  2.9226500000E-01
                       4.1058000000E-01  4.1058000000E-01  9.4986000000E-01
                       5.8942000000E-01  5.8942000000E-01  5.0140000000E-02
                       9.5306400000E-01  9.5306400000E-01  7.3563500000E-01
                       4.6936000000E-02  4.6936000000E-02  2.6436500000E-01
                       7.6952600000E-01  7.6952600000E-01  1.1892500000E-01
                       2.3047400000E-01  2.3047400000E-01  8.8107500000E-01
                       3.4216700000E-01  3.4216700000E-01  5.0698200000E-01
                       6.5783300000E-01  6.5783300000E-01  4.9301800000E-01
            znucl       39.00000   17.00000

- Timing analysis has been suppressed with timopt=0

 Suggested references for the acknowledgment of ABINIT usage.

 Calculation completed.
.Delivered   2 WARNINGs and   5 COMMENTs to log file.