.Version 9.7.2 of ABINIT

 ABINIT is a project of the Universite Catholique de Louvain,
 Corning Inc. and other collaborators, see ~abinit/doc/developers/contributors.txt .
 acknowledgments of the ABINIT effort.

.Starting date : Wed  1 Dec 2021.
- ( at 21h18 )

- input  file    -> /scratch/users/j/a/jabreu/flow_simple_remain_atoms/flow/w171/t1/run.abi
- output file    -> /scratch/users/j/a/jabreu/flow_simple_remain_atoms/flow/w171/t1/run.abo
- root for input  files -> /scratch/users/j/a/jabreu/flow_simple_remain_atoms/flow/w171/t1/indata/in
- root for output files -> /scratch/users/j/a/jabreu/flow_simple_remain_atoms/flow/w171/t1/outdata/out

 Symmetries : space group Im m m (# 71); Bravais oI (body-center ortho.)
     intxc =       0      iscf =       7    lmnmax =      32     lnmax =       8
     mgfft =      64  mpssoang =       4    mqgrid =    3001     natom =       5
  nloc_mem =       1    nspden =       1   nspinor =       1    nsppol =       1
      nsym =       8    n1xccc =    2501    ntypat =       3    occopt =       1
   xclevel =       2
-    mband =          33        mffmem =           1         mkmem =           2
-   mkqmem =           2        mk1mem =           2           mpw =        6379
      nfft =      262144          nkpt =           2
  Rough estimation (10% accuracy) of disk space for files :

------------- Echo of variables that govern the present computation ------------
-
- outvars: echo of selected default values
-   iomode0 =  0 , fftalg0 =512 , wfoptalg0 =  0
-
- outvars: echo of global parameters not present in the input file
-  max_nthreads =    0
-
 -outvars: echo values of preprocessed input variables --------
            acell      1.0000000000E+00  1.0000000000E+00  1.0000000000E+00 Bohr
              amu      2.29897680E+01  1.95080000E+02  1.59994000E+01
             ecut      4.40000000E+01 Hartree
-          fftalg         512
           irdden           1
           irdwfk           1
              ixc     -116133
              kpt     -2.28728492E-01  2.28728492E-01  2.28728492E-01
                       3.60059615E-01  6.39940385E-01 -3.60059615E-01
           kptopt           0
P           mkmem           2
P          mkqmem           2
P          mk1mem           2
            natom           5
            nband          33
           nbdbuf           4
            ngfft          64      64      64
             nkpt           2
            nstep        2000
             nsym           8
           ntypat           3
              occ      2.000000  2.000000  2.000000  2.000000  2.000000  2.000000
                       2.000000  2.000000  2.000000  2.000000  2.000000  2.000000
                       2.000000  2.000000  2.000000  2.000000  2.000000  2.000000
                       2.000000  2.000000  2.000000  2.000000  2.000000  2.000000
                       0.000000  0.000000  0.000000  0.000000  0.000000  0.000000
                       0.000000  0.000000  0.000000
        optdriver           1
            prtwf          -1
            rfdir           1       1       1
           rfelfd           2
            rprim      7.8723203464E+00  0.0000000000E+00 -6.6839683942E+00
                      -7.8631274290E-01  5.6203773100E+00 -8.6279738232E+00
                       0.0000000000E+00  0.0000000000E+00  1.0327093547E+01
          spgroup          71
           symrel      1  0  0   0  1  0   0  0  1      -1  0  0   0 -1  0   0  0 -1
                       0  0  1  -1 -1 -1   1  0  0       0  0 -1   1  1  1  -1  0  0
                      -1 -1 -1   0  0  1   0  1  0       1  1  1   0  0 -1   0 -1  0
                       0  1  0   1  0  0  -1 -1 -1       0 -1  0  -1  0  0   1  1  1
           tolwfr      1.00000000E-20
            typat      1  1  2  3  3
           useylm           1
              wtk        0.50000    0.50000
           xangst      2.5303638108E+00  2.0069974722E+00 -5.4677875931E+00
                       1.2193899129E+00  9.6717810395E-01 -2.6349432475E+00
                       0.0000000000E+00  0.0000000000E+00  0.0000000000E+00
                       3.4382859857E+00  1.0750246845E+00 -1.9648269711E+00
                       3.1146773797E-01  1.8991508916E+00 -6.7304133351E-01
            xcart      4.7816946189E+00  3.7926755718E+00 -1.0332621104E+01
                       2.3043129846E+00  1.8277017382E+00 -4.9793211136E+00
                       0.0000000000E+00  0.0000000000E+00  0.0000000000E+00
                       6.4974188795E+00  2.0315022398E+00 -3.7129848739E+00
                       5.8858872399E-01  3.5888750702E+00 -1.2718637964E+00
             xred      6.7480800000E-01  6.7480800000E-01  1.6653345369E-16
                       3.2519200000E-01  3.2519200000E-01  1.1102230246E-16
                       0.0000000000E+00  0.0000000000E+00  0.0000000000E+00
                       8.6145300000E-01  3.6145300000E-01  5.0000000000E-01
                       1.3854700000E-01  6.3854700000E-01  5.0000000000E-01
            znucl       11.00000   78.00000    8.00000

 chkinp: Checking input parameters for consistency.

== DATASET  1 ==================================================================
-   mpi_nproc: 1, omp_nthreads: -1 (-1 if OMP is not activated)

--- !DatasetInfo
iteration_state: {dtset: 1, }
dimensions: {natom: 5, nkpt: 2, mband: 33, nsppol: 1, nspinor: 1, nspden: 1, mpw: 6379, }
cutoff_energies: {ecut:  44.0, pawecutdg:  -1.0, }
electrons: {nelect:   4.80000000E+01, charge:   0.00000000E+00, occopt:   1.00000000E+00, tsmear:   1.00000000E-02, }
meta: {optdriver: 1, rfelfd: 2, }
...

 Real(R)+Recip(G) space primitive vectors, cartesian coordinates (Bohr,Bohr^-1):
 R(1)=  7.8723203  0.0000000 -6.6839684  G(1)=  0.1270274  0.0177716  0.0000000
 R(2)= -0.7863127  5.6203773 -8.6279738  G(2)=  0.0000000  0.1779240  0.0000000
 R(3)=  0.0000000  0.0000000 10.3270935  G(3)=  0.0822155  0.1601524  0.0968327
 Unit cell volume ucvol=  4.5692649E+02 bohr^3
 Angles (23,13,12)=  1.46664779E+02  1.30332815E+02  6.11383573E+01 degrees

 getcut: wavevector=  0.0000  0.0000  0.0000  ngfft=  64  64  64
         ecut(hartree)=     44.000   => boxcut(ratio)=   2.07588

--- Pseudopotential description ------------------------------------------------
- pspini: atom type   1  psp file is /scratch/users/j/a/jabreu/pseudos/PBEsol/Na.psp8
- pspatm: opening atomic psp file    /scratch/users/j/a/jabreu/pseudos/PBEsol/Na.psp8
- Na    ONCVPSP-3.3.0  r_core=   1.20708   1.55069
- 11.00000   9.00000    180112                znucl, zion, pspdat
    8 -116133    1    4       400   0.00000   pspcod,pspxc,lmax,lloc,mmax,r2well
    3.99000000000000    0.00000000000000    0.00000000000000   rchrg,fchrg,qchrg
     nproj     2     2
     extension_switch     1
  pspatm : epsatm=    9.32878306
         --- l  ekb(1:nproj) -->
             0    2.657905   -0.678300
             1   -6.761319   -2.404728
 pspatm: atomic psp has been read  and splines computed

- pspini: atom type   2  psp file is /scratch/users/j/a/jabreu/pseudos/PBEsol/Pt.psp8
- pspatm: opening atomic psp file    /scratch/users/j/a/jabreu/pseudos/PBEsol/Pt.psp8
- Pt    ONCVPSP-3.3.0  r_core=   1.45722   1.45722   1.45722   1.91724
- 78.00000  18.00000    180112                znucl, zion, pspdat
    8 -116133    3    4       500   0.00000   pspcod,pspxc,lmax,lloc,mmax,r2well
    4.99000000000000    5.00000000000000    0.00000000000000   rchrg,fchrg,qchrg
     nproj     2     2     2     2
     extension_switch     1
  pspatm : epsatm=   26.54019552
         --- l  ekb(1:nproj) -->
             0   18.149684    1.747248
             1    8.048135    1.208190
             2    2.365973    0.348456
             3    3.491561    0.381218
 pspatm: atomic psp has been read  and splines computed

- pspini: atom type   3  psp file is /scratch/users/j/a/jabreu/pseudos/PBEsol/O.psp8
- pspatm: opening atomic psp file    /scratch/users/j/a/jabreu/pseudos/PBEsol/O.psp8
- O     ONCVPSP-3.3.0  r_core=   1.35509   1.45563   1.26150
-  8.00000   6.00000    180112                znucl, zion, pspdat
    8 -116133    2    4       600   0.00000   pspcod,pspxc,lmax,lloc,mmax,r2well
    5.99000000000000    4.00000000000000    0.00000000000000   rchrg,fchrg,qchrg
     nproj     2     2     1
     extension_switch     1
  pspatm : epsatm=    6.22910522
         --- l  ekb(1:nproj) -->
             0    6.050032    0.820363
             1   -4.739617   -1.153841
             2   -1.335834
 pspatm: atomic psp has been read  and splines computed

   2.76748666E+03                                ecore*ucvol(ha*bohr**3)

 ==>  initialize data related to q vector <==

 The list of irreducible perturbations for this q vector is:
    1)    idir= 1    ipert=   6
    2)    idir= 2    ipert=   6
    3)    idir= 3    ipert=   6

 Perturbation wavevector (in red.coord.)   0.000000  0.000000  0.000000
 Perturbation : derivative vs k along direction   1

 dfpt_looppert : COMMENT -
  In a d/dk calculation, iscf is set to -3 automatically.
 The set of symmetries contains only one element for this perturbation.
 symkpt : not enough symmetry to change the number of k points.

 Initialisation of the first-order wave-functions :
  ireadwf=   0

--- !BeginCycle
iteration_state: {dtset: 1, }
solver: {iscf: 7, nstep: 2000, nline: 4, wfoptalg: 0, }
tolerances: {tolwfr: 1.00E-20, }
...

     iter   2DEtotal(Ha)        deltaE(Ha) residm    vres2
-ETOT  1  -34.429096612831     -3.443E+01 2.513E-02 0.000E+00
 ETOT  2  -34.445558639930     -1.646E-02 1.304E-04 0.000E+00
 ETOT  3  -34.445567882772     -9.243E-06 2.070E-07 0.000E+00
 ETOT  4  -34.445567899536     -1.676E-08 2.044E-09 0.000E+00
 ETOT  5  -34.445567899584     -4.828E-11 2.858E-11 0.000E+00
 ETOT  6  -34.445567899584     -1.705E-13 2.172E-13 0.000E+00
 ETOT  7  -34.445567899584     -7.105E-15 6.217E-15 0.000E+00
 ETOT  8  -34.445567899584      1.421E-14 5.314E-17 0.000E+00
 ETOT  9  -34.445567899584     -7.105E-15 1.532E-18 0.000E+00
 ETOT 10  -34.445567899584      0.000E+00 1.385E-20 0.000E+00
 ETOT 11  -34.445567899584      0.000E+00 9.868E-21 0.000E+00

 At SCF step   11   max residual=  9.87E-21 < tolwfr=  1.00E-20 =>converged.

 ----iterations are completed or convergence reached----

 dfpt_looppert: DFPT cycle converged with prtwf=-1. Will skip output of the 1st-order WFK file.
 dfpt_looppert : ek2=    6.2351057392E+01
          f-sum rule ratio=    1.0056564002E+00
 prteigrs : about to open file /scratch/users/j/a/jabreu/flow_simple_remain_atoms/flow/w171/t1/tmpdata/tmp_1WF1_EIG
 Expectation of eigenvalue derivatives (hartree) for nkpt=   2  k points:
  (in case of degenerate eigenvalues, averaged derivative)
 kpt#   1, nband= 33, wtk=  0.50000, kpt= -0.2287  0.2287  0.2287 (reduced coord)
  -0.00000    0.00000    0.00000    0.00000    0.00000   -0.00000   -0.00000    0.00000
   0.00000   -0.00000   -0.00000    0.00000    0.00000   -0.00000    0.00000    0.00000
  -0.00000   -0.00000    0.00000   -0.00000   -0.00000    0.00000    0.00000    0.00000
  -0.00000   -0.00000    0.00000   -0.00000   -0.00000    0.00000    0.00000    0.00000
   0.00004
 prteigrs : prtvol=0 or 1, do not print more k-points.

 Eight components of 2nd-order total energy (hartree) are
 1,2,3: 0th-order hamiltonian combined with 1st-order wavefunctions
     kin0=   4.39474150E+01 eigvalue=   1.66447230E+00  local=  -1.77042824E+01
 4,5,6: 1st-order hamiltonian combined with 1st and 0th-order wfs
     kin1=  -6.27037399E+01  Hartree=   0.00000000E+00     xc=   0.00000000E+00
 7,8,9: eventually, occupation + non-local contributions
    edocc=   6.32746240E+00     enl0=   2.10500577E-01   enl1=  -6.18739587E+00
 1-9 gives the relaxation energy (to be shifted if some occ is /=2.0)
   erelax=  -3.44455679E+01
  No Ewald or frozen-wf contrib.: the relaxation energy is the total one
 2DEtotal=   -0.3444556790E+02 Ha. Also 2DEtotal=   -0.937311570391E+03 eV
    (  non-var. 2DEtotal :   -3.4445567899E+01 Ha)

 Perturbation wavevector (in red.coord.)   0.000000  0.000000  0.000000
 Perturbation : derivative vs k along direction   2
 The set of symmetries contains only one element for this perturbation.
 symkpt : not enough symmetry to change the number of k points.

[...]

 Perturbation wavevector (in red.coord.)   0.000000  0.000000  0.000000
 Perturbation : derivative vs k along direction   3
 The set of symmetries contains only one element for this perturbation.
 symkpt : not enough symmetry to change the number of k points.

 Initialisation of the first-order wave-functions :
  ireadwf=   0

--- !BeginCycle
iteration_state: {dtset: 1, }
solver: {iscf: 7, nstep: 2000, nline: 4, wfoptalg: 0, }
tolerances: {tolwfr: 1.00E-20, }
...

     iter   2DEtotal(Ha)        deltaE(Ha) residm    vres2
-ETOT  1  -88.533570052159     -8.853E+01 1.036E-01 0.000E+00
 ETOT  2  -88.577020716397     -4.345E-02 4.347E-04 0.000E+00
 ETOT  3  -88.577081998727     -6.128E-05 1.388E-06 0.000E+00
 ETOT  4  -88.577082192622     -1.939E-07 2.160E-08 0.000E+00
 ETOT  5  -88.577082193411     -7.895E-10 2.618E-10 0.000E+00
 ETOT  6  -88.577082193415     -4.064E-12 4.197E-12 0.000E+00
 ETOT  7  -88.577082193415     -4.263E-14 6.518E-14 0.000E+00
 ETOT  8  -88.577082193415      5.684E-14 1.052E-15 0.000E+00
 ETOT  9  -88.577082193415     -7.105E-14 1.696E-17 0.000E+00
 ETOT 10  -88.577082193415      0.000E+00 2.748E-19 0.000E+00
 ETOT 11  -88.577082193415      0.000E+00 9.906E-21 0.000E+00

 At SCF step   11   max residual=  9.91E-21 < tolwfr=  1.00E-20 =>converged.

 ----iterations are completed or convergence reached----

 dfpt_looppert: DFPT cycle converged with prtwf=-1. Will skip output of the 1st-order WFK file.
 dfpt_looppert : ek2=    1.5836112636E+02
          f-sum rule ratio=    1.0162401370E+00
 prteigrs : about to open file /scratch/users/j/a/jabreu/flow_simple_remain_atoms/flow/w171/t1/tmpdata/tmp_1WF1_EIG
 Expectation of eigenvalue derivatives (hartree) for nkpt=   2  k points:
  (in case of degenerate eigenvalues, averaged derivative)
 kpt#   1, nband= 33, wtk=  0.50000, kpt= -0.2287  0.2287  0.2287 (reduced coord)
   0.00006   -0.00237    0.00032    0.00017    0.00112   -0.00066   -0.00372   -0.00275
  -0.00051    0.00136    0.00713   -0.00630   -0.02231    0.03993   -0.08843   -0.04171
   0.24322   -0.24483    0.18643    0.23498   -0.00251   -0.22401   -0.07331    0.00145
  -0.05638    0.20980   -0.24407    0.01778   -0.09337    0.12003    0.19539    0.18008
   0.17908
 prteigrs : prtvol=0 or 1, do not print more k-points.

 Eight components of 2nd-order total energy (hartree) are
 1,2,3: 0th-order hamiltonian combined with 1st-order wavefunctions
     kin0=   1.08899945E+02 eigvalue=   3.97373017E+00  local=  -4.44058445E+01
 4,5,6: 1st-order hamiltonian combined with 1st and 0th-order wfs
     kin1=  -1.60932933E+02  Hartree=   0.00000000E+00     xc=   0.00000000E+00
 7,8,9: eventually, occupation + non-local contributions
    edocc=   2.01063629E+01     enl0=   2.88918227E-03   enl1=  -1.62212316E+01
 1-9 gives the relaxation energy (to be shifted if some occ is /=2.0)
   erelax=  -8.85770822E+01
  No Ewald or frozen-wf contrib.: the relaxation energy is the total one
 2DEtotal=   -0.8857708219E+02 Ha. Also 2DEtotal=   -0.241030498476E+04 eV
    (  non-var. 2DEtotal :   -8.8577082193E+01 Ha)

 CALCULATION OF EFFECTIVE MASSES
 NOTE : Additional infos (eff. mass eigenvalues, eigenvectors and, if degenerate, average mass) are available in stdout.

 K-point (-0.229, 0.229, 0.229) | band =    24
 Effective mass tensor:
             -7.5211611838             -1.4683400323              1.8133453636
             -1.4683400323             -2.1088610258              3.1729152613
              1.8133453636              3.1729152613            -10.6004668066
 Effective mass tensor eigenvalues:
            -12.6042709471             -6.6820008064             -0.9442172627
 Angular average effective mass 1/(<1/m>)=  -2.3290619058
 Angular average effective mass for Frohlich model (<m**0.5>)**2=  -3.3857877993
 Effective masses along directions: (cart. coord. / red. coord. -> eff. mass)
    1:   1.000000  0.000000  0.000000 /   0.995049 -0.099389  0.000000 ->  -6.4719022749
    2:   0.000000  1.000000  0.000000 /   0.000000  1.000000  0.000000 ->  -1.0403459851
    3:   0.000000  0.000000  1.000000 /  -0.444841 -0.574221  0.687304 ->  -5.8025008110
    4:   0.577350  0.577350  0.577350 /   0.107388 -0.342846  0.933233 ->  -1.9310861716
    5:   0.000000  0.707107  0.707107 /  -0.527804 -0.237497  0.815486 ->  -1.1999268783
    6:   0.707107  0.000000  0.707107 /   0.084733 -0.671269  0.736355 ->  -6.5389840467
    7:   0.707107  0.707107  0.000000 /   0.852162  0.523277  0.000000 ->  -2.3015596722

 K-point ( 0.360, 0.640,-0.360) | band =    25
 Effective mass tensor:
              1.9500948217              0.0816693555              0.4155502424
              0.0816693555              0.5331257807             -0.1764766760
              0.4155502424             -0.1764766760              1.2444469787
 Effective mass tensor eigenvalues:
              0.4683524827              1.1169141922              2.1424009063
 Angular average effective mass 1/(<1/m>)=   0.8578207839
 Angular average effective mass for Frohlich model (<m**0.5>)**2=   0.9619000236
 Effective masses along directions: (cart. coord. / red. coord. -> eff. mass)
    1:   1.000000  0.000000  0.000000 /   0.995049 -0.099389  0.000000 ->   1.7724268029
    2:   0.000000  1.000000  0.000000 /   0.000000  1.000000  0.000000 ->   0.4971858216
    3:   0.000000  0.000000  1.000000 /  -0.444841 -0.574221  0.687304 ->   1.0849336343
    4:   0.577350  0.577350  0.577350 /   0.107388 -0.342846  0.933233 ->   0.8724397408
    5:   0.000000  0.707107  0.707107 /  -0.527804 -0.237497  0.815486 ->   0.5543609366
    6:   0.707107  0.000000  0.707107 /   0.084733 -0.671269  0.736355 ->   1.8782244362
    7:   0.707107  0.707107  0.000000 /   0.852162  0.523277  0.000000 ->   0.8836757484

 END OF EFFECTIVE MASSES SECTION

 ---- first-order wavefunction calculations are completed ----

 Total localisation tensor (bohr^2) in cartesian coordinates
  WARNING : still subject to testing - especially symmetries.
      direction              matrix element
   alpha     beta       real part   imaginary part
     1        1       0.4977411673    0.0000000000
     1        2      -0.0927543253    0.0000000000
     1        3      -0.2691983724    0.0000000000
     2        1      -0.0927543253    0.0000000000
     2        2       0.6629859557    0.0000000000
     2        3      -1.0177653840    0.0000000000
     3        1      -0.2691983724    0.0000000000
     3        2      -1.0177653840    0.0000000000
     3        3       4.6224694590    0.0000000000

 respfn : d/dk was computed, but no 2DTE, so no DDB output.

== END DATASET(S) ==============================================================

 -outvars: echo values of variables after computation  --------
            acell      1.0000000000E+00  1.0000000000E+00  1.0000000000E+00 Bohr
              amu      2.29897680E+01  1.95080000E+02  1.59994000E+01
             ecut      4.40000000E+01 Hartree
           etotal     -8.8577082193E+01
            fcart      0.0000000000E+00  0.0000000000E+00  0.0000000000E+00
                       0.0000000000E+00  0.0000000000E+00  0.0000000000E+00
                       0.0000000000E+00  0.0000000000E+00  0.0000000000E+00
                       0.0000000000E+00  0.0000000000E+00  0.0000000000E+00
                       0.0000000000E+00  0.0000000000E+00  0.0000000000E+00
-          fftalg         512
           irdden           1
           irdwfk           1
              ixc     -116133
              kpt     -2.28728492E-01  2.28728492E-01  2.28728492E-01
                       3.60059615E-01  6.39940385E-01 -3.60059615E-01
           kptopt           0
P           mkmem           2
P          mkqmem           2
P          mk1mem           2
            natom           5
            nband          33
           nbdbuf           4
            ngfft          64      64      64
             nkpt           2
            nstep        2000
             nsym           8
           ntypat           3
              occ      2.000000  2.000000  2.000000  2.000000  2.000000  2.000000
                       2.000000  2.000000  2.000000  2.000000  2.000000  2.000000
                       2.000000  2.000000  2.000000  2.000000  2.000000  2.000000
                       2.000000  2.000000  2.000000  2.000000  2.000000  2.000000
                       0.000000  0.000000  0.000000  0.000000  0.000000  0.000000
                       0.000000  0.000000  0.000000
        optdriver           1
            prtwf          -1
            rfdir           1       1       1
           rfelfd           2
            rprim      7.8723203464E+00  0.0000000000E+00 -6.6839683942E+00
                      -7.8631274290E-01  5.6203773100E+00 -8.6279738232E+00
                       0.0000000000E+00  0.0000000000E+00  1.0327093547E+01
          spgroup          71
           strten      0.0000000000E+00  0.0000000000E+00  0.0000000000E+00
                       0.0000000000E+00  0.0000000000E+00  0.0000000000E+00
           symrel      1  0  0   0  1  0   0  0  1      -1  0  0   0 -1  0   0  0 -1
                       0  0  1  -1 -1 -1   1  0  0       0  0 -1   1  1  1  -1  0  0
                      -1 -1 -1   0  0  1   0  1  0       1  1  1   0  0 -1   0 -1  0
                       0  1  0   1  0  0  -1 -1 -1       0 -1  0  -1  0  0   1  1  1
           tolwfr      1.00000000E-20
            typat      1  1  2  3  3
           useylm           1
              wtk        0.50000    0.50000
           xangst      2.5303638108E+00  2.0069974722E+00 -5.4677875931E+00
                       1.2193899129E+00  9.6717810395E-01 -2.6349432475E+00
                       0.0000000000E+00  0.0000000000E+00  0.0000000000E+00
                       3.4382859857E+00  1.0750246845E+00 -1.9648269711E+00
                       3.1146773797E-01  1.8991508916E+00 -6.7304133351E-01
            xcart      4.7816946189E+00  3.7926755718E+00 -1.0332621104E+01
                       2.3043129846E+00  1.8277017382E+00 -4.9793211136E+00
                       0.0000000000E+00  0.0000000000E+00  0.0000000000E+00
                       6.4974188795E+00  2.0315022398E+00 -3.7129848739E+00
                       5.8858872399E-01  3.5888750702E+00 -1.2718637964E+00
             xred      6.7480800000E-01  6.7480800000E-01  1.6653345369E-16
                       3.2519200000E-01  3.2519200000E-01  1.1102230246E-16
                       0.0000000000E+00  0.0000000000E+00  0.0000000000E+00
                       8.6145300000E-01  3.6145300000E-01  5.0000000000E-01
                       1.3854700000E-01  6.3854700000E-01  5.0000000000E-01
            znucl       11.00000   78.00000    8.00000

- Timing analysis has been suppressed with timopt=0

 Suggested references for the acknowledgment of ABINIT usage.

 Calculation completed.
.Delivered   2 WARNINGs and   5 COMMENTs to log file.