.Version 9.5.1 of ABINIT

 ABINIT is a project of the Universite Catholique de Louvain,
 Corning Inc. and other collaborators, see ~abinit/doc/developers/contributors.txt .
 acknowledgments of the ABINIT effort.

.Starting date : Sun 25 Apr 2021.
- ( at 17h18 )

- input  file    -> /scratch/users/j/a/jabreu/flow_simple2/flow/w167/t1/run.abi
- output file    -> /scratch/users/j/a/jabreu/flow_simple2/flow/w167/t1/run.abo
- root for input  files -> /scratch/users/j/a/jabreu/flow_simple2/flow/w167/t1/indata/in
- root for output files -> /scratch/users/j/a/jabreu/flow_simple2/flow/w167/t1/outdata/out

 Symmetries : space group F-4 3 m (#216); Bravais cF (face-center cubic)
     intxc =       0      iscf =       7    lmnmax =      18     lnmax =       6
     mgfft =      48  mpssoang =       3    mqgrid =    3001     natom =       2
  nloc_mem =       1    nspden =       1   nspinor =       1    nsppol =       1
      nsym =      24    n1xccc =    2501    ntypat =       2    occopt =       1
   xclevel =       2
-    mband =          22        mffmem =           1         mkmem =           1
-   mkqmem =           1        mk1mem =           1           mpw =        4381
      nfft =      110592          nkpt =           1
  Rough estimation (10% accuracy) of disk space for files :

------------- Echo of variables that govern the present computation ------------
-
- outvars: echo of selected default values
-   iomode0 =  0 , fftalg0 =512 , wfoptalg0 =  0
-
- outvars: echo of global parameters not present in the input file
-  max_nthreads =    0
-
 -outvars: echo values of preprocessed input variables --------
            acell      1.0000000000E+00  1.0000000000E+00  1.0000000000E+00 Bohr
              amu      6.35460000E+01  7.99040000E+01
             ecut      4.60000000E+01 Hartree
-          fftalg         512
           irdden           1
           irdwfk           1
           istwfk        1
              ixc     -116133
           kptopt           0
P           mkmem           1
P          mkqmem           1
P          mk1mem           1
            natom           2
            nband          22
           nbdbuf           4
            ngfft          48      48      48
             nkpt           1
            nstep         100
             nsym          24
           ntypat           2
              occ      2.000000  2.000000  2.000000  2.000000  2.000000  2.000000
                       2.000000  2.000000  2.000000  2.000000  2.000000  2.000000
                       2.000000  0.000000  0.000000  0.000000  0.000000  0.000000
                       0.000000  0.000000  0.000000  0.000000
        optdriver           1
            prtwf          -1
            rfdir           1       1       1
           rfelfd           2
            rprim      6.4620064298E+00  0.0000000000E+00  3.7308411517E+00
                       2.1540021433E+00  6.0924380888E+00  3.7308411517E+00
                       0.0000000000E+00  0.0000000000E+00  7.4616823035E+00
          spgroup         216
           symrel      1  0  0   0  1  0   0  0  1       0 -1  1   0 -1  0   1 -1  0
                      -1  0  0  -1  0  1  -1  1  0       0  1 -1   1  0 -1   0  0 -1
                      -1  0  0  -1  1  0  -1  0  1       0 -1  1   1 -1  0   0 -1  0
                       1  0  0   0  0  1   0  1  0       0  1 -1   0  0 -1   1  0 -1
                      -1  0  1  -1  1  0  -1  0  0       0 -1  0   1 -1  0   0 -1  1
                       1  0 -1   0  0 -1   0  1 -1       0  1  0   0  0  1   1  0  0
                       1  0 -1   0  1 -1   0  0 -1       0 -1  0   0 -1  1   1 -1  0
                      -1  0  1  -1  0  0  -1  1  0       0  1  0   1  0  0   0  0  1
                       0  0 -1   0  1 -1   1  0 -1       1 -1  0   0 -1  1   0 -1  0
                       0  0  1   1  0  0   0  1  0      -1  1  0  -1  0  0  -1  0  1
                       0  0  1   0  1  0   1  0  0       1 -1  0   0 -1  0   0 -1  1
                       0  0 -1   1  0 -1   0  1 -1      -1  1  0  -1  0  1  -1  0  0
           tolwfr      1.00000000E-20
            typat      1  2
           useylm           1
           xangst      2.2796976830E+00  1.6119896907E+00  3.9485522127E+00
                       1.1398488415E+00  8.0599484533E-01  1.9742761064E+00
            xcart      4.3080042865E+00  3.0462190444E+00  7.4616823034E+00
                       2.1540021433E+00  1.5231095222E+00  3.7308411517E+00
             xred      5.0000000000E-01  5.0000000000E-01  5.0000000000E-01
                       2.5000000000E-01  2.5000000000E-01  2.5000000000E-01
            znucl       29.00000   35.00000

 chkinp: Checking input parameters for consistency.

== DATASET  1 ==================================================================
-   mpi_nproc: 1, omp_nthreads: -1 (-1 if OMP is not activated)

--- !DatasetInfo
iteration_state: {dtset: 1, }
dimensions: {natom: 2, nkpt: 1, mband: 22, nsppol: 1, nspinor: 1, nspden: 1, mpw: 4381, }
cutoff_energies: {ecut:  46.0, pawecutdg:  -1.0, }
electrons: {nelect:   2.60000000E+01, charge:   0.00000000E+00, occopt:   1.00000000E+00, tsmear:   1.00000000E-02, }
meta: {optdriver: 1, rfelfd: 2, }
...

 Real(R)+Recip(G) space primitive vectors, cartesian coordinates (Bohr,Bohr^-1):
 R(1)=  6.4620064  0.0000000  3.7308412  G(1)=  0.1547507 -0.0547126  0.0000000
 R(2)=  2.1540021  6.0924381  3.7308412  G(2)=  0.0000000  0.1641379  0.0000000
 R(3)=  0.0000000  0.0000000  7.4616823  G(3)= -0.0773753 -0.0547126  0.1340180
 Unit cell volume ucvol=  2.9376176E+02 bohr^3
 Angles (23,13,12)=  6.00000000E+01  6.00000000E+01  6.00000000E+01 degrees

 getcut: wavevector=  0.0000  0.0000  0.0000  ngfft=  48  48  48
         ecut(hartree)=     46.000   => boxcut(ratio)=   2.10698

--- Pseudopotential description ------------------------------------------------
- pspini: atom type   1  psp file is /scratch/users/j/a/jabreu/pseudos/PBEsol/Cu.psp8
- pspatm: opening atomic psp file    /scratch/users/j/a/jabreu/pseudos/PBEsol/Cu.psp8
- Cu    ONCVPSP-3.3.0  r_core=   1.26204   1.45626   1.76249
- 29.00000  19.00000    180112                znucl, zion, pspdat
    8 -116133    2    4       600   0.00000   pspcod,pspxc,lmax,lloc,mmax,r2well
    5.99000000000000    3.50000000000000    0.00000000000000   rchrg,fchrg,qchrg
     nproj     2     2     2
     extension_switch     1
  pspatm : epsatm=   21.63488701
         --- l  ekb(1:nproj) -->
             0    5.008230   -0.401634
             1   -3.496700   -0.765945
             2   -6.895851   -2.521180
 pspatm: atomic psp has been read  and splines computed

- pspini: atom type   2  psp file is /scratch/users/j/a/jabreu/pseudos/PBEsol/Br.psp8
- pspatm: opening atomic psp file    /scratch/users/j/a/jabreu/pseudos/PBEsol/Br.psp8
- Br    ONCVPSP-3.3.0  r_core=   1.81012   1.51356   1.92136
- 35.00000   7.00000    180112                znucl, zion, pspdat
    8 -116133    2    4       600   0.00000   pspcod,pspxc,lmax,lloc,mmax,r2well
    5.99000000000000    8.00000000000000    0.00000000000000   rchrg,fchrg,qchrg
     nproj     2     2     2
     extension_switch     1
  pspatm : epsatm=   10.94933070
         --- l  ekb(1:nproj) -->
             0    8.508690    0.897946
             1    5.393311    0.892021
             2    2.527513    0.394763
 pspatm: atomic psp has been read  and splines computed

   8.47189660E+02                                ecore*ucvol(ha*bohr**3)

-inwffil : will read wavefunctions from disk file /scratch/users/j/a/jabreu/flow_simple2/flow/w167/t1/indata/in_WFK

 ==>  initialize data related to q vector <==

 The list of irreducible perturbations for this q vector is:
    1)    idir= 1    ipert=   3
    2)    idir= 2    ipert=   3
    3)    idir= 3    ipert=   3

 Perturbation wavevector (in red.coord.)   0.000000  0.000000  0.000000
 Perturbation : derivative vs k along direction   1

 dfpt_looppert : COMMENT -
  In a d/dk calculation, iscf is set to -3 automatically.
 The set of symmetries contains only one element for this perturbation.
 symkpt : not enough symmetry to change the number of k points.

[...]

 Initialisation of the first-order wave-functions :
  ireadwf=   0

--- !BeginCycle
iteration_state: {dtset: 1, }
solver: {iscf: 7, nstep: 100, nline: 4, wfoptalg: 0, }
tolerances: {tolwfr: 1.00E-20, }
...

     iter   2DEtotal(Ha)        deltaE(Ha) residm    vres2
-ETOT  1  -53.299307731068     -5.330E+01 4.479E-02 0.000E+00
 ETOT  2  -53.335884620440     -3.658E-02 5.672E-04 0.000E+00
 ETOT  3  -53.336178937076     -2.943E-04 4.496E-06 0.000E+00
 ETOT  4  -53.336183720902     -4.784E-06 1.110E-07 0.000E+00
 ETOT  5  -53.336183815117     -9.422E-08 2.223E-09 0.000E+00
 ETOT  6  -53.336183817144     -2.027E-09 5.817E-11 0.000E+00
 ETOT  7  -53.336183817190     -4.623E-11 1.260E-12 0.000E+00
 ETOT  8  -53.336183817191     -1.059E-12 3.374E-14 0.000E+00
 ETOT  9  -53.336183817191     -4.263E-14 7.404E-16 0.000E+00
 ETOT 10  -53.336183817191     -2.842E-14 2.057E-17 0.000E+00
 ETOT 11  -53.336183817191      1.066E-13 4.492E-19 0.000E+00
 ETOT 12  -53.336183817191     -1.066E-13 1.295E-20 0.000E+00
 ETOT 13  -53.336183817191      2.132E-14 9.688E-21 0.000E+00

 At SCF step   13   max residual=  9.69E-21 < tolwfr=  1.00E-20 =>converged.

 ----iterations are completed or convergence reached----

 dfpt_looppert: DFPT cycle converged with prtwf=-1. Will skip output of the 1st-order WFK file.
 dfpt_looppert : ek2=    5.5307092884E+01
          f-sum rule ratio=    1.7944885502E+00
 prteigrs : about to open file /scratch/users/j/a/jabreu/flow_simple2/flow/w167/t1/tmpdata/tmp_1WF1_EIG
 Expectation of eigenvalue derivatives (hartree) for nkpt=   1  k points:
  (in case of degenerate eigenvalues, averaged derivative)
 kpt#   1, nband= 22, wtk=  1.00000, kpt=  0.0000  0.0000  0.0000 (reduced coord)
  -0.00000    0.00000    0.00000    0.00000    0.00000   -0.00000   -0.00000   -0.00000
  -0.00000   -0.00000    0.00000    0.00000    0.00000   -0.00000    0.00000    0.00000
   0.00000    0.00000    0.00000    0.00000   -0.00000   -0.00000

 Eight components of 2nd-order total energy (hartree) are
 1,2,3: 0th-order hamiltonian combined with 1st-order wavefunctions
     kin0=   3.63211261E+01 eigvalue=  -3.68334598E-01  local=  -1.33660932E+01
 4,5,6: 1st-order hamiltonian combined with 1st and 0th-order wfs
     kin1=  -9.92479449E+01  Hartree=   0.00000000E+00     xc=   0.00000000E+00
 7,8,9: eventually, occupation + non-local contributions
    edocc=   3.04239183E+01     enl0=   3.25567203E-01   enl1=  -7.42442271E+00
 1-9 gives the relaxation energy (to be shifted if some occ is /=2.0)
   erelax=  -5.33361838E+01
  No Ewald or frozen-wf contrib.: the relaxation energy is the total one
 2DEtotal=   -0.5333618382E+02 Ha. Also 2DEtotal=   -0.145135137148E+04 eV
    (  non-var. 2DEtotal :   -5.3336183817E+01 Ha)

 Perturbation wavevector (in red.coord.)   0.000000  0.000000  0.000000
 Perturbation : derivative vs k along direction   2
 The set of symmetries contains only one element for this perturbation.
 symkpt : not enough symmetry to change the number of k points.

[...]

 Perturbation wavevector (in red.coord.)   0.000000  0.000000  0.000000
 Perturbation : derivative vs k along direction   3
 The set of symmetries contains only one element for this perturbation.
 symkpt : not enough symmetry to change the number of k points.

-inwffil : will read wavefunctions from disk file /scratch/users/j/a/jabreu/flow_simple2/flow/w167/t1/indata/in_WFK

 Initialisation of the first-order wave-functions :
  ireadwf=   0

--- !BeginCycle
iteration_state: {dtset: 1, }
solver: {iscf: 7, nstep: 100, nline: 4, wfoptalg: 0, }
tolerances: {tolwfr: 1.00E-20, }
...

     iter   2DEtotal(Ha)        deltaE(Ha) residm    vres2
-ETOT  1  -53.303877374063     -5.330E+01 3.980E-02 0.000E+00
 ETOT  2  -53.335951941964     -3.207E-02 5.436E-04 0.000E+00
 ETOT  3  -53.336180116943     -2.282E-04 4.055E-06 0.000E+00
 ETOT  4  -53.336183826118     -3.709E-06 1.043E-07 0.000E+00
 ETOT  5  -53.336183901721     -7.560E-08 1.954E-09 0.000E+00
 ETOT  6  -53.336183903389     -1.668E-09 5.306E-11 0.000E+00
 ETOT  7  -53.336183903428     -3.861E-11 1.082E-12 0.000E+00
 ETOT  8  -53.336183903428     -8.242E-13 3.005E-14 0.000E+00
 ETOT  9  -53.336183903429     -2.842E-14 6.214E-16 0.000E+00
 ETOT 10  -53.336183903429     -5.684E-14 1.791E-17 0.000E+00
 ETOT 11  -53.336183903429      7.105E-14 3.688E-19 0.000E+00
 ETOT 12  -53.336183903429     -2.132E-14 1.103E-20 0.000E+00
 ETOT 13  -53.336183903429      1.421E-14 9.809E-21 0.000E+00

 At SCF step   13   max residual=  9.81E-21 < tolwfr=  1.00E-20 =>converged.

 ----iterations are completed or convergence reached----

 dfpt_looppert: DFPT cycle converged with prtwf=-1. Will skip output of the 1st-order WFK file.
 dfpt_looppert : ek2=    5.5307092883E+01
          f-sum rule ratio=    1.7944885515E+00
 prteigrs : about to open file /scratch/users/j/a/jabreu/flow_simple2/flow/w167/t1/tmpdata/tmp_1WF1_EIG
 Expectation of eigenvalue derivatives (hartree) for nkpt=   1  k points:
  (in case of degenerate eigenvalues, averaged derivative)
 kpt#   1, nband= 22, wtk=  1.00000, kpt=  0.0000  0.0000  0.0000 (reduced coord)
   0.00000    0.00000    0.00000    0.00000   -0.00000   -0.00000   -0.00000   -0.00000
  -0.00000   -0.00000   -0.00000   -0.00000   -0.00000    0.00000    0.00000    0.00000
   0.00000   -0.00000   -0.00000   -0.00000    0.00000    0.00000

 Eight components of 2nd-order total energy (hartree) are
 1,2,3: 0th-order hamiltonian combined with 1st-order wavefunctions
     kin0=   3.62700071E+01 eigvalue=  -3.72641955E-01  local=  -1.33317577E+01
 4,5,6: 1st-order hamiltonian combined with 1st and 0th-order wfs
     kin1=  -9.92479450E+01  Hartree=   0.00000000E+00     xc=   0.00000000E+00
 7,8,9: eventually, occupation + non-local contributions
    edocc=   3.04305121E+01     enl0=   3.40064412E-01   enl1=  -7.42442281E+00
 1-9 gives the relaxation energy (to be shifted if some occ is /=2.0)
   erelax=  -5.33361839E+01
  No Ewald or frozen-wf contrib.: the relaxation energy is the total one
 2DEtotal=   -0.5333618390E+02 Ha. Also 2DEtotal=   -0.145135137382E+04 eV
    (  non-var. 2DEtotal :   -5.3336183903E+01 Ha)

 CALCULATION OF EFFECTIVE MASSES
 NOTE : Additional infos (eff. mass eigenvalues, eigenvectors and, if degenerate, average mass) are available in stdout.

 COMMENTS:
 - At k-point ( 0.000, 0.000, 0.000), bands    11 through    13
   are DEGENERATE (effective mass tensor is therefore not defined).
   See Section IIIB Eqs. (67)-(70) and Appendix E of PRB 93 205147 (2016).
 - Angular average effective mass for Frohlich model is to be averaged over degenerate bands. See later.
 - Associated theta integrals calculated with ntheta=   1000 points.

 K-point ( 0.000, 0.000, 0.000) | band =    11
 Transport equivalent effective mass tensor:
             -0.1373508099             -0.0000000002              0.0000000004
             -0.0000000002             -0.1373508102              0.0000000007
              0.0000000004              0.0000000007             -0.1373508088
 Transport equivalent effective mass tensor eigenvalues:
             -0.1373508106             -0.1373508098             -0.1373508084
 Angular average effective mass 1/(<1/m>)=  -0.1355307630
 Angular average effective mass for Frohlich model (<m**0.5>)**2=  -0.1356555707
 Effective masses along directions: (cart. coord. / red. coord. -> eff. mass)
    1:   1.000000  0.000000  0.000000 /   0.948683  0.316228  0.000000 ->  -0.1327639688
    2:   0.000000  1.000000  0.000000 /   0.000000  1.000000  0.000000 ->  -0.1288181798
    3:   0.000000  0.000000  1.000000 /   0.408248  0.408248  0.816497 ->  -0.1330725232
    4:   0.577350  0.577350  0.577350 /   0.585539  0.688047  0.428644 ->  -0.1326700076
    5:   0.000000  0.707107  0.707107 /   0.289489  0.762222  0.578977 ->  -0.1383914617
    6:   0.707107  0.000000  0.707107 /   0.731423  0.422287  0.535439 ->  -0.1329176777
    7:   0.707107  0.707107  0.000000 /   0.616798  0.787122  0.000000 ->  -0.1457093590

[...]

 K-point ( 0.000, 0.000, 0.000) | band =    13
 Transport equivalent effective mass tensor:
             -9.1393820839              0.0000102298             -0.0000003700
              0.0000102298             -9.1393797374             -0.0000002777
             -0.0000003700             -0.0000002777             -9.1393745991
 Transport equivalent effective mass tensor eigenvalues:
             -9.1393912080             -9.1393746496             -9.1393705628
 Angular average effective mass 1/(<1/m>)=  -2.0640809729
 Angular average effective mass for Frohlich model (<m**0.5>)**2=  -2.2974057243
 Effective masses along directions: (cart. coord. / red. coord. -> eff. mass)
    1:   1.000000  0.000000  0.000000 /   0.948683  0.316228  0.000000 ->  -2.1678815871
    2:   0.000000  1.000000  0.000000 /   0.000000  1.000000  0.000000 ->  -2.0887962910
    3:   0.000000  0.000000  1.000000 /   0.408248  0.408248  0.816497 ->  -4.3371810888
    4:   0.577350  0.577350  0.577350 /   0.585539  0.688047  0.428644 ->  -2.5087138916
    5:   0.000000  0.707107  0.707107 /   0.289489  0.762222  0.578977 ->  -1.8568889136
    6:   0.707107  0.000000  0.707107 /   0.731423  0.422287  0.535439 ->  -3.1334144648
    7:   0.707107  0.707107  0.000000 /   0.616798  0.787122  0.000000 ->  -1.1067124478

 Angular average effective mass for Frohlich model, averaged over degenerate bands.
 Value of     (<<m**0.5>>)**2 =     9.822394E-01
 Absolute Value of <<m**0.5>> =     9.910799E-01

 K-point ( 0.000, 0.000, 0.000) | band =    14
 Effective mass tensor:
              0.1100690746              0.0000000001             -0.0000000000
              0.0000000001              0.1100690746             -0.0000000001
             -0.0000000000             -0.0000000001              0.1100690747
 Effective mass tensor eigenvalues:
              0.1100690745              0.1100690746              0.1100690747
 Angular average effective mass 1/(<1/m>)=   0.1100690746
 Angular average effective mass for Frohlich model (<m**0.5>)**2=   0.1100690746
 Effective masses along directions: (cart. coord. / red. coord. -> eff. mass)
    1:   1.000000  0.000000  0.000000 /   0.948683  0.316228  0.000000 ->   0.1100690746
    2:   0.000000  1.000000  0.000000 /   0.000000  1.000000  0.000000 ->   0.1100690746
    3:   0.000000  0.000000  1.000000 /   0.408248  0.408248  0.816497 ->   0.1100690747
    4:   0.577350  0.577350  0.577350 /   0.585539  0.688047  0.428644 ->   0.1100690746
    5:   0.000000  0.707107  0.707107 /   0.289489  0.762222  0.578977 ->   0.1100690746
    6:   0.707107  0.000000  0.707107 /   0.731423  0.422287  0.535439 ->   0.1100690746
    7:   0.707107  0.707107  0.000000 /   0.616798  0.787122  0.000000 ->   0.1100690747

 END OF EFFECTIVE MASSES SECTION

 ---- first-order wavefunction calculations are completed ----

 Total localisation tensor (bohr^2) in cartesian coordinates
  WARNING : still subject to testing - especially symmetries.
      direction              matrix element
   alpha     beta       real part   imaginary part
     1        1      21.5880711782    0.0000000000
     1        2       6.1060285975    0.0000000000
     1        3      14.9566544422    0.0000000000
     2        1       6.1060285975    0.0000000000
     2        2      17.2704569095    0.0000000000
     2        3      10.5759517631    0.0000000000
     3        1      14.9566544422    0.0000000000
     3        2      10.5759517631    0.0000000000
     3        3      38.8585279984    0.0000000000

 respfn : d/dk was computed, but no 2DTE, so no DDB output.

== END DATASET(S) ==============================================================

 -outvars: echo values of variables after computation  --------
            acell      1.0000000000E+00  1.0000000000E+00  1.0000000000E+00 Bohr
              amu      6.35460000E+01  7.99040000E+01
             ecut      4.60000000E+01 Hartree
           etotal     -5.3336183903E+01
            fcart      0.0000000000E+00  0.0000000000E+00  0.0000000000E+00
                       0.0000000000E+00  0.0000000000E+00  0.0000000000E+00
-          fftalg         512
           irdden           1
           irdwfk           1
           istwfk        1
              ixc     -116133
           kptopt           0
P           mkmem           1
P          mkqmem           1
P          mk1mem           1
            natom           2
            nband          22
           nbdbuf           4
            ngfft          48      48      48
             nkpt           1
            nstep         100
             nsym          24
           ntypat           2
              occ      2.000000  2.000000  2.000000  2.000000  2.000000  2.000000
                       2.000000  2.000000  2.000000  2.000000  2.000000  2.000000
                       2.000000  0.000000  0.000000  0.000000  0.000000  0.000000
                       0.000000  0.000000  0.000000  0.000000
        optdriver           1
            prtwf          -1
            rfdir           1       1       1
           rfelfd           2
            rprim      6.4620064298E+00  0.0000000000E+00  3.7308411517E+00
                       2.1540021433E+00  6.0924380888E+00  3.7308411517E+00
                       0.0000000000E+00  0.0000000000E+00  7.4616823035E+00
          spgroup         216
           strten      0.0000000000E+00  0.0000000000E+00  0.0000000000E+00
                       0.0000000000E+00  0.0000000000E+00  0.0000000000E+00
           symrel      1  0  0   0  1  0   0  0  1       0 -1  1   0 -1  0   1 -1  0
                      -1  0  0  -1  0  1  -1  1  0       0  1 -1   1  0 -1   0  0 -1
                      -1  0  0  -1  1  0  -1  0  1       0 -1  1   1 -1  0   0 -1  0
                       1  0  0   0  0  1   0  1  0       0  1 -1   0  0 -1   1  0 -1
                      -1  0  1  -1  1  0  -1  0  0       0 -1  0   1 -1  0   0 -1  1
                       1  0 -1   0  0 -1   0  1 -1       0  1  0   0  0  1   1  0  0
                       1  0 -1   0  1 -1   0  0 -1       0 -1  0   0 -1  1   1 -1  0
                      -1  0  1  -1  0  0  -1  1  0       0  1  0   1  0  0   0  0  1
                       0  0 -1   0  1 -1   1  0 -1       1 -1  0   0 -1  1   0 -1  0
                       0  0  1   1  0  0   0  1  0      -1  1  0  -1  0  0  -1  0  1
                       0  0  1   0  1  0   1  0  0       1 -1  0   0 -1  0   0 -1  1
                       0  0 -1   1  0 -1   0  1 -1      -1  1  0  -1  0  1  -1  0  0
           tolwfr      1.00000000E-20
            typat      1  2
           useylm           1
           xangst      2.2796976830E+00  1.6119896907E+00  3.9485522127E+00
                       1.1398488415E+00  8.0599484533E-01  1.9742761064E+00
            xcart      4.3080042865E+00  3.0462190444E+00  7.4616823034E+00
                       2.1540021433E+00  1.5231095222E+00  3.7308411517E+00
             xred      5.0000000000E-01  5.0000000000E-01  5.0000000000E-01
                       2.5000000000E-01  2.5000000000E-01  2.5000000000E-01
            znucl       29.00000   35.00000

- Timing analysis has been suppressed with timopt=0

 Suggested references for the acknowledgment of ABINIT usage.

 Calculation completed.
.Delivered   6 WARNINGs and   5 COMMENTs to log file.