.Version 9.5.2 of ABINIT

 ABINIT is a project of the Universite Catholique de Louvain,
 Corning Inc. and other collaborators, see ~abinit/doc/developers/contributors.txt .
 acknowledgments of the ABINIT effort.

.Starting date : Wed 26 May 2021.
- ( at 02h36 )

- input  file    -> /scratch/users/j/a/jabreu/flow_simple_11atoms/flow/w241/t1/run.abi
- output file    -> /scratch/users/j/a/jabreu/flow_simple_11atoms/flow/w241/t1/run.abo
- root for input  files -> /scratch/users/j/a/jabreu/flow_simple_11atoms/flow/w241/t1/indata/in
- root for output files -> /scratch/users/j/a/jabreu/flow_simple_11atoms/flow/w241/t1/outdata/out

 Symmetries : space group P2_1/c (# 14); Bravais mP (primitive monocl.)
     intxc =       0      iscf =       7    lmnmax =      18     lnmax =       6
     mgfft =      72  mpssoang =       3    mqgrid =    3407     natom =      12
  nloc_mem =       1    nspden =       1   nspinor =       1    nsppol =       1
      nsym =       4    n1xccc =    2501    ntypat =       3    occopt =       1
   xclevel =       2
-    mband =          83        mffmem =           1         mkmem =           2
-   mkqmem =           2        mk1mem =           2           mpw =       19912
      nfft =      373248          nkpt =           2
  Rough estimation (10% accuracy) of disk space for files :

------------- Echo of variables that govern the present computation ------------
-
- outvars: echo of selected default values
-   iomode0 =  0 , fftalg0 =512 , wfoptalg0 =  0
-
- outvars: echo of global parameters not present in the input file
-  max_nthreads =    0
-
 -outvars: echo values of preprocessed input variables --------
            acell      1.0000000000E+00  1.0000000000E+00  1.0000000000E+00 Bohr
              amu      5.58470000E+01  1.21753000E+02  3.20660000E+01
             ecut      4.70000000E+01 Hartree
-          fftalg         512
           irdden           1
           irdwfk           1
           istwfk        1    1
              ixc     -116133
              kpt      0.00000000E+00  0.00000000E+00  5.00000000E-01
                       5.00000000E-01  5.00000000E-01  5.00000000E-01
           kptopt           0
P           mkmem           2
P          mkqmem           2
P          mk1mem           2
            natom          12
            nband          83
           nbdbuf           4
            ngfft          72      72      72
             nkpt           2
            nstep        2000
             nsym           4
           ntypat           3
              occ      2.000000  2.000000  2.000000  2.000000  2.000000  2.000000
                       2.000000  2.000000  2.000000  2.000000  2.000000  2.000000
                       2.000000  2.000000  2.000000  2.000000  2.000000  2.000000
                       2.000000  2.000000  2.000000  2.000000  2.000000  2.000000
                       2.000000  2.000000  2.000000  2.000000  2.000000  2.000000
                       2.000000  2.000000  2.000000  2.000000  2.000000  2.000000
                       2.000000  2.000000  2.000000  2.000000  2.000000  2.000000
                       2.000000  2.000000  2.000000  2.000000  2.000000  2.000000
                       2.000000  2.000000  2.000000  2.000000  2.000000  2.000000
                       2.000000  2.000000  2.000000  2.000000  2.000000  2.000000
                       2.000000  2.000000  2.000000  2.000000  2.000000  2.000000
                       2.000000  2.000000  2.000000  2.000000  2.000000  2.000000
                       2.000000  2.000000  0.000000  0.000000  0.000000  0.000000
                       0.000000  0.000000  0.000000  0.000000  0.000000
        optdriver           1
            prtwf          -1
            rfdir           1       1       1
           rfelfd           2
            rprim      1.1039451982E+01  0.0000000000E+00  0.0000000000E+00
                       0.0000000000E+00  1.0383585643E+01  4.3501032050E+00
                       0.0000000000E+00  0.0000000000E+00  1.1298382218E+01
          spgroup          14
           symrel      1  0  0   0  1  0   0  0  1      -1  0  0   0 -1  0   0  0 -1
                       1  0  0   0 -1  0   0  0 -1      -1  0  0   0  1  0   0  0  1
            tnons      0.0000000  0.0000000  0.0000000     0.0000000  0.0000000  0.0000000
                       0.5000000  0.5000000  0.0000000     0.5000000  0.5000000  0.0000000
           tolwfr      1.00000000E-20
            typat      1  1  1  1  2  2  2  2  3  3  3  3
           useylm           1
              wtk        0.50000    0.50000
           xangst      5.7330457354E+00  1.6658234599E+00  4.8652741248E+00
                       3.0296938413E+00  4.4132018927E+00  6.0162618603E+00
                       1.0878064911E-01  3.8289334057E+00  3.4155477102E+00
                       2.8121325431E+00  1.0815549729E+00  2.2645599747E+00
                       2.1419056439E+00  2.0239772072E+00  5.9466799591E+00
                       3.6999207406E+00  3.4707796584E+00  2.3341418759E+00
                       7.7900754837E-01  4.7713556400E+00  7.0976676947E+00
                       5.0628188361E+00  7.2340122563E-01  1.1831541403E+00
                       2.0980977878E+00  4.5619064978E+00  4.0558925822E+00
                       3.7437285967E+00  9.3285036783E-01  4.2249292528E+00
                       5.0190109800E+00  3.6802288006E+00  5.3759169883E+00
                       8.2281540443E-01  1.8145280650E+00  2.9049048466E+00
            xcart      1.0833886347E+01  3.1479501250E+00  9.1940356572E+00
                       5.7252916266E+00  8.3397429464E+00  1.1369087260E+01
                       2.0556563537E-01  7.2356355178E+00  6.4544497661E+00
                       5.3141603559E+00  2.0438426964E+00  4.2793981636E+00
                       4.0476150694E+00  3.8247626208E+00  1.1237596523E+01
                       6.9918369131E+00  6.5588230220E+00  4.4108889007E+00
                       1.4721109219E+00  9.0165554422E+00  1.3412648125E+01
                       9.5673410606E+00  1.3670302006E+00  2.2358372982E+00
                       3.9648302190E+00  8.6207539246E+00  7.6645262048E+00
                       7.0746217635E+00  1.7628317182E+00  7.9839592185E+00
                       9.4845562102E+00  6.9546245396E+00  1.0159010821E+01
                       1.5548957723E+00  3.4289611032E+00  5.4894746023E+00
             xred      9.8137900000E-01  3.0316600000E-01  6.9702300000E-01
                       5.1862100000E-01  8.0316600000E-01  6.9702300000E-01
                       1.8621000000E-02  6.9683400000E-01  3.0297700000E-01
                       4.8137900000E-01  1.9683400000E-01  3.0297700000E-01
                       3.6665000000E-01  3.6834700000E-01  8.5279900000E-01
                       6.3335000000E-01  6.3165300000E-01  1.4720100000E-01
                       1.3335000000E-01  8.6834700000E-01  8.5279900000E-01
                       8.6665000000E-01  1.3165300000E-01  1.4720100000E-01
                       3.5915100000E-01  8.3022900000E-01  3.5871900000E-01
                       6.4084900000E-01  1.6977100000E-01  6.4128100000E-01
                       8.5915100000E-01  6.6977100000E-01  6.4128100000E-01
                       1.4084900000E-01  3.3022900000E-01  3.5871900000E-01
            znucl       26.00000   51.00000   16.00000

 chkinp: Checking input parameters for consistency.

== DATASET  1 ==================================================================
-   mpi_nproc: 1, omp_nthreads: -1 (-1 if OMP is not activated)

--- !DatasetInfo
iteration_state: {dtset: 1, }
dimensions: {natom: 12, nkpt: 2, mband: 83, nsppol: 1, nspinor: 1, nspden: 1, mpw: 19912, }
cutoff_energies: {ecut:  47.0, pawecutdg:  -1.0, }
electrons: {nelect:   1.48000000E+02, charge:   0.00000000E+00, occopt:   1.00000000E+00, tsmear:   1.00000000E-02, }
meta: {optdriver: 1, rfelfd: 2, }
...

 Real(R)+Recip(G) space primitive vectors, cartesian coordinates (Bohr,Bohr^-1):
 R(1)= 11.0394520  0.0000000  0.0000000  G(1)=  0.0905842  0.0000000  0.0000000
 R(2)=  0.0000000 10.3835856  4.3501032  G(2)=  0.0000000  0.0963058  0.0000000
 R(3)=  0.0000000  0.0000000 11.2983822  G(3)=  0.0000000 -0.0370797  0.0885082
 Unit cell volume ucvol=  1.2951233E+03 bohr^3
 Angles (23,13,12)=  6.72692224E+01  9.00000000E+01  9.00000000E+01 degrees

 getcut: wavevector=  0.0000  0.0000  0.0000  ngfft=  72  72  72
         ecut(hartree)=     47.000   => boxcut(ratio)=   2.06493

--- Pseudopotential description ------------------------------------------------
- pspini: atom type   1  psp file is /scratch/users/j/a/jabreu/pseudos/PBEsol/Fe.psp8
- pspatm: opening atomic psp file    /scratch/users/j/a/jabreu/pseudos/PBEsol/Fe.psp8
- Fe    ONCVPSP-3.3.0  r_core=   1.26437   1.20546   1.56719
- 26.00000  16.00000    180112                znucl, zion, pspdat
    8 -116133    2    4       600   0.00000   pspcod,pspxc,lmax,lloc,mmax,r2well
    5.99000000000000    3.00000000000000    0.00000000000000   rchrg,fchrg,qchrg
     nproj     2     2     2
     extension_switch     1
  pspatm : epsatm=   15.04792780
         --- l  ekb(1:nproj) -->
             0   10.133364    1.456638
             1    1.580231   -0.508538
             2   -5.545701   -2.037616
 pspatm: atomic psp has been read  and splines computed

- pspini: atom type   2  psp file is /scratch/users/j/a/jabreu/pseudos/PBEsol/Sb.psp8
- pspatm: opening atomic psp file    /scratch/users/j/a/jabreu/pseudos/PBEsol/Sb.psp8
- Sb    ONCVPSP-3.3.0  r_core=   1.81962   2.12485   1.81962
- 51.00000  15.00000    180112                znucl, zion, pspdat
    8 -116133    2    4       600   0.00000   pspcod,pspxc,lmax,lloc,mmax,r2well
    5.99000000000000    5.00000000000000    0.00000000000000   rchrg,fchrg,qchrg
     nproj     2     2     2
     extension_switch     1
  pspatm : epsatm=   26.35641246
         --- l  ekb(1:nproj) -->
             0    9.727814    1.485032
             1    5.505335    0.704623
             2   -4.710637   -1.436443
 pspatm: atomic psp has been read  and splines computed

- pspini: atom type   3  psp file is /scratch/users/j/a/jabreu/pseudos/PBEsol/S.psp8
- pspatm: opening atomic psp file    /scratch/users/j/a/jabreu/pseudos/PBEsol/S.psp8
- S     ONCVPSP-3.3.0  r_core=   1.45376   1.45376   1.61851
- 16.00000   6.00000    180112                znucl, zion, pspdat
    8 -116133    2    4       600   0.00000   pspcod,pspxc,lmax,lloc,mmax,r2well
    5.99000000000000    6.00000000000000    0.00000000000000   rchrg,fchrg,qchrg
     nproj     2     2     2
     extension_switch     1
  pspatm : epsatm=    8.71840985
         --- l  ekb(1:nproj) -->
             0    6.834532    0.579453
             1    3.282851    0.896984
             2   -3.496974   -0.974265
 pspatm: atomic psp has been read  and splines computed

   2.96726681E+04                                ecore*ucvol(ha*bohr**3)

 ==>  initialize data related to q vector <==

 The list of irreducible perturbations for this q vector is:
    1)    idir= 1    ipert=  13
    2)    idir= 2    ipert=  13
    3)    idir= 3    ipert=  13

 Perturbation wavevector (in red.coord.)   0.000000  0.000000  0.000000
[...]
 ETOT 57  -80.535691897709     -1.421E-14 1.269E-12 0.000E+00
 ETOT 58  -80.535691897709      4.263E-14 7.817E-13 0.000E+00
 ETOT 59  -80.535691897709     -4.263E-14 5.493E-13 0.000E+00
 ETOT 60  -80.535691897709      4.263E-14 3.383E-13 0.000E+00
 ETOT 61  -80.535691897709     -2.842E-14 2.378E-13 0.000E+00
[...]
 ETOT 88  -80.535691897709      1.421E-14 2.749E-18 0.000E+00
 ETOT 89  -80.535691897709     -1.421E-14 1.943E-18 0.000E+00
 ETOT 90  -80.535691897709      0.000E+00 1.191E-18 0.000E+00
 ETOT 91  -80.535691897709      0.000E+00 8.414E-19 0.000E+00
 ETOT 92  -80.535691897709      0.000E+00 5.156E-19 0.000E+00
 ETOT 93  -80.535691897709     -1.421E-14 3.645E-19 0.000E+00
 ETOT 94  -80.535691897709      1.421E-14 2.233E-19 0.000E+00
 ETOT 95  -80.535691897709     -1.421E-14 1.579E-19 0.000E+00
 ETOT 96  -80.535691897709      0.000E+00 9.671E-20 0.000E+00
 ETOT 97  -80.535691897709     -4.263E-14 6.840E-20 0.000E+00
 ETOT 98  -80.535691897709      4.263E-14 4.188E-20 0.000E+00
 ETOT 99  -80.535691897709      1.421E-14 2.963E-20 0.000E+00
 ETOT  100  -80.535691897709     -1.421E-14 1.814E-20 0.000E+00
 ETOT  101  -80.535691897709      1.421E-14 1.284E-20 0.000E+00
 ETOT  102  -80.535691897709      0.000E+00 9.993E-21 0.000E+00

 At SCF step  102   max residual=  9.99E-21 < tolwfr=  1.00E-20 =>converged.

 ----iterations are completed or convergence reached----

 dfpt_looppert: DFPT cycle converged with prtwf=-1. Will skip output of the 1st-order WFK file.
 dfpt_looppert : ek2=    1.0760826576E+02
          f-sum rule ratio=    1.0320289915E+00
 prteigrs : about to open file /scratch/users/j/a/jabreu/flow_simple_11atoms/flow/w241/t1/tmpdata/tmp_1WF1_EIG
 Expectation of eigenvalue derivatives (hartree) for nkpt=   2  k points:
  (in case of degenerate eigenvalues, averaged derivative)
 kpt#   1, nband= 83, wtk=  0.50000, kpt=  0.0000  0.0000  0.5000 (reduced coord)
   0.00000   -0.00000   -0.00000   -0.00000    0.00000    0.00000   -0.00000    0.00000
   0.00000    0.00000    0.00000    0.00000   -0.00000   -0.00000    0.00000    0.00000
   0.00000    0.00000   -0.00000    0.00000    0.00000   -0.00000   -0.00000   -0.00000
  -0.00000   -0.00000    0.00000   -0.00000   -0.00000   -0.00000   -0.00000   -0.00000
  -0.00000   -0.00000    0.00000    0.00000    0.00000   -0.00000    0.00000    0.00000
  -0.00000    0.00000   -0.00000    0.00000   -0.00000    0.00000    0.00000    0.00000
   0.00000   -0.00000   -0.00000   -0.00000    0.00000   -0.00000    0.00000   -0.00000
   0.00000    0.00000   -0.00000    0.00000   -0.00000    0.00000    0.00000    0.00000
   0.00000    0.00000   -0.00000   -0.00000    0.00000    0.00000    0.00000   -0.00000
  -0.00000   -0.00000    0.00000   -0.00000   -0.00000   -0.00000    0.00000   -0.00000
  -0.00000   -0.00000    0.00000
 prteigrs : prtvol=0 or 1, do not print more k-points.

 Eight components of 2nd-order total energy (hartree) are
 1,2,3: 0th-order hamiltonian combined with 1st-order wavefunctions
     kin0=   1.62067341E+02 eigvalue=  -6.77098281E+00  local=  -8.97883215E+01
 4,5,6: 1st-order hamiltonian combined with 1st and 0th-order wfs
     kin1=  -1.11054850E+02  Hartree=   0.00000000E+00     xc=   0.00000000E+00
 7,8,9: eventually, occupation + non-local contributions
    edocc=   1.08572901E+01     enl0=   4.17036471E+00   enl1=  -5.00165338E+01
 1-9 gives the relaxation energy (to be shifted if some occ is /=2.0)
   erelax=  -8.05356919E+01
  No Ewald or frozen-wf contrib.: the relaxation energy is the total one
 2DEtotal=   -0.8053569190E+02 Ha. Also 2DEtotal=   -0.219148762666E+04 eV
    (  non-var. 2DEtotal :   -8.0535691897E+01 Ha)

 CALCULATION OF EFFECTIVE MASSES
 NOTE : Additional infos (eff. mass eigenvalues, eigenvectors and, if degenerate, average mass) are available in stdout.

--- !WARNING
src_file: m_efmas.F90
src_line: 0
message: |
    Effective masses calculations require given k-point(s) to be band extrema for given bands, but max abs gradient of band(s) was found to be greater than 1e-5. Abinit will continue anyway.
...

--- !WARNING
src_file: m_efmas.F90
src_line: 0
message: |
    Effective masses calculations require given k-point(s) to be band extrema for given bands, but max abs gradient of band(s) was found to be greater than 1e-5. Abinit will continue anyway.
...

 K-point ( 0.000, 0.000, 0.500) | band =    74
 Effective mass tensor:
             -1.0497502652              0.0000000124             -0.0000000120
              0.0000000124             -1.7163197257              0.1934790067
             -0.0000000120              0.1934790067             -0.6309490942
 Effective mass tensor eigenvalues:
             -1.7497780361             -1.0497502652             -0.5974907838
 Angular average effective mass 1/(<1/m>)=  -0.9381524367
 Angular average effective mass for Frohlich model (<m**0.5>)**2=  -0.9927574936
 Effective masses along directions: (cart. coord. / red. coord. -> eff. mass)
    1:   1.000000  0.000000  0.000000 /   1.000000  0.000000  0.000000 ->  -1.0497502652
    2:   0.000000  1.000000  0.000000 /   0.000000  1.000000  0.000000 ->  -1.6569898583
    3:   0.000000  0.000000  1.000000 /   0.000000  0.359308  0.933219 ->  -0.6091383992
    4:   0.577350  0.577350  0.577350 /   0.511061  0.682083  0.523048 ->  -0.8408305972
    5:   0.000000  0.707107  0.707107 /   0.000000  0.793540  0.608518 ->  -0.7647326385
    6:   0.707107  0.000000  0.707107 /   0.673781  0.265504  0.689585 ->  -0.7709296206
    7:   0.707107  0.707107  0.000000 /   0.728414  0.685138  0.000000 ->  -1.2852549212

 COMMENTS:
 - At k-point ( 0.500, 0.500, 0.500), bands    75 through    76
   are DEGENERATE (effective mass tensor is therefore not defined).
   See Section IIIB Eqs. (67)-(70) and Appendix E of PRB 93 205147 (2016).
 - Angular average effective mass for Frohlich model is to be averaged over degenerate bands. See later.
 - Associated theta integrals calculated with ntheta=   1000 points.

 K-point ( 0.500, 0.500, 0.500) | band =    75
 Transport equivalent effective mass tensor:
              4.6658731672             -0.0025064171              0.0018705927
             -0.0025064171            103.0793068616            -57.2227973916
              0.0018705927            -57.2227973916             39.8913407607
 Transport equivalent effective mass tensor eigenvalues:
            136.8506687262              6.1199790473              4.6658730159
 Angular average effective mass 1/(<1/m>)=   1.6186576317
 Angular average effective mass for Frohlich model (<m**0.5>)**2=   2.5691482812
 Effective masses along directions: (cart. coord. / red. coord. -> eff. mass)
    1:   1.000000  0.000000  0.000000 /   1.000000  0.000000  0.000000 ->   0.5590617558
    2:   0.000000  1.000000  0.000000 /   0.000000  1.000000  0.000000 ->   1.9744928366
    3:   0.000000  0.000000  1.000000 /   0.000000  0.359308  0.933219 ->   0.7673321122
    4:   0.577350  0.577350  0.577350 /   0.511061  0.682083  0.523048 ->   1.9374496203
    5:   0.000000  0.707107  0.707107 /   0.000000  0.793540  0.608518 ->   0.6134293012
    6:   0.707107  0.000000  0.707107 /   0.673781  0.265504  0.689585 ->   2.5965612058
    7:   0.707107  0.707107  0.000000 /   0.728414  0.685138  0.000000 ->   1.9782558742

 K-point ( 0.500, 0.500, 0.500) | band =    76
 Transport equivalent effective mass tensor:
              0.3466636636             -0.0000163285              0.0000114542
             -0.0000163285             10.1928855313             -5.4951827939
              0.0000114542             -5.4951827939              3.7592816173
 Transport equivalent effective mass tensor eigenvalues:
             13.3435672822              0.6085998665              0.3466636636
 Angular average effective mass 1/(<1/m>)=   0.5614384457
 Angular average effective mass for Frohlich model (<m**0.5>)**2=   0.7437532205
 Effective masses along directions: (cart. coord. / red. coord. -> eff. mass)
    1:   1.000000  0.000000  0.000000 /   1.000000  0.000000  0.000000 ->   0.5590614618
    2:   0.000000  1.000000  0.000000 /   0.000000  1.000000  0.000000 ->   1.9744023829
    3:   0.000000  0.000000  1.000000 /   0.000000  0.359308  0.933219 ->   0.7673280207
    4:   0.577350  0.577350  0.577350 /   0.511061  0.682083  0.523048 ->   0.3508887579
    5:   0.000000  0.707107  0.707107 /   0.000000  0.793540  0.608518 ->   0.6134283723
    6:   0.707107  0.000000  0.707107 /   0.673781  0.265504  0.689585 ->   0.3694388755
    7:   0.707107  0.707107  0.000000 /   0.728414  0.685138  0.000000 ->   0.5587574913

 Angular average effective mass for Frohlich model, averaged over degenerate bands.
 Value of     (<<m**0.5>>)**2 =     1.519386E+00
 Absolute Value of <<m**0.5>> =     1.232634E+00

 END OF EFFECTIVE MASSES SECTION

 ---- first-order wavefunction calculations are completed ----

 Total localisation tensor (bohr^2) in cartesian coordinates
  WARNING : still subject to testing - especially symmetries.
      direction              matrix element
   alpha     beta       real part   imaginary part
     1        1       1.5087915705    0.0000000000
     1        2       0.0000000000    0.0000000000
     1        3       0.0000000000    0.0000000000
     2        1       0.0000000000    0.0000000000
     2        2       1.1876388556    0.0000000000
     2        3       0.4975498609    0.0000000000
     3        1       0.0000000000    0.0000000000
     3        2       0.4975498609    0.0000000000
     3        3       1.8161006385    0.0000000000

 respfn : d/dk was computed, but no 2DTE, so no DDB output.

== END DATASET(S) ==============================================================

 -outvars: echo values of variables after computation  --------
            acell      1.0000000000E+00  1.0000000000E+00  1.0000000000E+00 Bohr
              amu      5.58470000E+01  1.21753000E+02  3.20660000E+01
             ecut      4.70000000E+01 Hartree
           etotal     -8.0535691898E+01
            fcart      0.0000000000E+00  0.0000000000E+00  0.0000000000E+00
                       0.0000000000E+00  0.0000000000E+00  0.0000000000E+00
                       0.0000000000E+00  0.0000000000E+00  0.0000000000E+00
                       0.0000000000E+00  0.0000000000E+00  0.0000000000E+00
                       0.0000000000E+00  0.0000000000E+00  0.0000000000E+00
                       0.0000000000E+00  0.0000000000E+00  0.0000000000E+00
                       0.0000000000E+00  0.0000000000E+00  0.0000000000E+00
                       0.0000000000E+00  0.0000000000E+00  0.0000000000E+00
                       0.0000000000E+00  0.0000000000E+00  0.0000000000E+00
                       0.0000000000E+00  0.0000000000E+00  0.0000000000E+00
                       0.0000000000E+00  0.0000000000E+00  0.0000000000E+00
                       0.0000000000E+00  0.0000000000E+00  0.0000000000E+00
-          fftalg         512
           irdden           1
           irdwfk           1
           istwfk        1    1
              ixc     -116133
              kpt      0.00000000E+00  0.00000000E+00  5.00000000E-01
                       5.00000000E-01  5.00000000E-01  5.00000000E-01
           kptopt           0
P           mkmem           2
P          mkqmem           2
P          mk1mem           2
            natom          12
            nband          83
           nbdbuf           4
            ngfft          72      72      72
             nkpt           2
            nstep        2000
             nsym           4
           ntypat           3
              occ      2.000000  2.000000  2.000000  2.000000  2.000000  2.000000
                       2.000000  2.000000  2.000000  2.000000  2.000000  2.000000
                       2.000000  2.000000  2.000000  2.000000  2.000000  2.000000
                       2.000000  2.000000  2.000000  2.000000  2.000000  2.000000
                       2.000000  2.000000  2.000000  2.000000  2.000000  2.000000
                       2.000000  2.000000  2.000000  2.000000  2.000000  2.000000
                       2.000000  2.000000  2.000000  2.000000  2.000000  2.000000
                       2.000000  2.000000  2.000000  2.000000  2.000000  2.000000
                       2.000000  2.000000  2.000000  2.000000  2.000000  2.000000
                       2.000000  2.000000  2.000000  2.000000  2.000000  2.000000
                       2.000000  2.000000  2.000000  2.000000  2.000000  2.000000
                       2.000000  2.000000  2.000000  2.000000  2.000000  2.000000
                       2.000000  2.000000  0.000000  0.000000  0.000000  0.000000
                       0.000000  0.000000  0.000000  0.000000  0.000000
        optdriver           1
            prtwf          -1
            rfdir           1       1       1
           rfelfd           2
            rprim      1.1039451982E+01  0.0000000000E+00  0.0000000000E+00
                       0.0000000000E+00  1.0383585643E+01  4.3501032050E+00
                       0.0000000000E+00  0.0000000000E+00  1.1298382218E+01
          spgroup          14
           strten      0.0000000000E+00  0.0000000000E+00  0.0000000000E+00
                       0.0000000000E+00  0.0000000000E+00  0.0000000000E+00
           symrel      1  0  0   0  1  0   0  0  1      -1  0  0   0 -1  0   0  0 -1
                       1  0  0   0 -1  0   0  0 -1      -1  0  0   0  1  0   0  0  1
            tnons      0.0000000  0.0000000  0.0000000     0.0000000  0.0000000  0.0000000
                       0.5000000  0.5000000  0.0000000     0.5000000  0.5000000  0.0000000
           tolwfr      1.00000000E-20
            typat      1  1  1  1  2  2  2  2  3  3  3  3
           useylm           1
              wtk        0.50000    0.50000
           xangst      5.7330457354E+00  1.6658234599E+00  4.8652741248E+00
                       3.0296938413E+00  4.4132018927E+00  6.0162618603E+00
                       1.0878064911E-01  3.8289334057E+00  3.4155477102E+00
                       2.8121325431E+00  1.0815549729E+00  2.2645599747E+00
                       2.1419056439E+00  2.0239772072E+00  5.9466799591E+00
                       3.6999207406E+00  3.4707796584E+00  2.3341418759E+00
                       7.7900754837E-01  4.7713556400E+00  7.0976676947E+00
                       5.0628188361E+00  7.2340122563E-01  1.1831541403E+00
                       2.0980977878E+00  4.5619064978E+00  4.0558925822E+00
                       3.7437285967E+00  9.3285036783E-01  4.2249292528E+00
                       5.0190109800E+00  3.6802288006E+00  5.3759169883E+00
                       8.2281540443E-01  1.8145280650E+00  2.9049048466E+00
            xcart      1.0833886347E+01  3.1479501250E+00  9.1940356572E+00
                       5.7252916266E+00  8.3397429464E+00  1.1369087260E+01
                       2.0556563537E-01  7.2356355178E+00  6.4544497661E+00
                       5.3141603559E+00  2.0438426964E+00  4.2793981636E+00
                       4.0476150694E+00  3.8247626208E+00  1.1237596523E+01
                       6.9918369131E+00  6.5588230220E+00  4.4108889007E+00
                       1.4721109219E+00  9.0165554422E+00  1.3412648125E+01
                       9.5673410606E+00  1.3670302006E+00  2.2358372982E+00
                       3.9648302190E+00  8.6207539246E+00  7.6645262048E+00
                       7.0746217635E+00  1.7628317182E+00  7.9839592185E+00
                       9.4845562102E+00  6.9546245396E+00  1.0159010821E+01
                       1.5548957723E+00  3.4289611032E+00  5.4894746023E+00
             xred      9.8137900000E-01  3.0316600000E-01  6.9702300000E-01
                       5.1862100000E-01  8.0316600000E-01  6.9702300000E-01
                       1.8621000000E-02  6.9683400000E-01  3.0297700000E-01
                       4.8137900000E-01  1.9683400000E-01  3.0297700000E-01
                       3.6665000000E-01  3.6834700000E-01  8.5279900000E-01
                       6.3335000000E-01  6.3165300000E-01  1.4720100000E-01
                       1.3335000000E-01  8.6834700000E-01  8.5279900000E-01
                       8.6665000000E-01  1.3165300000E-01  1.4720100000E-01
                       3.5915100000E-01  8.3022900000E-01  3.5871900000E-01
                       6.4084900000E-01  1.6977100000E-01  6.4128100000E-01
                       8.5915100000E-01  6.6977100000E-01  6.4128100000E-01
                       1.4084900000E-01  3.3022900000E-01  3.5871900000E-01
            znucl       26.00000   51.00000   16.00000

- Timing analysis has been suppressed with timopt=0

 Suggested references for the acknowledgment of ABINIT usage.

 Calculation completed.
.Delivered   6 WARNINGs and   5 COMMENTs to log file.