.Version 9.5.1 of ABINIT

 ABINIT is a project of the Universite Catholique de Louvain,
 Corning Inc. and other collaborators, see ~abinit/doc/developers/contributors.txt .
 acknowledgments of the ABINIT effort.

.Starting date : Tue 11 May 2021.
- ( at 22h00 )

- input  file    -> /scratch/users/j/a/jabreu/flow_simple_8atoms/flow/w378/t1/run.abi
- output file    -> /scratch/users/j/a/jabreu/flow_simple_8atoms/flow/w378/t1/run.abo
- root for input  files -> /scratch/users/j/a/jabreu/flow_simple_8atoms/flow/w378/t1/indata/in
- root for output files -> /scratch/users/j/a/jabreu/flow_simple_8atoms/flow/w378/t1/outdata/out

 Symmetries : space group Fm -3 m (#225); Bravais cF (face-center cubic)
     intxc =       0      iscf =       7    lmnmax =      18     lnmax =       6
     mgfft =      72  mpssoang =       3    mqgrid =    3001     natom =       8
  nloc_mem =       1    nspden =       1   nspinor =       1    nsppol =       1
      nsym =      48    n1xccc =    2501    ntypat =       3    occopt =       1
   xclevel =       2
-    mband =          42        mffmem =           1         mkmem =           1
-   mkqmem =           1        mk1mem =           1           mpw =       14163
      nfft =      373248          nkpt =           1
  Rough estimation (10% accuracy) of disk space for files :

------------- Echo of variables that govern the present computation ------------
-
- outvars: echo of selected default values
-   iomode0 =  0 , fftalg0 =512 , wfoptalg0 =  0
-
- outvars: echo of global parameters not present in the input file
-  max_nthreads =    0
-
 -outvars: echo values of preprocessed input variables --------
            acell      1.0000000000E+00  1.0000000000E+00  1.0000000000E+00 Bohr
              amu      4.00780000E+01  2.07200000E+02  1.89984032E+01
             ecut      4.20000000E+01 Hartree
-          fftalg         512
           irdden           1
           irdwfk           1
           istwfk        1
              ixc     -116133
           kptopt           0
P           mkmem           1
P          mkqmem           1
P          mk1mem           1
            natom           8
            nband          42
           nbdbuf           4
            ngfft          72      72      72
             nkpt           1
            nstep        2000
             nsym          48
           ntypat           3
              occ      2.000000  2.000000  2.000000  2.000000  2.000000  2.000000
                       2.000000  2.000000  2.000000  2.000000  2.000000  2.000000
                       2.000000  2.000000  2.000000  2.000000  2.000000  2.000000
                       2.000000  2.000000  2.000000  2.000000  2.000000  2.000000
                       2.000000  2.000000  2.000000  2.000000  2.000000  2.000000
                       2.000000  2.000000  2.000000  0.000000  0.000000  0.000000
                       0.000000  0.000000  0.000000  0.000000  0.000000  0.000000
        optdriver           1
            prtwf          -1
            rfdir           1       1       1
           rfelfd           2
            rprim      9.9810506181E+00  0.0000000000E+00  5.7625622611E+00
                       3.3270168727E+00  9.4102247672E+00  5.7625622611E+00
                       0.0000000000E+00  0.0000000000E+00  1.1525124522E+01
          spgroup         225
           symrel      1  0  0   0  1  0   0  0  1      -1  0  0   0 -1  0   0  0 -1
                       0 -1  1   0 -1  0   1 -1  0       0  1 -1   0  1  0  -1  1  0
                      -1  0  0  -1  0  1  -1  1  0       1  0  0   1  0 -1   1 -1  0
                       0  1 -1   1  0 -1   0  0 -1       0 -1  1  -1  0  1   0  0  1
                      -1  0  0  -1  1  0  -1  0  1       1  0  0   1 -1  0   1  0 -1
                       0 -1  1   1 -1  0   0 -1  0       0  1 -1  -1  1  0   0  1  0
                       1  0  0   0  0  1   0  1  0      -1  0  0   0  0 -1   0 -1  0
                       0  1 -1   0  0 -1   1  0 -1       0 -1  1   0  0  1  -1  0  1
                      -1  0  1  -1  1  0  -1  0  0       1  0 -1   1 -1  0   1  0  0
                       0 -1  0   1 -1  0   0 -1  1       0  1  0  -1  1  0   0  1 -1
                       1  0 -1   0  0 -1   0  1 -1      -1  0  1   0  0  1   0 -1  1
                       0  1  0   0  0  1   1  0  0       0 -1  0   0  0 -1  -1  0  0
                       1  0 -1   0  1 -1   0  0 -1      -1  0  1   0 -1  1   0  0  1
                       0 -1  0   0 -1  1   1 -1  0       0  1  0   0  1 -1  -1  1  0
                      -1  0  1  -1  0  0  -1  1  0       1  0 -1   1  0  0   1 -1  0
                       0  1  0   1  0  0   0  0  1       0 -1  0  -1  0  0   0  0 -1
                       0  0 -1   0  1 -1   1  0 -1       0  0  1   0 -1  1  -1  0  1
                       1 -1  0   0 -1  1   0 -1  0      -1  1  0   0  1 -1   0  1  0
                       0  0  1   1  0  0   0  1  0       0  0 -1  -1  0  0   0 -1  0
                      -1  1  0  -1  0  0  -1  0  1       1 -1  0   1  0  0   1  0 -1
                       0  0  1   0  1  0   1  0  0       0  0 -1   0 -1  0  -1  0  0
                       1 -1  0   0 -1  0   0 -1  1      -1  1  0   0  1  0   0  1 -1
                       0  0 -1   1  0 -1   0  1 -1       0  0  1  -1  0  1   0 -1  1
                      -1  1  0  -1  0  1  -1  0  0       1 -1  0   1  0 -1   1  0  0
           tolwfr      1.00000000E-20
            typat      1  2  3  3  3  3  3  3
           useylm           1
           xangst      0.0000000000E+00  0.0000000000E+00  0.0000000000E+00
                       3.5211630033E+00  2.4898382373E+00  6.0988332233E+00
                       2.6723690555E+00  3.6902141498E+00  7.5689874660E+00
                       4.3699569510E+00  1.2894623247E+00  7.5689874660E+00
                       4.3699569510E+00  1.2894623247E+00  4.6286789807E+00
                       5.2187508988E+00  3.6902141498E+00  6.0988332233E+00
                       1.8235751078E+00  1.2894623247E+00  6.0988332233E+00
                       2.6723690555E+00  3.6902141498E+00  4.6286789807E+00
            xcart      0.0000000000E+00  0.0000000000E+00  0.0000000000E+00
                       6.6540337454E+00  4.7051123836E+00  1.1525124522E+01
                       5.0500456409E+00  6.9734941149E+00  1.4303313414E+01
                       8.2580218499E+00  2.4367306523E+00  1.4303313414E+01
                       8.2580218499E+00  2.4367306523E+00  8.7469356305E+00
                       9.8620099544E+00  6.9734941149E+00  1.1525124522E+01
                       3.4460575364E+00  2.4367306523E+00  1.1525124522E+01
                       5.0500456409E+00  6.9734941149E+00  8.7469356305E+00
             xred      0.0000000000E+00  0.0000000000E+00  0.0000000000E+00
                       5.0000000000E-01  5.0000000000E-01  5.0000000000E-01
                       2.5894500000E-01  7.4105500000E-01  7.4105500000E-01
                       7.4105500000E-01  2.5894500000E-01  7.4105500000E-01
                       7.4105500000E-01  2.5894500000E-01  2.5894500000E-01
                       7.4105500000E-01  7.4105500000E-01  2.5894500000E-01
                       2.5894500000E-01  2.5894500000E-01  7.4105500000E-01
                       2.5894500000E-01  7.4105500000E-01  2.5894500000E-01
            znucl       20.00000   82.00000    9.00000

 chkinp: Checking input parameters for consistency.

== DATASET  1 ==================================================================
-   mpi_nproc: 1, omp_nthreads: -1 (-1 if OMP is not activated)

--- !DatasetInfo
iteration_state: {dtset: 1, }
dimensions: {natom: 8, nkpt: 1, mband: 42, nsppol: 1, nspinor: 1, nspden: 1, mpw: 14163, }
cutoff_energies: {ecut:  42.0, pawecutdg:  -1.0, }
electrons: {nelect:   6.60000000E+01, charge:   0.00000000E+00, occopt:   1.00000000E+00, tsmear:   1.00000000E-02, }
meta: {optdriver: 1, rfelfd: 2, }
...

 Real(R)+Recip(G) space primitive vectors, cartesian coordinates (Bohr,Bohr^-1):
 R(1)=  9.9810506  0.0000000  5.7625623  G(1)=  0.1001899 -0.0354225  0.0000000
 R(2)=  3.3270169  9.4102248  5.7625623  G(2)=  0.0000000  0.1062674  0.0000000
 R(3)=  0.0000000  0.0000000 11.5251245  G(3)= -0.0500949 -0.0354225  0.0867670
 Unit cell volume ucvol=  1.0824850E+03 bohr^3
 Angles (23,13,12)=  6.00000000E+01  6.00000000E+01  6.00000000E+01 degrees

 getcut: wavevector=  0.0000  0.0000  0.0000  ngfft=  72  72  72
         ecut(hartree)=     42.000   => boxcut(ratio)=   2.14140

--- Pseudopotential description ------------------------------------------------
- pspini: atom type   1  psp file is /scratch/users/j/a/jabreu/pseudos/PBEsol/Ca.psp8
- pspatm: opening atomic psp file    /scratch/users/j/a/jabreu/pseudos/PBEsol/Ca.psp8
- Ca    ONCVPSP-3.3.0  r_core=   1.45885   1.45885   1.85192
- 20.00000  10.00000    180112                znucl, zion, pspdat
    8 -116133    2    4       400   0.00000   pspcod,pspxc,lmax,lloc,mmax,r2well
    3.99000000000000    6.00000000000000    0.00000000000000   rchrg,fchrg,qchrg
     nproj     2     2     2
     extension_switch     1
  pspatm : epsatm=   12.46045226
         --- l  ekb(1:nproj) -->
             0   10.054847    0.973777
             1    2.998958    0.458102
             2   -3.447298   -1.091650
 pspatm: atomic psp has been read  and splines computed

- pspini: atom type   2  psp file is /scratch/users/j/a/jabreu/pseudos/PBEsol/Pb.psp8
- pspatm: opening atomic psp file    /scratch/users/j/a/jabreu/pseudos/PBEsol/Pb.psp8
- Pb    ONCVPSP-3.3.0  r_core=   2.42823   2.42823   2.10438
- 82.00000  14.00000    180112                znucl, zion, pspdat
    8 -116133    2    4       600   0.00000   pspcod,pspxc,lmax,lloc,mmax,r2well
    5.99000000000000    6.00000000000000    0.00000000000000   rchrg,fchrg,qchrg
     nproj     2     2     2
     extension_switch     1
  pspatm : epsatm=   44.32675151
         --- l  ekb(1:nproj) -->
             0    6.256780    1.206521
             1    4.272336    0.573876
             2   -3.251371   -0.847363
 pspatm: atomic psp has been read  and splines computed

- pspini: atom type   3  psp file is /scratch/users/j/a/jabreu/pseudos/PBEsol/F.psp8
- pspatm: opening atomic psp file    /scratch/users/j/a/jabreu/pseudos/PBEsol/F.psp8
- F     ONCVPSP-3.3.0  r_core=   1.30942   1.45782   1.60379
-  9.00000   7.00000    180112                znucl, zion, pspdat
    8 -116133    2    4       600   0.00000   pspcod,pspxc,lmax,lloc,mmax,r2well
    5.99000000000000    2.50000000000000    0.00000000000000   rchrg,fchrg,qchrg
     nproj     2     2     1
     extension_switch     1
  pspatm : epsatm=    4.89824824
         --- l  ekb(1:nproj) -->
             0    6.506434    1.065875
             1   -3.978753   -1.295852
             2   -2.394754
 pspatm: atomic psp has been read  and splines computed

   5.68766175E+03                                ecore*ucvol(ha*bohr**3)

-inwffil : will read wavefunctions from disk file /scratch/users/j/a/jabreu/flow_simple_8atoms/flow/w378/t1/indata/in_WFK

 ==>  initialize data related to q vector <==

 The list of irreducible perturbations for this q vector is:
    1)    idir= 1    ipert=   9
[...]

[...]

 Perturbation wavevector (in red.coord.)   0.000000  0.000000  0.000000
 Perturbation : derivative vs k along direction   3
 The set of symmetries contains only one element for this perturbation.
 symkpt : not enough symmetry to change the number of k points.

-inwffil : will read wavefunctions from disk file /scratch/users/j/a/jabreu/flow_simple_8atoms/flow/w378/t1/indata/in_WFK

 Initialisation of the first-order wave-functions :
  ireadwf=   0

--- !BeginCycle
iteration_state: {dtset: 1, }
solver: {iscf: 7, nstep: 2000, nline: 4, wfoptalg: 0, }
tolerances: {tolwfr: 1.00E-20, }
...

     iter   2DEtotal(Ha)        deltaE(Ha) residm    vres2
-ETOT  1  -39.055807619117     -3.906E+01 4.021E-02 0.000E+00
 ETOT  2  -39.099851918877     -4.404E-02 4.088E-03 0.000E+00
 ETOT  3  -39.100225855685     -3.739E-04 3.855E-04 0.000E+00
 ETOT  4  -39.100232777428     -6.922E-06 1.406E-04 0.000E+00
 ETOT  5  -39.100232940864     -1.634E-07 2.249E-05 0.000E+00
 ETOT  6  -39.100232945266     -4.402E-09 5.588E-06 0.000E+00
 ETOT  7  -39.100232945397     -1.310E-10 9.899E-07 0.000E+00
 ETOT  8  -39.100232945401     -4.249E-12 2.799E-07 0.000E+00
 ETOT  9  -39.100232945402     -1.208E-13 5.578E-08 0.000E+00
 ETOT 10  -39.100232945402     -2.842E-14 1.677E-08 0.000E+00
 ETOT 11  -39.100232945402      7.105E-15 3.380E-09 0.000E+00
 ETOT 12  -39.100232945402      7.105E-15 1.036E-09 0.000E+00
 ETOT 13  -39.100232945402     -1.421E-14 2.092E-10 0.000E+00
 ETOT 14  -39.100232945402     -7.105E-15 6.462E-11 0.000E+00
 ETOT 15  -39.100232945402      7.105E-15 1.307E-11 0.000E+00
 ETOT 16  -39.100232945402      7.105E-15 4.055E-12 0.000E+00
 ETOT 17  -39.100232945402      0.000E+00 8.204E-13 0.000E+00
 ETOT 18  -39.100232945402     -7.105E-15 2.553E-13 0.000E+00
 ETOT 19  -39.100232945402      0.000E+00 5.169E-14 0.000E+00
 ETOT 20  -39.100232945402      0.000E+00 1.612E-14 0.000E+00
 ETOT 21  -39.100232945402      0.000E+00 3.265E-15 0.000E+00
 ETOT 22  -39.100232945402      0.000E+00 1.020E-15 0.000E+00
 ETOT 23  -39.100232945402      0.000E+00 2.069E-16 0.000E+00
 ETOT 24  -39.100232945402      0.000E+00 6.486E-17 0.000E+00
 ETOT 25  -39.100232945402      7.105E-15 1.321E-17 0.000E+00
 ETOT 26  -39.100232945402      0.000E+00 4.187E-18 0.000E+00
 ETOT 27  -39.100232945402     -7.105E-15 8.727E-19 0.000E+00
 ETOT 28  -39.100232945402      0.000E+00 2.885E-19 0.000E+00
 ETOT 29  -39.100232945402      7.105E-15 6.611E-20 0.000E+00
 ETOT 30  -39.100232945402     -1.421E-14 2.534E-20 0.000E+00
 ETOT 31  -39.100232945402      7.105E-15 9.628E-21 0.000E+00

 At SCF step   31   max residual=  9.63E-21 < tolwfr=  1.00E-20 =>converged.

 ----iterations are completed or convergence reached----

 dfpt_looppert: DFPT cycle converged with prtwf=-1. Will skip output of the 1st-order WFK file.
 dfpt_looppert : ek2=    5.8848266486E+01
          f-sum rule ratio=    1.0262670129E+00
 prteigrs : about to open file /scratch/users/j/a/jabreu/flow_simple_8atoms/flow/w378/t1/tmpdata/tmp_1WF1_EIG
 Expectation of eigenvalue derivatives (hartree) for nkpt=   1  k points:
  (in case of degenerate eigenvalues, averaged derivative)
 kpt#   1, nband= 42, wtk=  1.00000, kpt=  0.0000  0.0000  0.0000 (reduced coord)
   0.00000   -0.00000    0.00000    0.00000   -0.00000   -0.00000   -0.00000    0.00000
   0.00000    0.00000   -0.00000   -0.00000   -0.00000    0.00000    0.00000    0.00000
   0.00000    0.00000    0.00000    0.00000    0.00000    0.00000   -0.00000   -0.00000
  -0.00000   -0.00000   -0.00000   -0.00000   -0.00000   -0.00000    0.00000    0.00000
   0.00000   -0.00000   -0.00000    0.00000    0.00000    0.00000    0.00000    0.00000
   0.00000    0.00001

 Eight components of 2nd-order total energy (hartree) are
 1,2,3: 0th-order hamiltonian combined with 1st-order wavefunctions
     kin0=   4.80875831E+01 eigvalue=   5.66898502E+00  local=  -2.28041551E+01
 4,5,6: 1st-order hamiltonian combined with 1st and 0th-order wfs
     kin1=  -6.03940347E+01  Hartree=   0.00000000E+00     xc=   0.00000000E+00
 7,8,9: eventually, occupation + non-local contributions
    edocc=   5.94827930E+00     enl0=   2.19954063E+00   enl1=  -1.78064312E+01
 1-9 gives the relaxation energy (to be shifted if some occ is /=2.0)
   erelax=  -3.91002329E+01
  No Ewald or frozen-wf contrib.: the relaxation energy is the total one
 2DEtotal=   -0.3910023295E+02 Ha. Also 2DEtotal=   -0.106397144769E+04 eV
    (  non-var. 2DEtotal :   -3.9100232945E+01 Ha)

 CALCULATION OF EFFECTIVE MASSES
 NOTE : Additional infos (eff. mass eigenvalues, eigenvectors and, if degenerate, average mass) are available in stdout.

 COMMENTS:
 - At k-point ( 0.000, 0.000, 0.000), bands    31 through    33
   are DEGENERATE (effective mass tensor is therefore not defined).
   See Section IIIB Eqs. (67)-(70) and Appendix E of PRB 93 205147 (2016).
 - Angular average effective mass for Frohlich model is to be averaged over degenerate bands. See later.
 - Associated theta integrals calculated with ntheta=   1000 points.

 K-point ( 0.000, 0.000, 0.000) | band =    31
 Transport equivalent effective mass tensor:
             -3.1789844894             -0.0000010911              0.0000000065
             -0.0000010911             -3.1789833424              0.0000000037
              0.0000000065              0.0000000037             -3.1789779699
 Transport equivalent effective mass tensor eigenvalues:
             -3.1789851486             -3.1789826833             -3.1789779699
 Angular average effective mass 1/(<1/m>)=  -2.9750516346
 Angular average effective mass for Frohlich model (<m**0.5>)**2=  -2.9827399067
 Effective masses along directions: (cart. coord. / red. coord. -> eff. mass)
    1:   1.000000  0.000000  0.000000 /   0.948683  0.316228  0.000000 ->  -3.1928373814
    2:   0.000000  1.000000  0.000000 /   0.000000  1.000000  0.000000 ->  -3.6713240726
    3:   0.000000  0.000000  1.000000 /   0.408248  0.408248  0.816497 ->  -2.8246928333
    4:   0.577350  0.577350  0.577350 /   0.585539  0.688047  0.428644 ->  -3.0677731632
    5:   0.000000  0.707107  0.707107 /   0.289489  0.762222  0.578977 ->  -2.8450289996
    6:   0.707107  0.000000  0.707107 /   0.731423  0.422287  0.535439 ->  -2.9350394481
    7:   0.707107  0.707107  0.000000 /   0.616798  0.787122  0.000000 ->  -2.8529122935

[...]

 K-point ( 0.000, 0.000, 0.000) | band =    33
 Transport equivalent effective mass tensor:
           -784.7957824219              0.0000011557              0.0000012345
              0.0000011557           -784.7957836180             -0.0000006740
              0.0000012345             -0.0000006740           -784.7957809170
 Transport equivalent effective mass tensor eigenvalues:
           -784.7957847278           -784.7957820056           -784.7957802236
 Angular average effective mass 1/(<1/m>)= -11.0980478346
 Angular average effective mass for Frohlich model (<m**0.5>)**2= -16.1945503397
 Effective masses along directions: (cart. coord. / red. coord. -> eff. mass)
    1:   1.000000  0.000000  0.000000 /   0.948683  0.316228  0.000000 ->  -9.4363802561
    2:   0.000000  1.000000  0.000000 /   0.000000  1.000000  0.000000 ->  -5.9945339836
    3:   0.000000  0.000000  1.000000 /   0.408248  0.408248  0.816497 ->  -7.9365779302
    4:   0.577350  0.577350  0.577350 /   0.585539  0.688047  0.428644 ->  -9.0561200964
    5:   0.000000  0.707107  0.707107 /   0.289489  0.762222  0.578977 -> -17.1978210830
    6:   0.707107  0.000000  0.707107 /   0.731423  0.422287  0.535439 ->  -8.7087115510
    7:   0.707107  0.707107  0.000000 /   0.616798  0.787122  0.000000 -> -79.1299913691

 Angular average effective mass for Frohlich model, averaged over degenerate bands.
 Value of     (<<m**0.5>>)**2 =     6.474023E+00
 Absolute Value of <<m**0.5>> =     2.544410E+00

 K-point ( 0.000, 0.000, 0.000) | band =    34
 Effective mass tensor:
              0.9234619711              0.0000000002             -0.0000000010
              0.0000000002              0.9234619719             -0.0000000006
             -0.0000000010             -0.0000000006              0.9234619709
 Effective mass tensor eigenvalues:
              0.9234619699              0.9234619714              0.9234619725
 Angular average effective mass 1/(<1/m>)=   0.9234619713
 Angular average effective mass for Frohlich model (<m**0.5>)**2=   0.9234619713
 Effective masses along directions: (cart. coord. / red. coord. -> eff. mass)
    1:   1.000000  0.000000  0.000000 /   0.948683  0.316228  0.000000 ->   0.9234619711
    2:   0.000000  1.000000  0.000000 /   0.000000  1.000000  0.000000 ->   0.9234619719
    3:   0.000000  0.000000  1.000000 /   0.408248  0.408248  0.816497 ->   0.9234619709
    4:   0.577350  0.577350  0.577350 /   0.585539  0.688047  0.428644 ->   0.9234619704
    5:   0.000000  0.707107  0.707107 /   0.289489  0.762222  0.578977 ->   0.9234619708
    6:   0.707107  0.000000  0.707107 /   0.731423  0.422287  0.535439 ->   0.9234619700
    7:   0.707107  0.707107  0.000000 /   0.616798  0.787122  0.000000 ->   0.9234619717

 END OF EFFECTIVE MASSES SECTION

 ---- first-order wavefunction calculations are completed ----

 Total localisation tensor (bohr^2) in cartesian coordinates
  WARNING : still subject to testing - especially symmetries.
      direction              matrix element
   alpha     beta       real part   imaginary part
     1        1       0.7062173766    0.0000000000
     1        2       0.1997488029    0.0000000000
     1        3       0.4892818998    0.0000000000
     2        1       0.1997488029    0.0000000000
     2        2       0.5649749322    0.0000000000
     2        3       0.3459750753    0.0000000000
     3        1       0.4892818998    0.0000000000
     3        2       0.3459750753    0.0000000000
     3        3       1.2711921720    0.0000000000

 respfn : d/dk was computed, but no 2DTE, so no DDB output.

== END DATASET(S) ==============================================================

 -outvars: echo values of variables after computation  --------
            acell      1.0000000000E+00  1.0000000000E+00  1.0000000000E+00 Bohr
              amu      4.00780000E+01  2.07200000E+02  1.89984032E+01
             ecut      4.20000000E+01 Hartree
           etotal     -3.9100232945E+01
            fcart      0.0000000000E+00  0.0000000000E+00  0.0000000000E+00
                       0.0000000000E+00  0.0000000000E+00  0.0000000000E+00
                       0.0000000000E+00  0.0000000000E+00  0.0000000000E+00
                       0.0000000000E+00  0.0000000000E+00  0.0000000000E+00
                       0.0000000000E+00  0.0000000000E+00  0.0000000000E+00
                       0.0000000000E+00  0.0000000000E+00  0.0000000000E+00
                       0.0000000000E+00  0.0000000000E+00  0.0000000000E+00
                       0.0000000000E+00  0.0000000000E+00  0.0000000000E+00
-          fftalg         512
           irdden           1
           irdwfk           1
           istwfk        1
              ixc     -116133
           kptopt           0
P           mkmem           1
P          mkqmem           1
P          mk1mem           1
            natom           8
            nband          42
           nbdbuf           4
            ngfft          72      72      72
             nkpt           1
            nstep        2000
             nsym          48
           ntypat           3
              occ      2.000000  2.000000  2.000000  2.000000  2.000000  2.000000
                       2.000000  2.000000  2.000000  2.000000  2.000000  2.000000
                       2.000000  2.000000  2.000000  2.000000  2.000000  2.000000
                       2.000000  2.000000  2.000000  2.000000  2.000000  2.000000
                       2.000000  2.000000  2.000000  2.000000  2.000000  2.000000
                       2.000000  2.000000  2.000000  0.000000  0.000000  0.000000
                       0.000000  0.000000  0.000000  0.000000  0.000000  0.000000
        optdriver           1
            prtwf          -1
            rfdir           1       1       1
           rfelfd           2
            rprim      9.9810506181E+00  0.0000000000E+00  5.7625622611E+00
                       3.3270168727E+00  9.4102247672E+00  5.7625622611E+00
                       0.0000000000E+00  0.0000000000E+00  1.1525124522E+01
          spgroup         225
           strten      0.0000000000E+00  0.0000000000E+00  0.0000000000E+00
                       0.0000000000E+00  0.0000000000E+00  0.0000000000E+00
           symrel      1  0  0   0  1  0   0  0  1      -1  0  0   0 -1  0   0  0 -1
                       0 -1  1   0 -1  0   1 -1  0       0  1 -1   0  1  0  -1  1  0
                      -1  0  0  -1  0  1  -1  1  0       1  0  0   1  0 -1   1 -1  0
                       0  1 -1   1  0 -1   0  0 -1       0 -1  1  -1  0  1   0  0  1
                      -1  0  0  -1  1  0  -1  0  1       1  0  0   1 -1  0   1  0 -1
                       0 -1  1   1 -1  0   0 -1  0       0  1 -1  -1  1  0   0  1  0
                       1  0  0   0  0  1   0  1  0      -1  0  0   0  0 -1   0 -1  0
                       0  1 -1   0  0 -1   1  0 -1       0 -1  1   0  0  1  -1  0  1
                      -1  0  1  -1  1  0  -1  0  0       1  0 -1   1 -1  0   1  0  0
                       0 -1  0   1 -1  0   0 -1  1       0  1  0  -1  1  0   0  1 -1
                       1  0 -1   0  0 -1   0  1 -1      -1  0  1   0  0  1   0 -1  1
                       0  1  0   0  0  1   1  0  0       0 -1  0   0  0 -1  -1  0  0
                       1  0 -1   0  1 -1   0  0 -1      -1  0  1   0 -1  1   0  0  1
                       0 -1  0   0 -1  1   1 -1  0       0  1  0   0  1 -1  -1  1  0
                      -1  0  1  -1  0  0  -1  1  0       1  0 -1   1  0  0   1 -1  0
                       0  1  0   1  0  0   0  0  1       0 -1  0  -1  0  0   0  0 -1
                       0  0 -1   0  1 -1   1  0 -1       0  0  1   0 -1  1  -1  0  1
                       1 -1  0   0 -1  1   0 -1  0      -1  1  0   0  1 -1   0  1  0
                       0  0  1   1  0  0   0  1  0       0  0 -1  -1  0  0   0 -1  0
                      -1  1  0  -1  0  0  -1  0  1       1 -1  0   1  0  0   1  0 -1
                       0  0  1   0  1  0   1  0  0       0  0 -1   0 -1  0  -1  0  0
                       1 -1  0   0 -1  0   0 -1  1      -1  1  0   0  1  0   0  1 -1
                       0  0 -1   1  0 -1   0  1 -1       0  0  1  -1  0  1   0 -1  1
                      -1  1  0  -1  0  1  -1  0  0       1 -1  0   1  0 -1   1  0  0
           tolwfr      1.00000000E-20
            typat      1  2  3  3  3  3  3  3
           useylm           1
           xangst      0.0000000000E+00  0.0000000000E+00  0.0000000000E+00
                       3.5211630033E+00  2.4898382373E+00  6.0988332233E+00
                       2.6723690555E+00  3.6902141498E+00  7.5689874660E+00
                       4.3699569510E+00  1.2894623247E+00  7.5689874660E+00
                       4.3699569510E+00  1.2894623247E+00  4.6286789807E+00
                       5.2187508988E+00  3.6902141498E+00  6.0988332233E+00
                       1.8235751078E+00  1.2894623247E+00  6.0988332233E+00
                       2.6723690555E+00  3.6902141498E+00  4.6286789807E+00
            xcart      0.0000000000E+00  0.0000000000E+00  0.0000000000E+00
                       6.6540337454E+00  4.7051123836E+00  1.1525124522E+01
                       5.0500456409E+00  6.9734941149E+00  1.4303313414E+01
                       8.2580218499E+00  2.4367306523E+00  1.4303313414E+01
                       8.2580218499E+00  2.4367306523E+00  8.7469356305E+00
                       9.8620099544E+00  6.9734941149E+00  1.1525124522E+01
                       3.4460575364E+00  2.4367306523E+00  1.1525124522E+01
                       5.0500456409E+00  6.9734941149E+00  8.7469356305E+00
             xred      0.0000000000E+00  0.0000000000E+00  0.0000000000E+00
                       5.0000000000E-01  5.0000000000E-01  5.0000000000E-01
                       2.5894500000E-01  7.4105500000E-01  7.4105500000E-01
                       7.4105500000E-01  2.5894500000E-01  7.4105500000E-01
                       7.4105500000E-01  2.5894500000E-01  2.5894500000E-01
                       7.4105500000E-01  7.4105500000E-01  2.5894500000E-01
                       2.5894500000E-01  2.5894500000E-01  7.4105500000E-01
                       2.5894500000E-01  7.4105500000E-01  2.5894500000E-01
            znucl       20.00000   82.00000    9.00000

- Timing analysis has been suppressed with timopt=0

 Suggested references for the acknowledgment of ABINIT usage.

 Calculation completed.
.Delivered   6 WARNINGs and   5 COMMENTs to log file.