.Version 9.5.1 of ABINIT

 ABINIT is a project of the Universite Catholique de Louvain,
 Corning Inc. and other collaborators, see ~abinit/doc/developers/contributors.txt .
 acknowledgments of the ABINIT effort.

.Starting date : Wed  5 May 2021.
- ( at 19h58 )

- input  file    -> /scratch/users/j/a/jabreu/flow_simple_7atoms/flow/w161/t1/run.abi
- output file    -> /scratch/users/j/a/jabreu/flow_simple_7atoms/flow/w161/t1/run.abo
- root for input  files -> /scratch/users/j/a/jabreu/flow_simple_7atoms/flow/w161/t1/indata/in
- root for output files -> /scratch/users/j/a/jabreu/flow_simple_7atoms/flow/w161/t1/outdata/out

 Symmetries : space group I-4 (# 82); Bravais tI (body-center tetrag.)
     intxc =       0      iscf =       7    lmnmax =      18     lnmax =       6
     mgfft =      96  mpssoang =       3    mqgrid =    3387     natom =       7
  nloc_mem =       1    nspden =       1   nspinor =       1    nsppol =       1
      nsym =       4    n1xccc =    2501    ntypat =       3    occopt =       1
   xclevel =       2
-    mband =          64        mffmem =           1         mkmem =           1
-   mkqmem =           1        mk1mem =           1           mpw =       28357
      nfft =      884736          nkpt =           1
  Rough estimation (10% accuracy) of disk space for files :

------------- Echo of variables that govern the present computation ------------
-
- outvars: echo of selected default values
-   iomode0 =  0 , fftalg0 =512 , wfoptalg0 =  0
-
- outvars: echo of global parameters not present in the input file
-  max_nthreads =    0
-
 -outvars: echo values of preprocessed input variables --------
            acell      1.0000000000E+00  1.0000000000E+00  1.0000000000E+00 Bohr
              amu      1.12411000E+02  1.14820000E+02  1.27600000E+02
             ecut      5.10000000E+01 Hartree
-          fftalg         512
           irdden           1
           irdwfk           1
           istwfk        1
              ixc     -116133
           kptopt           0
P           mkmem           1
P          mkqmem           1
P          mk1mem           1
            natom           7
            nband          64
           nbdbuf           4
            ngfft          96      96      96
             nkpt           1
            nstep        2000
             nsym           4
           ntypat           3
              occ      2.000000  2.000000  2.000000  2.000000  2.000000  2.000000
                       2.000000  2.000000  2.000000  2.000000  2.000000  2.000000
                       2.000000  2.000000  2.000000  2.000000  2.000000  2.000000
                       2.000000  2.000000  2.000000  2.000000  2.000000  2.000000
                       2.000000  2.000000  2.000000  2.000000  2.000000  2.000000
                       2.000000  2.000000  2.000000  2.000000  2.000000  2.000000
                       2.000000  2.000000  2.000000  2.000000  2.000000  2.000000
                       2.000000  2.000000  2.000000  2.000000  2.000000  2.000000
                       2.000000  2.000000  2.000000  2.000000  2.000000  2.000000
                       2.000000  0.000000  0.000000  0.000000  0.000000  0.000000
                       0.000000  0.000000  0.000000  0.000000
        optdriver           1
            prtwf          -1
            rfdir           1       1       1
           rfelfd           2
            rprim      1.0754536237E+01  0.0000000000E+00 -9.5794896013E+00
                      -2.1627750449E+00  1.0534821014E+01 -9.5794896013E+00
                       0.0000000000E+00  0.0000000000E+00  1.4402314769E+01
          spgroup          82
           symrel      1  0  0   0  1  0   0  0  1       0  1  0   1  0  0  -1 -1 -1
                       0  0  1  -1 -1 -1   0  1  0      -1 -1 -1   0  0  1   1  0  0
           tolwfr      1.00000000E-20
            typat      1  2  2  3  3  3  3
           useylm           1
           xangst      0.0000000000E+00  0.0000000000E+00  0.0000000000E+00
                       2.2732821024E+00  2.7873935885E+00 -5.0692475669E+00
                       5.6439542066E-01  4.1810903827E+00 -1.2585592036E+00
                       4.4752057835E+00  2.0147392353E+00  9.9422993432E-01
                       2.9695669580E+00  3.2378809907E+00 -2.3888070912E+00
                       3.1201123463E-01  7.8583872483E-01  2.6925120466E+00
                       1.3363444334E+00  5.1111154031E+00 -6.3321717041E+00
            xcart      0.0000000000E+00  0.0000000000E+00  0.0000000000E+00
                       4.2958805963E+00  5.2674105068E+00 -9.5794896013E+00
                       1.0665527757E+00  7.9011157602E+00 -2.3783322168E+00
                       8.4569133191E+00  3.8073053840E+00  1.8788222890E+00
                       5.6116682839E+00  6.1187083233E+00 -4.5141911867E+00
                       5.8961578383E-01  1.4850199745E+00  5.0881103777E+00
                       2.5253249984E+00  9.6586083454E+00 -1.1966070347E+01
             xred      0.0000000000E+00  0.0000000000E+00  0.0000000000E+00
                       5.0000000000E-01  5.0000000000E-01  1.6653345369E-16
                       2.5000000000E-01  7.5000000000E-01  5.0000000000E-01
                       8.5903700000E-01  3.6140200000E-01  9.4221000000E-01
                       6.3859800000E-01  5.8080800000E-01  4.9763500000E-01
                       8.3173000000E-02  1.4096300000E-01  5.0236500000E-01
                       4.1919200000E-01  9.1682700000E-01  5.7790000000E-02
            znucl       48.00000   49.00000   52.00000

 chkinp: Checking input parameters for consistency.

== DATASET  1 ==================================================================
-   mpi_nproc: 1, omp_nthreads: -1 (-1 if OMP is not activated)

--- !DatasetInfo
iteration_state: {dtset: 1, }
dimensions: {natom: 7, nkpt: 1, mband: 64, nsppol: 1, nspinor: 1, nspden: 1, mpw: 28357, }
cutoff_energies: {ecut:  51.0, pawecutdg:  -1.0, }
electrons: {nelect:   1.10000000E+02, charge:   0.00000000E+00, occopt:   1.00000000E+00, tsmear:   1.00000000E-02, }
meta: {optdriver: 1, rfelfd: 2, }
...

 Real(R)+Recip(G) space primitive vectors, cartesian coordinates (Bohr,Bohr^-1):
 R(1)= 10.7545362  0.0000000 -9.5794896  G(1)=  0.0929840  0.0190894  0.0000000
 R(2)= -2.1627750 10.5348210 -9.5794896  G(2)=  0.0000000  0.0949233  0.0000000
 R(3)=  0.0000000  0.0000000 14.4023148  G(3)=  0.0618470  0.0758339  0.0694333
 Unit cell volume ucvol=  1.6317407E+03 bohr^3
 Angles (23,13,12)=  1.31692715E+02  1.31692715E+02  7.07147855E+01 degrees

 getcut: wavevector=  0.0000  0.0000  0.0000  ngfft=  96  96  96
         ecut(hartree)=     51.000   => boxcut(ratio)=   2.07344

--- Pseudopotential description ------------------------------------------------
- pspini: atom type   1  psp file is /scratch/users/j/a/jabreu/pseudos/PBEsol/Cd.psp8
- pspatm: opening atomic psp file    /scratch/users/j/a/jabreu/pseudos/PBEsol/Cd.psp8
- Cd    ONCVPSP-3.3.0  r_core=   1.25838   1.30423   1.35174
- 48.00000  20.00000    180112                znucl, zion, pspdat
    8 -116133    2    4       600   0.00000   pspcod,pspxc,lmax,lloc,mmax,r2well
    5.99000000000000    6.00000000000000    0.00000000000000   rchrg,fchrg,qchrg
     nproj     2     2     2
     extension_switch     1
  pspatm : epsatm=   23.26728021
         --- l  ekb(1:nproj) -->
             0   63.701523    3.700425
             1    8.703569    1.290373
             2    0.983656   -0.721725
 pspatm: atomic psp has been read  and splines computed

- pspini: atom type   2  psp file is /scratch/users/j/a/jabreu/pseudos/PBEsol/In.psp8
- pspatm: opening atomic psp file    /scratch/users/j/a/jabreu/pseudos/PBEsol/In.psp8
- In    ONCVPSP-3.3.0  r_core=   2.10853   2.37566   1.87143
- 49.00000  13.00000    180112                znucl, zion, pspdat
    8 -116133    2    4       600   0.00000   pspcod,pspxc,lmax,lloc,mmax,r2well
    5.99000000000000    5.00000000000000    0.00000000000000   rchrg,fchrg,qchrg
     nproj     2     2     2
     extension_switch     1
  pspatm : epsatm=   25.17984752
         --- l  ekb(1:nproj) -->
             0   12.999887    1.931740
             1    5.981707    1.012544
             2   -4.048011   -1.239028
 pspatm: atomic psp has been read  and splines computed

- pspini: atom type   3  psp file is /scratch/users/j/a/jabreu/pseudos/PBEsol/Te.psp8
- pspatm: opening atomic psp file    /scratch/users/j/a/jabreu/pseudos/PBEsol/Te.psp8
- Te    ONCVPSP-3.3.0  r_core=   2.26547   1.91704   1.80604
- 52.00000  16.00000    180112                znucl, zion, pspdat
    8 -116133    2    4       600   0.00000   pspcod,pspxc,lmax,lloc,mmax,r2well
    5.99000000000000    5.00000000000000    0.00000000000000   rchrg,fchrg,qchrg
     nproj     2     2     2
     extension_switch     1
  pspatm : epsatm=   36.82679836
         --- l  ekb(1:nproj) -->
             0    6.345999    0.785432
             1    5.709019    1.070069
             2   -6.035173   -1.870937
 pspatm: atomic psp has been read  and splines computed

   2.43027586E+04                                ecore*ucvol(ha*bohr**3)

-inwffil : will read wavefunctions from disk file /scratch/users/j/a/jabreu/flow_simple_7atoms/flow/w161/t1/indata/in_WFK

 ==>  initialize data related to q vector <==

 The list of irreducible perturbations for this q vector is:
    1)    idir= 1    ipert=   8
    2)    idir= 2    ipert=   8
    3)    idir= 3    ipert=   8

 Perturbation wavevector (in red.coord.)   0.000000  0.000000  0.000000
 Perturbation : derivative vs k along direction   1

 dfpt_looppert : COMMENT -
  In a d/dk calculation, iscf is set to -3 automatically.
 The set of symmetries contains only one element for this perturbation.
 symkpt : not enough symmetry to change the number of k points.

[...]

 Initialisation of the first-order wave-functions :
  ireadwf=   0

--- !BeginCycle
iteration_state: {dtset: 1, }
solver: {iscf: 7, nstep: 2000, nline: 4, wfoptalg: 0, }
tolerances: {tolwfr: 1.00E-20, }
...

     iter   2DEtotal(Ha)        deltaE(Ha) residm    vres2
-ETOT  1  -90.765447713077     -9.077E+01 2.120E-01 0.000E+00
 ETOT  2  -90.890829235831     -1.254E-01 1.217E-02 0.000E+00
 ETOT  3  -90.892443887687     -1.615E-03 1.925E-03 0.000E+00
 ETOT  4  -90.892508052206     -6.416E-05 1.599E-04 0.000E+00
 ETOT  5  -90.892512234580     -4.182E-06 4.078E-05 0.000E+00
 ETOT  6  -90.892512574335     -3.398E-07 4.009E-06 0.000E+00
 ETOT  7  -90.892512605700     -3.137E-08 1.075E-06 0.000E+00
 ETOT  8  -90.892512608926     -3.226E-09 1.082E-07 0.000E+00
 ETOT  9  -90.892512609291     -3.650E-10 2.980E-08 0.000E+00
 ETOT 10  -90.892512609336     -4.462E-11 3.024E-09 0.000E+00
 ETOT 11  -90.892512609341     -5.869E-12 8.518E-10 0.000E+00
 ETOT 12  -90.892512609342     -7.816E-13 8.652E-11 0.000E+00
 ETOT 13  -90.892512609342      1.421E-14 2.489E-11 0.000E+00
 ETOT 14  -90.892512609342     -8.527E-14 2.521E-12 0.000E+00
 ETOT 15  -90.892512609342     -7.105E-14 7.405E-13 0.000E+00
 ETOT 16  -90.892512609342     -2.842E-14 7.472E-14 0.000E+00
 ETOT 17  -90.892512609342      7.105E-14 2.239E-14 0.000E+00
 ETOT 18  -90.892512609342     -7.105E-14 2.250E-15 0.000E+00
[...]
 kpt#   1, nband= 64, wtk=  1.00000, kpt=  0.0000  0.0000  0.0000 (reduced coord)
  -0.00000   -0.00000    0.00000    0.00000   -0.00000   -0.00000   -0.00000   -0.00000
  -0.00000   -0.00000   -0.00000   -0.00000   -0.00000    0.00000    0.00000    0.00000
  -0.00000   -0.00000    0.00000    0.00000   -0.00000   -0.00000   -0.00000    0.00000
   0.00000   -0.00000   -0.00000   -0.00000    0.00000    0.00000    0.00000   -0.00000
   0.00000    0.00000    0.00000    0.00000    0.00000   -0.00000   -0.00000    0.00000
  -0.00000    0.00000    0.00000    0.00000   -0.00000   -0.00000    0.00000   -0.00000
  -0.00000    0.00000   -0.00000   -0.00000    0.00000    0.00000    0.00000   -0.00000
   0.00000    0.00000   -0.00000    0.00000    0.00000    0.00000    0.00000    0.00000

 Eight components of 2nd-order total energy (hartree) are
 1,2,3: 0th-order hamiltonian combined with 1st-order wavefunctions
     kin0=   9.69327630E+01 eigvalue=   1.38720669E+01  local=  -5.22462307E+01
 4,5,6: 1st-order hamiltonian combined with 1st and 0th-order wfs
     kin1=  -9.51700911E+01  Hartree=   0.00000000E+00     xc=   0.00000000E+00
 7,8,9: eventually, occupation + non-local contributions
    edocc=   1.83981242E+01     enl0=   1.39357892E+01   enl1=  -8.66149341E+01
 1-9 gives the relaxation energy (to be shifted if some occ is /=2.0)
   erelax=  -9.08925126E+01
  No Ewald or frozen-wf contrib.: the relaxation energy is the total one
 2DEtotal=   -0.9089251261E+02 Ha. Also 2DEtotal=   -0.247331105061E+04 eV
    (  non-var. 2DEtotal :   -9.0892512609E+01 Ha)

 Perturbation wavevector (in red.coord.)   0.000000  0.000000  0.000000
 Perturbation : derivative vs k along direction   2
 The set of symmetries contains only one element for this perturbation.
 symkpt : not enough symmetry to change the number of k points.

[...]

 Perturbation wavevector (in red.coord.)   0.000000  0.000000  0.000000
 Perturbation : derivative vs k along direction   3
 The set of symmetries contains only one element for this perturbation.
 symkpt : not enough symmetry to change the number of k points.

-inwffil : will read wavefunctions from disk file /scratch/users/j/a/jabreu/flow_simple_7atoms/flow/w161/t1/indata/in_WFK

 Initialisation of the first-order wave-functions :
  ireadwf=   0

--- !BeginCycle
iteration_state: {dtset: 1, }
solver: {iscf: 7, nstep: 2000, nline: 4, wfoptalg: 0, }
tolerances: {tolwfr: 1.00E-20, }
...

     iter   2DEtotal(Ha)        deltaE(Ha) residm    vres2
-ETOT  1  -146.95467525675     -1.470E+02 8.564E-01 0.000E+00
 ETOT  2  -147.11763782380     -1.630E-01 2.034E-02 0.000E+00
 ETOT  3  -147.11926358814     -1.626E-03 6.082E-03 0.000E+00
 ETOT  4  -147.11932594686     -6.236E-05 1.940E-04 0.000E+00
 ETOT  5  -147.11933015459     -4.208E-06 1.115E-04 0.000E+00
 ETOT  6  -147.11933054828     -3.937E-07 4.543E-06 0.000E+00
 ETOT  7  -147.11933059338     -4.510E-08 3.045E-06 0.000E+00
 ETOT  8  -147.11933059930     -5.920E-09 1.395E-07 0.000E+00
 ETOT  9  -147.11933060015     -8.517E-10 9.384E-08 0.000E+00
 ETOT 10  -147.11933060028     -1.290E-10 4.564E-09 0.000E+00
 ETOT 11  -147.11933060030     -2.080E-11 3.041E-09 0.000E+00
 ETOT 12  -147.11933060030     -3.041E-12 1.535E-10 0.000E+00
 ETOT 13  -147.11933060030     -9.095E-13 1.016E-10 0.000E+00
 ETOT 14  -147.11933060030      2.274E-13 5.272E-12 0.000E+00
 ETOT 15  -147.11933060030     -5.969E-13 3.468E-12 0.000E+00
 ETOT 16  -147.11933060030      7.390E-13 1.843E-13 0.000E+00
 ETOT 17  -147.11933060030     -1.137E-13 1.206E-13 0.000E+00
 ETOT 18  -147.11933060030     -1.990E-13 6.550E-15 0.000E+00
 ETOT 19  -147.11933060030      8.527E-14 4.262E-15 0.000E+00
 ETOT 20  -147.11933060030      0.000E+00 2.361E-16 0.000E+00
 ETOT 21  -147.11933060030      8.527E-14 1.527E-16 0.000E+00
 ETOT 22  -147.11933060030     -1.137E-13 8.615E-18 0.000E+00
 ETOT 23  -147.11933060030      1.421E-13 5.537E-18 0.000E+00
 ETOT 24  -147.11933060030     -2.842E-14 3.174E-19 0.000E+00
 ETOT 25  -147.11933060030      0.000E+00 2.027E-19 0.000E+00
 ETOT 26  -147.11933060030      0.000E+00 1.179E-20 0.000E+00
 ETOT 27  -147.11933060030     -2.842E-14 9.706E-21 0.000E+00

 At SCF step   27   max residual=  9.71E-21 < tolwfr=  1.00E-20 =>converged.

 ----iterations are completed or convergence reached----

 dfpt_looppert: DFPT cycle converged with prtwf=-1. Will skip output of the 1st-order WFK file.
 dfpt_looppert : ek2=    1.2503989507E+02
          f-sum rule ratio=    1.2435499315E+00
 prteigrs : about to open file /scratch/users/j/a/jabreu/flow_simple_7atoms/flow/w161/t1/tmpdata/tmp_1WF1_EIG
 Expectation of eigenvalue derivatives (hartree) for nkpt=   1  k points:
  (in case of degenerate eigenvalues, averaged derivative)
 kpt#   1, nband= 64, wtk=  1.00000, kpt=  0.0000  0.0000  0.0000 (reduced coord)
  -0.00000   -0.00000    0.00000    0.00000   -0.00000    0.00000   -0.00000   -0.00000
  -0.00000    0.00000    0.00000    0.00000   -0.00000    0.00000   -0.00000   -0.00000
  -0.00000   -0.00000    0.00000    0.00000   -0.00000   -0.00000   -0.00000   -0.00000
   0.00000   -0.00000   -0.00000   -0.00000    0.00000    0.00000   -0.00000   -0.00000
   0.00000    0.00000    0.00000    0.00000    0.00000    0.00000   -0.00000    0.00000
  -0.00000    0.00000    0.00000    0.00000   -0.00000   -0.00000    0.00000    0.00000
   0.00000    0.00000   -0.00000   -0.00000   -0.00000    0.00000    0.00000   -0.00000
   0.00000   -0.00000   -0.00000    0.00000    0.00000   -0.00000   -0.00000   -0.00000

 Eight components of 2nd-order total energy (hartree) are
 1,2,3: 0th-order hamiltonian combined with 1st-order wavefunctions
     kin0=   1.53992657E+02 eigvalue=   2.22899676E+01  local=  -8.29459784E+01
 4,5,6: 1st-order hamiltonian combined with 1st and 0th-order wfs
     kin1=  -1.55493353E+02  Hartree=   0.00000000E+00     xc=   0.00000000E+00
 7,8,9: eventually, occupation + non-local contributions
    edocc=   3.15646485E+01     enl0=   2.22180357E+01   enl1=  -1.38745308E+02
 1-9 gives the relaxation energy (to be shifted if some occ is /=2.0)
   erelax=  -1.47119331E+02
  No Ewald or frozen-wf contrib.: the relaxation energy is the total one
 2DEtotal=   -0.1471193306E+03 Ha. Also 2DEtotal=   -0.400332057819E+04 eV
    (  non-var. 2DEtotal :   -1.4711933060E+02 Ha)

 CALCULATION OF EFFECTIVE MASSES
 NOTE : Additional infos (eff. mass eigenvalues, eigenvectors and, if degenerate, average mass) are available in stdout.

 COMMENTS:
 - At k-point ( 0.000, 0.000, 0.000), bands    54 through    55
   are DEGENERATE (effective mass tensor is therefore not defined).
   See Section IIIB Eqs. (67)-(70) and Appendix E of PRB 93 205147 (2016).
 - Angular average effective mass for Frohlich model is to be averaged over degenerate bands. See later.
 - Associated theta integrals calculated with ntheta=   1000 points.

 K-point ( 0.000, 0.000, 0.000) | band =    54
 Transport equivalent effective mass tensor:
             -0.1220021522             -0.0679047125              0.1234937867
             -0.0679047125             -0.1498835236              0.1514223836
              0.1234937867              0.1514223836             -0.3420037215
 Transport equivalent effective mass tensor eigenvalues:
             -0.4806456011             -0.0666218981             -0.0666218980
 Angular average effective mass 1/(<1/m>)=  -0.0926730350
 Angular average effective mass for Frohlich model (<m**0.5>)**2=  -0.1085175868
 Effective masses along directions: (cart. coord. / red. coord. -> eff. mass)
    1:   1.000000  0.000000  0.000000 /   0.980372 -0.197156  0.000000 ->  -0.0776710464
    2:   0.000000  1.000000  0.000000 /   0.000000  1.000000  0.000000 ->  -0.0847093070
    3:   0.000000  0.000000  1.000000 /  -0.484480 -0.484480  0.728394 ->  -0.1481912701
    4:   0.577350  0.577350  0.577350 /   0.081035 -0.083269  0.993227 ->  -0.0628074138
    5:   0.000000  0.707107  0.707107 /  -0.552974  0.055146  0.831371 ->  -0.0714123278
    6:   0.707107  0.000000  0.707107 /   0.063108 -0.630641  0.773504 ->  -0.0757299651
    7:   0.707107  0.707107  0.000000 /   0.789089  0.614279  0.000000 ->  -0.0884303524

 K-point ( 0.000, 0.000, 0.000) | band =    55
 Transport equivalent effective mass tensor:
             -4.2215614783             -0.0336324097              0.0611650507
             -0.0336324097             -4.2353707870              0.0749977547
              0.0611650507              0.0749977547             -4.3305257393
 Transport equivalent effective mass tensor eigenvalues:
             -4.3991934474             -4.1941322829             -4.1941322743
 Angular average effective mass 1/(<1/m>)=  -0.6926686056
 Angular average effective mass for Frohlich model (<m**0.5>)**2=  -0.8164287612
 Effective masses along directions: (cart. coord. / red. coord. -> eff. mass)
    1:   1.000000  0.000000  0.000000 /   0.980372 -0.197156  0.000000 ->  -0.5681657281
    2:   0.000000  1.000000  0.000000 /   0.000000  1.000000  0.000000 ->  -0.4951089644
    3:   0.000000  0.000000  1.000000 /  -0.484480 -0.484480  0.728394 ->  -0.6687980423
    4:   0.577350  0.577350  0.577350 /   0.081035 -0.083269  0.993227 ->  -3.1046017950
    5:   0.000000  0.707107  0.707107 /  -0.552974  0.055146  0.831371 ->  -0.6992683891
    6:   0.707107  0.000000  0.707107 /   0.063108 -0.630641  0.773504 ->  -0.5488312808
    7:   0.707107  0.707107  0.000000 /   0.789089  0.614279  0.000000 ->  -1.0540638305

 Angular average effective mass for Frohlich model, averaged over degenerate bands.
 Value of     (<<m**0.5>>)**2 =     3.800627E-01
 Absolute Value of <<m**0.5>> =     6.164923E-01

 K-point ( 0.000, 0.000, 0.000) | band =    56
 Effective mass tensor:
              0.0770566851              0.0082518962             -0.0150071755
              0.0082518962              0.0804448765             -0.0184011059
             -0.0150071755             -0.0184011059              0.1037916513
 Effective mass tensor eigenvalues:
              0.0703267823              0.0703267823              0.1206396483
 Angular average effective mass 1/(<1/m>)=   0.0816819586
 Angular average effective mass for Frohlich model (<m**0.5>)**2=   0.0831160334
 Effective masses along directions: (cart. coord. / red. coord. -> eff. mass)
    1:   1.000000  0.000000  0.000000 /   0.980372 -0.197156  0.000000 ->   0.0744817596
    2:   0.000000  1.000000  0.000000 /   0.000000  1.000000  0.000000 ->   0.0767651012
    3:   0.000000  0.000000  1.000000 /  -0.484480 -0.484480  0.728394 ->   0.0973240007
    4:   0.577350  0.577350  0.577350 /   0.081035 -0.083269  0.993227 ->   0.0703268009
    5:   0.000000  0.707107  0.707107 /  -0.552974  0.055146  0.831371 ->   0.0723603490
    6:   0.707107  0.000000  0.707107 /   0.063108 -0.630641  0.773504 ->   0.0734248339
    7:   0.707107  0.707107  0.000000 /   0.789089  0.614279  0.000000 ->   0.0816072716

 END OF EFFECTIVE MASSES SECTION

 ---- first-order wavefunction calculations are completed ----

 Total localisation tensor (bohr^2) in cartesian coordinates
  WARNING : still subject to testing - especially symmetries.
      direction              matrix element
   alpha     beta       real part   imaginary part
     1        1       5.4407757428    0.0000000000
     1        2      -1.0301437372    0.0000000000
     1        3      -3.7212074609    0.0000000000
     2        1      -1.0301437372    0.0000000000
     2        2       5.0178033610    0.0000000000
     2        3      -4.5627728327    0.0000000000
     3        1      -3.7212074609    0.0000000000
     3        2      -4.5627728327    0.0000000000
     3        3      24.7059634364    0.0000000000

 respfn : d/dk was computed, but no 2DTE, so no DDB output.

== END DATASET(S) ==============================================================

 -outvars: echo values of variables after computation  --------
            acell      1.0000000000E+00  1.0000000000E+00  1.0000000000E+00 Bohr
              amu      1.12411000E+02  1.14820000E+02  1.27600000E+02
             ecut      5.10000000E+01 Hartree
           etotal     -1.4711933060E+02
            fcart      0.0000000000E+00  0.0000000000E+00  0.0000000000E+00
                       0.0000000000E+00  0.0000000000E+00  0.0000000000E+00
                       0.0000000000E+00  0.0000000000E+00  0.0000000000E+00
                       0.0000000000E+00  0.0000000000E+00  0.0000000000E+00
                       0.0000000000E+00  0.0000000000E+00  0.0000000000E+00
                       0.0000000000E+00  0.0000000000E+00  0.0000000000E+00
                       0.0000000000E+00  0.0000000000E+00  0.0000000000E+00
-          fftalg         512
           irdden           1
           irdwfk           1
           istwfk        1
              ixc     -116133
           kptopt           0
P           mkmem           1
P          mkqmem           1
P          mk1mem           1
            natom           7
            nband          64
           nbdbuf           4
            ngfft          96      96      96
             nkpt           1
            nstep        2000
             nsym           4
           ntypat           3
              occ      2.000000  2.000000  2.000000  2.000000  2.000000  2.000000
                       2.000000  2.000000  2.000000  2.000000  2.000000  2.000000
                       2.000000  2.000000  2.000000  2.000000  2.000000  2.000000
                       2.000000  2.000000  2.000000  2.000000  2.000000  2.000000
                       2.000000  2.000000  2.000000  2.000000  2.000000  2.000000
                       2.000000  2.000000  2.000000  2.000000  2.000000  2.000000
                       2.000000  2.000000  2.000000  2.000000  2.000000  2.000000
                       2.000000  2.000000  2.000000  2.000000  2.000000  2.000000
                       2.000000  2.000000  2.000000  2.000000  2.000000  2.000000
                       2.000000  0.000000  0.000000  0.000000  0.000000  0.000000
                       0.000000  0.000000  0.000000  0.000000
        optdriver           1
            prtwf          -1
            rfdir           1       1       1
           rfelfd           2
            rprim      1.0754536237E+01  0.0000000000E+00 -9.5794896013E+00
                      -2.1627750449E+00  1.0534821014E+01 -9.5794896013E+00
                       0.0000000000E+00  0.0000000000E+00  1.4402314769E+01
          spgroup          82
           strten      0.0000000000E+00  0.0000000000E+00  0.0000000000E+00
                       0.0000000000E+00  0.0000000000E+00  0.0000000000E+00
           symrel      1  0  0   0  1  0   0  0  1       0  1  0   1  0  0  -1 -1 -1
                       0  0  1  -1 -1 -1   0  1  0      -1 -1 -1   0  0  1   1  0  0
           tolwfr      1.00000000E-20
            typat      1  2  2  3  3  3  3
           useylm           1
           xangst      0.0000000000E+00  0.0000000000E+00  0.0000000000E+00
                       2.2732821024E+00  2.7873935885E+00 -5.0692475669E+00
                       5.6439542066E-01  4.1810903827E+00 -1.2585592036E+00
                       4.4752057835E+00  2.0147392353E+00  9.9422993432E-01
                       2.9695669580E+00  3.2378809907E+00 -2.3888070912E+00
                       3.1201123463E-01  7.8583872483E-01  2.6925120466E+00
                       1.3363444334E+00  5.1111154031E+00 -6.3321717041E+00
            xcart      0.0000000000E+00  0.0000000000E+00  0.0000000000E+00
                       4.2958805963E+00  5.2674105068E+00 -9.5794896013E+00
                       1.0665527757E+00  7.9011157602E+00 -2.3783322168E+00
                       8.4569133191E+00  3.8073053840E+00  1.8788222890E+00
                       5.6116682839E+00  6.1187083233E+00 -4.5141911867E+00
                       5.8961578383E-01  1.4850199745E+00  5.0881103777E+00
                       2.5253249984E+00  9.6586083454E+00 -1.1966070347E+01
             xred      0.0000000000E+00  0.0000000000E+00  0.0000000000E+00
                       5.0000000000E-01  5.0000000000E-01  1.6653345369E-16
                       2.5000000000E-01  7.5000000000E-01  5.0000000000E-01
                       8.5903700000E-01  3.6140200000E-01  9.4221000000E-01
                       6.3859800000E-01  5.8080800000E-01  4.9763500000E-01
                       8.3173000000E-02  1.4096300000E-01  5.0236500000E-01
                       4.1919200000E-01  9.1682700000E-01  5.7790000000E-02
            znucl       48.00000   49.00000   52.00000

- Timing analysis has been suppressed with timopt=0

 Suggested references for the acknowledgment of ABINIT usage.

 Calculation completed.
.Delivered   6 WARNINGs and   5 COMMENTs to log file.