.Version 9.5.1 of ABINIT

 ABINIT is a project of the Universite Catholique de Louvain,
 Corning Inc. and other collaborators, see ~abinit/doc/developers/contributors.txt .
 acknowledgments of the ABINIT effort.

.Starting date : Tue  4 May 2021.
- ( at 19h15 )

- input  file    -> /scratch/users/j/a/jabreu/flow_simple_6atoms/flow/w170/t1/run.abi
- output file    -> /scratch/users/j/a/jabreu/flow_simple_6atoms/flow/w170/t1/run.abo
- root for input  files -> /scratch/users/j/a/jabreu/flow_simple_6atoms/flow/w170/t1/indata/in
- root for output files -> /scratch/users/j/a/jabreu/flow_simple_6atoms/flow/w170/t1/outdata/out

 Symmetries : space group I-4 (# 82); Bravais tI (body-center tetrag.)
     intxc =       0      iscf =       7    lmnmax =      18     lnmax =       6
     mgfft =      64  mpssoang =       3    mqgrid =    3001     natom =       6
  nloc_mem =       1    nspden =       1   nspinor =       1    nsppol =       1
      nsym =       4    n1xccc =    2501    ntypat =       3    occopt =       1
   xclevel =       2
-    mband =          30        mffmem =           1         mkmem =           2
-   mkqmem =           2        mk1mem =           2           mpw =        9620
      nfft =      262144          nkpt =           2
  Rough estimation (10% accuracy) of disk space for files :

------------- Echo of variables that govern the present computation ------------
-
- outvars: echo of selected default values
-   iomode0 =  0 , fftalg0 =512 , wfoptalg0 =  0
-
- outvars: echo of global parameters not present in the input file
-  max_nthreads =    0
-
 -outvars: echo values of preprocessed input variables --------
            acell      1.0000000000E+00  1.0000000000E+00  1.0000000000E+00 Bohr
              amu      1.14820000E+02  3.09737620E+01  3.20660000E+01
             ecut      3.50000000E+01 Hartree
-          fftalg         512
           irdden           1
           irdwfk           1
           istwfk        1    1
              ixc     -116133
              kpt      0.00000000E+00  0.00000000E+00  5.00000000E-01
                       0.00000000E+00  0.00000000E+00  0.00000000E+00
           kptopt           0
P           mkmem           2
P          mkqmem           2
P          mk1mem           2
            natom           6
            nband          30
           nbdbuf           4
            ngfft          64      64      64
             nkpt           2
            nstep        1000
             nsym           4
           ntypat           3
              occ      2.000000  2.000000  2.000000  2.000000  2.000000  2.000000
                       2.000000  2.000000  2.000000  2.000000  2.000000  2.000000
                       2.000000  2.000000  2.000000  2.000000  2.000000  2.000000
                       2.000000  2.000000  2.000000  0.000000  0.000000  0.000000
                       0.000000  0.000000  0.000000  0.000000  0.000000  0.000000
        optdriver           1
            prtwf          -1
            rfdir           1       1       1
           rfelfd           2
            rprim      9.4303468179E+00  0.0000000000E+00 -6.3084786534E+00
                      -2.6907943775E+00  9.0383110548E+00 -6.3084786534E+00
                       0.0000000000E+00  0.0000000000E+00  1.1345851402E+01
          spgroup          82
           symrel      1  0  0   0  1  0   0  0  1       0  1  0   1  0  0  -1 -1 -1
                       0  0  1  -1 -1 -1   0  1  0      -1 -1 -1   0  0  1   1  0  0
           tolwfr      1.00000000E-20
            typat      1  2  3  3  3  3
           useylm           1
              wtk        0.50000    0.50000
           xangst      0.0000000000E+00  0.0000000000E+00  0.0000000000E+00
                       3.3867666895E+00  1.1957170536E+00 -3.3632013737E-01
                      -2.4516342558E-01  2.6932570058E+00  3.3526241051E+00
                       2.8883495954E+00  8.5147967960E-01 -2.2969046735E+00
                       2.8368347418E+00  4.2493631794E+00 -2.9987762611E+00
                       1.6528141834E+00  1.7716365639E+00  5.9777628002E-01
            xcart      0.0000000000E+00  0.0000000000E+00  0.0000000000E+00
                       6.4000615190E+00  2.2595777637E+00 -6.3555295260E-01
                      -4.6329173214E-01  5.0895181465E+00  6.3355413852E+00
                       5.4581897114E+00  1.6090634022E+00 -4.3405207863E+00
                       5.3608407463E+00  8.0301326482E+00 -5.6668658673E+00
                       3.1233661553E+00  3.3479079127E+00  1.1296334580E+00
             xred      0.0000000000E+00  0.0000000000E+00  0.0000000000E+00
                       7.5000000000E-01  2.5000000000E-01  5.0000000000E-01
                       1.1154500000E-01  5.6310500000E-01  9.3351800000E-01
                       6.2958700000E-01  1.7802700000E-01  6.6482000000E-02
                       8.2197300000E-01  8.8845500000E-01  4.5156000000E-01
                       4.3689500000E-01  3.7041300000E-01  5.4844000000E-01
            znucl       49.00000   15.00000   16.00000

 chkinp: Checking input parameters for consistency.

== DATASET  1 ==================================================================
-   mpi_nproc: 1, omp_nthreads: -1 (-1 if OMP is not activated)

--- !DatasetInfo
iteration_state: {dtset: 1, }
dimensions: {natom: 6, nkpt: 2, mband: 30, nsppol: 1, nspinor: 1, nspden: 1, mpw: 9620, }
cutoff_energies: {ecut:  35.0, pawecutdg:  -1.0, }
electrons: {nelect:   4.20000000E+01, charge:   0.00000000E+00, occopt:   1.00000000E+00, tsmear:   1.00000000E-02, }
meta: {optdriver: 1, rfelfd: 2, }
...

 Real(R)+Recip(G) space primitive vectors, cartesian coordinates (Bohr,Bohr^-1):
 R(1)=  9.4303468  0.0000000 -6.3084787  G(1)=  0.1060406  0.0315693  0.0000000
 R(2)= -2.6907944  9.0383111 -6.3084787  G(2)=  0.0000000  0.1106401  0.0000000
 R(3)=  0.0000000  0.0000000 11.3458514  G(3)=  0.0589603  0.0790708  0.0881379
 Unit cell volume ucvol=  9.6705693E+02 bohr^3
 Angles (23,13,12)=  1.23780746E+02  1.23780746E+02  8.35674972E+01 degrees

 getcut: wavevector=  0.0000  0.0000  0.0000  ngfft=  64  64  64
         ecut(hartree)=     35.000   => boxcut(ratio)=   2.11827

--- Pseudopotential description ------------------------------------------------
- pspini: atom type   1  psp file is /scratch/users/j/a/jabreu/pseudos/PBEsol/In.psp8
- pspatm: opening atomic psp file    /scratch/users/j/a/jabreu/pseudos/PBEsol/In.psp8
- In    ONCVPSP-3.3.0  r_core=   2.10853   2.37566   1.87143
- 49.00000  13.00000    180112                znucl, zion, pspdat
    8 -116133    2    4       600   0.00000   pspcod,pspxc,lmax,lloc,mmax,r2well
    5.99000000000000    5.00000000000000    0.00000000000000   rchrg,fchrg,qchrg
     nproj     2     2     2
     extension_switch     1
  pspatm : epsatm=   25.17984752
         --- l  ekb(1:nproj) -->
             0   12.999887    1.931740
             1    5.981707    1.012544
             2   -4.048011   -1.239028
 pspatm: atomic psp has been read  and splines computed

- pspini: atom type   2  psp file is /scratch/users/j/a/jabreu/pseudos/PBEsol/P.psp8
- pspatm: opening atomic psp file    /scratch/users/j/a/jabreu/pseudos/PBEsol/P.psp8
- P     ONCVPSP-3.3.0  r_core=   1.46089   1.55067   1.70594
- 15.00000   5.00000    180112                znucl, zion, pspdat
    8 -116133    2    4       600   0.00000   pspcod,pspxc,lmax,lloc,mmax,r2well
    5.99000000000000    5.00000000000000    0.00000000000000   rchrg,fchrg,qchrg
     nproj     2     2     2
     extension_switch     1
  pspatm : epsatm=    7.31221086
         --- l  ekb(1:nproj) -->
             0    6.742364    1.063650
             1    3.449117    0.910422
             2   -3.077645   -0.799176
 pspatm: atomic psp has been read  and splines computed

- pspini: atom type   3  psp file is /scratch/users/j/a/jabreu/pseudos/PBEsol/S.psp8
- pspatm: opening atomic psp file    /scratch/users/j/a/jabreu/pseudos/PBEsol/S.psp8
- S     ONCVPSP-3.3.0  r_core=   1.45376   1.45376   1.61851
- 16.00000   6.00000    180112                znucl, zion, pspdat
    8 -116133    2    4       600   0.00000   pspcod,pspxc,lmax,lloc,mmax,r2well
    5.99000000000000    6.00000000000000    0.00000000000000   rchrg,fchrg,qchrg
     nproj     2     2     2
     extension_switch     1
  pspatm : epsatm=    8.71840985
         --- l  ekb(1:nproj) -->
             0    6.834532    0.579453
             1    3.282851    0.896984
             2   -3.496974   -0.974265
 pspatm: atomic psp has been read  and splines computed

   2.82935931E+03                                ecore*ucvol(ha*bohr**3)

-inwffil : will read wavefunctions from disk file /scratch/users/j/a/jabreu/flow_simple_6atoms/flow/w170/t1/indata/in_WFK

 ==>  initialize data related to q vector <==

 The list of irreducible perturbations for this q vector is:
    1)    idir= 1    ipert=   7
    2)    idir= 2    ipert=   7
    3)    idir= 3    ipert=   7

 Perturbation wavevector (in red.coord.)   0.000000  0.000000  0.000000
 Perturbation : derivative vs k along direction   1

 dfpt_looppert : COMMENT -
  In a d/dk calculation, iscf is set to -3 automatically.
 The set of symmetries contains only one element for this perturbation.
 symkpt : not enough symmetry to change the number of k points.

[...]

 Initialisation of the first-order wave-functions :
  ireadwf=   0

--- !BeginCycle
iteration_state: {dtset: 1, }
solver: {iscf: 7, nstep: 1000, nline: 4, wfoptalg: 0, }
tolerances: {tolwfr: 1.00E-20, }
...

     iter   2DEtotal(Ha)        deltaE(Ha) residm    vres2
-ETOT  1  -29.204979288614     -2.920E+01 1.063E-01 0.000E+00
 ETOT  2  -29.248409269838     -4.343E-02 1.861E-02 0.000E+00
 ETOT  3  -29.248872307044     -4.630E-04 8.098E-04 0.000E+00
 ETOT  4  -29.248879742265     -7.435E-06 2.015E-04 0.000E+00
 ETOT  5  -29.248879915115     -1.728E-07 1.068E-05 0.000E+00
 ETOT  6  -29.248879922690     -7.575E-09 2.994E-06 0.000E+00
 ETOT  7  -29.248879923127     -4.370E-10 1.673E-07 0.000E+00
 ETOT  8  -29.248879923156     -2.877E-11 4.806E-08 0.000E+00
 ETOT  9  -29.248879923158     -1.926E-12 2.803E-09 0.000E+00
 ETOT 10  -29.248879923158     -1.528E-13 8.054E-10 0.000E+00
 ETOT 11  -29.248879923158     -7.105E-15 4.834E-11 0.000E+00
 ETOT 12  -29.248879923158     -3.197E-14 1.380E-11 0.000E+00
 ETOT 13  -29.248879923158      3.197E-14 8.438E-13 0.000E+00
 ETOT 14  -29.248879923158     -1.066E-14 2.394E-13 0.000E+00
 ETOT 15  -29.248879923158     -1.066E-14 1.481E-14 0.000E+00
 ETOT 16  -29.248879923158      3.553E-15 4.184E-15 0.000E+00
 ETOT 17  -29.248879923158     -3.553E-15 2.609E-16 0.000E+00
 ETOT 18  -29.248879923158      3.553E-15 7.350E-17 0.000E+00
 ETOT 19  -29.248879923158     -3.553E-15 4.605E-18 0.000E+00
 ETOT 20  -29.248879923158     -7.105E-15 1.296E-18 0.000E+00
 ETOT 21  -29.248879923158      0.000E+00 8.143E-20 0.000E+00
 ETOT 22  -29.248879923158      1.066E-14 2.291E-20 0.000E+00
 ETOT 23  -29.248879923158     -3.553E-15 9.931E-21 0.000E+00

 At SCF step   23   max residual=  9.93E-21 < tolwfr=  1.00E-20 =>converged.

 ----iterations are completed or convergence reached----

 dfpt_looppert: DFPT cycle converged with prtwf=-1. Will skip output of the 1st-order WFK file.
 dfpt_looppert : ek2=    4.0594243799E+01
          f-sum rule ratio=    1.1043761702E+00
 prteigrs : about to open file /scratch/users/j/a/jabreu/flow_simple_6atoms/flow/w170/t1/tmpdata/tmp_1WF1_EIG
 Expectation of eigenvalue derivatives (hartree) for nkpt=   2  k points:
  (in case of degenerate eigenvalues, averaged derivative)
 kpt#   1, nband= 30, wtk=  0.50000, kpt=  0.0000  0.0000  0.5000 (reduced coord)
   0.00000   -0.00000   -0.00000    0.00000    0.00000    0.00000   -0.00000    0.00000
   0.00000   -0.00000   -0.00000   -0.00000   -0.00000    0.00000   -0.00000   -0.00000
   0.00000    0.00000    0.00000   -0.00000   -0.00000    0.00000    0.00000   -0.00000
  -0.00000    0.00000   -0.00000   -0.00000    0.00000    0.00048
 prteigrs : prtvol=0 or 1, do not print more k-points.

 Eight components of 2nd-order total energy (hartree) are
 1,2,3: 0th-order hamiltonian combined with 1st-order wavefunctions
     kin0=   2.77973994E+01 eigvalue=   1.54592114E+00  local=  -1.53803817E+01
 4,5,6: 1st-order hamiltonian combined with 1st and 0th-order wfs
     kin1=  -4.48313155E+01  Hartree=   0.00000000E+00     xc=   0.00000000E+00
 7,8,9: eventually, occupation + non-local contributions
    edocc=   1.10501744E+01     enl0=   4.23576681E+00   enl1=  -1.36664443E+01
 1-9 gives the relaxation energy (to be shifted if some occ is /=2.0)
   erelax=  -2.92488799E+01
  No Ewald or frozen-wf contrib.: the relaxation energy is the total one
 2DEtotal=   -0.2924887992E+02 Ha. Also 2DEtotal=   -0.795902499064E+03 eV
    (  non-var. 2DEtotal :   -2.9248879923E+01 Ha)

 Perturbation wavevector (in red.coord.)   0.000000  0.000000  0.000000
 Perturbation : derivative vs k along direction   2
 The set of symmetries contains only one element for this perturbation.
 symkpt : not enough symmetry to change the number of k points.

[...]

 Perturbation wavevector (in red.coord.)   0.000000  0.000000  0.000000
 Perturbation : derivative vs k along direction   3
 The set of symmetries contains only one element for this perturbation.
 symkpt : not enough symmetry to change the number of k points.

-inwffil : will read wavefunctions from disk file /scratch/users/j/a/jabreu/flow_simple_6atoms/flow/w170/t1/indata/in_WFK

 Initialisation of the first-order wave-functions :
  ireadwf=   0

--- !BeginCycle
iteration_state: {dtset: 1, }
solver: {iscf: 7, nstep: 1000, nline: 4, wfoptalg: 0, }
tolerances: {tolwfr: 1.00E-20, }
...

     iter   2DEtotal(Ha)        deltaE(Ha) residm    vres2
-ETOT  1  -43.068193653365     -4.307E+01 1.988E-01 0.000E+00
 ETOT  2  -43.118204038114     -5.001E-02 2.979E-02 0.000E+00
 ETOT  3  -43.118765172422     -5.611E-04 1.208E-03 0.000E+00
 ETOT  4  -43.118774803053     -9.631E-06 2.922E-04 0.000E+00
 ETOT  5  -43.118775023405     -2.204E-07 1.484E-05 0.000E+00
 ETOT  6  -43.118775031399     -7.994E-09 4.279E-06 0.000E+00
 ETOT  7  -43.118775031817     -4.180E-10 2.309E-07 0.000E+00
 ETOT  8  -43.118775031845     -2.805E-11 6.828E-08 0.000E+00
 ETOT  9  -43.118775031847     -1.968E-12 3.855E-09 0.000E+00
 ETOT 10  -43.118775031847     -1.634E-13 1.137E-09 0.000E+00
 ETOT 11  -43.118775031847      7.105E-14 6.621E-11 0.000E+00
 ETOT 12  -43.118775031847     -2.842E-14 1.937E-11 0.000E+00
 ETOT 13  -43.118775031847     -7.105E-14 1.150E-12 0.000E+00
 ETOT 14  -43.118775031847      5.684E-14 3.346E-13 0.000E+00
 ETOT 15  -43.118775031847      0.000E+00 2.008E-14 0.000E+00
 ETOT 16  -43.118775031847     -7.105E-15 5.826E-15 0.000E+00
 ETOT 17  -43.118775031847     -7.105E-15 3.519E-16 0.000E+00
 ETOT 18  -43.118775031847      7.105E-15 1.020E-16 0.000E+00
 ETOT 19  -43.118775031847     -7.105E-15 6.186E-18 0.000E+00
 ETOT 20  -43.118775031847      0.000E+00 1.791E-18 0.000E+00
 ETOT 21  -43.118775031847      1.421E-14 1.090E-19 0.000E+00
 ETOT 22  -43.118775031847     -7.105E-15 3.153E-20 0.000E+00
 ETOT 23  -43.118775031847      0.000E+00 9.637E-21 0.000E+00

 At SCF step   23   max residual=  9.64E-21 < tolwfr=  1.00E-20 =>converged.

 ----iterations are completed or convergence reached----

 dfpt_looppert: DFPT cycle converged with prtwf=-1. Will skip output of the 1st-order WFK file.
 dfpt_looppert : ek2=    5.8022687840E+01
          f-sum rule ratio=    1.1491998458E+00
 prteigrs : about to open file /scratch/users/j/a/jabreu/flow_simple_6atoms/flow/w170/t1/tmpdata/tmp_1WF1_EIG
 Expectation of eigenvalue derivatives (hartree) for nkpt=   2  k points:
  (in case of degenerate eigenvalues, averaged derivative)
 kpt#   1, nband= 30, wtk=  0.50000, kpt=  0.0000  0.0000  0.5000 (reduced coord)
   0.00000   -0.00000   -0.00000    0.00000    0.00000    0.00000    0.00000    0.00000
   0.00000   -0.00000   -0.00000   -0.00000    0.00000    0.00000    0.00000   -0.00000
   0.00000   -0.00000   -0.00000   -0.00000   -0.00000    0.00000    0.00000   -0.00000
  -0.00000    0.00000   -0.00000   -0.00000    0.00000    0.00096
 prteigrs : prtvol=0 or 1, do not print more k-points.

 Eight components of 2nd-order total energy (hartree) are
 1,2,3: 0th-order hamiltonian combined with 1st-order wavefunctions
     kin0=   3.99187869E+01 eigvalue=   2.15342843E+00  local=  -2.20393131E+01
 4,5,6: 1st-order hamiltonian combined with 1st and 0th-order wfs
     kin1=  -6.66796639E+01  Hartree=   0.00000000E+00     xc=   0.00000000E+00
 7,8,9: eventually, occupation + non-local contributions
    edocc=   1.72149534E+01     enl0=   5.87091941E+00   enl1=  -1.95578861E+01
 1-9 gives the relaxation energy (to be shifted if some occ is /=2.0)
   erelax=  -4.31187750E+01
  No Ewald or frozen-wf contrib.: the relaxation energy is the total one
 2DEtotal=   -0.4311877503E+02 Ha. Also 2DEtotal=   -0.117332153896E+04 eV
    (  non-var. 2DEtotal :   -4.3118775032E+01 Ha)

 CALCULATION OF EFFECTIVE MASSES
 NOTE : Additional infos (eff. mass eigenvalues, eigenvectors and, if degenerate, average mass) are available in stdout.

 K-point ( 0.000, 0.000, 0.500) | band =    21
 Effective mass tensor:
             -1.5656617094              0.4053048486             -0.2471428266
              0.4053048486             -0.7943336340              0.0483830131
             -0.2471428266              0.0483830131             -0.6569197020
 Effective mass tensor eigenvalues:
             -1.7929420080             -0.6644030658             -0.5595699715
 Angular average effective mass 1/(<1/m>)=  -0.7792330078
 Angular average effective mass for Frohlich model (<m**0.5>)**2=  -0.8298368720
 Effective masses along directions: (cart. coord. / red. coord. -> eff. mass)
    1:   1.000000  0.000000  0.000000 /   0.961621 -0.274383  0.000000 ->  -1.2831862906
    2:   0.000000  1.000000  0.000000 /   0.000000  1.000000  0.000000 ->  -0.6890182484
    3:   0.000000  0.000000  1.000000 /  -0.437076 -0.437076  0.786085 ->  -0.6175549356
    4:   0.577350  0.577350  0.577350 /   0.265294  0.003317  0.964162 ->  -0.7482259995
    5:   0.000000  0.707107  0.707107 /  -0.475550  0.205782  0.855281 ->  -0.6672516863
    6:   0.707107  0.000000  0.707107 /   0.210734 -0.607475  0.765875 ->  -1.0704241074
    7:   0.707107  0.707107  0.000000 /   0.829581  0.558387  0.000000 ->  -0.6680840468

 K-point ( 0.000, 0.000, 0.000) | band =    22
 Effective mass tensor:
              0.3308807578              0.0192051715             -0.0268093041
              0.0192051715              0.3423158960             -0.0359535492
             -0.0268093041             -0.0359535492              0.3667491996
 Effective mass tensor eigenvalues:
              0.3165601330              0.3165601332              0.4068255873
 Angular average effective mass 1/(<1/m>)=   0.3418425241
 Angular average effective mass for Frohlich model (<m**0.5>)**2=   0.3432134273
 Effective masses along directions: (cart. coord. / red. coord. -> eff. mass)
    1:   1.000000  0.000000  0.000000 /   0.961621 -0.274383  0.000000 ->   0.3281098950
    2:   0.000000  1.000000  0.000000 /   0.000000  1.000000  0.000000 ->   0.3379558124
    3:   0.000000  0.000000  1.000000 /  -0.437076 -0.437076  0.786085 ->   0.3611092935
    4:   0.577350  0.577350  0.577350 /   0.265294  0.003317  0.964162 ->   0.3173792994
    5:   0.000000  0.707107  0.707107 /  -0.475550  0.205782  0.855281 ->   0.3181388923
    6:   0.707107  0.000000  0.707107 /   0.210734 -0.607475  0.765875 ->   0.3208549189
    7:   0.707107  0.707107  0.000000 /   0.829581  0.558387  0.000000 ->   0.3503563403

 END OF EFFECTIVE MASSES SECTION

 ---- first-order wavefunction calculations are completed ----

 Total localisation tensor (bohr^2) in cartesian coordinates
  WARNING : still subject to testing - especially symmetries.
      direction              matrix element
   alpha     beta       real part   imaginary part
     1        1       2.1126566873    0.0000000000
     1        2      -0.5317709879    0.0000000000
     1        3      -0.9362071664    0.0000000000
     2        1      -0.5317709879    0.0000000000
     2        2       1.7862054560    0.0000000000
     2        3      -1.2467195388    0.0000000000
     3        1      -0.9362071664    0.0000000000
     3        2      -1.2467195388    0.0000000000
     3        3       6.1990482091    0.0000000000

 respfn : d/dk was computed, but no 2DTE, so no DDB output.

== END DATASET(S) ==============================================================

 -outvars: echo values of variables after computation  --------
            acell      1.0000000000E+00  1.0000000000E+00  1.0000000000E+00 Bohr
              amu      1.14820000E+02  3.09737620E+01  3.20660000E+01
             ecut      3.50000000E+01 Hartree
           etotal     -4.3118775032E+01
            fcart      0.0000000000E+00  0.0000000000E+00  0.0000000000E+00
                       0.0000000000E+00  0.0000000000E+00  0.0000000000E+00
                       0.0000000000E+00  0.0000000000E+00  0.0000000000E+00
                       0.0000000000E+00  0.0000000000E+00  0.0000000000E+00
                       0.0000000000E+00  0.0000000000E+00  0.0000000000E+00
                       0.0000000000E+00  0.0000000000E+00  0.0000000000E+00
-          fftalg         512
           irdden           1
           irdwfk           1
           istwfk        1    1
              ixc     -116133
              kpt      0.00000000E+00  0.00000000E+00  5.00000000E-01
                       0.00000000E+00  0.00000000E+00  0.00000000E+00
           kptopt           0
P           mkmem           2
P          mkqmem           2
P          mk1mem           2
            natom           6
            nband          30
           nbdbuf           4
            ngfft          64      64      64
             nkpt           2
            nstep        1000
             nsym           4
           ntypat           3
              occ      2.000000  2.000000  2.000000  2.000000  2.000000  2.000000
                       2.000000  2.000000  2.000000  2.000000  2.000000  2.000000
                       2.000000  2.000000  2.000000  2.000000  2.000000  2.000000
                       2.000000  2.000000  2.000000  0.000000  0.000000  0.000000
                       0.000000  0.000000  0.000000  0.000000  0.000000  0.000000
        optdriver           1
            prtwf          -1
            rfdir           1       1       1
           rfelfd           2
            rprim      9.4303468179E+00  0.0000000000E+00 -6.3084786534E+00
                      -2.6907943775E+00  9.0383110548E+00 -6.3084786534E+00
                       0.0000000000E+00  0.0000000000E+00  1.1345851402E+01
          spgroup          82
           strten      0.0000000000E+00  0.0000000000E+00  0.0000000000E+00
                       0.0000000000E+00  0.0000000000E+00  0.0000000000E+00
           symrel      1  0  0   0  1  0   0  0  1       0  1  0   1  0  0  -1 -1 -1
                       0  0  1  -1 -1 -1   0  1  0      -1 -1 -1   0  0  1   1  0  0
           tolwfr      1.00000000E-20
            typat      1  2  3  3  3  3
           useylm           1
              wtk        0.50000    0.50000
           xangst      0.0000000000E+00  0.0000000000E+00  0.0000000000E+00
                       3.3867666895E+00  1.1957170536E+00 -3.3632013737E-01
                      -2.4516342558E-01  2.6932570058E+00  3.3526241051E+00
                       2.8883495954E+00  8.5147967960E-01 -2.2969046735E+00
                       2.8368347418E+00  4.2493631794E+00 -2.9987762611E+00
                       1.6528141834E+00  1.7716365639E+00  5.9777628002E-01
            xcart      0.0000000000E+00  0.0000000000E+00  0.0000000000E+00
                       6.4000615190E+00  2.2595777637E+00 -6.3555295260E-01
                      -4.6329173214E-01  5.0895181465E+00  6.3355413852E+00
                       5.4581897114E+00  1.6090634022E+00 -4.3405207863E+00
                       5.3608407463E+00  8.0301326482E+00 -5.6668658673E+00
                       3.1233661553E+00  3.3479079127E+00  1.1296334580E+00
             xred      0.0000000000E+00  0.0000000000E+00  0.0000000000E+00
                       7.5000000000E-01  2.5000000000E-01  5.0000000000E-01
                       1.1154500000E-01  5.6310500000E-01  9.3351800000E-01
                       6.2958700000E-01  1.7802700000E-01  6.6482000000E-02
                       8.2197300000E-01  8.8845500000E-01  4.5156000000E-01
                       4.3689500000E-01  3.7041300000E-01  5.4844000000E-01
            znucl       49.00000   15.00000   16.00000

- Timing analysis has been suppressed with timopt=0

 Suggested references for the acknowledgment of ABINIT usage.

 Calculation completed.
.Delivered  14 WARNINGs and   9 COMMENTs to log file.