.Version 9.5.1 of ABINIT

 ABINIT is a project of the Universite Catholique de Louvain,
 Corning Inc. and other collaborators, see ~abinit/doc/developers/contributors.txt .
 acknowledgments of the ABINIT effort.

.Starting date : Tue  4 May 2021.
- ( at 19h46 )

- input  file    -> /scratch/users/j/a/jabreu/flow_simple_6atoms/flow/w223/t1/run.abi
- output file    -> /scratch/users/j/a/jabreu/flow_simple_6atoms/flow/w223/t1/run.abo
- root for input  files -> /scratch/users/j/a/jabreu/flow_simple_6atoms/flow/w223/t1/indata/in
- root for output files -> /scratch/users/j/a/jabreu/flow_simple_6atoms/flow/w223/t1/outdata/out

 Symmetries : space group I-4 (# 82); Bravais tI (body-center tetrag.)
     intxc =       0      iscf =       7    lmnmax =      18     lnmax =       6
     mgfft =      90  mpssoang =       3    mqgrid =    3112     natom =       6
  nloc_mem =       1    nspden =       1   nspinor =       1    nsppol =       1
      nsym =       4    n1xccc =    2501    ntypat =       3    occopt =       1
   xclevel =       2
-    mband =          39        mffmem =           1         mkmem =           2
-   mkqmem =           2        mk1mem =           2           mpw =       21473
      nfft =      729000          nkpt =           2
  Rough estimation (10% accuracy) of disk space for files :

------------- Echo of variables that govern the present computation ------------
-
- outvars: echo of selected default values
-   iomode0 =  0 , fftalg0 =512 , wfoptalg0 =  0
-
- outvars: echo of global parameters not present in the input file
-  max_nthreads =    0
-
 -outvars: echo values of preprocessed input variables --------
            acell      1.0000000000E+00  1.0000000000E+00  1.0000000000E+00 Bohr
              amu      6.97230000E+01  6.35460000E+01  1.26904470E+02
             ecut      4.60000000E+01 Hartree
-          fftalg         512
           irdden           1
           irdwfk           1
           istwfk        1    0
              ixc     -116133
              kpt      0.00000000E+00  0.00000000E+00  0.00000000E+00
                       5.00000000E-01  5.00000000E-01 -5.00000000E-01
           kptopt           0
P           mkmem           2
P          mkqmem           2
P          mk1mem           2
            natom           6
            nband          39
           nbdbuf           4
            ngfft          90      90      90
             nkpt           2
            nstep        1000
             nsym           4
           ntypat           3
              occ      2.000000  2.000000  2.000000  2.000000  2.000000  2.000000
                       2.000000  2.000000  2.000000  2.000000  2.000000  2.000000
                       2.000000  2.000000  2.000000  2.000000  2.000000  2.000000
                       2.000000  2.000000  2.000000  2.000000  2.000000  2.000000
                       2.000000  2.000000  2.000000  2.000000  2.000000  2.000000
                       0.000000  0.000000  0.000000  0.000000  0.000000  0.000000
                       0.000000  0.000000  0.000000
        optdriver           1
            prtwf          -1
            rfdir           1       1       1
           rfelfd           2
            rprim      1.0461251134E+01  0.0000000000E+00 -8.5149439436E+00
                      -2.3646454368E+00  1.0190496909E+01 -8.5149439436E+00
                       0.0000000000E+00  0.0000000000E+00  1.3488589461E+01
          spgroup          82
           symrel      1  0  0   0  1  0   0  0  1       0  1  0   1  0  0  -1 -1 -1
                      -1 -1 -1   0  0  1   1  0  0       0  0  1  -1 -1 -1   0  1  0
           tolwfr      1.00000000E-20
            typat      1  2  3  3  3  3
           useylm           1
              wtk        0.50000    0.50000
           xangst      0.0000000000E+00  0.0000000000E+00  0.0000000000E+00
                       4.4547656469E-01  4.0444340312E+00 -9.3698720798E-01
                       3.7797359318E+00  4.7704369027E+00 -4.3264328563E+00
                      -1.4331228221E-01  3.3699788196E+00  3.7885969212E+00
                       3.3232758551E+00  6.3236613480E-01 -3.3392768817E+00
                       1.6093788990E+00  2.0123755594E+00  1.2916398497E-01
            xcart      0.0000000000E+00  0.0000000000E+00  0.0000000000E+00
                       8.4182870588E-01  7.6428726814E+00 -1.7706492131E+00
                       7.1426657657E+00  9.0148192803E+00 -8.1757732308E+00
                      -2.7082096486E-01  6.3683370426E+00  7.1594106089E+00
                       6.2800812302E+00  1.1949988105E+00 -6.3103187883E+00
                       3.0412853632E+00  3.8028386839E+00  2.4408455782E-01
             xred      0.0000000000E+00  0.0000000000E+00  0.0000000000E+00
                       2.5000000000E-01  7.5000000000E-01  5.0000000000E-01
                       8.8273400000E-01  8.8463000000E-01  5.0955900000E-01
                       1.1537000000E-01  6.2492900000E-01  9.9810400000E-01
                       6.2682500000E-01  1.1726600000E-01  1.8960000000E-03
                       3.7507100000E-01  3.7317500000E-01  4.9044100000E-01
            znucl       31.00000   29.00000   53.00000

 chkinp: Checking input parameters for consistency.

== DATASET  1 ==================================================================
-   mpi_nproc: 1, omp_nthreads: -1 (-1 if OMP is not activated)

--- !DatasetInfo
iteration_state: {dtset: 1, }
dimensions: {natom: 6, nkpt: 2, mband: 39, nsppol: 1, nspinor: 1, nspden: 1, mpw: 21473, }
cutoff_energies: {ecut:  46.0, pawecutdg:  -1.0, }
electrons: {nelect:   6.00000000E+01, charge:   0.00000000E+00, occopt:   1.00000000E+00, tsmear:   1.00000000E-02, }
meta: {optdriver: 1, rfelfd: 2, }
...

 Real(R)+Recip(G) space primitive vectors, cartesian coordinates (Bohr,Bohr^-1):
 R(1)= 10.4612511  0.0000000 -8.5149439  G(1)=  0.0955909  0.0221813  0.0000000
 R(2)= -2.3646454 10.1904969 -8.5149439  G(2)=  0.0000000  0.0981306  0.0000000
 R(3)=  0.0000000  0.0000000 13.4885895  G(3)=  0.0603437  0.0759493  0.0741367
 Unit cell volume ucvol=  1.4379558E+03 bohr^3
 Angles (23,13,12)=  1.29143894E+02  1.29143894E+02  7.47791514E+01 degrees

 getcut: wavevector=  0.0000  0.0000  0.0000  ngfft=  90  90  90
         ecut(hartree)=     46.000   => boxcut(ratio)=   2.18579

--- Pseudopotential description ------------------------------------------------
- pspini: atom type   1  psp file is /scratch/users/j/a/jabreu/pseudos/PBEsol/Ga.psp8
- pspatm: opening atomic psp file    /scratch/users/j/a/jabreu/pseudos/PBEsol/Ga.psp8
- Ga    ONCVPSP-3.3.0  r_core=   1.66857   1.75011   1.90252
- 31.00000  13.00000    180112                znucl, zion, pspdat
    8 -116133    2    4       600   0.00000   pspcod,pspxc,lmax,lloc,mmax,r2well
    5.99000000000000    5.00000000000000    0.00000000000000   rchrg,fchrg,qchrg
     nproj     2     2     2
     extension_switch     1
  pspatm : epsatm=   24.50969055
         --- l  ekb(1:nproj) -->
             0    7.053021    1.156713
             1    6.846070    1.293139
             2   -8.368667   -2.819170
 pspatm: atomic psp has been read  and splines computed

- pspini: atom type   2  psp file is /scratch/users/j/a/jabreu/pseudos/PBEsol/Cu.psp8
- pspatm: opening atomic psp file    /scratch/users/j/a/jabreu/pseudos/PBEsol/Cu.psp8
- Cu    ONCVPSP-3.3.0  r_core=   1.26204   1.45626   1.76249
- 29.00000  19.00000    180112                znucl, zion, pspdat
    8 -116133    2    4       600   0.00000   pspcod,pspxc,lmax,lloc,mmax,r2well
    5.99000000000000    3.50000000000000    0.00000000000000   rchrg,fchrg,qchrg
     nproj     2     2     2
     extension_switch     1
  pspatm : epsatm=   21.63488701
         --- l  ekb(1:nproj) -->
             0    5.008230   -0.401634
             1   -3.496700   -0.765945
             2   -6.895851   -2.521180
 pspatm: atomic psp has been read  and splines computed

- pspini: atom type   3  psp file is /scratch/users/j/a/jabreu/pseudos/PBEsol/I.psp8
- pspatm: opening atomic psp file    /scratch/users/j/a/jabreu/pseudos/PBEsol/I.psp8
- I     ONCVPSP-3.3.0  r_core=   2.02042   2.17032   2.27639
- 53.00000   7.00000    180112                znucl, zion, pspdat
    8 -116133    2    4       600   0.00000   pspcod,pspxc,lmax,lloc,mmax,r2well
    5.99000000000000    4.00000000000000    0.00000000000000   rchrg,fchrg,qchrg
     nproj     2     2     2
     extension_switch     1
  pspatm : epsatm=   18.14229533
         --- l  ekb(1:nproj) -->
             0    6.015861    0.935228
             1    4.063749    0.754139
             2    4.149534    0.722940
 pspatm: atomic psp has been read  and splines computed

   7.12282553E+03                                ecore*ucvol(ha*bohr**3)

-inwffil : will read wavefunctions from disk file /scratch/users/j/a/jabreu/flow_simple_6atoms/flow/w223/t1/indata/in_WFK

 ==>  initialize data related to q vector <==

 The list of irreducible perturbations for this q vector is:
    1)    idir= 1    ipert=   7
    2)    idir= 2    ipert=   7
    3)    idir= 3    ipert=   7

 Perturbation wavevector (in red.coord.)   0.000000  0.000000  0.000000
 Perturbation : derivative vs k along direction   1

 dfpt_looppert : COMMENT -
  In a d/dk calculation, iscf is set to -3 automatically.
 The set of symmetries contains only one element for this perturbation.
 symkpt : not enough symmetry to change the number of k points.

[...]

 Initialisation of the first-order wave-functions :
  ireadwf=   0

--- !BeginCycle
iteration_state: {dtset: 1, }
solver: {iscf: 7, nstep: 1000, nline: 4, wfoptalg: 0, }
tolerances: {tolwfr: 1.00E-20, }
...

     iter   2DEtotal(Ha)        deltaE(Ha) residm    vres2
-ETOT  1  -34.658693979793     -3.466E+01 6.080E-02 0.000E+00
 ETOT  2  -34.719365102702     -6.067E-02 1.360E-03 0.000E+00
 ETOT  3  -34.720600662039     -1.236E-03 2.308E-05 0.000E+00
 ETOT  4  -34.720644773606     -4.411E-05 1.344E-06 0.000E+00
 ETOT  5  -34.720646654035     -1.880E-06 2.770E-08 0.000E+00
 ETOT  6  -34.720646741750     -8.771E-08 1.839E-09 0.000E+00
 ETOT  7  -34.720646746097     -4.347E-09 6.604E-11 0.000E+00
 ETOT  8  -34.720646746321     -2.244E-10 5.642E-12 0.000E+00
 ETOT  9  -34.720646746333     -1.196E-11 2.071E-13 0.000E+00
 ETOT 10  -34.720646746334     -6.608E-13 1.926E-14 0.000E+00
 ETOT 11  -34.720646746334     -5.684E-14 7.227E-16 0.000E+00
 ETOT 12  -34.720646746334     -1.421E-14 6.878E-17 0.000E+00
 ETOT 13  -34.720646746334      0.000E+00 2.764E-18 0.000E+00
 ETOT 14  -34.720646746334      1.421E-14 2.511E-19 0.000E+00
 ETOT 15  -34.720646746334      7.105E-15 1.250E-20 0.000E+00
 ETOT 16  -34.720646746334     -2.132E-14 9.711E-21 0.000E+00

 At SCF step   16   max residual=  9.71E-21 < tolwfr=  1.00E-20 =>converged.

 ----iterations are completed or convergence reached----

 dfpt_looppert: DFPT cycle converged with prtwf=-1. Will skip output of the 1st-order WFK file.
 dfpt_looppert : ek2=    4.5619472543E+01
          f-sum rule ratio=    1.0601554942E+00
 prteigrs : about to open file /scratch/users/j/a/jabreu/flow_simple_6atoms/flow/w223/t1/tmpdata/tmp_1WF1_EIG
 Expectation of eigenvalue derivatives (hartree) for nkpt=   2  k points:
  (in case of degenerate eigenvalues, averaged derivative)
 kpt#   1, nband= 39, wtk=  0.50000, kpt=  0.0000  0.0000  0.0000 (reduced coord)
  -0.00000    0.00000    0.00000   -0.00000    0.00000    0.00000    0.00000   -0.00000
  -0.00000   -0.00000   -0.00000   -0.00000    0.00000   -0.00000   -0.00000   -0.00000
  -0.00000   -0.00000   -0.00000   -0.00000   -0.00000   -0.00000    0.00000   -0.00000
  -0.00000    0.00000   -0.00000   -0.00000   -0.00000    0.00000   -0.00000    0.00000
   0.00000   -0.00000   -0.00000   -0.00000   -0.00000    0.00000    0.00000
 prteigrs : prtvol=0 or 1, do not print more k-points.

 Eight components of 2nd-order total energy (hartree) are
 1,2,3: 0th-order hamiltonian combined with 1st-order wavefunctions
     kin0=   3.61125595E+01 eigvalue=   1.44017953E+00  local=  -1.60524641E+01
 4,5,6: 1st-order hamiltonian combined with 1st and 0th-order wfs
     kin1=  -4.83637345E+01  Hartree=   0.00000000E+00     xc=   0.00000000E+00
 7,8,9: eventually, occupation + non-local contributions
    edocc=   9.76867756E+00     enl0=   3.45169426E+00   enl1=  -2.10775590E+01
 1-9 gives the relaxation energy (to be shifted if some occ is /=2.0)
   erelax=  -3.47206467E+01
  No Ewald or frozen-wf contrib.: the relaxation energy is the total one
 2DEtotal=   -0.3472064675E+02 Ha. Also 2DEtotal=   -0.944796846482E+03 eV
    (  non-var. 2DEtotal :   -3.4720646746E+01 Ha)

 Perturbation wavevector (in red.coord.)   0.000000  0.000000  0.000000
 Perturbation : derivative vs k along direction   2
 The set of symmetries contains only one element for this perturbation.
 symkpt : not enough symmetry to change the number of k points.

[...]

 Perturbation wavevector (in red.coord.)   0.000000  0.000000  0.000000
 Perturbation : derivative vs k along direction   3
 The set of symmetries contains only one element for this perturbation.
 symkpt : not enough symmetry to change the number of k points.

-inwffil : will read wavefunctions from disk file /scratch/users/j/a/jabreu/flow_simple_6atoms/flow/w223/t1/indata/in_WFK

 Initialisation of the first-order wave-functions :
  ireadwf=   0

--- !BeginCycle
iteration_state: {dtset: 1, }
solver: {iscf: 7, nstep: 1000, nline: 4, wfoptalg: 0, }
tolerances: {tolwfr: 1.00E-20, }
...

     iter   2DEtotal(Ha)        deltaE(Ha) residm    vres2
-ETOT  1  -53.930741940716     -5.393E+01 9.214E-02 0.000E+00
 ETOT  2  -54.015944446161     -8.520E-02 1.158E-03 0.000E+00
 ETOT  3  -54.017466588958     -1.522E-03 3.862E-05 0.000E+00
 ETOT  4  -54.017516987387     -5.040E-05 1.115E-06 0.000E+00
 ETOT  5  -54.017519009868     -2.022E-06 5.362E-08 0.000E+00
 ETOT  6  -54.017519098128     -8.826E-08 2.263E-09 0.000E+00
 ETOT  7  -54.017519102147     -4.019E-09 1.060E-10 0.000E+00
 ETOT  8  -54.017519102335     -1.879E-10 5.489E-12 0.000E+00
 ETOT  9  -54.017519102344     -8.960E-12 2.309E-13 0.000E+00
 ETOT 10  -54.017519102344     -4.405E-13 1.645E-14 0.000E+00
 ETOT 11  -54.017519102344     -4.263E-14 6.381E-16 0.000E+00
 ETOT 12  -54.017519102344      2.132E-14 5.689E-17 0.000E+00
 ETOT 13  -54.017519102344      0.000E+00 2.253E-18 0.000E+00
 ETOT 14  -54.017519102344      0.000E+00 2.008E-19 0.000E+00
 ETOT 15  -54.017519102344      2.842E-14 9.883E-21 0.000E+00

 At SCF step   15   max residual=  9.88E-21 < tolwfr=  1.00E-20 =>converged.

 ----iterations are completed or convergence reached----

 dfpt_looppert: DFPT cycle converged with prtwf=-1. Will skip output of the 1st-order WFK file.
 dfpt_looppert : ek2=    7.0615431500E+01
          f-sum rule ratio=    1.0676738900E+00
 prteigrs : about to open file /scratch/users/j/a/jabreu/flow_simple_6atoms/flow/w223/t1/tmpdata/tmp_1WF1_EIG
 Expectation of eigenvalue derivatives (hartree) for nkpt=   2  k points:
  (in case of degenerate eigenvalues, averaged derivative)
 kpt#   1, nband= 39, wtk=  0.50000, kpt=  0.0000  0.0000  0.0000 (reduced coord)
  -0.00000    0.00000    0.00000   -0.00000    0.00000    0.00000    0.00000   -0.00000
   0.00000   -0.00000   -0.00000   -0.00000   -0.00000   -0.00000    0.00000   -0.00000
  -0.00000   -0.00000   -0.00000   -0.00000    0.00000    0.00000   -0.00000    0.00000
   0.00000   -0.00000   -0.00000   -0.00000   -0.00000    0.00000    0.00000   -0.00000
  -0.00000    0.00000    0.00000   -0.00000    0.00000   -0.00000   -0.00000
 prteigrs : prtvol=0 or 1, do not print more k-points.

 Eight components of 2nd-order total energy (hartree) are
 1,2,3: 0th-order hamiltonian combined with 1st-order wavefunctions
     kin0=   5.51978356E+01 eigvalue=   2.21534388E+00  local=  -2.43156120E+01
 4,5,6: 1st-order hamiltonian combined with 1st and 0th-order wfs
     kin1=  -7.53942524E+01  Hartree=   0.00000000E+00     xc=   0.00000000E+00
 7,8,9: eventually, occupation + non-local contributions
    edocc=   1.57841619E+01     enl0=   5.13578972E+00   enl1=  -3.26407858E+01
 1-9 gives the relaxation energy (to be shifted if some occ is /=2.0)
   erelax=  -5.40175191E+01
  No Ewald or frozen-wf contrib.: the relaxation energy is the total one
 2DEtotal=   -0.5401751910E+02 Ha. Also 2DEtotal=   -0.146989144746E+04 eV
    (  non-var. 2DEtotal :   -5.4017519102E+01 Ha)

 CALCULATION OF EFFECTIVE MASSES
 NOTE : Additional infos (eff. mass eigenvalues, eigenvectors and, if degenerate, average mass) are available in stdout.

 K-point ( 0.000, 0.000, 0.000) | band =    30
 Effective mass tensor:
             -1.1405180747              0.1540166593             -0.2573855613
              0.1540166593             -1.0690407071             -0.3239488910
             -0.2573855613             -0.3239488910             -0.7215197471
 Effective mass tensor eigenvalues:
             -1.2628882041             -1.2628881466             -0.4053021782
 Angular average effective mass 1/(<1/m>)=  -0.7405640297
 Angular average effective mass for Frohlich model (<m**0.5>)**2=  -0.8160860255
 Effective masses along directions: (cart. coord. / red. coord. -> eff. mass)
    1:   1.000000  0.000000  0.000000 /   0.975392 -0.220476  0.000000 ->  -0.9700174466
    2:   0.000000  1.000000  0.000000 /   0.000000  1.000000  0.000000 ->  -0.8542963241
    3:   0.000000  0.000000  1.000000 /  -0.470913 -0.470913  0.745977 ->  -0.5406857713
    4:   0.577350  0.577350  0.577350 /   0.142632 -0.050499  0.988487 ->  -1.2598311512
    5:   0.000000  0.707107  0.707107 /  -0.530886  0.104467  0.840980 ->  -1.1400791428
    6:   0.707107  0.000000  0.707107 /   0.111611 -0.623889  0.773502 ->  -1.0668327876
    7:   0.707107  0.707107  0.000000 /   0.800737  0.599016  0.000000 ->  -0.7134536050

 K-point ( 0.500, 0.500,-0.500) | band =    31
 Effective mass tensor:
              0.7830172234              0.0272214247             -0.0454916884
              0.0272214247              0.7956506139             -0.0572562982
             -0.0454916884             -0.0572562982              0.8570729512
 Effective mass tensor eigenvalues:
              0.7613887081              0.7613892587              0.9129628218
 Angular average effective mass 1/(<1/m>)=   0.8059937831
 Angular average effective mass for Frohlich model (<m**0.5>)**2=   0.8077083375
 Effective masses along directions: (cart. coord. / red. coord. -> eff. mass)
    1:   1.000000  0.000000  0.000000 /   0.975392 -0.220476  0.000000 ->   0.7798640867
    2:   0.000000  1.000000  0.000000 /   0.000000  1.000000  0.000000 ->   0.7910764891
    3:   0.000000  0.000000  1.000000 /  -0.470913 -0.470913  0.745977 ->   0.8505295556
    4:   0.577350  0.577350  0.577350 /   0.142632 -0.050499  0.988487 ->   0.7615337233
    5:   0.000000  0.707107  0.707107 /  -0.530886  0.104467  0.840980 ->   0.7678792136
    6:   0.707107  0.000000  0.707107 /   0.111611 -0.623889  0.773502 ->   0.7725283787
    7:   0.707107  0.707107  0.000000 /   0.800737  0.599016  0.000000 ->   0.8103551818

 END OF EFFECTIVE MASSES SECTION

 ---- first-order wavefunction calculations are completed ----

 Total localisation tensor (bohr^2) in cartesian coordinates
  WARNING : still subject to testing - especially symmetries.
      direction              matrix element
   alpha     beta       real part   imaginary part
     1        1       1.6675689388    0.0000000000
     1        2      -0.3493305802    0.0000000000
     1        3      -0.9994475823    0.0000000000
     2        1      -0.3493305802    0.0000000000
     2        2       1.5054486151    0.0000000000
     2        3      -1.2579181057    0.0000000000
     3        1      -0.9994475823    0.0000000000
     3        2      -1.2579181057    0.0000000000
     3        3       6.2195513294    0.0000000000

 respfn : d/dk was computed, but no 2DTE, so no DDB output.

== END DATASET(S) ==============================================================

 -outvars: echo values of variables after computation  --------
            acell      1.0000000000E+00  1.0000000000E+00  1.0000000000E+00 Bohr
              amu      6.97230000E+01  6.35460000E+01  1.26904470E+02
             ecut      4.60000000E+01 Hartree
           etotal     -5.4017519102E+01
            fcart      0.0000000000E+00  0.0000000000E+00  0.0000000000E+00
                       0.0000000000E+00  0.0000000000E+00  0.0000000000E+00
                       0.0000000000E+00  0.0000000000E+00  0.0000000000E+00
                       0.0000000000E+00  0.0000000000E+00  0.0000000000E+00
                       0.0000000000E+00  0.0000000000E+00  0.0000000000E+00
                       0.0000000000E+00  0.0000000000E+00  0.0000000000E+00
-          fftalg         512
           irdden           1
           irdwfk           1
           istwfk        1    0
              ixc     -116133
              kpt      0.00000000E+00  0.00000000E+00  0.00000000E+00
                       5.00000000E-01  5.00000000E-01 -5.00000000E-01
           kptopt           0
P           mkmem           2
P          mkqmem           2
P          mk1mem           2
            natom           6
            nband          39
           nbdbuf           4
            ngfft          90      90      90
             nkpt           2
            nstep        1000
             nsym           4
           ntypat           3
              occ      2.000000  2.000000  2.000000  2.000000  2.000000  2.000000
                       2.000000  2.000000  2.000000  2.000000  2.000000  2.000000
                       2.000000  2.000000  2.000000  2.000000  2.000000  2.000000
                       2.000000  2.000000  2.000000  2.000000  2.000000  2.000000
                       2.000000  2.000000  2.000000  2.000000  2.000000  2.000000
                       0.000000  0.000000  0.000000  0.000000  0.000000  0.000000
                       0.000000  0.000000  0.000000
        optdriver           1
            prtwf          -1
            rfdir           1       1       1
           rfelfd           2
            rprim      1.0461251134E+01  0.0000000000E+00 -8.5149439436E+00
                      -2.3646454368E+00  1.0190496909E+01 -8.5149439436E+00
                       0.0000000000E+00  0.0000000000E+00  1.3488589461E+01
          spgroup          82
           strten      0.0000000000E+00  0.0000000000E+00  0.0000000000E+00
                       0.0000000000E+00  0.0000000000E+00  0.0000000000E+00
           symrel      1  0  0   0  1  0   0  0  1       0  1  0   1  0  0  -1 -1 -1
                      -1 -1 -1   0  0  1   1  0  0       0  0  1  -1 -1 -1   0  1  0
           tolwfr      1.00000000E-20
            typat      1  2  3  3  3  3
           useylm           1
              wtk        0.50000    0.50000
           xangst      0.0000000000E+00  0.0000000000E+00  0.0000000000E+00
                       4.4547656469E-01  4.0444340312E+00 -9.3698720798E-01
                       3.7797359318E+00  4.7704369027E+00 -4.3264328563E+00
                      -1.4331228221E-01  3.3699788196E+00  3.7885969212E+00
                       3.3232758551E+00  6.3236613480E-01 -3.3392768817E+00
                       1.6093788990E+00  2.0123755594E+00  1.2916398497E-01
            xcart      0.0000000000E+00  0.0000000000E+00  0.0000000000E+00
                       8.4182870588E-01  7.6428726814E+00 -1.7706492131E+00
                       7.1426657657E+00  9.0148192803E+00 -8.1757732308E+00
                      -2.7082096486E-01  6.3683370426E+00  7.1594106089E+00
                       6.2800812302E+00  1.1949988105E+00 -6.3103187883E+00
                       3.0412853632E+00  3.8028386839E+00  2.4408455782E-01
             xred      0.0000000000E+00  0.0000000000E+00  0.0000000000E+00
                       2.5000000000E-01  7.5000000000E-01  5.0000000000E-01
                       8.8273400000E-01  8.8463000000E-01  5.0955900000E-01
                       1.1537000000E-01  6.2492900000E-01  9.9810400000E-01
                       6.2682500000E-01  1.1726600000E-01  1.8960000000E-03
                       3.7507100000E-01  3.7317500000E-01  4.9044100000E-01
            znucl       31.00000   29.00000   53.00000

- Timing analysis has been suppressed with timopt=0

 Suggested references for the acknowledgment of ABINIT usage.

 Calculation completed.
.Delivered  14 WARNINGs and   9 COMMENTs to log file.