.Version 9.5.1 of ABINIT

 ABINIT is a project of the Universite Catholique de Louvain,
 Corning Inc. and other collaborators, see ~abinit/doc/developers/contributors.txt .
 acknowledgments of the ABINIT effort.

.Starting date : Wed 19 May 2021.
- ( at 13h43 )

- input  file    -> /scratch/users/j/a/jabreu/flow_simple_9atoms/flow/w158/t1/run.abi
- output file    -> /scratch/users/j/a/jabreu/flow_simple_9atoms/flow/w158/t1/run.abo
- root for input  files -> /scratch/users/j/a/jabreu/flow_simple_9atoms/flow/w158/t1/indata/in
- root for output files -> /scratch/users/j/a/jabreu/flow_simple_9atoms/flow/w158/t1/outdata/out

 Symmetries : space group Fm -3 m (#225); Bravais cF (face-center cubic)
     intxc =       0      iscf =       7    lmnmax =      32     lnmax =       8
     mgfft =      80  mpssoang =       4    mqgrid =    3261     natom =       9
  nloc_mem =       1    nspden =       1   nspinor =       1    nsppol =       1
      nsym =      48    n1xccc =    2501    ntypat =       3    occopt =       1
   xclevel =       2
-    mband =          48        mffmem =           1         mkmem =           2
-   mkqmem =           2        mk1mem =           2           mpw =       23612
      nfft =      512000          nkpt =           2
  Rough estimation (10% accuracy) of disk space for files :

------------- Echo of variables that govern the present computation ------------
-
- outvars: echo of selected default values
-   iomode0 =  0 , fftalg0 =512 , wfoptalg0 =  0
-
- outvars: echo of global parameters not present in the input file
-  max_nthreads =    0
-
 -outvars: echo values of preprocessed input variables --------
            acell      1.0000000000E+00  1.0000000000E+00  1.0000000000E+00 Bohr
              amu      3.90983000E+01  1.95080000E+02  7.99040000E+01
             ecut      4.20000000E+01 Hartree
-          fftalg         512
           irdden           1
           irdwfk           1
           istwfk        1    1
              ixc     -116133
              kpt      0.00000000E+00  0.00000000E+00  0.00000000E+00
                       5.00000000E-01  0.00000000E+00  5.00000000E-01
           kptopt           0
P           mkmem           2
P          mkqmem           2
P          mk1mem           2
            natom           9
            nband          48
           nbdbuf           4
            ngfft          80      80      80
             nkpt           2
            nstep        2000
             nsym          48
           ntypat           3
              occ      2.000000  2.000000  2.000000  2.000000  2.000000  2.000000
                       2.000000  2.000000  2.000000  2.000000  2.000000  2.000000
                       2.000000  2.000000  2.000000  2.000000  2.000000  2.000000
                       2.000000  2.000000  2.000000  2.000000  2.000000  2.000000
                       2.000000  2.000000  2.000000  2.000000  2.000000  2.000000
                       2.000000  2.000000  2.000000  2.000000  2.000000  2.000000
                       2.000000  2.000000  2.000000  0.000000  0.000000  0.000000
                       0.000000  0.000000  0.000000  0.000000  0.000000  0.000000
        optdriver           1
            prtwf          -1
            rfdir           1       1       1
           rfelfd           2
            rprim      1.1855818622E+01  0.0000000000E+00  6.8449600727E+00
                       3.9519395406E+00  1.1177772992E+01  6.8449600727E+00
                       0.0000000000E+00  0.0000000000E+00  1.3689920145E+01
          spgroup         225
           symrel      1  0  0   0  1  0   0  0  1      -1  0  0   0 -1  0   0  0 -1
                       0 -1  1   0 -1  0   1 -1  0       0  1 -1   0  1  0  -1  1  0
                      -1  0  0  -1  0  1  -1  1  0       1  0  0   1  0 -1   1 -1  0
                       0  1 -1   1  0 -1   0  0 -1       0 -1  1  -1  0  1   0  0  1
                      -1  0  0  -1  1  0  -1  0  1       1  0  0   1 -1  0   1  0 -1
                       0 -1  1   1 -1  0   0 -1  0       0  1 -1  -1  1  0   0  1  0
                       1  0  0   0  0  1   0  1  0      -1  0  0   0  0 -1   0 -1  0
                       0  1 -1   0  0 -1   1  0 -1       0 -1  1   0  0  1  -1  0  1
                      -1  0  1  -1  1  0  -1  0  0       1  0 -1   1 -1  0   1  0  0
                       0 -1  0   1 -1  0   0 -1  1       0  1  0  -1  1  0   0  1 -1
                       1  0 -1   0  0 -1   0  1 -1      -1  0  1   0  0  1   0 -1  1
                       0  1  0   0  0  1   1  0  0       0 -1  0   0  0 -1  -1  0  0
                       1  0 -1   0  1 -1   0  0 -1      -1  0  1   0 -1  1   0  0  1
                       0 -1  0   0 -1  1   1 -1  0       0  1  0   0  1 -1  -1  1  0
                      -1  0  1  -1  0  0  -1  1  0       1  0 -1   1  0  0   1 -1  0
                       0  1  0   1  0  0   0  0  1       0 -1  0  -1  0  0   0  0 -1
                       0  0 -1   0  1 -1   1  0 -1       0  0  1   0 -1  1  -1  0  1
                       1 -1  0   0 -1  1   0 -1  0      -1  1  0   0  1 -1   0  1  0
                       0  0  1   1  0  0   0  1  0       0  0 -1  -1  0  0   0 -1  0
                      -1  1  0  -1  0  0  -1  0  1       1 -1  0   1  0  0   1  0 -1
                       0  0  1   0  1  0   1  0  0       0  0 -1   0 -1  0  -1  0  0
                       1 -1  0   0 -1  0   0 -1  1      -1  1  0   0  1  0   0  1 -1
                       0  0 -1   1  0 -1   0  1 -1       0  0  1  -1  0  1   0 -1  1
                      -1  1  0  -1  0  1  -1  0  0       1 -1  0   1  0 -1   1  0  0
           tolwfr      1.00000000E-20
            typat      1  1  2  3  3  3  3  3  3
           useylm           1
              wtk        0.50000    0.50000
           xangst      2.0912763346E+00  1.4787556775E+00  3.6221968642E+00
                       6.2738290038E+00  4.4362670326E+00  1.0866590593E+01
                       0.0000000000E+00  0.0000000000E+00  0.0000000000E+00
                       3.0984768429E+00  4.4906260913E+00  9.1220681388E+00
                       6.3507043219E+00  4.4906260913E+00  7.2443937284E+00
                       3.0984768429E+00  4.4906260913E+00  5.3667193179E+00
                       2.0144010165E+00  1.4243966188E+00  7.2443937283E+00
                       5.2666284955E+00  1.4243966188E+00  9.1220681388E+00
                       5.2666284955E+00  1.4243966188E+00  5.3667193179E+00
            xcart      3.9519395406E+00  2.7944432480E+00  6.8449600727E+00
                       1.1855818622E+01  8.3833297439E+00  2.0534880218E+01
                       0.0000000000E+00  0.0000000000E+00  0.0000000000E+00
                       5.8552726621E+00  8.4860534777E+00  1.7238210548E+01
                       1.2001091919E+01  8.4860534777E+00  1.3689920145E+01
                       5.8552726621E+00  8.4860534777E+00  1.0141629743E+01
                       3.8066662431E+00  2.6917195142E+00  1.3689920145E+01
                       9.9524855002E+00  2.6917195142E+00  1.7238210548E+01
                       9.9524855002E+00  2.6917195142E+00  1.0141629743E+01
             xred      2.5000000000E-01  2.5000000000E-01  2.5000000000E-01
                       7.5000000000E-01  7.5000000000E-01  7.5000000000E-01
                       0.0000000000E+00  0.0000000000E+00  0.0000000000E+00
                       2.4081000000E-01  7.5919000000E-01  7.5919000000E-01
                       7.5919000000E-01  7.5919000000E-01  2.4081000000E-01
                       2.4081000000E-01  7.5919000000E-01  2.4081000000E-01
                       2.4081000000E-01  2.4081000000E-01  7.5919000000E-01
                       7.5919000000E-01  2.4081000000E-01  7.5919000000E-01
                       7.5919000000E-01  2.4081000000E-01  2.4081000000E-01
            znucl       19.00000   78.00000   35.00000

 chkinp: Checking input parameters for consistency.

== DATASET  1 ==================================================================
-   mpi_nproc: 1, omp_nthreads: -1 (-1 if OMP is not activated)

--- !DatasetInfo
iteration_state: {dtset: 1, }
dimensions: {natom: 9, nkpt: 2, mband: 48, nsppol: 1, nspinor: 1, nspden: 1, mpw: 23612, }
cutoff_energies: {ecut:  42.0, pawecutdg:  -1.0, }
electrons: {nelect:   7.80000000E+01, charge:   0.00000000E+00, occopt:   1.00000000E+00, tsmear:   1.00000000E-02, }
meta: {optdriver: 1, rfelfd: 2, }
...

 Real(R)+Recip(G) space primitive vectors, cartesian coordinates (Bohr,Bohr^-1):
 R(1)= 11.8558186  0.0000000  6.8449601  G(1)=  0.0843468 -0.0298211  0.0000000
 R(2)=  3.9519395 11.1777730  6.8449601  G(2)=  0.0000000  0.0894633  0.0000000
 R(3)=  0.0000000  0.0000000 13.6899201  G(3)= -0.0421734 -0.0298211  0.0730464
 Unit cell volume ucvol=  1.8142108E+03 bohr^3
 Angles (23,13,12)=  6.00000000E+01  6.00000000E+01  6.00000000E+01 degrees

 getcut: wavevector=  0.0000  0.0000  0.0000  ngfft=  80  80  80
         ecut(hartree)=     42.000   => boxcut(ratio)=   2.00308

--- Pseudopotential description ------------------------------------------------
- pspini: atom type   1  psp file is /scratch/users/j/a/jabreu/pseudos/PBEsol/K.psp8
- pspatm: opening atomic psp file    /scratch/users/j/a/jabreu/pseudos/PBEsol/K.psp8
- K     ONCVPSP-3.3.0  r_core=   1.36296   1.46408   1.61068
- 19.00000   9.00000    180112                znucl, zion, pspdat
    8 -116133    2    4       400   0.00000   pspcod,pspxc,lmax,lloc,mmax,r2well
    3.99000000000000    5.00000000000000    0.00000000000000   rchrg,fchrg,qchrg
     nproj     2     2     2
     extension_switch     1
  pspatm : epsatm=    8.32487830
         --- l  ekb(1:nproj) -->
             0   10.921326    0.816676
             1    4.431000    0.560368
             2   -3.384038   -1.043186
 pspatm: atomic psp has been read  and splines computed

- pspini: atom type   2  psp file is /scratch/users/j/a/jabreu/pseudos/PBEsol/Pt.psp8
- pspatm: opening atomic psp file    /scratch/users/j/a/jabreu/pseudos/PBEsol/Pt.psp8
- Pt    ONCVPSP-3.3.0  r_core=   1.45722   1.45722   1.45722   1.91724
- 78.00000  18.00000    180112                znucl, zion, pspdat
    8 -116133    3    4       500   0.00000   pspcod,pspxc,lmax,lloc,mmax,r2well
    4.99000000000000    5.00000000000000    0.00000000000000   rchrg,fchrg,qchrg
     nproj     2     2     2     2
     extension_switch     1
  pspatm : epsatm=   26.54019552
         --- l  ekb(1:nproj) -->
             0   18.149684    1.747248
             1    8.048135    1.208190
             2    2.365973    0.348456
             3    3.491561    0.381218
 pspatm: atomic psp has been read  and splines computed

- pspini: atom type   3  psp file is /scratch/users/j/a/jabreu/pseudos/PBEsol/Br.psp8
- pspatm: opening atomic psp file    /scratch/users/j/a/jabreu/pseudos/PBEsol/Br.psp8
- Br    ONCVPSP-3.3.0  r_core=   1.81012   1.51356   1.92136
- 35.00000   7.00000    180112                znucl, zion, pspdat
    8 -116133    2    4       600   0.00000   pspcod,pspxc,lmax,lloc,mmax,r2well
    5.99000000000000    8.00000000000000    0.00000000000000   rchrg,fchrg,qchrg
     nproj     2     2     2
     extension_switch     1
[...]

 Initialisation of the first-order wave-functions :
  ireadwf=   0

--- !BeginCycle
iteration_state: {dtset: 1, }
solver: {iscf: 7, nstep: 2000, nline: 4, wfoptalg: 0, }
tolerances: {tolwfr: 1.00E-20, }
...

     iter   2DEtotal(Ha)        deltaE(Ha) residm    vres2
-ETOT  1  -26.357527168945     -2.636E+01 4.944E-02 0.000E+00
 ETOT  2  -26.407595002105     -5.007E-02 1.096E-02 0.000E+00
 ETOT  3  -26.408179213505     -5.842E-04 6.918E-04 0.000E+00
 ETOT  4  -26.408191765917     -1.255E-05 1.277E-04 0.000E+00
 ETOT  5  -26.408192144932     -3.790E-07 1.138E-05 0.000E+00
 ETOT  6  -26.408192158472     -1.354E-08 2.893E-06 0.000E+00
 ETOT  7  -26.408192158997     -5.254E-10 2.276E-07 0.000E+00
 ETOT  8  -26.408192159018     -2.152E-11 6.182E-08 0.000E+00
 ETOT  9  -26.408192159019     -9.521E-13 5.382E-09 0.000E+00
 ETOT 10  -26.408192159019      0.000E+00 1.281E-09 0.000E+00
 ETOT 11  -26.408192159019     -3.908E-14 1.465E-10 0.000E+00
 ETOT 12  -26.408192159019      3.197E-14 2.642E-11 0.000E+00
 ETOT 13  -26.408192159019     -2.487E-14 3.700E-12 0.000E+00
 ETOT 14  -26.408192159019      2.132E-14 6.921E-13 0.000E+00
 ETOT 15  -26.408192159019     -3.553E-15 9.589E-14 0.000E+00
 ETOT 16  -26.408192159019      3.553E-15 1.879E-14 0.000E+00
 ETOT 17  -26.408192159019     -3.553E-15 2.532E-15 0.000E+00
 ETOT 18  -26.408192159019      3.553E-15 5.135E-16 0.000E+00
 ETOT 19  -26.408192159019     -1.421E-14 6.774E-17 0.000E+00
 ETOT 20  -26.408192159019      1.066E-14 1.408E-17 0.000E+00
 ETOT 21  -26.408192159019      7.105E-15 1.829E-18 0.000E+00
 ETOT 22  -26.408192159019     -3.553E-15 3.871E-19 0.000E+00
 ETOT 23  -26.408192159019      0.000E+00 4.974E-20 0.000E+00
 ETOT 24  -26.408192159019     -3.553E-15 1.067E-20 0.000E+00
 ETOT 25  -26.408192159019      7.105E-15 9.808E-21 0.000E+00

 At SCF step   25   max residual=  9.81E-21 < tolwfr=  1.00E-20 =>converged.

 ----iterations are completed or convergence reached----

 dfpt_looppert: DFPT cycle converged with prtwf=-1. Will skip output of the 1st-order WFK file.
 dfpt_looppert : ek2=    4.9291696346E+01
          f-sum rule ratio=    1.0531532518E+00
 prteigrs : about to open file /scratch/users/j/a/jabreu/flow_simple_9atoms/flow/w158/t1/tmpdata/tmp_1WF1_EIG
 Expectation of eigenvalue derivatives (hartree) for nkpt=   2  k points:
  (in case of degenerate eigenvalues, averaged derivative)
 kpt#   1, nband= 48, wtk=  0.50000, kpt=  0.0000  0.0000  0.0000 (reduced coord)
   0.00000   -0.00000   -0.00000   -0.00000   -0.00000   -0.00000   -0.00000    0.00000
   0.00000    0.00000   -0.00000   -0.00000   -0.00000   -0.00000   -0.00000    0.00000
   0.00000    0.00000   -0.00000    0.00000    0.00000    0.00000    0.00000    0.00000
   0.00000    0.00000    0.00000    0.00000    0.00000    0.00000   -0.00000   -0.00000
  -0.00000    0.00000    0.00000    0.00000   -0.00000   -0.00000   -0.00000    0.00000
   0.00000    0.00000   -0.00000    0.00000    0.00000    0.00000   -0.00000   -0.00000
 prteigrs : prtvol=0 or 1, do not print more k-points.

 Eight components of 2nd-order total energy (hartree) are
 1,2,3: 0th-order hamiltonian combined with 1st-order wavefunctions
     kin0=   3.60561408E+01 eigvalue=   1.15619226E+00  local=  -2.16172752E+01
 4,5,6: 1st-order hamiltonian combined with 1st and 0th-order wfs
     kin1=  -5.19117103E+01  Hartree=   0.00000000E+00     xc=   0.00000000E+00
 7,8,9: eventually, occupation + non-local contributions
    edocc=   7.05226730E+00     enl0=   3.76086694E+00   enl1=  -9.04674022E-01
 1-9 gives the relaxation energy (to be shifted if some occ is /=2.0)
   erelax=  -2.64081922E+01
  No Ewald or frozen-wf contrib.: the relaxation energy is the total one
 2DEtotal=   -0.2640819216E+02 Ha. Also 2DEtotal=   -0.718603453888E+03 eV
    (  non-var. 2DEtotal :   -2.6408192159E+01 Ha)

 CALCULATION OF EFFECTIVE MASSES
 NOTE : Additional infos (eff. mass eigenvalues, eigenvectors and, if degenerate, average mass) are available in stdout.

 COMMENTS:
 - At k-point ( 0.000, 0.000, 0.000), bands    37 through    39
   are DEGENERATE (effective mass tensor is therefore not defined).
   See Section IIIB Eqs. (67)-(70) and Appendix E of PRB 93 205147 (2016).
 - Angular average effective mass for Frohlich model is to be averaged over degenerate bands. See later.
 - Associated theta integrals calculated with ntheta=   1000 points.

 K-point ( 0.000, 0.000, 0.000) | band =    37
 Transport equivalent effective mass tensor:
             -0.7446625492             -0.0000002233             -0.0000000536
             -0.0000002233             -0.7446622483             -0.0000000211
             -0.0000000536             -0.0000000211             -0.7446613499
 Transport equivalent effective mass tensor eigenvalues:
             -0.7446626704             -0.7446621296             -0.7446613474
 Angular average effective mass 1/(<1/m>)=  -0.7110169118
 Angular average effective mass for Frohlich model (<m**0.5>)**2=  -0.7123290600
 Effective masses along directions: (cart. coord. / red. coord. -> eff. mass)
    1:   1.000000  0.000000  0.000000 /   0.948683  0.316228  0.000000 ->  -0.7538510033
    2:   0.000000  1.000000  0.000000 /   0.000000  1.000000  0.000000 ->  -0.8457420081
    3:   0.000000  0.000000  1.000000 /   0.408248  0.408248  0.816497 ->  -0.6799706378
    4:   0.577350  0.577350  0.577350 /   0.585539  0.688047  0.428644 ->  -0.7303861895
    5:   0.000000  0.707107  0.707107 /   0.289489  0.762222  0.578977 ->  -0.6842914296
    6:   0.707107  0.000000  0.707107 /   0.731423  0.422287  0.535439 ->  -0.7032349363
    7:   0.707107  0.707107  0.000000 /   0.616798  0.787122  0.000000 ->  -0.6857358414

[...]

 K-point ( 0.000, 0.000, 0.000) | band =    39
 Transport equivalent effective mass tensor:
            -42.0619708145              0.0000010092             -0.0000037020
              0.0000010092            -42.0619630166             -0.0000024612
             -0.0000037020             -0.0000024612            -42.0619669702
 Transport equivalent effective mass tensor eigenvalues:
            -42.0619730823            -42.0619666218            -42.0619610972
 Angular average effective mass 1/(<1/m>)=  -2.7706986784
 Angular average effective mass for Frohlich model (<m**0.5>)**2=  -3.5071671804
 Effective masses along directions: (cart. coord. / red. coord. -> eff. mass)
    1:   1.000000  0.000000  0.000000 /   0.948683  0.316228  0.000000 ->  -2.3561570370
    2:   0.000000  1.000000  0.000000 /   0.000000  1.000000  0.000000 ->  -1.6042047040
    3:   0.000000  0.000000  1.000000 /   0.408248  0.408248  0.816497 ->  -2.0866695857
    4:   0.577350  0.577350  0.577350 /   0.585539  0.688047  0.428644 ->  -2.2808000406
    5:   0.000000  0.707107  0.707107 /   0.289489  0.762222  0.578977 ->  -3.9956433583
    6:   0.707107  0.000000  0.707107 /   0.731423  0.422287  0.535439 ->  -2.2225991950
    7:   0.707107  0.707107  0.000000 /   0.616798  0.787122  0.000000 -> -12.3181055025

 Angular average effective mass for Frohlich model, averaged over degenerate bands.
 Value of     (<<m**0.5>>)**2 =     1.460078E+00
 Absolute Value of <<m**0.5>> =     1.208337E+00

 K-point ( 0.500, 0.000, 0.500) | band =    40
 Effective mass tensor:
              0.4110954838             -0.0045926745              0.0056270669
             -0.0045926745              0.4143434368             -0.0079577366
              0.0056270669             -0.0079577366              0.4175908102
 Effective mass tensor eigenvalues:
              0.4078445406              0.4078481313              0.4273370589
 Angular average effective mass 1/(<1/m>)=   0.4141426458
 Angular average effective mass for Frohlich model (<m**0.5>)**2=   0.4142023229
 Effective masses along directions: (cart. coord. / red. coord. -> eff. mass)
    1:   1.000000  0.000000  0.000000 /   0.948683  0.316228  0.000000 ->   0.4109710841
    2:   0.000000  1.000000  0.000000 /   0.000000  1.000000  0.000000 ->   0.4141428422
    3:   0.000000  0.000000  1.000000 /   0.408248  0.408248  0.816497 ->   0.4173633401
    4:   0.577350  0.577350  0.577350 /   0.585539  0.688047  0.428644 ->   0.4096498528
    5:   0.000000  0.707107  0.707107 /   0.289489  0.762222  0.578977 ->   0.4080019629
    6:   0.707107  0.000000  0.707107 /   0.731423  0.422287  0.535439 ->   0.4197551355
    7:   0.707107  0.707107  0.000000 /   0.616798  0.787122  0.000000 ->   0.4081142505

 END OF EFFECTIVE MASSES SECTION

 ---- first-order wavefunction calculations are completed ----

 Total localisation tensor (bohr^2) in cartesian coordinates
  WARNING : still subject to testing - especially symmetries.
      direction              matrix element
   alpha     beta       real part   imaginary part
     1        1       1.5693309344    0.0000000000
     1        2       0.4439015497    0.0000000000
     1        3       1.0872756862    0.0000000000
     2        1       0.4439015497    0.0000000000
     2        2       1.2555431838    0.0000000000
     2        3       0.7688600376    0.0000000000
     3        1       1.0872756862    0.0000000000
     3        2       0.7688600376    0.0000000000
     3        3       2.8248439259    0.0000000000

 respfn : d/dk was computed, but no 2DTE, so no DDB output.

== END DATASET(S) ==============================================================

 -outvars: echo values of variables after computation  --------
            acell      1.0000000000E+00  1.0000000000E+00  1.0000000000E+00 Bohr
              amu      3.90983000E+01  1.95080000E+02  7.99040000E+01
             ecut      4.20000000E+01 Hartree
           etotal     -2.6408192159E+01
            fcart      0.0000000000E+00  0.0000000000E+00  0.0000000000E+00
                       0.0000000000E+00  0.0000000000E+00  0.0000000000E+00
                       0.0000000000E+00  0.0000000000E+00  0.0000000000E+00
                       0.0000000000E+00  0.0000000000E+00  0.0000000000E+00
                       0.0000000000E+00  0.0000000000E+00  0.0000000000E+00
                       0.0000000000E+00  0.0000000000E+00  0.0000000000E+00
                       0.0000000000E+00  0.0000000000E+00  0.0000000000E+00
                       0.0000000000E+00  0.0000000000E+00  0.0000000000E+00
                       0.0000000000E+00  0.0000000000E+00  0.0000000000E+00
-          fftalg         512
           irdden           1
           irdwfk           1
           istwfk        1    1
              ixc     -116133
              kpt      0.00000000E+00  0.00000000E+00  0.00000000E+00
                       5.00000000E-01  0.00000000E+00  5.00000000E-01
           kptopt           0
P           mkmem           2
P          mkqmem           2
P          mk1mem           2
            natom           9
            nband          48
           nbdbuf           4
            ngfft          80      80      80
             nkpt           2
            nstep        2000
             nsym          48
           ntypat           3
              occ      2.000000  2.000000  2.000000  2.000000  2.000000  2.000000
                       2.000000  2.000000  2.000000  2.000000  2.000000  2.000000
                       2.000000  2.000000  2.000000  2.000000  2.000000  2.000000
                       2.000000  2.000000  2.000000  2.000000  2.000000  2.000000
                       2.000000  2.000000  2.000000  2.000000  2.000000  2.000000
                       2.000000  2.000000  2.000000  2.000000  2.000000  2.000000
                       2.000000  2.000000  2.000000  0.000000  0.000000  0.000000
                       0.000000  0.000000  0.000000  0.000000  0.000000  0.000000
        optdriver           1
            prtwf          -1
            rfdir           1       1       1
           rfelfd           2
            rprim      1.1855818622E+01  0.0000000000E+00  6.8449600727E+00
                       3.9519395406E+00  1.1177772992E+01  6.8449600727E+00
                       0.0000000000E+00  0.0000000000E+00  1.3689920145E+01
          spgroup         225
           strten      0.0000000000E+00  0.0000000000E+00  0.0000000000E+00
                       0.0000000000E+00  0.0000000000E+00  0.0000000000E+00
           symrel      1  0  0   0  1  0   0  0  1      -1  0  0   0 -1  0   0  0 -1
                       0 -1  1   0 -1  0   1 -1  0       0  1 -1   0  1  0  -1  1  0
                      -1  0  0  -1  0  1  -1  1  0       1  0  0   1  0 -1   1 -1  0
                       0  1 -1   1  0 -1   0  0 -1       0 -1  1  -1  0  1   0  0  1
                      -1  0  0  -1  1  0  -1  0  1       1  0  0   1 -1  0   1  0 -1
                       0 -1  1   1 -1  0   0 -1  0       0  1 -1  -1  1  0   0  1  0
                       1  0  0   0  0  1   0  1  0      -1  0  0   0  0 -1   0 -1  0
                       0  1 -1   0  0 -1   1  0 -1       0 -1  1   0  0  1  -1  0  1
                      -1  0  1  -1  1  0  -1  0  0       1  0 -1   1 -1  0   1  0  0
                       0 -1  0   1 -1  0   0 -1  1       0  1  0  -1  1  0   0  1 -1
                       1  0 -1   0  0 -1   0  1 -1      -1  0  1   0  0  1   0 -1  1
                       0  1  0   0  0  1   1  0  0       0 -1  0   0  0 -1  -1  0  0
                       1  0 -1   0  1 -1   0  0 -1      -1  0  1   0 -1  1   0  0  1
                       0 -1  0   0 -1  1   1 -1  0       0  1  0   0  1 -1  -1  1  0
                      -1  0  1  -1  0  0  -1  1  0       1  0 -1   1  0  0   1 -1  0
                       0  1  0   1  0  0   0  0  1       0 -1  0  -1  0  0   0  0 -1
                       0  0 -1   0  1 -1   1  0 -1       0  0  1   0 -1  1  -1  0  1
                       1 -1  0   0 -1  1   0 -1  0      -1  1  0   0  1 -1   0  1  0
                       0  0  1   1  0  0   0  1  0       0  0 -1  -1  0  0   0 -1  0
                      -1  1  0  -1  0  0  -1  0  1       1 -1  0   1  0  0   1  0 -1
                       0  0  1   0  1  0   1  0  0       0  0 -1   0 -1  0  -1  0  0
                       1 -1  0   0 -1  0   0 -1  1      -1  1  0   0  1  0   0  1 -1
                       0  0 -1   1  0 -1   0  1 -1       0  0  1  -1  0  1   0 -1  1
                      -1  1  0  -1  0  1  -1  0  0       1 -1  0   1  0 -1   1  0  0
           tolwfr      1.00000000E-20
            typat      1  1  2  3  3  3  3  3  3
           useylm           1
              wtk        0.50000    0.50000
           xangst      2.0912763346E+00  1.4787556775E+00  3.6221968642E+00
                       6.2738290038E+00  4.4362670326E+00  1.0866590593E+01
                       0.0000000000E+00  0.0000000000E+00  0.0000000000E+00
                       3.0984768429E+00  4.4906260913E+00  9.1220681388E+00
                       6.3507043219E+00  4.4906260913E+00  7.2443937284E+00
                       3.0984768429E+00  4.4906260913E+00  5.3667193179E+00
                       2.0144010165E+00  1.4243966188E+00  7.2443937283E+00
                       5.2666284955E+00  1.4243966188E+00  9.1220681388E+00
                       5.2666284955E+00  1.4243966188E+00  5.3667193179E+00
            xcart      3.9519395406E+00  2.7944432480E+00  6.8449600727E+00
                       1.1855818622E+01  8.3833297439E+00  2.0534880218E+01
                       0.0000000000E+00  0.0000000000E+00  0.0000000000E+00
                       5.8552726621E+00  8.4860534777E+00  1.7238210548E+01
                       1.2001091919E+01  8.4860534777E+00  1.3689920145E+01
                       5.8552726621E+00  8.4860534777E+00  1.0141629743E+01
                       3.8066662431E+00  2.6917195142E+00  1.3689920145E+01
                       9.9524855002E+00  2.6917195142E+00  1.7238210548E+01
                       9.9524855002E+00  2.6917195142E+00  1.0141629743E+01
             xred      2.5000000000E-01  2.5000000000E-01  2.5000000000E-01
                       7.5000000000E-01  7.5000000000E-01  7.5000000000E-01
                       0.0000000000E+00  0.0000000000E+00  0.0000000000E+00
                       2.4081000000E-01  7.5919000000E-01  7.5919000000E-01
                       7.5919000000E-01  7.5919000000E-01  2.4081000000E-01
                       2.4081000000E-01  7.5919000000E-01  2.4081000000E-01
                       2.4081000000E-01  2.4081000000E-01  7.5919000000E-01
                       7.5919000000E-01  2.4081000000E-01  7.5919000000E-01
                       7.5919000000E-01  2.4081000000E-01  2.4081000000E-01
            znucl       19.00000   78.00000   35.00000

- Timing analysis has been suppressed with timopt=0

 Suggested references for the acknowledgment of ABINIT usage.

 Calculation completed.
.Delivered  14 WARNINGs and  11 COMMENTs to log file.