.Version 9.5.2 of ABINIT

 ABINIT is a project of the Universite Catholique de Louvain,
 Corning Inc. and other collaborators, see ~abinit/doc/developers/contributors.txt .
 acknowledgments of the ABINIT effort.

.Starting date : Mon 31 May 2021.
- ( at 21h54 )

- input  file    -> /scratch/users/j/a/jabreu/flow_simple_11atoms/flow/w310/t1/run.abi
- output file    -> /scratch/users/j/a/jabreu/flow_simple_11atoms/flow/w310/t1/run.abo
- root for input  files -> /scratch/users/j/a/jabreu/flow_simple_11atoms/flow/w310/t1/indata/in
- root for output files -> /scratch/users/j/a/jabreu/flow_simple_11atoms/flow/w310/t1/outdata/out

 Symmetries : space group Pn m a (# 62); Bravais oP (primitive ortho.)
     intxc =       0      iscf =       7    lmnmax =      18     lnmax =       6
     mgfft =      80  mpssoang =       3    mqgrid =    3933     natom =      12
  nloc_mem =       1    nspden =       1   nspinor =       1    nsppol =       1
      nsym =       8    n1xccc =    2501    ntypat =       2    occopt =       1
   xclevel =       2
-    mband =          57        mffmem =           1         mkmem =           1
-   mkqmem =           1        mk1mem =           1           mpw =       13137
      nfft =      230400          nkpt =           1
  Rough estimation (10% accuracy) of disk space for files :

------------- Echo of variables that govern the present computation ------------
-
- outvars: echo of selected default values
-   iomode0 =  0 , fftalg0 =512 , wfoptalg0 =  0
-
- outvars: echo of global parameters not present in the input file
-  max_nthreads =    0
-
 -outvars: echo values of preprocessed input variables --------
            acell      1.0000000000E+00  1.0000000000E+00  1.0000000000E+00 Bohr
              amu      1.37327000E+02  7.99040000E+01
             ecut      2.20000000E+01 Hartree
-          fftalg         512
           irdden           1
           irdwfk           1
           istwfk        1
              ixc     -116133
           kptopt           0
P           mkmem           1
P          mkqmem           1
P          mk1mem           1
            natom          12
            nband          57
           nbdbuf           4
            ngfft          40      72      80
             nkpt           1
            nstep        2000
             nsym           8
           ntypat           2
              occ      2.000000  2.000000  2.000000  2.000000  2.000000  2.000000
                       2.000000  2.000000  2.000000  2.000000  2.000000  2.000000
                       2.000000  2.000000  2.000000  2.000000  2.000000  2.000000
                       2.000000  2.000000  2.000000  2.000000  2.000000  2.000000
                       2.000000  2.000000  2.000000  2.000000  2.000000  2.000000
                       2.000000  2.000000  2.000000  2.000000  2.000000  2.000000
                       2.000000  2.000000  2.000000  2.000000  2.000000  2.000000
                       2.000000  2.000000  2.000000  2.000000  2.000000  2.000000
                       0.000000  0.000000  0.000000  0.000000  0.000000  0.000000
                       0.000000  0.000000  0.000000
        optdriver           1
            prtwf          -1
            rfdir           1       1       1
           rfelfd           2
            rprim      9.2840620094E+00  0.0000000000E+00  0.0000000000E+00
                       0.0000000000E+00  1.5442526514E+01  0.0000000000E+00
                       0.0000000000E+00  0.0000000000E+00  1.8625613286E+01
          spgroup          62
           symrel      1  0  0   0  1  0   0  0  1      -1  0  0   0 -1  0   0  0 -1
                      -1  0  0   0  1  0   0  0 -1       1  0  0   0 -1  0   0  0  1
                      -1  0  0   0 -1  0   0  0  1       1  0  0   0  1  0   0  0 -1
                       1  0  0   0 -1  0   0  0 -1      -1  0  0   0  1  0   0  0  1
            tnons      0.0000000  0.0000000  0.0000000     0.0000000  0.0000000  0.0000000
                       0.5000000  0.5000000  0.5000000     0.5000000  0.5000000  0.5000000
                       0.0000000  0.5000000  0.5000000     0.0000000  0.5000000  0.5000000
                       0.5000000  0.0000000  0.0000000     0.5000000  0.0000000  0.0000000
           tolwfr      1.00000000E-20
            typat      1  1  1  1  2  2  2  2  2  2  2  2
           useylm           1
           xangst      3.6846855139E+00  2.0228800747E+00  3.7668025054E+00
                       1.2282285046E+00  6.1489529996E+00  6.0894475415E+00
                       3.6846855139E+00  6.1087966118E+00  1.1613225180E+00
                       1.2282285046E+00  2.0630364624E+00  8.6949275289E+00
                       3.6846855139E+00  2.2774898778E-01  6.5968177251E+00
                       1.2282285046E+00  7.9440840865E+00  3.2594323218E+00
                       3.6846855139E+00  4.3136655249E+00  8.1875573452E+00
                       1.2282285046E+00  3.8581675493E+00  1.6686927017E+00
                       1.2282285046E+00  2.9178510612E+00  5.6203393205E+00
                       3.6846855139E+00  5.2539820131E+00  4.2359107264E+00
                       1.2282285046E+00  7.0037675983E+00  9.1640357499E+00
                       3.6846855139E+00  1.1680654760E+00  6.9221429704E-01
            xcart      6.9630465070E+00  3.8226893409E+00  7.1182251319E+00
                       2.3210155023E+00  1.1619837173E+01  1.1507388154E+01
                       6.9630465070E+00  1.1543952598E+01  2.1945815110E+00
                       2.3210155023E+00  3.8985739161E+00  1.6431031775E+01
                       6.9630465070E+00  4.3038321395E-01  1.2466178849E+01
                       2.3210155023E+00  1.5012143300E+01  6.1594344368E+00
                       6.9630465070E+00  8.1516464709E+00  1.5472241080E+01
                       2.3210155023E+00  7.2908800431E+00  3.1533722061E+00
                       2.3210155023E+00  5.5139394021E+00  1.0620902090E+01
                       6.9630465070E+00  9.9285871119E+00  8.0047111963E+00
                       2.3210155023E+00  1.3235202659E+01  1.7317517839E+01
                       6.9630465070E+00  2.2073238549E+00  1.3080954467E+00
             xred      7.5000000000E-01  2.4754300000E-01  3.8217400000E-01
                       2.5000000000E-01  7.5245700000E-01  6.1782600000E-01
                       7.5000000000E-01  7.4754300000E-01  1.1782600000E-01
                       2.5000000000E-01  2.5245700000E-01  8.8217400000E-01
                       7.5000000000E-01  2.7870000000E-02  6.6930300000E-01
                       2.5000000000E-01  9.7213000000E-01  3.3069700000E-01
                       7.5000000000E-01  5.2787000000E-01  8.3069700000E-01
                       2.5000000000E-01  4.7213000000E-01  1.6930300000E-01
                       2.5000000000E-01  3.5706200000E-01  5.7023100000E-01
                       7.5000000000E-01  6.4293800000E-01  4.2976900000E-01
                       2.5000000000E-01  8.5706200000E-01  9.2976900000E-01
                       7.5000000000E-01  1.4293800000E-01  7.0231000000E-02
            znucl       56.00000   35.00000

 chkinp: Checking input parameters for consistency.

== DATASET  1 ==================================================================
-   mpi_nproc: 1, omp_nthreads: -1 (-1 if OMP is not activated)

--- !DatasetInfo
iteration_state: {dtset: 1, }
dimensions: {natom: 12, nkpt: 1, mband: 57, nsppol: 1, nspinor: 1, nspden: 1, mpw: 13137, }
cutoff_energies: {ecut:  22.0, pawecutdg:  -1.0, }
electrons: {nelect:   9.60000000E+01, charge:   0.00000000E+00, occopt:   1.00000000E+00, tsmear:   1.00000000E-02, }
meta: {optdriver: 1, rfelfd: 2, }
...

 Real(R)+Recip(G) space primitive vectors, cartesian coordinates (Bohr,Bohr^-1):
 R(1)=  9.2840620  0.0000000  0.0000000  G(1)=  0.1077115  0.0000000  0.0000000
 R(2)=  0.0000000 15.4425265  0.0000000  G(2)=  0.0000000  0.0647562  0.0000000
 R(3)=  0.0000000  0.0000000 18.6256133  G(3)=  0.0000000  0.0000000  0.0536895
 Unit cell volume ucvol=  2.6703425E+03 bohr^3
 Angles (23,13,12)=  9.00000000E+01  9.00000000E+01  9.00000000E+01 degrees

 getcut: wavevector=  0.0000  0.0000  0.0000  ngfft=  40  72  80
         ecut(hartree)=     22.000   => boxcut(ratio)=   2.03424

--- Pseudopotential description ------------------------------------------------
- pspini: atom type   1  psp file is /scratch/users/j/a/jabreu/pseudos/PBEsol/Ba.psp8
- pspatm: opening atomic psp file    /scratch/users/j/a/jabreu/pseudos/PBEsol/Ba.psp8
- Ba    ONCVPSP-3.3.0  r_core=   2.15444   1.91218   2.15444
- 56.00000  10.00000    180112                znucl, zion, pspdat
    8 -116133    2    4       600   0.00000   pspcod,pspxc,lmax,lloc,mmax,r2well
    5.99000000000000    5.00000000000000    0.00000000000000   rchrg,fchrg,qchrg
     nproj     2     2     2
     extension_switch     1
  pspatm : epsatm=   26.37418029
         --- l  ekb(1:nproj) -->
             0    6.652372    0.677024
             1    5.027722    0.408462
             2    2.543237    0.416854
 pspatm: atomic psp has been read  and splines computed

- pspini: atom type   2  psp file is /scratch/users/j/a/jabreu/pseudos/PBEsol/Br.psp8
- pspatm: opening atomic psp file    /scratch/users/j/a/jabreu/pseudos/PBEsol/Br.psp8
- Br    ONCVPSP-3.3.0  r_core=   1.81012   1.51356   1.92136
- 35.00000   7.00000    180112                znucl, zion, pspdat
    8 -116133    2    4       600   0.00000   pspcod,pspxc,lmax,lloc,mmax,r2well
    5.99000000000000    8.00000000000000    0.00000000000000   rchrg,fchrg,qchrg
     nproj     2     2     2
     extension_switch     1
  pspatm : epsatm=   10.94933070
         --- l  ekb(1:nproj) -->
             0    8.508690    0.897946
             1    5.393311    0.892021
             2    2.527513    0.394763
 pspatm: atomic psp has been read  and splines computed

   1.85367712E+04                                ecore*ucvol(ha*bohr**3)

 ==>  initialize data related to q vector <==

 The list of irreducible perturbations for this q vector is:
    1)    idir= 1    ipert=  13
    2)    idir= 2    ipert=  13
    3)    idir= 3    ipert=  13

 Perturbation wavevector (in red.coord.)   0.000000  0.000000  0.000000
 Perturbation : derivative vs k along direction   1

 dfpt_looppert : COMMENT -
  In a d/dk calculation, iscf is set to -3 automatically.
 The set of symmetries contains only one element for this perturbation.
 symkpt : not enough symmetry to change the number of k points.

 Initialisation of the first-order wave-functions :
  ireadwf=   0

--- !BeginCycle
iteration_state: {dtset: 1, }
solver: {iscf: 7, nstep: 2000, nline: 4, wfoptalg: 0, }
tolerances: {tolwfr: 1.00E-20, }
...

     iter   2DEtotal(Ha)        deltaE(Ha) residm    vres2
-ETOT  1  -49.240323195185     -4.924E+01 1.927E-02 0.000E+00
 ETOT  2  -49.266650790531     -2.633E-02 2.435E-03 0.000E+00
 ETOT  3  -49.266681782226     -3.099E-05 1.758E-04 0.000E+00
 ETOT  4  -49.266681857282     -7.506E-08 3.366E-05 0.000E+00
 ETOT  5  -49.266681857538     -2.558E-10 3.106E-06 0.000E+00
 ETOT  6  -49.266681857539     -9.805E-13 6.637E-07 0.000E+00
[...]
          f-sum rule ratio=    1.0439585660E+00
 prteigrs : about to open file /scratch/users/j/a/jabreu/flow_simple_11atoms/flow/w310/t1/tmpdata/tmp_1WF1_EIG
 Expectation of eigenvalue derivatives (hartree) for nkpt=   1  k points:
  (in case of degenerate eigenvalues, averaged derivative)
 kpt#   1, nband= 57, wtk=  1.00000, kpt=  0.0000  0.0000  0.0000 (reduced coord)
  -0.00000    0.00000   -0.00000   -0.00000    0.00000   -0.00000   -0.00000   -0.00000
   0.00000   -0.00000    0.00000   -0.00000   -0.00000   -0.00000    0.00000    0.00000
   0.00000    0.00000    0.00000   -0.00000    0.00000   -0.00000    0.00000    0.00000
  -0.00000    0.00000   -0.00000   -0.00000   -0.00000    0.00000   -0.00000    0.00000
   0.00000    0.00000    0.00000   -0.00000    0.00000    0.00000    0.00000    0.00000
   0.00000   -0.00000   -0.00000    0.00000   -0.00000   -0.00000   -0.00000    0.00000
  -0.00000    0.00000   -0.00000   -0.00000   -0.00000   -0.00000   -0.00000   -0.00003
   0.00013

 Eight components of 2nd-order total energy (hartree) are
 1,2,3: 0th-order hamiltonian combined with 1st-order wavefunctions
     kin0=   6.27281632E+01 eigvalue=   1.29111674E+00  local=  -4.04993581E+01
 4,5,6: 1st-order hamiltonian combined with 1st and 0th-order wfs
     kin1=  -9.18053863E+01  Hartree=   0.00000000E+00     xc=   0.00000000E+00
 7,8,9: eventually, occupation + non-local contributions
    edocc=   1.34019790E+01     enl0=   1.23447810E+01   enl1=  -6.72797737E+00
 1-9 gives the relaxation energy (to be shifted if some occ is /=2.0)
   erelax=  -4.92666819E+01
  No Ewald or frozen-wf contrib.: the relaxation energy is the total one
 2DEtotal=   -0.4926668186E+02 Ha. Also 2DEtotal=   -0.134061459153E+04 eV
    (  non-var. 2DEtotal :   -4.9266681857E+01 Ha)

 Perturbation wavevector (in red.coord.)   0.000000  0.000000  0.000000
 Perturbation : derivative vs k along direction   2
 The set of symmetries contains only one element for this perturbation.
 symkpt : not enough symmetry to change the number of k points.

[...]

 Perturbation wavevector (in red.coord.)   0.000000  0.000000  0.000000
 Perturbation : derivative vs k along direction   3
 The set of symmetries contains only one element for this perturbation.
 symkpt : not enough symmetry to change the number of k points.

 Initialisation of the first-order wave-functions :
  ireadwf=   0

--- !BeginCycle
iteration_state: {dtset: 1, }
solver: {iscf: 7, nstep: 2000, nline: 4, wfoptalg: 0, }
tolerances: {tolwfr: 1.00E-20, }
...

     iter   2DEtotal(Ha)        deltaE(Ha) residm    vres2
-ETOT  1  -11.992760730444     -1.199E+01 1.123E-02 0.000E+00
 ETOT  2  -12.000970832168     -8.210E-03 1.073E-03 0.000E+00
 ETOT  3  -12.000988454487     -1.762E-05 1.504E-04 0.000E+00
 ETOT  4  -12.000988511472     -5.699E-08 1.479E-05 0.000E+00
 ETOT  5  -12.000988511695     -2.222E-10 2.392E-06 0.000E+00
 ETOT  6  -12.000988511696     -9.344E-13 2.597E-07 0.000E+00
 ETOT  7  -12.000988511696     -3.553E-15 4.389E-08 0.000E+00
 ETOT  8  -12.000988511696     -2.132E-14 4.835E-09 0.000E+00
 ETOT  9  -12.000988511696      7.105E-15 8.253E-10 0.000E+00
 ETOT 10  -12.000988511696      7.105E-15 9.123E-11 0.000E+00
 ETOT 11  -12.000988511696     -3.553E-15 1.562E-11 0.000E+00
 ETOT 12  -12.000988511696      0.000E+00 1.728E-12 0.000E+00
 ETOT 13  -12.000988511696      0.000E+00 2.965E-13 0.000E+00
 ETOT 14  -12.000988511696     -1.776E-15 4.347E-14 0.000E+00
 ETOT 15  -12.000988511696      0.000E+00 6.131E-15 0.000E+00
 ETOT 16  -12.000988511696      0.000E+00 3.435E-15 0.000E+00
 ETOT 17  -12.000988511696      1.776E-15 4.839E-16 0.000E+00
 ETOT 18  -12.000988511696     -3.553E-15 2.718E-16 0.000E+00
 ETOT 19  -12.000988511696      5.329E-15 3.824E-17 0.000E+00
 ETOT 20  -12.000988511696      0.000E+00 2.153E-17 0.000E+00
 ETOT 21  -12.000988511696      0.000E+00 3.025E-18 0.000E+00
 ETOT 22  -12.000988511696      1.776E-15 1.707E-18 0.000E+00
 ETOT 23  -12.000988511696     -3.553E-15 2.395E-19 0.000E+00
 ETOT 24  -12.000988511696      1.776E-15 1.354E-19 0.000E+00
 ETOT 25  -12.000988511696      0.000E+00 1.897E-20 0.000E+00
 ETOT 26  -12.000988511696     -1.776E-15 1.075E-20 0.000E+00
 ETOT 27  -12.000988511696     -3.553E-15 9.713E-21 0.000E+00

 At SCF step   27   max residual=  9.71E-21 < tolwfr=  1.00E-20 =>converged.

 ----iterations are completed or convergence reached----

 dfpt_looppert: DFPT cycle converged with prtwf=-1. Will skip output of the 1st-order WFK file.
 dfpt_looppert : ek2=    2.1849414420E+01
          f-sum rule ratio=    1.0198098663E+00
 prteigrs : about to open file /scratch/users/j/a/jabreu/flow_simple_11atoms/flow/w310/t1/tmpdata/tmp_1WF1_EIG
 Expectation of eigenvalue derivatives (hartree) for nkpt=   1  k points:
  (in case of degenerate eigenvalues, averaged derivative)
 kpt#   1, nband= 57, wtk=  1.00000, kpt=  0.0000  0.0000  0.0000 (reduced coord)
  -0.00000   -0.00000    0.00000   -0.00000   -0.00000    0.00000    0.00000   -0.00000
   0.00000   -0.00000   -0.00000   -0.00000   -0.00000   -0.00000    0.00000    0.00000
  -0.00000   -0.00000   -0.00000   -0.00000    0.00000    0.00000   -0.00000   -0.00000
   0.00000   -0.00000    0.00000   -0.00000    0.00000   -0.00000    0.00000   -0.00000
  -0.00000   -0.00000    0.00000   -0.00000   -0.00000    0.00000   -0.00000   -0.00000
  -0.00000    0.00000    0.00000    0.00000    0.00000   -0.00000    0.00000    0.00000
  -0.00000   -0.00000   -0.00000   -0.00000    0.00000    0.00000   -0.00000    0.00000
  -0.00003

 Eight components of 2nd-order total energy (hartree) are
 1,2,3: 0th-order hamiltonian combined with 1st-order wavefunctions
     kin0=   1.68040463E+01 eigvalue=   2.52873132E-01  local=  -1.09320022E+01
 4,5,6: 1st-order hamiltonian combined with 1st and 0th-order wfs
     kin1=  -2.22822484E+01  Hartree=   0.00000000E+00     xc=   0.00000000E+00
 7,8,9: eventually, occupation + non-local contributions
    edocc=   2.51483276E+00     enl0=   3.36123845E+00   enl1=  -1.71972863E+00
 1-9 gives the relaxation energy (to be shifted if some occ is /=2.0)
   erelax=  -1.20009885E+01
  No Ewald or frozen-wf contrib.: the relaxation energy is the total one
 2DEtotal=   -0.1200098851E+02 Ha. Also 2DEtotal=   -0.326563505091E+03 eV
    (  non-var. 2DEtotal :   -1.2000988511E+01 Ha)

 CALCULATION OF EFFECTIVE MASSES
 NOTE : Additional infos (eff. mass eigenvalues, eigenvectors and, if degenerate, average mass) are available in stdout.

 K-point ( 0.000, 0.000, 0.000) | band =    48
 Effective mass tensor:
             -1.1152809341             -0.0000000120             -0.0000003784
             -0.0000000120             -0.4296735493              0.0000023511
             -0.0000003784              0.0000023511             -5.6875379136
 Effective mass tensor eigenvalues:
             -5.6875379136             -1.1152809341             -0.4296735493
 Angular average effective mass 1/(<1/m>)=  -0.8824031954
 Angular average effective mass for Frohlich model (<m**0.5>)**2=  -1.1268684442
 Effective masses along directions: (cart. coord. / red. coord. -> eff. mass)
    1:   1.000000  0.000000  0.000000 /   1.000000  0.000000  0.000000 ->  -1.1152809341
    2:   0.000000  1.000000  0.000000 /   0.000000  1.000000  0.000000 ->  -0.4296735493
    3:   0.000000  0.000000  1.000000 /   0.000000  0.000000  1.000000 ->  -5.6875379136
    4:   0.577350  0.577350  0.577350 /   0.358253  0.595895  0.718724 ->  -0.8824027399
    5:   0.000000  0.707107  0.707107 /   0.000000  0.638260  0.769821 ->  -0.7989858576
    6:   0.707107  0.000000  0.707107 /   0.446108  0.000000  0.894979 ->  -1.8648749715
    7:   0.707107  0.707107  0.000000 /   0.515252  0.857038  0.000000 ->  -0.6203506057

 K-point ( 0.000, 0.000, 0.000) | band =    49
 Effective mass tensor:
              0.7612695663              0.0000000175             -0.0000002675
              0.0000000175              0.6174220339             -0.0000008803
             -0.0000002675             -0.0000008803              0.5837047428
 Effective mass tensor eigenvalues:
              0.5837047428              0.6174220339              0.7612695663
 Angular average effective mass 1/(<1/m>)=   0.6456573007
 Angular average effective mass for Frohlich model (<m**0.5>)**2=   0.6480983411
 Effective masses along directions: (cart. coord. / red. coord. -> eff. mass)
    1:   1.000000  0.000000  0.000000 /   1.000000  0.000000  0.000000 ->   0.7612695663
    2:   0.000000  1.000000  0.000000 /   0.000000  1.000000  0.000000 ->   0.6174220339
    3:   0.000000  0.000000  1.000000 /   0.000000  0.000000  1.000000 ->   0.5837047428
    4:   0.577350  0.577350  0.577350 /   0.358253  0.595895  0.718724 ->   0.6456564649
    5:   0.000000  0.707107  0.707107 /   0.000000  0.638260  0.769821 ->   0.6000892633
    6:   0.707107  0.000000  0.707107 /   0.446108  0.000000  0.894979 ->   0.6607657509
    7:   0.707107  0.707107  0.000000 /   0.515252  0.857038  0.000000 ->   0.6818415602

 END OF EFFECTIVE MASSES SECTION

 ---- first-order wavefunction calculations are completed ----

 Total localisation tensor (bohr^2) in cartesian coordinates
  WARNING : still subject to testing - especially symmetries.
      direction              matrix element
   alpha     beta       real part   imaginary part
     1        1       1.3704980419    0.0000000000
     1        2       0.0000000000    0.0000000000
     1        3       0.0000000000    0.0000000000
     2        1       0.0000000000    0.0000000000
     2        2       1.3058218509    0.0000000000
     2        3       0.0000000000    0.0000000000
     3        1       0.0000000000    0.0000000000
     3        2       0.0000000000    0.0000000000
     3        3       1.3026411137    0.0000000000

 respfn : d/dk was computed, but no 2DTE, so no DDB output.

== END DATASET(S) ==============================================================

 -outvars: echo values of variables after computation  --------
            acell      1.0000000000E+00  1.0000000000E+00  1.0000000000E+00 Bohr
              amu      1.37327000E+02  7.99040000E+01
             ecut      2.20000000E+01 Hartree
           etotal     -1.2000988512E+01
            fcart      0.0000000000E+00  0.0000000000E+00  0.0000000000E+00
                       0.0000000000E+00  0.0000000000E+00  0.0000000000E+00
                       0.0000000000E+00  0.0000000000E+00  0.0000000000E+00
                       0.0000000000E+00  0.0000000000E+00  0.0000000000E+00
                       0.0000000000E+00  0.0000000000E+00  0.0000000000E+00
                       0.0000000000E+00  0.0000000000E+00  0.0000000000E+00
                       0.0000000000E+00  0.0000000000E+00  0.0000000000E+00
                       0.0000000000E+00  0.0000000000E+00  0.0000000000E+00
                       0.0000000000E+00  0.0000000000E+00  0.0000000000E+00
                       0.0000000000E+00  0.0000000000E+00  0.0000000000E+00
                       0.0000000000E+00  0.0000000000E+00  0.0000000000E+00
                       0.0000000000E+00  0.0000000000E+00  0.0000000000E+00
-          fftalg         512
           irdden           1
           irdwfk           1
           istwfk        1
              ixc     -116133
           kptopt           0
P           mkmem           1
P          mkqmem           1
P          mk1mem           1
            natom          12
            nband          57
           nbdbuf           4
            ngfft          40      72      80
             nkpt           1
            nstep        2000
             nsym           8
           ntypat           2
              occ      2.000000  2.000000  2.000000  2.000000  2.000000  2.000000
                       2.000000  2.000000  2.000000  2.000000  2.000000  2.000000
                       2.000000  2.000000  2.000000  2.000000  2.000000  2.000000
                       2.000000  2.000000  2.000000  2.000000  2.000000  2.000000
                       2.000000  2.000000  2.000000  2.000000  2.000000  2.000000
                       2.000000  2.000000  2.000000  2.000000  2.000000  2.000000
                       2.000000  2.000000  2.000000  2.000000  2.000000  2.000000
                       2.000000  2.000000  2.000000  2.000000  2.000000  2.000000
                       0.000000  0.000000  0.000000  0.000000  0.000000  0.000000
                       0.000000  0.000000  0.000000
        optdriver           1
            prtwf          -1
            rfdir           1       1       1
           rfelfd           2
            rprim      9.2840620094E+00  0.0000000000E+00  0.0000000000E+00
                       0.0000000000E+00  1.5442526514E+01  0.0000000000E+00
                       0.0000000000E+00  0.0000000000E+00  1.8625613286E+01
          spgroup          62
           strten      0.0000000000E+00  0.0000000000E+00  0.0000000000E+00
                       0.0000000000E+00  0.0000000000E+00  0.0000000000E+00
           symrel      1  0  0   0  1  0   0  0  1      -1  0  0   0 -1  0   0  0 -1
                      -1  0  0   0  1  0   0  0 -1       1  0  0   0 -1  0   0  0  1
                      -1  0  0   0 -1  0   0  0  1       1  0  0   0  1  0   0  0 -1
                       1  0  0   0 -1  0   0  0 -1      -1  0  0   0  1  0   0  0  1
            tnons      0.0000000  0.0000000  0.0000000     0.0000000  0.0000000  0.0000000
                       0.5000000  0.5000000  0.5000000     0.5000000  0.5000000  0.5000000
                       0.0000000  0.5000000  0.5000000     0.0000000  0.5000000  0.5000000
                       0.5000000  0.0000000  0.0000000     0.5000000  0.0000000  0.0000000
           tolwfr      1.00000000E-20
            typat      1  1  1  1  2  2  2  2  2  2  2  2
           useylm           1
           xangst      3.6846855139E+00  2.0228800747E+00  3.7668025054E+00
                       1.2282285046E+00  6.1489529996E+00  6.0894475415E+00
                       3.6846855139E+00  6.1087966118E+00  1.1613225180E+00
                       1.2282285046E+00  2.0630364624E+00  8.6949275289E+00
                       3.6846855139E+00  2.2774898778E-01  6.5968177251E+00
                       1.2282285046E+00  7.9440840865E+00  3.2594323218E+00
                       3.6846855139E+00  4.3136655249E+00  8.1875573452E+00
                       1.2282285046E+00  3.8581675493E+00  1.6686927017E+00
                       1.2282285046E+00  2.9178510612E+00  5.6203393205E+00
                       3.6846855139E+00  5.2539820131E+00  4.2359107264E+00
                       1.2282285046E+00  7.0037675983E+00  9.1640357499E+00
                       3.6846855139E+00  1.1680654760E+00  6.9221429704E-01
            xcart      6.9630465070E+00  3.8226893409E+00  7.1182251319E+00
                       2.3210155023E+00  1.1619837173E+01  1.1507388154E+01
                       6.9630465070E+00  1.1543952598E+01  2.1945815110E+00
                       2.3210155023E+00  3.8985739161E+00  1.6431031775E+01
                       6.9630465070E+00  4.3038321395E-01  1.2466178849E+01
                       2.3210155023E+00  1.5012143300E+01  6.1594344368E+00
                       6.9630465070E+00  8.1516464709E+00  1.5472241080E+01
                       2.3210155023E+00  7.2908800431E+00  3.1533722061E+00
                       2.3210155023E+00  5.5139394021E+00  1.0620902090E+01
                       6.9630465070E+00  9.9285871119E+00  8.0047111963E+00
                       2.3210155023E+00  1.3235202659E+01  1.7317517839E+01
                       6.9630465070E+00  2.2073238549E+00  1.3080954467E+00
             xred      7.5000000000E-01  2.4754300000E-01  3.8217400000E-01
                       2.5000000000E-01  7.5245700000E-01  6.1782600000E-01
                       7.5000000000E-01  7.4754300000E-01  1.1782600000E-01
                       2.5000000000E-01  2.5245700000E-01  8.8217400000E-01
                       7.5000000000E-01  2.7870000000E-02  6.6930300000E-01
                       2.5000000000E-01  9.7213000000E-01  3.3069700000E-01
                       7.5000000000E-01  5.2787000000E-01  8.3069700000E-01
                       2.5000000000E-01  4.7213000000E-01  1.6930300000E-01
                       2.5000000000E-01  3.5706200000E-01  5.7023100000E-01
                       7.5000000000E-01  6.4293800000E-01  4.2976900000E-01
                       2.5000000000E-01  8.5706200000E-01  9.2976900000E-01
                       7.5000000000E-01  1.4293800000E-01  7.0231000000E-02
            znucl       56.00000   35.00000

- Timing analysis has been suppressed with timopt=0

 Suggested references for the acknowledgment of ABINIT usage.

 Calculation completed.
.Delivered   2 WARNINGs and   5 COMMENTs to log file.