.Version 9.5.1 of ABINIT

 ABINIT is a project of the Universite Catholique de Louvain,
 Corning Inc. and other collaborators, see ~abinit/doc/developers/contributors.txt .
 acknowledgments of the ABINIT effort.

.Starting date : Wed 19 May 2021.
- ( at 07h51 )

- input  file    -> /scratch/users/j/a/jabreu/flow_simple_9atoms/flow/w125/t1/run.abi
- output file    -> /scratch/users/j/a/jabreu/flow_simple_9atoms/flow/w125/t1/run.abo
- root for input  files -> /scratch/users/j/a/jabreu/flow_simple_9atoms/flow/w125/t1/indata/in
- root for output files -> /scratch/users/j/a/jabreu/flow_simple_9atoms/flow/w125/t1/outdata/out

 Symmetries : space group C2/m (# 12); Bravais mC (1-face-center monocl.)
     intxc =       0      iscf =       7    lmnmax =      18     lnmax =       6
     mgfft =      80  mpssoang =       3    mqgrid =    3657     natom =       9
  nloc_mem =       1    nspden =       1   nspinor =       1    nsppol =       1
      nsym =       4    n1xccc =    2501    ntypat =       3    occopt =       1
   xclevel =       2
-    mband =          45        mffmem =           1         mkmem =           2
-   mkqmem =           2        mk1mem =           2           mpw =       13027
      nfft =      414720          nkpt =           2
  Rough estimation (10% accuracy) of disk space for files :

------------- Echo of variables that govern the present computation ------------
-
- outvars: echo of selected default values
-   iomode0 =  0 , fftalg0 =512 , wfoptalg0 =  0
-
- outvars: echo of global parameters not present in the input file
-  max_nthreads =    0
-
 -outvars: echo values of preprocessed input variables --------
            acell      1.0000000000E+00  1.0000000000E+00  1.0000000000E+00 Bohr
              amu      3.90983000E+01  4.78800000E+01  1.59994000E+01
             ecut      4.40000000E+01 Hartree
-          fftalg         512
           irdden           1
           irdwfk           1
           istwfk        1    1
              ixc     -116133
              kpt      0.00000000E+00  0.00000000E+00  0.00000000E+00
                       0.00000000E+00  0.00000000E+00  5.00000000E-01
           kptopt           0
P           mkmem           2
P          mkqmem           2
P          mk1mem           2
            natom           9
            nband          45
           nbdbuf           4
            ngfft          72      72      80
             nkpt           2
            nstep        2000
             nsym           4
           ntypat           3
              occ      2.000000  2.000000  2.000000  2.000000  2.000000  2.000000
                       2.000000  2.000000  2.000000  2.000000  2.000000  2.000000
                       2.000000  2.000000  2.000000  2.000000  2.000000  2.000000
                       2.000000  2.000000  2.000000  2.000000  2.000000  2.000000
                       2.000000  2.000000  2.000000  2.000000  2.000000  2.000000
                       2.000000  2.000000  2.000000  2.000000  2.000000  2.000000
                       0.000000  0.000000  0.000000  0.000000  0.000000  0.000000
                       0.000000  0.000000  0.000000
        optdriver           1
            prtwf          -1
            rfdir           1       1       1
           rfelfd           2
            rprim      1.1151918157E+01  0.0000000000E+00  1.8299854620E+00
                       8.8853022478E+00  6.7391900505E+00  1.8299854620E+00
                       0.0000000000E+00  0.0000000000E+00  1.2428214603E+01
          spgroup          12
           symrel      1  0  0   0  1  0   0  0  1      -1  0  0   0 -1  0   0  0 -1
                       0 -1  0  -1  0  0   0  0 -1       0  1  0   1  0  0   0  0  1
           tolwfr      1.00000000E-20
            typat      1  1  2  2  3  3  3  3  3
           useylm           1
              wtk        0.50000    0.50000
           xangst      4.2748341939E+00  1.4377702838E+00  3.0785138392E+00
                       6.3284061676E+00  2.1284554953E+00  5.4349872692E+00
                       1.5648898320E+00  5.2632499783E-01  9.0002807524E-01
                       9.0383505295E+00  3.0399007812E+00  7.6134730331E+00
                       3.4207007698E+00  1.1504965324E+00  7.1176490576E+00
                       7.1825395917E+00  2.4157292467E+00  1.3958520507E+00
                       1.3290631631E+00  4.4700857028E-01  2.5922088085E+00
                       9.2741771984E+00  3.1192172088E+00  5.9212922999E+00
                       0.0000000000E+00  0.0000000000E+00  0.0000000000E+00
            xcart      8.0782658899E+00  2.7169920783E+00  5.8175480523E+00
                       1.1958954515E+01  4.0221979722E+00  1.0270637474E+01
                       2.9572132106E+00  9.9461010279E-01  1.7008065741E+00
                       1.7080007194E+01  5.7445799477E+00  1.4387378953E+01
                       6.4641876374E+00  2.1741233630E+00  1.3450407429E+01
                       1.3573032767E+01  4.5650666875E+00  2.6377780979E+00
                       2.5115653916E+00  8.4472377688E-01  4.8985647273E+00
                       1.7525655013E+01  5.8944662736E+00  1.1189620799E+01
                       0.0000000000E+00  0.0000000000E+00  0.0000000000E+00
             xred      4.0316300000E-01  4.0316300000E-01  3.4936500000E-01
                       5.9683700000E-01  5.9683700000E-01  6.5063500000E-01
                       1.4758600000E-01  1.4758600000E-01  9.3388000000E-02
                       8.5241400000E-01  8.5241400000E-01  9.0661200000E-01
                       3.2260900000E-01  3.2260900000E-01  9.8724300000E-01
                       6.7739100000E-01  6.7739100000E-01  1.2757000000E-02
                       1.2534500000E-01  1.2534500000E-01  3.5723600000E-01
                       8.7465500000E-01  8.7465500000E-01  6.4276400000E-01
                       0.0000000000E+00  0.0000000000E+00  0.0000000000E+00
            znucl       19.00000   22.00000    8.00000

 chkinp: Checking input parameters for consistency.

== DATASET  1 ==================================================================
-   mpi_nproc: 1, omp_nthreads: -1 (-1 if OMP is not activated)

--- !DatasetInfo
iteration_state: {dtset: 1, }
dimensions: {natom: 9, nkpt: 2, mband: 45, nsppol: 1, nspinor: 1, nspden: 1, mpw: 13027, }
cutoff_energies: {ecut:  44.0, pawecutdg:  -1.0, }
electrons: {nelect:   7.20000000E+01, charge:   0.00000000E+00, occopt:   1.00000000E+00, tsmear:   1.00000000E-02, }
meta: {optdriver: 1, rfelfd: 2, }
...

 Real(R)+Recip(G) space primitive vectors, cartesian coordinates (Bohr,Bohr^-1):
 R(1)= 11.1519182  0.0000000  1.8299855  G(1)=  0.0896707 -0.1182265  0.0000000
 R(2)=  8.8853022  6.7391901  1.8299855  G(2)=  0.0000000  0.1483858  0.0000000
 R(3)=  0.0000000  0.0000000 12.4282146  G(3)= -0.0132035 -0.0044408  0.0804621
 Unit cell volume ucvol=  9.3404117E+02 bohr^3
 Angles (23,13,12)=  8.06810433E+01  8.06810433E+01  3.66707622E+01 degrees

 getcut: wavevector=  0.0000  0.0000  0.0000  ngfft=  72  72  80
         ecut(hartree)=     44.000   => boxcut(ratio)=   2.13380

--- Pseudopotential description ------------------------------------------------
- pspini: atom type   1  psp file is /scratch/users/j/a/jabreu/pseudos/PBEsol/K.psp8
- pspatm: opening atomic psp file    /scratch/users/j/a/jabreu/pseudos/PBEsol/K.psp8
- K     ONCVPSP-3.3.0  r_core=   1.36296   1.46408   1.61068
- 19.00000   9.00000    180112                znucl, zion, pspdat
    8 -116133    2    4       400   0.00000   pspcod,pspxc,lmax,lloc,mmax,r2well
    3.99000000000000    5.00000000000000    0.00000000000000   rchrg,fchrg,qchrg
     nproj     2     2     2
     extension_switch     1
  pspatm : epsatm=    8.32487830
         --- l  ekb(1:nproj) -->
             0   10.921326    0.816676
             1    4.431000    0.560368
             2   -3.384038   -1.043186
 pspatm: atomic psp has been read  and splines computed

- pspini: atom type   2  psp file is /scratch/users/j/a/jabreu/pseudos/PBEsol/Ti.psp8
- pspatm: opening atomic psp file    /scratch/users/j/a/jabreu/pseudos/PBEsol/Ti.psp8
- Ti    ONCVPSP-3.3.0  r_core=   1.35825   1.31050   1.66360
- 22.00000  12.00000    180112                znucl, zion, pspdat
    8 -116133    2    4       600   0.00000   pspcod,pspxc,lmax,lloc,mmax,r2well
    5.99000000000000    2.50000000000000    0.00000000000000   rchrg,fchrg,qchrg
     nproj     2     2     2
     extension_switch     1
  pspatm : epsatm=   14.76919902
         --- l  ekb(1:nproj) -->
             0   11.321950    1.254474
             1    1.946894   -0.084268
             2   -5.237105   -1.488377
 pspatm: atomic psp has been read  and splines computed

- pspini: atom type   3  psp file is /scratch/users/j/a/jabreu/pseudos/PBEsol/O.psp8
- pspatm: opening atomic psp file    /scratch/users/j/a/jabreu/pseudos/PBEsol/O.psp8
- O     ONCVPSP-3.3.0  r_core=   1.35509   1.45563   1.26150
-  8.00000   6.00000    180112                znucl, zion, pspdat
    8 -116133    2    4       600   0.00000   pspcod,pspxc,lmax,lloc,mmax,r2well
    5.99000000000000    4.00000000000000    0.00000000000000   rchrg,fchrg,qchrg
     nproj     2     2     1
     extension_switch     1
  pspatm : epsatm=    6.22910522
         --- l  ekb(1:nproj) -->
             0    6.050032    0.820363
             1   -4.739617   -1.153841
             2   -1.335834
 pspatm: atomic psp has been read  and splines computed

   5.56802501E+03                                ecore*ucvol(ha*bohr**3)

-inwffil : will read wavefunctions from disk file /scratch/users/j/a/jabreu/flow_simple_9atoms/flow/w125/t1/indata/in_WFK

 ==>  initialize data related to q vector <==

 The list of irreducible perturbations for this q vector is:
    1)    idir= 1    ipert=  10
    2)    idir= 2    ipert=  10
    3)    idir= 3    ipert=  10

 Perturbation wavevector (in red.coord.)   0.000000  0.000000  0.000000
 Perturbation : derivative vs k along direction   1

 dfpt_looppert : COMMENT -
  In a d/dk calculation, iscf is set to -3 automatically.
 The set of symmetries contains only one element for this perturbation.
 symkpt : not enough symmetry to change the number of k points.

[...]

 Initialisation of the first-order wave-functions :
  ireadwf=   0

--- !BeginCycle
iteration_state: {dtset: 1, }
solver: {iscf: 7, nstep: 2000, nline: 4, wfoptalg: 0, }
tolerances: {tolwfr: 1.00E-20, }
...

     iter   2DEtotal(Ha)        deltaE(Ha) residm    vres2
-ETOT  1  -62.195817754340     -6.220E+01 2.171E-01 0.000E+00
 ETOT  2  -62.675806353023     -4.800E-01 2.188E-01 0.000E+00
 ETOT  3  -62.705114711850     -2.931E-02 6.478E-02 0.000E+00
 ETOT  4  -62.707392955848     -2.278E-03 6.480E-02 0.000E+00
 ETOT  5  -62.707589352379     -1.964E-04 1.914E-02 0.000E+00
 ETOT  6  -62.707607051288     -1.770E-05 1.974E-02 0.000E+00
 ETOT  7  -62.707608730813     -1.680E-06 5.937E-03 0.000E+00
 ETOT  8  -62.707608894761     -1.639E-07 6.555E-03 0.000E+00
 ETOT  9  -62.707608911383     -1.662E-08 1.954E-03 0.000E+00
 ETOT 10  -62.707608913118     -1.735E-09 2.270E-03 0.000E+00
 ETOT 11  -62.707608913306     -1.880E-10 6.591E-04 0.000E+00
[...]
    (  non-var. 2DEtotal :   -6.2707608913E+01 Ha)

 Perturbation wavevector (in red.coord.)   0.000000  0.000000  0.000000
 Perturbation : derivative vs k along direction   2
 The set of symmetries contains only one element for this perturbation.
 symkpt : not enough symmetry to change the number of k points.

[...]

 Perturbation wavevector (in red.coord.)   0.000000  0.000000  0.000000
 Perturbation : derivative vs k along direction   3
 The set of symmetries contains only one element for this perturbation.
 symkpt : not enough symmetry to change the number of k points.

-inwffil : will read wavefunctions from disk file /scratch/users/j/a/jabreu/flow_simple_9atoms/flow/w125/t1/indata/in_WFK

 Initialisation of the first-order wave-functions :
  ireadwf=   0

--- !BeginCycle
iteration_state: {dtset: 1, }
solver: {iscf: 7, nstep: 2000, nline: 4, wfoptalg: 0, }
tolerances: {tolwfr: 1.00E-20, }
...

     iter   2DEtotal(Ha)        deltaE(Ha) residm    vres2
-ETOT  1  -17.889979871740     -1.789E+01 5.981E-02 0.000E+00
 ETOT  2  -17.999072514626     -1.091E-01 8.505E-03 0.000E+00
 ETOT  3  -18.004164190362     -5.092E-03 1.479E-03 0.000E+00
 ETOT  4  -18.004494175650     -3.300E-04 1.299E-03 0.000E+00
 ETOT  5  -18.004518866591     -2.469E-05 4.865E-04 0.000E+00
 ETOT  6  -18.004520817821     -1.951E-06 4.773E-04 0.000E+00
 ETOT  7  -18.004520979402     -1.616E-07 1.797E-04 0.000E+00
 ETOT  8  -18.004520993174     -1.377E-08 1.864E-04 0.000E+00
 ETOT  9  -18.004520994379     -1.205E-09 6.956E-05 0.000E+00
 ETOT 10  -18.004520994487     -1.075E-10 7.384E-05 0.000E+00
 ETOT 11  -18.004520994497     -9.805E-12 2.742E-05 0.000E+00
 ETOT 12  -18.004520994498     -8.740E-13 2.935E-05 0.000E+00
 ETOT 13  -18.004520994498     -8.171E-14 1.091E-05 0.000E+00
 ETOT 14  -18.004520994498     -3.553E-14 1.169E-05 0.000E+00
 ETOT 15  -18.004520994498      1.066E-14 4.362E-06 0.000E+00
 ETOT 16  -18.004520994498     -1.066E-14 4.669E-06 0.000E+00
 ETOT 17  -18.004520994498      7.105E-15 1.751E-06 0.000E+00
 ETOT 18  -18.004520994498      1.776E-14 1.869E-06 0.000E+00
 ETOT 19  -18.004520994498     -1.066E-14 7.045E-07 0.000E+00
 ETOT 20  -18.004520994498     -7.105E-15 7.497E-07 0.000E+00
 ETOT 21  -18.004520994498      2.132E-14 2.841E-07 0.000E+00
 ETOT 22  -18.004520994498     -1.421E-14 3.014E-07 0.000E+00
 ETOT 23  -18.004520994498      1.066E-14 1.147E-07 0.000E+00
 ETOT 24  -18.004520994498     -1.066E-14 1.214E-07 0.000E+00
 ETOT 25  -18.004520994498      3.553E-15 4.639E-08 0.000E+00
 ETOT 26  -18.004520994498      3.553E-15 4.898E-08 0.000E+00
 ETOT 27  -18.004520994498      0.000E+00 1.877E-08 0.000E+00
 ETOT 28  -18.004520994498      3.553E-15 1.979E-08 0.000E+00
 ETOT 29  -18.004520994498     -1.066E-14 8.379E-09 0.000E+00
 ETOT 30  -18.004520994498      0.000E+00 8.004E-09 0.000E+00
 ETOT 31  -18.004520994498      0.000E+00 4.142E-09 0.000E+00
 ETOT 32  -18.004520994498      0.000E+00 3.240E-09 0.000E+00
 ETOT 33  -18.004520994498      0.000E+00 2.049E-09 0.000E+00
 ETOT 34  -18.004520994498      0.000E+00 1.454E-09 0.000E+00
 ETOT 35  -18.004520994498      0.000E+00 1.014E-09 0.000E+00
 ETOT 36  -18.004520994498      0.000E+00 7.161E-10 0.000E+00
 ETOT 37  -18.004520994498      0.000E+00 5.016E-10 0.000E+00
 ETOT 38  -18.004520994498     -3.553E-15 3.530E-10 0.000E+00
 ETOT 39  -18.004520994498      3.553E-15 2.483E-10 0.000E+00
 ETOT 40  -18.004520994498      0.000E+00 1.741E-10 0.000E+00
 ETOT 41  -18.004520994498      0.000E+00 1.229E-10 0.000E+00
 ETOT 42  -18.004520994498     -3.553E-15 8.594E-11 0.000E+00
 ETOT 43  -18.004520994498      3.553E-15 6.082E-11 0.000E+00
 ETOT 44  -18.004520994498      0.000E+00 4.243E-11 0.000E+00
 ETOT 45  -18.004520994498      0.000E+00 3.010E-11 0.000E+00
 ETOT 46  -18.004520994498     -3.553E-15 2.095E-11 0.000E+00
 ETOT 47  -18.004520994498      3.553E-15 1.490E-11 0.000E+00
 ETOT 48  -18.004520994498      0.000E+00 1.035E-11 0.000E+00
 ETOT 49  -18.004520994498      0.000E+00 7.373E-12 0.000E+00
 ETOT 50  -18.004520994498      0.000E+00 5.116E-12 0.000E+00
 ETOT 51  -18.004520994498      0.000E+00 3.649E-12 0.000E+00
 ETOT 52  -18.004520994498      0.000E+00 2.529E-12 0.000E+00
 ETOT 53  -18.004520994498      0.000E+00 1.806E-12 0.000E+00
 ETOT 54  -18.004520994498      0.000E+00 1.250E-12 0.000E+00
 ETOT 55  -18.004520994498      0.000E+00 8.938E-13 0.000E+00
 ETOT 56  -18.004520994498      0.000E+00 6.183E-13 0.000E+00
 ETOT 57  -18.004520994498      0.000E+00 4.424E-13 0.000E+00
 ETOT 58  -18.004520994498      0.000E+00 3.059E-13 0.000E+00
 ETOT 59  -18.004520994498     -3.553E-15 2.189E-13 0.000E+00
 ETOT 60  -18.004520994498      0.000E+00 1.514E-13 0.000E+00
 ETOT 61  -18.004520994498      3.553E-15 1.084E-13 0.000E+00
[...]
 ETOT 94  -18.004520994498      0.000E+00 9.975E-19 0.000E+00
 ETOT 95  -18.004520994498     -3.553E-15 7.101E-19 0.000E+00
 ETOT 96  -18.004520994498      3.553E-15 4.951E-19 0.000E+00
 ETOT 97  -18.004520994498     -3.553E-15 3.523E-19 0.000E+00
 ETOT 98  -18.004520994498      0.000E+00 2.457E-19 0.000E+00
 ETOT 99  -18.004520994498     -3.553E-15 1.748E-19 0.000E+00
 ETOT  100  -18.004520994498      3.553E-15 1.220E-19 0.000E+00
 ETOT  101  -18.004520994498      0.000E+00 8.672E-20 0.000E+00
 ETOT  102  -18.004520994498      0.000E+00 6.054E-20 0.000E+00
 ETOT  103  -18.004520994498     -3.553E-15 4.303E-20 0.000E+00
 ETOT  104  -18.004520994498      3.553E-15 3.005E-20 0.000E+00
 ETOT  105  -18.004520994498      0.000E+00 2.135E-20 0.000E+00
 ETOT  106  -18.004520994498      3.553E-15 1.492E-20 0.000E+00
 ETOT  107  -18.004520994498     -1.066E-14 1.060E-20 0.000E+00
 ETOT  108  -18.004520994498      7.105E-15 9.853E-21 0.000E+00

 At SCF step  108   max residual=  9.85E-21 < tolwfr=  1.00E-20 =>converged.

 ----iterations are completed or convergence reached----

 dfpt_looppert: DFPT cycle converged with prtwf=-1. Will skip output of the 1st-order WFK file.
 dfpt_looppert : ek2=    3.7907994990E+01
          f-sum rule ratio=    1.0003065304E+00
 prteigrs : about to open file /scratch/users/j/a/jabreu/flow_simple_9atoms/flow/w125/t1/tmpdata/tmp_1WF1_EIG
 Expectation of eigenvalue derivatives (hartree) for nkpt=   2  k points:
  (in case of degenerate eigenvalues, averaged derivative)
 kpt#   1, nband= 45, wtk=  0.50000, kpt=  0.0000  0.0000  0.0000 (reduced coord)
   0.00000   -0.00000   -0.00000    0.00000   -0.00000   -0.00000   -0.00000    0.00000
   0.00000   -0.00000    0.00000   -0.00000    0.00000   -0.00000    0.00000    0.00000
   0.00000    0.00000   -0.00000   -0.00000   -0.00000    0.00000   -0.00000    0.00000
  -0.00000    0.00000    0.00000   -0.00000    0.00000    0.00000   -0.00000   -0.00000
  -0.00000   -0.00000   -0.00000   -0.00000   -0.00000    0.00000   -0.00000    0.00000
   0.00000   -0.00000   -0.00000    0.00000   -0.00000
 prteigrs : prtvol=0 or 1, do not print more k-points.

 Eight components of 2nd-order total energy (hartree) are
 1,2,3: 0th-order hamiltonian combined with 1st-order wavefunctions
     kin0=   3.09450422E+01 eigvalue=   1.40429009E+00  local=  -1.61032749E+01
 4,5,6: 1st-order hamiltonian combined with 1st and 0th-order wfs
     kin1=  -3.79196149E+01  Hartree=   0.00000000E+00     xc=   0.00000000E+00
 7,8,9: eventually, occupation + non-local contributions
    edocc=   3.53125289E+00     enl0=  -1.77278924E+00   enl1=   1.91057296E+00
 1-9 gives the relaxation energy (to be shifted if some occ is /=2.0)
   erelax=  -1.80045210E+01
  No Ewald or frozen-wf contrib.: the relaxation energy is the total one
 2DEtotal=   -0.1800452099E+02 Ha. Also 2DEtotal=   -0.489927931997E+03 eV
    (  non-var. 2DEtotal :   -1.8004520994E+01 Ha)

 CALCULATION OF EFFECTIVE MASSES
 NOTE : Additional infos (eff. mass eigenvalues, eigenvectors and, if degenerate, average mass) are available in stdout.

 K-point ( 0.000, 0.000, 0.000) | band =    36
 Effective mass tensor:
             -2.0199218262              0.6648276717             -0.1484611434
              0.6648276717             -3.7730092926             -0.0499324667
             -0.1484611434             -0.0499324667             -1.5178963644
 Effective mass tensor eigenvalues:
             -3.9966131629             -1.8666628997             -1.4475514206
 Angular average effective mass 1/(<1/m>)=  -2.0314894824
 Angular average effective mass for Frohlich model (<m**0.5>)**2=  -2.1309976187
 Effective masses along directions: (cart. coord. / red. coord. -> eff. mass)
    1:   1.000000  0.000000  0.000000 /   0.782107  0.623144  0.000000 ->  -1.8864753064
    2:   0.000000  1.000000  0.000000 /   0.000000  1.000000  0.000000 ->  -3.5477140296
    3:   0.000000  0.000000  1.000000 /   0.144152  0.144152  0.979000 ->  -1.5042384469
    4:   0.577350  0.577350  0.577350 /   0.518179  0.696704  0.496078 ->  -1.9760650205
    5:   0.000000  0.707107  0.707107 /   0.120342  0.563518  0.817292 ->  -2.1985234311
    6:   0.707107  0.000000  0.707107 /   0.620436  0.512109  0.593973 ->  -1.8433329464
    7:   0.707107  0.707107  0.000000 /   0.580947  0.813941  0.000000 ->  -1.9995501410

 K-point ( 0.000, 0.000, 0.500) | band =    37
 Effective mass tensor:
              2.3848071304              0.3518175796             -3.3779424045
              0.3518175796              1.4570975342             -1.1361151220
             -3.3779424045             -1.1361151220             23.7997670315
 Effective mass tensor eigenvalues:
              1.3387694718              1.9225649530             24.3803372714
 Angular average effective mass 1/(<1/m>)=   2.2933856003
 Angular average effective mass for Frohlich model (<m**0.5>)**2=   2.9401738433
 Effective masses along directions: (cart. coord. / red. coord. -> eff. mass)
    1:   1.000000  0.000000  0.000000 /   0.782107  0.623144  0.000000 ->   1.8794830425
    2:   0.000000  1.000000  0.000000 /   0.000000  1.000000  0.000000 ->   1.3838038342
    3:   0.000000  0.000000  1.000000 /   0.144152  0.144152  0.979000 ->  18.7256294081
    4:   0.577350  0.577350  0.577350 /   0.518179  0.696704  0.496078 ->   2.2121171693
    5:   0.000000  0.707107  0.707107 /   0.120342  0.563518  0.817292 ->   2.4256388501
    6:   0.707107  0.000000  0.707107 /   0.620436  0.512109  0.593973 ->   2.7412419388
    7:   0.707107  0.707107  0.000000 /   0.580947  0.813941  0.000000 ->   1.8015498724

 END OF EFFECTIVE MASSES SECTION

 ---- first-order wavefunction calculations are completed ----

 Total localisation tensor (bohr^2) in cartesian coordinates
  WARNING : still subject to testing - especially symmetries.
      direction              matrix element
   alpha     beta       real part   imaginary part
     1        1       3.0819047373    0.0000000000
     1        2       0.9076786271    0.0000000000
     1        3       0.5558240175    0.0000000000
     2        1       0.9076786271    0.0000000000
     2        2       0.6884423965    0.0000000000
     2        3       0.1869422835    0.0000000000
     3        1       0.5558240175    0.0000000000
     3        2       0.1869422835    0.0000000000
     3        3       0.7790863325    0.0000000000

 respfn : d/dk was computed, but no 2DTE, so no DDB output.

== END DATASET(S) ==============================================================

 -outvars: echo values of variables after computation  --------
            acell      1.0000000000E+00  1.0000000000E+00  1.0000000000E+00 Bohr
              amu      3.90983000E+01  4.78800000E+01  1.59994000E+01
             ecut      4.40000000E+01 Hartree
           etotal     -1.8004520994E+01
            fcart      0.0000000000E+00  0.0000000000E+00  0.0000000000E+00
                       0.0000000000E+00  0.0000000000E+00  0.0000000000E+00
                       0.0000000000E+00  0.0000000000E+00  0.0000000000E+00
                       0.0000000000E+00  0.0000000000E+00  0.0000000000E+00
                       0.0000000000E+00  0.0000000000E+00  0.0000000000E+00
                       0.0000000000E+00  0.0000000000E+00  0.0000000000E+00
                       0.0000000000E+00  0.0000000000E+00  0.0000000000E+00
                       0.0000000000E+00  0.0000000000E+00  0.0000000000E+00
                       0.0000000000E+00  0.0000000000E+00  0.0000000000E+00
-          fftalg         512
           irdden           1
           irdwfk           1
           istwfk        1    1
              ixc     -116133
              kpt      0.00000000E+00  0.00000000E+00  0.00000000E+00
                       0.00000000E+00  0.00000000E+00  5.00000000E-01
           kptopt           0
P           mkmem           2
P          mkqmem           2
P          mk1mem           2
            natom           9
            nband          45
           nbdbuf           4
            ngfft          72      72      80
             nkpt           2
            nstep        2000
             nsym           4
           ntypat           3
              occ      2.000000  2.000000  2.000000  2.000000  2.000000  2.000000
                       2.000000  2.000000  2.000000  2.000000  2.000000  2.000000
                       2.000000  2.000000  2.000000  2.000000  2.000000  2.000000
                       2.000000  2.000000  2.000000  2.000000  2.000000  2.000000
                       2.000000  2.000000  2.000000  2.000000  2.000000  2.000000
                       2.000000  2.000000  2.000000  2.000000  2.000000  2.000000
                       0.000000  0.000000  0.000000  0.000000  0.000000  0.000000
                       0.000000  0.000000  0.000000
        optdriver           1
            prtwf          -1
            rfdir           1       1       1
           rfelfd           2
            rprim      1.1151918157E+01  0.0000000000E+00  1.8299854620E+00
                       8.8853022478E+00  6.7391900505E+00  1.8299854620E+00
                       0.0000000000E+00  0.0000000000E+00  1.2428214603E+01
          spgroup          12
           strten      0.0000000000E+00  0.0000000000E+00  0.0000000000E+00
                       0.0000000000E+00  0.0000000000E+00  0.0000000000E+00
           symrel      1  0  0   0  1  0   0  0  1      -1  0  0   0 -1  0   0  0 -1
                       0 -1  0  -1  0  0   0  0 -1       0  1  0   1  0  0   0  0  1
           tolwfr      1.00000000E-20
            typat      1  1  2  2  3  3  3  3  3
           useylm           1
              wtk        0.50000    0.50000
           xangst      4.2748341939E+00  1.4377702838E+00  3.0785138392E+00
                       6.3284061676E+00  2.1284554953E+00  5.4349872692E+00
                       1.5648898320E+00  5.2632499783E-01  9.0002807524E-01
                       9.0383505295E+00  3.0399007812E+00  7.6134730331E+00
                       3.4207007698E+00  1.1504965324E+00  7.1176490576E+00
                       7.1825395917E+00  2.4157292467E+00  1.3958520507E+00
                       1.3290631631E+00  4.4700857028E-01  2.5922088085E+00
                       9.2741771984E+00  3.1192172088E+00  5.9212922999E+00
                       0.0000000000E+00  0.0000000000E+00  0.0000000000E+00
            xcart      8.0782658899E+00  2.7169920783E+00  5.8175480523E+00
                       1.1958954515E+01  4.0221979722E+00  1.0270637474E+01
                       2.9572132106E+00  9.9461010279E-01  1.7008065741E+00
                       1.7080007194E+01  5.7445799477E+00  1.4387378953E+01
                       6.4641876374E+00  2.1741233630E+00  1.3450407429E+01
                       1.3573032767E+01  4.5650666875E+00  2.6377780979E+00
                       2.5115653916E+00  8.4472377688E-01  4.8985647273E+00
                       1.7525655013E+01  5.8944662736E+00  1.1189620799E+01
                       0.0000000000E+00  0.0000000000E+00  0.0000000000E+00
             xred      4.0316300000E-01  4.0316300000E-01  3.4936500000E-01
                       5.9683700000E-01  5.9683700000E-01  6.5063500000E-01
                       1.4758600000E-01  1.4758600000E-01  9.3388000000E-02
                       8.5241400000E-01  8.5241400000E-01  9.0661200000E-01
                       3.2260900000E-01  3.2260900000E-01  9.8724300000E-01
                       6.7739100000E-01  6.7739100000E-01  1.2757000000E-02
                       1.2534500000E-01  1.2534500000E-01  3.5723600000E-01
                       8.7465500000E-01  8.7465500000E-01  6.4276400000E-01
                       0.0000000000E+00  0.0000000000E+00  0.0000000000E+00
            znucl       19.00000   22.00000    8.00000

- Timing analysis has been suppressed with timopt=0

 Suggested references for the acknowledgment of ABINIT usage.

 Calculation completed.
.Delivered  14 WARNINGs and   9 COMMENTs to log file.