.Version 9.7.2 of ABINIT

 ABINIT is a project of the Universite Catholique de Louvain,
 Corning Inc. and other collaborators, see ~abinit/doc/developers/contributors.txt .
 acknowledgments of the ABINIT effort.

.Starting date : Wed  1 Dec 2021.
- ( at 21h36 )

- input  file    -> /scratch/users/j/a/jabreu/flow_simple_remain_atoms/flow/w222/t1/run.abi
- output file    -> /scratch/users/j/a/jabreu/flow_simple_remain_atoms/flow/w222/t1/run.abo
- root for input  files -> /scratch/users/j/a/jabreu/flow_simple_remain_atoms/flow/w222/t1/indata/in
- root for output files -> /scratch/users/j/a/jabreu/flow_simple_remain_atoms/flow/w222/t1/outdata/out

 Symmetries : space group R3 m (#160); Bravais hR (rhombohedral)
     intxc =       0      iscf =       7    lmnmax =      32     lnmax =       8
     mgfft =      72  mpssoang =       4    mqgrid =    3204     natom =       5
  nloc_mem =       1    nspden =       1   nspinor =       1    nsppol =       1
      nsym =       6    n1xccc =    2501    ntypat =       3    occopt =       1
   xclevel =       2
-    mband =          31        mffmem =           1         mkmem =           2
-   mkqmem =           2        mk1mem =           2           mpw =       17268
      nfft =      373248          nkpt =           2
  Rough estimation (10% accuracy) of disk space for files :

------------- Echo of variables that govern the present computation ------------
-
- outvars: echo of selected default values
-   iomode0 =  0 , fftalg0 =512 , wfoptalg0 =  0
-
- outvars: echo of global parameters not present in the input file
-  max_nthreads =    0
-
 -outvars: echo values of preprocessed input variables --------
            acell      1.0000000000E+00  1.0000000000E+00  1.0000000000E+00 Bohr
              amu      1.32905430E+02  7.26100000E+01  1.26904470E+02
             ecut      4.10000000E+01 Hartree
-          fftalg         512
           irdden           1
           irdwfk           1
           istwfk        1    0
              ixc     -116133
              kpt      5.00000000E-01  5.00000000E-01  5.00000000E-01
                       5.00000000E-01  4.65658512E-01 -4.65658512E-01
           kptopt           0
P           mkmem           2
P          mkqmem           2
P          mk1mem           2
            natom           5
            nband          31
           nbdbuf           4
            ngfft          72      72      72
             nkpt           2
            nstep        2000
             nsym           6
           ntypat           3
              occ      2.000000  2.000000  2.000000  2.000000  2.000000  2.000000
                       2.000000  2.000000  2.000000  2.000000  2.000000  2.000000
                       2.000000  2.000000  2.000000  2.000000  2.000000  2.000000
                       2.000000  2.000000  2.000000  2.000000  0.000000  0.000000
                       0.000000  0.000000  0.000000  0.000000  0.000000  0.000000
                       0.000000
        optdriver           1
            prtwf          -1
            rfdir           1       1       1
           rfelfd           2
            rprim      1.1114051619E+01  0.0000000000E+00  1.5040643840E-01
                       1.4838476060E-01  1.1113061026E+01  1.5040643840E-01
                       0.0000000000E+00  0.0000000000E+00  1.1115069298E+01
          spgroup         160
           symrel      1  0  0   0  1  0   0  0  1       0  1  0   1  0  0   0  0  1
                       0  0  1   1  0  0   0  1  0       1  0  0   0  0  1   0  1  0
                       0  1  0   0  0  1   1  0  0       0  0  1   0  1  0   1  0  0
           tolwfr      1.00000000E-20
            typat      1  2  3  3  3
           useylm           1
              wtk        0.50000    0.50000
           xangst      8.3854732762E-03  8.2742555077E-03  8.4997217005E-03
                       2.8339502574E+00  2.7963631572E+00  2.8725615964E+00
                       2.9662333688E+00  1.4407907601E-02  3.0066470076E+00
                       3.0056408857E+00  2.9657766275E+00  9.4689364906E-02
                       5.4009087350E-02  2.9657766275E+00  3.0066470076E+00
            xcart      1.5846247987E-02  1.5636076863E-02  1.6062146220E-02
                       5.3553898606E+00  5.2843605353E+00  5.4283547170E+00
                       5.6053687132E+00  2.7226999513E-02  5.6817394226E+00
                       5.6798381279E+00  5.6045055973E+00  1.7893696737E-01
                       1.0206238378E-01  5.6045055973E+00  5.6817394226E+00
             xred      1.4070000000E-03  1.4070000000E-03  1.4070000000E-03
                       4.7550900000E-01  4.7550900000E-01  4.7550900000E-01
                       5.0431700000E-01  2.4500000000E-03  5.0431700000E-01
                       5.0431700000E-01  5.0431700000E-01  2.4500000000E-03
                       2.4500000000E-03  5.0431700000E-01  5.0431700000E-01
            znucl       55.00000   32.00000   53.00000

 chkinp: Checking input parameters for consistency.

== DATASET  1 ==================================================================
-   mpi_nproc: 1, omp_nthreads: -1 (-1 if OMP is not activated)

--- !DatasetInfo
iteration_state: {dtset: 1, }
dimensions: {natom: 5, nkpt: 2, mband: 31, nsppol: 1, nspinor: 1, nspden: 1, mpw: 17268, }
cutoff_energies: {ecut:  41.0, pawecutdg:  -1.0, }
electrons: {nelect:   4.40000000E+01, charge:   0.00000000E+00, occopt:   1.00000000E+00, tsmear:   1.00000000E-02, }
meta: {optdriver: 1, rfelfd: 2, }
...

 Real(R)+Recip(G) space primitive vectors, cartesian coordinates (Bohr,Bohr^-1):
 R(1)= 11.1140516  0.0000000  0.1504064  G(1)=  0.0899762 -0.0012014  0.0000000
 R(2)=  0.1483848 11.1130610  0.1504064  G(2)=  0.0000000  0.0899842  0.0000000
 R(3)=  0.0000000  0.0000000 11.1150693  G(3)= -0.0012175 -0.0012014  0.0899680
 Unit cell volume ucvol=  1.3728348E+03 bohr^3
 Angles (23,13,12)=  8.92246637E+01  8.92246637E+01  8.92246637E+01 degrees

 getcut: wavevector=  0.0000  0.0000  0.0000  ngfft=  72  72  72
         ecut(hartree)=     41.000   => boxcut(ratio)=   2.24772

 getcut : COMMENT -
  Note that boxcut > 2.2 ; recall that boxcut=Gcut(box)/Gcut(sphere) = 2
  is sufficient for exact treatment of convolution.
  Such a large boxcut is a waste : you could raise ecut
  e.g. ecut=   51.785402 Hartrees makes boxcut=2

--- Pseudopotential description ------------------------------------------------
- pspini: atom type   1  psp file is /scratch/users/j/a/jabreu/pseudos/PBEsol/Cs.psp8
- pspatm: opening atomic psp file    /scratch/users/j/a/jabreu/pseudos/PBEsol/Cs.psp8
- Cs    ONCVPSP-3.3.0  r_core=   2.27353   1.85623   2.01788   1.90105
- 55.00000   9.00000    180112                znucl, zion, pspdat
    8 -116133    3    4       600   0.00000   pspcod,pspxc,lmax,lloc,mmax,r2well
    5.99000000000000    5.00000000000000    0.00000000000000   rchrg,fchrg,qchrg
     nproj     2     2     2     2
     extension_switch     1
  pspatm : epsatm=   22.12462445
         --- l  ekb(1:nproj) -->
             0    6.214110    0.767882
             1    6.311966    0.793598
             2    3.769790    0.913105
             3   -9.247129   -2.432478
 pspatm: atomic psp has been read  and splines computed

- pspini: atom type   2  psp file is /scratch/users/j/a/jabreu/pseudos/PBEsol/Ge.psp8
- pspatm: opening atomic psp file    /scratch/users/j/a/jabreu/pseudos/PBEsol/Ge.psp8
- Ge    ONCVPSP-3.3.0  r_core=   1.91022   1.82122   1.91022
- 32.00000  14.00000    180112                znucl, zion, pspdat
    8 -116133    2    4       600   0.00000   pspcod,pspxc,lmax,lloc,mmax,r2well
    5.99000000000000    5.00000000000000    0.00000000000000   rchrg,fchrg,qchrg
     nproj     2     2     2
     extension_switch     1
  pspatm : epsatm=   30.86751540
         --- l  ekb(1:nproj) -->
             0    6.339734    0.583066
             1    3.813259    0.738801
             2   -9.332373   -3.602819
 pspatm: atomic psp has been read  and splines computed

- pspini: atom type   3  psp file is /scratch/users/j/a/jabreu/pseudos/PBEsol/I.psp8
- pspatm: opening atomic psp file    /scratch/users/j/a/jabreu/pseudos/PBEsol/I.psp8
- I     ONCVPSP-3.3.0  r_core=   2.02042   2.17032   2.27639
- 53.00000   7.00000    180112                znucl, zion, pspdat
    8 -116133    2    4       600   0.00000   pspcod,pspxc,lmax,lloc,mmax,r2well
    5.99000000000000    4.00000000000000    0.00000000000000   rchrg,fchrg,qchrg
     nproj     2     2     2
     extension_switch     1
  pspatm : epsatm=   18.14229533
         --- l  ekb(1:nproj) -->
             0    6.015861    0.935228
             1    4.063749    0.754139
             2    4.149534    0.722940
 pspatm: atomic psp has been read  and splines computed

   4.72643714E+03                                ecore*ucvol(ha*bohr**3)

 ==>  initialize data related to q vector <==

 The list of irreducible perturbations for this q vector is:
    1)    idir= 1    ipert=   6
    2)    idir= 2    ipert=   6
    3)    idir= 3    ipert=   6

 Perturbation wavevector (in red.coord.)   0.000000  0.000000  0.000000
 Perturbation : derivative vs k along direction   1

 dfpt_looppert : COMMENT -
  In a d/dk calculation, iscf is set to -3 automatically.
 The set of symmetries contains only one element for this perturbation.
 symkpt : not enough symmetry to change the number of k points.

 Initialisation of the first-order wave-functions :
  ireadwf=   0

--- !BeginCycle
iteration_state: {dtset: 1, }
solver: {iscf: 7, nstep: 2000, nline: 4, wfoptalg: 0, }
tolerances: {tolwfr: 1.00E-20, }
...

     iter   2DEtotal(Ha)        deltaE(Ha) residm    vres2
-ETOT  1  -35.935055079166     -3.594E+01 2.532E-02 0.000E+00
 ETOT  2  -35.948697546615     -1.364E-02 2.322E-04 0.000E+00
 ETOT  3  -35.948730425745     -3.288E-05 7.182E-05 0.000E+00
 ETOT  4  -35.948732306489     -1.881E-06 8.352E-06 0.000E+00
 ETOT  5  -35.948732495254     -1.888E-07 3.112E-06 0.000E+00
 ETOT  6  -35.948732517557     -2.230E-08 4.826E-07 0.000E+00
 ETOT  7  -35.948732520450     -2.893E-09 1.646E-07 0.000E+00
 ETOT  8  -35.948732520846     -3.956E-10 2.980E-08 0.000E+00
 ETOT  9  -35.948732520902     -5.607E-11 8.884E-09 0.000E+00
 ETOT 10  -35.948732520910     -8.157E-12 1.900E-09 0.000E+00
 ETOT 11  -35.948732520911     -1.087E-12 4.857E-10 0.000E+00
 ETOT 12  -35.948732520911     -3.197E-13 1.227E-10 0.000E+00
 ETOT 13  -35.948732520911     -1.421E-14 3.043E-11 0.000E+00
 ETOT 14  -35.948732520911     -2.842E-14 7.988E-12 0.000E+00
 ETOT 15  -35.948732520911      7.816E-14 1.998E-12 0.000E+00
 ETOT 16  -35.948732520911     -4.974E-14 5.222E-13 0.000E+00
 ETOT 17  -35.948732520911     -5.684E-14 1.315E-13 0.000E+00
 ETOT 18  -35.948732520911      2.842E-14 3.424E-14 0.000E+00
 ETOT 19  -35.948732520911     -1.421E-14 8.676E-15 0.000E+00
 ETOT 20  -35.948732520911     -2.842E-14 2.250E-15 0.000E+00
 ETOT 21  -35.948732520911      1.421E-14 5.730E-16 0.000E+00
 ETOT 22  -35.948732520911      0.000E+00 1.480E-16 0.000E+00
 ETOT 23  -35.948732520911      0.000E+00 3.788E-17 0.000E+00
 ETOT 24  -35.948732520911      0.000E+00 9.753E-18 0.000E+00
 ETOT 25  -35.948732520911      0.000E+00 2.506E-18 0.000E+00
 ETOT 26  -35.948732520911      0.000E+00 6.432E-19 0.000E+00
 ETOT 27  -35.948732520911      0.000E+00 1.658E-19 0.000E+00
 ETOT 28  -35.948732520911      0.000E+00 4.245E-20 0.000E+00
 ETOT 29  -35.948732520911     -1.421E-14 1.098E-20 0.000E+00
 ETOT 30  -35.948732520911      0.000E+00 9.464E-21 0.000E+00

 At SCF step   30   max residual=  9.46E-21 < tolwfr=  1.00E-20 =>converged.

 ----iterations are completed or convergence reached----

 dfpt_looppert: DFPT cycle converged with prtwf=-1. Will skip output of the 1st-order WFK file.
 dfpt_looppert : ek2=    2.8130341884E+01
          f-sum rule ratio=    1.8548812779E+00
 prteigrs : about to open file /scratch/users/j/a/jabreu/flow_simple_remain_atoms/flow/w222/t1/tmpdata/tmp_1WF1_EIG
 Expectation of eigenvalue derivatives (hartree) for nkpt=   2  k points:
  (in case of degenerate eigenvalues, averaged derivative)
 kpt#   1, nband= 31, wtk=  0.50000, kpt=  0.5000  0.5000  0.5000 (reduced coord)
  -0.00000   -0.00000   -0.00000   -0.00000    0.00000    0.00000   -0.00000   -0.00000
  -0.00000   -0.00000    0.00000    0.00000    0.00000   -0.00000    0.00000    0.00000
  -0.00000   -0.00000    0.00000   -0.00000   -0.00000    0.00000   -0.00000    0.00000
   0.00000   -0.00000   -0.00000   -0.00000   -0.00000   -0.00000   -0.00000
 prteigrs : prtvol=0 or 1, do not print more k-points.

 Eight components of 2nd-order total energy (hartree) are
 1,2,3: 0th-order hamiltonian combined with 1st-order wavefunctions
     kin0=   2.21704178E+01 eigvalue=   1.35848205E+00  local=  -1.00425431E+01
 4,5,6: 1st-order hamiltonian combined with 1st and 0th-order wfs
     kin1=  -5.21784445E+01  Hartree=   0.00000000E+00     xc=   0.00000000E+00
 7,8,9: eventually, occupation + non-local contributions
    edocc=   1.88635200E+01     enl0=   3.59885576E+00   enl1=  -1.97190205E+01
 1-9 gives the relaxation energy (to be shifted if some occ is /=2.0)
   erelax=  -3.59487325E+01
  No Ewald or frozen-wf contrib.: the relaxation energy is the total one
 2DEtotal=   -0.3594873252E+02 Ha. Also 2DEtotal=   -0.978214759907E+03 eV
    (  non-var. 2DEtotal :   -3.5948732521E+01 Ha)

 Perturbation wavevector (in red.coord.)   0.000000  0.000000  0.000000
 Perturbation : derivative vs k along direction   2
 The set of symmetries contains only one element for this perturbation.
 symkpt : not enough symmetry to change the number of k points.

[...]

 Perturbation wavevector (in red.coord.)   0.000000  0.000000  0.000000
 Perturbation : derivative vs k along direction   3
 The set of symmetries contains only one element for this perturbation.
 symkpt : not enough symmetry to change the number of k points.

 Initialisation of the first-order wave-functions :
  ireadwf=   0

--- !BeginCycle
iteration_state: {dtset: 1, }
solver: {iscf: 7, nstep: 2000, nline: 4, wfoptalg: 0, }
tolerances: {tolwfr: 1.00E-20, }
...

     iter   2DEtotal(Ha)        deltaE(Ha) residm    vres2
-ETOT  1  -34.202612406586     -3.420E+01 2.471E-02 0.000E+00
 ETOT  2  -34.216479448223     -1.387E-02 2.080E-04 0.000E+00
 ETOT  3  -34.216513445242     -3.400E-05 6.019E-05 0.000E+00
 ETOT  4  -34.216515367360     -1.922E-06 8.344E-06 0.000E+00
 ETOT  5  -34.216515556478     -1.891E-07 2.067E-06 0.000E+00
 ETOT  6  -34.216515579020     -2.254E-08 4.826E-07 0.000E+00
 ETOT  7  -34.216515581984     -2.964E-09 1.135E-07 0.000E+00
 ETOT  8  -34.216515582394     -4.095E-10 2.980E-08 0.000E+00
 ETOT  9  -34.216515582452     -5.854E-11 7.195E-09 0.000E+00
 ETOT 10  -34.216515582461     -8.598E-12 1.900E-09 0.000E+00
 ETOT 11  -34.216515582462     -1.229E-12 4.658E-10 0.000E+00
 ETOT 12  -34.216515582462     -1.990E-13 1.227E-10 0.000E+00
 ETOT 13  -34.216515582462     -3.553E-14 3.043E-11 0.000E+00
 ETOT 14  -34.216515582462     -7.105E-15 7.988E-12 0.000E+00
 ETOT 15  -34.216515582462     -2.842E-14 1.998E-12 0.000E+00
 ETOT 16  -34.216515582462      4.263E-14 5.222E-13 0.000E+00
 ETOT 17  -34.216515582462      1.421E-14 1.315E-13 0.000E+00
 ETOT 18  -34.216515582462     -2.842E-14 3.424E-14 0.000E+00
 ETOT 19  -34.216515582462     -1.421E-14 8.676E-15 0.000E+00
 ETOT 20  -34.216515582462      0.000E+00 2.250E-15 0.000E+00
 ETOT 21  -34.216515582462      1.421E-14 5.730E-16 0.000E+00
 ETOT 22  -34.216515582462     -7.105E-15 1.480E-16 0.000E+00
 ETOT 23  -34.216515582462     -7.105E-15 3.788E-17 0.000E+00
 ETOT 24  -34.216515582462      1.421E-14 9.753E-18 0.000E+00
 ETOT 25  -34.216515582462     -7.105E-15 2.506E-18 0.000E+00
 ETOT 26  -34.216515582462      0.000E+00 6.432E-19 0.000E+00
 ETOT 27  -34.216515582462      7.105E-15 1.658E-19 0.000E+00
 ETOT 28  -34.216515582462     -7.105E-15 4.245E-20 0.000E+00
 ETOT 29  -34.216515582462      7.105E-15 1.098E-20 0.000E+00
 ETOT 30  -34.216515582462      0.000E+00 9.904E-21 0.000E+00

 At SCF step   30   max residual=  9.90E-21 < tolwfr=  1.00E-20 =>converged.

 ----iterations are completed or convergence reached----

 dfpt_looppert: DFPT cycle converged with prtwf=-1. Will skip output of the 1st-order WFK file.
 dfpt_looppert : ek2=    2.8130341884E+01
          f-sum rule ratio=    1.7405243358E+00
 prteigrs : about to open file /scratch/users/j/a/jabreu/flow_simple_remain_atoms/flow/w222/t1/tmpdata/tmp_1WF1_EIG
 Expectation of eigenvalue derivatives (hartree) for nkpt=   2  k points:
  (in case of degenerate eigenvalues, averaged derivative)
 kpt#   1, nband= 31, wtk=  0.50000, kpt=  0.5000  0.5000  0.5000 (reduced coord)
   0.00000    0.00000   -0.00000   -0.00000   -0.00000   -0.00000   -0.00000    0.00000
   0.00000   -0.00000    0.00000    0.00000    0.00000   -0.00000   -0.00000   -0.00000
   0.00000    0.00000   -0.00000   -0.00000   -0.00000    0.00000   -0.00000    0.00000
   0.00000    0.00000   -0.00000    0.00000    0.00000    0.00000    0.00000
 prteigrs : prtvol=0 or 1, do not print more k-points.

 Eight components of 2nd-order total energy (hartree) are
 1,2,3: 0th-order hamiltonian combined with 1st-order wavefunctions
     kin0=   2.21484969E+01 eigvalue=   1.36146471E+00  local=  -1.00331452E+01
 4,5,6: 1st-order hamiltonian combined with 1st and 0th-order wfs
     kin1=  -4.89615446E+01  Hartree=   0.00000000E+00     xc=   0.00000000E+00
 7,8,9: eventually, occupation + non-local contributions
    edocc=   1.71404287E+01     enl0=   3.59927047E+00   enl1=  -1.94714865E+01
 1-9 gives the relaxation energy (to be shifted if some occ is /=2.0)
   erelax=  -3.42165156E+01
  No Ewald or frozen-wf contrib.: the relaxation energy is the total one
 2DEtotal=   -0.3421651558E+02 Ha. Also 2DEtotal=   -0.931078739866E+03 eV
    (  non-var. 2DEtotal :   -3.4216515582E+01 Ha)

 CALCULATION OF EFFECTIVE MASSES
 NOTE : Additional infos (eff. mass eigenvalues, eigenvectors and, if degenerate, average mass) are available in stdout.

 K-point ( 0.500, 0.500, 0.500) | band =    22
 Effective mass tensor:
             -0.0943973633              0.0175997936              0.0180793725
              0.0175997936             -0.0948673582              0.0178395831
              0.0180793725              0.0178395831             -0.0939080270
 Effective mass tensor eigenvalues:
             -0.1122337231             -0.1122337231             -0.0587053023
 Angular average effective mass 1/(<1/m>)=  -0.0860728594
 Angular average effective mass for Frohlich model (<m**0.5>)**2=  -0.0887458832
 Effective masses along directions: (cart. coord. / red. coord. -> eff. mass)
    1:   1.000000  0.000000  0.000000 /   0.999911  0.013350  0.000000 ->  -0.0860801093
    2:   0.000000  1.000000  0.000000 /   0.000000  1.000000  0.000000 ->  -0.0866119396
    3:   0.000000  0.000000  1.000000 /   0.013529  0.013529  0.999817 ->  -0.0855332890
    4:   0.577350  0.577350  0.577350 /   0.577351  0.584906  0.569694 ->  -0.0587086751
    5:   0.000000  0.707107  0.707107 /   0.009504  0.711748  0.702371 ->  -0.0698024231
    6:   0.707107  0.000000  0.707107 /   0.711684  0.018878  0.702246 ->  -0.0694530737
    7:   0.707107  0.707107  0.000000 /   0.702434  0.711749  0.000000 ->  -0.0701625295

 K-point ( 0.500, 0.466,-0.466) | band =    23
 Effective mass tensor:
              0.2308872081             -0.1605934988             -0.1617123526
             -0.1605934988              0.3697163032              0.2175215080
             -0.1617123526              0.2175215080              0.3712322158
 Effective mass tensor eigenvalues:
              0.1199165558              0.1529551767              0.6989639947
 Angular average effective mass 1/(<1/m>)=   0.1839623575
 Angular average effective mass for Frohlich model (<m**0.5>)**2=   0.2084091830
 Effective masses along directions: (cart. coord. / red. coord. -> eff. mass)
    1:   1.000000  0.000000  0.000000 /   0.999911  0.013350  0.000000 ->   0.1425507187
    2:   0.000000  1.000000  0.000000 /   0.000000  1.000000  0.000000 ->   0.2152433279
    3:   0.000000  0.000000  1.000000 /   0.013529  0.013529  0.999817 ->   0.2152049986
    4:   0.577350  0.577350  0.577350 /   0.577351  0.584906  0.569694 ->   0.1484077888
    5:   0.000000  0.707107  0.707107 /   0.009504  0.711748  0.702371 ->   0.3630351379
    6:   0.707107  0.000000  0.707107 /   0.711684  0.018878  0.702246 ->   0.1287063566
    7:   0.707107  0.707107  0.000000 /   0.702434  0.711749  0.000000 ->   0.1292498995

 END OF EFFECTIVE MASSES SECTION

 ---- first-order wavefunction calculations are completed ----

 Total localisation tensor (bohr^2) in cartesian coordinates
  WARNING : still subject to testing - especially symmetries.
      direction              matrix element
   alpha     beta       real part   imaginary part
     1        1      14.5406143631    0.0000000000
     1        2       0.1658156960    0.0000000000
     1        3       0.1989923264    0.0000000000
     2        1       0.1658156960    0.0000000000
     2        2      12.4185255999    0.0000000000
     2        3       0.1680748627    0.0000000000
     3        1       0.1989923264    0.0000000000
     3        2       0.1680748627    0.0000000000
     3        3      12.4279517301    0.0000000000

 respfn : d/dk was computed, but no 2DTE, so no DDB output.

== END DATASET(S) ==============================================================

 -outvars: echo values of variables after computation  --------
            acell      1.0000000000E+00  1.0000000000E+00  1.0000000000E+00 Bohr
              amu      1.32905430E+02  7.26100000E+01  1.26904470E+02
             ecut      4.10000000E+01 Hartree
           etotal     -3.4216515582E+01
            fcart      0.0000000000E+00  0.0000000000E+00  0.0000000000E+00
                       0.0000000000E+00  0.0000000000E+00  0.0000000000E+00
                       0.0000000000E+00  0.0000000000E+00  0.0000000000E+00
                       0.0000000000E+00  0.0000000000E+00  0.0000000000E+00
                       0.0000000000E+00  0.0000000000E+00  0.0000000000E+00
-          fftalg         512
           irdden           1
           irdwfk           1
           istwfk        1    0
              ixc     -116133
              kpt      5.00000000E-01  5.00000000E-01  5.00000000E-01
                       5.00000000E-01  4.65658512E-01 -4.65658512E-01
           kptopt           0
P           mkmem           2
P          mkqmem           2
P          mk1mem           2
            natom           5
            nband          31
           nbdbuf           4
            ngfft          72      72      72
             nkpt           2
            nstep        2000
             nsym           6
           ntypat           3
              occ      2.000000  2.000000  2.000000  2.000000  2.000000  2.000000
                       2.000000  2.000000  2.000000  2.000000  2.000000  2.000000
                       2.000000  2.000000  2.000000  2.000000  2.000000  2.000000
                       2.000000  2.000000  2.000000  2.000000  0.000000  0.000000
                       0.000000  0.000000  0.000000  0.000000  0.000000  0.000000
                       0.000000
        optdriver           1
            prtwf          -1
            rfdir           1       1       1
           rfelfd           2
            rprim      1.1114051619E+01  0.0000000000E+00  1.5040643840E-01
                       1.4838476060E-01  1.1113061026E+01  1.5040643840E-01
                       0.0000000000E+00  0.0000000000E+00  1.1115069298E+01
          spgroup         160
           strten      0.0000000000E+00  0.0000000000E+00  0.0000000000E+00
                       0.0000000000E+00  0.0000000000E+00  0.0000000000E+00
           symrel      1  0  0   0  1  0   0  0  1       0  1  0   1  0  0   0  0  1
                       0  0  1   1  0  0   0  1  0       1  0  0   0  0  1   0  1  0
                       0  1  0   0  0  1   1  0  0       0  0  1   0  1  0   1  0  0
           tolwfr      1.00000000E-20
            typat      1  2  3  3  3
           useylm           1
              wtk        0.50000    0.50000
           xangst      8.3854732762E-03  8.2742555077E-03  8.4997217005E-03
                       2.8339502574E+00  2.7963631572E+00  2.8725615964E+00
                       2.9662333688E+00  1.4407907601E-02  3.0066470076E+00
                       3.0056408857E+00  2.9657766275E+00  9.4689364906E-02
                       5.4009087350E-02  2.9657766275E+00  3.0066470076E+00
            xcart      1.5846247987E-02  1.5636076863E-02  1.6062146220E-02
                       5.3553898606E+00  5.2843605353E+00  5.4283547170E+00
                       5.6053687132E+00  2.7226999513E-02  5.6817394226E+00
                       5.6798381279E+00  5.6045055973E+00  1.7893696737E-01
                       1.0206238378E-01  5.6045055973E+00  5.6817394226E+00
             xred      1.4070000000E-03  1.4070000000E-03  1.4070000000E-03
                       4.7550900000E-01  4.7550900000E-01  4.7550900000E-01
                       5.0431700000E-01  2.4500000000E-03  5.0431700000E-01
                       5.0431700000E-01  5.0431700000E-01  2.4500000000E-03
                       2.4500000000E-03  5.0431700000E-01  5.0431700000E-01
            znucl       55.00000   32.00000   53.00000

- Timing analysis has been suppressed with timopt=0

 Suggested references for the acknowledgment of ABINIT usage.

 Calculation completed.
.Delivered   2 WARNINGs and  11 COMMENTs to log file.