.Version 9.5.2 of ABINIT

 ABINIT is a project of the Universite Catholique de Louvain,
 Corning Inc. and other collaborators, see ~abinit/doc/developers/contributors.txt .
 acknowledgments of the ABINIT effort.

.Starting date : Mon 31 May 2021.
- ( at 23h11 )

- input  file    -> /scratch/users/j/a/jabreu/flow_simple_11atoms/flow/w400/t1/run.abi
- output file    -> /scratch/users/j/a/jabreu/flow_simple_11atoms/flow/w400/t1/run.abo
- root for input  files -> /scratch/users/j/a/jabreu/flow_simple_11atoms/flow/w400/t1/indata/in
- root for output files -> /scratch/users/j/a/jabreu/flow_simple_11atoms/flow/w400/t1/outdata/out

 Symmetries : space group Pn m a (# 62); Bravais oP (primitive ortho.)
     intxc =       0      iscf =       7    lmnmax =      18     lnmax =       6
     mgfft =      96  mpssoang =       3    mqgrid =    4563     natom =      12
  nloc_mem =       1    nspden =       1   nspinor =       1    nsppol =       1
      nsym =       8    n1xccc =    2501    ntypat =       2    occopt =       1
   xclevel =       2
-    mband =          57        mffmem =           1         mkmem =           1
-   mkqmem =           1        mk1mem =           1           mpw =       22191
      nfft =      384000          nkpt =           1
  Rough estimation (10% accuracy) of disk space for files :

------------- Echo of variables that govern the present computation ------------
-
- outvars: echo of selected default values
-   iomode0 =  0 , fftalg0 =512 , wfoptalg0 =  0
-
- outvars: echo of global parameters not present in the input file
-  max_nthreads =    0
-
 -outvars: echo values of preprocessed input variables --------
            acell      1.0000000000E+00  1.0000000000E+00  1.0000000000E+00 Bohr
              amu      4.00780000E+01  2.80855000E+01
             ecut      3.60000000E+01 Hartree
-          fftalg         512
           irdden           1
           irdwfk           1
           istwfk        1
              ixc     -116133
           kptopt           0
P           mkmem           1
P          mkqmem           1
P          mk1mem           1
            natom          12
            nband          57
           nbdbuf           4
            ngfft          50      80      96
             nkpt           1
            nstep        2000
             nsym           8
           ntypat           2
              occ      2.000000  2.000000  2.000000  2.000000  2.000000  2.000000
                       2.000000  2.000000  2.000000  2.000000  2.000000  2.000000
                       2.000000  2.000000  2.000000  2.000000  2.000000  2.000000
                       2.000000  2.000000  2.000000  2.000000  2.000000  2.000000
                       2.000000  2.000000  2.000000  2.000000  2.000000  2.000000
                       2.000000  2.000000  2.000000  2.000000  2.000000  2.000000
                       2.000000  2.000000  2.000000  2.000000  2.000000  2.000000
                       2.000000  2.000000  2.000000  2.000000  2.000000  2.000000
                       0.000000  0.000000  0.000000  0.000000  0.000000  0.000000
                       0.000000  0.000000  0.000000
        optdriver           1
            prtwf          -1
            rfdir           1       1       1
           rfelfd           2
            rprim      9.0297102021E+00  0.0000000000E+00  0.0000000000E+00
                       0.0000000000E+00  1.4096779654E+01  0.0000000000E+00
                       0.0000000000E+00  0.0000000000E+00  1.6891805289E+01
          spgroup          62
           symrel      1  0  0   0  1  0   0  0  1      -1  0  0   0 -1  0   0  0 -1
                      -1  0  0   0  1  0   0  0 -1       1  0  0   0 -1  0   0  0  1
                      -1  0  0   0 -1  0   0  0  1       1  0  0   0  1  0   0  0 -1
                       1  0  0   0 -1  0   0  0 -1      -1  0  0   0  1  0   0  0  1
            tnons      0.0000000  0.0000000  0.0000000     0.0000000  0.0000000  0.0000000
                       0.5000000  0.5000000  0.5000000     0.5000000  0.5000000  0.5000000
                       0.0000000  0.5000000  0.5000000     0.0000000  0.5000000  0.5000000
                       0.5000000  0.0000000  0.0000000     0.5000000  0.0000000  0.0000000
           tolwfr      1.00000000E-20
            typat      1  1  1  1  1  1  1  1  2  2  2  2
           useylm           1
           xangst      3.5837376293E+00  2.5585484012E+00  8.2740454822E+00
                       1.1945792098E+00  4.9011461062E+00  6.6471288874E-01
                       3.5837376293E+00  6.2883956549E+00  5.1340920742E+00
                       1.1945792098E+00  1.1712988525E+00  3.8046662967E+00
                       1.1945792098E+00  1.4621001235E-01  7.3219872669E+00
                       3.5837376293E+00  7.3134844951E+00  1.6167711041E+00
                       1.1945792098E+00  3.8760572661E+00  6.0861502895E+00
                       3.5837376293E+00  3.5836372414E+00  2.8526080814E+00
                       1.1945792098E+00  5.6082505485E+00  3.5325615532E+00
                       3.5837376293E+00  1.8514439589E+00  5.4061968178E+00
                       1.1945792098E+00  1.8784032948E+00  9.3681763231E-01
                       3.5837376293E+00  5.5812912126E+00  8.0019407386E+00
            xcart      6.7722826516E+00  4.8349557761E+00  1.5635679972E+01
                       2.2574275505E+00  9.2618238779E+00  1.2561253167E+00
                       6.7722826516E+00  1.1883345603E+01  9.7020279613E+00
                       2.2574275505E+00  2.2134340509E+00  7.1897773278E+00
                       2.2574275505E+00  2.7629688122E-01  1.3836550683E+01
                       6.7722826516E+00  1.3820482773E+01  3.0552546063E+00
                       2.2574275505E+00  7.3246867082E+00  1.1501157251E+01
                       6.7722826516E+00  6.7720929458E+00  5.3906480383E+00
                       2.2574275505E+00  1.0598057621E+01  6.6755738830E+00
                       6.7722826516E+00  3.4987220327E+00  1.0216231406E+01
                       2.2574275505E+00  3.5496677943E+00  1.7703287615E+00
                       6.7722826516E+00  1.0547111860E+01  1.5121476528E+01
             xred      7.5000000000E-01  3.4298300000E-01  9.2563700000E-01
                       2.5000000000E-01  6.5701700000E-01  7.4363000000E-02
                       7.5000000000E-01  8.4298300000E-01  5.7436300000E-01
                       2.5000000000E-01  1.5701700000E-01  4.2563700000E-01
                       2.5000000000E-01  1.9600000000E-02  8.1912800000E-01
                       7.5000000000E-01  9.8040000000E-01  1.8087200000E-01
                       2.5000000000E-01  5.1960000000E-01  6.8087200000E-01
                       7.5000000000E-01  4.8040000000E-01  3.1912800000E-01
                       2.5000000000E-01  7.5180700000E-01  3.9519600000E-01
                       7.5000000000E-01  2.4819300000E-01  6.0480400000E-01
                       2.5000000000E-01  2.5180700000E-01  1.0480400000E-01
                       7.5000000000E-01  7.4819300000E-01  8.9519600000E-01
            znucl       20.00000   14.00000

 chkinp: Checking input parameters for consistency.

== DATASET  1 ==================================================================
-   mpi_nproc: 1, omp_nthreads: -1 (-1 if OMP is not activated)

--- !DatasetInfo
iteration_state: {dtset: 1, }
dimensions: {natom: 12, nkpt: 1, mband: 57, nsppol: 1, nspinor: 1, nspden: 1, mpw: 22191, }
cutoff_energies: {ecut:  36.0, pawecutdg:  -1.0, }
electrons: {nelect:   9.60000000E+01, charge:   0.00000000E+00, occopt:   1.00000000E+00, tsmear:   1.00000000E-02, }
meta: {optdriver: 1, rfelfd: 2, }
...

 Real(R)+Recip(G) space primitive vectors, cartesian coordinates (Bohr,Bohr^-1):
 R(1)=  9.0297102  0.0000000  0.0000000  G(1)=  0.1107455  0.0000000  0.0000000
 R(2)=  0.0000000 14.0967797  0.0000000  G(2)=  0.0000000  0.0709382  0.0000000
 R(3)=  0.0000000  0.0000000 16.8918053  G(3)=  0.0000000  0.0000000  0.0592003
 Unit cell volume ucvol=  2.1501551E+03 bohr^3
 Angles (23,13,12)=  9.00000000E+01  9.00000000E+01  9.00000000E+01 degrees

 getcut: wavevector=  0.0000  0.0000  0.0000  ngfft=  50  80  96
         ecut(hartree)=     36.000   => boxcut(ratio)=   2.05012

--- Pseudopotential description ------------------------------------------------
- pspini: atom type   1  psp file is /scratch/users/j/a/jabreu/pseudos/PBEsol/Ca.psp8
- pspatm: opening atomic psp file    /scratch/users/j/a/jabreu/pseudos/PBEsol/Ca.psp8
- Ca    ONCVPSP-3.3.0  r_core=   1.45885   1.45885   1.85192
- 20.00000  10.00000    180112                znucl, zion, pspdat
    8 -116133    2    4       400   0.00000   pspcod,pspxc,lmax,lloc,mmax,r2well
    3.99000000000000    6.00000000000000    0.00000000000000   rchrg,fchrg,qchrg
     nproj     2     2     2
     extension_switch     1
  pspatm : epsatm=   12.46045226
         --- l  ekb(1:nproj) -->
             0   10.054847    0.973777
             1    2.998958    0.458102
             2   -3.447298   -1.091650
 pspatm: atomic psp has been read  and splines computed

- pspini: atom type   2  psp file is /scratch/users/j/a/jabreu/pseudos/PBEsol/Si.psp8
- pspatm: opening atomic psp file    /scratch/users/j/a/jabreu/pseudos/PBEsol/Si.psp8
- Si    ONCVPSP-3.3.0  r_core=   1.60303   1.72197   1.91712
- 14.00000   4.00000    180112                znucl, zion, pspdat
    8 -116133    2    4       600   0.00000   pspcod,pspxc,lmax,lloc,mmax,r2well
    5.99000000000000    4.00000000000000    0.00000000000000   rchrg,fchrg,qchrg
     nproj     2     2     2
     extension_switch     1
  pspatm : epsatm=    7.86468782
         --- l  ekb(1:nproj) -->
             0    5.384426    0.843824
             1    2.663259    0.615854
             2   -2.267219   -0.458043
 pspatm: atomic psp has been read  and splines computed

   1.25896675E+04                                ecore*ucvol(ha*bohr**3)

 ==>  initialize data related to q vector <==

 The list of irreducible perturbations for this q vector is:
    1)    idir= 1    ipert=  13
    2)    idir= 2    ipert=  13
    3)    idir= 3    ipert=  13

 Perturbation wavevector (in red.coord.)   0.000000  0.000000  0.000000
 Perturbation : derivative vs k along direction   1

 dfpt_looppert : COMMENT -
  In a d/dk calculation, iscf is set to -3 automatically.
 The set of symmetries contains only one element for this perturbation.
 symkpt : not enough symmetry to change the number of k points.

 Initialisation of the first-order wave-functions :
  ireadwf=   0

--- !BeginCycle
iteration_state: {dtset: 1, }
solver: {iscf: 7, nstep: 2000, nline: 4, wfoptalg: 0, }
tolerances: {tolwfr: 1.00E-20, }
...

     iter   2DEtotal(Ha)        deltaE(Ha) residm    vres2
-ETOT  1  -55.519026438248     -5.552E+01 2.148E-01 0.000E+00
 ETOT  2  -55.969011793028     -4.500E-01 5.480E-02 0.000E+00
 ETOT  3  -55.997218642974     -2.821E-02 9.466E-03 0.000E+00
 ETOT  4  -55.999981524126     -2.763E-03 6.282E-03 0.000E+00
 ETOT  5  -56.000311927736     -3.304E-04 1.473E-03 0.000E+00
 ETOT  6  -56.000355565706     -4.364E-05 1.045E-03 0.000E+00
[...]
 ETOT  2  -12.838408466157     -1.141E-01 4.689E-03 0.000E+00
 ETOT  3  -12.845343336730     -6.935E-03 1.667E-03 0.000E+00
 ETOT  4  -12.845987346647     -6.440E-04 9.052E-04 0.000E+00
 ETOT  5  -12.846058822594     -7.148E-05 3.428E-04 0.000E+00
 ETOT  6  -12.846067546349     -8.724E-06 3.352E-04 0.000E+00
 ETOT  7  -12.846068697212     -1.151E-06 1.002E-04 0.000E+00
 ETOT  8  -12.846068876264     -1.791E-07 9.674E-05 0.000E+00
 ETOT  9  -12.846068906584     -3.032E-08 2.906E-05 0.000E+00
 ETOT 10  -12.846068912013     -5.429E-09 2.641E-05 0.000E+00
 ETOT 11  -12.846068913024     -1.011E-09 8.522E-06 0.000E+00
 ETOT 12  -12.846068913218     -1.937E-10 7.467E-06 0.000E+00
 ETOT 13  -12.846068913256     -3.786E-11 2.582E-06 0.000E+00
 ETOT 14  -12.846068913263     -7.487E-12 2.195E-06 0.000E+00
 ETOT 15  -12.846068913265     -1.505E-12 7.860E-07 0.000E+00
 ETOT 16  -12.846068913265     -3.162E-13 6.534E-07 0.000E+00
 ETOT 17  -12.846068913265     -2.665E-14 2.389E-07 0.000E+00
 ETOT 18  -12.846068913265     -4.086E-14 1.955E-07 0.000E+00
 ETOT 19  -12.846068913265      1.776E-14 7.252E-08 0.000E+00
 ETOT 20  -12.846068913265     -1.066E-14 5.866E-08 0.000E+00
 ETOT 21  -12.846068913265      8.882E-15 2.199E-08 0.000E+00
 ETOT 22  -12.846068913265     -2.842E-14 1.763E-08 0.000E+00
 ETOT 23  -12.846068913265     -1.776E-15 6.662E-09 0.000E+00
 ETOT 24  -12.846068913265     -3.553E-15 5.302E-09 0.000E+00
 ETOT 25  -12.846068913265      2.309E-14 2.017E-09 0.000E+00
 ETOT 26  -12.846068913265     -1.066E-14 1.596E-09 0.000E+00
 ETOT 27  -12.846068913265     -1.776E-15 6.103E-10 0.000E+00
 ETOT 28  -12.846068913265      1.776E-15 4.806E-10 0.000E+00
 ETOT 29  -12.846068913265     -1.776E-15 1.846E-10 0.000E+00
 ETOT 30  -12.846068913265      1.776E-15 1.448E-10 0.000E+00
 ETOT 31  -12.846068913265      1.776E-15 5.582E-11 0.000E+00
 ETOT 32  -12.846068913265     -3.553E-15 4.362E-11 0.000E+00
 ETOT 33  -12.846068913265      0.000E+00 1.688E-11 0.000E+00
 ETOT 34  -12.846068913265      0.000E+00 1.315E-11 0.000E+00
 ETOT 35  -12.846068913265     -3.553E-15 5.101E-12 0.000E+00
 ETOT 36  -12.846068913265      0.000E+00 3.963E-12 0.000E+00
 ETOT 37  -12.846068913265      0.000E+00 1.542E-12 0.000E+00
 ETOT 38  -12.846068913265      3.553E-15 1.195E-12 0.000E+00
 ETOT 39  -12.846068913265      1.776E-15 4.660E-13 0.000E+00
 ETOT 40  -12.846068913265     -1.776E-15 3.602E-13 0.000E+00
 ETOT 41  -12.846068913265      0.000E+00 1.408E-13 0.000E+00
 ETOT 42  -12.846068913265     -1.776E-15 1.086E-13 0.000E+00
 ETOT 43  -12.846068913265     -1.776E-15 4.255E-14 0.000E+00
 ETOT 44  -12.846068913265     -3.553E-15 3.277E-14 0.000E+00
 ETOT 45  -12.846068913265      1.776E-15 1.286E-14 0.000E+00
 ETOT 46  -12.846068913265      0.000E+00 9.886E-15 0.000E+00
 ETOT 47  -12.846068913265      1.776E-15 3.886E-15 0.000E+00
 ETOT 48  -12.846068913265      0.000E+00 2.983E-15 0.000E+00
 ETOT 49  -12.846068913265      0.000E+00 1.174E-15 0.000E+00
 ETOT 50  -12.846068913265      3.553E-15 9.000E-16 0.000E+00
 ETOT 51  -12.846068913265     -7.105E-15 3.549E-16 0.000E+00
 ETOT 52  -12.846068913265      7.105E-15 2.716E-16 0.000E+00
 ETOT 53  -12.846068913265     -7.105E-15 1.073E-16 0.000E+00
 ETOT 54  -12.846068913265      0.000E+00 8.198E-17 0.000E+00
 ETOT 55  -12.846068913265      0.000E+00 3.241E-17 0.000E+00
 ETOT 56  -12.846068913265      1.243E-14 2.475E-17 0.000E+00
 ETOT 57  -12.846068913265     -5.329E-15 9.796E-18 0.000E+00
 ETOT 58  -12.846068913265      5.329E-15 7.470E-18 0.000E+00
 ETOT 59  -12.846068913265     -1.421E-14 2.961E-18 0.000E+00
 ETOT 60  -12.846068913265      3.553E-15 2.255E-18 0.000E+00
 ETOT 61  -12.846068913265      0.000E+00 8.948E-19 0.000E+00
 ETOT 62  -12.846068913265      1.243E-14 6.810E-19 0.000E+00
 ETOT 63  -12.846068913265     -5.329E-15 2.705E-19 0.000E+00
 ETOT 64  -12.846068913265      1.776E-15 2.056E-19 0.000E+00
 ETOT 65  -12.846068913265      3.553E-15 8.175E-20 0.000E+00
 ETOT 66  -12.846068913265     -3.553E-15 6.210E-20 0.000E+00
 ETOT 67  -12.846068913265     -3.553E-15 2.471E-20 0.000E+00
 ETOT 68  -12.846068913265      0.000E+00 1.876E-20 0.000E+00
 ETOT 69  -12.846068913265      0.000E+00 9.888E-21 0.000E+00

 At SCF step   69   max residual=  9.89E-21 < tolwfr=  1.00E-20 =>converged.

 ----iterations are completed or convergence reached----

 dfpt_looppert: DFPT cycle converged with prtwf=-1. Will skip output of the 1st-order WFK file.
 dfpt_looppert : ek2=    2.6564939553E+01
          f-sum rule ratio=    1.0741225503E+00
 prteigrs : about to open file /scratch/users/j/a/jabreu/flow_simple_11atoms/flow/w400/t1/tmpdata/tmp_1WF1_EIG
 Expectation of eigenvalue derivatives (hartree) for nkpt=   1  k points:
  (in case of degenerate eigenvalues, averaged derivative)
 kpt#   1, nband= 57, wtk=  1.00000, kpt=  0.0000  0.0000  0.0000 (reduced coord)
   0.00000   -0.00000    0.00000   -0.00000    0.00000    0.00000   -0.00000    0.00000
  -0.00000    0.00000   -0.00000    0.00000   -0.00000   -0.00000   -0.00000   -0.00000
   0.00000   -0.00000    0.00000   -0.00000   -0.00000    0.00000    0.00000    0.00000
   0.00000    0.00000   -0.00000   -0.00000    0.00000    0.00000   -0.00000    0.00000
  -0.00000    0.00000   -0.00000   -0.00000    0.00000    0.00000    0.00000    0.00000
  -0.00000   -0.00000   -0.00000    0.00000   -0.00000   -0.00000    0.00000   -0.00000
  -0.00000    0.00000    0.00000   -0.00000   -0.00000    0.00000   -0.00000    0.00000
   0.00001

 Eight components of 2nd-order total energy (hartree) are
 1,2,3: 0th-order hamiltonian combined with 1st-order wavefunctions
     kin0=   2.89043498E+01 eigvalue=   1.15660288E+00  local=  -1.95702490E+01
 4,5,6: 1st-order hamiltonian combined with 1st and 0th-order wfs
     kin1=  -2.85340006E+01  Hartree=   0.00000000E+00     xc=   0.00000000E+00
 7,8,9: eventually, occupation + non-local contributions
    edocc=   3.62860377E+00     enl0=  -1.27323848E+00   enl1=   2.84186279E+00
 1-9 gives the relaxation energy (to be shifted if some occ is /=2.0)
   erelax=  -1.28460689E+01
  No Ewald or frozen-wf contrib.: the relaxation energy is the total one
 2DEtotal=   -0.1284606891E+02 Ha. Also 2DEtotal=   -0.349559312291E+03 eV
    (  non-var. 2DEtotal :   -1.2846068913E+01 Ha)

 CALCULATION OF EFFECTIVE MASSES
 NOTE : Additional infos (eff. mass eigenvalues, eigenvectors and, if degenerate, average mass) are available in stdout.

 K-point ( 0.000, 0.000, 0.000) | band =    48
 Effective mass tensor:
             -3.0992617650              0.0000006883              0.0000000248
              0.0000006883             -0.1514698384              0.0000020255
              0.0000000248              0.0000020255             -2.2869310154
 Effective mass tensor eigenvalues:
             -3.0992617650             -2.2869310154             -0.1514698384
 Angular average effective mass 1/(<1/m>)=  -0.4075035450
 Angular average effective mass for Frohlich model (<m**0.5>)**2=  -0.7146463611
 Effective masses along directions: (cart. coord. / red. coord. -> eff. mass)
    1:   1.000000  0.000000  0.000000 /   1.000000  0.000000  0.000000 ->  -3.0992617650
    2:   0.000000  1.000000  0.000000 /   0.000000  1.000000  0.000000 ->  -0.1514698384
    3:   0.000000  0.000000  1.000000 /   0.000000  0.000000  1.000000 ->  -2.2869310153
    4:   0.577350  0.577350  0.577350 /   0.379685  0.592748  0.710274 ->  -0.4075027350
    5:   0.000000  0.707107  0.707107 /   0.000000  0.640728  0.767768 ->  -0.2841210422
    6:   0.707107  0.000000  0.707107 /   0.471431  0.000000  0.881903 ->  -2.6318396235
    7:   0.707107  0.707107  0.000000 /   0.539383  0.842061  0.000000 ->  -0.2888238940

 K-point ( 0.000, 0.000, 0.000) | band =    49
 Effective mass tensor:
              0.0906622721              0.0000000332              0.0000000001
              0.0000000332              0.5597064413              0.0000011955
              0.0000000001              0.0000011955              0.7608558548
 Effective mass tensor eigenvalues:
              0.0906622721              0.5597064413              0.7608558548
 Angular average effective mass 1/(<1/m>)=   0.2123006028
 Angular average effective mass for Frohlich model (<m**0.5>)**2=   0.2835878657
 Effective masses along directions: (cart. coord. / red. coord. -> eff. mass)
    1:   1.000000  0.000000  0.000000 /   1.000000  0.000000  0.000000 ->   0.0906622721
    2:   0.000000  1.000000  0.000000 /   0.000000  1.000000  0.000000 ->   0.5597064413
    3:   0.000000  0.000000  1.000000 /   0.000000  0.000000  1.000000 ->   0.7608558548
    4:   0.577350  0.577350  0.577350 /   0.379685  0.592748  0.710274 ->   0.2123007069
    5:   0.000000  0.707107  0.707107 /   0.000000  0.640728  0.767768 ->   0.6449626726
    6:   0.707107  0.000000  0.707107 /   0.471431  0.000000  0.881903 ->   0.1620186779
    7:   0.707107  0.707107  0.000000 /   0.539383  0.842061  0.000000 ->   0.1560476751

 END OF EFFECTIVE MASSES SECTION

 ---- first-order wavefunction calculations are completed ----

 Total localisation tensor (bohr^2) in cartesian coordinates
  WARNING : still subject to testing - especially symmetries.
      direction              matrix element
   alpha     beta       real part   imaginary part
     1        1       7.3151870528    0.0000000000
     1        2       0.0000000000    0.0000000000
     1        3       0.0000000000    0.0000000000
     2        1       0.0000000000    0.0000000000
     2        2       2.5334383407    0.0000000000
     2        3       0.0000000000    0.0000000000
     3        1       0.0000000000    0.0000000000
     3        2       0.0000000000    0.0000000000
     3        3       2.0914973102    0.0000000000

 respfn : d/dk was computed, but no 2DTE, so no DDB output.

== END DATASET(S) ==============================================================

 -outvars: echo values of variables after computation  --------
            acell      1.0000000000E+00  1.0000000000E+00  1.0000000000E+00 Bohr
              amu      4.00780000E+01  2.80855000E+01
             ecut      3.60000000E+01 Hartree
           etotal     -1.2846068913E+01
            fcart      0.0000000000E+00  0.0000000000E+00  0.0000000000E+00
                       0.0000000000E+00  0.0000000000E+00  0.0000000000E+00
                       0.0000000000E+00  0.0000000000E+00  0.0000000000E+00
                       0.0000000000E+00  0.0000000000E+00  0.0000000000E+00
                       0.0000000000E+00  0.0000000000E+00  0.0000000000E+00
                       0.0000000000E+00  0.0000000000E+00  0.0000000000E+00
                       0.0000000000E+00  0.0000000000E+00  0.0000000000E+00
                       0.0000000000E+00  0.0000000000E+00  0.0000000000E+00
                       0.0000000000E+00  0.0000000000E+00  0.0000000000E+00
                       0.0000000000E+00  0.0000000000E+00  0.0000000000E+00
                       0.0000000000E+00  0.0000000000E+00  0.0000000000E+00
                       0.0000000000E+00  0.0000000000E+00  0.0000000000E+00
-          fftalg         512
           irdden           1
           irdwfk           1
           istwfk        1
              ixc     -116133
           kptopt           0
P           mkmem           1
P          mkqmem           1
P          mk1mem           1
            natom          12
            nband          57
           nbdbuf           4
            ngfft          50      80      96
             nkpt           1
            nstep        2000
             nsym           8
           ntypat           2
              occ      2.000000  2.000000  2.000000  2.000000  2.000000  2.000000
                       2.000000  2.000000  2.000000  2.000000  2.000000  2.000000
                       2.000000  2.000000  2.000000  2.000000  2.000000  2.000000
                       2.000000  2.000000  2.000000  2.000000  2.000000  2.000000
                       2.000000  2.000000  2.000000  2.000000  2.000000  2.000000
                       2.000000  2.000000  2.000000  2.000000  2.000000  2.000000
                       2.000000  2.000000  2.000000  2.000000  2.000000  2.000000
                       2.000000  2.000000  2.000000  2.000000  2.000000  2.000000
                       0.000000  0.000000  0.000000  0.000000  0.000000  0.000000
                       0.000000  0.000000  0.000000
        optdriver           1
            prtwf          -1
            rfdir           1       1       1
           rfelfd           2
            rprim      9.0297102021E+00  0.0000000000E+00  0.0000000000E+00
                       0.0000000000E+00  1.4096779654E+01  0.0000000000E+00
                       0.0000000000E+00  0.0000000000E+00  1.6891805289E+01
          spgroup          62
           strten      0.0000000000E+00  0.0000000000E+00  0.0000000000E+00
                       0.0000000000E+00  0.0000000000E+00  0.0000000000E+00
           symrel      1  0  0   0  1  0   0  0  1      -1  0  0   0 -1  0   0  0 -1
                      -1  0  0   0  1  0   0  0 -1       1  0  0   0 -1  0   0  0  1
                      -1  0  0   0 -1  0   0  0  1       1  0  0   0  1  0   0  0 -1
                       1  0  0   0 -1  0   0  0 -1      -1  0  0   0  1  0   0  0  1
            tnons      0.0000000  0.0000000  0.0000000     0.0000000  0.0000000  0.0000000
                       0.5000000  0.5000000  0.5000000     0.5000000  0.5000000  0.5000000
                       0.0000000  0.5000000  0.5000000     0.0000000  0.5000000  0.5000000
                       0.5000000  0.0000000  0.0000000     0.5000000  0.0000000  0.0000000
           tolwfr      1.00000000E-20
            typat      1  1  1  1  1  1  1  1  2  2  2  2
           useylm           1
           xangst      3.5837376293E+00  2.5585484012E+00  8.2740454822E+00
                       1.1945792098E+00  4.9011461062E+00  6.6471288874E-01
                       3.5837376293E+00  6.2883956549E+00  5.1340920742E+00
                       1.1945792098E+00  1.1712988525E+00  3.8046662967E+00
                       1.1945792098E+00  1.4621001235E-01  7.3219872669E+00
                       3.5837376293E+00  7.3134844951E+00  1.6167711041E+00
                       1.1945792098E+00  3.8760572661E+00  6.0861502895E+00
                       3.5837376293E+00  3.5836372414E+00  2.8526080814E+00
                       1.1945792098E+00  5.6082505485E+00  3.5325615532E+00
                       3.5837376293E+00  1.8514439589E+00  5.4061968178E+00
                       1.1945792098E+00  1.8784032948E+00  9.3681763231E-01
                       3.5837376293E+00  5.5812912126E+00  8.0019407386E+00
            xcart      6.7722826516E+00  4.8349557761E+00  1.5635679972E+01
                       2.2574275505E+00  9.2618238779E+00  1.2561253167E+00
                       6.7722826516E+00  1.1883345603E+01  9.7020279613E+00
                       2.2574275505E+00  2.2134340509E+00  7.1897773278E+00
                       2.2574275505E+00  2.7629688122E-01  1.3836550683E+01
                       6.7722826516E+00  1.3820482773E+01  3.0552546063E+00
                       2.2574275505E+00  7.3246867082E+00  1.1501157251E+01
                       6.7722826516E+00  6.7720929458E+00  5.3906480383E+00
                       2.2574275505E+00  1.0598057621E+01  6.6755738830E+00
                       6.7722826516E+00  3.4987220327E+00  1.0216231406E+01
                       2.2574275505E+00  3.5496677943E+00  1.7703287615E+00
                       6.7722826516E+00  1.0547111860E+01  1.5121476528E+01
             xred      7.5000000000E-01  3.4298300000E-01  9.2563700000E-01
                       2.5000000000E-01  6.5701700000E-01  7.4363000000E-02
                       7.5000000000E-01  8.4298300000E-01  5.7436300000E-01
                       2.5000000000E-01  1.5701700000E-01  4.2563700000E-01
                       2.5000000000E-01  1.9600000000E-02  8.1912800000E-01
                       7.5000000000E-01  9.8040000000E-01  1.8087200000E-01
                       2.5000000000E-01  5.1960000000E-01  6.8087200000E-01
                       7.5000000000E-01  4.8040000000E-01  3.1912800000E-01
                       2.5000000000E-01  7.5180700000E-01  3.9519600000E-01
                       7.5000000000E-01  2.4819300000E-01  6.0480400000E-01
                       2.5000000000E-01  2.5180700000E-01  1.0480400000E-01
                       7.5000000000E-01  7.4819300000E-01  8.9519600000E-01
            znucl       20.00000   14.00000

- Timing analysis has been suppressed with timopt=0

 Suggested references for the acknowledgment of ABINIT usage.

 Calculation completed.
.Delivered   2 WARNINGs and   5 COMMENTs to log file.