.Version 9.5.1 of ABINIT

 ABINIT is a project of the Universite Catholique de Louvain,
 Corning Inc. and other collaborators, see ~abinit/doc/developers/contributors.txt .
 acknowledgments of the ABINIT effort.

.Starting date : Wed  5 May 2021.
- ( at 19h34 )

- input  file    -> /scratch/users/j/a/jabreu/flow_simple_7atoms/flow/w106/t1/run.abi
- output file    -> /scratch/users/j/a/jabreu/flow_simple_7atoms/flow/w106/t1/run.abo
- root for input  files -> /scratch/users/j/a/jabreu/flow_simple_7atoms/flow/w106/t1/indata/in
- root for output files -> /scratch/users/j/a/jabreu/flow_simple_7atoms/flow/w106/t1/outdata/out

 Symmetries : space group I-4 2 m (#121); Bravais tI (body-center tetrag.)
     intxc =       0      iscf =       7    lmnmax =      25     lnmax =       7
     mgfft =      90  mpssoang =       4    mqgrid =    3113     natom =       7
  nloc_mem =       1    nspden =       1   nspinor =       1    nsppol =       1
      nsym =       8    n1xccc =    2501    ntypat =       3    occopt =       1
   xclevel =       2
-    mband =          52        mffmem =           1         mkmem =           1
-   mkqmem =           1        mk1mem =           1           mpw =       22499
      nfft =      729000          nkpt =           1
  Rough estimation (10% accuracy) of disk space for files :

------------- Echo of variables that govern the present computation ------------
-
- outvars: echo of selected default values
-   iomode0 =  0 , fftalg0 =512 , wfoptalg0 =  0
-
- outvars: echo of global parameters not present in the input file
-  max_nthreads =    0
-
 -outvars: echo values of preprocessed input variables --------
            acell      1.0000000000E+00  1.0000000000E+00  1.0000000000E+00 Bohr
              amu      6.35460000E+01  2.00590000E+02  1.26904470E+02
             ecut      4.60000000E+01 Hartree
-          fftalg         512
           irdden           1
           irdwfk           1
           istwfk        1
              ixc     -116133
           kptopt           0
P           mkmem           1
P          mkqmem           1
P          mk1mem           1
            natom           7
            nband          52
           nbdbuf           4
            ngfft          90      90      90
             nkpt           1
            nstep        2000
             nsym           8
           ntypat           3
              occ      2.000000  2.000000  2.000000  2.000000  2.000000  2.000000
                       2.000000  2.000000  2.000000  2.000000  2.000000  2.000000
                       2.000000  2.000000  2.000000  2.000000  2.000000  2.000000
                       2.000000  2.000000  2.000000  2.000000  2.000000  2.000000
                       2.000000  2.000000  2.000000  2.000000  2.000000  2.000000
                       2.000000  2.000000  2.000000  2.000000  2.000000  2.000000
                       2.000000  2.000000  2.000000  2.000000  2.000000  2.000000
                       2.000000  0.000000  0.000000  0.000000  0.000000  0.000000
                       0.000000  0.000000  0.000000  0.000000
        optdriver           1
            prtwf          -1
            rfdir           1       1       1
           rfelfd           2
            rprim      1.0379340451E+01  0.0000000000E+00 -9.6934012493E+00
                      -1.9583297543E+00  1.0192921699E+01 -9.6934012493E+00
                       0.0000000000E+00  0.0000000000E+00  1.4201856779E+01
          spgroup         121
           symrel      1  0  0   0  1  0   0  0  1       0  0  1  -1 -1 -1   1  0  0
                       0  1  0   1  0  0  -1 -1 -1      -1 -1 -1   0  0  1   0  1  0
                       0  1  0   1  0  0   0  0  1       0  0  1  -1 -1 -1   0  1  0
                       1  0  0   0  1  0  -1 -1 -1      -1 -1 -1   0  0  1   1  0  0
           tolwfr      1.00000000E-20
            typat      1  1  2  3  3  3  3
           useylm           1
           xangst      3.8603069368E+00  1.3484654631E+00 -1.3718775513E+00
                       5.9589999703E-01  4.0453963892E+00 -1.3718775513E+00
                       2.2281034669E+00  2.6969309261E+00 -5.1295270148E+00
                       4.5921969268E+00  1.9434070769E+00 -6.4855841651E+00
                       2.8506366897E+00  3.4504547753E+00 -2.4761741794E+00
                       1.0420662408E+00  4.8763922762E+00 -6.4855841651E+00
                       4.2751401056E-01  5.1746957605E-01  2.4445333773E+00
            xcart      7.2949228995E+00  2.5482304248E+00 -2.5924728598E+00
                       1.1260877970E+00  7.6446912745E+00 -2.5924728598E+00
                       4.2105053482E+00  5.0964608497E+00 -9.6934012493E+00
                       8.6779945399E+00  3.6725071400E+00 -1.2255977884E+01
                       5.3869226478E+00  6.5204145593E+00 -4.6792910564E+00
                       1.9692198073E+00  9.2150459185E+00 -1.2255977884E+01
                       8.0788439794E-01  9.7787578084E-01  4.6194986058E+00
             xred      7.5000000000E-01  2.5000000000E-01  5.0000000000E-01
                       2.5000000000E-01  7.5000000000E-01  5.0000000000E-01
                       5.0000000000E-01  5.0000000000E-01  0.0000000000E+00
                       9.0406325000E-01  3.6029975000E-01  0.0000000000E+00
                       6.3970025000E-01  6.3970025000E-01  5.4376350000E-01
                       3.6029975000E-01  9.0406325000E-01  0.0000000000E+00
                       9.5936750000E-02  9.5936750000E-02  4.5623650000E-01
            znucl       29.00000   80.00000   53.00000

 chkinp: Checking input parameters for consistency.

== DATASET  1 ==================================================================
-   mpi_nproc: 1, omp_nthreads: -1 (-1 if OMP is not activated)

--- !DatasetInfo
iteration_state: {dtset: 1, }
dimensions: {natom: 7, nkpt: 1, mband: 52, nsppol: 1, nspinor: 1, nspden: 1, mpw: 22499, }
cutoff_energies: {ecut:  46.0, pawecutdg:  -1.0, }
electrons: {nelect:   8.60000000E+01, charge:   0.00000000E+00, occopt:   1.00000000E+00, tsmear:   1.00000000E-02, }
meta: {optdriver: 1, rfelfd: 2, }
...

 Real(R)+Recip(G) space primitive vectors, cartesian coordinates (Bohr,Bohr^-1):
 R(1)= 10.3793405  0.0000000 -9.6934012  G(1)=  0.0963452  0.0185105  0.0000000
 R(2)= -1.9583298 10.1929217 -9.6934012  G(2)=  0.0000000  0.0981073  0.0000000
 R(3)=  0.0000000  0.0000000 14.2018568  G(3)=  0.0657599  0.0795968  0.0704133
 Unit cell volume ucvol=  1.5024969E+03 bohr^3
 Angles (23,13,12)=  1.33042812E+02  1.33042812E+02  6.85869225E+01 degrees

 getcut: wavevector=  0.0000  0.0000  0.0000  ngfft=  90  90  90
         ecut(hartree)=     46.000   => boxcut(ratio)=   2.07584

--- Pseudopotential description ------------------------------------------------
- pspini: atom type   1  psp file is /scratch/users/j/a/jabreu/pseudos/PBEsol/Cu.psp8
- pspatm: opening atomic psp file    /scratch/users/j/a/jabreu/pseudos/PBEsol/Cu.psp8
- Cu    ONCVPSP-3.3.0  r_core=   1.26204   1.45626   1.76249
- 29.00000  19.00000    180112                znucl, zion, pspdat
    8 -116133    2    4       600   0.00000   pspcod,pspxc,lmax,lloc,mmax,r2well
    5.99000000000000    3.50000000000000    0.00000000000000   rchrg,fchrg,qchrg
     nproj     2     2     2
     extension_switch     1
  pspatm : epsatm=   21.63488701
         --- l  ekb(1:nproj) -->
             0    5.008230   -0.401634
             1   -3.496700   -0.765945
             2   -6.895851   -2.521180
 pspatm: atomic psp has been read  and splines computed

- pspini: atom type   2  psp file is /scratch/users/j/a/jabreu/pseudos/PBEsol/Hg.psp8
- pspatm: opening atomic psp file    /scratch/users/j/a/jabreu/pseudos/PBEsol/Hg.psp8
- Hg    ONCVPSP-3.3.0  r_core=   1.60079   1.60079   1.45509   1.60079
- 80.00000  20.00000    180112                znucl, zion, pspdat
    8 -116133    3    4       600   0.00000   pspcod,pspxc,lmax,lloc,mmax,r2well
    5.99000000000000    5.00000000000000    0.00000000000000   rchrg,fchrg,qchrg
     nproj     2     2     2     1
     extension_switch     1
  pspatm : epsatm=   30.52477316
         --- l  ekb(1:nproj) -->
             0   15.280580    2.063595
             1   11.999965    1.374025
             2    2.245749    0.205661
             3    0.961656
 pspatm: atomic psp has been read  and splines computed

- pspini: atom type   3  psp file is /scratch/users/j/a/jabreu/pseudos/PBEsol/I.psp8
- pspatm: opening atomic psp file    /scratch/users/j/a/jabreu/pseudos/PBEsol/I.psp8
- I     ONCVPSP-3.3.0  r_core=   2.02042   2.17032   2.27639
- 53.00000   7.00000    180112                znucl, zion, pspdat
    8 -116133    2    4       600   0.00000   pspcod,pspxc,lmax,lloc,mmax,r2well
    5.99000000000000    4.00000000000000    0.00000000000000   rchrg,fchrg,qchrg
     nproj     2     2     2
     extension_switch     1
  pspatm : epsatm=   18.14229533
         --- l  ekb(1:nproj) -->
             0    6.015861    0.935228
             1    4.063749    0.754139
             2    4.149534    0.722940
 pspatm: atomic psp has been read  and splines computed

   1.25872807E+04                                ecore*ucvol(ha*bohr**3)

-inwffil : will read wavefunctions from disk file /scratch/users/j/a/jabreu/flow_simple_7atoms/flow/w106/t1/indata/in_WFK

 ==>  initialize data related to q vector <==

 The list of irreducible perturbations for this q vector is:
    1)    idir= 1    ipert=   8
    2)    idir= 2    ipert=   8
    3)    idir= 3    ipert=   8

 Perturbation wavevector (in red.coord.)   0.000000  0.000000  0.000000
 Perturbation : derivative vs k along direction   1

 dfpt_looppert : COMMENT -
  In a d/dk calculation, iscf is set to -3 automatically.
 The set of symmetries contains only one element for this perturbation.
 symkpt : not enough symmetry to change the number of k points.

[...]

 Initialisation of the first-order wave-functions :
  ireadwf=   0

--- !BeginCycle
iteration_state: {dtset: 1, }
solver: {iscf: 7, nstep: 2000, nline: 4, wfoptalg: 0, }
tolerances: {tolwfr: 1.00E-20, }
...

     iter   2DEtotal(Ha)        deltaE(Ha) residm    vres2
-ETOT  1  -43.041852955749     -4.304E+01 7.695E-02 0.000E+00
 ETOT  2  -43.188366157671     -1.465E-01 1.658E-03 0.000E+00
 ETOT  3  -43.194083807658     -5.718E-03 6.589E-05 0.000E+00
 ETOT  4  -43.194398691480     -3.149E-04 3.594E-06 0.000E+00
 ETOT  5  -43.194418496196     -1.980E-05 2.447E-07 0.000E+00
 ETOT  6  -43.194419844512     -1.348E-06 2.270E-08 0.000E+00
 ETOT  7  -43.194419943336     -9.882E-08 1.774E-09 0.000E+00
 ETOT  8  -43.194419950839     -7.502E-09 1.655E-10 0.000E+00
 ETOT  9  -43.194419951427     -5.887E-10 1.294E-11 0.000E+00
 ETOT 10  -43.194419951475     -4.724E-11 1.278E-12 0.000E+00
 ETOT 11  -43.194419951478     -3.787E-12 9.821E-14 0.000E+00
 ETOT 12  -43.194419951479     -3.553E-13 1.009E-14 0.000E+00
 ETOT 13  -43.194419951479     -2.842E-14 7.658E-16 0.000E+00
 ETOT 14  -43.194419951479      0.000E+00 8.033E-17 0.000E+00
 ETOT 15  -43.194419951479      7.105E-15 6.048E-18 0.000E+00
 ETOT 16  -43.194419951479     -4.974E-14 6.412E-19 0.000E+00
 ETOT 17  -43.194419951479     -1.421E-14 4.809E-20 0.000E+00
 ETOT 18  -43.194419951479      2.132E-14 9.953E-21 0.000E+00

 At SCF step   18   max residual=  9.95E-21 < tolwfr=  1.00E-20 =>converged.

 ----iterations are completed or convergence reached----

 dfpt_looppert: DFPT cycle converged with prtwf=-1. Will skip output of the 1st-order WFK file.
 dfpt_looppert : ek2=    6.5356804131E+01
          f-sum rule ratio=    1.1606647172E+00
 prteigrs : about to open file /scratch/users/j/a/jabreu/flow_simple_7atoms/flow/w106/t1/tmpdata/tmp_1WF1_EIG
 Expectation of eigenvalue derivatives (hartree) for nkpt=   1  k points:
  (in case of degenerate eigenvalues, averaged derivative)
 kpt#   1, nband= 52, wtk=  1.00000, kpt=  0.0000  0.0000  0.0000 (reduced coord)
  -0.00000    0.00000    0.00000    0.00000    0.00000    0.00000    0.00000    0.00000
   0.00000   -0.00000   -0.00000   -0.00000    0.00000    0.00000    0.00000    0.00000
   0.00000    0.00000    0.00000   -0.00000    0.00000   -0.00000    0.00000   -0.00000
  -0.00000    0.00000   -0.00000   -0.00000    0.00000    0.00000   -0.00000    0.00000
   0.00000   -0.00000   -0.00000    0.00000    0.00000    0.00000   -0.00000   -0.00000
   0.00000   -0.00000   -0.00000   -0.00000   -0.00000   -0.00000    0.00000    0.00000
  -0.00000   -0.00000    0.00000    0.00000

 Eight components of 2nd-order total energy (hartree) are
 1,2,3: 0th-order hamiltonian combined with 1st-order wavefunctions
     kin0=   5.14970591E+01 eigvalue=   2.59172679E-01  local=  -2.48907565E+01
 4,5,6: 1st-order hamiltonian combined with 1st and 0th-order wfs
     kin1=  -7.58573366E+01  Hartree=   0.00000000E+00     xc=   0.00000000E+00
 7,8,9: eventually, occupation + non-local contributions
    edocc=   1.40218464E+01     enl0=   2.30709819E+00   enl1=  -1.05315033E+01
 1-9 gives the relaxation energy (to be shifted if some occ is /=2.0)
   erelax=  -4.31944200E+01
  No Ewald or frozen-wf contrib.: the relaxation energy is the total one
 2DEtotal=   -0.4319441995E+02 Ha. Also 2DEtotal=   -0.117537994191E+04 eV
    (  non-var. 2DEtotal :   -4.3194419951E+01 Ha)

 Perturbation wavevector (in red.coord.)   0.000000  0.000000  0.000000
 Perturbation : derivative vs k along direction   2
 The set of symmetries contains only one element for this perturbation.
 symkpt : not enough symmetry to change the number of k points.

[...]

 Perturbation wavevector (in red.coord.)   0.000000  0.000000  0.000000
 Perturbation : derivative vs k along direction   3
 The set of symmetries contains only one element for this perturbation.
 symkpt : not enough symmetry to change the number of k points.

-inwffil : will read wavefunctions from disk file /scratch/users/j/a/jabreu/flow_simple_7atoms/flow/w106/t1/indata/in_WFK

 Initialisation of the first-order wave-functions :
  ireadwf=   0

--- !BeginCycle
iteration_state: {dtset: 1, }
solver: {iscf: 7, nstep: 2000, nline: 4, wfoptalg: 0, }
tolerances: {tolwfr: 1.00E-20, }
...

     iter   2DEtotal(Ha)        deltaE(Ha) residm    vres2
-ETOT  1  -70.691681078433     -7.069E+01 1.482E-01 0.000E+00
 ETOT  2  -70.882642386445     -1.910E-01 6.109E-03 0.000E+00
 ETOT  3  -70.888252683520     -5.610E-03 1.189E-04 0.000E+00
 ETOT  4  -70.888509081433     -2.564E-04 8.635E-06 0.000E+00
 ETOT  5  -70.888522825593     -1.374E-05 3.450E-07 0.000E+00
 ETOT  6  -70.888523647926     -8.223E-07 3.474E-08 0.000E+00
 ETOT  7  -70.888523702162     -5.424E-08 1.747E-09 0.000E+00
 ETOT  8  -70.888523705916     -3.754E-09 1.776E-10 0.000E+00
 ETOT  9  -70.888523706188     -2.724E-10 9.331E-12 0.000E+00
 ETOT 10  -70.888523706208     -2.055E-11 9.397E-13 0.000E+00
 ETOT 11  -70.888523706210     -1.464E-12 5.038E-14 0.000E+00
 ETOT 12  -70.888523706210     -1.279E-13 5.070E-15 0.000E+00
 ETOT 13  -70.888523706210      1.279E-13 3.874E-16 0.000E+00
 ETOT 14  -70.888523706210     -1.847E-13 3.907E-17 0.000E+00
 ETOT 15  -70.888523706210      1.137E-13 3.193E-18 0.000E+00
 ETOT 16  -70.888523706210     -4.263E-14 3.328E-19 0.000E+00
 ETOT 17  -70.888523706210      2.842E-14 2.683E-20 0.000E+00
 ETOT 18  -70.888523706210      0.000E+00 9.598E-21 0.000E+00

 At SCF step   18   max residual=  9.60E-21 < tolwfr=  1.00E-20 =>converged.

 ----iterations are completed or convergence reached----

 dfpt_looppert: DFPT cycle converged with prtwf=-1. Will skip output of the 1st-order WFK file.
 dfpt_looppert : ek2=    1.0605112127E+02
          f-sum rule ratio=    1.1751278156E+00
 prteigrs : about to open file /scratch/users/j/a/jabreu/flow_simple_7atoms/flow/w106/t1/tmpdata/tmp_1WF1_EIG
 Expectation of eigenvalue derivatives (hartree) for nkpt=   1  k points:
  (in case of degenerate eigenvalues, averaged derivative)
 kpt#   1, nband= 52, wtk=  1.00000, kpt=  0.0000  0.0000  0.0000 (reduced coord)
  -0.00000    0.00000    0.00000    0.00000    0.00000    0.00000    0.00000   -0.00000
  -0.00000    0.00000    0.00000    0.00000    0.00000   -0.00000    0.00000    0.00000
   0.00000   -0.00000   -0.00000   -0.00000    0.00000   -0.00000    0.00000    0.00000
  -0.00000    0.00000   -0.00000   -0.00000    0.00000    0.00000    0.00000    0.00000
   0.00000   -0.00000   -0.00000   -0.00000   -0.00000   -0.00000   -0.00000    0.00000
   0.00000   -0.00000   -0.00000   -0.00000   -0.00000   -0.00000    0.00000    0.00000
   0.00000   -0.00000   -0.00000   -0.00000

 Eight components of 2nd-order total energy (hartree) are
 1,2,3: 0th-order hamiltonian combined with 1st-order wavefunctions
     kin0=   8.25043512E+01 eigvalue=   5.42276940E-01  local=  -3.98059725E+01
 4,5,6: 1st-order hamiltonian combined with 1st and 0th-order wfs
     kin1=  -1.24623622E+02  Hartree=   0.00000000E+00     xc=   0.00000000E+00
 7,8,9: eventually, occupation + non-local contributions
    edocc=   2.40229645E+01     enl0=   3.62490354E+00   enl1=  -1.71534249E+01
 1-9 gives the relaxation energy (to be shifted if some occ is /=2.0)
   erelax=  -7.08885237E+01
  No Ewald or frozen-wf contrib.: the relaxation energy is the total one
 2DEtotal=   -0.7088852371E+02 Ha. Also 2DEtotal=   -0.192897482984E+04 eV
    (  non-var. 2DEtotal :   -7.0888523706E+01 Ha)

 CALCULATION OF EFFECTIVE MASSES
 NOTE : Additional infos (eff. mass eigenvalues, eigenvectors and, if degenerate, average mass) are available in stdout.

 COMMENTS:
 - At k-point ( 0.000, 0.000, 0.000), bands    42 through    43
   are DEGENERATE (effective mass tensor is therefore not defined).
   See Section IIIB Eqs. (67)-(70) and Appendix E of PRB 93 205147 (2016).
 - Angular average effective mass for Frohlich model is to be averaged over degenerate bands. See later.
 - Associated theta integrals calculated with ntheta=   1000 points.

 K-point ( 0.000, 0.000, 0.000) | band =    42
 Transport equivalent effective mass tensor:
             -0.2636955300             -0.1411195865              0.2684076742
             -0.1411195865             -0.3179210126              0.3248846655
              0.2684076742              0.3248846655             -0.7650342858
 Transport equivalent effective mass tensor eigenvalues:
             -1.0524353211             -0.1471077553             -0.1471077521
 Angular average effective mass 1/(<1/m>)=  -0.2029902628
 Angular average effective mass for Frohlich model (<m**0.5>)**2=  -0.2375430124
 Effective masses along directions: (cart. coord. / red. coord. -> eff. mass)
    1:   1.000000  0.000000  0.000000 /   0.982662 -0.185405  0.000000 ->  -0.1725381331
    2:   0.000000  1.000000  0.000000 /   0.000000  1.000000  0.000000 ->  -0.1876867254
    3:   0.000000  0.000000  1.000000 /  -0.491086 -0.491086  0.719493 ->  -0.3312133494
    4:   0.577350  0.577350  0.577350 /   0.047991 -0.102064  0.993620 ->  -0.1352666777
    5:   0.000000  0.707107  0.707107 /  -0.563509  0.029039  0.825600 ->  -0.1592041533
    6:   0.707107  0.000000  0.707107 /   0.037314 -0.633840  0.772564 ->  -0.1700645418
    7:   0.707107  0.707107  0.000000 /   0.783398  0.621520  0.000000 ->  -0.1866621572

 K-point ( 0.000, 0.000, 0.000) | band =    43
 Transport equivalent effective mass tensor:
             -4.5232734982             -0.2599806093              0.4944790841
             -0.2599806093             -4.6231715885              0.5985249387
              0.4944790841              0.5985249387             -5.4468727842
 Transport equivalent effective mass tensor eigenvalues:
             -5.9763434062             -4.3084873078             -4.3084871568
 Angular average effective mass 1/(<1/m>)=  -1.1965598439
 Angular average effective mass for Frohlich model (<m**0.5>)**2=  -1.3432384213
 Effective masses along directions: (cart. coord. / red. coord. -> eff. mass)
    1:   1.000000  0.000000  0.000000 /   0.982662 -0.185405  0.000000 ->  -0.8797661268
    2:   0.000000  1.000000  0.000000 /   0.000000  1.000000  0.000000 ->  -0.7925521107
    3:   0.000000  0.000000  1.000000 /  -0.491086 -0.491086  0.719493 ->  -1.3427149751
    4:   0.577350  0.577350  0.577350 /   0.047991 -0.102064  0.993620 ->  -3.6434776644
    5:   0.000000  0.707107  0.707107 /  -0.563509  0.029039  0.825600 ->  -1.0538105682
    6:   0.707107  0.000000  0.707107 /   0.037314 -0.633840  0.772564 ->  -0.8587567686
    7:   0.707107  0.707107  0.000000 /   0.783398  0.621520  0.000000 ->  -1.9532631006

 Angular average effective mass for Frohlich model, averaged over degenerate bands.
 Value of     (<<m**0.5>>)**2 =     6.776298E-01
 Absolute Value of <<m**0.5>> =     8.231827E-01

 K-point ( 0.000, 0.000, 0.000) | band =    44
 Effective mass tensor:
              0.1432572254              0.0080885907             -0.0153843817
              0.0080885907              0.1463652902             -0.0186215020
             -0.0153843817             -0.0186215020              0.1719925879
 Effective mass tensor eigenvalues:
              0.1365747337              0.1365747433              0.1884656265
 Angular average effective mass 1/(<1/m>)=   0.1503759104
 Angular average effective mass for Frohlich model (<m**0.5>)**2=   0.1513565263
 Effective masses along directions: (cart. coord. / red. coord. -> eff. mass)
    1:   1.000000  0.000000  0.000000 /   0.982662 -0.185405  0.000000 ->   0.1415953304
    2:   0.000000  1.000000  0.000000 /   0.000000  1.000000  0.000000 ->   0.1440583895
    3:   0.000000  0.000000  1.000000 /  -0.491086 -0.491086  0.719493 ->   0.1681804481
    4:   0.577350  0.577350  0.577350 /   0.047991 -0.102064  0.993620 ->   0.1365883411
    5:   0.000000  0.707107  0.707107 /  -0.563509  0.029039  0.825600 ->   0.1395231740
    6:   0.707107  0.000000  0.707107 /   0.037314 -0.633840  0.772564 ->   0.1408078028
    7:   0.707107  0.707107  0.000000 /   0.783398  0.621520  0.000000 ->   0.1495269350

 END OF EFFECTIVE MASSES SECTION

 ---- first-order wavefunction calculations are completed ----

 Total localisation tensor (bohr^2) in cartesian coordinates
  WARNING : still subject to testing - especially symmetries.
      direction              matrix element
   alpha     beta       real part   imaginary part
     1        1       4.3254375565    0.0000000000
     1        2      -0.7738979031    0.0000000000
     1        3      -3.1647506560    0.0000000000
     2        1      -0.7738979031    0.0000000000
     2        2       4.0280656066    0.0000000000
     2        3      -3.8306638014    0.0000000000
     3        1      -3.1647506560    0.0000000000
     3        2      -3.8306638014    0.0000000000
     3        3      20.3988485152    0.0000000000

 respfn : d/dk was computed, but no 2DTE, so no DDB output.

== END DATASET(S) ==============================================================

 -outvars: echo values of variables after computation  --------
            acell      1.0000000000E+00  1.0000000000E+00  1.0000000000E+00 Bohr
              amu      6.35460000E+01  2.00590000E+02  1.26904470E+02
             ecut      4.60000000E+01 Hartree
           etotal     -7.0888523706E+01
            fcart      0.0000000000E+00  0.0000000000E+00  0.0000000000E+00
                       0.0000000000E+00  0.0000000000E+00  0.0000000000E+00
                       0.0000000000E+00  0.0000000000E+00  0.0000000000E+00
                       0.0000000000E+00  0.0000000000E+00  0.0000000000E+00
                       0.0000000000E+00  0.0000000000E+00  0.0000000000E+00
                       0.0000000000E+00  0.0000000000E+00  0.0000000000E+00
                       0.0000000000E+00  0.0000000000E+00  0.0000000000E+00
-          fftalg         512
           irdden           1
           irdwfk           1
           istwfk        1
              ixc     -116133
           kptopt           0
P           mkmem           1
P          mkqmem           1
P          mk1mem           1
            natom           7
            nband          52
           nbdbuf           4
            ngfft          90      90      90
             nkpt           1
            nstep        2000
             nsym           8
           ntypat           3
              occ      2.000000  2.000000  2.000000  2.000000  2.000000  2.000000
                       2.000000  2.000000  2.000000  2.000000  2.000000  2.000000
                       2.000000  2.000000  2.000000  2.000000  2.000000  2.000000
                       2.000000  2.000000  2.000000  2.000000  2.000000  2.000000
                       2.000000  2.000000  2.000000  2.000000  2.000000  2.000000
                       2.000000  2.000000  2.000000  2.000000  2.000000  2.000000
                       2.000000  2.000000  2.000000  2.000000  2.000000  2.000000
                       2.000000  0.000000  0.000000  0.000000  0.000000  0.000000
                       0.000000  0.000000  0.000000  0.000000
        optdriver           1
            prtwf          -1
            rfdir           1       1       1
           rfelfd           2
            rprim      1.0379340451E+01  0.0000000000E+00 -9.6934012493E+00
                      -1.9583297543E+00  1.0192921699E+01 -9.6934012493E+00
                       0.0000000000E+00  0.0000000000E+00  1.4201856779E+01
          spgroup         121
           strten      0.0000000000E+00  0.0000000000E+00  0.0000000000E+00
                       0.0000000000E+00  0.0000000000E+00  0.0000000000E+00
           symrel      1  0  0   0  1  0   0  0  1       0  0  1  -1 -1 -1   1  0  0
                       0  1  0   1  0  0  -1 -1 -1      -1 -1 -1   0  0  1   0  1  0
                       0  1  0   1  0  0   0  0  1       0  0  1  -1 -1 -1   0  1  0
                       1  0  0   0  1  0  -1 -1 -1      -1 -1 -1   0  0  1   1  0  0
           tolwfr      1.00000000E-20
            typat      1  1  2  3  3  3  3
           useylm           1
           xangst      3.8603069368E+00  1.3484654631E+00 -1.3718775513E+00
                       5.9589999703E-01  4.0453963892E+00 -1.3718775513E+00
                       2.2281034669E+00  2.6969309261E+00 -5.1295270148E+00
                       4.5921969268E+00  1.9434070769E+00 -6.4855841651E+00
                       2.8506366897E+00  3.4504547753E+00 -2.4761741794E+00
                       1.0420662408E+00  4.8763922762E+00 -6.4855841651E+00
                       4.2751401056E-01  5.1746957605E-01  2.4445333773E+00
            xcart      7.2949228995E+00  2.5482304248E+00 -2.5924728598E+00
                       1.1260877970E+00  7.6446912745E+00 -2.5924728598E+00
                       4.2105053482E+00  5.0964608497E+00 -9.6934012493E+00
                       8.6779945399E+00  3.6725071400E+00 -1.2255977884E+01
                       5.3869226478E+00  6.5204145593E+00 -4.6792910564E+00
                       1.9692198073E+00  9.2150459185E+00 -1.2255977884E+01
                       8.0788439794E-01  9.7787578084E-01  4.6194986058E+00
             xred      7.5000000000E-01  2.5000000000E-01  5.0000000000E-01
                       2.5000000000E-01  7.5000000000E-01  5.0000000000E-01
                       5.0000000000E-01  5.0000000000E-01  0.0000000000E+00
                       9.0406325000E-01  3.6029975000E-01  0.0000000000E+00
                       6.3970025000E-01  6.3970025000E-01  5.4376350000E-01
                       3.6029975000E-01  9.0406325000E-01  0.0000000000E+00
                       9.5936750000E-02  9.5936750000E-02  4.5623650000E-01
            znucl       29.00000   80.00000   53.00000

- Timing analysis has been suppressed with timopt=0

 Suggested references for the acknowledgment of ABINIT usage.

 Calculation completed.
.Delivered   6 WARNINGs and   5 COMMENTs to log file.