.Version 9.5.1 of ABINIT

 ABINIT is a project of the Universite Catholique de Louvain,
 Corning Inc. and other collaborators, see ~abinit/doc/developers/contributors.txt .
 acknowledgments of the ABINIT effort.

.Starting date : Wed 19 May 2021.
- ( at 01h20 )

- input  file    -> /scratch/users/j/a/jabreu/flow_simple_8atoms/flow/w405/t1/run.abi
- output file    -> /scratch/users/j/a/jabreu/flow_simple_8atoms/flow/w405/t1/run.abo
- root for input  files -> /scratch/users/j/a/jabreu/flow_simple_8atoms/flow/w405/t1/indata/in
- root for output files -> /scratch/users/j/a/jabreu/flow_simple_8atoms/flow/w405/t1/outdata/out

 Symmetries : space group P4/n m m (#129); Bravais tP (primitive tetrag.)
     intxc =       0      iscf =       7    lmnmax =      32     lnmax =       8
     mgfft =     100  mpssoang =       4    mqgrid =    4843     natom =       8
  nloc_mem =       1    nspden =       1   nspinor =       1    nsppol =       1
      nsym =      16    n1xccc =    2501    ntypat =       3    occopt =       1
   xclevel =       2
-    mband =          35        mffmem =           1         mkmem =           2
-   mkqmem =           2        mk1mem =           2           mpw =       15928
      nfft =      291600          nkpt =           2
  Rough estimation (10% accuracy) of disk space for files :

------------- Echo of variables that govern the present computation ------------
-
- outvars: echo of selected default values
-   iomode0 =  0 , fftalg0 =512 , wfoptalg0 =  0
-
- outvars: echo of global parameters not present in the input file
-  max_nthreads =    0
-
 -outvars: echo values of preprocessed input variables --------
            acell      1.0000000000E+00  1.0000000000E+00  1.0000000000E+00 Bohr
              amu      1.32905430E+02  6.94100000E+00  3.54527000E+01
             ecut      3.70000000E+01 Hartree
-          fftalg         512
           irdden           1
           irdwfk           1
           istwfk        1    1
              ixc     -116133
              kpt      5.00000000E-01  5.00000000E-01  5.00000000E-01
                       0.00000000E+00  0.00000000E+00  0.00000000E+00
           kptopt           0
P           mkmem           2
P          mkqmem           2
P          mk1mem           2
            natom           8
            nband          35
           nbdbuf           4
            ngfft          54      54     100
             nkpt           2
            nstep        2000
             nsym          16
           ntypat           3
              occ      2.000000  2.000000  2.000000  2.000000  2.000000  2.000000
                       2.000000  2.000000  2.000000  2.000000  2.000000  2.000000
                       2.000000  2.000000  2.000000  2.000000  2.000000  2.000000
                       2.000000  2.000000  2.000000  2.000000  2.000000  2.000000
                       2.000000  2.000000  0.000000  0.000000  0.000000  0.000000
                       0.000000  0.000000  0.000000  0.000000  0.000000
        optdriver           1
            prtwf          -1
            rfdir           1       1       1
           rfelfd           2
            rprim      9.1444485709E+00  0.0000000000E+00  0.0000000000E+00
                       0.0000000000E+00  9.1444485709E+00  0.0000000000E+00
                       0.0000000000E+00  0.0000000000E+00  1.7684964067E+01
          spgroup         129
           symrel      1  0  0   0  1  0   0  0  1      -1  0  0   0 -1  0   0  0 -1
                      -1  0  0   0  1  0   0  0 -1       1  0  0   0 -1  0   0  0  1
                      -1  0  0   0 -1  0   0  0  1       1  0  0   0  1  0   0  0 -1
                       1  0  0   0 -1  0   0  0 -1      -1  0  0   0  1  0   0  0  1
                       0  1  0   1  0  0   0  0  1       0 -1  0  -1  0  0   0  0 -1
                       0 -1  0   1  0  0   0  0 -1       0  1  0  -1  0  0   0  0  1
                       0 -1  0  -1  0  0   0  0  1       0  1  0   1  0  0   0  0 -1
                       0  1  0  -1  0  0   0  0 -1       0 -1  0   1  0  0   0  0  1
            tnons      0.0000000  0.0000000  0.0000000     0.5000000  0.5000000 -0.0000000
                       0.5000000  0.5000000 -0.0000000     0.0000000  0.0000000  0.0000000
                       0.0000000  0.0000000  0.0000000     0.5000000  0.5000000 -0.0000000
                       0.5000000  0.5000000 -0.0000000     0.0000000  0.0000000  0.0000000
                       0.5000000  0.5000000  0.0000000     0.0000000  0.0000000 -0.0000000
                       0.0000000  0.0000000 -0.0000000     0.5000000  0.5000000  0.0000000
                       0.5000000  0.5000000  0.0000000     0.0000000  0.0000000 -0.0000000
                       0.0000000  0.0000000 -0.0000000     0.5000000  0.5000000  0.0000000
           tolwfr      1.00000000E-20
            typat      1  1  2  2  3  3  3  3
           useylm           1
              wtk        0.50000    0.50000
           xangst      0.0000000000E+00  2.4195168844E+00  2.8289561778E+00
                       2.4195168844E+00  0.0000000000E+00  6.5295237413E+00
                       2.4195168844E+00  0.0000000000E+00  7.6013317295E-01
                       0.0000000000E+00  2.4195168844E+00  8.5983467461E+00
                       0.0000000000E+00  2.4195168844E+00  6.2679635861E+00
                       2.4195168844E+00  0.0000000000E+00  3.0905163330E+00
                       0.0000000000E+00  0.0000000000E+00  0.0000000000E+00
                       2.4195168844E+00  2.4195168844E+00  0.0000000000E+00
            xcart      0.0000000000E+00  4.5722242854E+00  5.3459524179E+00
                       4.5722242854E+00  0.0000000000E+00  1.2339011649E+01
                       4.5722242854E+00  0.0000000000E+00  1.4364435214E+00
                       0.0000000000E+00  4.5722242854E+00  1.6248520546E+01
                       0.0000000000E+00  4.5722242854E+00  1.1844734589E+01
                       4.5722242854E+00  0.0000000000E+00  5.8402294787E+00
                       0.0000000000E+00  0.0000000000E+00  0.0000000000E+00
                       4.5722242854E+00  4.5722242854E+00  0.0000000000E+00
             xred      0.0000000000E+00  5.0000000000E-01  3.0228800000E-01
                       5.0000000000E-01  0.0000000000E+00  6.9771200000E-01
                       5.0000000000E-01  0.0000000000E+00  8.1224000000E-02
                       0.0000000000E+00  5.0000000000E-01  9.1877600000E-01
                       0.0000000000E+00  5.0000000000E-01  6.6976300000E-01
                       5.0000000000E-01  0.0000000000E+00  3.3023700000E-01
                       0.0000000000E+00  0.0000000000E+00  0.0000000000E+00
                       5.0000000000E-01  5.0000000000E-01  0.0000000000E+00
            znucl       55.00000    3.00000   17.00000

 chkinp: Checking input parameters for consistency.

== DATASET  1 ==================================================================
-   mpi_nproc: 1, omp_nthreads: -1 (-1 if OMP is not activated)

--- !DatasetInfo
iteration_state: {dtset: 1, }
dimensions: {natom: 8, nkpt: 2, mband: 35, nsppol: 1, nspinor: 1, nspden: 1, mpw: 15928, }
cutoff_energies: {ecut:  37.0, pawecutdg:  -1.0, }
electrons: {nelect:   5.20000000E+01, charge:   0.00000000E+00, occopt:   1.00000000E+00, tsmear:   1.00000000E-02, }
meta: {optdriver: 1, rfelfd: 2, }
...

 Real(R)+Recip(G) space primitive vectors, cartesian coordinates (Bohr,Bohr^-1):
 R(1)=  9.1444486  0.0000000  0.0000000  G(1)=  0.1093560  0.0000000  0.0000000
 R(2)=  0.0000000  9.1444486  0.0000000  G(2)=  0.0000000  0.1093560  0.0000000
 R(3)=  0.0000000  0.0000000 17.6849641  G(3)=  0.0000000  0.0000000  0.0565452
 Unit cell volume ucvol=  1.4788333E+03 bohr^3
 Angles (23,13,12)=  9.00000000E+01  9.00000000E+01  9.00000000E+01 degrees

 getcut: wavevector=  0.0000  0.0000  0.0000  ngfft=  54  54 100
         ecut(hartree)=     37.000   => boxcut(ratio)=   2.06505

--- Pseudopotential description ------------------------------------------------
- pspini: atom type   1  psp file is /scratch/users/j/a/jabreu/pseudos/PBEsol/Cs.psp8
- pspatm: opening atomic psp file    /scratch/users/j/a/jabreu/pseudos/PBEsol/Cs.psp8
- Cs    ONCVPSP-3.3.0  r_core=   2.27353   1.85623   2.01788   1.90105
- 55.00000   9.00000    180112                znucl, zion, pspdat
    8 -116133    3    4       600   0.00000   pspcod,pspxc,lmax,lloc,mmax,r2well
    5.99000000000000    5.00000000000000    0.00000000000000   rchrg,fchrg,qchrg
     nproj     2     2     2     2
     extension_switch     1
  pspatm : epsatm=   22.12462445
         --- l  ekb(1:nproj) -->
             0    6.214110    0.767882
             1    6.311966    0.793598
             2    3.769790    0.913105
             3   -9.247129   -2.432478
 pspatm: atomic psp has been read  and splines computed

- pspini: atom type   2  psp file is /scratch/users/j/a/jabreu/pseudos/PBEsol/Li.psp8
- pspatm: opening atomic psp file    /scratch/users/j/a/jabreu/pseudos/PBEsol/Li.psp8
- Li    ONCVPSP-3.3.0  r_core=   1.40824   1.10935
-  3.00000   3.00000    180112                znucl, zion, pspdat
    8 -116133    1    4       400   0.00000   pspcod,pspxc,lmax,lloc,mmax,r2well
    3.99000000000000    0.00000000000000    0.00000000000000   rchrg,fchrg,qchrg
     nproj     2     2
     extension_switch     1
  pspatm : epsatm=    2.60859637
         --- l  ekb(1:nproj) -->
             0   -4.855856   -1.482423
             1   -2.171544   -0.427615
 pspatm: atomic psp has been read  and splines computed

- pspini: atom type   3  psp file is /scratch/users/j/a/jabreu/pseudos/PBEsol/Cl.psp8
- pspatm: opening atomic psp file    /scratch/users/j/a/jabreu/pseudos/PBEsol/Cl.psp8
- Cl    ONCVPSP-3.3.0  r_core=   1.56009   1.35202   1.75774
- 17.00000   7.00000    180112                znucl, zion, pspdat
    8 -116133    2    4       600   0.00000   pspcod,pspxc,lmax,lloc,mmax,r2well
    5.99000000000000    8.00000000000000    0.00000000000000   rchrg,fchrg,qchrg
     nproj     2     2     2
     extension_switch     1
  pspatm : epsatm=    8.95520722
         --- l  ekb(1:nproj) -->
             0    8.193503    0.707970
             1    3.869736    1.114731
             2   -2.915303   -0.810552
 pspatm: atomic psp has been read  and splines computed

   4.43493807E+03                                ecore*ucvol(ha*bohr**3)

-inwffil : will read wavefunctions from disk file /scratch/users/j/a/jabreu/flow_simple_8atoms/flow/w405/t1/indata/in_WFK

 ==>  initialize data related to q vector <==

 The list of irreducible perturbations for this q vector is:
    1)    idir= 1    ipert=   9
    2)    idir= 2    ipert=   9
    3)    idir= 3    ipert=   9

 Perturbation wavevector (in red.coord.)   0.000000  0.000000  0.000000
 Perturbation : derivative vs k along direction   1

 dfpt_looppert : COMMENT -
  In a d/dk calculation, iscf is set to -3 automatically.
 The set of symmetries contains only one element for this perturbation.
 symkpt : not enough symmetry to change the number of k points.

[...]

 Initialisation of the first-order wave-functions :
  ireadwf=   0

--- !BeginCycle
iteration_state: {dtset: 1, }
[...]
  -0.00000   -0.00000    0.00000
 prteigrs : prtvol=0 or 1, do not print more k-points.

 Eight components of 2nd-order total energy (hartree) are
 1,2,3: 0th-order hamiltonian combined with 1st-order wavefunctions
     kin0=   3.04255525E+01 eigvalue=   2.28812761E+00  local=  -1.73968983E+01
 4,5,6: 1st-order hamiltonian combined with 1st and 0th-order wfs
     kin1=  -5.58222551E+01  Hartree=   0.00000000E+00     xc=   0.00000000E+00
 7,8,9: eventually, occupation + non-local contributions
    edocc=   9.87744269E+00     enl0=   2.96710572E+00   enl1=  -5.00405368E-01
 1-9 gives the relaxation energy (to be shifted if some occ is /=2.0)
   erelax=  -2.81613303E+01
  No Ewald or frozen-wf contrib.: the relaxation energy is the total one
 2DEtotal=   -0.2816133025E+02 Ha. Also 2DEtotal=   -0.766308767446E+03 eV
    (  non-var. 2DEtotal :   -2.8161330250E+01 Ha)

 Perturbation wavevector (in red.coord.)   0.000000  0.000000  0.000000
 Perturbation : derivative vs k along direction   2
 The set of symmetries contains only one element for this perturbation.
 symkpt : not enough symmetry to change the number of k points.

[...]

 Perturbation wavevector (in red.coord.)   0.000000  0.000000  0.000000
 Perturbation : derivative vs k along direction   3
 The set of symmetries contains only one element for this perturbation.
 symkpt : not enough symmetry to change the number of k points.

-inwffil : will read wavefunctions from disk file /scratch/users/j/a/jabreu/flow_simple_8atoms/flow/w405/t1/indata/in_WFK

 Initialisation of the first-order wave-functions :
  ireadwf=   0

--- !BeginCycle
iteration_state: {dtset: 1, }
solver: {iscf: 7, nstep: 2000, nline: 4, wfoptalg: 0, }
tolerances: {tolwfr: 1.00E-20, }
...

     iter   2DEtotal(Ha)        deltaE(Ha) residm    vres2
-ETOT  1  -6.7261673524304     -6.726E+00 7.786E-03 0.000E+00
 ETOT  2  -6.7321077463111     -5.940E-03 7.362E-04 0.000E+00
 ETOT  3  -6.7322681251899     -1.604E-04 3.808E-05 0.000E+00
 ETOT  4  -6.7322766120436     -8.487E-06 5.633E-06 0.000E+00
 ETOT  5  -6.7322771127058     -5.007E-07 3.725E-07 0.000E+00
 ETOT  6  -6.7322771447135     -3.201E-08 5.628E-08 0.000E+00
 ETOT  7  -6.7322771468509     -2.137E-09 3.858E-09 0.000E+00
 ETOT  8  -6.7322771469991     -1.482E-10 5.952E-10 0.000E+00
 ETOT  9  -6.7322771470097     -1.055E-11 4.219E-11 0.000E+00
 ETOT 10  -6.7322771470104     -7.745E-13 6.534E-12 0.000E+00
 ETOT 11  -6.7322771470105     -5.773E-14 7.901E-13 0.000E+00
 ETOT 12  -6.7322771470105      0.000E+00 1.147E-13 0.000E+00
 ETOT 13  -6.7322771470105      0.000E+00 1.824E-14 0.000E+00
 ETOT 14  -6.7322771470105      5.329E-15 2.772E-15 0.000E+00
 ETOT 15  -6.7322771470105     -5.329E-15 4.271E-16 0.000E+00
 ETOT 16  -6.7322771470105      1.776E-15 6.736E-17 0.000E+00
 ETOT 17  -6.7322771470105      8.882E-16 1.053E-17 0.000E+00
 ETOT 18  -6.7322771470105     -2.665E-15 1.644E-18 0.000E+00
 ETOT 19  -6.7322771470105      1.776E-15 2.602E-19 0.000E+00
 ETOT 20  -6.7322771470105      2.665E-15 4.023E-20 0.000E+00
 ETOT 21  -6.7322771470105     -1.776E-15 9.995E-21 0.000E+00

 At SCF step   21   max residual=  9.99E-21 < tolwfr=  1.00E-20 =>converged.

 ----iterations are completed or convergence reached----

 dfpt_looppert: DFPT cycle converged with prtwf=-1. Will skip output of the 1st-order WFK file.
 dfpt_looppert : ek2=    1.3127581178E+01
          f-sum rule ratio=    1.0114970857E+00
 prteigrs : about to open file /scratch/users/j/a/jabreu/flow_simple_8atoms/flow/w405/t1/tmpdata/tmp_1WF1_EIG
 Expectation of eigenvalue derivatives (hartree) for nkpt=   2  k points:
  (in case of degenerate eigenvalues, averaged derivative)
 kpt#   1, nband= 35, wtk=  0.50000, kpt=  0.5000  0.5000  0.5000 (reduced coord)
  -0.00000   -0.00000    0.00000    0.00000    0.00000    0.00000   -0.00000   -0.00000
   0.00000    0.00000    0.00000    0.00000    0.00000    0.00000    0.00000    0.00000
  -0.00000   -0.00000   -0.00000   -0.00000   -0.00000   -0.00000   -0.00000   -0.00000
   0.00000    0.00000   -0.00000   -0.00000   -0.00000   -0.00000    0.00000    0.00000
  -0.00000   -0.00000   -0.00000
 prteigrs : prtvol=0 or 1, do not print more k-points.

 Eight components of 2nd-order total energy (hartree) are
 1,2,3: 0th-order hamiltonian combined with 1st-order wavefunctions
     kin0=   7.68956395E+00 eigvalue=   6.26802642E-01  local=  -4.37696252E+00
 4,5,6: 1st-order hamiltonian combined with 1st and 0th-order wfs
     kin1=  -1.32785101E+01  Hartree=   0.00000000E+00     xc=   0.00000000E+00
 7,8,9: eventually, occupation + non-local contributions
    edocc=   2.05241129E+00     enl0=   7.40461787E-01   enl1=  -1.86044191E-01
 1-9 gives the relaxation energy (to be shifted if some occ is /=2.0)
   erelax=  -6.73227715E+00
  No Ewald or frozen-wf contrib.: the relaxation energy is the total one
 2DEtotal=   -0.6732277147E+01 Ha. Also 2DEtotal=   -0.183194577699E+03 eV
    (  non-var. 2DEtotal :   -6.7322771470E+00 Ha)

 CALCULATION OF EFFECTIVE MASSES
 NOTE : Additional infos (eff. mass eigenvalues, eigenvectors and, if degenerate, average mass) are available in stdout.

 COMMENTS:
 - At k-point ( 0.500, 0.500, 0.500), bands    25 through    26
   are DEGENERATE (effective mass tensor is therefore not defined).
   See Section IIIB Eqs. (67)-(70) and Appendix E of PRB 93 205147 (2016).
 - Angular average effective mass for Frohlich model is to be averaged over degenerate bands. See later.
 - Associated theta integrals calculated with ntheta=   1000 points.

 K-point ( 0.500, 0.500, 0.500) | band =    25
 Transport equivalent effective mass tensor:
             -0.6085109334              0.0000000093             -0.0000000124
              0.0000000093             -0.6085100195             -0.0000000954
             -0.0000000124             -0.0000000954         -54688.3482030978
 Transport equivalent effective mass tensor eigenvalues:
         -54688.3482030978             -0.6085109335             -0.6085100194
 Angular average effective mass 1/(<1/m>)=  -0.7367851516
 Angular average effective mass for Frohlich model (<m**0.5>)**2=  -1.2343794492
 Effective masses along directions: (cart. coord. / red. coord. -> eff. mass)
    1:   1.000000  0.000000  0.000000 /   1.000000  0.000000  0.000000 ->  -0.7483202151
    2:   0.000000  1.000000  0.000000 /   0.000000  1.000000  0.000000 ->  -0.7483202151
    3:   0.000000  0.000000  1.000000 /   0.000000  0.000000  1.000000 -> **************
    4:   0.577350  0.577350  0.577350 /   0.417385  0.417385  0.807205 ->  -0.6159752639
    5:   0.000000  0.707107  0.707107 /   0.000000  0.459306  0.888278 ->  -1.4966109058
    6:   0.707107  0.000000  0.707107 /   0.459306  0.000000  0.888278 ->  -1.4966109059
    7:   0.707107  0.707107  0.000000 /   0.707107  0.707107  0.000000 ->  -0.4106523987

 K-point ( 0.500, 0.500, 0.500) | band =    26
 Transport equivalent effective mass tensor:
             -4.9120090008              0.0000000568             -0.0000001007
              0.0000000568             -4.9120128370             -0.0000007940
             -0.0000001007             -0.0000007940        -203051.9968416964
 Transport equivalent effective mass tensor eigenvalues:
        -203051.9968416964             -4.9120128378             -4.9120090000
 Angular average effective mass 1/(<1/m>)=  -2.3555004259
 Angular average effective mass for Frohlich model (<m**0.5>)**2=  -4.8172616402
 Effective masses along directions: (cart. coord. / red. coord. -> eff. mass)
    1:   1.000000  0.000000  0.000000 /   1.000000  0.000000  0.000000 ->  -0.7483202155
    2:   0.000000  1.000000  0.000000 /   0.000000  1.000000  0.000000 ->  -0.7483202155
    3:   0.000000  0.000000  1.000000 /   0.000000  0.000000  1.000000 -> **************
    4:   0.577350  0.577350  0.577350 /   0.417385  0.417385  0.807205 ->  -6.3153565268
    5:   0.000000  0.707107  0.707107 /   0.000000  0.459306  0.888278 ->  -1.4966109067
    6:   0.707107  0.000000  0.707107 /   0.459306  0.000000  0.888278 ->  -1.4966109067
    7:   0.707107  0.707107  0.000000 /   0.707107  0.707107  0.000000 ->  -4.2104713478

 Angular average effective mass for Frohlich model, averaged over degenerate bands.
 Value of     (<<m**0.5>>)**2 =     2.732165E+00
 Absolute Value of <<m**0.5>> =     1.652926E+00

 K-point ( 0.000, 0.000, 0.000) | band =    27
 Effective mass tensor:
              0.3955372010              0.0000003546              0.0000001715
              0.0000003546              0.3955378609             -0.0000001790
              0.0000001715             -0.0000001790              0.4167900074
 Effective mass tensor eigenvalues:
              0.3955370466              0.3955380153              0.4167900074
 Angular average effective mass 1/(<1/m>)=   0.4023767076
 Angular average effective mass for Frohlich model (<m**0.5>)**2=   0.4024495127
 Effective masses along directions: (cart. coord. / red. coord. -> eff. mass)
    1:   1.000000  0.000000  0.000000 /   1.000000  0.000000  0.000000 ->   0.3955372010
    2:   0.000000  1.000000  0.000000 /   0.000000  1.000000  0.000000 ->   0.3955378609
    3:   0.000000  0.000000  1.000000 /   0.000000  0.000000  1.000000 ->   0.4167900074
    4:   0.577350  0.577350  0.577350 /   0.417385  0.417385  0.807205 ->   0.4023769474
    5:   0.000000  0.707107  0.707107 /   0.000000  0.459306  0.888278 ->   0.4058857556
    6:   0.707107  0.000000  0.707107 /   0.459306  0.000000  0.888278 ->   0.4058857585
    7:   0.707107  0.707107  0.000000 /   0.707107  0.707107  0.000000 ->   0.3955378855

 END OF EFFECTIVE MASSES SECTION

 ---- first-order wavefunction calculations are completed ----

 Total localisation tensor (bohr^2) in cartesian coordinates
  WARNING : still subject to testing - especially symmetries.
      direction              matrix element
   alpha     beta       real part   imaginary part
     1        1       1.2316760502    0.0000000000
     1        2       0.0000000000    0.0000000000
     1        3       0.0000000000    0.0000000000
     2        1       0.0000000000    0.0000000000
     2        2       1.2316873801    0.0000000000
     2        3       0.0000000000    0.0000000000
     3        1       0.0000000000    0.0000000000
     3        2       0.0000000000    0.0000000000
     3        3       0.9783738130    0.0000000000

 respfn : d/dk was computed, but no 2DTE, so no DDB output.

== END DATASET(S) ==============================================================

 -outvars: echo values of variables after computation  --------
            acell      1.0000000000E+00  1.0000000000E+00  1.0000000000E+00 Bohr
              amu      1.32905430E+02  6.94100000E+00  3.54527000E+01
             ecut      3.70000000E+01 Hartree
           etotal     -6.7322771470E+00
            fcart      0.0000000000E+00  0.0000000000E+00  0.0000000000E+00
                       0.0000000000E+00  0.0000000000E+00  0.0000000000E+00
                       0.0000000000E+00  0.0000000000E+00  0.0000000000E+00
                       0.0000000000E+00  0.0000000000E+00  0.0000000000E+00
                       0.0000000000E+00  0.0000000000E+00  0.0000000000E+00
                       0.0000000000E+00  0.0000000000E+00  0.0000000000E+00
                       0.0000000000E+00  0.0000000000E+00  0.0000000000E+00
                       0.0000000000E+00  0.0000000000E+00  0.0000000000E+00
-          fftalg         512
           irdden           1
           irdwfk           1
           istwfk        1    1
              ixc     -116133
              kpt      5.00000000E-01  5.00000000E-01  5.00000000E-01
                       0.00000000E+00  0.00000000E+00  0.00000000E+00
           kptopt           0
P           mkmem           2
P          mkqmem           2
P          mk1mem           2
            natom           8
            nband          35
           nbdbuf           4
            ngfft          54      54     100
             nkpt           2
            nstep        2000
             nsym          16
           ntypat           3
              occ      2.000000  2.000000  2.000000  2.000000  2.000000  2.000000
                       2.000000  2.000000  2.000000  2.000000  2.000000  2.000000
                       2.000000  2.000000  2.000000  2.000000  2.000000  2.000000
                       2.000000  2.000000  2.000000  2.000000  2.000000  2.000000
                       2.000000  2.000000  0.000000  0.000000  0.000000  0.000000
                       0.000000  0.000000  0.000000  0.000000  0.000000
        optdriver           1
            prtwf          -1
            rfdir           1       1       1
           rfelfd           2
            rprim      9.1444485709E+00  0.0000000000E+00  0.0000000000E+00
                       0.0000000000E+00  9.1444485709E+00  0.0000000000E+00
                       0.0000000000E+00  0.0000000000E+00  1.7684964067E+01
          spgroup         129
           strten      0.0000000000E+00  0.0000000000E+00  0.0000000000E+00
                       0.0000000000E+00  0.0000000000E+00  0.0000000000E+00
           symrel      1  0  0   0  1  0   0  0  1      -1  0  0   0 -1  0   0  0 -1
                      -1  0  0   0  1  0   0  0 -1       1  0  0   0 -1  0   0  0  1
                      -1  0  0   0 -1  0   0  0  1       1  0  0   0  1  0   0  0 -1
                       1  0  0   0 -1  0   0  0 -1      -1  0  0   0  1  0   0  0  1
                       0  1  0   1  0  0   0  0  1       0 -1  0  -1  0  0   0  0 -1
                       0 -1  0   1  0  0   0  0 -1       0  1  0  -1  0  0   0  0  1
                       0 -1  0  -1  0  0   0  0  1       0  1  0   1  0  0   0  0 -1
                       0  1  0  -1  0  0   0  0 -1       0 -1  0   1  0  0   0  0  1
            tnons      0.0000000  0.0000000  0.0000000     0.5000000  0.5000000 -0.0000000
                       0.5000000  0.5000000 -0.0000000     0.0000000  0.0000000  0.0000000
                       0.0000000  0.0000000  0.0000000     0.5000000  0.5000000 -0.0000000
                       0.5000000  0.5000000 -0.0000000     0.0000000  0.0000000  0.0000000
                       0.5000000  0.5000000  0.0000000     0.0000000  0.0000000 -0.0000000
                       0.0000000  0.0000000 -0.0000000     0.5000000  0.5000000  0.0000000
                       0.5000000  0.5000000  0.0000000     0.0000000  0.0000000 -0.0000000
                       0.0000000  0.0000000 -0.0000000     0.5000000  0.5000000  0.0000000
           tolwfr      1.00000000E-20
            typat      1  1  2  2  3  3  3  3
           useylm           1
              wtk        0.50000    0.50000
           xangst      0.0000000000E+00  2.4195168844E+00  2.8289561778E+00
                       2.4195168844E+00  0.0000000000E+00  6.5295237413E+00
                       2.4195168844E+00  0.0000000000E+00  7.6013317295E-01
                       0.0000000000E+00  2.4195168844E+00  8.5983467461E+00
                       0.0000000000E+00  2.4195168844E+00  6.2679635861E+00
                       2.4195168844E+00  0.0000000000E+00  3.0905163330E+00
                       0.0000000000E+00  0.0000000000E+00  0.0000000000E+00
                       2.4195168844E+00  2.4195168844E+00  0.0000000000E+00
            xcart      0.0000000000E+00  4.5722242854E+00  5.3459524179E+00
                       4.5722242854E+00  0.0000000000E+00  1.2339011649E+01
                       4.5722242854E+00  0.0000000000E+00  1.4364435214E+00
                       0.0000000000E+00  4.5722242854E+00  1.6248520546E+01
                       0.0000000000E+00  4.5722242854E+00  1.1844734589E+01
                       4.5722242854E+00  0.0000000000E+00  5.8402294787E+00
                       0.0000000000E+00  0.0000000000E+00  0.0000000000E+00
                       4.5722242854E+00  4.5722242854E+00  0.0000000000E+00
             xred      0.0000000000E+00  5.0000000000E-01  3.0228800000E-01
                       5.0000000000E-01  0.0000000000E+00  6.9771200000E-01
                       5.0000000000E-01  0.0000000000E+00  8.1224000000E-02
                       0.0000000000E+00  5.0000000000E-01  9.1877600000E-01
                       0.0000000000E+00  5.0000000000E-01  6.6976300000E-01
                       5.0000000000E-01  0.0000000000E+00  3.3023700000E-01
                       0.0000000000E+00  0.0000000000E+00  0.0000000000E+00
                       5.0000000000E-01  5.0000000000E-01  0.0000000000E+00
            znucl       55.00000    3.00000   17.00000

- Timing analysis has been suppressed with timopt=0

 Suggested references for the acknowledgment of ABINIT usage.

 Calculation completed.
.Delivered  14 WARNINGs and   9 COMMENTs to log file.