.Version 9.5.1 of ABINIT

 ABINIT is a project of the Universite Catholique de Louvain,
 Corning Inc. and other collaborators, see ~abinit/doc/developers/contributors.txt .
 acknowledgments of the ABINIT effort.

.Starting date : Mon 26 Apr 2021.
- ( at 00h50 )

- input  file    -> /scratch/users/j/a/jabreu/flow_simple/flow/w119/t1/run.abi
- output file    -> /scratch/users/j/a/jabreu/flow_simple/flow/w119/t1/run.abo
- root for input  files -> /scratch/users/j/a/jabreu/flow_simple/flow/w119/t1/indata/in
- root for output files -> /scratch/users/j/a/jabreu/flow_simple/flow/w119/t1/outdata/out

 Symmetries : space group Fm -3 m (#225); Bravais cF (face-center cubic)
     intxc =       0      iscf =       7    lmnmax =      18     lnmax =       6
     mgfft =      50  mpssoang =       3    mqgrid =    3001     natom =       3
  nloc_mem =       1    nspden =       1   nspinor =       1    nsppol =       1
      nsym =      48    n1xccc =    2501    ntypat =       2    occopt =       1
   xclevel =       2
-    mband =          20        mffmem =           1         mkmem =           2
-   mkqmem =           2        mk1mem =           2           mpw =        5577
      nfft =      125000          nkpt =           2
  Rough estimation (10% accuracy) of disk space for files :

------------- Echo of variables that govern the present computation ------------
-
- outvars: echo of selected default values
-   iomode0 =  0 , fftalg0 =512 , wfoptalg0 =  0
-
- outvars: echo of global parameters not present in the input file
-  max_nthreads =    0
-
 -outvars: echo values of preprocessed input variables --------
            acell      1.0000000000E+00  1.0000000000E+00  1.0000000000E+00 Bohr
              amu      6.94100000E+00  1.27600000E+02
             ecut      4.00000000E+01 Hartree
-          fftalg         512
           irdden           1
           irdwfk           1
           istwfk        1    1
              ixc     -116133
              kpt      0.00000000E+00  0.00000000E+00  0.00000000E+00
                       5.00000000E-01  2.84706972E-17  5.00000000E-01
           kptopt           0
P           mkmem           2
P          mkqmem           2
P          mk1mem           2
            natom           3
            nband          20
           nbdbuf           4
            ngfft          50      50      50
             nkpt           2
            nstep         100
             nsym          48
           ntypat           2
              occ      2.000000  2.000000  2.000000  2.000000  2.000000  2.000000
                       2.000000  2.000000  2.000000  2.000000  2.000000  0.000000
                       0.000000  0.000000  0.000000  0.000000  0.000000  0.000000
                       0.000000  0.000000
        optdriver           1
            prtwf          -1
            rfdir           1       1       1
           rfelfd           2
            rprim      7.4583409645E+00  0.0000000000E+00  4.3060751636E+00
                       2.4861136548E+00  7.0317912966E+00  4.3060751636E+00
                       0.0000000000E+00  0.0000000000E+00  8.6121503272E+00
          spgroup         225
           symrel      1  0  0   0  1  0   0  0  1      -1  0  0   0 -1  0   0  0 -1
                       0 -1  1   0 -1  0   1 -1  0       0  1 -1   0  1  0  -1  1  0
                      -1  0  0  -1  0  1  -1  1  0       1  0  0   1  0 -1   1 -1  0
                       0  1 -1   1  0 -1   0  0 -1       0 -1  1  -1  0  1   0  0  1
                      -1  0  0  -1  1  0  -1  0  1       1  0  0   1 -1  0   1  0 -1
                       0 -1  1   1 -1  0   0 -1  0       0  1 -1  -1  1  0   0  1  0
                       1  0  0   0  0  1   0  1  0      -1  0  0   0  0 -1   0 -1  0
                       0  1 -1   0  0 -1   1  0 -1       0 -1  1   0  0  1  -1  0  1
                      -1  0  1  -1  1  0  -1  0  0       1  0 -1   1 -1  0   1  0  0
                       0 -1  0   1 -1  0   0 -1  1       0  1  0  -1  1  0   0  1 -1
                       1  0 -1   0  0 -1   0  1 -1      -1  0  1   0  0  1   0 -1  1
                       0  1  0   0  0  1   1  0  0       0 -1  0   0  0 -1  -1  0  0
                       1  0 -1   0  1 -1   0  0 -1      -1  0  1   0 -1  1   0  0  1
                       0 -1  0   0 -1  1   1 -1  0       0  1  0   0  1 -1  -1  1  0
                      -1  0  1  -1  0  0  -1  1  0       1  0 -1   1  0  0   1 -1  0
                       0  1  0   1  0  0   0  0  1       0 -1  0  -1  0  0   0  0 -1
                       0  0 -1   0  1 -1   1  0 -1       0  0  1   0 -1  1  -1  0  1
                       1 -1  0   0 -1  1   0 -1  0      -1  1  0   0  1 -1   0  1  0
                       0  0  1   1  0  0   0  1  0       0  0 -1  -1  0  0   0 -1  0
                      -1  1  0  -1  0  0  -1  0  1       1 -1  0   1  0  0   1  0 -1
                       0  0  1   0  1  0   1  0  0       0  0 -1   0 -1  0  -1  0  0
                       1 -1  0   0 -1  0   0 -1  1      -1  1  0   0  1  0   0  1 -1
                       0  0 -1   1  0 -1   0  1 -1       0  0  1  -1  0  1   0 -1  1
                      -1  1  0  -1  0  1  -1  0  0       1 -1  0   1  0 -1   1  0  0
           tolwfr      1.00000000E-20
            typat      1  1  2
           useylm           1
              wtk        0.50000    0.50000
           xangst      3.9467840523E+00  2.7907977673E+00  6.8360305052E+00
                       1.3155946841E+00  9.3026592243E-01  2.2786768351E+00
                       0.0000000000E+00  0.0000000000E+00  0.0000000000E+00
            xcart      7.4583409645E+00  5.2738434724E+00  1.2918225491E+01
                       2.4861136548E+00  1.7579478241E+00  4.3060751636E+00
                       0.0000000000E+00  0.0000000000E+00  0.0000000000E+00
             xred      7.5000000000E-01  7.5000000000E-01  7.5000000000E-01
                       2.5000000000E-01  2.5000000000E-01  2.5000000000E-01
                       0.0000000000E+00  0.0000000000E+00  0.0000000000E+00
            znucl        3.00000   52.00000

 chkinp: Checking input parameters for consistency.

== DATASET  1 ==================================================================
-   mpi_nproc: 1, omp_nthreads: -1 (-1 if OMP is not activated)

--- !DatasetInfo
iteration_state: {dtset: 1, }
dimensions: {natom: 3, nkpt: 2, mband: 20, nsppol: 1, nspinor: 1, nspden: 1, mpw: 5577, }
cutoff_energies: {ecut:  40.0, pawecutdg:  -1.0, }
electrons: {nelect:   2.20000000E+01, charge:   0.00000000E+00, occopt:   1.00000000E+00, tsmear:   1.00000000E-02, }
meta: {optdriver: 1, rfelfd: 2, }
...

 Real(R)+Recip(G) space primitive vectors, cartesian coordinates (Bohr,Bohr^-1):
 R(1)=  7.4583410  0.0000000  4.3060752  G(1)=  0.1340781 -0.0474038  0.0000000
 R(2)=  2.4861137  7.0317913  4.3060752  G(2)=  0.0000000  0.1422113  0.0000000
 R(3)=  0.0000000  0.0000000  8.6121503  G(3)= -0.0670390 -0.0474038  0.1161150
 Unit cell volume ucvol=  4.5166850E+02 bohr^3
 Angles (23,13,12)=  6.00000000E+01  6.00000000E+01  6.00000000E+01 degrees

 getcut: wavevector=  0.0000  0.0000  0.0000  ngfft=  50  50  50
         ecut(hartree)=     40.000   => boxcut(ratio)=   2.04003

--- Pseudopotential description ------------------------------------------------
- pspini: atom type   1  psp file is /scratch/users/j/a/jabreu/pseudos/PBEsol/Li.psp8
- pspatm: opening atomic psp file    /scratch/users/j/a/jabreu/pseudos/PBEsol/Li.psp8
- Li    ONCVPSP-3.3.0  r_core=   1.40824   1.10935
-  3.00000   3.00000    180112                znucl, zion, pspdat
    8 -116133    1    4       400   0.00000   pspcod,pspxc,lmax,lloc,mmax,r2well
    3.99000000000000    0.00000000000000    0.00000000000000   rchrg,fchrg,qchrg
     nproj     2     2
     extension_switch     1
  pspatm : epsatm=    2.60859637
         --- l  ekb(1:nproj) -->
             0   -4.855856   -1.482423
             1   -2.171544   -0.427615
 pspatm: atomic psp has been read  and splines computed

- pspini: atom type   2  psp file is /scratch/users/j/a/jabreu/pseudos/PBEsol/Te.psp8
- pspatm: opening atomic psp file    /scratch/users/j/a/jabreu/pseudos/PBEsol/Te.psp8
- Te    ONCVPSP-3.3.0  r_core=   2.26547   1.91704   1.80604
- 52.00000  16.00000    180112                znucl, zion, pspdat
    8 -116133    2    4       600   0.00000   pspcod,pspxc,lmax,lloc,mmax,r2well
    5.99000000000000    5.00000000000000    0.00000000000000   rchrg,fchrg,qchrg
     nproj     2     2     2
     extension_switch     1
  pspatm : epsatm=   36.82679836
         --- l  ekb(1:nproj) -->
             0    6.345999    0.785432
             1    5.709019    1.070069
             2   -6.035173   -1.870937
 pspatm: atomic psp has been read  and splines computed

   9.24967804E+02                                ecore*ucvol(ha*bohr**3)

-inwffil : will read wavefunctions from disk file /scratch/users/j/a/jabreu/flow_simple/flow/w119/t1/indata/in_WFK

 ==>  initialize data related to q vector <==

 The list of irreducible perturbations for this q vector is:
    1)    idir= 1    ipert=   4
    2)    idir= 2    ipert=   4
    3)    idir= 3    ipert=   4

 Perturbation wavevector (in red.coord.)   0.000000  0.000000  0.000000
 Perturbation : derivative vs k along direction   1

 dfpt_looppert : COMMENT -
  In a d/dk calculation, iscf is set to -3 automatically.
 The set of symmetries contains only one element for this perturbation.
 symkpt : not enough symmetry to change the number of k points.

[...]

 Initialisation of the first-order wave-functions :
  ireadwf=   0

--- !BeginCycle
iteration_state: {dtset: 1, }
solver: {iscf: 7, nstep: 100, nline: 4, wfoptalg: 0, }
tolerances: {tolwfr: 1.00E-20, }
...

     iter   2DEtotal(Ha)        deltaE(Ha) residm    vres2
-ETOT  1  -40.053044940161     -4.005E+01 3.635E-02 0.000E+00
 ETOT  2  -40.063729194551     -1.068E-02 1.420E-04 0.000E+00
 ETOT  3  -40.063731803439     -2.609E-06 3.998E-06 0.000E+00
 ETOT  4  -40.063731803882     -4.430E-10 1.031E-07 0.000E+00
 ETOT  5  -40.063731803882     -1.279E-13 3.239E-09 0.000E+00
 ETOT  6  -40.063731803882     -4.263E-14 1.330E-10 0.000E+00
 ETOT  7  -40.063731803882      7.105E-15 4.727E-12 0.000E+00
 ETOT  8  -40.063731803882     -7.105E-15 2.134E-13 0.000E+00
 ETOT  9  -40.063731803882      0.000E+00 7.691E-15 0.000E+00
 ETOT 10  -40.063731803882      0.000E+00 3.512E-16 0.000E+00
 ETOT 11  -40.063731803882      7.105E-15 1.287E-17 0.000E+00
 ETOT 12  -40.063731803882      7.105E-15 5.813E-19 0.000E+00
 ETOT 13  -40.063731803882      0.000E+00 2.172E-20 0.000E+00
 ETOT 14  -40.063731803882     -1.421E-14 7.997E-21 0.000E+00

 At SCF step   14   max residual=  8.00E-21 < tolwfr=  1.00E-20 =>converged.

 ----iterations are completed or convergence reached----

 dfpt_looppert: DFPT cycle converged with prtwf=-1. Will skip output of the 1st-order WFK file.
 dfpt_looppert : ek2=    3.5130187552E+01
          f-sum rule ratio=    1.2752297842E+00
 prteigrs : about to open file /scratch/users/j/a/jabreu/flow_simple/flow/w119/t1/tmpdata/tmp_1WF1_EIG
 Expectation of eigenvalue derivatives (hartree) for nkpt=   2  k points:
  (in case of degenerate eigenvalues, averaged derivative)
 kpt#   1, nband= 20, wtk=  0.50000, kpt=  0.0000  0.0000  0.0000 (reduced coord)
  -0.00000    0.00000   -0.00000   -0.00000   -0.00000   -0.00000   -0.00000    0.00000
   0.00000    0.00000    0.00000   -0.00000    0.00000    0.00000    0.00000    0.00000
   0.00000    0.00000   -0.00000   -0.00000
 prteigrs : prtvol=0 or 1, do not print more k-points.

 Eight components of 2nd-order total energy (hartree) are
 1,2,3: 0th-order hamiltonian combined with 1st-order wavefunctions
     kin0=   3.11596068E+01 eigvalue=   7.73479814E+00  local=  -1.57453240E+01
 4,5,6: 1st-order hamiltonian combined with 1st and 0th-order wfs
     kin1=  -4.47990615E+01  Hartree=   0.00000000E+00     xc=   0.00000000E+00
 7,8,9: eventually, occupation + non-local contributions
    edocc=   1.24195629E+01     enl0=   4.49508791E+00   enl1=  -3.53284021E+01
 1-9 gives the relaxation energy (to be shifted if some occ is /=2.0)
   erelax=  -4.00637318E+01
  No Ewald or frozen-wf contrib.: the relaxation energy is the total one
 2DEtotal=   -0.4006373180E+02 Ha. Also 2DEtotal=   -0.109018958498E+04 eV
    (  non-var. 2DEtotal :   -4.0063731804E+01 Ha)

 Perturbation wavevector (in red.coord.)   0.000000  0.000000  0.000000
 Perturbation : derivative vs k along direction   2
 The set of symmetries contains only one element for this perturbation.
 symkpt : not enough symmetry to change the number of k points.

[...]

 Perturbation wavevector (in red.coord.)   0.000000  0.000000  0.000000
 Perturbation : derivative vs k along direction   3
 The set of symmetries contains only one element for this perturbation.
 symkpt : not enough symmetry to change the number of k points.

-inwffil : will read wavefunctions from disk file /scratch/users/j/a/jabreu/flow_simple/flow/w119/t1/indata/in_WFK

 Initialisation of the first-order wave-functions :
  ireadwf=   0

--- !BeginCycle
iteration_state: {dtset: 1, }
solver: {iscf: 7, nstep: 100, nline: 4, wfoptalg: 0, }
tolerances: {tolwfr: 1.00E-20, }
...

     iter   2DEtotal(Ha)        deltaE(Ha) residm    vres2
-ETOT  1  -40.053049887480     -4.005E+01 3.730E-02 0.000E+00
 ETOT  2  -40.063729234610     -1.068E-02 1.420E-04 0.000E+00
 ETOT  3  -40.063731824850     -2.590E-06 4.000E-06 0.000E+00
 ETOT  4  -40.063731825286     -4.360E-10 1.029E-07 0.000E+00
 ETOT  5  -40.063731825286     -1.990E-13 3.240E-09 0.000E+00
 ETOT  6  -40.063731825286      2.842E-14 1.328E-10 0.000E+00
 ETOT  7  -40.063731825286     -7.105E-15 4.729E-12 0.000E+00
 ETOT  8  -40.063731825286     -7.105E-15 2.130E-13 0.000E+00
 ETOT  9  -40.063731825286      7.105E-15 7.694E-15 0.000E+00
 ETOT 10  -40.063731825286      7.105E-15 3.506E-16 0.000E+00
 ETOT 11  -40.063731825286     -7.105E-15 1.287E-17 0.000E+00
 ETOT 12  -40.063731825286      0.000E+00 5.802E-19 0.000E+00
 ETOT 13  -40.063731825286      7.105E-15 2.173E-20 0.000E+00
 ETOT 14  -40.063731825286     -1.421E-14 8.655E-21 0.000E+00

 At SCF step   14   max residual=  8.65E-21 < tolwfr=  1.00E-20 =>converged.

 ----iterations are completed or convergence reached----

 dfpt_looppert: DFPT cycle converged with prtwf=-1. Will skip output of the 1st-order WFK file.
 dfpt_looppert : ek2=    3.5130187552E+01
          f-sum rule ratio=    1.2752297785E+00
 prteigrs : about to open file /scratch/users/j/a/jabreu/flow_simple/flow/w119/t1/tmpdata/tmp_1WF1_EIG
 Expectation of eigenvalue derivatives (hartree) for nkpt=   2  k points:
  (in case of degenerate eigenvalues, averaged derivative)
 kpt#   1, nband= 20, wtk=  0.50000, kpt=  0.0000  0.0000  0.0000 (reduced coord)
   0.00000   -0.00000   -0.00000   -0.00000   -0.00000   -0.00000   -0.00000    0.00000
   0.00000    0.00000    0.00000   -0.00000   -0.00000   -0.00000   -0.00000   -0.00000
  -0.00000   -0.00000    0.00000    0.00000
 prteigrs : prtvol=0 or 1, do not print more k-points.

 Eight components of 2nd-order total energy (hartree) are
 1,2,3: 0th-order hamiltonian combined with 1st-order wavefunctions
     kin0=   3.11596073E+01 eigvalue=   7.73479812E+00  local=  -1.57453240E+01
 4,5,6: 1st-order hamiltonian combined with 1st and 0th-order wfs
     kin1=  -4.47990613E+01  Hartree=   0.00000000E+00     xc=   0.00000000E+00
 7,8,9: eventually, occupation + non-local contributions
    edocc=   1.24195625E+01     enl0=   4.49508794E+00   enl1=  -3.53284024E+01
 1-9 gives the relaxation energy (to be shifted if some occ is /=2.0)
   erelax=  -4.00637318E+01
  No Ewald or frozen-wf contrib.: the relaxation energy is the total one
 2DEtotal=   -0.4006373183E+02 Ha. Also 2DEtotal=   -0.109018958556E+04 eV
    (  non-var. 2DEtotal :   -4.0063731825E+01 Ha)

 CALCULATION OF EFFECTIVE MASSES
 NOTE : Additional infos (eff. mass eigenvalues, eigenvectors and, if degenerate, average mass) are available in stdout.

 COMMENTS:
 - At k-point ( 0.000, 0.000, 0.000), bands     9 through    11
   are DEGENERATE (effective mass tensor is therefore not defined).
   See Section IIIB Eqs. (67)-(70) and Appendix E of PRB 93 205147 (2016).
 - Angular average effective mass for Frohlich model is to be averaged over degenerate bands. See later.
 - Associated theta integrals calculated with ntheta=   1000 points.

 K-point ( 0.000, 0.000, 0.000) | band =     9
 Transport equivalent effective mass tensor:
             -0.2412605898             -0.0000000000             -0.0000000000
             -0.0000000000             -0.2412605898             -0.0000000000
             -0.0000000000             -0.0000000000             -0.2412605898
 Transport equivalent effective mass tensor eigenvalues:
             -0.2412605898             -0.2412605898             -0.2412605898
 Angular average effective mass 1/(<1/m>)=  -0.2135780528
 Angular average effective mass for Frohlich model (<m**0.5>)**2=  -0.2152795971
 Effective masses along directions: (cart. coord. / red. coord. -> eff. mass)
    1:   1.000000  0.000000  0.000000 /   0.948683  0.316228  0.000000 ->  -0.2005767462
    2:   0.000000  1.000000  0.000000 /   0.000000  1.000000  0.000000 ->  -0.1866963727
    3:   0.000000  0.000000  1.000000 /   0.408248  0.408248  0.816497 ->  -0.2049154873
    4:   0.577350  0.577350  0.577350 /   0.585539  0.688047  0.428644 ->  -0.2006975913
    5:   0.000000  0.707107  0.707107 /   0.289489  0.762222  0.578977 ->  -0.2256281252
    6:   0.707107  0.000000  0.707107 /   0.731423  0.422287  0.535439 ->  -0.2026651120
    7:   0.707107  0.707107  0.000000 /   0.616798  0.787122  0.000000 ->  -0.2698037720

[...]

 K-point ( 0.000, 0.000, 0.000) | band =    11
 Transport equivalent effective mass tensor:
            -15.4238525032              0.0000170466              0.0000000042
              0.0000170466            -15.4238473862              0.0000000028
              0.0000000042              0.0000000028            -15.4238273731
 Transport equivalent effective mass tensor eigenvalues:
            -15.4238671822            -15.4238327072            -15.4238273731
 Angular average effective mass 1/(<1/m>)=  -1.5585917064
 Angular average effective mass for Frohlich model (<m**0.5>)**2=  -1.8793942984
 Effective masses along directions: (cart. coord. / red. coord. -> eff. mass)
    1:   1.000000  0.000000  0.000000 /   0.948683  0.316228  0.000000 ->  -1.7147814289
    2:   0.000000  1.000000  0.000000 /   0.000000  1.000000  0.000000 ->  -1.4519543536
    3:   0.000000  0.000000  1.000000 /   0.408248  0.408248  0.816497 ->  -4.7059477522
    4:   0.577350  0.577350  0.577350 /   0.585539  0.688047  0.428644 ->  -2.0519814147
    5:   0.000000  0.707107  0.707107 /   0.289489  0.762222  0.578977 ->  -1.4273325562
    6:   0.707107  0.000000  0.707107 /   0.731423  0.422287  0.535439 ->  -2.7960294631
    7:   0.707107  0.707107  0.000000 /   0.616798  0.787122  0.000000 ->  -0.7007638137

 Angular average effective mass for Frohlich model, averaged over degenerate bands.
 Value of     (<<m**0.5>>)**2 =     8.024477E-01
 Absolute Value of <<m**0.5>> =     8.957944E-01

 K-point ( 0.500, 0.000, 0.500) | band =    12
 Effective mass tensor:
              0.3381005629             -0.0734230983              0.0899245631
             -0.0734230983              0.3900185336             -0.1271725368
              0.0899245631             -0.1271725368              0.4419365043
 Effective mass tensor eigenvalues:
              0.2861825921              0.2861825922              0.5976904165
 Angular average effective mass 1/(<1/m>)=   0.3463542426
 Angular average effective mass for Frohlich model (<m**0.5>)**2=   0.3572371894
 Effective masses along directions: (cart. coord. / red. coord. -> eff. mass)
    1:   1.000000  0.000000  0.000000 /   0.948683  0.316228  0.000000 ->   0.3134064279
    2:   0.000000  1.000000  0.000000 /   0.000000  1.000000  0.000000 ->   0.3463542426
    3:   0.000000  0.000000  1.000000 /   0.408248  0.408248  0.816497 ->   0.3870433671
    4:   0.577350  0.577350  0.577350 /   0.585539  0.688047  0.428644 ->   0.3013354277
    5:   0.000000  0.707107  0.707107 /   0.289489  0.762222  0.578977 ->   0.2874437628
    6:   0.707107  0.000000  0.707107 /   0.731423  0.422287  0.535439 ->   0.4234610699
    7:   0.707107  0.707107  0.000000 /   0.616798  0.787122  0.000000 ->   0.2883311727

 END OF EFFECTIVE MASSES SECTION

 ---- first-order wavefunction calculations are completed ----

 Total localisation tensor (bohr^2) in cartesian coordinates
  WARNING : still subject to testing - especially symmetries.
      direction              matrix element
   alpha     beta       real part   imaginary part
     1        1       2.7327001877    0.0000000000
     1        2       0.7729243479    0.0000000000
     1        3       1.8932702327    0.0000000000
     2        1       0.7729243479    0.0000000000
     2        2       2.1861601910    0.0000000000
     2        3       1.3387442410    0.0000000000
     3        1       1.8932702327    0.0000000000
     3        2       1.3387442410    0.0000000000
     3        3       4.9188603329    0.0000000000

 respfn : d/dk was computed, but no 2DTE, so no DDB output.

== END DATASET(S) ==============================================================

 -outvars: echo values of variables after computation  --------
            acell      1.0000000000E+00  1.0000000000E+00  1.0000000000E+00 Bohr
              amu      6.94100000E+00  1.27600000E+02
             ecut      4.00000000E+01 Hartree
           etotal     -4.0063731825E+01
            fcart      0.0000000000E+00  0.0000000000E+00  0.0000000000E+00
                       0.0000000000E+00  0.0000000000E+00  0.0000000000E+00
                       0.0000000000E+00  0.0000000000E+00  0.0000000000E+00
-          fftalg         512
           irdden           1
           irdwfk           1
           istwfk        1    1
              ixc     -116133
              kpt      0.00000000E+00  0.00000000E+00  0.00000000E+00
                       5.00000000E-01  2.84706972E-17  5.00000000E-01
           kptopt           0
P           mkmem           2
P          mkqmem           2
P          mk1mem           2
            natom           3
            nband          20
           nbdbuf           4
            ngfft          50      50      50
             nkpt           2
            nstep         100
             nsym          48
           ntypat           2
              occ      2.000000  2.000000  2.000000  2.000000  2.000000  2.000000
                       2.000000  2.000000  2.000000  2.000000  2.000000  0.000000
                       0.000000  0.000000  0.000000  0.000000  0.000000  0.000000
                       0.000000  0.000000
        optdriver           1
            prtwf          -1
            rfdir           1       1       1
           rfelfd           2
            rprim      7.4583409645E+00  0.0000000000E+00  4.3060751636E+00
                       2.4861136548E+00  7.0317912966E+00  4.3060751636E+00
                       0.0000000000E+00  0.0000000000E+00  8.6121503272E+00
          spgroup         225
           strten      0.0000000000E+00  0.0000000000E+00  0.0000000000E+00
                       0.0000000000E+00  0.0000000000E+00  0.0000000000E+00
           symrel      1  0  0   0  1  0   0  0  1      -1  0  0   0 -1  0   0  0 -1
                       0 -1  1   0 -1  0   1 -1  0       0  1 -1   0  1  0  -1  1  0
                      -1  0  0  -1  0  1  -1  1  0       1  0  0   1  0 -1   1 -1  0
                       0  1 -1   1  0 -1   0  0 -1       0 -1  1  -1  0  1   0  0  1
                      -1  0  0  -1  1  0  -1  0  1       1  0  0   1 -1  0   1  0 -1
                       0 -1  1   1 -1  0   0 -1  0       0  1 -1  -1  1  0   0  1  0
                       1  0  0   0  0  1   0  1  0      -1  0  0   0  0 -1   0 -1  0
                       0  1 -1   0  0 -1   1  0 -1       0 -1  1   0  0  1  -1  0  1
                      -1  0  1  -1  1  0  -1  0  0       1  0 -1   1 -1  0   1  0  0
                       0 -1  0   1 -1  0   0 -1  1       0  1  0  -1  1  0   0  1 -1
                       1  0 -1   0  0 -1   0  1 -1      -1  0  1   0  0  1   0 -1  1
                       0  1  0   0  0  1   1  0  0       0 -1  0   0  0 -1  -1  0  0
                       1  0 -1   0  1 -1   0  0 -1      -1  0  1   0 -1  1   0  0  1
                       0 -1  0   0 -1  1   1 -1  0       0  1  0   0  1 -1  -1  1  0
                      -1  0  1  -1  0  0  -1  1  0       1  0 -1   1  0  0   1 -1  0
                       0  1  0   1  0  0   0  0  1       0 -1  0  -1  0  0   0  0 -1
                       0  0 -1   0  1 -1   1  0 -1       0  0  1   0 -1  1  -1  0  1
                       1 -1  0   0 -1  1   0 -1  0      -1  1  0   0  1 -1   0  1  0
                       0  0  1   1  0  0   0  1  0       0  0 -1  -1  0  0   0 -1  0
                      -1  1  0  -1  0  0  -1  0  1       1 -1  0   1  0  0   1  0 -1
                       0  0  1   0  1  0   1  0  0       0  0 -1   0 -1  0  -1  0  0
                       1 -1  0   0 -1  0   0 -1  1      -1  1  0   0  1  0   0  1 -1
                       0  0 -1   1  0 -1   0  1 -1       0  0  1  -1  0  1   0 -1  1
                      -1  1  0  -1  0  1  -1  0  0       1 -1  0   1  0 -1   1  0  0
           tolwfr      1.00000000E-20
            typat      1  1  2
           useylm           1
              wtk        0.50000    0.50000
           xangst      3.9467840523E+00  2.7907977673E+00  6.8360305052E+00
                       1.3155946841E+00  9.3026592243E-01  2.2786768351E+00
                       0.0000000000E+00  0.0000000000E+00  0.0000000000E+00
            xcart      7.4583409645E+00  5.2738434724E+00  1.2918225491E+01
                       2.4861136548E+00  1.7579478241E+00  4.3060751636E+00
                       0.0000000000E+00  0.0000000000E+00  0.0000000000E+00
             xred      7.5000000000E-01  7.5000000000E-01  7.5000000000E-01
                       2.5000000000E-01  2.5000000000E-01  2.5000000000E-01
                       0.0000000000E+00  0.0000000000E+00  0.0000000000E+00
            znucl        3.00000   52.00000

- Timing analysis has been suppressed with timopt=0

 Suggested references for the acknowledgment of ABINIT usage.

 Calculation completed.
.Delivered  14 WARNINGs and   9 COMMENTs to log file.