.Version 9.5.1 of ABINIT

 ABINIT is a project of the Universite Catholique de Louvain,
 Corning Inc. and other collaborators, see ~abinit/doc/developers/contributors.txt .
 acknowledgments of the ABINIT effort.

.Starting date : Wed 19 May 2021.
- ( at 12h08 )

- input  file    -> /scratch/users/j/a/jabreu/flow_simple_9atoms/flow/w148/t1/run.abi
- output file    -> /scratch/users/j/a/jabreu/flow_simple_9atoms/flow/w148/t1/run.abo
- root for input  files -> /scratch/users/j/a/jabreu/flow_simple_9atoms/flow/w148/t1/indata/in
- root for output files -> /scratch/users/j/a/jabreu/flow_simple_9atoms/flow/w148/t1/outdata/out

 Symmetries : space group Fm -3 m (#225); Bravais cF (face-center cubic)
     intxc =       0      iscf =       7    lmnmax =      32     lnmax =       8
     mgfft =      80  mpssoang =       4    mqgrid =    3212     natom =       9
  nloc_mem =       1    nspden =       1   nspinor =       1    nsppol =       1
      nsym =      48    n1xccc =    2501    ntypat =       3    occopt =       1
   xclevel =       2
-    mband =          46        mffmem =           1         mkmem =           1
-   mkqmem =           1        mk1mem =           1           mpw =       22419
      nfft =      512000          nkpt =           1
  Rough estimation (10% accuracy) of disk space for files :

------------- Echo of variables that govern the present computation ------------
-
- outvars: echo of selected default values
-   iomode0 =  0 , fftalg0 =512 , wfoptalg0 =  0
-
- outvars: echo of global parameters not present in the input file
-  max_nthreads =    0
-
 -outvars: echo values of preprocessed input variables --------
            acell      1.0000000000E+00  1.0000000000E+00  1.0000000000E+00 Bohr
              amu      1.32905430E+02  7.26100000E+01  3.54527000E+01
             ecut      4.10000000E+01 Hartree
-          fftalg         512
           irdden           1
           irdwfk           1
           istwfk        1
              ixc     -116133
           kptopt           0
P           mkmem           1
P          mkqmem           1
P          mk1mem           1
            natom           9
            nband          46
           nbdbuf           4
            ngfft          80      80      80
             nkpt           1
            nstep        2000
             nsym          48
           ntypat           3
              occ      2.000000  2.000000  2.000000  2.000000  2.000000  2.000000
                       2.000000  2.000000  2.000000  2.000000  2.000000  2.000000
                       2.000000  2.000000  2.000000  2.000000  2.000000  2.000000
                       2.000000  2.000000  2.000000  2.000000  2.000000  2.000000
                       2.000000  2.000000  2.000000  2.000000  2.000000  2.000000
                       2.000000  2.000000  2.000000  2.000000  2.000000  2.000000
                       2.000000  0.000000  0.000000  0.000000  0.000000  0.000000
                       0.000000  0.000000  0.000000  0.000000
        optdriver           1
            prtwf          -1
            rfdir           1       1       1
           rfelfd           2
            rprim      1.1815903998E+01  0.0000000000E+00  6.8219153539E+00
                       3.9386346660E+00  1.1140141124E+01  6.8219153539E+00
                       0.0000000000E+00  0.0000000000E+00  1.3643830708E+01
          spgroup         225
           symrel      1  0  0   0  1  0   0  0  1      -1  0  0   0 -1  0   0  0 -1
                       0 -1  1   0 -1  0   1 -1  0       0  1 -1   0  1  0  -1  1  0
                      -1  0  0  -1  0  1  -1  1  0       1  0  0   1  0 -1   1 -1  0
                       0  1 -1   1  0 -1   0  0 -1       0 -1  1  -1  0  1   0  0  1
                      -1  0  0  -1  1  0  -1  0  1       1  0  0   1 -1  0   1  0 -1
                       0 -1  1   1 -1  0   0 -1  0       0  1 -1  -1  1  0   0  1  0
                       1  0  0   0  0  1   0  1  0      -1  0  0   0  0 -1   0 -1  0
                       0  1 -1   0  0 -1   1  0 -1       0 -1  1   0  0  1  -1  0  1
                      -1  0  1  -1  1  0  -1  0  0       1  0 -1   1 -1  0   1  0  0
                       0 -1  0   1 -1  0   0 -1  1       0  1  0  -1  1  0   0  1 -1
                       1  0 -1   0  0 -1   0  1 -1      -1  0  1   0  0  1   0 -1  1
                       0  1  0   0  0  1   1  0  0       0 -1  0   0  0 -1  -1  0  0
                       1  0 -1   0  1 -1   0  0 -1      -1  0  1   0 -1  1   0  0  1
                       0 -1  0   0 -1  1   1 -1  0       0  1  0   0  1 -1  -1  1  0
                      -1  0  1  -1  0  0  -1  1  0       1  0 -1   1  0  0   1 -1  0
                       0  1  0   1  0  0   0  0  1       0 -1  0  -1  0  0   0  0 -1
                       0  0 -1   0  1 -1   1  0 -1       0  0  1   0 -1  1  -1  0  1
                       1 -1  0   0 -1  1   0 -1  0      -1  1  0   0  1 -1   0  1  0
                       0  0  1   1  0  0   0  1  0       0  0 -1  -1  0  0   0 -1  0
                      -1  1  0  -1  0  0  -1  0  1       1 -1  0   1  0  0   1  0 -1
                       0  0  1   0  1  0   1  0  0       0  0 -1   0 -1  0  -1  0  0
                       1 -1  0   0 -1  0   0 -1  1      -1  1  0   0  1  0   0  1 -1
                       0  0 -1   1  0 -1   0  1 -1       0  0  1  -1  0  1   0 -1  1
                      -1  1  0  -1  0  1  -1  0  0       1 -1  0   1  0 -1   1  0  0
           tolwfr      1.00000000E-20
            typat      1  1  2  3  3  3  3  3  3
           useylm           1
           xangst      2.0842356982E+00  1.4737771958E+00  3.6100021242E+00
                       6.2527070946E+00  4.4213315874E+00  1.0830006373E+01
                       0.0000000000E+00  0.0000000000E+00  0.0000000000E+00
                       6.4487419674E+00  4.5599491753E+00  7.2200042484E+00
                       5.3086066819E+00  1.3351596079E+00  9.1947764904E+00
                       3.0283361109E+00  4.5599491753E+00  5.2452320064E+00
                       1.8882008254E+00  1.3351596079E+00  7.2200042484E+00
                       3.0283361109E+00  4.5599491753E+00  9.1947764904E+00
                       5.3086066819E+00  1.3351596079E+00  5.2452320064E+00
            xcart      3.9386346660E+00  2.7850352809E+00  6.8219153539E+00
                       1.1815903998E+01  8.3551058428E+00  2.0465746062E+01
                       0.0000000000E+00  0.0000000000E+00  0.0000000000E+00
                       1.2186356220E+01  8.6170551212E+00  1.3643830708E+01
                       1.0031812776E+01  2.5230860025E+00  1.7375609420E+01
                       5.7227258879E+00  8.6170551212E+00  9.9120519956E+00
                       3.5681824438E+00  2.5230860025E+00  1.3643830708E+01
                       5.7227258879E+00  8.6170551212E+00  1.7375609420E+01
                       1.0031812776E+01  2.5230860025E+00  9.9120519956E+00
             xred      2.5000000000E-01  2.5000000000E-01  2.5000000000E-01
                       7.5000000000E-01  7.5000000000E-01  7.5000000000E-01
                       0.0000000000E+00  0.0000000000E+00  0.0000000000E+00
                       7.7351400000E-01  7.7351400000E-01  2.2648600000E-01
                       7.7351400000E-01  2.2648600000E-01  7.7351400000E-01
                       2.2648600000E-01  7.7351400000E-01  2.2648600000E-01
                       2.2648600000E-01  2.2648600000E-01  7.7351400000E-01
                       2.2648600000E-01  7.7351400000E-01  7.7351400000E-01
                       7.7351400000E-01  2.2648600000E-01  2.2648600000E-01
            znucl       55.00000   32.00000   17.00000

 chkinp: Checking input parameters for consistency.

== DATASET  1 ==================================================================
-   mpi_nproc: 1, omp_nthreads: -1 (-1 if OMP is not activated)

--- !DatasetInfo
iteration_state: {dtset: 1, }
dimensions: {natom: 9, nkpt: 1, mband: 46, nsppol: 1, nspinor: 1, nspden: 1, mpw: 22419, }
cutoff_energies: {ecut:  41.0, pawecutdg:  -1.0, }
electrons: {nelect:   7.40000000E+01, charge:   0.00000000E+00, occopt:   1.00000000E+00, tsmear:   1.00000000E-02, }
meta: {optdriver: 1, rfelfd: 2, }
...

 Real(R)+Recip(G) space primitive vectors, cartesian coordinates (Bohr,Bohr^-1):
 R(1)= 11.8159040  0.0000000  6.8219154  G(1)=  0.0846317 -0.0299218  0.0000000
 R(2)=  3.9386347 11.1401411  6.8219154  G(2)=  0.0000000  0.0897655  0.0000000
 R(3)=  0.0000000  0.0000000 13.6438307  G(3)= -0.0423158 -0.0299218  0.0732932
 Unit cell volume ucvol=  1.7959489E+03 bohr^3
 Angles (23,13,12)=  6.00000000E+01  6.00000000E+01  6.00000000E+01 degrees

 getcut: wavevector=  0.0000  0.0000  0.0000  ngfft=  80  80  80
         ecut(hartree)=     41.000   => boxcut(ratio)=   2.03421

--- Pseudopotential description ------------------------------------------------
- pspini: atom type   1  psp file is /scratch/users/j/a/jabreu/pseudos/PBEsol/Cs.psp8
- pspatm: opening atomic psp file    /scratch/users/j/a/jabreu/pseudos/PBEsol/Cs.psp8
- Cs    ONCVPSP-3.3.0  r_core=   2.27353   1.85623   2.01788   1.90105
- 55.00000   9.00000    180112                znucl, zion, pspdat
    8 -116133    3    4       600   0.00000   pspcod,pspxc,lmax,lloc,mmax,r2well
    5.99000000000000    5.00000000000000    0.00000000000000   rchrg,fchrg,qchrg
     nproj     2     2     2     2
     extension_switch     1
  pspatm : epsatm=   22.12462445
         --- l  ekb(1:nproj) -->
             0    6.214110    0.767882
             1    6.311966    0.793598
             2    3.769790    0.913105
             3   -9.247129   -2.432478
 pspatm: atomic psp has been read  and splines computed

- pspini: atom type   2  psp file is /scratch/users/j/a/jabreu/pseudos/PBEsol/Ge.psp8
- pspatm: opening atomic psp file    /scratch/users/j/a/jabreu/pseudos/PBEsol/Ge.psp8
- Ge    ONCVPSP-3.3.0  r_core=   1.91022   1.82122   1.91022
- 32.00000  14.00000    180112                znucl, zion, pspdat
    8 -116133    2    4       600   0.00000   pspcod,pspxc,lmax,lloc,mmax,r2well
    5.99000000000000    5.00000000000000    0.00000000000000   rchrg,fchrg,qchrg
     nproj     2     2     2
     extension_switch     1
  pspatm : epsatm=   30.86751540
         --- l  ekb(1:nproj) -->
             0    6.339734    0.583066
             1    3.813259    0.738801
             2   -9.332373   -3.602819
 pspatm: atomic psp has been read  and splines computed

- pspini: atom type   3  psp file is /scratch/users/j/a/jabreu/pseudos/PBEsol/Cl.psp8
- pspatm: opening atomic psp file    /scratch/users/j/a/jabreu/pseudos/PBEsol/Cl.psp8
- Cl    ONCVPSP-3.3.0  r_core=   1.56009   1.35202   1.75774
- 17.00000   7.00000    180112                znucl, zion, pspdat
    8 -116133    2    4       600   0.00000   pspcod,pspxc,lmax,lloc,mmax,r2well
    5.99000000000000    8.00000000000000    0.00000000000000   rchrg,fchrg,qchrg
     nproj     2     2     2
     extension_switch     1
  pspatm : epsatm=    8.95520722
         --- l  ekb(1:nproj) -->
             0    8.193503    0.707970
             1    3.869736    1.114731
             2   -2.915303   -0.810552
 pspatm: atomic psp has been read  and splines computed
[...]
 symkpt : not enough symmetry to change the number of k points.

-inwffil : will read wavefunctions from disk file /scratch/users/j/a/jabreu/flow_simple_9atoms/flow/w148/t1/indata/in_WFK

 Initialisation of the first-order wave-functions :
  ireadwf=   0

--- !BeginCycle
iteration_state: {dtset: 1, }
solver: {iscf: 7, nstep: 2000, nline: 4, wfoptalg: 0, }
tolerances: {tolwfr: 1.00E-20, }
...

     iter   2DEtotal(Ha)        deltaE(Ha) residm    vres2
-ETOT  1  -33.742961353645     -3.374E+01 2.482E-02 0.000E+00
 ETOT  2  -33.785900644166     -4.294E-02 7.064E-04 0.000E+00
 ETOT  3  -33.786124855916     -2.242E-04 7.047E-05 0.000E+00
 ETOT  4  -33.786136984066     -1.213E-05 1.217E-05 0.000E+00
 ETOT  5  -33.786137954072     -9.700E-07 1.950E-06 0.000E+00
 ETOT  6  -33.786138041742     -8.767E-08 4.215E-07 0.000E+00
 ETOT  7  -33.786138050359     -8.617E-09 7.336E-08 0.000E+00
 ETOT  8  -33.786138051248     -8.893E-10 1.667E-08 0.000E+00
 ETOT  9  -33.786138051343     -9.474E-11 2.968E-09 0.000E+00
 ETOT 10  -33.786138051353     -1.039E-11 6.933E-10 0.000E+00
 ETOT 11  -33.786138051354     -1.194E-12 1.258E-10 0.000E+00
 ETOT 12  -33.786138051354     -1.208E-13 3.017E-11 0.000E+00
 ETOT 13  -33.786138051354      7.105E-15 5.597E-12 0.000E+00
 ETOT 14  -33.786138051354     -1.421E-14 1.367E-12 0.000E+00
 ETOT 15  -33.786138051354     -2.132E-14 2.593E-13 0.000E+00
 ETOT 16  -33.786138051354      2.842E-14 6.387E-14 0.000E+00
 ETOT 17  -33.786138051354     -2.132E-14 1.234E-14 0.000E+00
 ETOT 18  -33.786138051354      0.000E+00 3.042E-15 0.000E+00
 ETOT 19  -33.786138051354      0.000E+00 5.968E-16 0.000E+00
 ETOT 20  -33.786138051354      7.105E-15 1.467E-16 0.000E+00
 ETOT 21  -33.786138051354      1.421E-14 2.916E-17 0.000E+00
 ETOT 22  -33.786138051354     -1.421E-14 7.139E-18 0.000E+00
 ETOT 23  -33.786138051354      7.105E-15 1.434E-18 0.000E+00
 ETOT 24  -33.786138051354     -7.105E-15 3.496E-19 0.000E+00
 ETOT 25  -33.786138051354      7.105E-15 7.086E-20 0.000E+00
 ETOT 26  -33.786138051354     -7.105E-15 1.720E-20 0.000E+00
 ETOT 27  -33.786138051354      0.000E+00 9.797E-21 0.000E+00

 At SCF step   27   max residual=  9.80E-21 < tolwfr=  1.00E-20 =>converged.

 ----iterations are completed or convergence reached----

 dfpt_looppert: DFPT cycle converged with prtwf=-1. Will skip output of the 1st-order WFK file.
 dfpt_looppert : ek2=    4.7080391658E+01
          f-sum rule ratio=    1.1446212983E+00
 prteigrs : about to open file /scratch/users/j/a/jabreu/flow_simple_9atoms/flow/w148/t1/tmpdata/tmp_1WF1_EIG
 Expectation of eigenvalue derivatives (hartree) for nkpt=   1  k points:
  (in case of degenerate eigenvalues, averaged derivative)
 kpt#   1, nband= 46, wtk=  1.00000, kpt=  0.0000  0.0000  0.0000 (reduced coord)
   0.00000    0.00000    0.00000    0.00000    0.00000   -0.00000   -0.00000   -0.00000
   0.00000    0.00000    0.00000    0.00000    0.00000   -0.00000   -0.00000   -0.00000
  -0.00000   -0.00000   -0.00000   -0.00000    0.00000    0.00000    0.00000   -0.00000
  -0.00000   -0.00000   -0.00000   -0.00000   -0.00000   -0.00000   -0.00000    0.00000
   0.00000    0.00000    0.00000    0.00000    0.00000    0.00000    0.00000   -0.00000
  -0.00000    0.00000    0.00000    0.00000    0.00000    0.00000

 Eight components of 2nd-order total energy (hartree) are
 1,2,3: 0th-order hamiltonian combined with 1st-order wavefunctions
     kin0=   3.93346080E+01 eigvalue=   2.96264072E+00  local=  -2.05145099E+01
 4,5,6: 1st-order hamiltonian combined with 1st and 0th-order wfs
     kin1=  -5.38892190E+01  Hartree=   0.00000000E+00     xc=   0.00000000E+00
 7,8,9: eventually, occupation + non-local contributions
    edocc=   8.13293352E+00     enl0=   3.87046573E+00   enl1=  -1.36830571E+01
 1-9 gives the relaxation energy (to be shifted if some occ is /=2.0)
   erelax=  -3.37861381E+01
  No Ewald or frozen-wf contrib.: the relaxation energy is the total one
 2DEtotal=   -0.3378613805E+02 Ha. Also 2DEtotal=   -0.919367571662E+03 eV
    (  non-var. 2DEtotal :   -3.3786138051E+01 Ha)

 CALCULATION OF EFFECTIVE MASSES
 NOTE : Additional infos (eff. mass eigenvalues, eigenvectors and, if degenerate, average mass) are available in stdout.

 COMMENTS:
 - At k-point ( 0.000, 0.000, 0.000), bands    35 through    37
   are DEGENERATE (effective mass tensor is therefore not defined).
   See Section IIIB Eqs. (67)-(70) and Appendix E of PRB 93 205147 (2016).
 - Angular average effective mass for Frohlich model is to be averaged over degenerate bands. See later.
 - Associated theta integrals calculated with ntheta=   1000 points.

 K-point ( 0.000, 0.000, 0.000) | band =    35
 Transport equivalent effective mass tensor:
             -1.4040853501             -0.0000004152             -0.0000000002
             -0.0000004152             -1.4040849456             -0.0000000002
             -0.0000000002             -0.0000000002             -1.4040830933
 Transport equivalent effective mass tensor eigenvalues:
             -1.4040856097             -1.4040846860             -1.4040830933
 Angular average effective mass 1/(<1/m>)=  -1.3382503044
 Angular average effective mass for Frohlich model (<m**0.5>)**2=  -1.3408060972
 Effective masses along directions: (cart. coord. / red. coord. -> eff. mass)
    1:   1.000000  0.000000  0.000000 /   0.948683  0.316228  0.000000 ->  -1.4206074546
    2:   0.000000  1.000000  0.000000 /   0.000000  1.000000  0.000000 ->  -1.5975106847
    3:   0.000000  0.000000  1.000000 /   0.408248  0.408248  0.816497 ->  -1.2789775652
    4:   0.577350  0.577350  0.577350 /   0.585539  0.688047  0.428644 ->  -1.3751193996
    5:   0.000000  0.707107  0.707107 /   0.289489  0.762222  0.578977 ->  -1.2871875795
    6:   0.707107  0.000000  0.707107 /   0.731423  0.422287  0.535439 ->  -1.3232304433
    7:   0.707107  0.707107  0.000000 /   0.616798  0.787122  0.000000 ->  -1.2900105419

[...]

 K-point ( 0.000, 0.000, 0.000) | band =    37
 Transport equivalent effective mass tensor:
            -52.7053396532             -0.0000000044             -0.0000000027
             -0.0000000044            -52.7053396552             -0.0000000046
             -0.0000000027             -0.0000000046            -52.7053396665
 Transport equivalent effective mass tensor eigenvalues:
            -52.7053396692            -52.7053396561            -52.7053396496
 Angular average effective mass 1/(<1/m>)=  -4.9250346198
 Angular average effective mass for Frohlich model (<m**0.5>)**2=  -6.0400646128
 Effective masses along directions: (cart. coord. / red. coord. -> eff. mass)
    1:   1.000000  0.000000  0.000000 /   0.948683  0.316228  0.000000 ->  -4.2256820391
    2:   0.000000  1.000000  0.000000 /   0.000000  1.000000  0.000000 ->  -2.8917384201
    3:   0.000000  0.000000  1.000000 /   0.408248  0.408248  0.816497 ->  -3.7332597187
    4:   0.577350  0.577350  0.577350 /   0.585539  0.688047  0.428644 ->  -4.0913139713
    5:   0.000000  0.707107  0.707107 /   0.289489  0.762222  0.578977 ->  -6.9958137542
    6:   0.707107  0.000000  0.707107 /   0.731423  0.422287  0.535439 ->  -3.9832051892
    7:   0.707107  0.707107  0.000000 /   0.616798  0.787122  0.000000 -> -19.1033320657

 Angular average effective mass for Frohlich model, averaged over degenerate bands.
 Value of     (<<m**0.5>>)**2 =     2.627585E+00
 Absolute Value of <<m**0.5>> =     1.620983E+00

 K-point ( 0.000, 0.000, 0.000) | band =    38
 Effective mass tensor:
              0.6161595324              0.0000000000              0.0000000001
              0.0000000000              0.6161595324              0.0000000001
              0.0000000001              0.0000000001              0.6161595325
 Effective mass tensor eigenvalues:
              0.6161595324              0.6161595324              0.6161595326
 Angular average effective mass 1/(<1/m>)=   0.6161595324
 Angular average effective mass for Frohlich model (<m**0.5>)**2=   0.6161595324
 Effective masses along directions: (cart. coord. / red. coord. -> eff. mass)
    1:   1.000000  0.000000  0.000000 /   0.948683  0.316228  0.000000 ->   0.6161595324
    2:   0.000000  1.000000  0.000000 /   0.000000  1.000000  0.000000 ->   0.6161595324
    3:   0.000000  0.000000  1.000000 /   0.408248  0.408248  0.816497 ->   0.6161595325
    4:   0.577350  0.577350  0.577350 /   0.585539  0.688047  0.428644 ->   0.6161595325
    5:   0.000000  0.707107  0.707107 /   0.289489  0.762222  0.578977 ->   0.6161595325
    6:   0.707107  0.000000  0.707107 /   0.731423  0.422287  0.535439 ->   0.6161595325
    7:   0.707107  0.707107  0.000000 /   0.616798  0.787122  0.000000 ->   0.6161595324

 END OF EFFECTIVE MASSES SECTION

 ---- first-order wavefunction calculations are completed ----

 Total localisation tensor (bohr^2) in cartesian coordinates
  WARNING : still subject to testing - especially symmetries.
      direction              matrix element
   alpha     beta       real part   imaginary part
     1        1       1.6138469465    0.0000000000
     1        2       0.4564648493    0.0000000000
     1        3       1.1181059633    0.0000000000
     2        1       0.4564648493    0.0000000000
     2        2       1.2910775612    0.0000000000
     2        3       0.7906203108    0.0000000000
     3        1       1.1181059633    0.0000000000
     3        2       0.7906203108    0.0000000000
     3        3       2.9049245184    0.0000000000

 respfn : d/dk was computed, but no 2DTE, so no DDB output.

== END DATASET(S) ==============================================================

 -outvars: echo values of variables after computation  --------
            acell      1.0000000000E+00  1.0000000000E+00  1.0000000000E+00 Bohr
              amu      1.32905430E+02  7.26100000E+01  3.54527000E+01
             ecut      4.10000000E+01 Hartree
           etotal     -3.3786138051E+01
            fcart      0.0000000000E+00  0.0000000000E+00  0.0000000000E+00
                       0.0000000000E+00  0.0000000000E+00  0.0000000000E+00
                       0.0000000000E+00  0.0000000000E+00  0.0000000000E+00
                       0.0000000000E+00  0.0000000000E+00  0.0000000000E+00
                       0.0000000000E+00  0.0000000000E+00  0.0000000000E+00
                       0.0000000000E+00  0.0000000000E+00  0.0000000000E+00
                       0.0000000000E+00  0.0000000000E+00  0.0000000000E+00
                       0.0000000000E+00  0.0000000000E+00  0.0000000000E+00
                       0.0000000000E+00  0.0000000000E+00  0.0000000000E+00
-          fftalg         512
           irdden           1
           irdwfk           1
           istwfk        1
              ixc     -116133
           kptopt           0
P           mkmem           1
P          mkqmem           1
P          mk1mem           1
            natom           9
            nband          46
           nbdbuf           4
            ngfft          80      80      80
             nkpt           1
            nstep        2000
             nsym          48
           ntypat           3
              occ      2.000000  2.000000  2.000000  2.000000  2.000000  2.000000
                       2.000000  2.000000  2.000000  2.000000  2.000000  2.000000
                       2.000000  2.000000  2.000000  2.000000  2.000000  2.000000
                       2.000000  2.000000  2.000000  2.000000  2.000000  2.000000
                       2.000000  2.000000  2.000000  2.000000  2.000000  2.000000
                       2.000000  2.000000  2.000000  2.000000  2.000000  2.000000
                       2.000000  0.000000  0.000000  0.000000  0.000000  0.000000
                       0.000000  0.000000  0.000000  0.000000
        optdriver           1
            prtwf          -1
            rfdir           1       1       1
           rfelfd           2
            rprim      1.1815903998E+01  0.0000000000E+00  6.8219153539E+00
                       3.9386346660E+00  1.1140141124E+01  6.8219153539E+00
                       0.0000000000E+00  0.0000000000E+00  1.3643830708E+01
          spgroup         225
           strten      0.0000000000E+00  0.0000000000E+00  0.0000000000E+00
                       0.0000000000E+00  0.0000000000E+00  0.0000000000E+00
           symrel      1  0  0   0  1  0   0  0  1      -1  0  0   0 -1  0   0  0 -1
                       0 -1  1   0 -1  0   1 -1  0       0  1 -1   0  1  0  -1  1  0
                      -1  0  0  -1  0  1  -1  1  0       1  0  0   1  0 -1   1 -1  0
                       0  1 -1   1  0 -1   0  0 -1       0 -1  1  -1  0  1   0  0  1
                      -1  0  0  -1  1  0  -1  0  1       1  0  0   1 -1  0   1  0 -1
                       0 -1  1   1 -1  0   0 -1  0       0  1 -1  -1  1  0   0  1  0
                       1  0  0   0  0  1   0  1  0      -1  0  0   0  0 -1   0 -1  0
                       0  1 -1   0  0 -1   1  0 -1       0 -1  1   0  0  1  -1  0  1
                      -1  0  1  -1  1  0  -1  0  0       1  0 -1   1 -1  0   1  0  0
                       0 -1  0   1 -1  0   0 -1  1       0  1  0  -1  1  0   0  1 -1
                       1  0 -1   0  0 -1   0  1 -1      -1  0  1   0  0  1   0 -1  1
                       0  1  0   0  0  1   1  0  0       0 -1  0   0  0 -1  -1  0  0
                       1  0 -1   0  1 -1   0  0 -1      -1  0  1   0 -1  1   0  0  1
                       0 -1  0   0 -1  1   1 -1  0       0  1  0   0  1 -1  -1  1  0
                      -1  0  1  -1  0  0  -1  1  0       1  0 -1   1  0  0   1 -1  0
                       0  1  0   1  0  0   0  0  1       0 -1  0  -1  0  0   0  0 -1
                       0  0 -1   0  1 -1   1  0 -1       0  0  1   0 -1  1  -1  0  1
                       1 -1  0   0 -1  1   0 -1  0      -1  1  0   0  1 -1   0  1  0
                       0  0  1   1  0  0   0  1  0       0  0 -1  -1  0  0   0 -1  0
                      -1  1  0  -1  0  0  -1  0  1       1 -1  0   1  0  0   1  0 -1
                       0  0  1   0  1  0   1  0  0       0  0 -1   0 -1  0  -1  0  0
                       1 -1  0   0 -1  0   0 -1  1      -1  1  0   0  1  0   0  1 -1
                       0  0 -1   1  0 -1   0  1 -1       0  0  1  -1  0  1   0 -1  1
                      -1  1  0  -1  0  1  -1  0  0       1 -1  0   1  0 -1   1  0  0
           tolwfr      1.00000000E-20
            typat      1  1  2  3  3  3  3  3  3
           useylm           1
           xangst      2.0842356982E+00  1.4737771958E+00  3.6100021242E+00
                       6.2527070946E+00  4.4213315874E+00  1.0830006373E+01
                       0.0000000000E+00  0.0000000000E+00  0.0000000000E+00
                       6.4487419674E+00  4.5599491753E+00  7.2200042484E+00
                       5.3086066819E+00  1.3351596079E+00  9.1947764904E+00
                       3.0283361109E+00  4.5599491753E+00  5.2452320064E+00
                       1.8882008254E+00  1.3351596079E+00  7.2200042484E+00
                       3.0283361109E+00  4.5599491753E+00  9.1947764904E+00
                       5.3086066819E+00  1.3351596079E+00  5.2452320064E+00
            xcart      3.9386346660E+00  2.7850352809E+00  6.8219153539E+00
                       1.1815903998E+01  8.3551058428E+00  2.0465746062E+01
                       0.0000000000E+00  0.0000000000E+00  0.0000000000E+00
                       1.2186356220E+01  8.6170551212E+00  1.3643830708E+01
                       1.0031812776E+01  2.5230860025E+00  1.7375609420E+01
                       5.7227258879E+00  8.6170551212E+00  9.9120519956E+00
                       3.5681824438E+00  2.5230860025E+00  1.3643830708E+01
                       5.7227258879E+00  8.6170551212E+00  1.7375609420E+01
                       1.0031812776E+01  2.5230860025E+00  9.9120519956E+00
             xred      2.5000000000E-01  2.5000000000E-01  2.5000000000E-01
                       7.5000000000E-01  7.5000000000E-01  7.5000000000E-01
                       0.0000000000E+00  0.0000000000E+00  0.0000000000E+00
                       7.7351400000E-01  7.7351400000E-01  2.2648600000E-01
                       7.7351400000E-01  2.2648600000E-01  7.7351400000E-01
                       2.2648600000E-01  7.7351400000E-01  2.2648600000E-01
                       2.2648600000E-01  2.2648600000E-01  7.7351400000E-01
                       2.2648600000E-01  7.7351400000E-01  7.7351400000E-01
                       7.7351400000E-01  2.2648600000E-01  2.2648600000E-01
            znucl       55.00000   32.00000   17.00000

- Timing analysis has been suppressed with timopt=0

 Suggested references for the acknowledgment of ABINIT usage.

 Calculation completed.
.Delivered   6 WARNINGs and   5 COMMENTs to log file.