.Version 9.7.2 of ABINIT

 ABINIT is a project of the Universite Catholique de Louvain,
 Corning Inc. and other collaborators, see ~abinit/doc/developers/contributors.txt .
 acknowledgments of the ABINIT effort.

.Starting date : Wed  1 Dec 2021.
- ( at 21h29 )

- input  file    -> /scratch/users/j/a/jabreu/flow_simple_remain_atoms/flow/w203/t1/run.abi
- output file    -> /scratch/users/j/a/jabreu/flow_simple_remain_atoms/flow/w203/t1/run.abo
- root for input  files -> /scratch/users/j/a/jabreu/flow_simple_remain_atoms/flow/w203/t1/indata/in
- root for output files -> /scratch/users/j/a/jabreu/flow_simple_remain_atoms/flow/w203/t1/outdata/out

 Symmetries : space group Pn n m (# 58); Bravais oP (primitive ortho.)
     intxc =       0      iscf =       7    lmnmax =      32     lnmax =       8
     mgfft =      72  mpssoang =       4    mqgrid =    3410     natom =       6
  nloc_mem =       1    nspden =       1   nspinor =       1    nsppol =       1
      nsym =       8    n1xccc =    2501    ntypat =       2    occopt =       1
   xclevel =       2
-    mband =          55        mffmem =           1         mkmem =           2
-   mkqmem =           2        mk1mem =           2           mpw =        8860
      nfft =      155520          nkpt =           2
  Rough estimation (10% accuracy) of disk space for files :

------------- Echo of variables that govern the present computation ------------
-
- outvars: echo of selected default values
-   iomode0 =  0 , fftalg0 =512 , wfoptalg0 =  0
-
- outvars: echo of global parameters not present in the input file
-  max_nthreads =    0
-
 -outvars: echo values of preprocessed input variables --------
            acell      1.0000000000E+00  1.0000000000E+00  1.0000000000E+00 Bohr
              amu      7.49215900E+01  1.90200000E+02
             ecut      4.20000000E+01 Hartree
-          fftalg         512
           irdden           1
           irdwfk           1
              ixc     -116133
              kpt      1.56250000E-01  0.00000000E+00  5.00000000E-01
                       2.81250000E-01  5.00000000E-01  5.00000000E-01
           kptopt           0
P           mkmem           2
P          mkqmem           2
P          mk1mem           2
            natom           6
            nband          55
           nbdbuf           4
            ngfft          36      60      72
             nkpt           2
            nstep        2000
             nsym           8
           ntypat           2
              occ      2.000000  2.000000  2.000000  2.000000  2.000000  2.000000
                       2.000000  2.000000  2.000000  2.000000  2.000000  2.000000
                       2.000000  2.000000  2.000000  2.000000  2.000000  2.000000
                       2.000000  2.000000  2.000000  2.000000  2.000000  2.000000
                       2.000000  2.000000  2.000000  2.000000  2.000000  2.000000
                       2.000000  2.000000  2.000000  2.000000  2.000000  2.000000
                       2.000000  2.000000  2.000000  2.000000  2.000000  2.000000
                       2.000000  2.000000  2.000000  2.000000  0.000000  0.000000
                       0.000000  0.000000  0.000000  0.000000  0.000000  0.000000
                       0.000000
        optdriver           1
            prtwf          -1
            rfdir           1       1       1
           rfelfd           2
            rprim      5.6826604548E+00  0.0000000000E+00  0.0000000000E+00
                       0.0000000000E+00  1.0244961137E+01  0.0000000000E+00
                       0.0000000000E+00  0.0000000000E+00  1.1688001585E+01
          spgroup          58
           symrel      1  0  0   0  1  0   0  0  1      -1  0  0   0 -1  0   0  0 -1
                      -1  0  0   0  1  0   0  0 -1       1  0  0   0 -1  0   0  0  1
                      -1  0  0   0 -1  0   0  0  1       1  0  0   0  1  0   0  0 -1
                       1  0  0   0 -1  0   0  0 -1      -1  0  0   0  1  0   0  0  1
            tnons      0.0000000  0.0000000  0.0000000     0.0000000  0.0000000  0.0000000
                       0.5000000  0.5000000  0.5000000     0.5000000  0.5000000  0.5000000
                       0.5000000  0.5000000  0.5000000     0.5000000  0.5000000  0.5000000
                       0.0000000  0.0000000  0.0000000     0.0000000  0.0000000  0.0000000
           tolwfr      1.00000000E-20
            typat      1  1  1  1  2  2
           useylm           1
              wtk        0.50000    0.50000
           xangst      1.5035671984E+00  1.7870669038E+00  5.3499963256E+00
                       1.5035671984E+00  3.6343330325E+00  8.3502772734E-01
                       0.0000000000E+00  9.2363306435E-01  2.2574842991E+00
                       0.0000000000E+00  4.4977668720E+00  3.9275397538E+00
                       1.5035671984E+00  2.7106999682E+00  3.0925120265E+00
                       0.0000000000E+00  0.0000000000E+00  0.0000000000E+00
            xcart      2.8413302274E+00  3.3770670293E+00  1.0110027867E+01
                       2.8413302274E+00  6.8678941072E+00  1.5779737180E+00
                       0.0000000000E+00  1.7454135389E+00  4.2660270747E+00
                       0.0000000000E+00  8.4995475976E+00  7.4219745107E+00
                       2.8413302274E+00  5.1224805683E+00  5.8440007927E+00
                       0.0000000000E+00  0.0000000000E+00  0.0000000000E+00
             xred      5.0000000000E-01  3.2963200000E-01  8.6499200000E-01
                       5.0000000000E-01  6.7036800000E-01  1.3500800000E-01
                       0.0000000000E+00  1.7036800000E-01  3.6499200000E-01
                       0.0000000000E+00  8.2963200000E-01  6.3500800000E-01
                       5.0000000000E-01  5.0000000000E-01  5.0000000000E-01
                       0.0000000000E+00  0.0000000000E+00  0.0000000000E+00
            znucl       33.00000   76.00000

 chkinp: Checking input parameters for consistency.

== DATASET  1 ==================================================================
-   mpi_nproc: 1, omp_nthreads: -1 (-1 if OMP is not activated)

--- !DatasetInfo
iteration_state: {dtset: 1, }
dimensions: {natom: 6, nkpt: 2, mband: 55, nsppol: 1, nspinor: 1, nspden: 1, mpw: 8860, }
cutoff_energies: {ecut:  42.0, pawecutdg:  -1.0, }
electrons: {nelect:   9.20000000E+01, charge:   0.00000000E+00, occopt:   1.00000000E+00, tsmear:   1.00000000E-02, }
meta: {optdriver: 1, rfelfd: 2, }
...

 Real(R)+Recip(G) space primitive vectors, cartesian coordinates (Bohr,Bohr^-1):
 R(1)=  5.6826605  0.0000000  0.0000000  G(1)=  0.1759739  0.0000000  0.0000000
 R(2)=  0.0000000 10.2449611  0.0000000  G(2)=  0.0000000  0.0976090  0.0000000
 R(3)=  0.0000000  0.0000000 11.6880016  G(3)=  0.0000000  0.0000000  0.0855578
 Unit cell volume ucvol=  6.8045950E+02 bohr^3
 Angles (23,13,12)=  9.00000000E+01  9.00000000E+01  9.00000000E+01 degrees

 getcut: wavevector=  0.0000  0.0000  0.0000  ngfft=  36  60  72
         ecut(hartree)=     42.000   => boxcut(ratio)=   2.00748

--- Pseudopotential description ------------------------------------------------
- pspini: atom type   1  psp file is /scratch/users/j/a/jabreu/pseudos/PBEsol/As.psp8
- pspatm: opening atomic psp file    /scratch/users/j/a/jabreu/pseudos/PBEsol/As.psp8
- As    ONCVPSP-3.3.0  r_core=   1.76603   1.70395   1.80867
- 33.00000  15.00000    180112                znucl, zion, pspdat
    8 -116133    2    4       600   0.00000   pspcod,pspxc,lmax,lloc,mmax,r2well
    5.99000000000000    5.00000000000000    0.00000000000000   rchrg,fchrg,qchrg
     nproj     2     2     2
     extension_switch     1
  pspatm : epsatm=   28.79155382
         --- l  ekb(1:nproj) -->
             0    8.270760    0.868950
             1    4.919053    0.756587
             2  -10.048665   -4.076802
 pspatm: atomic psp has been read  and splines computed

- pspini: atom type   2  psp file is /scratch/users/j/a/jabreu/pseudos/PBEsol/Os.psp8
- pspatm: opening atomic psp file    /scratch/users/j/a/jabreu/pseudos/PBEsol/Os.psp8
- Os    ONCVPSP-3.3.0  r_core=   1.51352   1.55006   1.55006   2.27051
- 76.00000  16.00000    180112                znucl, zion, pspdat
    8 -116133    3    4       600   0.00000   pspcod,pspxc,lmax,lloc,mmax,r2well
    5.99000000000000    5.00000000000000    0.00000000000000   rchrg,fchrg,qchrg
     nproj     2     2     2     2
     extension_switch     1
  pspatm : epsatm=   26.11825460
         --- l  ekb(1:nproj) -->
             0    7.994989   -1.246074
             1    8.240861    1.154929
             2    2.240487    0.219183
             3    0.647575    0.186609
 pspatm: atomic psp has been read  and splines computed

   1.54010507E+04                                ecore*ucvol(ha*bohr**3)

 ==>  initialize data related to q vector <==

 The list of irreducible perturbations for this q vector is:
    1)    idir= 1    ipert=   7
    2)    idir= 2    ipert=   7
    3)    idir= 3    ipert=   7

 Perturbation wavevector (in red.coord.)   0.000000  0.000000  0.000000
 Perturbation : derivative vs k along direction   1

 dfpt_looppert : COMMENT -
  In a d/dk calculation, iscf is set to -3 automatically.
 The set of symmetries contains only one element for this perturbation.
 symkpt : not enough symmetry to change the number of k points.

 Initialisation of the first-order wave-functions :
  ireadwf=   0

--- !BeginCycle
iteration_state: {dtset: 1, }
solver: {iscf: 7, nstep: 2000, nline: 4, wfoptalg: 0, }
tolerances: {tolwfr: 1.00E-20, }
...

     iter   2DEtotal(Ha)        deltaE(Ha) residm    vres2
-ETOT  1  -232.08939308229     -2.321E+02 2.081E-01 0.000E+00
 ETOT  2  -232.27555390015     -1.862E-01 9.592E-03 0.000E+00
 ETOT  3  -232.27585545794     -3.016E-04 2.417E-04 0.000E+00
 ETOT  4  -232.27585693752     -1.480E-06 2.027E-05 0.000E+00
 ETOT  5  -232.27585694742     -9.897E-09 4.209E-07 0.000E+00
 ETOT  6  -232.27585694750     -7.512E-11 5.175E-08 0.000E+00
 ETOT  7  -232.27585694750     -8.811E-13 1.126E-09 0.000E+00
 ETOT  8  -232.27585694750      1.990E-13 1.391E-10 0.000E+00
 ETOT  9  -232.27585694750     -2.842E-14 3.086E-12 0.000E+00
 ETOT 10  -232.27585694750      2.842E-14 3.855E-13 0.000E+00
 ETOT 11  -232.27585694750      0.000E+00 8.638E-15 0.000E+00
 ETOT 12  -232.27585694750     -2.842E-14 1.091E-15 0.000E+00
 ETOT 13  -232.27585694750      2.842E-14 2.453E-17 0.000E+00
 ETOT 14  -232.27585694750     -5.684E-14 3.140E-18 0.000E+00
 ETOT 15  -232.27585694750      2.842E-14 7.046E-20 0.000E+00
 ETOT 16  -232.27585694750      0.000E+00 9.910E-21 0.000E+00

 At SCF step   16   max residual=  9.91E-21 < tolwfr=  1.00E-20 =>converged.

 ----iterations are completed or convergence reached----

 dfpt_looppert: DFPT cycle converged with prtwf=-1. Will skip output of the 1st-order WFK file.
 dfpt_looppert : ek2=    2.2494386100E+02
          f-sum rule ratio=    1.0148620879E+00
 prteigrs : about to open file /scratch/users/j/a/jabreu/flow_simple_remain_atoms/flow/w203/t1/tmpdata/tmp_1WF1_EIG
 Expectation of eigenvalue derivatives (hartree) for nkpt=   2  k points:
  (in case of degenerate eigenvalues, averaged derivative)
 kpt#   1, nband= 55, wtk=  0.50000, kpt=  0.1563  0.0000  0.5000 (reduced coord)
   0.00076    0.00076   -0.01140   -0.01140   -0.00615   -0.00615    0.00180    0.00180
   0.00242    0.00242   -0.00126   -0.00126    0.00306    0.00306   -0.00015   -0.00015
  -0.00122   -0.00122   -0.00072   -0.00072    0.00048    0.00048    0.00081    0.00081
   0.00030    0.00030   -0.00013   -0.00013    0.17113    0.17113    0.07417    0.07417
   0.14881    0.14881    0.12219    0.12219   -0.06301   -0.06301   -0.29574   -0.29574
  -0.01781   -0.01781   -0.13427   -0.13427    0.00668    0.00668   -0.27993   -0.27993
   0.03359    0.03359    0.12842    0.12842   -0.45776   -0.45776   -0.29084
 prteigrs : prtvol=0 or 1, do not print more k-points.

 Eight components of 2nd-order total energy (hartree) are
 1,2,3: 0th-order hamiltonian combined with 1st-order wavefunctions
     kin0=   2.54282129E+02 eigvalue=   1.43705712E+01  local=  -9.44373300E+01
 4,5,6: 1st-order hamiltonian combined with 1st and 0th-order wfs
     kin1=  -2.28286996E+02  Hartree=   0.00000000E+00     xc=   0.00000000E+00
 7,8,9: eventually, occupation + non-local contributions
    edocc=   3.57385620E+01     enl0=   2.23219249E+01   enl1=  -2.36264717E+02
 1-9 gives the relaxation energy (to be shifted if some occ is /=2.0)
   erelax=  -2.32275857E+02
  No Ewald or frozen-wf contrib.: the relaxation energy is the total one
 2DEtotal=   -0.2322758569E+03 Ha. Also 2DEtotal=   -0.632054750481E+04 eV
    (  non-var. 2DEtotal :   -2.3227585695E+02 Ha)

 Perturbation wavevector (in red.coord.)   0.000000  0.000000  0.000000
 Perturbation : derivative vs k along direction   2
 The set of symmetries contains only one element for this perturbation.
 symkpt : not enough symmetry to change the number of k points.

[...]

 Perturbation wavevector (in red.coord.)   0.000000  0.000000  0.000000
 Perturbation : derivative vs k along direction   3
 The set of symmetries contains only one element for this perturbation.
 symkpt : not enough symmetry to change the number of k points.

 Initialisation of the first-order wave-functions :
  ireadwf=   0

--- !BeginCycle
iteration_state: {dtset: 1, }
solver: {iscf: 7, nstep: 2000, nline: 4, wfoptalg: 0, }
tolerances: {tolwfr: 1.00E-20, }
...

     iter   2DEtotal(Ha)        deltaE(Ha) residm    vres2
-ETOT  1  -56.843577652736     -5.684E+01 1.154E-01 0.000E+00
 ETOT  2  -56.897661756433     -5.408E-02 8.788E-03 0.000E+00
 ETOT  3  -56.897759481957     -9.773E-05 6.796E-04 0.000E+00
 ETOT  4  -56.897760193699     -7.117E-07 8.406E-05 0.000E+00
 ETOT  5  -56.897760201377     -7.678E-09 8.052E-06 0.000E+00
 ETOT  6  -56.897760201469     -9.221E-11 1.059E-06 0.000E+00
 ETOT  7  -56.897760201470     -1.137E-12 1.086E-07 0.000E+00
 ETOT  8  -56.897760201470      0.000E+00 1.468E-08 0.000E+00
 ETOT  9  -56.897760201470      3.553E-14 1.570E-09 0.000E+00
 ETOT 10  -56.897760201470      0.000E+00 2.120E-10 0.000E+00
 ETOT 11  -56.897760201470      4.263E-14 2.326E-11 0.000E+00
 ETOT 12  -56.897760201470      0.000E+00 3.123E-12 0.000E+00
 ETOT 13  -56.897760201470     -7.105E-15 3.498E-13 0.000E+00
 ETOT 14  -56.897760201470      7.105E-15 4.650E-14 0.000E+00
 ETOT 15  -56.897760201470      0.000E+00 5.287E-15 0.000E+00
 ETOT 16  -56.897760201470     -2.132E-14 6.971E-16 0.000E+00
 ETOT 17  -56.897760201470      1.421E-14 8.024E-17 0.000E+00
 ETOT 18  -56.897760201470      7.105E-15 1.050E-17 0.000E+00
 ETOT 19  -56.897760201470     -1.421E-14 1.220E-18 0.000E+00
 ETOT 20  -56.897760201470     -7.105E-15 1.586E-19 0.000E+00
 ETOT 21  -56.897760201470      7.105E-15 1.858E-20 0.000E+00
 ETOT 22  -56.897760201470      7.105E-15 9.931E-21 0.000E+00

 At SCF step   22   max residual=  9.93E-21 < tolwfr=  1.00E-20 =>converged.

 ----iterations are completed or convergence reached----

 dfpt_looppert: DFPT cycle converged with prtwf=-1. Will skip output of the 1st-order WFK file.
 dfpt_looppert : ek2=    5.3173718985E+01
          f-sum rule ratio=    1.0873027989E+00
 prteigrs : about to open file /scratch/users/j/a/jabreu/flow_simple_remain_atoms/flow/w203/t1/tmpdata/tmp_1WF1_EIG
 Expectation of eigenvalue derivatives (hartree) for nkpt=   2  k points:
  (in case of degenerate eigenvalues, averaged derivative)
 kpt#   1, nband= 55, wtk=  0.50000, kpt=  0.1563  0.0000  0.5000 (reduced coord)
   0.00000    0.00000   -0.00000   -0.00000    0.00000    0.00000   -0.00000   -0.00000
  -0.00000   -0.00000    0.00000    0.00000    0.00000    0.00000   -0.00000   -0.00000
  -0.00000   -0.00000    0.00000    0.00000   -0.00000   -0.00000   -0.00000   -0.00000
  -0.00000   -0.00000    0.00000    0.00000    0.00000    0.00000   -0.00000   -0.00000
   0.00000    0.00000    0.00000    0.00000   -0.00000   -0.00000   -0.00000   -0.00000
   0.00000    0.00000    0.00000    0.00000    0.00000    0.00000   -0.00000   -0.00000
  -0.00000   -0.00000   -0.00000   -0.00000   -0.00000   -0.00000    0.09783
 prteigrs : prtvol=0 or 1, do not print more k-points.

 Eight components of 2nd-order total energy (hartree) are
 1,2,3: 0th-order hamiltonian combined with 1st-order wavefunctions
     kin0=   5.88064185E+01 eigvalue=   3.72301853E+00  local=  -2.23989107E+01
 4,5,6: 1st-order hamiltonian combined with 1st and 0th-order wfs
     kin1=  -5.78159335E+01  Hartree=   0.00000000E+00     xc=   0.00000000E+00
 7,8,9: eventually, occupation + non-local contributions
    edocc=   1.10694121E+01     enl0=   5.69782181E+00   enl1=  -5.59795869E+01
 1-9 gives the relaxation energy (to be shifted if some occ is /=2.0)
   erelax=  -5.68977602E+01
  No Ewald or frozen-wf contrib.: the relaxation energy is the total one
 2DEtotal=   -0.5689776020E+02 Ha. Also 2DEtotal=   -0.154826679362E+04 eV
    (  non-var. 2DEtotal :   -5.6897760201E+01 Ha)

 CALCULATION OF EFFECTIVE MASSES
 NOTE : Additional infos (eff. mass eigenvalues, eigenvectors and, if degenerate, average mass) are available in stdout.

--- !WARNING
src_file: m_efmas.F90
src_line: 0
message: |
    Effective masses calculations require given k-point(s) to be band extrema for given bands, but max abs gradient of band(s) was found to be greater than 1e-5. Abinit will continue anyway.
...

[...]

--- !WARNING
src_file: m_efmas.F90
src_line: 0
message: |
    Effective masses calculations require given k-point(s) to be band extrema for given bands, but max abs gradient of band(s) was found to be greater than 1e-5. Abinit will continue anyway.
...

 COMMENTS:
 - At k-point ( 0.156, 0.000, 0.500), bands    45 through    46
   are DEGENERATE (effective mass tensor is therefore not defined).
   See Section IIIB Eqs. (67)-(70) and Appendix E of PRB 93 205147 (2016).
 - Angular average effective mass for Frohlich model is to be averaged over degenerate bands. See later.
 - Associated theta integrals calculated with ntheta=   1000 points.

 K-point ( 0.156, 0.000, 0.500) | band =    45
 Transport equivalent effective mass tensor:
             -1.5009654095              0.0000000018             -0.0000000003
              0.0000000018             -0.4340828840              0.0000000002
             -0.0000000003              0.0000000002             -0.8217221495
 Transport equivalent effective mass tensor eigenvalues:
             -1.5009654095             -0.8217221495             -0.4340828840
 Angular average effective mass 1/(<1/m>)=  -0.5987826344
 Angular average effective mass for Frohlich model (<m**0.5>)**2=  -0.6441097588
 Effective masses along directions: (cart. coord. / red. coord. -> eff. mass)
    1:   1.000000  0.000000  0.000000 /   1.000000  0.000000  0.000000 ->  -1.2509929852
    2:   0.000000  1.000000  0.000000 /   0.000000  1.000000  0.000000 ->  -0.5049571146
    3:   0.000000  0.000000  1.000000 /   0.000000  0.000000  1.000000 ->  -1.1598171316
    4:   0.577350  0.577350  0.577350 /   0.343389  0.619078  0.706277 ->  -0.5247057450
    5:   0.000000  0.707107  0.707107 /   0.000000  0.659159  0.752004 ->  -0.4109393381
    6:   0.707107  0.000000  0.707107 /   0.437255  0.000000  0.899338 ->  -0.9434612684
    7:   0.707107  0.707107  0.000000 /   0.485057  0.874483  0.000000 ->  -0.7194940290

[...]

 Angular average effective mass for Frohlich model, averaged over degenerate bands.
 Value of     (<<m**0.5>>)**2 =     1.051212E+00
 Absolute Value of <<m**0.5>> =     1.025286E+00

 COMMENTS:
 - At k-point ( 0.281, 0.500, 0.500), bands    47 through    48
   are DEGENERATE (effective mass tensor is therefore not defined).
   See Section IIIB Eqs. (67)-(70) and Appendix E of PRB 93 205147 (2016).
 - Angular average effective mass for Frohlich model is to be averaged over degenerate bands. See later.
 - Associated theta integrals calculated with ntheta=   1000 points.

[...]

 K-point ( 0.281, 0.500, 0.500) | band =    48
 Transport equivalent effective mass tensor:
              0.3596581854             -0.0000000000              0.0000000000
             -0.0000000000              0.3093092739              0.0000000000
              0.0000000000              0.0000000000              0.2128135084
 Transport equivalent effective mass tensor eigenvalues:
              0.3596581854              0.3093092739              0.2128135084
 Angular average effective mass 1/(<1/m>)=   0.2312771110
 Angular average effective mass for Frohlich model (<m**0.5>)**2=   0.2354066415
 Effective masses along directions: (cart. coord. / red. coord. -> eff. mass)
    1:   1.000000  0.000000  0.000000 /   1.000000  0.000000  0.000000 ->   0.2719646887
    2:   0.000000  1.000000  0.000000 /   0.000000  1.000000  0.000000 ->   0.3774083702
    3:   0.000000  0.000000  1.000000 /   0.000000  0.000000  1.000000 ->   0.2596682956
    4:   0.577350  0.577350  0.577350 /   0.343389  0.619078  0.706277 ->   0.2059573812
    5:   0.000000  0.707107  0.707107 /   0.000000  0.659159  0.752004 ->   0.1836686870
    6:   0.707107  0.000000  0.707107 /   0.437255  0.000000  0.899338 ->   0.2656742876
    7:   0.707107  0.707107  0.000000 /   0.485057  0.874483  0.000000 ->   0.3161256800

 Angular average effective mass for Frohlich model, averaged over degenerate bands.
 Value of     (<<m**0.5>>)**2 =     3.325996E-01
 Absolute Value of <<m**0.5>> =     5.767145E-01

 END OF EFFECTIVE MASSES SECTION

 ---- first-order wavefunction calculations are completed ----

 Total localisation tensor (bohr^2) in cartesian coordinates
  WARNING : still subject to testing - especially symmetries.
      direction              matrix element
   alpha     beta       real part   imaginary part
     1        1       1.0547066562    0.0000000000
     1        2       0.0000000000    0.0000000000
     1        3       0.0000000000    0.0000000000
     2        1       0.0000000000    0.0000000000
     2        2       1.3386331640    0.0000000000
     2        3       0.0000000000    0.0000000000
     3        1       0.0000000000    0.0000000000
     3        2       0.0000000000    0.0000000000
     3        3       1.8423082344    0.0000000000

 respfn : d/dk was computed, but no 2DTE, so no DDB output.

== END DATASET(S) ==============================================================

 -outvars: echo values of variables after computation  --------
            acell      1.0000000000E+00  1.0000000000E+00  1.0000000000E+00 Bohr
              amu      7.49215900E+01  1.90200000E+02
             ecut      4.20000000E+01 Hartree
           etotal     -5.6897760201E+01
            fcart      0.0000000000E+00  0.0000000000E+00  0.0000000000E+00
                       0.0000000000E+00  0.0000000000E+00  0.0000000000E+00
                       0.0000000000E+00  0.0000000000E+00  0.0000000000E+00
                       0.0000000000E+00  0.0000000000E+00  0.0000000000E+00
                       0.0000000000E+00  0.0000000000E+00  0.0000000000E+00
                       0.0000000000E+00  0.0000000000E+00  0.0000000000E+00
-          fftalg         512
           irdden           1
           irdwfk           1
              ixc     -116133
              kpt      1.56250000E-01  0.00000000E+00  5.00000000E-01
                       2.81250000E-01  5.00000000E-01  5.00000000E-01
           kptopt           0
P           mkmem           2
P          mkqmem           2
P          mk1mem           2
            natom           6
            nband          55
           nbdbuf           4
            ngfft          36      60      72
             nkpt           2
            nstep        2000
             nsym           8
           ntypat           2
              occ      2.000000  2.000000  2.000000  2.000000  2.000000  2.000000
                       2.000000  2.000000  2.000000  2.000000  2.000000  2.000000
                       2.000000  2.000000  2.000000  2.000000  2.000000  2.000000
                       2.000000  2.000000  2.000000  2.000000  2.000000  2.000000
                       2.000000  2.000000  2.000000  2.000000  2.000000  2.000000
                       2.000000  2.000000  2.000000  2.000000  2.000000  2.000000
                       2.000000  2.000000  2.000000  2.000000  2.000000  2.000000
                       2.000000  2.000000  2.000000  2.000000  0.000000  0.000000
                       0.000000  0.000000  0.000000  0.000000  0.000000  0.000000
                       0.000000
        optdriver           1
            prtwf          -1
            rfdir           1       1       1
           rfelfd           2
            rprim      5.6826604548E+00  0.0000000000E+00  0.0000000000E+00
                       0.0000000000E+00  1.0244961137E+01  0.0000000000E+00
                       0.0000000000E+00  0.0000000000E+00  1.1688001585E+01
          spgroup          58
           strten      0.0000000000E+00  0.0000000000E+00  0.0000000000E+00
                       0.0000000000E+00  0.0000000000E+00  0.0000000000E+00
           symrel      1  0  0   0  1  0   0  0  1      -1  0  0   0 -1  0   0  0 -1
                      -1  0  0   0  1  0   0  0 -1       1  0  0   0 -1  0   0  0  1
                      -1  0  0   0 -1  0   0  0  1       1  0  0   0  1  0   0  0 -1
                       1  0  0   0 -1  0   0  0 -1      -1  0  0   0  1  0   0  0  1
            tnons      0.0000000  0.0000000  0.0000000     0.0000000  0.0000000  0.0000000
                       0.5000000  0.5000000  0.5000000     0.5000000  0.5000000  0.5000000
                       0.5000000  0.5000000  0.5000000     0.5000000  0.5000000  0.5000000
                       0.0000000  0.0000000  0.0000000     0.0000000  0.0000000  0.0000000
           tolwfr      1.00000000E-20
            typat      1  1  1  1  2  2
           useylm           1
              wtk        0.50000    0.50000
           xangst      1.5035671984E+00  1.7870669038E+00  5.3499963256E+00
                       1.5035671984E+00  3.6343330325E+00  8.3502772734E-01
                       0.0000000000E+00  9.2363306435E-01  2.2574842991E+00
                       0.0000000000E+00  4.4977668720E+00  3.9275397538E+00
                       1.5035671984E+00  2.7106999682E+00  3.0925120265E+00
                       0.0000000000E+00  0.0000000000E+00  0.0000000000E+00
            xcart      2.8413302274E+00  3.3770670293E+00  1.0110027867E+01
                       2.8413302274E+00  6.8678941072E+00  1.5779737180E+00
                       0.0000000000E+00  1.7454135389E+00  4.2660270747E+00
                       0.0000000000E+00  8.4995475976E+00  7.4219745107E+00
                       2.8413302274E+00  5.1224805683E+00  5.8440007927E+00
                       0.0000000000E+00  0.0000000000E+00  0.0000000000E+00
             xred      5.0000000000E-01  3.2963200000E-01  8.6499200000E-01
                       5.0000000000E-01  6.7036800000E-01  1.3500800000E-01
                       0.0000000000E+00  1.7036800000E-01  3.6499200000E-01
                       0.0000000000E+00  8.2963200000E-01  6.3500800000E-01
                       5.0000000000E-01  5.0000000000E-01  5.0000000000E-01
                       0.0000000000E+00  0.0000000000E+00  0.0000000000E+00
            znucl       33.00000   76.00000

- Timing analysis has been suppressed with timopt=0

 Suggested references for the acknowledgment of ABINIT usage.

 Calculation completed.
.Delivered  10 WARNINGs and   5 COMMENTs to log file.