.Version 9.5.1 of ABINIT

 ABINIT is a project of the Universite Catholique de Louvain,
 Corning Inc. and other collaborators, see ~abinit/doc/developers/contributors.txt .
 acknowledgments of the ABINIT effort.

.Starting date : Tue 27 Apr 2021.
- ( at 18h46 )

- input  file    -> /scratch/users/j/a/jabreu/flow_simple_4atoms/flow/w256/t1/run.abi
- output file    -> /scratch/users/j/a/jabreu/flow_simple_4atoms/flow/w256/t1/run.abo
- root for input  files -> /scratch/users/j/a/jabreu/flow_simple_4atoms/flow/w256/t1/indata/in
- root for output files -> /scratch/users/j/a/jabreu/flow_simple_4atoms/flow/w256/t1/outdata/out

 Symmetries : space group P4/m m m (#123); Bravais tP (primitive tetrag.)
     intxc =       0      iscf =       7    lmnmax =      32     lnmax =       8
     mgfft =      80  mpssoang =       4    mqgrid =    3979     natom =       4
  nloc_mem =       1    nspden =       1   nspinor =       1    nsppol =       1
      nsym =      16    n1xccc =    2501    ntypat =       3    occopt =       1
   xclevel =       2
-    mband =          24        mffmem =           1         mkmem =           2
-   mkqmem =           2        mk1mem =           2           mpw =       11440
      nfft =      184320          nkpt =           2
  Rough estimation (10% accuracy) of disk space for files :

------------- Echo of variables that govern the present computation ------------
-
- outvars: echo of selected default values
-   iomode0 =  0 , fftalg0 =512 , wfoptalg0 =  0
-
- outvars: echo of global parameters not present in the input file
-  max_nthreads =    0
-
 -outvars: echo values of preprocessed input variables --------
            acell      1.0000000000E+00  1.0000000000E+00  1.0000000000E+00 Bohr
              amu      1.32905430E+02  7.99040000E+01  1.89984032E+01
             ecut      4.20000000E+01 Hartree
-          fftalg         512
           irdden           1
           irdwfk           1
           istwfk        1    1
              ixc     -116133
              kpt     -3.08148791E-33  5.00000000E-01  5.00000000E-01
                      -3.08148791E-33 -6.16297582E-33  5.00000000E-01
           kptopt           0
P           mkmem           2
P          mkqmem           2
P          mk1mem           2
            natom           4
            nband          24
           nbdbuf           4
            ngfft          48      48      80
             nkpt           2
            nstep         100
             nsym          16
           ntypat           3
              occ      2.000000  2.000000  2.000000  2.000000  2.000000  2.000000
                       2.000000  2.000000  2.000000  2.000000  2.000000  2.000000
                       2.000000  2.000000  2.000000  0.000000  0.000000  0.000000
                       0.000000  0.000000  0.000000  0.000000  0.000000  0.000000
        optdriver           1
            prtwf          -1
            rfdir           1       1       1
           rfelfd           2
            rprim      8.0141272009E+00  0.0000000000E+00  0.0000000000E+00
                       0.0000000000E+00  8.0141272009E+00  0.0000000000E+00
                       0.0000000000E+00  0.0000000000E+00  1.3638236344E+01
          spgroup         123
           symrel      1  0  0   0  1  0   0  0  1      -1  0  0   0 -1  0   0  0 -1
                      -1  0  0   0  1  0   0  0 -1       1  0  0   0 -1  0   0  0  1
                      -1  0  0   0 -1  0   0  0  1       1  0  0   0  1  0   0  0 -1
                       1  0  0   0 -1  0   0  0 -1      -1  0  0   0  1  0   0  0  1
                       0  1  0   1  0  0   0  0  1       0 -1  0  -1  0  0   0  0 -1
                       0 -1  0   1  0  0   0  0 -1       0  1  0  -1  0  0   0  0  1
                       0 -1  0  -1  0  0   0  0  1       0  1  0   1  0  0   0  0 -1
                       0  1  0  -1  0  0   0  0 -1       0 -1  0   1  0  0   0  0  1
           tolwfr      1.00000000E-20
            typat      1  2  2  3
           useylm           1
              wtk        0.50000    0.50000
           xangst      0.0000000000E+00  0.0000000000E+00  0.0000000000E+00
                       2.1204467307E+00  2.1204467307E+00  2.4216934941E+00
                       2.1204467307E+00  2.1204467307E+00  4.7953503444E+00
                       2.1204467307E+00  2.1204467307E+00  0.0000000000E+00
            xcart      0.0000000000E+00  0.0000000000E+00  0.0000000000E+00
                       4.0070636004E+00  4.0070636004E+00  4.5763374816E+00
                       4.0070636004E+00  4.0070636004E+00  9.0618988621E+00
                       4.0070636004E+00  4.0070636004E+00  0.0000000000E+00
             xred      0.0000000000E+00  0.0000000000E+00  0.0000000000E+00
                       5.0000000000E-01  5.0000000000E-01  3.3555200000E-01
                       5.0000000000E-01  5.0000000000E-01  6.6444800000E-01
                       5.0000000000E-01  5.0000000000E-01  0.0000000000E+00
            znucl       55.00000   35.00000    9.00000

 chkinp: Checking input parameters for consistency.

== DATASET  1 ==================================================================
-   mpi_nproc: 1, omp_nthreads: -1 (-1 if OMP is not activated)

--- !DatasetInfo
iteration_state: {dtset: 1, }
dimensions: {natom: 4, nkpt: 2, mband: 24, nsppol: 1, nspinor: 1, nspden: 1, mpw: 11440, }
cutoff_energies: {ecut:  42.0, pawecutdg:  -1.0, }
electrons: {nelect:   3.00000000E+01, charge:   0.00000000E+00, occopt:   1.00000000E+00, tsmear:   1.00000000E-02, }
meta: {optdriver: 1, rfelfd: 2, }
...

 Real(R)+Recip(G) space primitive vectors, cartesian coordinates (Bohr,Bohr^-1):
 R(1)=  8.0141272  0.0000000  0.0000000  G(1)=  0.1247797  0.0000000  0.0000000
 R(2)=  0.0000000  8.0141272  0.0000000  G(2)=  0.0000000  0.1247797  0.0000000
 R(3)=  0.0000000  0.0000000 13.6382363  G(3)=  0.0000000  0.0000000  0.0733233
 Unit cell volume ucvol=  8.7593257E+02 bohr^3
 Angles (23,13,12)=  9.00000000E+01  9.00000000E+01  9.00000000E+01 degrees

 getcut: wavevector=  0.0000  0.0000  0.0000  ngfft=  48  48  80
         ecut(hartree)=     42.000   => boxcut(ratio)=   2.01068

--- Pseudopotential description ------------------------------------------------
- pspini: atom type   1  psp file is /scratch/users/j/a/jabreu/pseudos/PBEsol/Cs.psp8
- pspatm: opening atomic psp file    /scratch/users/j/a/jabreu/pseudos/PBEsol/Cs.psp8
- Cs    ONCVPSP-3.3.0  r_core=   2.27353   1.85623   2.01788   1.90105
- 55.00000   9.00000    180112                znucl, zion, pspdat
    8 -116133    3    4       600   0.00000   pspcod,pspxc,lmax,lloc,mmax,r2well
    5.99000000000000    5.00000000000000    0.00000000000000   rchrg,fchrg,qchrg
     nproj     2     2     2     2
     extension_switch     1
  pspatm : epsatm=   22.12462445
         --- l  ekb(1:nproj) -->
             0    6.214110    0.767882
             1    6.311966    0.793598
             2    3.769790    0.913105
             3   -9.247129   -2.432478
 pspatm: atomic psp has been read  and splines computed

- pspini: atom type   2  psp file is /scratch/users/j/a/jabreu/pseudos/PBEsol/Br.psp8
- pspatm: opening atomic psp file    /scratch/users/j/a/jabreu/pseudos/PBEsol/Br.psp8
- Br    ONCVPSP-3.3.0  r_core=   1.81012   1.51356   1.92136
- 35.00000   7.00000    180112                znucl, zion, pspdat
    8 -116133    2    4       600   0.00000   pspcod,pspxc,lmax,lloc,mmax,r2well
    5.99000000000000    8.00000000000000    0.00000000000000   rchrg,fchrg,qchrg
     nproj     2     2     2
     extension_switch     1
  pspatm : epsatm=   10.94933070
         --- l  ekb(1:nproj) -->
             0    8.508690    0.897946
             1    5.393311    0.892021
             2    2.527513    0.394763
 pspatm: atomic psp has been read  and splines computed

- pspini: atom type   3  psp file is /scratch/users/j/a/jabreu/pseudos/PBEsol/F.psp8
- pspatm: opening atomic psp file    /scratch/users/j/a/jabreu/pseudos/PBEsol/F.psp8
- F     ONCVPSP-3.3.0  r_core=   1.30942   1.45782   1.60379
-  9.00000   7.00000    180112                znucl, zion, pspdat
    8 -116133    2    4       600   0.00000   pspcod,pspxc,lmax,lloc,mmax,r2well
    5.99000000000000    2.50000000000000    0.00000000000000   rchrg,fchrg,qchrg
     nproj     2     2     1
     extension_switch     1
  pspatm : epsatm=    4.89824824
         --- l  ekb(1:nproj) -->
             0    6.506434    1.065875
             1   -3.978753   -1.295852
             2   -2.394754
 pspatm: atomic psp has been read  and splines computed

   1.46764602E+03                                ecore*ucvol(ha*bohr**3)

-inwffil : will read wavefunctions from disk file /scratch/users/j/a/jabreu/flow_simple_4atoms/flow/w256/t1/indata/in_WFK

 ==>  initialize data related to q vector <==

 The list of irreducible perturbations for this q vector is:
    1)    idir= 1    ipert=   5
    2)    idir= 2    ipert=   5
    3)    idir= 3    ipert=   5

 Perturbation wavevector (in red.coord.)   0.000000  0.000000  0.000000
 Perturbation : derivative vs k along direction   1

 dfpt_looppert : COMMENT -
  In a d/dk calculation, iscf is set to -3 automatically.
 The set of symmetries contains only one element for this perturbation.
 symkpt : not enough symmetry to change the number of k points.

[...]

 Initialisation of the first-order wave-functions :
  ireadwf=   0

--- !BeginCycle
iteration_state: {dtset: 1, }
solver: {iscf: 7, nstep: 100, nline: 4, wfoptalg: 0, }
tolerances: {tolwfr: 1.00E-20, }
...

     iter   2DEtotal(Ha)        deltaE(Ha) residm    vres2
-ETOT  1  -22.799999439336     -2.280E+01 2.122E-02 0.000E+00
 ETOT  2  -22.813125074049     -1.313E-02 8.979E-04 0.000E+00
 ETOT  3  -22.813318667705     -1.936E-04 1.090E-05 0.000E+00
 ETOT  4  -22.813324672657     -6.005E-06 4.672E-06 0.000E+00
 ETOT  5  -22.813324965456     -2.928E-07 3.154E-07 0.000E+00
 ETOT  6  -22.813324985414     -1.996E-08 1.365E-07 0.000E+00
 ETOT  7  -22.813324987052     -1.637E-09 1.051E-08 0.000E+00
 ETOT  8  -22.813324987200     -1.483E-10 4.440E-09 0.000E+00
 ETOT  9  -22.813324987214     -1.430E-11 3.475E-10 0.000E+00
 ETOT 10  -22.813324987216     -1.453E-12 1.459E-10 0.000E+00
 ETOT 11  -22.813324987216     -1.705E-13 1.272E-11 0.000E+00
 ETOT 12  -22.813324987216     -1.066E-14 6.641E-12 0.000E+00
 ETOT 13  -22.813324987216      3.553E-15 5.793E-13 0.000E+00
 ETOT 14  -22.813324987216      7.105E-15 3.116E-13 0.000E+00
 ETOT 15  -22.813324987216      3.553E-15 2.624E-14 0.000E+00
 ETOT 16  -22.813324987216      3.553E-15 1.462E-14 0.000E+00
 ETOT 17  -22.813324987216      1.066E-14 1.246E-15 0.000E+00
 ETOT 18  -22.813324987216     -1.421E-14 7.102E-16 0.000E+00
 ETOT 19  -22.813324987216      3.553E-15 6.294E-17 0.000E+00
 ETOT 20  -22.813324987216      0.000E+00 3.608E-17 0.000E+00
 ETOT 21  -22.813324987216      7.105E-15 3.324E-18 0.000E+00
 ETOT 22  -22.813324987216     -7.105E-15 1.891E-18 0.000E+00
 ETOT 23  -22.813324987216      3.553E-15 1.809E-19 0.000E+00
 ETOT 24  -22.813324987216      0.000E+00 1.013E-19 0.000E+00
 ETOT 25  -22.813324987216      3.553E-15 1.002E-20 0.000E+00
 ETOT 26  -22.813324987216      0.000E+00 9.748E-21 0.000E+00

 At SCF step   26   max residual=  9.75E-21 < tolwfr=  1.00E-20 =>converged.

 ----iterations are completed or convergence reached----

 dfpt_looppert: DFPT cycle converged with prtwf=-1. Will skip output of the 1st-order WFK file.
 dfpt_looppert : ek2=    3.6880646420E+01
          f-sum rule ratio=    1.1529515894E+00
 prteigrs : about to open file /scratch/users/j/a/jabreu/flow_simple_4atoms/flow/w256/t1/tmpdata/tmp_1WF1_EIG
 Expectation of eigenvalue derivatives (hartree) for nkpt=   2  k points:
  (in case of degenerate eigenvalues, averaged derivative)
 kpt#   1, nband= 24, wtk=  0.50000, kpt=  0.0000  0.5000  0.5000 (reduced coord)
  -0.00000   -0.00000   -0.00000   -0.00000   -0.00000    0.00000   -0.00000    0.00000
   0.00000   -0.00000    0.00000   -0.00000   -0.00000   -0.00000   -0.00000    0.00000
   0.00000    0.00000   -0.00000   -0.00000   -0.00000    0.00000    0.00000    0.00000
 prteigrs : prtvol=0 or 1, do not print more k-points.

 Eight components of 2nd-order total energy (hartree) are
 1,2,3: 0th-order hamiltonian combined with 1st-order wavefunctions
     kin0=   1.80539930E+01 eigvalue=   9.15325603E-01  local=  -9.18780378E+00
 4,5,6: 1st-order hamiltonian combined with 1st and 0th-order wfs
     kin1=  -4.25215999E+01  Hartree=   0.00000000E+00     xc=   0.00000000E+00
 7,8,9: eventually, occupation + non-local contributions
    edocc=   1.09974177E+01     enl0=   2.03439248E+00   enl1=  -3.10505007E+00
 1-9 gives the relaxation energy (to be shifted if some occ is /=2.0)
   erelax=  -2.28133250E+01
  No Ewald or frozen-wf contrib.: the relaxation energy is the total one
 2DEtotal=   -0.2281332499E+02 Ha. Also 2DEtotal=   -0.620782143350E+03 eV
    (  non-var. 2DEtotal :   -2.2813324987E+01 Ha)

 Perturbation wavevector (in red.coord.)   0.000000  0.000000  0.000000
 Perturbation : derivative vs k along direction   2
 The set of symmetries contains only one element for this perturbation.
 symkpt : not enough symmetry to change the number of k points.

[...]

 Perturbation wavevector (in red.coord.)   0.000000  0.000000  0.000000
 Perturbation : derivative vs k along direction   3
 The set of symmetries contains only one element for this perturbation.
 symkpt : not enough symmetry to change the number of k points.

-inwffil : will read wavefunctions from disk file /scratch/users/j/a/jabreu/flow_simple_4atoms/flow/w256/t1/indata/in_WFK

 Initialisation of the first-order wave-functions :
  ireadwf=   0

--- !BeginCycle
iteration_state: {dtset: 1, }
solver: {iscf: 7, nstep: 100, nline: 4, wfoptalg: 0, }
tolerances: {tolwfr: 1.00E-20, }
...

     iter   2DEtotal(Ha)        deltaE(Ha) residm    vres2
-ETOT  1  -9.3355623867205     -9.336E+00 1.199E-02 0.000E+00
 ETOT  2  -9.3394043381719     -3.842E-03 9.296E-04 0.000E+00
 ETOT  3  -9.3394304870571     -2.615E-05 6.896E-06 0.000E+00
 ETOT  4  -9.3394310962459     -6.092E-07 2.529E-06 0.000E+00
 ETOT  5  -9.3394311156014     -1.936E-08 3.529E-08 0.000E+00
 ETOT  6  -9.3394311164289     -8.276E-10 1.435E-08 0.000E+00
 ETOT  7  -9.3394311164798     -5.086E-11 3.403E-10 0.000E+00
 ETOT  8  -9.3394311164834     -3.626E-12 9.297E-11 0.000E+00
 ETOT  9  -9.3394311164837     -2.736E-13 1.114E-11 0.000E+00
 ETOT 10  -9.3394311164837     -3.908E-14 1.204E-12 0.000E+00
 ETOT 11  -9.3394311164837      0.000E+00 4.135E-13 0.000E+00
 ETOT 12  -9.3394311164837      0.000E+00 5.734E-14 0.000E+00
 ETOT 13  -9.3394311164837      0.000E+00 2.616E-14 0.000E+00
 ETOT 14  -9.3394311164837     -3.553E-15 3.390E-15 0.000E+00
 ETOT 15  -9.3394311164838     -1.776E-15 1.703E-15 0.000E+00
 ETOT 16  -9.3394311164837      3.553E-15 2.056E-16 0.000E+00
 ETOT 17  -9.3394311164838     -5.329E-15 1.108E-16 0.000E+00
 ETOT 18  -9.3394311164838      1.776E-15 1.269E-17 0.000E+00
 ETOT 19  -9.3394311164837      1.776E-15 7.183E-18 0.000E+00
 ETOT 20  -9.3394311164838     -3.553E-15 7.960E-19 0.000E+00
 ETOT 21  -9.3394311164838      1.776E-15 4.660E-19 0.000E+00
 ETOT 22  -9.3394311164837      1.776E-15 5.063E-20 0.000E+00
 ETOT 23  -9.3394311164838     -3.553E-15 3.030E-20 0.000E+00
 ETOT 24  -9.3394311164837      5.329E-15 9.989E-21 0.000E+00

 At SCF step   24   max residual=  9.99E-21 < tolwfr=  1.00E-20 =>converged.

 ----iterations are completed or convergence reached----

 dfpt_looppert: DFPT cycle converged with prtwf=-1. Will skip output of the 1st-order WFK file.
 dfpt_looppert : ek2=    1.2734871366E+01
          f-sum rule ratio=    1.4121633164E+00
 prteigrs : about to open file /scratch/users/j/a/jabreu/flow_simple_4atoms/flow/w256/t1/tmpdata/tmp_1WF1_EIG
 Expectation of eigenvalue derivatives (hartree) for nkpt=   2  k points:
  (in case of degenerate eigenvalues, averaged derivative)
 kpt#   1, nband= 24, wtk=  0.50000, kpt=  0.0000  0.5000  0.5000 (reduced coord)
  -0.00000   -0.00000    0.00000   -0.00000    0.00000   -0.00000   -0.00000    0.00000
  -0.00000    0.00000   -0.00000   -0.00000    0.00000    0.00000    0.00000   -0.00000
   0.00000   -0.00000    0.00000   -0.00000   -0.00000    0.00000   -0.00000    0.00000
 prteigrs : prtvol=0 or 1, do not print more k-points.

 Eight components of 2nd-order total energy (hartree) are
 1,2,3: 0th-order hamiltonian combined with 1st-order wavefunctions
     kin0=   5.95352074E+00 eigvalue=   1.93763865E-01  local=  -3.12636645E+00
 4,5,6: 1st-order hamiltonian combined with 1st and 0th-order wfs
     kin1=  -1.79837182E+01  Hartree=   0.00000000E+00     xc=   0.00000000E+00
 7,8,9: eventually, occupation + non-local contributions
    edocc=   5.64054021E+00     enl0=   6.77972750E-01   enl1=  -6.95144051E-01
 1-9 gives the relaxation energy (to be shifted if some occ is /=2.0)
   erelax=  -9.33943112E+00
  No Ewald or frozen-wf contrib.: the relaxation energy is the total one
 2DEtotal=   -0.9339431116E+01 Ha. Also 2DEtotal=   -0.254138845145E+03 eV
    (  non-var. 2DEtotal :   -9.3394311164E+00 Ha)

 CALCULATION OF EFFECTIVE MASSES
 NOTE : Additional infos (eff. mass eigenvalues, eigenvectors and, if degenerate, average mass) are available in stdout.

 K-point (-0.000, 0.500, 0.500) | band =    15
 Effective mass tensor:
             -1.1202401798             -0.0000000000              0.0000000001
             -0.0000000000            -10.9097397949              0.0000000001
              0.0000000001              0.0000000001             -1.5966196470
 Effective mass tensor eigenvalues:
            -10.9097397949             -1.5966196470             -1.1202401798
 Angular average effective mass 1/(<1/m>)=  -1.8626018532
 Angular average effective mass for Frohlich model (<m**0.5>)**2=  -2.2334116840
 Effective masses along directions: (cart. coord. / red. coord. -> eff. mass)
    1:   1.000000  0.000000  0.000000 /   1.000000  0.000000  0.000000 ->  -1.1202401798
    2:   0.000000  1.000000  0.000000 /   0.000000  1.000000  0.000000 -> -10.9097397949
    3:   0.000000  0.000000  1.000000 /   0.000000  0.000000  1.000000 ->  -1.5966196470
    4:   0.577350  0.577350  0.577350 /   0.451937  0.451937  0.769094 ->  -1.8626018531
    5:   0.000000  0.707107  0.707107 /   0.000000  0.506627  0.862165 ->  -2.7855756075
    6:   0.707107  0.000000  0.707107 /   0.506627  0.000000  0.862165 ->  -1.3166652639
    7:   0.707107  0.707107  0.000000 /   0.707107  0.707107  0.000000 ->  -2.0318452558

 K-point (-0.000,-0.000, 0.500) | band =    16
 Effective mass tensor:
              1.9010256404             -0.0000000000             -0.0000000000
             -0.0000000000              1.9010256405             -0.0000000000
             -0.0000000000             -0.0000000000              0.1338868003
 Effective mass tensor eigenvalues:
              0.1338868003              1.9010256404              1.9010256405
 Angular average effective mass 1/(<1/m>)=   0.3520688804
 Angular average effective mass for Frohlich model (<m**0.5>)**2=   0.5770639731
 Effective masses along directions: (cart. coord. / red. coord. -> eff. mass)
    1:   1.000000  0.000000  0.000000 /   1.000000  0.000000  0.000000 ->   1.9010256404
    2:   0.000000  1.000000  0.000000 /   0.000000  1.000000  0.000000 ->   1.9010256405
    3:   0.000000  0.000000  1.000000 /   0.000000  0.000000  1.000000 ->   0.1338868003
    4:   0.577350  0.577350  0.577350 /   0.451937  0.451937  0.769094 ->   0.3520688804
    5:   0.000000  0.707107  0.707107 /   0.000000  0.506627  0.862165 ->   0.2501554712
    6:   0.707107  0.000000  0.707107 /   0.506627  0.000000  0.862165 ->   0.2501554712
    7:   0.707107  0.707107  0.000000 /   0.707107  0.707107  0.000000 ->   1.9010256404

 END OF EFFECTIVE MASSES SECTION

 ---- first-order wavefunction calculations are completed ----

 Total localisation tensor (bohr^2) in cartesian coordinates
  WARNING : still subject to testing - especially symmetries.
      direction              matrix element
   alpha     beta       real part   imaginary part
     1        1       1.2002637709    0.0000000000
     1        2       0.0000000000    0.0000000000
     1        3       0.0000000000    0.0000000000
     2        1       0.0000000000    0.0000000000
     2        2       0.9845829635    0.0000000000
     2        3       0.0000000000    0.0000000000
     3        1       0.0000000000    0.0000000000
     3        2       0.0000000000    0.0000000000
     3        3       3.3214978093    0.0000000000

 respfn : d/dk was computed, but no 2DTE, so no DDB output.

== END DATASET(S) ==============================================================

 -outvars: echo values of variables after computation  --------
            acell      1.0000000000E+00  1.0000000000E+00  1.0000000000E+00 Bohr
              amu      1.32905430E+02  7.99040000E+01  1.89984032E+01
             ecut      4.20000000E+01 Hartree
           etotal     -9.3394311165E+00
            fcart      0.0000000000E+00  0.0000000000E+00  0.0000000000E+00
                       0.0000000000E+00  0.0000000000E+00  0.0000000000E+00
                       0.0000000000E+00  0.0000000000E+00  0.0000000000E+00
                       0.0000000000E+00  0.0000000000E+00  0.0000000000E+00
-          fftalg         512
           irdden           1
           irdwfk           1
           istwfk        1    1
              ixc     -116133
              kpt     -3.08148791E-33  5.00000000E-01  5.00000000E-01
                      -3.08148791E-33 -6.16297582E-33  5.00000000E-01
           kptopt           0
P           mkmem           2
P          mkqmem           2
P          mk1mem           2
            natom           4
            nband          24
           nbdbuf           4
            ngfft          48      48      80
             nkpt           2
            nstep         100
             nsym          16
           ntypat           3
              occ      2.000000  2.000000  2.000000  2.000000  2.000000  2.000000
                       2.000000  2.000000  2.000000  2.000000  2.000000  2.000000
                       2.000000  2.000000  2.000000  0.000000  0.000000  0.000000
                       0.000000  0.000000  0.000000  0.000000  0.000000  0.000000
        optdriver           1
            prtwf          -1
            rfdir           1       1       1
           rfelfd           2
            rprim      8.0141272009E+00  0.0000000000E+00  0.0000000000E+00
                       0.0000000000E+00  8.0141272009E+00  0.0000000000E+00
                       0.0000000000E+00  0.0000000000E+00  1.3638236344E+01
          spgroup         123
           strten      0.0000000000E+00  0.0000000000E+00  0.0000000000E+00
                       0.0000000000E+00  0.0000000000E+00  0.0000000000E+00
           symrel      1  0  0   0  1  0   0  0  1      -1  0  0   0 -1  0   0  0 -1
                      -1  0  0   0  1  0   0  0 -1       1  0  0   0 -1  0   0  0  1
                      -1  0  0   0 -1  0   0  0  1       1  0  0   0  1  0   0  0 -1
                       1  0  0   0 -1  0   0  0 -1      -1  0  0   0  1  0   0  0  1
                       0  1  0   1  0  0   0  0  1       0 -1  0  -1  0  0   0  0 -1
                       0 -1  0   1  0  0   0  0 -1       0  1  0  -1  0  0   0  0  1
                       0 -1  0  -1  0  0   0  0  1       0  1  0   1  0  0   0  0 -1
                       0  1  0  -1  0  0   0  0 -1       0 -1  0   1  0  0   0  0  1
           tolwfr      1.00000000E-20
            typat      1  2  2  3
           useylm           1
              wtk        0.50000    0.50000
           xangst      0.0000000000E+00  0.0000000000E+00  0.0000000000E+00
                       2.1204467307E+00  2.1204467307E+00  2.4216934941E+00
                       2.1204467307E+00  2.1204467307E+00  4.7953503444E+00
                       2.1204467307E+00  2.1204467307E+00  0.0000000000E+00
            xcart      0.0000000000E+00  0.0000000000E+00  0.0000000000E+00
                       4.0070636004E+00  4.0070636004E+00  4.5763374816E+00
                       4.0070636004E+00  4.0070636004E+00  9.0618988621E+00
                       4.0070636004E+00  4.0070636004E+00  0.0000000000E+00
             xred      0.0000000000E+00  0.0000000000E+00  0.0000000000E+00
                       5.0000000000E-01  5.0000000000E-01  3.3555200000E-01
                       5.0000000000E-01  5.0000000000E-01  6.6444800000E-01
                       5.0000000000E-01  5.0000000000E-01  0.0000000000E+00
            znucl       55.00000   35.00000    9.00000

- Timing analysis has been suppressed with timopt=0

 Suggested references for the acknowledgment of ABINIT usage.

 Calculation completed.
.Delivered  14 WARNINGs and   9 COMMENTs to log file.