.Version 9.5.1 of ABINIT

 ABINIT is a project of the Universite Catholique de Louvain,
 Corning Inc. and other collaborators, see ~abinit/doc/developers/contributors.txt .
 acknowledgments of the ABINIT effort.

.Starting date : Tue  4 May 2021.
- ( at 19h50 )

- input  file    -> /scratch/users/j/a/jabreu/flow_simple_6atoms/flow/w248/t1/run.abi
- output file    -> /scratch/users/j/a/jabreu/flow_simple_6atoms/flow/w248/t1/run.abo
- root for input  files -> /scratch/users/j/a/jabreu/flow_simple_6atoms/flow/w248/t1/indata/in
- root for output files -> /scratch/users/j/a/jabreu/flow_simple_6atoms/flow/w248/t1/outdata/out

 Symmetries : space group P4/n m m (#129); Bravais tP (primitive tetrag.)
     intxc =       0      iscf =       7    lmnmax =      18     lnmax =       6
     mgfft =      90  mpssoang =       3    mqgrid =    4021     natom =       6
  nloc_mem =       1    nspden =       1   nspinor =       1    nsppol =       1
      nsym =      16    n1xccc =    2501    ntypat =       3    occopt =       1
   xclevel =       2
-    mband =          33        mffmem =           1         mkmem =           1
-   mkqmem =           1        mk1mem =           1           mpw =       11181
      nfft =      207360          nkpt =           1
  Rough estimation (10% accuracy) of disk space for files :

------------- Echo of variables that govern the present computation ------------
-
- outvars: echo of selected default values
-   iomode0 =  0 , fftalg0 =512 , wfoptalg0 =  0
-
- outvars: echo of global parameters not present in the input file
-  max_nthreads =    0
-
 -outvars: echo values of preprocessed input variables --------
            acell      1.0000000000E+00  1.0000000000E+00  1.0000000000E+00 Bohr
              amu      8.76200000E+01  7.99040000E+01  1.89984032E+01
             ecut      4.20000000E+01 Hartree
-          fftalg         512
           irdden           1
           irdwfk           1
           istwfk        1
              ixc     -116133
           kptopt           0
P           mkmem           1
P          mkqmem           1
P          mk1mem           1
            natom           6
            nband          33
           nbdbuf           4
            ngfft          48      48      90
             nkpt           1
            nstep        1000
             nsym          16
           ntypat           3
              occ      2.000000  2.000000  2.000000  2.000000  2.000000  2.000000
                       2.000000  2.000000  2.000000  2.000000  2.000000  2.000000
                       2.000000  2.000000  2.000000  2.000000  2.000000  2.000000
                       2.000000  2.000000  2.000000  2.000000  2.000000  2.000000
                       0.000000  0.000000  0.000000  0.000000  0.000000  0.000000
                       0.000000  0.000000  0.000000
        optdriver           1
            prtwf          -1
            rfdir           1       1       1
           rfelfd           2
            rprim      7.8874521125E+00  0.0000000000E+00  0.0000000000E+00
                       0.0000000000E+00  7.8874521125E+00  0.0000000000E+00
                       0.0000000000E+00  0.0000000000E+00  1.3782491214E+01
          spgroup         129
           symrel      1  0  0   0  1  0   0  0  1      -1  0  0   0 -1  0   0  0 -1
                      -1  0  0   0  1  0   0  0 -1       1  0  0   0 -1  0   0  0  1
                      -1  0  0   0 -1  0   0  0  1       1  0  0   0  1  0   0  0 -1
                       1  0  0   0 -1  0   0  0 -1      -1  0  0   0  1  0   0  0  1
                       0  1  0   1  0  0   0  0  1       0 -1  0  -1  0  0   0  0 -1
                       0 -1  0   1  0  0   0  0 -1       0  1  0  -1  0  0   0  0  1
                       0 -1  0  -1  0  0   0  0  1       0  1  0   1  0  0   0  0 -1
                       0  1  0  -1  0  0   0  0 -1       0 -1  0   1  0  0   0  0  1
            tnons      0.0000000  0.0000000  0.0000000     0.5000000  0.5000000  0.0000000
                       0.5000000  0.5000000  0.0000000     0.0000000  0.0000000  0.0000000
                       0.0000000  0.0000000  0.0000000     0.5000000  0.5000000  0.0000000
                       0.5000000  0.5000000  0.0000000     0.0000000  0.0000000  0.0000000
                       0.5000000  0.5000000  0.0000000     0.0000000  0.0000000  0.0000000
                       0.0000000  0.0000000  0.0000000     0.5000000  0.5000000  0.0000000
                       0.5000000  0.5000000  0.0000000     0.0000000  0.0000000  0.0000000
                       0.0000000  0.0000000  0.0000000     0.5000000  0.5000000  0.0000000
           tolwfr      1.00000000E-20
            typat      1  1  2  2  3  3
           useylm           1
           xangst      0.0000000000E+00  2.0869299459E+00  5.9401154070E+00
                       2.0869299459E+00  0.0000000000E+00  1.3532648212E+00
                       2.0869299459E+00  0.0000000000E+00  4.7147910617E+00
                       0.0000000000E+00  2.0869299459E+00  2.5785891664E+00
                       2.0869299459E+00  2.0869299459E+00  0.0000000000E+00
                       0.0000000000E+00  0.0000000000E+00  0.0000000000E+00
            xcart      0.0000000000E+00  3.9437260563E+00  1.1225191317E+01
                       3.9437260563E+00  0.0000000000E+00  2.5572998973E+00
                       3.9437260563E+00  0.0000000000E+00  8.9096638804E+00
                       0.0000000000E+00  3.9437260563E+00  4.8728273338E+00
                       3.9437260563E+00  3.9437260563E+00  0.0000000000E+00
                       0.0000000000E+00  0.0000000000E+00  0.0000000000E+00
             xred      0.0000000000E+00  5.0000000000E-01  8.1445300000E-01
                       5.0000000000E-01  0.0000000000E+00  1.8554700000E-01
                       5.0000000000E-01  0.0000000000E+00  6.4644800000E-01
                       0.0000000000E+00  5.0000000000E-01  3.5355200000E-01
                       5.0000000000E-01  5.0000000000E-01  0.0000000000E+00
                       0.0000000000E+00  0.0000000000E+00  0.0000000000E+00
            znucl       38.00000   35.00000    9.00000

 chkinp: Checking input parameters for consistency.

== DATASET  1 ==================================================================
-   mpi_nproc: 1, omp_nthreads: -1 (-1 if OMP is not activated)

--- !DatasetInfo
iteration_state: {dtset: 1, }
dimensions: {natom: 6, nkpt: 1, mband: 33, nsppol: 1, nspinor: 1, nspden: 1, mpw: 11181, }
cutoff_energies: {ecut:  42.0, pawecutdg:  -1.0, }
electrons: {nelect:   4.80000000E+01, charge:   0.00000000E+00, occopt:   1.00000000E+00, tsmear:   1.00000000E-02, }
meta: {optdriver: 1, rfelfd: 2, }
...

 Real(R)+Recip(G) space primitive vectors, cartesian coordinates (Bohr,Bohr^-1):
 R(1)=  7.8874521  0.0000000  0.0000000  G(1)=  0.1267837  0.0000000  0.0000000
 R(2)=  0.0000000  7.8874521  0.0000000  G(2)=  0.0000000  0.1267837  0.0000000
 R(3)=  0.0000000  0.0000000 13.7824912  G(3)=  0.0000000  0.0000000  0.0725558
 Unit cell volume ucvol=  8.5743498E+02 bohr^3
 Angles (23,13,12)=  9.00000000E+01  9.00000000E+01  9.00000000E+01 degrees

 getcut: wavevector=  0.0000  0.0000  0.0000  ngfft=  48  48  90
         ecut(hartree)=     42.000   => boxcut(ratio)=   2.08600

--- Pseudopotential description ------------------------------------------------
- pspini: atom type   1  psp file is /scratch/users/j/a/jabreu/pseudos/PBEsol/Sr.psp8
- pspatm: opening atomic psp file    /scratch/users/j/a/jabreu/pseudos/PBEsol/Sr.psp8
- Sr    ONCVPSP-3.3.0  r_core=   1.66721   1.31335   1.51547
- 38.00000  10.00000    180112                znucl, zion, pspdat
    8 -116133    2    4       600   0.00000   pspcod,pspxc,lmax,lloc,mmax,r2well
    5.99000000000000    6.00000000000000    0.00000000000000   rchrg,fchrg,qchrg
     nproj     2     2     2
     extension_switch     1
  pspatm : epsatm=   12.46450977
         --- l  ekb(1:nproj) -->
             0   10.029206    1.044171
             1    7.472414    1.670829
             2    4.142950    0.968140
 pspatm: atomic psp has been read  and splines computed

- pspini: atom type   2  psp file is /scratch/users/j/a/jabreu/pseudos/PBEsol/Br.psp8
- pspatm: opening atomic psp file    /scratch/users/j/a/jabreu/pseudos/PBEsol/Br.psp8
- Br    ONCVPSP-3.3.0  r_core=   1.81012   1.51356   1.92136
- 35.00000   7.00000    180112                znucl, zion, pspdat
    8 -116133    2    4       600   0.00000   pspcod,pspxc,lmax,lloc,mmax,r2well
    5.99000000000000    8.00000000000000    0.00000000000000   rchrg,fchrg,qchrg
     nproj     2     2     2
     extension_switch     1
  pspatm : epsatm=   10.94933070
         --- l  ekb(1:nproj) -->
             0    8.508690    0.897946
             1    5.393311    0.892021
             2    2.527513    0.394763
 pspatm: atomic psp has been read  and splines computed

- pspini: atom type   3  psp file is /scratch/users/j/a/jabreu/pseudos/PBEsol/F.psp8
- pspatm: opening atomic psp file    /scratch/users/j/a/jabreu/pseudos/PBEsol/F.psp8
- F     ONCVPSP-3.3.0  r_core=   1.30942   1.45782   1.60379
-  9.00000   7.00000    180112                znucl, zion, pspdat
    8 -116133    2    4       600   0.00000   pspcod,pspxc,lmax,lloc,mmax,r2well
    5.99000000000000    2.50000000000000    0.00000000000000   rchrg,fchrg,qchrg
     nproj     2     2     1
     extension_switch     1
  pspatm : epsatm=    4.89824824
         --- l  ekb(1:nproj) -->
             0    6.506434    1.065875
             1   -3.978753   -1.295852
             2   -2.394754
 pspatm: atomic psp has been read  and splines computed

   2.71796052E+03                                ecore*ucvol(ha*bohr**3)

-inwffil : will read wavefunctions from disk file /scratch/users/j/a/jabreu/flow_simple_6atoms/flow/w248/t1/indata/in_WFK

 ==>  initialize data related to q vector <==

 The list of irreducible perturbations for this q vector is:
    1)    idir= 1    ipert=   7
    2)    idir= 2    ipert=   7
    3)    idir= 3    ipert=   7

 Perturbation wavevector (in red.coord.)   0.000000  0.000000  0.000000
 Perturbation : derivative vs k along direction   1

 dfpt_looppert : COMMENT -
  In a d/dk calculation, iscf is set to -3 automatically.
 The set of symmetries contains only one element for this perturbation.
 symkpt : not enough symmetry to change the number of k points.

[...]

 Initialisation of the first-order wave-functions :
  ireadwf=   0

--- !BeginCycle
iteration_state: {dtset: 1, }
solver: {iscf: 7, nstep: 1000, nline: 4, wfoptalg: 0, }
tolerances: {tolwfr: 1.00E-20, }
...

     iter   2DEtotal(Ha)        deltaE(Ha) residm    vres2
-ETOT  1  -35.278873181153     -3.528E+01 1.806E-02 0.000E+00
 ETOT  2  -35.294906992536     -1.603E-02 2.689E-03 0.000E+00
 ETOT  3  -35.294953728758     -4.674E-05 1.073E-04 0.000E+00
 ETOT  4  -35.294954109229     -3.805E-07 3.001E-05 0.000E+00
 ETOT  5  -35.294954112887     -3.658E-09 2.183E-06 0.000E+00
 ETOT  6  -35.294954112923     -3.637E-11 4.563E-07 0.000E+00
 ETOT  7  -35.294954112924     -4.192E-13 4.016E-08 0.000E+00
 ETOT  8  -35.294954112924     -3.553E-14 8.396E-09 0.000E+00
[...]
 ETOT 15  -35.294954112924      0.000E+00 5.573E-15 0.000E+00
 ETOT 16  -35.294954112924     -7.105E-15 1.236E-15 0.000E+00
 ETOT 17  -35.294954112924     -1.421E-14 1.113E-16 0.000E+00
 ETOT 18  -35.294954112924      0.000E+00 2.490E-17 0.000E+00
 ETOT 19  -35.294954112924      0.000E+00 2.240E-18 0.000E+00
 ETOT 20  -35.294954112924      0.000E+00 5.051E-19 0.000E+00
 ETOT 21  -35.294954112924      0.000E+00 4.536E-20 0.000E+00
 ETOT 22  -35.294954112924      1.421E-14 1.030E-20 0.000E+00
 ETOT 23  -35.294954112924      0.000E+00 8.917E-21 0.000E+00

 At SCF step   23   max residual=  8.92E-21 < tolwfr=  1.00E-20 =>converged.

 ----iterations are completed or convergence reached----

 dfpt_looppert: DFPT cycle converged with prtwf=-1. Will skip output of the 1st-order WFK file.
 dfpt_looppert : ek2=    6.0919663917E+01
          f-sum rule ratio=    1.1224106331E+00
 prteigrs : about to open file /scratch/users/j/a/jabreu/flow_simple_6atoms/flow/w248/t1/tmpdata/tmp_1WF1_EIG
 Expectation of eigenvalue derivatives (hartree) for nkpt=   1  k points:
  (in case of degenerate eigenvalues, averaged derivative)
 kpt#   1, nband= 33, wtk=  1.00000, kpt=  0.0000  0.0000  0.0000 (reduced coord)
  -0.00000   -0.00000   -0.00000   -0.00000   -0.00000   -0.00000    0.00000    0.00000
  -0.00000   -0.00000   -0.00000   -0.00000    0.00000   -0.00000   -0.00000   -0.00000
  -0.00000   -0.00000   -0.00000   -0.00000   -0.00000    0.00000    0.00000    0.00000
   0.00000    0.00000    0.00000    0.00000    0.00000    0.00000   -0.00000    0.00000
   0.00011

 Eight components of 2nd-order total energy (hartree) are
 1,2,3: 0th-order hamiltonian combined with 1st-order wavefunctions
     kin0=   3.43125689E+01 eigvalue=   2.30030925E-01  local=  -1.72288841E+01
 4,5,6: 1st-order hamiltonian combined with 1st and 0th-order wfs
     kin1=  -6.83768785E+01  Hartree=   0.00000000E+00     xc=   0.00000000E+00
 7,8,9: eventually, occupation + non-local contributions
    edocc=   1.47129287E+01     enl0=   3.26830965E+00   enl1=  -2.21302968E+00
 1-9 gives the relaxation energy (to be shifted if some occ is /=2.0)
   erelax=  -3.52949541E+01
  No Ewald or frozen-wf contrib.: the relaxation energy is the total one
 2DEtotal=   -0.3529495411E+02 Ha. Also 2DEtotal=   -0.960424544688E+03 eV
    (  non-var. 2DEtotal :   -3.5294954113E+01 Ha)

 Perturbation wavevector (in red.coord.)   0.000000  0.000000  0.000000
 Perturbation : derivative vs k along direction   2
 The set of symmetries contains only one element for this perturbation.
 symkpt : not enough symmetry to change the number of k points.

[...]

 Perturbation wavevector (in red.coord.)   0.000000  0.000000  0.000000
 Perturbation : derivative vs k along direction   3
 The set of symmetries contains only one element for this perturbation.
 symkpt : not enough symmetry to change the number of k points.

-inwffil : will read wavefunctions from disk file /scratch/users/j/a/jabreu/flow_simple_6atoms/flow/w248/t1/indata/in_WFK

 Initialisation of the first-order wave-functions :
  ireadwf=   0

--- !BeginCycle
iteration_state: {dtset: 1, }
solver: {iscf: 7, nstep: 1000, nline: 4, wfoptalg: 0, }
tolerances: {tolwfr: 1.00E-20, }
...

     iter   2DEtotal(Ha)        deltaE(Ha) residm    vres2
-ETOT  1  -10.812836603841     -1.081E+01 2.087E-02 0.000E+00
 ETOT  2  -10.819838335049     -7.002E-03 9.606E-05 0.000E+00
 ETOT  3  -10.819844035799     -5.701E-06 4.637E-07 0.000E+00
 ETOT  4  -10.819844053045     -1.725E-08 5.189E-09 0.000E+00
 ETOT  5  -10.819844053164     -1.191E-10 1.461E-10 0.000E+00
 ETOT  6  -10.819844053165     -1.114E-12 1.266E-12 0.000E+00
 ETOT  7  -10.819844053165     -3.553E-14 8.839E-14 0.000E+00
 ETOT  8  -10.819844053165     -5.329E-15 7.101E-16 0.000E+00
 ETOT  9  -10.819844053165      0.000E+00 7.843E-17 0.000E+00
 ETOT 10  -10.819844053165      3.553E-15 6.683E-19 0.000E+00
 ETOT 11  -10.819844053165     -3.553E-15 9.808E-20 0.000E+00
 ETOT 12  -10.819844053165      1.776E-15 8.849E-21 0.000E+00

 At SCF step   12   max residual=  8.85E-21 < tolwfr=  1.00E-20 =>converged.

 ----iterations are completed or convergence reached----

 dfpt_looppert: DFPT cycle converged with prtwf=-1. Will skip output of the 1st-order WFK file.
 dfpt_looppert : ek2=    1.9951498559E+01
          f-sum rule ratio=    1.0508240365E+00
 prteigrs : about to open file /scratch/users/j/a/jabreu/flow_simple_6atoms/flow/w248/t1/tmpdata/tmp_1WF1_EIG
 Expectation of eigenvalue derivatives (hartree) for nkpt=   1  k points:
  (in case of degenerate eigenvalues, averaged derivative)
 kpt#   1, nband= 33, wtk=  1.00000, kpt=  0.0000  0.0000  0.0000 (reduced coord)
  -0.00000   -0.00000   -0.00000   -0.00000    0.00000    0.00000    0.00000    0.00000
  -0.00000   -0.00000   -0.00000   -0.00000    0.00000   -0.00000   -0.00000    0.00000
   0.00000    0.00000    0.00000    0.00000    0.00000    0.00000   -0.00000   -0.00000
  -0.00000    0.00000    0.00000   -0.00000   -0.00000   -0.00000    0.00000    0.00000
   0.00180

 Eight components of 2nd-order total energy (hartree) are
 1,2,3: 0th-order hamiltonian combined with 1st-order wavefunctions
     kin0=   1.24431067E+01 eigvalue=   1.72912769E-01  local=  -6.18185579E+00
 4,5,6: 1st-order hamiltonian combined with 1st and 0th-order wfs
     kin1=  -2.09655142E+01  Hartree=   0.00000000E+00     xc=   0.00000000E+00
 7,8,9: eventually, occupation + non-local contributions
    edocc=   3.34639876E+00     enl0=   1.03928166E+00   enl1=  -6.74173856E-01
 1-9 gives the relaxation energy (to be shifted if some occ is /=2.0)
   erelax=  -1.08198441E+01
  No Ewald or frozen-wf contrib.: the relaxation energy is the total one
 2DEtotal=   -0.1081984405E+02 Ha. Also 2DEtotal=   -0.294422929836E+03 eV
    (  non-var. 2DEtotal :   -1.0819844053E+01 Ha)

 CALCULATION OF EFFECTIVE MASSES
 NOTE : Additional infos (eff. mass eigenvalues, eigenvectors and, if degenerate, average mass) are available in stdout.

 COMMENTS:
 - At k-point ( 0.000, 0.000, 0.000), bands    23 through    24
   are DEGENERATE (effective mass tensor is therefore not defined).
   See Section IIIB Eqs. (67)-(70) and Appendix E of PRB 93 205147 (2016).
 - Angular average effective mass for Frohlich model is to be averaged over degenerate bands. See later.
 - Associated theta integrals calculated with ntheta=   1000 points.

 K-point ( 0.000, 0.000, 0.000) | band =    23
 Transport equivalent effective mass tensor:
             -0.4532949081              0.0000003986              0.0000017392
              0.0000003986             -0.4532939043             -0.0000009558
              0.0000017392             -0.0000009558             -6.6414972304
 Transport equivalent effective mass tensor eigenvalues:
             -6.6414972304             -0.4532950471             -0.4532937652
 Angular average effective mass 1/(<1/m>)=  -0.6562428827
 Angular average effective mass for Frohlich model (<m**0.5>)**2=  -0.8288966433
 Effective masses along directions: (cart. coord. / red. coord. -> eff. mass)
    1:   1.000000  0.000000  0.000000 /   1.000000  0.000000  0.000000 ->  -0.4654242400
    2:   0.000000  1.000000  0.000000 /   0.000000  1.000000  0.000000 ->  -0.4654242372
    3:   0.000000  0.000000  1.000000 /   0.000000  0.000000  1.000000 ->  -6.6214749005
    4:   0.577350  0.577350  0.577350 /   0.444845  0.444845  0.777320 ->  -0.6395727026
    5:   0.000000  0.707107  0.707107 /   0.000000  0.496696  0.867924 ->  -0.8697164195
    6:   0.707107  0.000000  0.707107 /   0.496696  0.000000  0.867924 ->  -0.8697162836
    7:   0.707107  0.707107  0.000000 /   0.707107  0.707107  0.000000 ->  -0.4405666771

 K-point ( 0.000, 0.000, 0.000) | band =    24
 Transport equivalent effective mass tensor:
             -2.4044998669             -0.0000036262             -0.0000001784
             -0.0000036262             -2.4045019832             -0.0000008967
             -0.0000001784             -0.0000008967             -7.1465942515
 Transport equivalent effective mass tensor eigenvalues:
             -7.1465942515             -2.4045047025             -2.4044971476
 Angular average effective mass 1/(<1/m>)=  -2.9309169913
 Angular average effective mass for Frohlich model (<m**0.5>)**2=  -3.1238462205
 Effective masses along directions: (cart. coord. / red. coord. -> eff. mass)
    1:   1.000000  0.000000  0.000000 /   1.000000  0.000000  0.000000 ->  -2.0083376276
    2:   0.000000  1.000000  0.000000 /   0.000000  1.000000  0.000000 ->  -2.0083376278
    3:   0.000000  0.000000  1.000000 /   0.000000  0.000000  1.000000 ->  -6.6215716853
    4:   0.577350  0.577350  0.577350 /   0.444845  0.444845  0.777320 ->  -3.3170531251
    5:   0.000000  0.707107  0.707107 /   0.000000  0.496696  0.867924 ->  -3.0819201740
    6:   0.707107  0.000000  0.707107 /   0.496696  0.000000  0.867924 ->  -3.0819130981
    7:   0.707107  0.707107  0.000000 /   0.707107  0.707107  0.000000 ->  -2.6546489607

 Angular average effective mass for Frohlich model, averaged over degenerate bands.
 Value of     (<<m**0.5>>)**2 =     1.792758E+00
 Absolute Value of <<m**0.5>> =     1.338939E+00

 K-point ( 0.000, 0.000, 0.000) | band =    25
 Effective mass tensor:
              0.4126112508             -0.0000000554              0.0000000158
             -0.0000000554              0.4126113365              0.0000000123
              0.0000000158              0.0000000123              0.8972357300
 Effective mass tensor eigenvalues:
              0.4126112236              0.4126113637              0.8972357300
 Angular average effective mass 1/(<1/m>)=   0.5032112112
 Angular average effective mass for Frohlich model (<m**0.5>)**2=   0.5206575880
 Effective masses along directions: (cart. coord. / red. coord. -> eff. mass)
    1:   1.000000  0.000000  0.000000 /   1.000000  0.000000  0.000000 ->   0.4126112508
    2:   0.000000  1.000000  0.000000 /   0.000000  1.000000  0.000000 ->   0.4126113365
    3:   0.000000  0.000000  1.000000 /   0.000000  0.000000  1.000000 ->   0.8972357300
    4:   0.577350  0.577350  0.577350 /   0.444845  0.444845  0.777320 ->   0.5032111691
    5:   0.000000  0.707107  0.707107 /   0.000000  0.496696  0.867924 ->   0.5652715498
    6:   0.707107  0.000000  0.707107 /   0.496696  0.000000  0.867924 ->   0.5652714725
    7:   0.707107  0.707107  0.000000 /   0.707107  0.707107  0.000000 ->   0.4126112382

 END OF EFFECTIVE MASSES SECTION

 ---- first-order wavefunction calculations are completed ----

 Total localisation tensor (bohr^2) in cartesian coordinates
  WARNING : still subject to testing - especially symmetries.
      direction              matrix element
   alpha     beta       real part   imaginary part
     1        1       1.1029789648    0.0000000000
     1        2       0.0000000000    0.0000000000
     1        3       0.0000000000    0.0000000000
     2        1       0.0000000000    0.0000000000
     2        2       1.1029833591    0.0000000000
     2        3       0.0000000000    0.0000000000
     3        1       0.0000000000    0.0000000000
     3        2       0.0000000000    0.0000000000
     3        3       0.9220312234    0.0000000000

 respfn : d/dk was computed, but no 2DTE, so no DDB output.

== END DATASET(S) ==============================================================

 -outvars: echo values of variables after computation  --------
            acell      1.0000000000E+00  1.0000000000E+00  1.0000000000E+00 Bohr
              amu      8.76200000E+01  7.99040000E+01  1.89984032E+01
             ecut      4.20000000E+01 Hartree
           etotal     -1.0819844053E+01
            fcart      0.0000000000E+00  0.0000000000E+00  0.0000000000E+00
                       0.0000000000E+00  0.0000000000E+00  0.0000000000E+00
                       0.0000000000E+00  0.0000000000E+00  0.0000000000E+00
                       0.0000000000E+00  0.0000000000E+00  0.0000000000E+00
                       0.0000000000E+00  0.0000000000E+00  0.0000000000E+00
                       0.0000000000E+00  0.0000000000E+00  0.0000000000E+00
-          fftalg         512
           irdden           1
           irdwfk           1
           istwfk        1
              ixc     -116133
           kptopt           0
P           mkmem           1
P          mkqmem           1
P          mk1mem           1
            natom           6
            nband          33
           nbdbuf           4
            ngfft          48      48      90
             nkpt           1
            nstep        1000
             nsym          16
           ntypat           3
              occ      2.000000  2.000000  2.000000  2.000000  2.000000  2.000000
                       2.000000  2.000000  2.000000  2.000000  2.000000  2.000000
                       2.000000  2.000000  2.000000  2.000000  2.000000  2.000000
                       2.000000  2.000000  2.000000  2.000000  2.000000  2.000000
                       0.000000  0.000000  0.000000  0.000000  0.000000  0.000000
                       0.000000  0.000000  0.000000
        optdriver           1
            prtwf          -1
            rfdir           1       1       1
           rfelfd           2
            rprim      7.8874521125E+00  0.0000000000E+00  0.0000000000E+00
                       0.0000000000E+00  7.8874521125E+00  0.0000000000E+00
                       0.0000000000E+00  0.0000000000E+00  1.3782491214E+01
          spgroup         129
           strten      0.0000000000E+00  0.0000000000E+00  0.0000000000E+00
                       0.0000000000E+00  0.0000000000E+00  0.0000000000E+00
           symrel      1  0  0   0  1  0   0  0  1      -1  0  0   0 -1  0   0  0 -1
                      -1  0  0   0  1  0   0  0 -1       1  0  0   0 -1  0   0  0  1
                      -1  0  0   0 -1  0   0  0  1       1  0  0   0  1  0   0  0 -1
                       1  0  0   0 -1  0   0  0 -1      -1  0  0   0  1  0   0  0  1
                       0  1  0   1  0  0   0  0  1       0 -1  0  -1  0  0   0  0 -1
                       0 -1  0   1  0  0   0  0 -1       0  1  0  -1  0  0   0  0  1
                       0 -1  0  -1  0  0   0  0  1       0  1  0   1  0  0   0  0 -1
                       0  1  0  -1  0  0   0  0 -1       0 -1  0   1  0  0   0  0  1
            tnons      0.0000000  0.0000000  0.0000000     0.5000000  0.5000000  0.0000000
                       0.5000000  0.5000000  0.0000000     0.0000000  0.0000000  0.0000000
                       0.0000000  0.0000000  0.0000000     0.5000000  0.5000000  0.0000000
                       0.5000000  0.5000000  0.0000000     0.0000000  0.0000000  0.0000000
                       0.5000000  0.5000000  0.0000000     0.0000000  0.0000000  0.0000000
                       0.0000000  0.0000000  0.0000000     0.5000000  0.5000000  0.0000000
                       0.5000000  0.5000000  0.0000000     0.0000000  0.0000000  0.0000000
                       0.0000000  0.0000000  0.0000000     0.5000000  0.5000000  0.0000000
           tolwfr      1.00000000E-20
            typat      1  1  2  2  3  3
           useylm           1
           xangst      0.0000000000E+00  2.0869299459E+00  5.9401154070E+00
                       2.0869299459E+00  0.0000000000E+00  1.3532648212E+00
                       2.0869299459E+00  0.0000000000E+00  4.7147910617E+00
                       0.0000000000E+00  2.0869299459E+00  2.5785891664E+00
                       2.0869299459E+00  2.0869299459E+00  0.0000000000E+00
                       0.0000000000E+00  0.0000000000E+00  0.0000000000E+00
            xcart      0.0000000000E+00  3.9437260563E+00  1.1225191317E+01
                       3.9437260563E+00  0.0000000000E+00  2.5572998973E+00
                       3.9437260563E+00  0.0000000000E+00  8.9096638804E+00
                       0.0000000000E+00  3.9437260563E+00  4.8728273338E+00
                       3.9437260563E+00  3.9437260563E+00  0.0000000000E+00
                       0.0000000000E+00  0.0000000000E+00  0.0000000000E+00
             xred      0.0000000000E+00  5.0000000000E-01  8.1445300000E-01
                       5.0000000000E-01  0.0000000000E+00  1.8554700000E-01
                       5.0000000000E-01  0.0000000000E+00  6.4644800000E-01
                       0.0000000000E+00  5.0000000000E-01  3.5355200000E-01
                       5.0000000000E-01  5.0000000000E-01  0.0000000000E+00
                       0.0000000000E+00  0.0000000000E+00  0.0000000000E+00
            znucl       38.00000   35.00000    9.00000

- Timing analysis has been suppressed with timopt=0

 Suggested references for the acknowledgment of ABINIT usage.

 Calculation completed.
.Delivered   6 WARNINGs and   5 COMMENTs to log file.