.Version 9.5.1 of ABINIT

 ABINIT is a project of the Universite Catholique de Louvain,
 Corning Inc. and other collaborators, see ~abinit/doc/developers/contributors.txt .
 acknowledgments of the ABINIT effort.

.Starting date : Sun 25 Apr 2021.
- ( at 17h13 )

- input  file    -> /scratch/users/j/a/jabreu/flow_simple2/flow/w142/t1/run.abi
- output file    -> /scratch/users/j/a/jabreu/flow_simple2/flow/w142/t1/run.abo
- root for input  files -> /scratch/users/j/a/jabreu/flow_simple2/flow/w142/t1/indata/in
- root for output files -> /scratch/users/j/a/jabreu/flow_simple2/flow/w142/t1/outdata/out

 Symmetries : space group Fm -3 m (#225); Bravais cF (face-center cubic)
     intxc =       0      iscf =       7    lmnmax =      18     lnmax =       6
     mgfft =      45  mpssoang =       3    mqgrid =    3001     natom =       2
  nloc_mem =       1    nspden =       1   nspinor =       1    nsppol =       1
      nsym =      48    n1xccc =    2501    ntypat =       2    occopt =       1
   xclevel =       2
-    mband =          22        mffmem =           1         mkmem =           2
-   mkqmem =           2        mk1mem =           2           mpw =        3708
      nfft =       91125          nkpt =           2
  Rough estimation (10% accuracy) of disk space for files :

------------- Echo of variables that govern the present computation ------------
-
- outvars: echo of selected default values
-   iomode0 =  0 , fftalg0 =512 , wfoptalg0 =  0
-
- outvars: echo of global parameters not present in the input file
-  max_nthreads =    0
-
 -outvars: echo values of preprocessed input variables --------
            acell      1.0000000000E+00  1.0000000000E+00  1.0000000000E+00 Bohr
              amu      1.07868200E+02  3.54527000E+01
             ecut      4.30000000E+01 Hartree
-          fftalg         512
           irdden           1
           irdwfk           1
           istwfk        1    1
              ixc     -116133
              kpt      5.00000000E-01  5.00000000E-01  5.00000000E-01
                       0.00000000E+00  0.00000000E+00  0.00000000E+00
           kptopt           0
P           mkmem           2
P          mkqmem           2
P          mk1mem           2
            natom           2
            nband          22
           nbdbuf           4
            ngfft          45      45      45
             nkpt           2
            nstep         100
             nsym          48
           ntypat           2
              occ      2.000000  2.000000  2.000000  2.000000  2.000000  2.000000
                       2.000000  2.000000  2.000000  2.000000  2.000000  2.000000
                       2.000000  0.000000  0.000000  0.000000  0.000000  0.000000
                       0.000000  0.000000  0.000000  0.000000
        optdriver           1
            prtwf          -1
            rfdir           1       1       1
           rfelfd           2
            rprim      6.3042587061E+00  0.0000000000E+00  3.6397654610E+00
                       2.1014195687E+00  5.9437121086E+00  3.6397654610E+00
                       0.0000000000E+00  0.0000000000E+00  7.2795309220E+00
          spgroup         225
           symrel      1  0  0   0  1  0   0  0  1      -1  0  0   0 -1  0   0  0 -1
                       0 -1  1   0 -1  0   1 -1  0       0  1 -1   0  1  0  -1  1  0
                      -1  0  0  -1  0  1  -1  1  0       1  0  0   1  0 -1   1 -1  0
                       0  1 -1   1  0 -1   0  0 -1       0 -1  1  -1  0  1   0  0  1
                      -1  0  0  -1  1  0  -1  0  1       1  0  0   1 -1  0   1  0 -1
                       0 -1  1   1 -1  0   0 -1  0       0  1 -1  -1  1  0   0  1  0
                       1  0  0   0  0  1   0  1  0      -1  0  0   0  0 -1   0 -1  0
                       0  1 -1   0  0 -1   1  0 -1       0 -1  1   0  0  1  -1  0  1
                      -1  0  1  -1  1  0  -1  0  0       1  0 -1   1 -1  0   1  0  0
                       0 -1  0   1 -1  0   0 -1  1       0  1  0  -1  1  0   0  1 -1
                       1  0 -1   0  0 -1   0  1 -1      -1  0  1   0  0  1   0 -1  1
                       0  1  0   0  0  1   1  0  0       0 -1  0   0  0 -1  -1  0  0
                       1  0 -1   0  1 -1   0  0 -1      -1  0  1   0 -1  1   0  0  1
                       0 -1  0   0 -1  1   1 -1  0       0  1  0   0  1 -1  -1  1  0
                      -1  0  1  -1  0  0  -1  1  0       1  0 -1   1  0  0   1 -1  0
                       0  1  0   1  0  0   0  0  1       0 -1  0  -1  0  0   0  0 -1
                       0  0 -1   0  1 -1   1  0 -1       0  0  1   0 -1  1  -1  0  1
                       1 -1  0   0 -1  1   0 -1  0      -1  1  0   0  1 -1   0  1  0
                       0  0  1   1  0  0   0  1  0       0  0 -1  -1  0  0   0 -1  0
                      -1  1  0  -1  0  0  -1  0  1       1 -1  0   1  0  0   1  0 -1
                       0  0  1   0  1  0   1  0  0       0  0 -1   0 -1  0  -1  0  0
                       1 -1  0   0 -1  0   0 -1  1      -1  1  0   0  1  0   0  1 -1
                       0  0 -1   1  0 -1   0  1 -1       0  0  1  -1  0  1   0 -1  1
                      -1  1  0  -1  0  1  -1  0  0       1 -1  0   1  0 -1   1  0  0
           tolwfr      1.00000000E-20
            typat      1  2
           useylm           1
              wtk        0.50000    0.50000
           xangst      0.0000000000E+00  0.0000000000E+00  0.0000000000E+00
                       2.2240466829E+00  1.5726384911E+00  3.8521618531E+00
            xcart      0.0000000000E+00  0.0000000000E+00  0.0000000000E+00
                       4.2028391374E+00  2.9718560543E+00  7.2795309220E+00
             xred      0.0000000000E+00  0.0000000000E+00  0.0000000000E+00
                       5.0000000000E-01  5.0000000000E-01  5.0000000000E-01
            znucl       47.00000   17.00000

 chkinp: Checking input parameters for consistency.

== DATASET  1 ==================================================================
-   mpi_nproc: 1, omp_nthreads: -1 (-1 if OMP is not activated)

--- !DatasetInfo
iteration_state: {dtset: 1, }
dimensions: {natom: 2, nkpt: 2, mband: 22, nsppol: 1, nspinor: 1, nspden: 1, mpw: 3708, }
cutoff_energies: {ecut:  43.0, pawecutdg:  -1.0, }
electrons: {nelect:   2.60000000E+01, charge:   0.00000000E+00, occopt:   1.00000000E+00, tsmear:   1.00000000E-02, }
meta: {optdriver: 1, rfelfd: 2, }
...

 Real(R)+Recip(G) space primitive vectors, cartesian coordinates (Bohr,Bohr^-1):
 R(1)=  6.3042587  0.0000000  3.6397655  G(1)=  0.1586229 -0.0560817  0.0000000
 R(2)=  2.1014196  5.9437121  3.6397655  G(2)=  0.0000000  0.1682450  0.0000000
 R(3)=  0.0000000  0.0000000  7.2795309  G(3)= -0.0793115 -0.0560817  0.1373715
 Unit cell volume ucvol=  2.7276911E+02 bohr^3
 Angles (23,13,12)=  6.00000000E+01  6.00000000E+01  6.00000000E+01 degrees

 getcut: wavevector=  0.0000  0.0000  0.0000  ngfft=  45  45  45
         ecut(hartree)=     43.000   => boxcut(ratio)=   2.04762

--- Pseudopotential description ------------------------------------------------
- pspini: atom type   1  psp file is /scratch/users/j/a/jabreu/pseudos/PBEsol/Ag.psp8
- pspatm: opening atomic psp file    /scratch/users/j/a/jabreu/pseudos/PBEsol/Ag.psp8
- Ag    ONCVPSP-3.3.0  r_core=   1.41384   1.46535   1.61207
- 47.00000  19.00000    180112                znucl, zion, pspdat
    8 -116133    2    4       600   0.00000   pspcod,pspxc,lmax,lloc,mmax,r2well
    5.99000000000000    7.00000000000000    0.00000000000000   rchrg,fchrg,qchrg
     nproj     2     2     2
     extension_switch     1
  pspatm : epsatm=   27.64581383
         --- l  ekb(1:nproj) -->
             0    9.559407   -0.398585
             1    3.418858   -0.136622
             2   -1.644397   -0.401551
 pspatm: atomic psp has been read  and splines computed

- pspini: atom type   2  psp file is /scratch/users/j/a/jabreu/pseudos/PBEsol/Cl.psp8
- pspatm: opening atomic psp file    /scratch/users/j/a/jabreu/pseudos/PBEsol/Cl.psp8
- Cl    ONCVPSP-3.3.0  r_core=   1.56009   1.35202   1.75774
- 17.00000   7.00000    180112                znucl, zion, pspdat
    8 -116133    2    4       600   0.00000   pspcod,pspxc,lmax,lloc,mmax,r2well
    5.99000000000000    8.00000000000000    0.00000000000000   rchrg,fchrg,qchrg
     nproj     2     2     2
     extension_switch     1
  pspatm : epsatm=    8.95520722
         --- l  ekb(1:nproj) -->
             0    8.193503    0.707970
             1    3.869736    1.114731
             2   -2.915303   -0.810552
 pspatm: atomic psp has been read  and splines computed

   9.51626547E+02                                ecore*ucvol(ha*bohr**3)

-inwffil : will read wavefunctions from disk file /scratch/users/j/a/jabreu/flow_simple2/flow/w142/t1/indata/in_WFK

 ==>  initialize data related to q vector <==

 The list of irreducible perturbations for this q vector is:
    1)    idir= 1    ipert=   3
    2)    idir= 2    ipert=   3
    3)    idir= 3    ipert=   3

 Perturbation wavevector (in red.coord.)   0.000000  0.000000  0.000000
 Perturbation : derivative vs k along direction   1

 dfpt_looppert : COMMENT -
  In a d/dk calculation, iscf is set to -3 automatically.
 The set of symmetries contains only one element for this perturbation.
 symkpt : not enough symmetry to change the number of k points.

[...]

 Initialisation of the first-order wave-functions :
  ireadwf=   0

--- !BeginCycle
iteration_state: {dtset: 1, }
solver: {iscf: 7, nstep: 100, nline: 4, wfoptalg: 0, }
tolerances: {tolwfr: 1.00E-20, }
...

     iter   2DEtotal(Ha)        deltaE(Ha) residm    vres2
-ETOT  1  -34.097157670650     -3.410E+01 2.234E-01 0.000E+00
 ETOT  2  -34.115713440227     -1.856E-02 1.998E-04 0.000E+00
 ETOT  3  -34.115723689440     -1.025E-05 1.439E-05 0.000E+00
 ETOT  4  -34.115723700350     -1.091E-08 2.828E-08 0.000E+00
 ETOT  5  -34.115723700367     -1.782E-11 4.609E-09 0.000E+00
 ETOT  6  -34.115723700367     -3.553E-14 8.292E-12 0.000E+00
 ETOT  7  -34.115723700367     -7.105E-15 1.828E-12 0.000E+00
 ETOT  8  -34.115723700367      7.105E-15 4.349E-15 0.000E+00
 ETOT  9  -34.115723700367      7.105E-15 7.432E-16 0.000E+00
 ETOT 10  -34.115723700367      0.000E+00 9.403E-18 0.000E+00
 ETOT 11  -34.115723700367      7.105E-15 3.388E-19 0.000E+00
 ETOT 12  -34.115723700367     -2.132E-14 2.063E-20 0.000E+00
 ETOT 13  -34.115723700367      0.000E+00 9.284E-21 0.000E+00

 At SCF step   13   max residual=  9.28E-21 < tolwfr=  1.00E-20 =>converged.

 ----iterations are completed or convergence reached----

 dfpt_looppert: DFPT cycle converged with prtwf=-1. Will skip output of the 1st-order WFK file.
 dfpt_looppert : ek2=    5.8109554922E+01
          f-sum rule ratio=    1.1819721855E+00
 prteigrs : about to open file /scratch/users/j/a/jabreu/flow_simple2/flow/w142/t1/tmpdata/tmp_1WF1_EIG
 Expectation of eigenvalue derivatives (hartree) for nkpt=   2  k points:
  (in case of degenerate eigenvalues, averaged derivative)
 kpt#   1, nband= 22, wtk=  0.50000, kpt=  0.5000  0.5000  0.5000 (reduced coord)
  -0.00000    0.00000    0.00000    0.00000    0.00000    0.00000    0.00000    0.00000
   0.00000    0.00000   -0.00000   -0.00000   -0.00000    0.00000   -0.00000   -0.00000
  -0.00000   -0.00000   -0.00000    0.00000    0.00000   -0.00000
 prteigrs : prtvol=0 or 1, do not print more k-points.

 Eight components of 2nd-order total energy (hartree) are
 1,2,3: 0th-order hamiltonian combined with 1st-order wavefunctions
     kin0=   3.39190012E+01 eigvalue=  -4.47014188E-01  local=  -1.59356055E+01
 4,5,6: 1st-order hamiltonian combined with 1st and 0th-order wfs
     kin1=  -6.86838776E+01  Hartree=   0.00000000E+00     xc=   0.00000000E+00
 7,8,9: eventually, occupation + non-local contributions
    edocc=   1.53340614E+01     enl0=   1.24528080E+00   enl1=   4.52430229E-01
 1-9 gives the relaxation energy (to be shifted if some occ is /=2.0)
   erelax=  -3.41157237E+01
  No Ewald or frozen-wf contrib.: the relaxation energy is the total one
 2DEtotal=   -0.3411572370E+02 Ha. Also 2DEtotal=   -0.928336053272E+03 eV
    (  non-var. 2DEtotal :   -3.4115723700E+01 Ha)

 Perturbation wavevector (in red.coord.)   0.000000  0.000000  0.000000
 Perturbation : derivative vs k along direction   2
 The set of symmetries contains only one element for this perturbation.
 symkpt : not enough symmetry to change the number of k points.

[...]

 Perturbation wavevector (in red.coord.)   0.000000  0.000000  0.000000
 Perturbation : derivative vs k along direction   3
 The set of symmetries contains only one element for this perturbation.
 symkpt : not enough symmetry to change the number of k points.

-inwffil : will read wavefunctions from disk file /scratch/users/j/a/jabreu/flow_simple2/flow/w142/t1/indata/in_WFK

 Initialisation of the first-order wave-functions :
  ireadwf=   0

--- !BeginCycle
iteration_state: {dtset: 1, }
solver: {iscf: 7, nstep: 100, nline: 4, wfoptalg: 0, }
tolerances: {tolwfr: 1.00E-20, }
...

     iter   2DEtotal(Ha)        deltaE(Ha) residm    vres2
-ETOT  1  -34.096331782737     -3.410E+01 1.713E-01 0.000E+00
 ETOT  2  -34.115563074535     -1.923E-02 3.416E-04 0.000E+00
 ETOT  3  -34.115573470288     -1.040E-05 1.665E-05 0.000E+00
 ETOT  4  -34.115573481124     -1.084E-08 2.637E-07 0.000E+00
 ETOT  5  -34.115573481141     -1.741E-11 6.779E-09 0.000E+00
 ETOT  6  -34.115573481141      2.842E-14 3.522E-10 0.000E+00
 ETOT  7  -34.115573481141     -3.553E-14 7.195E-12 0.000E+00
 ETOT  8  -34.115573481141      2.132E-14 7.366E-13 0.000E+00
 ETOT  9  -34.115573481141      0.000E+00 1.542E-14 0.000E+00
 ETOT 10  -34.115573481141     -1.421E-14 1.574E-15 0.000E+00
 ETOT 11  -34.115573481141      7.105E-15 3.317E-17 0.000E+00
 ETOT 12  -34.115573481141      0.000E+00 3.409E-18 0.000E+00
 ETOT 13  -34.115573481141     -7.105E-15 7.190E-20 0.000E+00
 ETOT 14  -34.115573481141      0.000E+00 9.681E-21 0.000E+00

 At SCF step   14   max residual=  9.68E-21 < tolwfr=  1.00E-20 =>converged.

 ----iterations are completed or convergence reached----

 dfpt_looppert: DFPT cycle converged with prtwf=-1. Will skip output of the 1st-order WFK file.
 dfpt_looppert : ek2=    5.8109554922E+01
          f-sum rule ratio=    1.1819661837E+00
 prteigrs : about to open file /scratch/users/j/a/jabreu/flow_simple2/flow/w142/t1/tmpdata/tmp_1WF1_EIG
 Expectation of eigenvalue derivatives (hartree) for nkpt=   2  k points:
  (in case of degenerate eigenvalues, averaged derivative)
 kpt#   1, nband= 22, wtk=  0.50000, kpt=  0.5000  0.5000  0.5000 (reduced coord)
   0.00000    0.00000   -0.00000   -0.00000   -0.00000    0.00000    0.00000    0.00000
  -0.00000   -0.00000    0.00000    0.00000    0.00000    0.00000   -0.00000    0.00000
   0.00000    0.00000    0.00000    0.00000    0.00000   -0.00000
 prteigrs : prtvol=0 or 1, do not print more k-points.

 Eight components of 2nd-order total energy (hartree) are
 1,2,3: 0th-order hamiltonian combined with 1st-order wavefunctions
     kin0=   3.39029963E+01 eigvalue=  -4.41310133E-01  local=  -1.59288001E+01
 4,5,6: 1st-order hamiltonian combined with 1st and 0th-order wfs
     kin1=  -6.86835289E+01  Hartree=   0.00000000E+00     xc=   0.00000000E+00
 7,8,9: eventually, occupation + non-local contributions
    edocc=   1.53328490E+01     enl0=   1.24983837E+00   enl1=   4.52381903E-01
 1-9 gives the relaxation energy (to be shifted if some occ is /=2.0)
   erelax=  -3.41155735E+01
  No Ewald or frozen-wf contrib.: the relaxation energy is the total one
 2DEtotal=   -0.3411557348E+02 Ha. Also 2DEtotal=   -0.928331965599E+03 eV
    (  non-var. 2DEtotal :   -3.4115573481E+01 Ha)

 CALCULATION OF EFFECTIVE MASSES
 NOTE : Additional infos (eff. mass eigenvalues, eigenvectors and, if degenerate, average mass) are available in stdout.

 COMMENTS:
 - At k-point ( 0.500, 0.500, 0.500), bands    12 through    13
   are DEGENERATE (effective mass tensor is therefore not defined).
   See Section IIIB Eqs. (67)-(70) and Appendix E of PRB 93 205147 (2016).
 - Angular average effective mass for Frohlich model is to be averaged over degenerate bands. See later.
 - Associated theta integrals calculated with ntheta=   1000 points.

 K-point ( 0.500, 0.500, 0.500) | band =    12
 Transport equivalent effective mass tensor:
             -0.5064484878             -0.0520260183             -0.1274364564
             -0.0520260183             -0.4696590361             -0.0901105671
             -0.1274364564             -0.0901105671             -0.6535951968
 Transport equivalent effective mass tensor eigenvalues:
             -0.7639593870             -0.4328719658             -0.4328713680
 Angular average effective mass 1/(<1/m>)=  -0.4083997377
 Angular average effective mass for Frohlich model (<m**0.5>)**2=  -0.4199792894
 Effective masses along directions: (cart. coord. / red. coord. -> eff. mass)
    1:   1.000000  0.000000  0.000000 /   0.948683  0.316228  0.000000 ->  -0.4243190473
    2:   0.000000  1.000000  0.000000 /   0.000000  1.000000  0.000000 ->  -0.4955706635
    3:   0.000000  0.000000  1.000000 /   0.408248  0.408248  0.816497 ->  -0.5364129818
    4:   0.577350  0.577350  0.577350 /   0.585539  0.688047  0.428644 ->  -0.5496895585
    5:   0.000000  0.707107  0.707107 /   0.289489  0.762222  0.578977 ->  -0.4286189586
    6:   0.707107  0.000000  0.707107 /   0.731423  0.422287  0.535439 ->  -0.5457008145
    7:   0.707107  0.707107  0.000000 /   0.616798  0.787122  0.000000 ->  -0.3383240479

 K-point ( 0.500, 0.500, 0.500) | band =    13
 Transport equivalent effective mass tensor:
            -10.6171488612             -0.9180153936             -2.2486865826
             -0.9180153936             -9.9680113708             -1.5900679829
             -2.2486865826             -1.5900679829            -13.2137075975
 Transport equivalent effective mass tensor eigenvalues:
            -15.1611291548             -9.3188782824             -9.3188603923
 Angular average effective mass 1/(<1/m>)=  -1.3554383573
 Angular average effective mass for Frohlich model (<m**0.5>)**2=  -1.6531150378
 Effective masses along directions: (cart. coord. / red. coord. -> eff. mass)
    1:   1.000000  0.000000  0.000000 /   0.948683  0.316228  0.000000 ->  -1.0100199199
    2:   0.000000  1.000000  0.000000 /   0.000000  1.000000  0.000000 ->  -0.6714259222
    3:   0.000000  0.000000  1.000000 /   0.408248  0.408248  0.816497 ->  -1.1893787610
    4:   0.577350  0.577350  0.577350 /   0.585539  0.688047  0.428644 ->  -1.7143036126
    5:   0.000000  0.707107  0.707107 /   0.289489  0.762222  0.578977 ->  -2.6313023685
    6:   0.707107  0.000000  0.707107 /   0.731423  0.422287  0.535439 ->  -1.5683955727
    7:   0.707107  0.707107  0.000000 /   0.616798  0.787122  0.000000 ->  -4.0921871941

 Angular average effective mass for Frohlich model, averaged over degenerate bands.
 Value of     (<<m**0.5>>)**2 =     9.348891E-01
 Absolute Value of <<m**0.5>> =     9.668967E-01

 K-point ( 0.000, 0.000, 0.000) | band =    14
 Effective mass tensor:
              0.2533798997              0.0000029801             -0.0000022285
              0.0000029801              0.2533767054              0.0000042578
             -0.0000022285              0.0000042578              0.2533766501
 Effective mass tensor eigenvalues:
              0.2533709078              0.2533806192              0.2533817282
 Angular average effective mass 1/(<1/m>)=   0.2533777516
 Angular average effective mass for Frohlich model (<m**0.5>)**2=   0.2533777517
 Effective masses along directions: (cart. coord. / red. coord. -> eff. mass)
    1:   1.000000  0.000000  0.000000 /   0.948683  0.316228  0.000000 ->   0.2533798996
    2:   0.000000  1.000000  0.000000 /   0.000000  1.000000  0.000000 ->   0.2533767053
    3:   0.000000  0.000000  1.000000 /   0.408248  0.408248  0.816497 ->   0.2533766500
    4:   0.577350  0.577350  0.577350 /   0.585539  0.688047  0.428644 ->   0.2533810913
    5:   0.000000  0.707107  0.707107 /   0.289489  0.762222  0.578977 ->   0.2533809355
    6:   0.707107  0.000000  0.707107 /   0.731423  0.422287  0.535439 ->   0.2533760463
    7:   0.707107  0.707107  0.000000 /   0.616798  0.787122  0.000000 ->   0.2533812826

 END OF EFFECTIVE MASSES SECTION

 ---- first-order wavefunction calculations are completed ----

 Total localisation tensor (bohr^2) in cartesian coordinates
  WARNING : still subject to testing - especially symmetries.
      direction              matrix element
   alpha     beta       real part   imaginary part
     1        1       1.6041896462    0.0000000000
     1        2       0.4537336072    0.0000000000
     1        3       1.1114152935    0.0000000000
     2        1       0.4537336072    0.0000000000
     2        2       1.2833524419    0.0000000000
     2        3       0.7858896607    0.0000000000
     3        1       1.1114152935    0.0000000000
     3        2       0.7858896607    0.0000000000
     3        3       2.8875315094    0.0000000000

 respfn : d/dk was computed, but no 2DTE, so no DDB output.

== END DATASET(S) ==============================================================

 -outvars: echo values of variables after computation  --------
            acell      1.0000000000E+00  1.0000000000E+00  1.0000000000E+00 Bohr
              amu      1.07868200E+02  3.54527000E+01
             ecut      4.30000000E+01 Hartree
           etotal     -3.4115573481E+01
            fcart      0.0000000000E+00  0.0000000000E+00  0.0000000000E+00
                       0.0000000000E+00  0.0000000000E+00  0.0000000000E+00
-          fftalg         512
           irdden           1
           irdwfk           1
           istwfk        1    1
              ixc     -116133
              kpt      5.00000000E-01  5.00000000E-01  5.00000000E-01
                       0.00000000E+00  0.00000000E+00  0.00000000E+00
           kptopt           0
P           mkmem           2
P          mkqmem           2
P          mk1mem           2
            natom           2
            nband          22
           nbdbuf           4
            ngfft          45      45      45
             nkpt           2
            nstep         100
             nsym          48
           ntypat           2
              occ      2.000000  2.000000  2.000000  2.000000  2.000000  2.000000
                       2.000000  2.000000  2.000000  2.000000  2.000000  2.000000
                       2.000000  0.000000  0.000000  0.000000  0.000000  0.000000
                       0.000000  0.000000  0.000000  0.000000
        optdriver           1
            prtwf          -1
            rfdir           1       1       1
           rfelfd           2
            rprim      6.3042587061E+00  0.0000000000E+00  3.6397654610E+00
                       2.1014195687E+00  5.9437121086E+00  3.6397654610E+00
                       0.0000000000E+00  0.0000000000E+00  7.2795309220E+00
          spgroup         225
           strten      0.0000000000E+00  0.0000000000E+00  0.0000000000E+00
                       0.0000000000E+00  0.0000000000E+00  0.0000000000E+00
           symrel      1  0  0   0  1  0   0  0  1      -1  0  0   0 -1  0   0  0 -1
                       0 -1  1   0 -1  0   1 -1  0       0  1 -1   0  1  0  -1  1  0
                      -1  0  0  -1  0  1  -1  1  0       1  0  0   1  0 -1   1 -1  0
                       0  1 -1   1  0 -1   0  0 -1       0 -1  1  -1  0  1   0  0  1
                      -1  0  0  -1  1  0  -1  0  1       1  0  0   1 -1  0   1  0 -1
                       0 -1  1   1 -1  0   0 -1  0       0  1 -1  -1  1  0   0  1  0
                       1  0  0   0  0  1   0  1  0      -1  0  0   0  0 -1   0 -1  0
                       0  1 -1   0  0 -1   1  0 -1       0 -1  1   0  0  1  -1  0  1
                      -1  0  1  -1  1  0  -1  0  0       1  0 -1   1 -1  0   1  0  0
                       0 -1  0   1 -1  0   0 -1  1       0  1  0  -1  1  0   0  1 -1
                       1  0 -1   0  0 -1   0  1 -1      -1  0  1   0  0  1   0 -1  1
                       0  1  0   0  0  1   1  0  0       0 -1  0   0  0 -1  -1  0  0
                       1  0 -1   0  1 -1   0  0 -1      -1  0  1   0 -1  1   0  0  1
                       0 -1  0   0 -1  1   1 -1  0       0  1  0   0  1 -1  -1  1  0
                      -1  0  1  -1  0  0  -1  1  0       1  0 -1   1  0  0   1 -1  0
                       0  1  0   1  0  0   0  0  1       0 -1  0  -1  0  0   0  0 -1
                       0  0 -1   0  1 -1   1  0 -1       0  0  1   0 -1  1  -1  0  1
                       1 -1  0   0 -1  1   0 -1  0      -1  1  0   0  1 -1   0  1  0
                       0  0  1   1  0  0   0  1  0       0  0 -1  -1  0  0   0 -1  0
                      -1  1  0  -1  0  0  -1  0  1       1 -1  0   1  0  0   1  0 -1
                       0  0  1   0  1  0   1  0  0       0  0 -1   0 -1  0  -1  0  0
                       1 -1  0   0 -1  0   0 -1  1      -1  1  0   0  1  0   0  1 -1
                       0  0 -1   1  0 -1   0  1 -1       0  0  1  -1  0  1   0 -1  1
                      -1  1  0  -1  0  1  -1  0  0       1 -1  0   1  0 -1   1  0  0
           tolwfr      1.00000000E-20
            typat      1  2
           useylm           1
              wtk        0.50000    0.50000
           xangst      0.0000000000E+00  0.0000000000E+00  0.0000000000E+00
                       2.2240466829E+00  1.5726384911E+00  3.8521618531E+00
            xcart      0.0000000000E+00  0.0000000000E+00  0.0000000000E+00
                       4.2028391374E+00  2.9718560543E+00  7.2795309220E+00
             xred      0.0000000000E+00  0.0000000000E+00  0.0000000000E+00
                       5.0000000000E-01  5.0000000000E-01  5.0000000000E-01
            znucl       47.00000   17.00000

- Timing analysis has been suppressed with timopt=0

 Suggested references for the acknowledgment of ABINIT usage.

 Calculation completed.
.Delivered  14 WARNINGs and   9 COMMENTs to log file.