.Version 9.5.2 of ABINIT

 ABINIT is a project of the Universite Catholique de Louvain,
 Corning Inc. and other collaborators, see ~abinit/doc/developers/contributors.txt .
 acknowledgments of the ABINIT effort.

.Starting date : Mon 24 May 2021.
- ( at 11h18 )

- input  file    -> /scratch/users/j/a/jabreu/flow_simple_10atoms/flow/w314/t1/run.abi
- output file    -> /scratch/users/j/a/jabreu/flow_simple_10atoms/flow/w314/t1/run.abo
- root for input  files -> /scratch/users/j/a/jabreu/flow_simple_10atoms/flow/w314/t1/indata/in
- root for output files -> /scratch/users/j/a/jabreu/flow_simple_10atoms/flow/w314/t1/outdata/out

 Symmetries : space group Fm m m (# 69); Bravais oF (face-center ortho.)
     intxc =       0      iscf =       7    lmnmax =      18     lnmax =       6
     mgfft =      80  mpssoang =       3    mqgrid =    3001     natom =      10
  nloc_mem =       1    nspden =       1   nspinor =       1    nsppol =       1
      nsym =       8    n1xccc =    2501    ntypat =       2    occopt =       1
   xclevel =       2
-    mband =          42        mffmem =           1         mkmem =           1
-   mkqmem =           1        mk1mem =           1           mpw =       13268
      nfft =      512000          nkpt =           1
  Rough estimation (10% accuracy) of disk space for files :

------------- Echo of variables that govern the present computation ------------
-
- outvars: echo of selected default values
-   iomode0 =  0 , fftalg0 =512 , wfoptalg0 =  0
-
- outvars: echo of global parameters not present in the input file
-  max_nthreads =    0
-
 -outvars: echo values of preprocessed input variables --------
            acell      1.0000000000E+00  1.0000000000E+00  1.0000000000E+00 Bohr
              amu      8.54678000E+01  3.09737620E+01
             ecut      2.60000000E+01 Hartree
-          fftalg         512
           irdden           1
           irdwfk           1
           istwfk        1
              ixc     -116133
              kpt      5.00000000E-01  0.00000000E+00  5.00000000E-01
           kptopt           0
P           mkmem           1
P          mkqmem           1
P          mk1mem           1
            natom          10
            nband          42
           nbdbuf           4
            ngfft          80      80      80
             nkpt           1
            nstep        2000
             nsym           8
           ntypat           2
              occ      2.000000  2.000000  2.000000  2.000000  2.000000  2.000000
                       2.000000  2.000000  2.000000  2.000000  2.000000  2.000000
                       2.000000  2.000000  2.000000  2.000000  2.000000  2.000000
                       2.000000  2.000000  2.000000  2.000000  2.000000  2.000000
                       2.000000  2.000000  2.000000  2.000000  2.000000  2.000000
                       2.000000  2.000000  2.000000  0.000000  0.000000  0.000000
                       0.000000  0.000000  0.000000  0.000000  0.000000  0.000000
        optdriver           1
            prtwf          -1
            rfdir           1       1       1
           rfelfd           2
            rprim      1.5083645015E+01  0.0000000000E+00  6.6057701550E+00
                       1.0058547565E+01  1.1240194302E+01  5.7371649622E+00
                       0.0000000000E+00  0.0000000000E+00  1.2342935118E+01
          spgroup          69
           symrel      1  0  0   0  1  0   0  0  1      -1  0  0   0 -1  0   0  0 -1
                      -1  0  0  -1  0  1  -1  1  0       1  0  0   1  0 -1   1 -1  0
                       0 -1  1   0 -1  0   1 -1  0       0  1 -1   0  1  0  -1  1  0
                       0  1 -1   1  0 -1   0  0 -1       0 -1  1  -1  0  1   0  0  1
           tolwfr      1.00000000E-20
            typat      1  1  1  1  2  2  2  2  2  2
           useylm           1
           xangst      3.3261688218E+00  1.4870136612E+00  3.2657999756E+00
                       9.9785064655E+00  4.4610409836E+00  9.7973999269E+00
                       6.0571203298E+00  4.3054160818E+00  4.9667074065E+00
                       7.2475549576E+00  1.6426385629E+00  8.0964924960E+00
                       1.9799751669E+00  8.8517759612E-01  6.5315999514E+00
                       1.1324700120E+01  5.0628770486E+00  6.5315999512E+00
                       8.4097679625E+00  1.6858154916E+00  4.7671569452E+00
                       6.4403567077E+00  8.0536065084E-01  4.7671569452E+00
                       4.8949073249E+00  4.2622391532E+00  8.2960429574E+00
                       6.8643185797E+00  5.1426939939E+00  8.2960429573E+00
            xcart      6.2855481450E+00  2.8100485755E+00  6.1714675587E+00
                       1.8856644435E+01  8.4301457265E+00  1.8514402676E+01
                       1.1446298577E+01  8.1360572828E+00  9.3857167805E+00
                       1.3695894003E+01  3.1041370192E+00  1.5300153454E+01
                       3.7416108154E+00  1.6727432356E+00  1.2342935118E+01
                       2.1400581765E+01  9.5674510664E+00  1.2342935117E+01
                       1.5892158290E+01  3.1857295897E+00  9.0086210589E+00
                       1.2170510376E+01  1.5219110683E+00  9.0086210590E+00
                       9.2500342899E+00  8.0544647123E+00  1.5677249176E+01
                       1.2971682204E+01  9.7182832337E+00  1.5677249176E+01
             xred      2.5000000000E-01  2.5000000000E-01  2.5000000000E-01
                       7.5000000000E-01  7.5000000000E-01  7.5000000000E-01
                       2.7616400000E-01  7.2383600000E-01  2.7616400000E-01
                       7.2383600000E-01  2.7616400000E-01  7.2383600000E-01
                       1.4881800000E-01  1.4881800000E-01  8.5118200000E-01
                       8.5118200000E-01  8.5118200000E-01  1.4881800000E-01
                       8.6460100000E-01  2.8342300000E-01  1.3539900000E-01
                       7.1657700000E-01  1.3539900000E-01  2.8342300000E-01
                       1.3539900000E-01  7.1657700000E-01  8.6460100000E-01
                       2.8342300000E-01  8.6460100000E-01  7.1657700000E-01
            znucl       37.00000   15.00000

 chkinp: Checking input parameters for consistency.

== DATASET  1 ==================================================================
-   mpi_nproc: 1, omp_nthreads: -1 (-1 if OMP is not activated)

--- !DatasetInfo
iteration_state: {dtset: 1, }
dimensions: {natom: 10, nkpt: 1, mband: 42, nsppol: 1, nspinor: 1, nspden: 1, mpw: 13268, }
cutoff_energies: {ecut:  26.0, pawecutdg:  -1.0, }
electrons: {nelect:   6.60000000E+01, charge:   0.00000000E+00, occopt:   1.00000000E+00, tsmear:   1.00000000E-02, }
meta: {optdriver: 1, rfelfd: 2, }
...

 Real(R)+Recip(G) space primitive vectors, cartesian coordinates (Bohr,Bohr^-1):
 R(1)= 15.0836450  0.0000000  6.6057702  G(1)=  0.0662970 -0.0593274  0.0000000
 R(2)= 10.0585476 11.2401943  5.7371650  G(2)=  0.0000000  0.0889664  0.0000000
 R(3)=  0.0000000  0.0000000 12.3429351  G(3)= -0.0354812 -0.0096016  0.0810180
 Unit cell volume ucvol=  2.0926595E+03 bohr^3
 Angles (23,13,12)=  6.91753541E+01  6.63493425E+01  4.44753034E+01 degrees

 getcut: wavevector=  0.0000  0.0000  0.0000  ngfft=  80  80  80
         ecut(hartree)=     26.000   => boxcut(ratio)=   2.11657

--- Pseudopotential description ------------------------------------------------
- pspini: atom type   1  psp file is /scratch/users/j/a/jabreu/pseudos/PBEsol/Rb.psp8
- pspatm: opening atomic psp file    /scratch/users/j/a/jabreu/pseudos/PBEsol/Rb.psp8
- Rb    ONCVPSP-3.3.0  r_core=   1.71227   1.75361   1.90633
- 37.00000   9.00000    180112                znucl, zion, pspdat
    8 -116133    2    4       600   0.00000   pspcod,pspxc,lmax,lloc,mmax,r2well
    5.99000000000000    7.00000000000000    0.00000000000000   rchrg,fchrg,qchrg
     nproj     2     2     2
     extension_switch     1
  pspatm : epsatm=   34.48400912
         --- l  ekb(1:nproj) -->
             0    8.196957   -0.477221
             1    3.231347   -0.378736
             2   -1.047201    0.996637
 pspatm: atomic psp has been read  and splines computed

- pspini: atom type   2  psp file is /scratch/users/j/a/jabreu/pseudos/PBEsol/P.psp8
- pspatm: opening atomic psp file    /scratch/users/j/a/jabreu/pseudos/PBEsol/P.psp8
- P     ONCVPSP-3.3.0  r_core=   1.46089   1.55067   1.70594
- 15.00000   5.00000    180112                znucl, zion, pspdat
    8 -116133    2    4       600   0.00000   pspcod,pspxc,lmax,lloc,mmax,r2well
    5.99000000000000    5.00000000000000    0.00000000000000   rchrg,fchrg,qchrg
     nproj     2     2     2
     extension_switch     1
  pspatm : epsatm=    7.31221086
         --- l  ekb(1:nproj) -->
             0    6.742364    1.063650
             1    3.449117    0.910422
             2   -3.077645   -0.799176
 pspatm: atomic psp has been read  and splines computed

   1.19994139E+04                                ecore*ucvol(ha*bohr**3)

 ==>  initialize data related to q vector <==

 The list of irreducible perturbations for this q vector is:
    1)    idir= 1    ipert=  11
    2)    idir= 2    ipert=  11
    3)    idir= 3    ipert=  11

 Perturbation wavevector (in red.coord.)   0.000000  0.000000  0.000000
 Perturbation : derivative vs k along direction   1

 dfpt_looppert : COMMENT -
  In a d/dk calculation, iscf is set to -3 automatically.
 The set of symmetries contains only one element for this perturbation.
 symkpt : not enough symmetry to change the number of k points.

 Initialisation of the first-order wave-functions :
  ireadwf=   0

--- !BeginCycle
iteration_state: {dtset: 1, }
solver: {iscf: 7, nstep: 2000, nline: 4, wfoptalg: 0, }
tolerances: {tolwfr: 1.00E-20, }
...

     iter   2DEtotal(Ha)        deltaE(Ha) residm    vres2
-ETOT  1  -21.429885112898     -2.143E+01 2.947E-02 0.000E+00
 ETOT  2  -21.450928048247     -2.104E-02 6.738E-04 0.000E+00
 ETOT  3  -21.451039552603     -1.115E-04 1.511E-05 0.000E+00
 ETOT  4  -21.451040490283     -9.377E-07 4.242E-07 0.000E+00
 ETOT  5  -21.451040500273     -9.990E-09 1.335E-08 0.000E+00
 ETOT  6  -21.451040500392     -1.191E-10 4.964E-10 0.000E+00
 ETOT  7  -21.451040500393     -1.581E-12 2.555E-11 0.000E+00
 ETOT  8  -21.451040500393     -1.066E-14 1.381E-12 0.000E+00
 ETOT  9  -21.451040500393     -3.553E-15 7.792E-14 0.000E+00
 ETOT 10  -21.451040500393      0.000E+00 4.538E-15 0.000E+00
 ETOT 11  -21.451040500393      1.066E-14 2.617E-16 0.000E+00
 ETOT 12  -21.451040500393     -3.553E-15 1.557E-17 0.000E+00
 ETOT 13  -21.451040500393      0.000E+00 9.015E-19 0.000E+00
 ETOT 14  -21.451040500393      7.105E-15 5.448E-20 0.000E+00
 ETOT 15  -21.451040500393      7.105E-15 9.666E-21 0.000E+00

 At SCF step   15   max residual=  9.67E-21 < tolwfr=  1.00E-20 =>converged.

 ----iterations are completed or convergence reached----

 dfpt_looppert: DFPT cycle converged with prtwf=-1. Will skip output of the 1st-order WFK file.
 dfpt_looppert : ek2=    4.1246398259E+01
          f-sum rule ratio=    1.0560733899E+00
 prteigrs : about to open file /scratch/users/j/a/jabreu/flow_simple_10atoms/flow/w314/t1/tmpdata/tmp_1WF1_EIG
 Expectation of eigenvalue derivatives (hartree) for nkpt=   1  k points:
  (in case of degenerate eigenvalues, averaged derivative)
 kpt#   1, nband= 42, wtk=  1.00000, kpt=  0.5000  0.0000  0.5000 (reduced coord)
  -0.00000   -0.00000   -0.00000    0.00000   -0.00000   -0.00000   -0.00000    0.00000
   0.00000    0.00000   -0.00000    0.00000   -0.00000    0.00000   -0.00000    0.00000
   0.00000   -0.00000   -0.00000   -0.00000   -0.00000    0.00000    0.00000    0.00000
  -0.00000   -0.00000   -0.00000   -0.00000   -0.00000   -0.00000   -0.00000    0.00000
  -0.00000    0.00000    0.00000   -0.00000    0.00000    0.00000    0.00000    0.00000
  -0.00000    0.00000

 Eight components of 2nd-order total energy (hartree) are
 1,2,3: 0th-order hamiltonian combined with 1st-order wavefunctions
     kin0=   2.58767779E+01 eigvalue=   3.06067222E+00  local=  -1.49875888E+01
 4,5,6: 1st-order hamiltonian combined with 1st and 0th-order wfs
     kin1=  -4.35592236E+01  Hartree=   0.00000000E+00     xc=   0.00000000E+00
 7,8,9: eventually, occupation + non-local contributions
    edocc=   7.17747641E+00     enl0=   3.23702764E-01   enl1=   6.57142627E-01
 1-9 gives the relaxation energy (to be shifted if some occ is /=2.0)
   erelax=  -2.14510405E+01
  No Ewald or frozen-wf contrib.: the relaxation energy is the total one
 2DEtotal=   -0.2145104050E+02 Ha. Also 2DEtotal=   -0.583712497253E+03 eV
    (  non-var. 2DEtotal :   -2.1451040500E+01 Ha)

 Perturbation wavevector (in red.coord.)   0.000000  0.000000  0.000000
 Perturbation : derivative vs k along direction   2
 The set of symmetries contains only one element for this perturbation.
 symkpt : not enough symmetry to change the number of k points.

[...]

 Perturbation wavevector (in red.coord.)   0.000000  0.000000  0.000000
 Perturbation : derivative vs k along direction   3
 The set of symmetries contains only one element for this perturbation.
 symkpt : not enough symmetry to change the number of k points.

 Initialisation of the first-order wave-functions :
  ireadwf=   0

--- !BeginCycle
iteration_state: {dtset: 1, }
solver: {iscf: 7, nstep: 2000, nline: 4, wfoptalg: 0, }
tolerances: {tolwfr: 1.00E-20, }
...

     iter   2DEtotal(Ha)        deltaE(Ha) residm    vres2
-ETOT  1  -21.429885086717     -2.143E+01 2.947E-02 0.000E+00
 ETOT  2  -21.450928022308     -2.104E-02 6.738E-04 0.000E+00
 ETOT  3  -21.451039526665     -1.115E-04 1.511E-05 0.000E+00
 ETOT  4  -21.451040464345     -9.377E-07 4.242E-07 0.000E+00
 ETOT  5  -21.451040474335     -9.990E-09 1.335E-08 0.000E+00
 ETOT  6  -21.451040474454     -1.191E-10 4.964E-10 0.000E+00
 ETOT  7  -21.451040474456     -1.560E-12 2.555E-11 0.000E+00
 ETOT  8  -21.451040474456     -1.421E-14 1.381E-12 0.000E+00
 ETOT  9  -21.451040474456     -2.132E-14 7.792E-14 0.000E+00
 ETOT 10  -21.451040474456     -1.066E-14 4.538E-15 0.000E+00
 ETOT 11  -21.451040474456      7.105E-15 2.617E-16 0.000E+00
 ETOT 12  -21.451040474456      0.000E+00 1.557E-17 0.000E+00
 ETOT 13  -21.451040474456     -3.553E-15 9.015E-19 0.000E+00
 ETOT 14  -21.451040474456      0.000E+00 5.448E-20 0.000E+00
 ETOT 15  -21.451040474456      0.000E+00 9.666E-21 0.000E+00

 At SCF step   15   max residual=  9.67E-21 < tolwfr=  1.00E-20 =>converged.

 ----iterations are completed or convergence reached----

 dfpt_looppert: DFPT cycle converged with prtwf=-1. Will skip output of the 1st-order WFK file.
 dfpt_looppert : ek2=    4.1246398244E+01
          f-sum rule ratio=    1.0560733890E+00
 prteigrs : about to open file /scratch/users/j/a/jabreu/flow_simple_10atoms/flow/w314/t1/tmpdata/tmp_1WF1_EIG
 Expectation of eigenvalue derivatives (hartree) for nkpt=   1  k points:
  (in case of degenerate eigenvalues, averaged derivative)
 kpt#   1, nband= 42, wtk=  1.00000, kpt=  0.5000  0.0000  0.5000 (reduced coord)
  -0.00000    0.00000    0.00000    0.00000   -0.00000   -0.00000    0.00000   -0.00000
   0.00000   -0.00000    0.00000   -0.00000    0.00000   -0.00000    0.00000    0.00000
  -0.00000    0.00000    0.00000    0.00000    0.00000   -0.00000   -0.00000    0.00000
  -0.00000   -0.00000   -0.00000   -0.00000    0.00000    0.00000   -0.00000    0.00000
   0.00000   -0.00000   -0.00000    0.00000    0.00000   -0.00000   -0.00000   -0.00000
   0.00000   -0.00000

 Eight components of 2nd-order total energy (hartree) are
 1,2,3: 0th-order hamiltonian combined with 1st-order wavefunctions
     kin0=   2.58767780E+01 eigvalue=   3.06067221E+00  local=  -1.49875888E+01
 4,5,6: 1st-order hamiltonian combined with 1st and 0th-order wfs
     kin1=  -4.35592236E+01  Hartree=   0.00000000E+00     xc=   0.00000000E+00
 7,8,9: eventually, occupation + non-local contributions
    edocc=   7.17747635E+00     enl0=   3.23702765E-01   enl1=   6.57142629E-01
 1-9 gives the relaxation energy (to be shifted if some occ is /=2.0)
   erelax=  -2.14510405E+01
  No Ewald or frozen-wf contrib.: the relaxation energy is the total one
 2DEtotal=   -0.2145104047E+02 Ha. Also 2DEtotal=   -0.583712496547E+03 eV
    (  non-var. 2DEtotal :   -2.1451040474E+01 Ha)

 CALCULATION OF EFFECTIVE MASSES
 NOTE : Additional infos (eff. mass eigenvalues, eigenvectors and, if degenerate, average mass) are available in stdout.

 K-point ( 0.500, 0.000, 0.500) | band =    33
 Effective mass tensor:
             -1.0996309851             -0.1892201446              0.1074013306
             -0.1892201446             -0.7609749619             -0.2402364846
              0.1074013306             -0.2402364846             -0.6392518903
 Effective mass tensor eigenvalues:
             -1.1842246910             -0.9216219214             -0.3940112249
 Angular average effective mass 1/(<1/m>)=  -0.6715200046
 Angular average effective mass for Frohlich model (<m**0.5>)**2=  -0.7219291957
 Effective masses along directions: (cart. coord. / red. coord. -> eff. mass)
    1:   1.000000  0.000000  0.000000 /   0.831979  0.554807  0.000000 ->  -1.0029987001
    2:   0.000000  1.000000  0.000000 /   0.000000  1.000000  0.000000 ->  -0.6219597360
    3:   0.000000  0.000000  1.000000 /   0.436618  0.379206  0.815823 ->  -0.5368708534
    4:   0.577350  0.577350  0.577350 /   0.589500  0.734813  0.335470 ->  -0.9825446599
    5:   0.000000  0.707107  0.707107 /   0.300196  0.771527  0.560918 ->  -0.9313930841
    6:   0.707107  0.000000  0.707107 /   0.734377  0.534823  0.417917 ->  -0.5795106519
    7:   0.707107  0.707107  0.000000 /   0.577942  0.816078  0.000000 ->  -1.0404396270

 K-point ( 0.500, 0.000, 0.500) | band =    34
 Effective mass tensor:
              0.4178235368             -0.3071428517             -0.1388242411
             -0.3071428517              0.9675312889              0.3105236169
             -0.1388242411              0.3105236169              1.0568516231
 Effective mass tensor eigenvalues:
              0.2805107177              0.7398597334              1.4218359977
 Angular average effective mass 1/(<1/m>)=   0.5338221039
 Angular average effective mass for Frohlich model (<m**0.5>)**2=   0.6096293344
 Effective masses along directions: (cart. coord. / red. coord. -> eff. mass)
    1:   1.000000  0.000000  0.000000 /   0.831979  0.554807  0.000000 ->   0.3186286325
    2:   0.000000  1.000000  0.000000 /   0.000000  1.000000  0.000000 ->   0.6987499842
    3:   0.000000  0.000000  1.000000 /   0.436618  0.379206  0.815823 ->   0.9521336038
    4:   0.577350  0.577350  0.577350 /   0.589500  0.734813  0.335470 ->   0.4165910897
    5:   0.000000  0.707107  0.707107 /   0.300196  0.771527  0.560918 ->   1.0576258881
    6:   0.707107  0.000000  0.707107 /   0.734377  0.534823  0.417917 ->   0.4491699798
    7:   0.707107  0.707107  0.000000 /   0.577942  0.816078  0.000000 ->   0.3087624898

 END OF EFFECTIVE MASSES SECTION

 ---- first-order wavefunction calculations are completed ----

 Total localisation tensor (bohr^2) in cartesian coordinates
  WARNING : still subject to testing - especially symmetries.
      direction              matrix element
   alpha     beta       real part   imaginary part
     1        1       4.8753171623    0.0000000000
     1        2       1.6769669971    0.0000000000
     1        3       2.3338497481    0.0000000000
     2        1       1.6769669971    0.0000000000
     2        2       1.8739718397    0.0000000000
     2        3       0.9565035346    0.0000000000
     3        1       2.3338497481    0.0000000000
     3        2       0.9565035346    0.0000000000
     3        3       3.3951573205    0.0000000000

 respfn : d/dk was computed, but no 2DTE, so no DDB output.

== END DATASET(S) ==============================================================

 -outvars: echo values of variables after computation  --------
            acell      1.0000000000E+00  1.0000000000E+00  1.0000000000E+00 Bohr
              amu      8.54678000E+01  3.09737620E+01
             ecut      2.60000000E+01 Hartree
           etotal     -2.1451040474E+01
            fcart      0.0000000000E+00  0.0000000000E+00  0.0000000000E+00
                       0.0000000000E+00  0.0000000000E+00  0.0000000000E+00
                       0.0000000000E+00  0.0000000000E+00  0.0000000000E+00
                       0.0000000000E+00  0.0000000000E+00  0.0000000000E+00
                       0.0000000000E+00  0.0000000000E+00  0.0000000000E+00
                       0.0000000000E+00  0.0000000000E+00  0.0000000000E+00
                       0.0000000000E+00  0.0000000000E+00  0.0000000000E+00
                       0.0000000000E+00  0.0000000000E+00  0.0000000000E+00
                       0.0000000000E+00  0.0000000000E+00  0.0000000000E+00
                       0.0000000000E+00  0.0000000000E+00  0.0000000000E+00
-          fftalg         512
           irdden           1
           irdwfk           1
           istwfk        1
              ixc     -116133
              kpt      5.00000000E-01  0.00000000E+00  5.00000000E-01
           kptopt           0
P           mkmem           1
P          mkqmem           1
P          mk1mem           1
            natom          10
            nband          42
           nbdbuf           4
            ngfft          80      80      80
             nkpt           1
            nstep        2000
             nsym           8
           ntypat           2
              occ      2.000000  2.000000  2.000000  2.000000  2.000000  2.000000
                       2.000000  2.000000  2.000000  2.000000  2.000000  2.000000
                       2.000000  2.000000  2.000000  2.000000  2.000000  2.000000
                       2.000000  2.000000  2.000000  2.000000  2.000000  2.000000
                       2.000000  2.000000  2.000000  2.000000  2.000000  2.000000
                       2.000000  2.000000  2.000000  0.000000  0.000000  0.000000
                       0.000000  0.000000  0.000000  0.000000  0.000000  0.000000
        optdriver           1
            prtwf          -1
            rfdir           1       1       1
           rfelfd           2
            rprim      1.5083645015E+01  0.0000000000E+00  6.6057701550E+00
                       1.0058547565E+01  1.1240194302E+01  5.7371649622E+00
                       0.0000000000E+00  0.0000000000E+00  1.2342935118E+01
          spgroup          69
           strten      0.0000000000E+00  0.0000000000E+00  0.0000000000E+00
                       0.0000000000E+00  0.0000000000E+00  0.0000000000E+00
           symrel      1  0  0   0  1  0   0  0  1      -1  0  0   0 -1  0   0  0 -1
                      -1  0  0  -1  0  1  -1  1  0       1  0  0   1  0 -1   1 -1  0
                       0 -1  1   0 -1  0   1 -1  0       0  1 -1   0  1  0  -1  1  0
                       0  1 -1   1  0 -1   0  0 -1       0 -1  1  -1  0  1   0  0  1
           tolwfr      1.00000000E-20
            typat      1  1  1  1  2  2  2  2  2  2
           useylm           1
           xangst      3.3261688218E+00  1.4870136612E+00  3.2657999756E+00
                       9.9785064655E+00  4.4610409836E+00  9.7973999269E+00
                       6.0571203298E+00  4.3054160818E+00  4.9667074065E+00
                       7.2475549576E+00  1.6426385629E+00  8.0964924960E+00
                       1.9799751669E+00  8.8517759612E-01  6.5315999514E+00
                       1.1324700120E+01  5.0628770486E+00  6.5315999512E+00
                       8.4097679625E+00  1.6858154916E+00  4.7671569452E+00
                       6.4403567077E+00  8.0536065084E-01  4.7671569452E+00
                       4.8949073249E+00  4.2622391532E+00  8.2960429574E+00
                       6.8643185797E+00  5.1426939939E+00  8.2960429573E+00
            xcart      6.2855481450E+00  2.8100485755E+00  6.1714675587E+00
                       1.8856644435E+01  8.4301457265E+00  1.8514402676E+01
                       1.1446298577E+01  8.1360572828E+00  9.3857167805E+00
                       1.3695894003E+01  3.1041370192E+00  1.5300153454E+01
                       3.7416108154E+00  1.6727432356E+00  1.2342935118E+01
                       2.1400581765E+01  9.5674510664E+00  1.2342935117E+01
                       1.5892158290E+01  3.1857295897E+00  9.0086210589E+00
                       1.2170510376E+01  1.5219110683E+00  9.0086210590E+00
                       9.2500342899E+00  8.0544647123E+00  1.5677249176E+01
                       1.2971682204E+01  9.7182832337E+00  1.5677249176E+01
             xred      2.5000000000E-01  2.5000000000E-01  2.5000000000E-01
                       7.5000000000E-01  7.5000000000E-01  7.5000000000E-01
                       2.7616400000E-01  7.2383600000E-01  2.7616400000E-01
                       7.2383600000E-01  2.7616400000E-01  7.2383600000E-01
                       1.4881800000E-01  1.4881800000E-01  8.5118200000E-01
                       8.5118200000E-01  8.5118200000E-01  1.4881800000E-01
                       8.6460100000E-01  2.8342300000E-01  1.3539900000E-01
                       7.1657700000E-01  1.3539900000E-01  2.8342300000E-01
                       1.3539900000E-01  7.1657700000E-01  8.6460100000E-01
                       2.8342300000E-01  8.6460100000E-01  7.1657700000E-01
            znucl       37.00000   15.00000

- Timing analysis has been suppressed with timopt=0

 Suggested references for the acknowledgment of ABINIT usage.

 Calculation completed.
.Delivered   2 WARNINGs and   5 COMMENTs to log file.