.Version 9.5.2 of ABINIT

 ABINIT is a project of the Universite Catholique de Louvain,
 Corning Inc. and other collaborators, see ~abinit/doc/developers/contributors.txt .
 acknowledgments of the ABINIT effort.

.Starting date : Mon 24 May 2021.
- ( at 11h17 )

- input  file    -> /scratch/users/j/a/jabreu/flow_simple_10atoms/flow/w312/t1/run.abi
- output file    -> /scratch/users/j/a/jabreu/flow_simple_10atoms/flow/w312/t1/run.abo
- root for input  files -> /scratch/users/j/a/jabreu/flow_simple_10atoms/flow/w312/t1/indata/in
- root for output files -> /scratch/users/j/a/jabreu/flow_simple_10atoms/flow/w312/t1/outdata/out

 Symmetries : space group P2_1/m (# 11); Bravais mP (primitive monocl.)
     intxc =       0      iscf =       7    lmnmax =      18     lnmax =       6
     mgfft =      96  mpssoang =       3    mqgrid =    4525     natom =      10
  nloc_mem =       1    nspden =       1   nspinor =       1    nsppol =       1
      nsym =       4    n1xccc =    2501    ntypat =       4    occopt =       1
   xclevel =       2
-    mband =          41        mffmem =           1         mkmem =           1
-   mkqmem =           1        mk1mem =           1           mpw =       21055
      nfft =      368640          nkpt =           1
  Rough estimation (10% accuracy) of disk space for files :

------------- Echo of variables that govern the present computation ------------
-
- outvars: echo of selected default values
-   iomode0 =  0 , fftalg0 =512 , wfoptalg0 =  0
-
- outvars: echo of global parameters not present in the input file
-  max_nthreads =    0
-
 -outvars: echo values of preprocessed input variables --------
            acell      1.0000000000E+00  1.0000000000E+00  1.0000000000E+00 Bohr
              amu      3.90983000E+01  1.00794000E+00  7.99040000E+01
                       1.59994000E+01
             ecut      4.40000000E+01 Hartree
-          fftalg         512
           irdden           1
           irdwfk           1
           istwfk        1
              ixc     -116133
           kptopt           0
P           mkmem           1
P          mkqmem           1
P          mk1mem           1
            natom          10
            nband          41
           nbdbuf           4
            ngfft          48      80      96
             nkpt           1
            nstep        2000
             nsym           4
           ntypat           4
              occ      2.000000  2.000000  2.000000  2.000000  2.000000  2.000000
                       2.000000  2.000000  2.000000  2.000000  2.000000  2.000000
                       2.000000  2.000000  2.000000  2.000000  2.000000  2.000000
                       2.000000  2.000000  2.000000  2.000000  2.000000  2.000000
                       2.000000  2.000000  2.000000  2.000000  2.000000  2.000000
                       2.000000  2.000000  0.000000  0.000000  0.000000  0.000000
                       0.000000  0.000000  0.000000  0.000000  0.000000
        optdriver           1
            prtwf          -1
            rfdir           1       1       1
           rfelfd           2
            rprim      7.9124485026E+00  0.0000000000E+00  0.0000000000E+00
                       0.0000000000E+00  1.1937786412E+01  3.9520319614E+00
                       0.0000000000E+00  0.0000000000E+00  1.5961996617E+01
          spgroup          11
           symrel      1  0  0   0  1  0   0  0  1      -1  0  0   0 -1  0   0  0 -1
                       1  0  0   0 -1  0   0  0 -1      -1  0  0   0  1  0   0  0  1
            tnons      0.0000000  0.0000000  0.0000000     0.0000000  0.0000000  0.0000000
                       0.5000000  0.0000000  0.0000000     0.5000000  0.0000000  0.0000000
           tolwfr      1.00000000E-20
            typat      1  1  1  1  2  2  3  3  4  4
           useylm           1
           xangst      1.0467718529E+00  5.0012360370E+00  5.5856446908E+00
                       3.1403155588E+00  1.3159684534E+00  4.9524053639E+00
                       3.1403155588E+00  1.2909649580E+00  1.4244030092E+00
                       1.0467718529E+00  5.0262395324E+00  9.1136470455E+00
                       3.1403155588E+00  4.1486534846E+00  7.3905725081E+00
                       1.0467718529E+00  2.1685510059E+00  3.1474775466E+00
                       3.1403155588E+00  4.2721737840E+00  3.1085824723E+00
                       1.0467718529E+00  2.0450307065E+00  7.4294675824E+00
                       3.1403155588E+00  5.1218188363E+00  7.3788421297E+00
                       1.0467718529E+00  1.1953856541E+00  3.1592079250E+00
            xcart      1.9781121256E+00  9.4509664358E+00  1.0555338741E+01
                       5.9343363770E+00  2.4868199765E+00  9.3586898368E+00
                       5.9343363770E+00  2.4395702179E+00  2.6917315902E+00
                       1.9781121256E+00  9.4982161944E+00  1.7222296988E+01
                       5.9343363770E+00  7.8398189060E+00  1.3966158006E+01
                       1.9781121256E+00  4.0979675063E+00  5.9478705724E+00
                       5.9343363770E+00  8.0732384438E+00  5.8743695341E+00
                       1.9781121256E+00  3.8645479685E+00  1.4039659044E+01
                       5.9343363770E+00  9.6788349029E+00  1.3943990803E+01
                       1.9781121256E+00  2.2589515094E+00  5.9700377750E+00
             xred      2.5000000000E-01  7.9168500000E-01  4.6526600000E-01
                       7.5000000000E-01  2.0831500000E-01  5.3473400000E-01
                       7.5000000000E-01  2.0435700000E-01  1.1803700000E-01
                       2.5000000000E-01  7.9564300000E-01  8.8196300000E-01
                       7.5000000000E-01  6.5672300000E-01  7.1236500000E-01
                       2.5000000000E-01  3.4327700000E-01  2.8763500000E-01
                       7.5000000000E-01  6.7627600000E-01  2.0058300000E-01
                       2.5000000000E-01  3.2372400000E-01  7.9941700000E-01
                       7.5000000000E-01  8.1077300000E-01  6.7283500000E-01
                       2.5000000000E-01  1.8922700000E-01  3.2716500000E-01
            znucl       19.00000    1.00000   35.00000    8.00000

 chkinp: Checking input parameters for consistency.

== DATASET  1 ==================================================================
-   mpi_nproc: 1, omp_nthreads: -1 (-1 if OMP is not activated)

--- !DatasetInfo
iteration_state: {dtset: 1, }
dimensions: {natom: 10, nkpt: 1, mband: 41, nsppol: 1, nspinor: 1, nspden: 1, mpw: 21055, }
cutoff_energies: {ecut:  44.0, pawecutdg:  -1.0, }
electrons: {nelect:   6.40000000E+01, charge:   0.00000000E+00, occopt:   1.00000000E+00, tsmear:   1.00000000E-02, }
meta: {optdriver: 1, rfelfd: 2, }
...

 Real(R)+Recip(G) space primitive vectors, cartesian coordinates (Bohr,Bohr^-1):
 R(1)=  7.9124485  0.0000000  0.0000000  G(1)=  0.1263831  0.0000000  0.0000000
 R(2)=  0.0000000 11.9377864  3.9520320  G(2)=  0.0000000  0.0837676  0.0000000
 R(3)=  0.0000000  0.0000000 15.9619966  G(3)=  0.0000000 -0.0207400  0.0626488
 Unit cell volume ucvol=  1.5077242E+03 bohr^3
 Angles (23,13,12)=  7.16827544E+01  9.00000000E+01  9.00000000E+01 degrees

 getcut: wavevector=  0.0000  0.0000  0.0000  ngfft=  48  80  96
         ecut(hartree)=     44.000   => boxcut(ratio)=   2.01416

--- Pseudopotential description ------------------------------------------------
- pspini: atom type   1  psp file is /scratch/users/j/a/jabreu/pseudos/PBEsol/K.psp8
- pspatm: opening atomic psp file    /scratch/users/j/a/jabreu/pseudos/PBEsol/K.psp8
- K     ONCVPSP-3.3.0  r_core=   1.36296   1.46408   1.61068
- 19.00000   9.00000    180112                znucl, zion, pspdat
    8 -116133    2    4       400   0.00000   pspcod,pspxc,lmax,lloc,mmax,r2well
    3.99000000000000    5.00000000000000    0.00000000000000   rchrg,fchrg,qchrg
     nproj     2     2     2
     extension_switch     1
  pspatm : epsatm=    8.32487830
         --- l  ekb(1:nproj) -->
             0   10.921326    0.816676
             1    4.431000    0.560368
             2   -3.384038   -1.043186
 pspatm: atomic psp has been read  and splines computed

- pspini: atom type   2  psp file is /scratch/users/j/a/jabreu/pseudos/PBEsol/H.psp8
- pspatm: opening atomic psp file    /scratch/users/j/a/jabreu/pseudos/PBEsol/H.psp8
- H     ONCVPSP-3.3.0  r_core=   1.00957   0.70586
-  1.00000   1.00000    180112                znucl, zion, pspdat
    8 -116133    1    4       300   0.00000   pspcod,pspxc,lmax,lloc,mmax,r2well
    2.99000000000000    0.00000000000000    0.00000000000000   rchrg,fchrg,qchrg
     nproj     2     1
     extension_switch     1
  pspatm : epsatm=    0.35627032
         --- l  ekb(1:nproj) -->
             0   -1.674911   -0.523609
             1   -0.494138
 pspatm: atomic psp has been read  and splines computed

[...]

- pspini: atom type   4  psp file is /scratch/users/j/a/jabreu/pseudos/PBEsol/O.psp8
- pspatm: opening atomic psp file    /scratch/users/j/a/jabreu/pseudos/PBEsol/O.psp8
- O     ONCVPSP-3.3.0  r_core=   1.35509   1.45563   1.26150
-  8.00000   6.00000    180112                znucl, zion, pspdat
    8 -116133    2    4       600   0.00000   pspcod,pspxc,lmax,lloc,mmax,r2well
    5.99000000000000    4.00000000000000    0.00000000000000   rchrg,fchrg,qchrg
     nproj     2     2     1
     extension_switch     1
  pspatm : epsatm=    6.22910522
         --- l  ekb(1:nproj) -->
             0    6.050032    0.820363
             1   -4.739617   -1.153841
             2   -1.335834
 pspatm: atomic psp has been read  and splines computed

   4.37561124E+03                                ecore*ucvol(ha*bohr**3)

 ==>  initialize data related to q vector <==

 The list of irreducible perturbations for this q vector is:
    1)    idir= 1    ipert=  11
    2)    idir= 2    ipert=  11
    3)    idir= 3    ipert=  11

 Perturbation wavevector (in red.coord.)   0.000000  0.000000  0.000000
 Perturbation : derivative vs k along direction   1

 dfpt_looppert : COMMENT -
  In a d/dk calculation, iscf is set to -3 automatically.
 The set of symmetries contains only one element for this perturbation.
 symkpt : not enough symmetry to change the number of k points.

 Initialisation of the first-order wave-functions :
  ireadwf=   0

--- !BeginCycle
iteration_state: {dtset: 1, }
solver: {iscf: 7, nstep: 2000, nline: 4, wfoptalg: 0, }
tolerances: {tolwfr: 1.00E-20, }
...

     iter   2DEtotal(Ha)        deltaE(Ha) residm    vres2
-ETOT  1  -42.290754928420     -4.229E+01 8.577E-02 0.000E+00
 ETOT  2  -42.414383609749     -1.236E-01 2.874E-03 0.000E+00
 ETOT  3  -42.415924358631     -1.541E-03 1.082E-03 0.000E+00
 ETOT  4  -42.415957383877     -3.303E-05 1.602E-04 0.000E+00
 ETOT  5  -42.415958323484     -9.396E-07 6.525E-05 0.000E+00
 ETOT  6  -42.415958353842     -3.036E-08 1.286E-05 0.000E+00
 ETOT  7  -42.415958354893     -1.051E-09 5.303E-06 0.000E+00
 ETOT  8  -42.415958354931     -3.798E-11 1.108E-06 0.000E+00
 ETOT  9  -42.415958354933     -1.393E-12 4.569E-07 0.000E+00
 ETOT 10  -42.415958354933     -7.105E-14 9.808E-08 0.000E+00
 ETOT 11  -42.415958354933      7.105E-15 4.041E-08 0.000E+00
[...]
 ETOT 23  -42.415958354933      7.105E-15 2.191E-14 0.000E+00
 ETOT 24  -42.415958354933     -7.105E-15 4.803E-15 0.000E+00
 ETOT 25  -42.415958354933      0.000E+00 1.988E-15 0.000E+00
 ETOT 26  -42.415958354933     -7.105E-15 4.357E-16 0.000E+00
 ETOT 27  -42.415958354933      0.000E+00 1.805E-16 0.000E+00
 ETOT 28  -42.415958354933     -1.421E-14 3.955E-17 0.000E+00
 ETOT 29  -42.415958354933      1.421E-14 1.640E-17 0.000E+00
 ETOT 30  -42.415958354933      0.000E+00 3.593E-18 0.000E+00
 ETOT 31  -42.415958354933     -7.105E-15 1.490E-18 0.000E+00
 ETOT 32  -42.415958354933      1.421E-14 3.265E-19 0.000E+00
 ETOT 33  -42.415958354933      0.000E+00 1.355E-19 0.000E+00
 ETOT 34  -42.415958354933      0.000E+00 2.969E-20 0.000E+00
 ETOT 35  -42.415958354933      7.105E-15 1.232E-20 0.000E+00
 ETOT 36  -42.415958354933     -7.105E-15 9.476E-21 0.000E+00

 At SCF step   36   max residual=  9.48E-21 < tolwfr=  1.00E-20 =>converged.

 ----iterations are completed or convergence reached----

 dfpt_looppert: DFPT cycle converged with prtwf=-1. Will skip output of the 1st-order WFK file.
 dfpt_looppert : ek2=    8.0713822131E+01
          f-sum rule ratio=    1.0942469730E+00
 prteigrs : about to open file /scratch/users/j/a/jabreu/flow_simple_10atoms/flow/w312/t1/tmpdata/tmp_1WF1_EIG
 Expectation of eigenvalue derivatives (hartree) for nkpt=   1  k points:
  (in case of degenerate eigenvalues, averaged derivative)
 kpt#   1, nband= 41, wtk=  1.00000, kpt=  0.0000  0.0000  0.0000 (reduced coord)
  -0.00000    0.00000   -0.00000    0.00000   -0.00000   -0.00000    0.00000    0.00000
  -0.00000   -0.00000    0.00000   -0.00000    0.00000    0.00000   -0.00000    0.00000
   0.00000   -0.00000   -0.00000    0.00000    0.00000   -0.00000   -0.00000    0.00000
   0.00000   -0.00000   -0.00000   -0.00000   -0.00000   -0.00000    0.00000   -0.00000
  -0.00000    0.00000   -0.00000    0.00000   -0.00000   -0.00000   -0.00001   -0.00942
  -0.00005

 Eight components of 2nd-order total energy (hartree) are
 1,2,3: 0th-order hamiltonian combined with 1st-order wavefunctions
     kin0=   5.71764892E+01 eigvalue=   5.85194750E+00  local=  -3.22679583E+01
 4,5,6: 1st-order hamiltonian combined with 1st and 0th-order wfs
     kin1=  -8.83208555E+01  Hartree=   0.00000000E+00     xc=   0.00000000E+00
 7,8,9: eventually, occupation + non-local contributions
    edocc=   1.06270853E+01     enl0=   1.02839475E+00   enl1=   3.48893884E+00
 1-9 gives the relaxation energy (to be shifted if some occ is /=2.0)
   erelax=  -4.24159584E+01
  No Ewald or frozen-wf contrib.: the relaxation energy is the total one
 2DEtotal=   -0.4241595835E+02 Ha. Also 2DEtotal=   -0.115419692459E+04 eV
    (  non-var. 2DEtotal :   -4.2415958355E+01 Ha)

 Perturbation wavevector (in red.coord.)   0.000000  0.000000  0.000000
 Perturbation : derivative vs k along direction   2
 The set of symmetries contains only one element for this perturbation.
 symkpt : not enough symmetry to change the number of k points.

[...]

 Perturbation wavevector (in red.coord.)   0.000000  0.000000  0.000000
 Perturbation : derivative vs k along direction   3
 The set of symmetries contains only one element for this perturbation.
 symkpt : not enough symmetry to change the number of k points.

 Initialisation of the first-order wave-functions :
  ireadwf=   0

--- !BeginCycle
iteration_state: {dtset: 1, }
solver: {iscf: 7, nstep: 2000, nline: 4, wfoptalg: 0, }
tolerances: {tolwfr: 1.00E-20, }
...

     iter   2DEtotal(Ha)        deltaE(Ha) residm    vres2
-ETOT  1  -10.750664107502     -1.075E+01 4.617E-02 0.000E+00
 ETOT  2  -10.784293248003     -3.363E-02 2.605E-03 0.000E+00
 ETOT  3  -10.784742433758     -4.492E-04 4.922E-04 0.000E+00
 ETOT  4  -10.784752128849     -9.695E-06 5.040E-05 0.000E+00
 ETOT  5  -10.784752407202     -2.784E-07 1.396E-05 0.000E+00
 ETOT  6  -10.784752416356     -9.154E-09 2.385E-06 0.000E+00
 ETOT  7  -10.784752416680     -3.236E-10 7.270E-07 0.000E+00
 ETOT  8  -10.784752416692     -1.195E-11 1.531E-07 0.000E+00
 ETOT  9  -10.784752416692     -4.690E-13 4.676E-08 0.000E+00
 ETOT 10  -10.784752416692     -2.665E-14 1.111E-08 0.000E+00
 ETOT 11  -10.784752416692      0.000E+00 3.272E-09 0.000E+00
 ETOT 12  -10.784752416692     -1.599E-14 8.392E-10 0.000E+00
 ETOT 13  -10.784752416692      5.329E-15 2.375E-10 0.000E+00
 ETOT 14  -10.784752416692      7.105E-15 6.443E-11 0.000E+00
 ETOT 15  -10.784752416692      1.776E-15 1.761E-11 0.000E+00
 ETOT 16  -10.784752416692      0.000E+00 4.989E-12 0.000E+00
 ETOT 17  -10.784752416692     -3.553E-15 1.327E-12 0.000E+00
 ETOT 18  -10.784752416692      3.553E-15 3.893E-13 0.000E+00
 ETOT 19  -10.784752416692     -3.553E-15 1.015E-13 0.000E+00
 ETOT 20  -10.784752416692      1.776E-15 3.056E-14 0.000E+00
 ETOT 21  -10.784752416692     -1.776E-15 7.848E-15 0.000E+00
 ETOT 22  -10.784752416692      3.553E-15 2.411E-15 0.000E+00
 ETOT 23  -10.784752416692      1.776E-15 6.127E-16 0.000E+00
 ETOT 24  -10.784752416692     -3.553E-15 1.911E-16 0.000E+00
 ETOT 25  -10.784752416692     -3.553E-15 4.819E-17 0.000E+00
 ETOT 26  -10.784752416692      3.553E-15 1.519E-17 0.000E+00
 ETOT 27  -10.784752416692      1.776E-15 3.810E-18 0.000E+00
 ETOT 28  -10.784752416692     -1.776E-15 1.210E-18 0.000E+00
 ETOT 29  -10.784752416692      0.000E+00 3.023E-19 0.000E+00
 ETOT 30  -10.784752416692     -1.776E-15 9.655E-20 0.000E+00
 ETOT 31  -10.784752416692      1.776E-15 2.406E-20 0.000E+00
 ETOT 32  -10.784752416692      0.000E+00 9.888E-21 0.000E+00

 At SCF step   32   max residual=  9.89E-21 < tolwfr=  1.00E-20 =>converged.

 ----iterations are completed or convergence reached----

 dfpt_looppert: DFPT cycle converged with prtwf=-1. Will skip output of the 1st-order WFK file.
 dfpt_looppert : ek2=    2.2006958281E+01
          f-sum rule ratio=    1.0252235448E+00
 prteigrs : about to open file /scratch/users/j/a/jabreu/flow_simple_10atoms/flow/w312/t1/tmpdata/tmp_1WF1_EIG
 Expectation of eigenvalue derivatives (hartree) for nkpt=   1  k points:
  (in case of degenerate eigenvalues, averaged derivative)
 kpt#   1, nband= 41, wtk=  1.00000, kpt=  0.0000  0.0000  0.0000 (reduced coord)
   0.00000   -0.00000    0.00000    0.00000   -0.00000    0.00000   -0.00000   -0.00000
  -0.00000    0.00000   -0.00000   -0.00000   -0.00000    0.00000    0.00000   -0.00000
   0.00000    0.00000   -0.00000   -0.00000    0.00000    0.00000   -0.00000   -0.00000
  -0.00000   -0.00000    0.00000    0.00000    0.00000    0.00000   -0.00000   -0.00000
  -0.00000   -0.00000    0.00000    0.00000   -0.00000    0.00000   -0.00000   -0.00002
   0.00009

 Eight components of 2nd-order total energy (hartree) are
 1,2,3: 0th-order hamiltonian combined with 1st-order wavefunctions
     kin0=   1.51215774E+01 eigvalue=   1.57327825E+00  local=  -8.63030519E+00
 4,5,6: 1st-order hamiltonian combined with 1st and 0th-order wfs
     kin1=  -2.25620518E+01  Hartree=   0.00000000E+00     xc=   0.00000000E+00
 7,8,9: eventually, occupation + non-local contributions
    edocc=   2.30250050E+00     enl0=   4.17701434E-01   enl1=   9.92546946E-01
 1-9 gives the relaxation energy (to be shifted if some occ is /=2.0)
   erelax=  -1.07847524E+01
  No Ewald or frozen-wf contrib.: the relaxation energy is the total one
 2DEtotal=   -0.1078475242E+02 Ha. Also 2DEtotal=   -0.293468037846E+03 eV
    (  non-var. 2DEtotal :   -1.0784752416E+01 Ha)

 CALCULATION OF EFFECTIVE MASSES
 NOTE : Additional infos (eff. mass eigenvalues, eigenvectors and, if degenerate, average mass) are available in stdout.

 K-point ( 0.000, 0.000, 0.000) | band =    32
 Effective mass tensor:
             -0.8426891559             -0.0004243247             -0.0000164005
             -0.0004243247            -10.1454568231             -0.1649687013
             -0.0000164005             -0.1649687013             -3.7827868068
 Effective mass tensor eigenvalues:
            -10.1497312118             -3.7785124374             -0.8426891365
 Angular average effective mass 1/(<1/m>)=  -1.9356631886
 Angular average effective mass for Frohlich model (<m**0.5>)**2=  -2.5979870587
 Effective masses along directions: (cart. coord. / red. coord. -> eff. mass)
    1:   1.000000  0.000000  0.000000 /   1.000000  0.000000  0.000000 ->  -0.8426891381
    2:   0.000000  1.000000  0.000000 /   0.000000  1.000000  0.000000 -> -10.1382622654
    3:   0.000000  0.000000  1.000000 /   0.000000  0.240333  0.970690 ->  -3.7801043575
    4:   0.577350  0.577350  0.577350 /   0.331451  0.665622  0.668646 ->  -1.9466006498
    5:   0.000000  0.707107  0.707107 /   0.000000  0.705503  0.708707 ->  -5.6405385574
    6:   0.707107  0.000000  0.707107 /   0.433593  0.216567  0.874698 ->  -1.3781562943
    7:   0.707107  0.707107  0.000000 /   0.552471  0.833532  0.000000 ->  -1.5561607334

 K-point ( 0.000, 0.000, 0.000) | band =    33
 Effective mass tensor:
              0.4015895636             -0.0000003336             -0.0000002008
             -0.0000003336              0.4055900011             -0.0014148905
             -0.0000002008             -0.0014148905              0.4113040643
 Effective mass tensor eigenvalues:
              0.4015895636              0.4052588444              0.4116352210
 Angular average effective mass 1/(<1/m>)=   0.4061189318
 Angular average effective mass for Frohlich model (<m**0.5>)**2=   0.4061315936
 Effective masses along directions: (cart. coord. / red. coord. -> eff. mass)
    1:   1.000000  0.000000  0.000000 /   1.000000  0.000000  0.000000 ->   0.4015895636
    2:   0.000000  1.000000  0.000000 /   0.000000  1.000000  0.000000 ->   0.4055851338
    3:   0.000000  0.000000  1.000000 /   0.000000  0.240333  0.970690 ->   0.4112991285
    4:   0.577350  0.577350  0.577350 /   0.331451  0.665622  0.668646 ->   0.4051881151
    5:   0.000000  0.707107  0.707107 /   0.000000  0.705503  0.708707 ->   0.4070122266
    6:   0.707107  0.000000  0.707107 /   0.433593  0.216567  0.874698 ->   0.4063861560
    7:   0.707107  0.707107  0.000000 /   0.552471  0.833532  0.000000 ->   0.4035771253

 END OF EFFECTIVE MASSES SECTION

 ---- first-order wavefunction calculations are completed ----

 Total localisation tensor (bohr^2) in cartesian coordinates
  WARNING : still subject to testing - especially symmetries.
      direction              matrix element
   alpha     beta       real part   imaginary part
     1        1       0.9912003797    0.0000000000
     1        2       0.0000000000    0.0000000000
     1        3       0.0000000000    0.0000000000
     2        1       0.0000000000    0.0000000000
     2        2       0.8403669791    0.0000000000
     2        3       0.2782054433    0.0000000000
     3        1       0.0000000000    0.0000000000
     3        2       0.2782054433    0.0000000000
     3        3       1.0191489232    0.0000000000

 respfn : d/dk was computed, but no 2DTE, so no DDB output.

== END DATASET(S) ==============================================================

 -outvars: echo values of variables after computation  --------
            acell      1.0000000000E+00  1.0000000000E+00  1.0000000000E+00 Bohr
              amu      3.90983000E+01  1.00794000E+00  7.99040000E+01
                       1.59994000E+01
             ecut      4.40000000E+01 Hartree
           etotal     -1.0784752417E+01
            fcart      0.0000000000E+00  0.0000000000E+00  0.0000000000E+00
                       0.0000000000E+00  0.0000000000E+00  0.0000000000E+00
                       0.0000000000E+00  0.0000000000E+00  0.0000000000E+00
                       0.0000000000E+00  0.0000000000E+00  0.0000000000E+00
                       0.0000000000E+00  0.0000000000E+00  0.0000000000E+00
                       0.0000000000E+00  0.0000000000E+00  0.0000000000E+00
                       0.0000000000E+00  0.0000000000E+00  0.0000000000E+00
                       0.0000000000E+00  0.0000000000E+00  0.0000000000E+00
                       0.0000000000E+00  0.0000000000E+00  0.0000000000E+00
                       0.0000000000E+00  0.0000000000E+00  0.0000000000E+00
-          fftalg         512
           irdden           1
           irdwfk           1
           istwfk        1
              ixc     -116133
           kptopt           0
P           mkmem           1
P          mkqmem           1
P          mk1mem           1
            natom          10
            nband          41
           nbdbuf           4
            ngfft          48      80      96
             nkpt           1
            nstep        2000
             nsym           4
           ntypat           4
              occ      2.000000  2.000000  2.000000  2.000000  2.000000  2.000000
                       2.000000  2.000000  2.000000  2.000000  2.000000  2.000000
                       2.000000  2.000000  2.000000  2.000000  2.000000  2.000000
                       2.000000  2.000000  2.000000  2.000000  2.000000  2.000000
                       2.000000  2.000000  2.000000  2.000000  2.000000  2.000000
                       2.000000  2.000000  0.000000  0.000000  0.000000  0.000000
                       0.000000  0.000000  0.000000  0.000000  0.000000
        optdriver           1
            prtwf          -1
            rfdir           1       1       1
           rfelfd           2
            rprim      7.9124485026E+00  0.0000000000E+00  0.0000000000E+00
                       0.0000000000E+00  1.1937786412E+01  3.9520319614E+00
                       0.0000000000E+00  0.0000000000E+00  1.5961996617E+01
          spgroup          11
           strten      0.0000000000E+00  0.0000000000E+00  0.0000000000E+00
                       0.0000000000E+00  0.0000000000E+00  0.0000000000E+00
           symrel      1  0  0   0  1  0   0  0  1      -1  0  0   0 -1  0   0  0 -1
                       1  0  0   0 -1  0   0  0 -1      -1  0  0   0  1  0   0  0  1
            tnons      0.0000000  0.0000000  0.0000000     0.0000000  0.0000000  0.0000000
                       0.5000000  0.0000000  0.0000000     0.5000000  0.0000000  0.0000000
           tolwfr      1.00000000E-20
            typat      1  1  1  1  2  2  3  3  4  4
           useylm           1
           xangst      1.0467718529E+00  5.0012360370E+00  5.5856446908E+00
                       3.1403155588E+00  1.3159684534E+00  4.9524053639E+00
                       3.1403155588E+00  1.2909649580E+00  1.4244030092E+00
                       1.0467718529E+00  5.0262395324E+00  9.1136470455E+00
                       3.1403155588E+00  4.1486534846E+00  7.3905725081E+00
                       1.0467718529E+00  2.1685510059E+00  3.1474775466E+00
                       3.1403155588E+00  4.2721737840E+00  3.1085824723E+00
                       1.0467718529E+00  2.0450307065E+00  7.4294675824E+00
                       3.1403155588E+00  5.1218188363E+00  7.3788421297E+00
                       1.0467718529E+00  1.1953856541E+00  3.1592079250E+00
            xcart      1.9781121256E+00  9.4509664358E+00  1.0555338741E+01
                       5.9343363770E+00  2.4868199765E+00  9.3586898368E+00
                       5.9343363770E+00  2.4395702179E+00  2.6917315902E+00
                       1.9781121256E+00  9.4982161944E+00  1.7222296988E+01
                       5.9343363770E+00  7.8398189060E+00  1.3966158006E+01
                       1.9781121256E+00  4.0979675063E+00  5.9478705724E+00
                       5.9343363770E+00  8.0732384438E+00  5.8743695341E+00
                       1.9781121256E+00  3.8645479685E+00  1.4039659044E+01
                       5.9343363770E+00  9.6788349029E+00  1.3943990803E+01
                       1.9781121256E+00  2.2589515094E+00  5.9700377750E+00
             xred      2.5000000000E-01  7.9168500000E-01  4.6526600000E-01
                       7.5000000000E-01  2.0831500000E-01  5.3473400000E-01
                       7.5000000000E-01  2.0435700000E-01  1.1803700000E-01
                       2.5000000000E-01  7.9564300000E-01  8.8196300000E-01
                       7.5000000000E-01  6.5672300000E-01  7.1236500000E-01
                       2.5000000000E-01  3.4327700000E-01  2.8763500000E-01
                       7.5000000000E-01  6.7627600000E-01  2.0058300000E-01
                       2.5000000000E-01  3.2372400000E-01  7.9941700000E-01
                       7.5000000000E-01  8.1077300000E-01  6.7283500000E-01
                       2.5000000000E-01  1.8922700000E-01  3.2716500000E-01
            znucl       19.00000    1.00000   35.00000    8.00000

- Timing analysis has been suppressed with timopt=0

 Suggested references for the acknowledgment of ABINIT usage.

 Calculation completed.
.Delivered   2 WARNINGs and   5 COMMENTs to log file.