.Version 9.5.2 of ABINIT

 ABINIT is a project of the Universite Catholique de Louvain,
 Corning Inc. and other collaborators, see ~abinit/doc/developers/contributors.txt .
 acknowledgments of the ABINIT effort.

.Starting date : Tue  1 Jun 2021.
- ( at 11h54 )

- input  file    -> /scratch/users/j/a/jabreu/flow_simple_11atoms/flow/w331/t1/run.abi
- output file    -> /scratch/users/j/a/jabreu/flow_simple_11atoms/flow/w331/t1/run.abo
- root for input  files -> /scratch/users/j/a/jabreu/flow_simple_11atoms/flow/w331/t1/indata/in
- root for output files -> /scratch/users/j/a/jabreu/flow_simple_11atoms/flow/w331/t1/outdata/out

 Symmetries : space group Ib a m (# 72); Bravais oI (body-center ortho.)
     intxc =       0      iscf =       7    lmnmax =      18     lnmax =       6
     mgfft =     108  mpssoang =       3    mqgrid =    3479     natom =      12
  nloc_mem =       1    nspden =       1   nspinor =       1    nsppol =       1
      nsym =       8    n1xccc =    2501    ntypat =       4    occopt =       1
   xclevel =       2
-    mband =          79        mffmem =           1         mkmem =           2
-   mkqmem =           2        mk1mem =           2           mpw =       32495
      nfft =     1259712          nkpt =           2
  Rough estimation (10% accuracy) of disk space for files :

------------- Echo of variables that govern the present computation ------------
-
- outvars: echo of selected default values
-   iomode0 =  0 , fftalg0 =512 , wfoptalg0 =  0
-
- outvars: echo of global parameters not present in the input file
-  max_nthreads =    0
-
 -outvars: echo values of preprocessed input variables --------
            acell      1.0000000000E+00  1.0000000000E+00  1.0000000000E+00 Bohr
              amu      3.90983000E+01  2.29897680E+01  1.14820000E+02
                       7.49215900E+01
             ecut      4.40000000E+01 Hartree
-          fftalg         512
           irdden           1
           irdwfk           1
           istwfk        0    1
              ixc     -116133
              kpt      3.84615385E-02  3.84615385E-02 -3.84615385E-02
                       0.00000000E+00  0.00000000E+00  0.00000000E+00
           kptopt           0
P           mkmem           2
P          mkqmem           2
P          mk1mem           2
            natom          12
            nband          79
           nbdbuf           4
            ngfft         108     108     108
             nkpt           2
            nstep        2000
             nsym           8
           ntypat           4
              occ      2.000000  2.000000  2.000000  2.000000  2.000000  2.000000
                       2.000000  2.000000  2.000000  2.000000  2.000000  2.000000
                       2.000000  2.000000  2.000000  2.000000  2.000000  2.000000
                       2.000000  2.000000  2.000000  2.000000  2.000000  2.000000
                       2.000000  2.000000  2.000000  2.000000  2.000000  2.000000
                       2.000000  2.000000  2.000000  2.000000  2.000000  2.000000
                       2.000000  2.000000  2.000000  2.000000  2.000000  2.000000
                       2.000000  2.000000  2.000000  2.000000  2.000000  2.000000
                       2.000000  2.000000  2.000000  2.000000  2.000000  2.000000
                       2.000000  2.000000  2.000000  2.000000  2.000000  2.000000
                       2.000000  2.000000  2.000000  2.000000  2.000000  2.000000
                       2.000000  2.000000  2.000000  2.000000  0.000000  0.000000
                       0.000000  0.000000  0.000000  0.000000  0.000000  0.000000
                       0.000000
        optdriver           1
            prtwf          -1
            rfdir           1       1       1
           rfelfd           2
            rprim      1.1808000349E+01  0.0000000000E+00 -1.2223837606E+01
                      -1.9194519398E+00  1.1627814706E+01 -1.2245844498E+01
                       0.0000000000E+00  0.0000000000E+00  1.6995619378E+01
          spgroup          72
           symrel      1  0  0   0  1  0   0  0  1      -1  0  0   0 -1  0   0  0 -1
                       0  0  1  -1 -1 -1   1  0  0       0  0 -1   1  1  1  -1  0  0
                      -1 -1 -1   0  0  1   0  1  0       1  1  1   0  0 -1   0 -1  0
                       0  1  0   1  0  0  -1 -1 -1       0 -1  0  -1  0  0   1  1  1
            tnons      0.0000000  0.0000000  0.0000000     0.0000000  0.0000000  0.0000000
                      -0.0000000  0.0000000  0.0000000     0.0000000  0.0000000  0.0000000
                       0.5000000 -0.0000000  0.5000000     0.5000000  0.0000000  0.5000000
                       0.5000000  0.0000000  0.5000000     0.5000000 -0.0000000  0.5000000
           tolwfr      1.00000000E-20
            typat      1  1  1  1  2  2  3  3  4  4  4  4
           useylm           1
              wtk        0.50000    0.50000
           xangst      1.4377519142E+00  3.5872607541E+00 -3.5577853110E+00
                       1.4639880707E-01  5.7425547321E+00 -3.6227079038E-01
                       5.0863956369E+00  4.1061979577E-01 -3.5928328595E+00
                       3.7950425298E+00  2.5659137738E+00 -3.9731833890E-01
                       1.5621311659E+00  0.0000000000E+00  6.3127953958E-01
                       4.6863934976E+00  0.0000000000E+00  1.8938386187E+00
                       4.1785283879E+00  3.0765872640E+00 -5.8431194957E+00
                       1.0542660561E+00  3.0765872640E+00  1.8880158458E+00
                       2.9307076432E+00  5.0461630518E+00 -7.2521750813E+00
                       2.3020868008E+00  1.1070114761E+00  3.2970714315E+00
                       4.9839844017E+00  3.7868051275E+00 -3.3394113987E+00
                       2.4881004228E-01  2.3663694004E+00 -6.1569225117E-01
            xcart      2.7169573648E+00  6.7789403926E+00 -6.7232398773E+00
                       2.7665365155E-01  1.0851855747E+01 -6.8459257975E-01
                       9.6118947572E+00  7.7595895875E-01 -6.7894701456E+00
                       7.1715910440E+00  4.8488743130E+00 -7.5082284809E-01
                       2.9520000871E+00  0.0000000000E+00  1.1929454431E+00
                       8.8560002614E+00  0.0000000000E+00  3.5788363293E+00
                       7.8962742915E+00  5.8139073528E+00 -1.1041895609E+01
                       1.9922741172E+00  5.8139073528E+00  3.5678328832E+00
                       5.5382348212E+00  9.5358661897E+00 -1.3704624771E+01
                       4.3503135876E+00  2.0919485159E+00  6.2305620461E+00
                       9.4183655698E+00  7.1560246096E+00 -6.3105729885E+00
                       4.7018283902E-01  4.4717900960E+00 -1.1634897369E+00
             xred      3.2486325000E-01  5.8299350000E-01  2.5813025000E-01
                       1.7513675000E-01  9.3326700000E-01  7.5813025000E-01
                       8.2486325000E-01  6.6733000000E-02  2.4186975000E-01
                       6.7513675000E-01  4.1700650000E-01  7.4186975000E-01
                       2.5000000000E-01  0.0000000000E+00  2.5000000000E-01
                       7.5000000000E-01  0.0000000000E+00  7.5000000000E-01
                       7.5000000000E-01  5.0000000000E-01  2.5000000000E-01
                       2.5000000000E-01  5.0000000000E-01  7.5000000000E-01
                       6.0233400000E-01  8.2009100000E-01  2.1775700000E-01
                       3.9766600000E-01  1.7990900000E-01  7.8224300000E-01
                       8.9766600000E-01  6.1542300000E-01  7.1775700000E-01
                       1.0233400000E-01  3.8457700000E-01  2.8224300000E-01
            znucl       19.00000   11.00000   49.00000   33.00000

 chkinp: Checking input parameters for consistency.

== DATASET  1 ==================================================================
-   mpi_nproc: 1, omp_nthreads: -1 (-1 if OMP is not activated)

--- !DatasetInfo
iteration_state: {dtset: 1, }
dimensions: {natom: 12, nkpt: 2, mband: 79, nsppol: 1, nspinor: 1, nspden: 1, mpw: 32495, }
cutoff_energies: {ecut:  44.0, pawecutdg:  -1.0, }
electrons: {nelect:   1.40000000E+02, charge:   0.00000000E+00, occopt:   1.00000000E+00, tsmear:   1.00000000E-02, }
meta: {optdriver: 1, rfelfd: 2, }
...

 Real(R)+Recip(G) space primitive vectors, cartesian coordinates (Bohr,Bohr^-1):
 R(1)= 11.8080003  0.0000000-12.2238376  G(1)=  0.0846883  0.0139799  0.0000000
 R(2)= -1.9194519 11.6278147-12.2458445  G(2)=  0.0000000  0.0860007  0.0000000
 R(3)=  0.0000000  0.0000000 16.9956194  G(3)=  0.0609108  0.0720208  0.0588387
 Unit cell volume ucvol=  2.3335196E+03 bohr^3
 Angles (23,13,12)=  1.36098211E+02  1.35991324E+02  6.39111712E+01 degrees

 getcut: wavevector=  0.0000  0.0000  0.0000  ngfft= 108 108 108
         ecut(hartree)=     44.000   => boxcut(ratio)=   2.12815

--- Pseudopotential description ------------------------------------------------
- pspini: atom type   1  psp file is /scratch/users/j/a/jabreu/pseudos/PBEsol/K.psp8
- pspatm: opening atomic psp file    /scratch/users/j/a/jabreu/pseudos/PBEsol/K.psp8
- K     ONCVPSP-3.3.0  r_core=   1.36296   1.46408   1.61068
- 19.00000   9.00000    180112                znucl, zion, pspdat
    8 -116133    2    4       400   0.00000   pspcod,pspxc,lmax,lloc,mmax,r2well
    3.99000000000000    5.00000000000000    0.00000000000000   rchrg,fchrg,qchrg
     nproj     2     2     2
     extension_switch     1
  pspatm : epsatm=    8.32487830
         --- l  ekb(1:nproj) -->
             0   10.921326    0.816676
             1    4.431000    0.560368
             2   -3.384038   -1.043186
 pspatm: atomic psp has been read  and splines computed

- pspini: atom type   2  psp file is /scratch/users/j/a/jabreu/pseudos/PBEsol/Na.psp8
- pspatm: opening atomic psp file    /scratch/users/j/a/jabreu/pseudos/PBEsol/Na.psp8
- Na    ONCVPSP-3.3.0  r_core=   1.20708   1.55069
- 11.00000   9.00000    180112                znucl, zion, pspdat
    8 -116133    1    4       400   0.00000   pspcod,pspxc,lmax,lloc,mmax,r2well
    3.99000000000000    0.00000000000000    0.00000000000000   rchrg,fchrg,qchrg
     nproj     2     2
     extension_switch     1
  pspatm : epsatm=    9.32878306
         --- l  ekb(1:nproj) -->
             0    2.657905   -0.678300
             1   -6.761319   -2.404728
 pspatm: atomic psp has been read  and splines computed

[...]

- pspini: atom type   4  psp file is /scratch/users/j/a/jabreu/pseudos/PBEsol/As.psp8
- pspatm: opening atomic psp file    /scratch/users/j/a/jabreu/pseudos/PBEsol/As.psp8
- As    ONCVPSP-3.3.0  r_core=   1.76603   1.70395   1.80867
- 33.00000  15.00000    180112                znucl, zion, pspdat
    8 -116133    2    4       600   0.00000   pspcod,pspxc,lmax,lloc,mmax,r2well
    5.99000000000000    5.00000000000000    0.00000000000000   rchrg,fchrg,qchrg
     nproj     2     2     2
     extension_switch     1
  pspatm : epsatm=   28.79155382
         --- l  ekb(1:nproj) -->
             0    8.270760    0.868950
             1    4.919053    0.756587
             2  -10.048665   -4.076802
 pspatm: atomic psp has been read  and splines computed

[...]
 2DEtotal=   -0.8182615924E+02 Ha. Also 2DEtotal=   -0.222660302881E+04 eV
    (  non-var. 2DEtotal :   -8.1826159237E+01 Ha)

 Perturbation wavevector (in red.coord.)   0.000000  0.000000  0.000000
 Perturbation : derivative vs k along direction   2
 The set of symmetries contains only one element for this perturbation.
 symkpt : not enough symmetry to change the number of k points.

[...]

 Perturbation wavevector (in red.coord.)   0.000000  0.000000  0.000000
 Perturbation : derivative vs k along direction   3
 The set of symmetries contains only one element for this perturbation.
 symkpt : not enough symmetry to change the number of k points.

 Initialisation of the first-order wave-functions :
  ireadwf=   0

--- !BeginCycle
iteration_state: {dtset: 1, }
solver: {iscf: 7, nstep: 2000, nline: 4, wfoptalg: 0, }
tolerances: {tolwfr: 1.00E-20, }
...

     iter   2DEtotal(Ha)        deltaE(Ha) residm    vres2
-ETOT  1  -138.41008226021     -1.384E+02 9.863E-02 0.000E+00
 ETOT  2  -138.76548602575     -3.554E-01 2.308E-02 0.000E+00
 ETOT  3  -138.78171662707     -1.623E-02 1.668E-03 0.000E+00
 ETOT  4  -138.78356065894     -1.844E-03 8.358E-04 0.000E+00
 ETOT  5  -138.78382550720     -2.648E-04 9.073E-05 0.000E+00
 ETOT  6  -138.78386595032     -4.044E-05 7.922E-05 0.000E+00
 ETOT  7  -138.78387227116     -6.321E-06 8.983E-06 0.000E+00
 ETOT  8  -138.78387328601     -1.015E-06 8.345E-06 0.000E+00
 ETOT  9  -138.78387345036     -1.644E-07 9.404E-07 0.000E+00
 ETOT 10  -138.78387347714     -2.678E-08 9.007E-07 0.000E+00
 ETOT 11  -138.78387348153     -4.387E-09 1.022E-07 0.000E+00
 ETOT 12  -138.78387348225     -7.216E-10 9.894E-08 0.000E+00
 ETOT 13  -138.78387348237     -1.190E-10 1.144E-08 0.000E+00
 ETOT 14  -138.78387348239     -1.964E-11 1.105E-08 0.000E+00
 ETOT 15  -138.78387348239     -3.382E-12 1.311E-09 0.000E+00
 ETOT 16  -138.78387348239     -5.684E-13 1.250E-09 0.000E+00
 ETOT 17  -138.78387348239     -8.527E-14 1.533E-10 0.000E+00
 ETOT 18  -138.78387348239      8.527E-14 1.422E-10 0.000E+00
 ETOT 19  -138.78387348239      0.000E+00 1.828E-11 0.000E+00
 ETOT 20  -138.78387348239     -5.684E-14 1.659E-11 0.000E+00
 ETOT 21  -138.78387348239      2.842E-14 2.202E-12 0.000E+00
 ETOT 22  -138.78387348239      2.842E-14 1.980E-12 0.000E+00
 ETOT 23  -138.78387348239      8.527E-14 2.669E-13 0.000E+00
 ETOT 24  -138.78387348239     -2.842E-14 2.386E-13 0.000E+00
 ETOT 25  -138.78387348239      0.000E+00 3.254E-14 0.000E+00
 ETOT 26  -138.78387348239      0.000E+00 2.894E-14 0.000E+00
 ETOT 27  -138.78387348239      2.842E-14 3.984E-15 0.000E+00
 ETOT 28  -138.78387348239      5.684E-14 3.529E-15 0.000E+00
 ETOT 29  -138.78387348239     -8.527E-14 4.893E-16 0.000E+00
 ETOT 30  -138.78387348239      2.842E-14 4.319E-16 0.000E+00
 ETOT 31  -138.78387348239     -2.842E-14 6.023E-17 0.000E+00
 ETOT 32  -138.78387348239      2.842E-14 5.301E-17 0.000E+00
 ETOT 33  -138.78387348239      0.000E+00 7.428E-18 0.000E+00
 ETOT 34  -138.78387348239      0.000E+00 6.521E-18 0.000E+00
 ETOT 35  -138.78387348239      0.000E+00 9.172E-19 0.000E+00
 ETOT 36  -138.78387348239     -2.842E-14 8.035E-19 0.000E+00
 ETOT 37  -138.78387348239      2.842E-14 1.134E-19 0.000E+00
 ETOT 38  -138.78387348239     -2.842E-14 9.917E-20 0.000E+00
 ETOT 39  -138.78387348239      2.842E-14 1.403E-20 0.000E+00
 ETOT 40  -138.78387348239      2.842E-14 9.977E-21 0.000E+00

 At SCF step   40   max residual=  9.98E-21 < tolwfr=  1.00E-20 =>converged.

 ----iterations are completed or convergence reached----

 dfpt_looppert: DFPT cycle converged with prtwf=-1. Will skip output of the 1st-order WFK file.
 dfpt_looppert : ek2=    1.3661712179E+02
          f-sum rule ratio=    1.1299689152E+00
 prteigrs : about to open file /scratch/users/j/a/jabreu/flow_simple_11atoms/flow/w331/t1/tmpdata/tmp_1WF1_EIG
 Expectation of eigenvalue derivatives (hartree) for nkpt=   2  k points:
  (in case of degenerate eigenvalues, averaged derivative)
 kpt#   1, nband= 79, wtk=  0.50000, kpt=  0.0385  0.0385 -0.0385 (reduced coord)
   0.00000   -0.00000   -0.00000   -0.00000    0.00000   -0.00000    0.00000   -0.00000
  -0.00000    0.00000    0.00000    0.00000   -0.00000   -0.00000    0.00000    0.00000
  -0.00000    0.00000    0.00000   -0.00000    0.00000    0.00000   -0.00000   -0.00000
   0.00000   -0.00000   -0.00000   -0.00000   -0.00000    0.00000    0.00000    0.00000
   0.00000   -0.00000   -0.00000    0.00000    0.00000   -0.00000    0.00000   -0.00000
   0.00000    0.00000    0.00000   -0.00000   -0.00000   -0.00000   -0.00000    0.00000
   0.00000    0.00000   -0.00000    0.00000   -0.00000   -0.00000    0.00000    0.00000
   0.00000   -0.00000   -0.00000   -0.00000   -0.00000   -0.00000    0.00000   -0.00000
   0.00000    0.00000    0.00000    0.00000   -0.00000   -0.00000    0.00000   -0.00000
  -0.00000   -0.00000   -0.00000    0.00000    0.00000   -0.00000    0.00001
 prteigrs : prtvol=0 or 1, do not print more k-points.

 Eight components of 2nd-order total energy (hartree) are
 1,2,3: 0th-order hamiltonian combined with 1st-order wavefunctions
     kin0=   1.62211243E+02 eigvalue=   2.00598434E+01  local=  -7.79164544E+01
 4,5,6: 1st-order hamiltonian combined with 1st and 0th-order wfs
     kin1=  -1.54373101E+02  Hartree=   0.00000000E+00     xc=   0.00000000E+00
 7,8,9: eventually, occupation + non-local contributions
    edocc=   1.89279871E+01     enl0=   1.55012541E+01   enl1=  -1.23194646E+02
 1-9 gives the relaxation energy (to be shifted if some occ is /=2.0)
   erelax=  -1.38783873E+02
  No Ewald or frozen-wf contrib.: the relaxation energy is the total one
 2DEtotal=   -0.1387838735E+03 Ha. Also 2DEtotal=   -0.377650125491E+04 eV
    (  non-var. 2DEtotal :   -1.3878387348E+02 Ha)

 CALCULATION OF EFFECTIVE MASSES
 NOTE : Additional infos (eff. mass eigenvalues, eigenvectors and, if degenerate, average mass) are available in stdout.

 K-point ( 0.038, 0.038,-0.038) | band =    70
 Effective mass tensor:
           -120.8447590901           -141.0469303868            296.5055750469
           -141.0469303868           -165.9648944223            349.0115169606
            296.5055750469            349.0115169606           -734.7010421488
 Effective mass tensor eigenvalues:
          -1020.3773999453             -1.0171858405             -0.1161098753
 Angular average effective mass 1/(<1/m>)=  -0.3126101818
 Angular average effective mass for Frohlich model (<m**0.5>)**2=  -0.7169887249
 Effective masses along directions: (cart. coord. / red. coord. -> eff. mass)
    1:   1.000000  0.000000  0.000000 /   0.987044 -0.160449  0.000000 ->  -0.9599343351
    2:   0.000000  1.000000  0.000000 /   0.000000  1.000000  0.000000 ->  -0.1386447341
    3:   0.000000  0.000000  1.000000 /  -0.504002 -0.504910  0.700748 ->  -0.7450458841
    4:   0.577350  0.577350  0.577350 /  -0.024192 -0.147622  0.988748 ->  -0.2340607520
    5:   0.000000  0.707107  0.707107 /  -0.583641 -0.029509  0.811475 ->  -0.1384408930
    6:   0.707107  0.000000  0.707107 /  -0.018792 -0.640132  0.768035 ->  -0.9552326826
    7:   0.707107  0.707107  0.000000 /   0.772440  0.635088  0.000000 ->  -0.3405140739

 K-point ( 0.000, 0.000, 0.000) | band =    71
 Effective mass tensor:
              0.1033978121              0.0040582263             -0.0069253813
              0.0040582263              0.1007227524             -0.0100422738
             -0.0069253813             -0.0100422738              0.1177363511
 Effective mass tensor eigenvalues:
              0.0959507370              0.1005991665              0.1253070120
 Angular average effective mass 1/(<1/m>)=   0.1058467846
 Angular average effective mass for Frohlich model (<m**0.5>)**2=   0.1062598620
 Effective masses along directions: (cart. coord. / red. coord. -> eff. mass)
    1:   1.000000  0.000000  0.000000 /   0.987044 -0.160449  0.000000 ->   0.1028700549
    2:   0.000000  1.000000  0.000000 /   0.000000  1.000000  0.000000 ->   0.0997494544
    3:   0.000000  0.000000  1.000000 /  -0.504002 -0.504910  0.700748 ->   0.1163232324
    4:   0.577350  0.577350  0.577350 /  -0.024192 -0.147622  0.988748 ->   0.0986054434
    5:   0.000000  0.707107  0.707107 /  -0.583641 -0.029509  0.811475 ->   0.0985594489
    6:   0.707107  0.000000  0.707107 /  -0.018792 -0.640132  0.768035 ->   0.1030728178
    7:   0.707107  0.707107  0.000000 /   0.772440  0.635088  0.000000 ->   0.1048709455

 END OF EFFECTIVE MASSES SECTION

 ---- first-order wavefunction calculations are completed ----

 Total localisation tensor (bohr^2) in cartesian coordinates
  WARNING : still subject to testing - especially symmetries.
      direction              matrix element
   alpha     beta       real part   imaginary part
     1        1       3.0187141941    0.0000000000
     1        2      -0.5483739498    0.0000000000
     1        3      -2.4537921197    0.0000000000
     2        1      -0.5483739498    0.0000000000
     2        2       3.3219850651    0.0000000000
     2        3      -3.4985518398    0.0000000000
     3        1      -2.4537921197    0.0000000000
     3        2      -3.4985518398    0.0000000000
     3        3      18.5813471158    0.0000000000

 respfn : d/dk was computed, but no 2DTE, so no DDB output.

== END DATASET(S) ==============================================================

 -outvars: echo values of variables after computation  --------
            acell      1.0000000000E+00  1.0000000000E+00  1.0000000000E+00 Bohr
              amu      3.90983000E+01  2.29897680E+01  1.14820000E+02
                       7.49215900E+01
             ecut      4.40000000E+01 Hartree
           etotal     -1.3878387348E+02
            fcart      0.0000000000E+00  0.0000000000E+00  0.0000000000E+00
                       0.0000000000E+00  0.0000000000E+00  0.0000000000E+00
                       0.0000000000E+00  0.0000000000E+00  0.0000000000E+00
                       0.0000000000E+00  0.0000000000E+00  0.0000000000E+00
                       0.0000000000E+00  0.0000000000E+00  0.0000000000E+00
                       0.0000000000E+00  0.0000000000E+00  0.0000000000E+00
                       0.0000000000E+00  0.0000000000E+00  0.0000000000E+00
                       0.0000000000E+00  0.0000000000E+00  0.0000000000E+00
                       0.0000000000E+00  0.0000000000E+00  0.0000000000E+00
                       0.0000000000E+00  0.0000000000E+00  0.0000000000E+00
                       0.0000000000E+00  0.0000000000E+00  0.0000000000E+00
                       0.0000000000E+00  0.0000000000E+00  0.0000000000E+00
-          fftalg         512
           irdden           1
           irdwfk           1
           istwfk        0    1
              ixc     -116133
              kpt      3.84615385E-02  3.84615385E-02 -3.84615385E-02
                       0.00000000E+00  0.00000000E+00  0.00000000E+00
           kptopt           0
P           mkmem           2
P          mkqmem           2
P          mk1mem           2
            natom          12
            nband          79
           nbdbuf           4
            ngfft         108     108     108
             nkpt           2
            nstep        2000
             nsym           8
           ntypat           4
              occ      2.000000  2.000000  2.000000  2.000000  2.000000  2.000000
                       2.000000  2.000000  2.000000  2.000000  2.000000  2.000000
                       2.000000  2.000000  2.000000  2.000000  2.000000  2.000000
                       2.000000  2.000000  2.000000  2.000000  2.000000  2.000000
                       2.000000  2.000000  2.000000  2.000000  2.000000  2.000000
                       2.000000  2.000000  2.000000  2.000000  2.000000  2.000000
                       2.000000  2.000000  2.000000  2.000000  2.000000  2.000000
                       2.000000  2.000000  2.000000  2.000000  2.000000  2.000000
                       2.000000  2.000000  2.000000  2.000000  2.000000  2.000000
                       2.000000  2.000000  2.000000  2.000000  2.000000  2.000000
                       2.000000  2.000000  2.000000  2.000000  2.000000  2.000000
                       2.000000  2.000000  2.000000  2.000000  0.000000  0.000000
                       0.000000  0.000000  0.000000  0.000000  0.000000  0.000000
                       0.000000
        optdriver           1
            prtwf          -1
            rfdir           1       1       1
           rfelfd           2
            rprim      1.1808000349E+01  0.0000000000E+00 -1.2223837606E+01
                      -1.9194519398E+00  1.1627814706E+01 -1.2245844498E+01
                       0.0000000000E+00  0.0000000000E+00  1.6995619378E+01
          spgroup          72
           strten      0.0000000000E+00  0.0000000000E+00  0.0000000000E+00
                       0.0000000000E+00  0.0000000000E+00  0.0000000000E+00
           symrel      1  0  0   0  1  0   0  0  1      -1  0  0   0 -1  0   0  0 -1
                       0  0  1  -1 -1 -1   1  0  0       0  0 -1   1  1  1  -1  0  0
                      -1 -1 -1   0  0  1   0  1  0       1  1  1   0  0 -1   0 -1  0
                       0  1  0   1  0  0  -1 -1 -1       0 -1  0  -1  0  0   1  1  1
            tnons      0.0000000  0.0000000  0.0000000     0.0000000  0.0000000  0.0000000
                      -0.0000000  0.0000000  0.0000000     0.0000000  0.0000000  0.0000000
                       0.5000000 -0.0000000  0.5000000     0.5000000  0.0000000  0.5000000
                       0.5000000  0.0000000  0.5000000     0.5000000 -0.0000000  0.5000000
           tolwfr      1.00000000E-20
            typat      1  1  1  1  2  2  3  3  4  4  4  4
           useylm           1
              wtk        0.50000    0.50000
           xangst      1.4377519142E+00  3.5872607541E+00 -3.5577853110E+00
                       1.4639880707E-01  5.7425547321E+00 -3.6227079038E-01
                       5.0863956369E+00  4.1061979577E-01 -3.5928328595E+00
                       3.7950425298E+00  2.5659137738E+00 -3.9731833890E-01
                       1.5621311659E+00  0.0000000000E+00  6.3127953958E-01
                       4.6863934976E+00  0.0000000000E+00  1.8938386187E+00
                       4.1785283879E+00  3.0765872640E+00 -5.8431194957E+00
                       1.0542660561E+00  3.0765872640E+00  1.8880158458E+00
                       2.9307076432E+00  5.0461630518E+00 -7.2521750813E+00
                       2.3020868008E+00  1.1070114761E+00  3.2970714315E+00
                       4.9839844017E+00  3.7868051275E+00 -3.3394113987E+00
                       2.4881004228E-01  2.3663694004E+00 -6.1569225117E-01
            xcart      2.7169573648E+00  6.7789403926E+00 -6.7232398773E+00
                       2.7665365155E-01  1.0851855747E+01 -6.8459257975E-01
                       9.6118947572E+00  7.7595895875E-01 -6.7894701456E+00
                       7.1715910440E+00  4.8488743130E+00 -7.5082284809E-01
                       2.9520000871E+00  0.0000000000E+00  1.1929454431E+00
                       8.8560002614E+00  0.0000000000E+00  3.5788363293E+00
                       7.8962742915E+00  5.8139073528E+00 -1.1041895609E+01
                       1.9922741172E+00  5.8139073528E+00  3.5678328832E+00
                       5.5382348212E+00  9.5358661897E+00 -1.3704624771E+01
                       4.3503135876E+00  2.0919485159E+00  6.2305620461E+00
                       9.4183655698E+00  7.1560246096E+00 -6.3105729885E+00
                       4.7018283902E-01  4.4717900960E+00 -1.1634897369E+00
             xred      3.2486325000E-01  5.8299350000E-01  2.5813025000E-01
                       1.7513675000E-01  9.3326700000E-01  7.5813025000E-01
                       8.2486325000E-01  6.6733000000E-02  2.4186975000E-01
                       6.7513675000E-01  4.1700650000E-01  7.4186975000E-01
                       2.5000000000E-01  0.0000000000E+00  2.5000000000E-01
                       7.5000000000E-01  0.0000000000E+00  7.5000000000E-01
                       7.5000000000E-01  5.0000000000E-01  2.5000000000E-01
                       2.5000000000E-01  5.0000000000E-01  7.5000000000E-01
                       6.0233400000E-01  8.2009100000E-01  2.1775700000E-01
                       3.9766600000E-01  1.7990900000E-01  7.8224300000E-01
                       8.9766600000E-01  6.1542300000E-01  7.1775700000E-01
                       1.0233400000E-01  3.8457700000E-01  2.8224300000E-01
            znucl       19.00000   11.00000   49.00000   33.00000

- Timing analysis has been suppressed with timopt=0

 Suggested references for the acknowledgment of ABINIT usage.

 Calculation completed.
.Delivered   2 WARNINGs and   7 COMMENTs to log file.