.Version 9.5.1 of ABINIT

 ABINIT is a project of the Universite Catholique de Louvain,
 Corning Inc. and other collaborators, see ~abinit/doc/developers/contributors.txt .
 acknowledgments of the ABINIT effort.

.Starting date : Wed 19 May 2021.
- ( at 15h33 )

- input  file    -> /scratch/users/j/a/jabreu/flow_simple_9atoms/flow/w177/t1/run.abi
- output file    -> /scratch/users/j/a/jabreu/flow_simple_9atoms/flow/w177/t1/run.abo
- root for input  files -> /scratch/users/j/a/jabreu/flow_simple_9atoms/flow/w177/t1/indata/in
- root for output files -> /scratch/users/j/a/jabreu/flow_simple_9atoms/flow/w177/t1/outdata/out

 Symmetries : space group Fm -3 m (#225); Bravais cF (face-center cubic)
     intxc =       0      iscf =       7    lmnmax =      32     lnmax =       8
     mgfft =      90  mpssoang =       4    mqgrid =    3547     natom =       9
  nloc_mem =       1    nspden =       1   nspinor =       1    nsppol =       1
      nsym =      48    n1xccc =    2501    ntypat =       3    occopt =       1
   xclevel =       2
-    mband =          48        mffmem =           1         mkmem =           2
-   mkqmem =           2        mk1mem =           2           mpw =       30395
      nfft =      729000          nkpt =           2
  Rough estimation (10% accuracy) of disk space for files :

------------- Echo of variables that govern the present computation ------------
-
- outvars: echo of selected default values
-   iomode0 =  0 , fftalg0 =512 , wfoptalg0 =  0
-
- outvars: echo of global parameters not present in the input file
-  max_nthreads =    0
-
 -outvars: echo values of preprocessed input variables --------
            acell      1.0000000000E+00  1.0000000000E+00  1.0000000000E+00 Bohr
              amu      8.54678000E+01  1.95080000E+02  1.26904470E+02
             ecut      4.20000000E+01 Hartree
-          fftalg         512
           irdden           1
           irdwfk           1
           istwfk        1    1
              ixc     -116133
              kpt      0.00000000E+00  0.00000000E+00  0.00000000E+00
                       5.00000000E-01  0.00000000E+00  5.00000000E-01
           kptopt           0
P           mkmem           2
P          mkqmem           2
P          mk1mem           2
            natom           9
            nband          48
           nbdbuf           4
            ngfft          90      90      90
             nkpt           2
            nstep        2000
             nsym          48
           ntypat           3
              occ      2.000000  2.000000  2.000000  2.000000  2.000000  2.000000
                       2.000000  2.000000  2.000000  2.000000  2.000000  2.000000
                       2.000000  2.000000  2.000000  2.000000  2.000000  2.000000
                       2.000000  2.000000  2.000000  2.000000  2.000000  2.000000
                       2.000000  2.000000  2.000000  2.000000  2.000000  2.000000
                       2.000000  2.000000  2.000000  2.000000  2.000000  2.000000
                       2.000000  2.000000  2.000000  0.000000  0.000000  0.000000
                       0.000000  0.000000  0.000000  0.000000  0.000000  0.000000
        optdriver           1
            prtwf          -1
            rfdir           1       1       1
           rfelfd           2
            rprim      1.2895476454E+01  0.0000000000E+00  7.4452068019E+00
                       4.2984921512E+00  1.2157971796E+01  7.4452068019E+00
                       0.0000000000E+00  0.0000000000E+00  1.4890413604E+01
          spgroup         225
           symrel      1  0  0   0  1  0   0  0  1      -1  0  0   0 -1  0   0  0 -1
                       0 -1  1   0 -1  0   1 -1  0       0  1 -1   0  1  0  -1  1  0
                      -1  0  0  -1  0  1  -1  1  0       1  0  0   1  0 -1   1 -1  0
                       0  1 -1   1  0 -1   0  0 -1       0 -1  1  -1  0  1   0  0  1
                      -1  0  0  -1  1  0  -1  0  1       1  0  0   1 -1  0   1  0 -1
                       0 -1  1   1 -1  0   0 -1  0       0  1 -1  -1  1  0   0  1  0
                       1  0  0   0  0  1   0  1  0      -1  0  0   0  0 -1   0 -1  0
                       0  1 -1   0  0 -1   1  0 -1       0 -1  1   0  0  1  -1  0  1
                      -1  0  1  -1  1  0  -1  0  0       1  0 -1   1 -1  0   1  0  0
                       0 -1  0   1 -1  0   0 -1  1       0  1  0  -1  1  0   0  1 -1
                       1  0 -1   0  0 -1   0  1 -1      -1  0  1   0  0  1   0 -1  1
                       0  1  0   0  0  1   1  0  0       0 -1  0   0  0 -1  -1  0  0
                       1  0 -1   0  1 -1   0  0 -1      -1  0  1   0 -1  1   0  0  1
                       0 -1  0   0 -1  1   1 -1  0       0  1  0   0  1 -1  -1  1  0
                      -1  0  1  -1  0  0  -1  1  0       1  0 -1   1  0  0   1 -1  0
                       0  1  0   1  0  0   0  0  1       0 -1  0  -1  0  0   0  0 -1
                       0  0 -1   0  1 -1   1  0 -1       0  0  1   0 -1  1  -1  0  1
                       1 -1  0   0 -1  1   0 -1  0      -1  1  0   0  1 -1   0  1  0
                       0  0  1   1  0  0   0  1  0       0  0 -1  -1  0  0   0 -1  0
                      -1  1  0  -1  0  0  -1  0  1       1 -1  0   1  0  0   1  0 -1
                       0  0  1   0  1  0   1  0  0       0  0 -1   0 -1  0  -1  0  0
                       1 -1  0   0 -1  0   0 -1  1      -1  1  0   0  1  0   0  1 -1
                       0  0 -1   1  0 -1   0  1 -1       0  0  1  -1  0  1   0 -1  1
                      -1  1  0  -1  0  1  -1  0  0       1 -1  0   1  0 -1   1  0  0
           tolwfr      1.00000000E-20
            typat      1  1  2  3  3  3  3  3  3
           useylm           1
              wtk        0.50000    0.50000
           xangst      6.8239922332E+00  4.8252911828E+00  1.1819501258E+01
                       2.2746640777E+00  1.6084303943E+00  3.9398337528E+00
                       0.0000000000E+00  0.0000000000E+00  0.0000000000E+00
                       6.9155429130E+00  4.8900272894E+00  7.8796675056E+00
                       2.1831133979E+00  1.5436942878E+00  7.8796675056E+00
                       3.3662207767E+00  4.8900272894E+00  9.9288695964E+00
                       5.7324355342E+00  1.5436942878E+00  5.8304654148E+00
                       3.3662207767E+00  4.8900272894E+00  5.8304654148E+00
                       5.7324355342E+00  1.5436942878E+00  9.9288695964E+00
            xcart      1.2895476454E+01  9.1184788470E+00  2.2335620406E+01
                       4.2984921512E+00  3.0394929490E+00  7.4452068019E+00
                       0.0000000000E+00  0.0000000000E+00  0.0000000000E+00
                       1.3068482166E+01  9.2408123592E+00  1.4890413604E+01
                       4.1254864391E+00  2.9171594368E+00  1.4890413604E+01
                       6.3612353708E+00  9.2408123592E+00  1.8762844346E+01
                       1.0832733234E+01  2.9171594368E+00  1.1017982861E+01
                       6.3612353708E+00  9.2408123592E+00  1.1017982861E+01
                       1.0832733234E+01  2.9171594368E+00  1.8762844346E+01
             xred      7.5000000000E-01  7.5000000000E-01  7.5000000000E-01
                       2.5000000000E-01  2.5000000000E-01  2.5000000000E-01
                       0.0000000000E+00  0.0000000000E+00  0.0000000000E+00
                       7.6006200000E-01  7.6006200000E-01  2.3993800000E-01
                       2.3993800000E-01  2.3993800000E-01  7.6006200000E-01
                       2.3993800000E-01  7.6006200000E-01  7.6006200000E-01
                       7.6006200000E-01  2.3993800000E-01  2.3993800000E-01
                       2.3993800000E-01  7.6006200000E-01  2.3993800000E-01
                       7.6006200000E-01  2.3993800000E-01  7.6006200000E-01
            znucl       37.00000   78.00000   53.00000

 chkinp: Checking input parameters for consistency.

== DATASET  1 ==================================================================
-   mpi_nproc: 1, omp_nthreads: -1 (-1 if OMP is not activated)

--- !DatasetInfo
iteration_state: {dtset: 1, }
dimensions: {natom: 9, nkpt: 2, mband: 48, nsppol: 1, nspinor: 1, nspden: 1, mpw: 30395, }
cutoff_energies: {ecut:  42.0, pawecutdg:  -1.0, }
electrons: {nelect:   7.80000000E+01, charge:   0.00000000E+00, occopt:   1.00000000E+00, tsmear:   1.00000000E-02, }
meta: {optdriver: 1, rfelfd: 2, }
...

 Real(R)+Recip(G) space primitive vectors, cartesian coordinates (Bohr,Bohr^-1):
 R(1)= 12.8954765  0.0000000  7.4452068  G(1)=  0.0775466 -0.0274169  0.0000000
 R(2)=  4.2984922 12.1579718  7.4452068  G(2)=  0.0000000  0.0822506  0.0000000
 R(3)=  0.0000000  0.0000000 14.8904136  G(3)= -0.0387733 -0.0274169  0.0671573
 Unit cell volume ucvol=  2.3345613E+03 bohr^3
 Angles (23,13,12)=  6.00000000E+01  6.00000000E+01  6.00000000E+01 degrees

 getcut: wavevector=  0.0000  0.0000  0.0000  ngfft=  90  90  90
         ecut(hartree)=     42.000   => boxcut(ratio)=   2.07205

--- Pseudopotential description ------------------------------------------------
- pspini: atom type   1  psp file is /scratch/users/j/a/jabreu/pseudos/PBEsol/Rb.psp8
- pspatm: opening atomic psp file    /scratch/users/j/a/jabreu/pseudos/PBEsol/Rb.psp8
- Rb    ONCVPSP-3.3.0  r_core=   1.71227   1.75361   1.90633
- 37.00000   9.00000    180112                znucl, zion, pspdat
    8 -116133    2    4       600   0.00000   pspcod,pspxc,lmax,lloc,mmax,r2well
    5.99000000000000    7.00000000000000    0.00000000000000   rchrg,fchrg,qchrg
     nproj     2     2     2
     extension_switch     1
  pspatm : epsatm=   34.48400912
         --- l  ekb(1:nproj) -->
             0    8.196957   -0.477221
             1    3.231347   -0.378736
             2   -1.047201    0.996637
 pspatm: atomic psp has been read  and splines computed

- pspini: atom type   2  psp file is /scratch/users/j/a/jabreu/pseudos/PBEsol/Pt.psp8
- pspatm: opening atomic psp file    /scratch/users/j/a/jabreu/pseudos/PBEsol/Pt.psp8
- Pt    ONCVPSP-3.3.0  r_core=   1.45722   1.45722   1.45722   1.91724
- 78.00000  18.00000    180112                znucl, zion, pspdat
    8 -116133    3    4       500   0.00000   pspcod,pspxc,lmax,lloc,mmax,r2well
    4.99000000000000    5.00000000000000    0.00000000000000   rchrg,fchrg,qchrg
     nproj     2     2     2     2
     extension_switch     1
  pspatm : epsatm=   26.54019552
         --- l  ekb(1:nproj) -->
             0   18.149684    1.747248
             1    8.048135    1.208190
             2    2.365973    0.348456
             3    3.491561    0.381218
 pspatm: atomic psp has been read  and splines computed

- pspini: atom type   3  psp file is /scratch/users/j/a/jabreu/pseudos/PBEsol/I.psp8
- pspatm: opening atomic psp file    /scratch/users/j/a/jabreu/pseudos/PBEsol/I.psp8
- I     ONCVPSP-3.3.0  r_core=   2.02042   2.17032   2.27639
- 53.00000   7.00000    180112                znucl, zion, pspdat
    8 -116133    2    4       600   0.00000   pspcod,pspxc,lmax,lloc,mmax,r2well
    5.99000000000000    4.00000000000000    0.00000000000000   rchrg,fchrg,qchrg
     nproj     2     2     2
     extension_switch     1
[...]

[...]

 Perturbation wavevector (in red.coord.)   0.000000  0.000000  0.000000
 Perturbation : derivative vs k along direction   3
 The set of symmetries contains only one element for this perturbation.
 symkpt : not enough symmetry to change the number of k points.

-inwffil : will read wavefunctions from disk file /scratch/users/j/a/jabreu/flow_simple_9atoms/flow/w177/t1/indata/in_WFK

 Initialisation of the first-order wave-functions :
  ireadwf=   0

--- !BeginCycle
iteration_state: {dtset: 1, }
solver: {iscf: 7, nstep: 2000, nline: 4, wfoptalg: 0, }
tolerances: {tolwfr: 1.00E-20, }
...

     iter   2DEtotal(Ha)        deltaE(Ha) residm    vres2
-ETOT  1  -24.972676411838     -2.497E+01 5.068E-02 0.000E+00
 ETOT  2  -24.983559293584     -1.088E-02 1.631E-03 0.000E+00
 ETOT  3  -24.983580266763     -2.097E-05 3.523E-05 0.000E+00
 ETOT  4  -24.983580338757     -7.199E-08 3.591E-06 0.000E+00
 ETOT  5  -24.983580339119     -3.619E-10 1.574E-07 0.000E+00
 ETOT  6  -24.983580339121     -2.331E-12 2.385E-08 0.000E+00
 ETOT  7  -24.983580339121      2.132E-14 1.434E-09 0.000E+00
 ETOT  8  -24.983580339121     -2.132E-14 2.253E-10 0.000E+00
 ETOT  9  -24.983580339121     -2.132E-14 1.648E-11 0.000E+00
 ETOT 10  -24.983580339121      2.132E-14 2.647E-12 0.000E+00
 ETOT 11  -24.983580339121      0.000E+00 1.983E-13 0.000E+00
 ETOT 12  -24.983580339121     -7.105E-15 3.233E-14 0.000E+00
 ETOT 13  -24.983580339121      7.105E-15 2.424E-15 0.000E+00
 ETOT 14  -24.983580339121      3.553E-15 3.984E-16 0.000E+00
 ETOT 15  -24.983580339121     -3.553E-15 3.002E-17 0.000E+00
 ETOT 16  -24.983580339121      3.553E-15 4.989E-18 0.000E+00
 ETOT 17  -24.983580339121      0.000E+00 3.747E-19 0.000E+00
 ETOT 18  -24.983580339121      3.553E-15 6.273E-20 0.000E+00
 ETOT 19  -24.983580339121      0.000E+00 9.851E-21 0.000E+00

 At SCF step   19   max residual=  9.85E-21 < tolwfr=  1.00E-20 =>converged.

 ----iterations are completed or convergence reached----

 dfpt_looppert: DFPT cycle converged with prtwf=-1. Will skip output of the 1st-order WFK file.
 dfpt_looppert : ek2=    4.1664106427E+01
          f-sum rule ratio=    1.0838853832E+00
 prteigrs : about to open file /scratch/users/j/a/jabreu/flow_simple_9atoms/flow/w177/t1/tmpdata/tmp_1WF1_EIG
 Expectation of eigenvalue derivatives (hartree) for nkpt=   2  k points:
  (in case of degenerate eigenvalues, averaged derivative)
 kpt#   1, nband= 48, wtk=  0.50000, kpt=  0.0000  0.0000  0.0000 (reduced coord)
  -0.00000    0.00000    0.00000    0.00000   -0.00000    0.00000    0.00000    0.00000
   0.00000    0.00000   -0.00000   -0.00000   -0.00000   -0.00000   -0.00000   -0.00000
  -0.00000   -0.00000   -0.00000   -0.00000   -0.00000   -0.00000   -0.00000   -0.00000
  -0.00000   -0.00000   -0.00000    0.00000    0.00000    0.00000    0.00000    0.00000
   0.00000   -0.00000   -0.00000   -0.00000   -0.00000   -0.00000   -0.00000    0.00000
   0.00000   -0.00000    0.00000   -0.00000    0.00000    0.00000    0.00000    0.00002
 prteigrs : prtvol=0 or 1, do not print more k-points.

 Eight components of 2nd-order total energy (hartree) are
 1,2,3: 0th-order hamiltonian combined with 1st-order wavefunctions
     kin0=   3.19666257E+01 eigvalue=   1.03413845E+00  local=  -1.95391347E+01
 4,5,6: 1st-order hamiltonian combined with 1st and 0th-order wfs
     kin1=  -4.51591160E+01  Hartree=   0.00000000E+00     xc=   0.00000000E+00
 7,8,9: eventually, occupation + non-local contributions
    edocc=   7.17657481E+00     enl0=   4.34537607E+00   enl1=  -4.80804472E+00
 1-9 gives the relaxation energy (to be shifted if some occ is /=2.0)
   erelax=  -2.49835803E+01
  No Ewald or frozen-wf contrib.: the relaxation energy is the total one
 2DEtotal=   -0.2498358034E+02 Ha. Also 2DEtotal=   -0.679837794805E+03 eV
    (  non-var. 2DEtotal :   -2.4983580339E+01 Ha)

 CALCULATION OF EFFECTIVE MASSES
 NOTE : Additional infos (eff. mass eigenvalues, eigenvectors and, if degenerate, average mass) are available in stdout.

 COMMENTS:
 - At k-point ( 0.000, 0.000, 0.000), bands    37 through    39
   are DEGENERATE (effective mass tensor is therefore not defined).
   See Section IIIB Eqs. (67)-(70) and Appendix E of PRB 93 205147 (2016).
 - Angular average effective mass for Frohlich model is to be averaged over degenerate bands. See later.
 - Associated theta integrals calculated with ntheta=   1000 points.

 K-point ( 0.000, 0.000, 0.000) | band =    37
 Transport equivalent effective mass tensor:
             -0.5376686624             -0.0000026573              0.0000023128
             -0.0000026573             -0.5376632599             -0.0000040082
              0.0000023128             -0.0000040082             -0.5376786136
 Transport equivalent effective mass tensor eigenvalues:
             -0.5376798419             -0.5376697172             -0.5376609766
 Angular average effective mass 1/(<1/m>)=  -0.5139770575
 Angular average effective mass for Frohlich model (<m**0.5>)**2=  -0.5149026069
 Effective masses along directions: (cart. coord. / red. coord. -> eff. mass)
    1:   1.000000  0.000000  0.000000 /   0.948683  0.316228  0.000000 ->  -0.5445215014
    2:   0.000000  1.000000  0.000000 /   0.000000  1.000000  0.000000 ->  -0.6098970503
    3:   0.000000  0.000000  1.000000 /   0.408248  0.408248  0.816497 ->  -0.4917835729
    4:   0.577350  0.577350  0.577350 /   0.585539  0.688047  0.428644 ->  -0.5278353437
    5:   0.000000  0.707107  0.707107 /   0.289489  0.762222  0.578977 ->  -0.4948849594
    6:   0.707107  0.000000  0.707107 /   0.731423  0.422287  0.535439 ->  -0.5084317433
    7:   0.707107  0.707107  0.000000 /   0.616798  0.787122  0.000000 ->  -0.4959003262

[...]

 K-point ( 0.000, 0.000, 0.000) | band =    39
 Transport equivalent effective mass tensor:
            -25.6013776916             -0.0002627066              0.0001803075
             -0.0002627066            -25.6012326407              0.0001147878
              0.0001803075              0.0001147878            -25.6021677471
 Transport equivalent effective mass tensor eigenvalues:
            -25.6022368404            -25.6015089110            -25.6010323281
 Angular average effective mass 1/(<1/m>)=  -1.9872036823
 Angular average effective mass for Frohlich model (<m**0.5>)**2=  -2.4766361443
 Effective masses along directions: (cart. coord. / red. coord. -> eff. mass)
    1:   1.000000  0.000000  0.000000 /   0.948683  0.316228  0.000000 ->  -1.6936192177
    2:   0.000000  1.000000  0.000000 /   0.000000  1.000000  0.000000 ->  -1.1609314072
    3:   0.000000  0.000000  1.000000 /   0.408248  0.408248  0.816497 ->  -1.5050981622
    4:   0.577350  0.577350  0.577350 /   0.585539  0.688047  0.428644 ->  -1.6406938773
    5:   0.000000  0.707107  0.707107 /   0.289489  0.762222  0.578977 ->  -2.8395350554
    6:   0.707107  0.000000  0.707107 /   0.731423  0.422287  0.535439 ->  -1.6002120621
    7:   0.707107  0.707107  0.000000 /   0.616798  0.787122  0.000000 ->  -8.2941634009

 Angular average effective mass for Frohlich model, averaged over degenerate bands.
 Value of     (<<m**0.5>>)**2 =     1.042327E+00
 Absolute Value of <<m**0.5>> =     1.020944E+00

 K-point ( 0.500, 0.000, 0.500) | band =    40
 Effective mass tensor:
              0.2790663747             -0.0182362635              0.0223342763
             -0.0182362635              0.2919601215             -0.0315872171
              0.0223342763             -0.0315872171              0.3048569430
 Effective mass tensor eigenvalues:
              0.2661696766              0.2661719760              0.3435417867
 Angular average effective mass 1/(<1/m>)=   0.2877746001
 Angular average effective mass for Frohlich model (<m**0.5>)**2=   0.2889676124
 Effective masses along directions: (cart. coord. / red. coord. -> eff. mass)
    1:   1.000000  0.000000  0.000000 /   0.948683  0.316228  0.000000 ->   0.2765519693
    2:   0.000000  1.000000  0.000000 /   0.000000  1.000000  0.000000 ->   0.2877734719
    3:   0.000000  0.000000  1.000000 /   0.408248  0.408248  0.816497 ->   0.2999478235
    4:   0.577350  0.577350  0.577350 /   0.585539  0.688047  0.428644 ->   0.2720821969
    5:   0.000000  0.707107  0.707107 /   0.289489  0.762222  0.578977 ->   0.2666755577
    6:   0.707107  0.000000  0.707107 /   0.731423  0.422287  0.535439 ->   0.3095315430
    7:   0.707107  0.707107  0.000000 /   0.616798  0.787122  0.000000 ->   0.2670306006

 END OF EFFECTIVE MASSES SECTION

 ---- first-order wavefunction calculations are completed ----

 Total localisation tensor (bohr^2) in cartesian coordinates
  WARNING : still subject to testing - especially symmetries.
      direction              matrix element
   alpha     beta       real part   imaginary part
     1        1       2.3600325692    0.0000000000
     1        2       0.6675194348    0.0000000000
     1        3       1.6350791072    0.0000000000
     2        1       0.6675194348    0.0000000000
     2        2       1.8880300757    0.0000000000
     2        3       1.1561775761    0.0000000000
     3        1       1.6350791072    0.0000000000
     3        2       1.1561775761    0.0000000000
     3        3       4.2480859152    0.0000000000

 respfn : d/dk was computed, but no 2DTE, so no DDB output.

== END DATASET(S) ==============================================================

 -outvars: echo values of variables after computation  --------
            acell      1.0000000000E+00  1.0000000000E+00  1.0000000000E+00 Bohr
              amu      8.54678000E+01  1.95080000E+02  1.26904470E+02
             ecut      4.20000000E+01 Hartree
           etotal     -2.4983580339E+01
            fcart      0.0000000000E+00  0.0000000000E+00  0.0000000000E+00
                       0.0000000000E+00  0.0000000000E+00  0.0000000000E+00
                       0.0000000000E+00  0.0000000000E+00  0.0000000000E+00
                       0.0000000000E+00  0.0000000000E+00  0.0000000000E+00
                       0.0000000000E+00  0.0000000000E+00  0.0000000000E+00
                       0.0000000000E+00  0.0000000000E+00  0.0000000000E+00
                       0.0000000000E+00  0.0000000000E+00  0.0000000000E+00
                       0.0000000000E+00  0.0000000000E+00  0.0000000000E+00
                       0.0000000000E+00  0.0000000000E+00  0.0000000000E+00
-          fftalg         512
           irdden           1
           irdwfk           1
           istwfk        1    1
              ixc     -116133
              kpt      0.00000000E+00  0.00000000E+00  0.00000000E+00
                       5.00000000E-01  0.00000000E+00  5.00000000E-01
           kptopt           0
P           mkmem           2
P          mkqmem           2
P          mk1mem           2
            natom           9
            nband          48
           nbdbuf           4
            ngfft          90      90      90
             nkpt           2
            nstep        2000
             nsym          48
           ntypat           3
              occ      2.000000  2.000000  2.000000  2.000000  2.000000  2.000000
                       2.000000  2.000000  2.000000  2.000000  2.000000  2.000000
                       2.000000  2.000000  2.000000  2.000000  2.000000  2.000000
                       2.000000  2.000000  2.000000  2.000000  2.000000  2.000000
                       2.000000  2.000000  2.000000  2.000000  2.000000  2.000000
                       2.000000  2.000000  2.000000  2.000000  2.000000  2.000000
                       2.000000  2.000000  2.000000  0.000000  0.000000  0.000000
                       0.000000  0.000000  0.000000  0.000000  0.000000  0.000000
        optdriver           1
            prtwf          -1
            rfdir           1       1       1
           rfelfd           2
            rprim      1.2895476454E+01  0.0000000000E+00  7.4452068019E+00
                       4.2984921512E+00  1.2157971796E+01  7.4452068019E+00
                       0.0000000000E+00  0.0000000000E+00  1.4890413604E+01
          spgroup         225
           strten      0.0000000000E+00  0.0000000000E+00  0.0000000000E+00
                       0.0000000000E+00  0.0000000000E+00  0.0000000000E+00
           symrel      1  0  0   0  1  0   0  0  1      -1  0  0   0 -1  0   0  0 -1
                       0 -1  1   0 -1  0   1 -1  0       0  1 -1   0  1  0  -1  1  0
                      -1  0  0  -1  0  1  -1  1  0       1  0  0   1  0 -1   1 -1  0
                       0  1 -1   1  0 -1   0  0 -1       0 -1  1  -1  0  1   0  0  1
                      -1  0  0  -1  1  0  -1  0  1       1  0  0   1 -1  0   1  0 -1
                       0 -1  1   1 -1  0   0 -1  0       0  1 -1  -1  1  0   0  1  0
                       1  0  0   0  0  1   0  1  0      -1  0  0   0  0 -1   0 -1  0
                       0  1 -1   0  0 -1   1  0 -1       0 -1  1   0  0  1  -1  0  1
                      -1  0  1  -1  1  0  -1  0  0       1  0 -1   1 -1  0   1  0  0
                       0 -1  0   1 -1  0   0 -1  1       0  1  0  -1  1  0   0  1 -1
                       1  0 -1   0  0 -1   0  1 -1      -1  0  1   0  0  1   0 -1  1
                       0  1  0   0  0  1   1  0  0       0 -1  0   0  0 -1  -1  0  0
                       1  0 -1   0  1 -1   0  0 -1      -1  0  1   0 -1  1   0  0  1
                       0 -1  0   0 -1  1   1 -1  0       0  1  0   0  1 -1  -1  1  0
                      -1  0  1  -1  0  0  -1  1  0       1  0 -1   1  0  0   1 -1  0
                       0  1  0   1  0  0   0  0  1       0 -1  0  -1  0  0   0  0 -1
                       0  0 -1   0  1 -1   1  0 -1       0  0  1   0 -1  1  -1  0  1
                       1 -1  0   0 -1  1   0 -1  0      -1  1  0   0  1 -1   0  1  0
                       0  0  1   1  0  0   0  1  0       0  0 -1  -1  0  0   0 -1  0
                      -1  1  0  -1  0  0  -1  0  1       1 -1  0   1  0  0   1  0 -1
                       0  0  1   0  1  0   1  0  0       0  0 -1   0 -1  0  -1  0  0
                       1 -1  0   0 -1  0   0 -1  1      -1  1  0   0  1  0   0  1 -1
                       0  0 -1   1  0 -1   0  1 -1       0  0  1  -1  0  1   0 -1  1
                      -1  1  0  -1  0  1  -1  0  0       1 -1  0   1  0 -1   1  0  0
           tolwfr      1.00000000E-20
            typat      1  1  2  3  3  3  3  3  3
           useylm           1
              wtk        0.50000    0.50000
           xangst      6.8239922332E+00  4.8252911828E+00  1.1819501258E+01
                       2.2746640777E+00  1.6084303943E+00  3.9398337528E+00
                       0.0000000000E+00  0.0000000000E+00  0.0000000000E+00
                       6.9155429130E+00  4.8900272894E+00  7.8796675056E+00
                       2.1831133979E+00  1.5436942878E+00  7.8796675056E+00
                       3.3662207767E+00  4.8900272894E+00  9.9288695964E+00
                       5.7324355342E+00  1.5436942878E+00  5.8304654148E+00
                       3.3662207767E+00  4.8900272894E+00  5.8304654148E+00
                       5.7324355342E+00  1.5436942878E+00  9.9288695964E+00
            xcart      1.2895476454E+01  9.1184788470E+00  2.2335620406E+01
                       4.2984921512E+00  3.0394929490E+00  7.4452068019E+00
                       0.0000000000E+00  0.0000000000E+00  0.0000000000E+00
                       1.3068482166E+01  9.2408123592E+00  1.4890413604E+01
                       4.1254864391E+00  2.9171594368E+00  1.4890413604E+01
                       6.3612353708E+00  9.2408123592E+00  1.8762844346E+01
                       1.0832733234E+01  2.9171594368E+00  1.1017982861E+01
                       6.3612353708E+00  9.2408123592E+00  1.1017982861E+01
                       1.0832733234E+01  2.9171594368E+00  1.8762844346E+01
             xred      7.5000000000E-01  7.5000000000E-01  7.5000000000E-01
                       2.5000000000E-01  2.5000000000E-01  2.5000000000E-01
                       0.0000000000E+00  0.0000000000E+00  0.0000000000E+00
                       7.6006200000E-01  7.6006200000E-01  2.3993800000E-01
                       2.3993800000E-01  2.3993800000E-01  7.6006200000E-01
                       2.3993800000E-01  7.6006200000E-01  7.6006200000E-01
                       7.6006200000E-01  2.3993800000E-01  2.3993800000E-01
                       2.3993800000E-01  7.6006200000E-01  2.3993800000E-01
                       7.6006200000E-01  2.3993800000E-01  7.6006200000E-01
            znucl       37.00000   78.00000   53.00000

- Timing analysis has been suppressed with timopt=0

 Suggested references for the acknowledgment of ABINIT usage.

 Calculation completed.
.Delivered  14 WARNINGs and  11 COMMENTs to log file.