.Version 9.5.1 of ABINIT

 ABINIT is a project of the Universite Catholique de Louvain,
 Corning Inc. and other collaborators, see ~abinit/doc/developers/contributors.txt .
 acknowledgments of the ABINIT effort.

.Starting date : Wed 19 May 2021.
- ( at 12h04 )

- input  file    -> /scratch/users/j/a/jabreu/flow_simple_9atoms/flow/w124/t1/run.abi
- output file    -> /scratch/users/j/a/jabreu/flow_simple_9atoms/flow/w124/t1/run.abo
- root for input  files -> /scratch/users/j/a/jabreu/flow_simple_9atoms/flow/w124/t1/indata/in
- root for output files -> /scratch/users/j/a/jabreu/flow_simple_9atoms/flow/w124/t1/outdata/out

 Symmetries : space group Fm -3 m (#225); Bravais cF (face-center cubic)
     intxc =       0      iscf =       7    lmnmax =      18     lnmax =       6
     mgfft =      80  mpssoang =       3    mqgrid =    3097     natom =       9
  nloc_mem =       1    nspden =       1   nspinor =       1    nsppol =       1
      nsym =      48    n1xccc =    2501    ntypat =       3    occopt =       1
   xclevel =       2
-    mband =          45        mffmem =           1         mkmem =           2
-   mkqmem =           2        mk1mem =           2           mpw =       20206
      nfft =      512000          nkpt =           2
  Rough estimation (10% accuracy) of disk space for files :

------------- Echo of variables that govern the present computation ------------
-
- outvars: echo of selected default values
-   iomode0 =  0 , fftalg0 =512 , wfoptalg0 =  0
-
- outvars: echo of global parameters not present in the input file
-  max_nthreads =    0
-
 -outvars: echo values of preprocessed input variables --------
            acell      1.0000000000E+00  1.0000000000E+00  1.0000000000E+00 Bohr
              amu      3.90983000E+01  4.78800000E+01  3.54527000E+01
             ecut      4.20000000E+01 Hartree
-          fftalg         512
           irdden           1
           irdwfk           1
           istwfk        1    1
              ixc     -116133
              kpt      0.00000000E+00  0.00000000E+00  0.00000000E+00
                       5.00000000E-01  0.00000000E+00  5.00000000E-01
           kptopt           0
P           mkmem           2
P          mkqmem           2
P          mk1mem           2
            natom           9
            nband          45
           nbdbuf           4
            ngfft          80      80      80
             nkpt           2
            nstep        2000
             nsym          48
           ntypat           3
              occ      2.000000  2.000000  2.000000  2.000000  2.000000  2.000000
                       2.000000  2.000000  2.000000  2.000000  2.000000  2.000000
                       2.000000  2.000000  2.000000  2.000000  2.000000  2.000000
                       2.000000  2.000000  2.000000  2.000000  2.000000  2.000000
                       2.000000  2.000000  2.000000  2.000000  2.000000  2.000000
                       2.000000  2.000000  2.000000  2.000000  2.000000  2.000000
                       0.000000  0.000000  0.000000  0.000000  0.000000  0.000000
                       0.000000  0.000000  0.000000
        optdriver           1
            prtwf          -1
            rfdir           1       1       1
           rfelfd           2
            rprim      1.1258739613E+01  0.0000000000E+00  6.5002363464E+00
                       3.7529132044E+00  1.0614841504E+01  6.5002363464E+00
                       0.0000000000E+00  0.0000000000E+00  1.3000472693E+01
          spgroup         225
           symrel      1  0  0   0  1  0   0  0  1      -1  0  0   0 -1  0   0  0 -1
                       0 -1  1   0 -1  0   1 -1  0       0  1 -1   0  1  0  -1  1  0
                      -1  0  0  -1  0  1  -1  1  0       1  0  0   1  0 -1   1 -1  0
                       0  1 -1   1  0 -1   0  0 -1       0 -1  1  -1  0  1   0  0  1
                      -1  0  0  -1  1  0  -1  0  1       1  0  0   1 -1  0   1  0 -1
                       0 -1  1   1 -1  0   0 -1  0       0  1 -1  -1  1  0   0  1  0
                       1  0  0   0  0  1   0  1  0      -1  0  0   0  0 -1   0 -1  0
                       0  1 -1   0  0 -1   1  0 -1       0 -1  1   0  0  1  -1  0  1
                      -1  0  1  -1  1  0  -1  0  0       1  0 -1   1 -1  0   1  0  0
                       0 -1  0   1 -1  0   0 -1  1       0  1  0  -1  1  0   0  1 -1
                       1  0 -1   0  0 -1   0  1 -1      -1  0  1   0  0  1   0 -1  1
                       0  1  0   0  0  1   1  0  0       0 -1  0   0  0 -1  -1  0  0
                       1  0 -1   0  1 -1   0  0 -1      -1  0  1   0 -1  1   0  0  1
                       0 -1  0   0 -1  1   1 -1  0       0  1  0   0  1 -1  -1  1  0
                      -1  0  1  -1  0  0  -1  1  0       1  0 -1   1  0  0   1 -1  0
                       0  1  0   1  0  0   0  0  1       0 -1  0  -1  0  0   0  0 -1
                       0  0 -1   0  1 -1   1  0 -1       0  0  1   0 -1  1  -1  0  1
                       1 -1  0   0 -1  1   0 -1  0      -1  1  0   0  1 -1   0  1  0
                       0  0  1   1  0  0   0  1  0       0  0 -1  -1  0  0   0 -1  0
                      -1  1  0  -1  0  0  -1  0  1       1 -1  0   1  0  0   1  0 -1
                       0  0  1   0  1  0   1  0  0       0  0 -1   0 -1  0  -1  0  0
                       1 -1  0   0 -1  0   0 -1  1      -1  1  0   0  1  0   0  1 -1
                       0  0 -1   1  0 -1   0  1 -1       0  0  1  -1  0  1   0 -1  1
                      -1  1  0  -1  0  1  -1  0  0       1 -1  0   1  0 -1   1  0  0
           tolwfr      1.00000000E-20
            typat      1  1  2  3  3  3  3  3  3
           useylm           1
              wtk        0.50000    0.50000
           xangst      1.9859561336E+00  1.4042830492E+00  3.4397769250E+00
                       5.9578684008E+00  4.2128491476E+00  1.0319330775E+01
                       0.0000000000E+00  0.0000000000E+00  0.0000000000E+00
                       1.9047225839E+00  1.3468422553E+00  6.8795538499E+00
                       5.0055071088E+00  1.3468422553E+00  5.0893150698E+00
                       2.9383174255E+00  4.2702899414E+00  8.6697926301E+00
                       6.0391019504E+00  4.2702899414E+00  6.8795538499E+00
                       2.9383174255E+00  4.2702899414E+00  5.0893150698E+00
                       5.0055071088E+00  1.3468422553E+00  8.6697926301E+00
            xcart      3.7529132044E+00  2.6537103760E+00  6.5002363464E+00
                       1.1258739613E+01  7.9611311281E+00  1.9500709039E+01
                       0.0000000000E+00  0.0000000000E+00  0.0000000000E+00
                       3.5994040427E+00  2.5451630068E+00  1.3000472693E+01
                       9.4590375919E+00  2.5451630068E+00  9.6174116858E+00
                       5.5526152257E+00  8.0696784973E+00  1.6383533700E+01
                       1.1412248775E+01  8.0696784973E+00  1.3000472693E+01
                       5.5526152257E+00  8.0696784973E+00  9.6174116858E+00
                       9.4590375919E+00  2.5451630068E+00  1.6383533700E+01
             xred      2.5000000000E-01  2.5000000000E-01  2.5000000000E-01
                       7.5000000000E-01  7.5000000000E-01  7.5000000000E-01
                       0.0000000000E+00  0.0000000000E+00  0.0000000000E+00
                       2.3977400000E-01  2.3977400000E-01  7.6022600000E-01
                       7.6022600000E-01  2.3977400000E-01  2.3977400000E-01
                       2.3977400000E-01  7.6022600000E-01  7.6022600000E-01
                       7.6022600000E-01  7.6022600000E-01  2.3977400000E-01
                       2.3977400000E-01  7.6022600000E-01  2.3977400000E-01
                       7.6022600000E-01  2.3977400000E-01  7.6022600000E-01
            znucl       19.00000   22.00000   17.00000

 chkinp: Checking input parameters for consistency.

== DATASET  1 ==================================================================
-   mpi_nproc: 1, omp_nthreads: -1 (-1 if OMP is not activated)

--- !DatasetInfo
iteration_state: {dtset: 1, }
dimensions: {natom: 9, nkpt: 2, mband: 45, nsppol: 1, nspinor: 1, nspden: 1, mpw: 20206, }
cutoff_energies: {ecut:  42.0, pawecutdg:  -1.0, }
electrons: {nelect:   7.20000000E+01, charge:   0.00000000E+00, occopt:   1.00000000E+00, tsmear:   1.00000000E-02, }
meta: {optdriver: 1, rfelfd: 2, }
...

 Real(R)+Recip(G) space primitive vectors, cartesian coordinates (Bohr,Bohr^-1):
 R(1)= 11.2587396  0.0000000  6.5002363  G(1)=  0.0888199 -0.0314026  0.0000000
 R(2)=  3.7529132 10.6148415  6.5002363  G(2)=  0.0000000  0.0942077  0.0000000
 R(3)=  0.0000000  0.0000000 13.0004727  G(3)= -0.0444099 -0.0314026  0.0769203
 Unit cell volume ucvol=  1.5536831E+03 bohr^3
 Angles (23,13,12)=  6.00000000E+01  6.00000000E+01  6.00000000E+01 degrees

 getcut: wavevector=  0.0000  0.0000  0.0000  ngfft=  80  80  80
         ecut(hartree)=     42.000   => boxcut(ratio)=   2.10931

--- Pseudopotential description ------------------------------------------------
- pspini: atom type   1  psp file is /scratch/users/j/a/jabreu/pseudos/PBEsol/K.psp8
- pspatm: opening atomic psp file    /scratch/users/j/a/jabreu/pseudos/PBEsol/K.psp8
- K     ONCVPSP-3.3.0  r_core=   1.36296   1.46408   1.61068
- 19.00000   9.00000    180112                znucl, zion, pspdat
    8 -116133    2    4       400   0.00000   pspcod,pspxc,lmax,lloc,mmax,r2well
    3.99000000000000    5.00000000000000    0.00000000000000   rchrg,fchrg,qchrg
     nproj     2     2     2
     extension_switch     1
  pspatm : epsatm=    8.32487830
         --- l  ekb(1:nproj) -->
             0   10.921326    0.816676
             1    4.431000    0.560368
             2   -3.384038   -1.043186
 pspatm: atomic psp has been read  and splines computed

- pspini: atom type   2  psp file is /scratch/users/j/a/jabreu/pseudos/PBEsol/Ti.psp8
- pspatm: opening atomic psp file    /scratch/users/j/a/jabreu/pseudos/PBEsol/Ti.psp8
- Ti    ONCVPSP-3.3.0  r_core=   1.35825   1.31050   1.66360
- 22.00000  12.00000    180112                znucl, zion, pspdat
    8 -116133    2    4       600   0.00000   pspcod,pspxc,lmax,lloc,mmax,r2well
    5.99000000000000    2.50000000000000    0.00000000000000   rchrg,fchrg,qchrg
     nproj     2     2     2
     extension_switch     1
  pspatm : epsatm=   14.76919902
         --- l  ekb(1:nproj) -->
             0   11.321950    1.254474
             1    1.946894   -0.084268
             2   -5.237105   -1.488377
 pspatm: atomic psp has been read  and splines computed

- pspini: atom type   3  psp file is /scratch/users/j/a/jabreu/pseudos/PBEsol/Cl.psp8
- pspatm: opening atomic psp file    /scratch/users/j/a/jabreu/pseudos/PBEsol/Cl.psp8
- Cl    ONCVPSP-3.3.0  r_core=   1.56009   1.35202   1.75774
- 17.00000   7.00000    180112                znucl, zion, pspdat
    8 -116133    2    4       600   0.00000   pspcod,pspxc,lmax,lloc,mmax,r2well
    5.99000000000000    8.00000000000000    0.00000000000000   rchrg,fchrg,qchrg
     nproj     2     2     2
     extension_switch     1
  pspatm : epsatm=    8.95520722
         --- l  ekb(1:nproj) -->
             0    8.193503    0.707970
[...]

 Initialisation of the first-order wave-functions :
  ireadwf=   0

--- !BeginCycle
iteration_state: {dtset: 1, }
solver: {iscf: 7, nstep: 2000, nline: 4, wfoptalg: 0, }
tolerances: {tolwfr: 1.00E-20, }
...

     iter   2DEtotal(Ha)        deltaE(Ha) residm    vres2
-ETOT  1  -23.967509196402     -2.397E+01 7.985E-02 0.000E+00
 ETOT  2  -24.024852769435     -5.734E-02 6.174E-03 0.000E+00
 ETOT  3  -24.025457961258     -6.052E-04 6.855E-04 0.000E+00
 ETOT  4  -24.025468202784     -1.024E-05 1.152E-04 0.000E+00
 ETOT  5  -24.025468412237     -2.095E-07 2.223E-05 0.000E+00
 ETOT  6  -24.025468416954     -4.716E-09 3.723E-06 0.000E+00
 ETOT  7  -24.025468417066     -1.128E-10 7.920E-07 0.000E+00
 ETOT  8  -24.025468417069     -2.824E-12 1.299E-07 0.000E+00
 ETOT  9  -24.025468417069     -3.908E-14 2.756E-08 0.000E+00
 ETOT 10  -24.025468417069      3.553E-15 4.655E-09 0.000E+00
 ETOT 11  -24.025468417069     -7.105E-15 9.727E-10 0.000E+00
 ETOT 12  -24.025468417069     -2.132E-14 1.711E-10 0.000E+00
 ETOT 13  -24.025468417069      1.421E-14 3.540E-11 0.000E+00
 ETOT 14  -24.025468417069     -1.776E-14 6.452E-12 0.000E+00
 ETOT 15  -24.025468417069      0.000E+00 1.335E-12 0.000E+00
 ETOT 16  -24.025468417069      0.000E+00 2.492E-13 0.000E+00
 ETOT 17  -24.025468417069      1.066E-14 5.189E-14 0.000E+00
 ETOT 18  -24.025468417069      0.000E+00 9.821E-15 0.000E+00
 ETOT 19  -24.025468417069      0.000E+00 2.065E-15 0.000E+00
 ETOT 20  -24.025468417069      3.553E-15 3.930E-16 0.000E+00
 ETOT 21  -24.025468417069     -3.553E-15 8.349E-17 0.000E+00
 ETOT 22  -24.025468417069      0.000E+00 1.590E-17 0.000E+00
 ETOT 23  -24.025468417069     -7.105E-15 3.411E-18 0.000E+00
 ETOT 24  -24.025468417069      1.421E-14 6.484E-19 0.000E+00
 ETOT 25  -24.025468417069     -7.105E-15 1.403E-19 0.000E+00
 ETOT 26  -24.025468417069      0.000E+00 2.659E-20 0.000E+00
 ETOT 27  -24.025468417069      0.000E+00 9.970E-21 0.000E+00

 At SCF step   27   max residual=  9.97E-21 < tolwfr=  1.00E-20 =>converged.

 ----iterations are completed or convergence reached----

 dfpt_looppert: DFPT cycle converged with prtwf=-1. Will skip output of the 1st-order WFK file.
 dfpt_looppert : ek2=    5.0453953323E+01
          f-sum rule ratio=    1.0481854035E+00
 prteigrs : about to open file /scratch/users/j/a/jabreu/flow_simple_9atoms/flow/w124/t1/tmpdata/tmp_1WF1_EIG
 Expectation of eigenvalue derivatives (hartree) for nkpt=   2  k points:
  (in case of degenerate eigenvalues, averaged derivative)
 kpt#   1, nband= 45, wtk=  0.50000, kpt=  0.0000  0.0000  0.0000 (reduced coord)
  -0.00000   -0.00000   -0.00000   -0.00000   -0.00000    0.00000    0.00000   -0.00000
  -0.00000   -0.00000    0.00000    0.00000    0.00000    0.00000    0.00000   -0.00000
  -0.00000   -0.00000    0.00000   -0.00000   -0.00000   -0.00000    0.00000    0.00000
   0.00000   -0.00000   -0.00000   -0.00000   -0.00000   -0.00000   -0.00000   -0.00000
  -0.00000    0.00000    0.00000    0.00000   -0.00000   -0.00000   -0.00000   -0.00000
  -0.00000    0.00000   -0.00000   -0.00000   -0.00000
 prteigrs : prtvol=0 or 1, do not print more k-points.

 Eight components of 2nd-order total energy (hartree) are
 1,2,3: 0th-order hamiltonian combined with 1st-order wavefunctions
     kin0=   3.69824471E+01 eigvalue=   2.09388142E+00  local=  -2.19915483E+01
 4,5,6: 1st-order hamiltonian combined with 1st and 0th-order wfs
     kin1=  -5.28850974E+01  Hartree=   0.00000000E+00     xc=   0.00000000E+00
 7,8,9: eventually, occupation + non-local contributions
    edocc=   5.61069309E+00     enl0=   1.32999518E+00   enl1=   4.83416059E+00
 1-9 gives the relaxation energy (to be shifted if some occ is /=2.0)
   erelax=  -2.40254684E+01
  No Ewald or frozen-wf contrib.: the relaxation energy is the total one
 2DEtotal=   -0.2402546842E+02 Ha. Also 2DEtotal=   -0.653766243513E+03 eV
    (  non-var. 2DEtotal :   -2.4025468417E+01 Ha)

 CALCULATION OF EFFECTIVE MASSES
 NOTE : Additional infos (eff. mass eigenvalues, eigenvectors and, if degenerate, average mass) are available in stdout.

 COMMENTS:
 - At k-point ( 0.000, 0.000, 0.000), bands    34 through    36
   are DEGENERATE (effective mass tensor is therefore not defined).
   See Section IIIB Eqs. (67)-(70) and Appendix E of PRB 93 205147 (2016).
 - Angular average effective mass for Frohlich model is to be averaged over degenerate bands. See later.
 - Associated theta integrals calculated with ntheta=   1000 points.

 K-point ( 0.000, 0.000, 0.000) | band =    34
 Transport equivalent effective mass tensor:
             -1.0275521481             -0.0000003082              0.0000000000
             -0.0000003082             -1.0275518452             -0.0000000000
              0.0000000000             -0.0000000000             -1.0275504576
 Transport equivalent effective mass tensor eigenvalues:
             -1.0275523401             -1.0275516532             -1.0275504576
 Angular average effective mass 1/(<1/m>)=  -0.9778889429
 Angular average effective mass for Frohlich model (<m**0.5>)**2=  -0.9798135992
 Effective masses along directions: (cart. coord. / red. coord. -> eff. mass)
    1:   1.000000  0.000000  0.000000 /   0.948683  0.316228  0.000000 ->  -1.0390500592
    2:   0.000000  1.000000  0.000000 /   0.000000  1.000000  0.000000 ->  -1.1707559545
    3:   0.000000  0.000000  1.000000 /   0.408248  0.408248  0.816497 ->  -0.9339805570
    4:   0.577350  0.577350  0.577350 /   0.585539  0.688047  0.428644 ->  -1.0052098799
    5:   0.000000  0.707107  0.707107 /   0.289489  0.762222  0.578977 ->  -0.9400546787
    6:   0.707107  0.000000  0.707107 /   0.731423  0.422287  0.535439 ->  -0.9667372510
    7:   0.707107  0.707107  0.000000 /   0.616798  0.787122  0.000000 ->  -0.9421535386

[...]

 K-point ( 0.000, 0.000, 0.000) | band =    36
 Transport equivalent effective mass tensor:
            -52.5985491249             -0.0000000002             -0.0000000017
             -0.0000000002            -52.5985491260             -0.0000000010
             -0.0000000017             -0.0000000010            -52.5985491312
 Transport equivalent effective mass tensor eigenvalues:
            -52.5985491318            -52.5985491258            -52.5985491245
 Angular average effective mass 1/(<1/m>)=  -3.6820584919
 Angular average effective mass for Frohlich model (<m**0.5>)**2=  -4.6412101601
 Effective masses along directions: (cart. coord. / red. coord. -> eff. mass)
    1:   1.000000  0.000000  0.000000 /   0.948683  0.316228  0.000000 ->  -3.1438375577
    2:   0.000000  1.000000  0.000000 /   0.000000  1.000000  0.000000 ->  -2.1272755434
    3:   0.000000  0.000000  1.000000 /   0.408248  0.408248  0.816497 ->  -2.7638335780
    4:   0.577350  0.577350  0.577350 /   0.585539  0.688047  0.428644 ->  -3.0402378175
    5:   0.000000  0.707107  0.707107 /   0.289489  0.762222  0.578977 ->  -5.3177473957
    6:   0.707107  0.000000  0.707107 /   0.731423  0.422287  0.535439 ->  -2.9565078913
    7:   0.707107  0.707107  0.000000 /   0.616798  0.787122  0.000000 -> -16.0200221193

 Angular average effective mass for Frohlich model, averaged over degenerate bands.
 Value of     (<<m**0.5>>)**2 =     1.970982E+00
 Absolute Value of <<m**0.5>> =     1.403917E+00

 K-point ( 0.500, 0.000, 0.500) | band =    37
 Effective mass tensor:
              6.0711197596             -6.6321444201              8.1226592736
             -6.6321444201             10.7608578024            -11.4872594868
              8.1226592736            -11.4872594868             15.4504377819
 Effective mass tensor eigenvalues:
              1.3815199873              1.3815200959             29.5193752606
 Angular average effective mass 1/(<1/m>)=   2.0248970167
 Angular average effective mass for Frohlich model (<m**0.5>)**2=   2.6521671248
 Effective masses along directions: (cart. coord. / red. coord. -> eff. mass)
    1:   1.000000  0.000000  0.000000 /   0.948683  0.316228  0.000000 ->   1.6424476895
    2:   0.000000  1.000000  0.000000 /   0.000000  1.000000  0.000000 ->   2.0249023873
    3:   0.000000  0.000000  1.000000 /   0.408248  0.408248  0.816497 ->   2.6395081360
    4:   0.577350  0.577350  0.577350 /   0.585539  0.688047  0.428644 ->   1.5214414824
    5:   0.000000  0.707107  0.707107 /   0.289489  0.762222  0.578977 ->   1.3926952882
    6:   0.707107  0.000000  0.707107 /   0.731423  0.422287  0.535439 ->   3.3935306549
    7:   0.707107  0.707107  0.000000 /   0.616798  0.787122  0.000000 ->   1.4006091892

 END OF EFFECTIVE MASSES SECTION

 ---- first-order wavefunction calculations are completed ----

 Total localisation tensor (bohr^2) in cartesian coordinates
  WARNING : still subject to testing - especially symmetries.
      direction              matrix element
   alpha     beta       real part   imaginary part
     1        1       1.2667405639    0.0000000000
     1        2       0.3582882510    0.0000000000
     1        3       0.8776235715    0.0000000000
     2        1       0.3582882510    0.0000000000
     2        2       1.0133922076    0.0000000000
     2        3       0.6205734545    0.0000000000
     3        1       0.8776235715    0.0000000000
     3        2       0.6205734545    0.0000000000
     3        3       2.2801331253    0.0000000000

 respfn : d/dk was computed, but no 2DTE, so no DDB output.

== END DATASET(S) ==============================================================

 -outvars: echo values of variables after computation  --------
            acell      1.0000000000E+00  1.0000000000E+00  1.0000000000E+00 Bohr
              amu      3.90983000E+01  4.78800000E+01  3.54527000E+01
             ecut      4.20000000E+01 Hartree
           etotal     -2.4025468417E+01
            fcart      0.0000000000E+00  0.0000000000E+00  0.0000000000E+00
                       0.0000000000E+00  0.0000000000E+00  0.0000000000E+00
                       0.0000000000E+00  0.0000000000E+00  0.0000000000E+00
                       0.0000000000E+00  0.0000000000E+00  0.0000000000E+00
                       0.0000000000E+00  0.0000000000E+00  0.0000000000E+00
                       0.0000000000E+00  0.0000000000E+00  0.0000000000E+00
                       0.0000000000E+00  0.0000000000E+00  0.0000000000E+00
                       0.0000000000E+00  0.0000000000E+00  0.0000000000E+00
                       0.0000000000E+00  0.0000000000E+00  0.0000000000E+00
-          fftalg         512
           irdden           1
           irdwfk           1
           istwfk        1    1
              ixc     -116133
              kpt      0.00000000E+00  0.00000000E+00  0.00000000E+00
                       5.00000000E-01  0.00000000E+00  5.00000000E-01
           kptopt           0
P           mkmem           2
P          mkqmem           2
P          mk1mem           2
            natom           9
            nband          45
           nbdbuf           4
            ngfft          80      80      80
             nkpt           2
            nstep        2000
             nsym          48
           ntypat           3
              occ      2.000000  2.000000  2.000000  2.000000  2.000000  2.000000
                       2.000000  2.000000  2.000000  2.000000  2.000000  2.000000
                       2.000000  2.000000  2.000000  2.000000  2.000000  2.000000
                       2.000000  2.000000  2.000000  2.000000  2.000000  2.000000
                       2.000000  2.000000  2.000000  2.000000  2.000000  2.000000
                       2.000000  2.000000  2.000000  2.000000  2.000000  2.000000
                       0.000000  0.000000  0.000000  0.000000  0.000000  0.000000
                       0.000000  0.000000  0.000000
        optdriver           1
            prtwf          -1
            rfdir           1       1       1
           rfelfd           2
            rprim      1.1258739613E+01  0.0000000000E+00  6.5002363464E+00
                       3.7529132044E+00  1.0614841504E+01  6.5002363464E+00
                       0.0000000000E+00  0.0000000000E+00  1.3000472693E+01
          spgroup         225
           strten      0.0000000000E+00  0.0000000000E+00  0.0000000000E+00
                       0.0000000000E+00  0.0000000000E+00  0.0000000000E+00
           symrel      1  0  0   0  1  0   0  0  1      -1  0  0   0 -1  0   0  0 -1
                       0 -1  1   0 -1  0   1 -1  0       0  1 -1   0  1  0  -1  1  0
                      -1  0  0  -1  0  1  -1  1  0       1  0  0   1  0 -1   1 -1  0
                       0  1 -1   1  0 -1   0  0 -1       0 -1  1  -1  0  1   0  0  1
                      -1  0  0  -1  1  0  -1  0  1       1  0  0   1 -1  0   1  0 -1
                       0 -1  1   1 -1  0   0 -1  0       0  1 -1  -1  1  0   0  1  0
                       1  0  0   0  0  1   0  1  0      -1  0  0   0  0 -1   0 -1  0
                       0  1 -1   0  0 -1   1  0 -1       0 -1  1   0  0  1  -1  0  1
                      -1  0  1  -1  1  0  -1  0  0       1  0 -1   1 -1  0   1  0  0
                       0 -1  0   1 -1  0   0 -1  1       0  1  0  -1  1  0   0  1 -1
                       1  0 -1   0  0 -1   0  1 -1      -1  0  1   0  0  1   0 -1  1
                       0  1  0   0  0  1   1  0  0       0 -1  0   0  0 -1  -1  0  0
                       1  0 -1   0  1 -1   0  0 -1      -1  0  1   0 -1  1   0  0  1
                       0 -1  0   0 -1  1   1 -1  0       0  1  0   0  1 -1  -1  1  0
                      -1  0  1  -1  0  0  -1  1  0       1  0 -1   1  0  0   1 -1  0
                       0  1  0   1  0  0   0  0  1       0 -1  0  -1  0  0   0  0 -1
                       0  0 -1   0  1 -1   1  0 -1       0  0  1   0 -1  1  -1  0  1
                       1 -1  0   0 -1  1   0 -1  0      -1  1  0   0  1 -1   0  1  0
                       0  0  1   1  0  0   0  1  0       0  0 -1  -1  0  0   0 -1  0
                      -1  1  0  -1  0  0  -1  0  1       1 -1  0   1  0  0   1  0 -1
                       0  0  1   0  1  0   1  0  0       0  0 -1   0 -1  0  -1  0  0
                       1 -1  0   0 -1  0   0 -1  1      -1  1  0   0  1  0   0  1 -1
                       0  0 -1   1  0 -1   0  1 -1       0  0  1  -1  0  1   0 -1  1
                      -1  1  0  -1  0  1  -1  0  0       1 -1  0   1  0 -1   1  0  0
           tolwfr      1.00000000E-20
            typat      1  1  2  3  3  3  3  3  3
           useylm           1
              wtk        0.50000    0.50000
           xangst      1.9859561336E+00  1.4042830492E+00  3.4397769250E+00
                       5.9578684008E+00  4.2128491476E+00  1.0319330775E+01
                       0.0000000000E+00  0.0000000000E+00  0.0000000000E+00
                       1.9047225839E+00  1.3468422553E+00  6.8795538499E+00
                       5.0055071088E+00  1.3468422553E+00  5.0893150698E+00
                       2.9383174255E+00  4.2702899414E+00  8.6697926301E+00
                       6.0391019504E+00  4.2702899414E+00  6.8795538499E+00
                       2.9383174255E+00  4.2702899414E+00  5.0893150698E+00
                       5.0055071088E+00  1.3468422553E+00  8.6697926301E+00
            xcart      3.7529132044E+00  2.6537103760E+00  6.5002363464E+00
                       1.1258739613E+01  7.9611311281E+00  1.9500709039E+01
                       0.0000000000E+00  0.0000000000E+00  0.0000000000E+00
                       3.5994040427E+00  2.5451630068E+00  1.3000472693E+01
                       9.4590375919E+00  2.5451630068E+00  9.6174116858E+00
                       5.5526152257E+00  8.0696784973E+00  1.6383533700E+01
                       1.1412248775E+01  8.0696784973E+00  1.3000472693E+01
                       5.5526152257E+00  8.0696784973E+00  9.6174116858E+00
                       9.4590375919E+00  2.5451630068E+00  1.6383533700E+01
             xred      2.5000000000E-01  2.5000000000E-01  2.5000000000E-01
                       7.5000000000E-01  7.5000000000E-01  7.5000000000E-01
                       0.0000000000E+00  0.0000000000E+00  0.0000000000E+00
                       2.3977400000E-01  2.3977400000E-01  7.6022600000E-01
                       7.6022600000E-01  2.3977400000E-01  2.3977400000E-01
                       2.3977400000E-01  7.6022600000E-01  7.6022600000E-01
                       7.6022600000E-01  7.6022600000E-01  2.3977400000E-01
                       2.3977400000E-01  7.6022600000E-01  2.3977400000E-01
                       7.6022600000E-01  2.3977400000E-01  7.6022600000E-01
            znucl       19.00000   22.00000   17.00000

- Timing analysis has been suppressed with timopt=0

 Suggested references for the acknowledgment of ABINIT usage.

 Calculation completed.
.Delivered  14 WARNINGs and  11 COMMENTs to log file.