.Version 9.5.1 of ABINIT

 ABINIT is a project of the Universite Catholique de Louvain,
 Corning Inc. and other collaborators, see ~abinit/doc/developers/contributors.txt .
 acknowledgments of the ABINIT effort.

.Starting date : Wed 19 May 2021.
- ( at 01h20 )

- input  file    -> /scratch/users/j/a/jabreu/flow_simple_8atoms/flow/w417/t1/run.abi
- output file    -> /scratch/users/j/a/jabreu/flow_simple_8atoms/flow/w417/t1/run.abo
- root for input  files -> /scratch/users/j/a/jabreu/flow_simple_8atoms/flow/w417/t1/indata/in
- root for output files -> /scratch/users/j/a/jabreu/flow_simple_8atoms/flow/w417/t1/outdata/out

 Symmetries : space group I-4 2 d (#122); Bravais tI (body-center tetrag.)
     intxc =       0      iscf =       7    lmnmax =      18     lnmax =       6
     mgfft =      72  mpssoang =       3    mqgrid =    3001     natom =       8
  nloc_mem =       1    nspden =       1   nspinor =       1    nsppol =       1
      nsym =       8    n1xccc =    2501    ntypat =       3    occopt =       1
   xclevel =       2
-    mband =          33        mffmem =           1         mkmem =           1
-   mkqmem =           1        mk1mem =           1           mpw =       14515
      nfft =      373248          nkpt =           1
  Rough estimation (10% accuracy) of disk space for files :

------------- Echo of variables that govern the present computation ------------
-
- outvars: echo of selected default values
-   iomode0 =  0 , fftalg0 =512 , wfoptalg0 =  0
-
- outvars: echo of global parameters not present in the input file
-  max_nthreads =    0
-
 -outvars: echo values of preprocessed input variables --------
            acell      1.0000000000E+00  1.0000000000E+00  1.0000000000E+00 Bohr
              amu      2.43050000E+01  2.80855000E+01  3.09737620E+01
             ecut      4.20000000E+01 Hartree
-          fftalg         512
           irdden           1
           irdwfk           1
           istwfk        1
              ixc     -116133
           kptopt           0
P           mkmem           1
P          mkqmem           1
P          mk1mem           1
            natom           8
            nband          33
           nbdbuf           4
            ngfft          72      72      72
             nkpt           1
            nstep        2000
             nsym           8
           ntypat           3
              occ      2.000000  2.000000  2.000000  2.000000  2.000000  2.000000
                       2.000000  2.000000  2.000000  2.000000  2.000000  2.000000
                       2.000000  2.000000  2.000000  2.000000  2.000000  2.000000
                       2.000000  2.000000  2.000000  2.000000  2.000000  2.000000
                       0.000000  0.000000  0.000000  0.000000  0.000000  0.000000
                       0.000000  0.000000  0.000000
        optdriver           1
            prtwf          -1
            rfdir           1       1       1
           rfelfd           2
            rprim      9.7126138738E+00  0.0000000000E+00 -7.4116250362E+00
                      -2.3779731427E+00  9.4170118399E+00 -7.4116250362E+00
                       0.0000000000E+00  0.0000000000E+00  1.2217489674E+01
          spgroup         122
           symrel      1  0  0   0  1  0   0  0  1      -1 -1 -1   0  0  1   0  1  0
                       0  1  0   1  0  0  -1 -1 -1       0  0  1  -1 -1 -1   1  0  0
                       0  1  0   1  0  0   0  0  1      -1 -1 -1   0  0  1   1  0  0
                       1  0  0   0  1  0  -1 -1 -1       0  0  1  -1 -1 -1   0  1  0
            tnons      0.0000000  0.0000000  0.0000000    -0.2500000  0.2500000  0.5000000
                       0.0000000  0.0000000  0.0000000    -0.2500000  0.2500000  0.5000000
                      -0.2500000  0.2500000  0.5000000     0.0000000  0.0000000  0.0000000
                      -0.2500000  0.2500000  0.5000000     0.0000000  0.0000000  0.0000000
           tolwfr      1.00000000E-20
            typat      1  1  2  2  3  3  3  3
           useylm           1
           xangst      3.4114658215E-01  3.7374510290E+00 -6.8945450691E-01
                       1.9406623540E+00  2.4916340193E+00 -3.9220630478E+00
                       3.5401781259E+00  1.2458170097E+00 -6.8945450691E-01
                       0.0000000000E+00  0.0000000000E+00  0.0000000000E+00
                       7.7248417020E-01  4.5735238075E+00 -4.7937928528E+00
                       2.6531004234E-01  6.2290850484E-01  2.1433068220E+00
                       2.6456834887E+00  3.1145425242E+00 -1.5611843119E+00
                       4.0791717149E+00  1.6555612409E+00  1.4538523150E+00
            xcart      6.4467361143E-01  7.0627588799E+00 -1.3028801992E+00
                       3.6673203656E+00  4.7085059200E+00 -7.4116250362E+00
                       6.6899671197E+00  2.3542529600E+00 -1.3028801992E+00
                       0.0000000000E+00  0.0000000000E+00  0.0000000000E+00
                       1.4597835237E+00  8.6427074584E+00 -9.0589556295E+00
                       5.0136332032E-01  1.1771264800E+00  4.0502629122E+00
                       4.9996172280E+00  5.8856323999E+00 -2.9502107924E+00
                       7.7085173902E+00  3.1285573415E+00  2.7473827131E+00
             xred      2.5000000000E-01  7.5000000000E-01  5.0000000000E-01
                       5.0000000000E-01  5.0000000000E-01  8.3266726847E-17
                       7.5000000000E-01  2.5000000000E-01  5.0000000000E-01
                       0.0000000000E+00  0.0000000000E+00  0.0000000000E+00
                       3.7500000000E-01  9.1777600000E-01  4.2776000000E-02
                       8.2224000000E-02  1.2500000000E-01  4.5722400000E-01
                       6.6777600000E-01  6.2500000000E-01  5.4277600000E-01
                       8.7500000000E-01  3.3222400000E-01  9.5722400000E-01
            znucl       12.00000   14.00000   15.00000

 chkinp: Checking input parameters for consistency.

== DATASET  1 ==================================================================
-   mpi_nproc: 1, omp_nthreads: -1 (-1 if OMP is not activated)

--- !DatasetInfo
iteration_state: {dtset: 1, }
dimensions: {natom: 8, nkpt: 1, mband: 33, nsppol: 1, nspinor: 1, nspden: 1, mpw: 14515, }
cutoff_energies: {ecut:  42.0, pawecutdg:  -1.0, }
electrons: {nelect:   4.80000000E+01, charge:   0.00000000E+00, occopt:   1.00000000E+00, tsmear:   1.00000000E-02, }
meta: {optdriver: 1, rfelfd: 2, }
...

 Real(R)+Recip(G) space primitive vectors, cartesian coordinates (Bohr,Bohr^-1):
 R(1)=  9.7126139  0.0000000 -7.4116250  G(1)=  0.1029589  0.0259991  0.0000000
 R(2)= -2.3779731  9.4170118 -7.4116250  G(2)=  0.0000000  0.1061908  0.0000000
 R(3)=  0.0000000  0.0000000 12.2174897  G(3)=  0.0624590  0.0801917  0.0818499
 Unit cell volume ucvol=  1.1174580E+03 bohr^3
 Angles (23,13,12)=  1.27346989E+02  1.27346989E+02  7.76852936E+01 degrees

 getcut: wavevector=  0.0000  0.0000  0.0000  ngfft=  72  72  72
         ecut(hartree)=     42.000   => boxcut(ratio)=   2.02013

--- Pseudopotential description ------------------------------------------------
- pspini: atom type   1  psp file is /scratch/users/j/a/jabreu/pseudos/PBEsol/Mg.psp8
- pspatm: opening atomic psp file    /scratch/users/j/a/jabreu/pseudos/PBEsol/Mg.psp8
- Mg    ONCVPSP-3.3.0  r_core=   1.16056   1.56380
- 12.00000  10.00000    180112                znucl, zion, pspdat
    8 -116133    1    4       400   0.00000   pspcod,pspxc,lmax,lloc,mmax,r2well
    3.99000000000000    0.00000000000000    0.00000000000000   rchrg,fchrg,qchrg
     nproj     2     2
     extension_switch     1
  pspatm : epsatm=    9.18164846
         --- l  ekb(1:nproj) -->
             0    2.230603   -0.826587
             1   -6.503151   -2.501445
 pspatm: atomic psp has been read  and splines computed

- pspini: atom type   2  psp file is /scratch/users/j/a/jabreu/pseudos/PBEsol/Si.psp8
- pspatm: opening atomic psp file    /scratch/users/j/a/jabreu/pseudos/PBEsol/Si.psp8
- Si    ONCVPSP-3.3.0  r_core=   1.60303   1.72197   1.91712
- 14.00000   4.00000    180112                znucl, zion, pspdat
    8 -116133    2    4       600   0.00000   pspcod,pspxc,lmax,lloc,mmax,r2well
    5.99000000000000    4.00000000000000    0.00000000000000   rchrg,fchrg,qchrg
     nproj     2     2     2
     extension_switch     1
  pspatm : epsatm=    7.86468782
         --- l  ekb(1:nproj) -->
             0    5.384426    0.843824
             1    2.663259    0.615854
             2   -2.267219   -0.458043
 pspatm: atomic psp has been read  and splines computed

- pspini: atom type   3  psp file is /scratch/users/j/a/jabreu/pseudos/PBEsol/P.psp8
- pspatm: opening atomic psp file    /scratch/users/j/a/jabreu/pseudos/PBEsol/P.psp8
- P     ONCVPSP-3.3.0  r_core=   1.46089   1.55067   1.70594
- 15.00000   5.00000    180112                znucl, zion, pspdat
    8 -116133    2    4       600   0.00000   pspcod,pspxc,lmax,lloc,mmax,r2well
    5.99000000000000    5.00000000000000    0.00000000000000   rchrg,fchrg,qchrg
     nproj     2     2     2
     extension_switch     1
  pspatm : epsatm=    7.31221086
         --- l  ekb(1:nproj) -->
             0    6.742364    1.063650
             1    3.449117    0.910422
             2   -3.077645   -0.799176
 pspatm: atomic psp has been read  and splines computed

   3.04039277E+03                                ecore*ucvol(ha*bohr**3)

-inwffil : will read wavefunctions from disk file /scratch/users/j/a/jabreu/flow_simple_8atoms/flow/w417/t1/indata/in_WFK

 ==>  initialize data related to q vector <==

 The list of irreducible perturbations for this q vector is:
    1)    idir= 1    ipert=   9
    2)    idir= 2    ipert=   9
    3)    idir= 3    ipert=   9

 Perturbation wavevector (in red.coord.)   0.000000  0.000000  0.000000
 Perturbation : derivative vs k along direction   1

 dfpt_looppert : COMMENT -
  In a d/dk calculation, iscf is set to -3 automatically.
 The set of symmetries contains only one element for this perturbation.
 symkpt : not enough symmetry to change the number of k points.

[...]

 Initialisation of the first-order wave-functions :
  ireadwf=   0

--- !BeginCycle
iteration_state: {dtset: 1, }
solver: {iscf: 7, nstep: 2000, nline: 4, wfoptalg: 0, }
tolerances: {tolwfr: 1.00E-20, }
...

     iter   2DEtotal(Ha)        deltaE(Ha) residm    vres2
-ETOT  1  -26.967979124675     -2.697E+01 1.517E-02 0.000E+00
 ETOT  2  -26.976329819812     -8.351E-03 4.013E-04 0.000E+00
 ETOT  3  -26.976351452014     -2.163E-05 1.099E-05 0.000E+00
 ETOT  4  -26.976351560953     -1.089E-07 3.617E-07 0.000E+00
 ETOT  5  -26.976351561633     -6.799E-10 1.570E-08 0.000E+00
 ETOT  6  -26.976351561638     -4.828E-12 5.522E-10 0.000E+00
 ETOT  7  -26.976351561638      3.553E-14 2.638E-11 0.000E+00
 ETOT  8  -26.976351561638     -6.750E-14 9.400E-13 0.000E+00
 ETOT  9  -26.976351561638      1.066E-14 4.657E-14 0.000E+00
 ETOT 10  -26.976351561638     -2.487E-14 1.672E-15 0.000E+00
 ETOT 11  -26.976351561638      7.105E-15 8.455E-17 0.000E+00
 ETOT 12  -26.976351561638      0.000E+00 3.052E-18 0.000E+00
 ETOT 13  -26.976351561638     -1.421E-14 1.563E-19 0.000E+00
 ETOT 14  -26.976351561638      7.105E-15 9.580E-21 0.000E+00

 At SCF step   14   max residual=  9.58E-21 < tolwfr=  1.00E-20 =>converged.

 ----iterations are completed or convergence reached----

 dfpt_looppert: DFPT cycle converged with prtwf=-1. Will skip output of the 1st-order WFK file.
 dfpt_looppert : ek2=    4.2737069280E+01
          f-sum rule ratio=    1.2177298074E+00
 prteigrs : about to open file /scratch/users/j/a/jabreu/flow_simple_8atoms/flow/w417/t1/tmpdata/tmp_1WF1_EIG
 Expectation of eigenvalue derivatives (hartree) for nkpt=   1  k points:
  (in case of degenerate eigenvalues, averaged derivative)
 kpt#   1, nband= 33, wtk=  1.00000, kpt=  0.0000  0.0000  0.0000 (reduced coord)
  -0.00000    0.00000    0.00000   -0.00000   -0.00000   -0.00000   -0.00000   -0.00000
   0.00000    0.00000    0.00000   -0.00000   -0.00000    0.00000   -0.00000   -0.00000
  -0.00000   -0.00000    0.00000    0.00000    0.00000    0.00000    0.00000    0.00000
   0.00000   -0.00000    0.00000    0.00000    0.00000   -0.00000    0.00000    0.00000
   0.00000

 Eight components of 2nd-order total energy (hartree) are
 1,2,3: 0th-order hamiltonian combined with 1st-order wavefunctions
     kin0=   2.05815480E+01 eigvalue=   1.87330733E+00  local=  -9.13949411E+00
 4,5,6: 1st-order hamiltonian combined with 1st and 0th-order wfs
     kin1=  -5.20422031E+01  Hartree=   0.00000000E+00     xc=   0.00000000E+00
 7,8,9: eventually, occupation + non-local contributions
    edocc=   1.33467156E+01     enl0=   3.14274774E-01   enl1=  -1.91049998E+00
 1-9 gives the relaxation energy (to be shifted if some occ is /=2.0)
   erelax=  -2.69763516E+01
  No Ewald or frozen-wf contrib.: the relaxation energy is the total one
 2DEtotal=   -0.2697635156E+02 Ha. Also 2DEtotal=   -0.734063857486E+03 eV
    (  non-var. 2DEtotal :   -2.6976351561E+01 Ha)

 Perturbation wavevector (in red.coord.)   0.000000  0.000000  0.000000
 Perturbation : derivative vs k along direction   2
 The set of symmetries contains only one element for this perturbation.
 symkpt : not enough symmetry to change the number of k points.

[...]

 Perturbation wavevector (in red.coord.)   0.000000  0.000000  0.000000
 Perturbation : derivative vs k along direction   3
 The set of symmetries contains only one element for this perturbation.
 symkpt : not enough symmetry to change the number of k points.

-inwffil : will read wavefunctions from disk file /scratch/users/j/a/jabreu/flow_simple_8atoms/flow/w417/t1/indata/in_WFK

 Initialisation of the first-order wave-functions :
  ireadwf=   0

--- !BeginCycle
iteration_state: {dtset: 1, }
solver: {iscf: 7, nstep: 2000, nline: 4, wfoptalg: 0, }
tolerances: {tolwfr: 1.00E-20, }
...

     iter   2DEtotal(Ha)        deltaE(Ha) residm    vres2
-ETOT  1  -41.368579814411     -4.137E+01 5.247E-02 0.000E+00
 ETOT  2  -41.380274703609     -1.169E-02 2.655E-04 0.000E+00
 ETOT  3  -41.380299921143     -2.522E-05 1.603E-05 0.000E+00
 ETOT  4  -41.380300011057     -8.991E-08 1.511E-07 0.000E+00
 ETOT  5  -41.380300011476     -4.192E-10 1.552E-08 0.000E+00
 ETOT  6  -41.380300011478     -2.153E-12 1.499E-10 0.000E+00
 ETOT  7  -41.380300011478     -1.421E-13 1.719E-11 0.000E+00
 ETOT  8  -41.380300011478     -3.553E-14 1.717E-13 0.000E+00
 ETOT  9  -41.380300011478      5.684E-14 2.048E-14 0.000E+00
 ETOT 10  -41.380300011478     -4.263E-14 2.125E-16 0.000E+00
 ETOT 11  -41.380300011478      7.105E-15 2.590E-17 0.000E+00
 ETOT 12  -41.380300011478      7.105E-15 2.848E-19 0.000E+00
 ETOT 13  -41.380300011478     -7.105E-15 3.686E-20 0.000E+00
 ETOT 14  -41.380300011478      7.105E-15 9.266E-21 0.000E+00

 At SCF step   14   max residual=  9.27E-21 < tolwfr=  1.00E-20 =>converged.

 ----iterations are completed or convergence reached----

 dfpt_looppert: DFPT cycle converged with prtwf=-1. Will skip output of the 1st-order WFK file.
 dfpt_looppert : ek2=    6.4547207012E+01
          f-sum rule ratio=    1.2386179902E+00
 prteigrs : about to open file /scratch/users/j/a/jabreu/flow_simple_8atoms/flow/w417/t1/tmpdata/tmp_1WF1_EIG
 Expectation of eigenvalue derivatives (hartree) for nkpt=   1  k points:
  (in case of degenerate eigenvalues, averaged derivative)
 kpt#   1, nband= 33, wtk=  1.00000, kpt=  0.0000  0.0000  0.0000 (reduced coord)
  -0.00000    0.00000    0.00000   -0.00000   -0.00000   -0.00000    0.00000    0.00000
   0.00000    0.00000    0.00000    0.00000   -0.00000    0.00000   -0.00000   -0.00000
   0.00000    0.00000   -0.00000    0.00000    0.00000    0.00000    0.00000    0.00000
  -0.00000   -0.00000    0.00000    0.00000    0.00000    0.00000    0.00000    0.00000
   0.00000

 Eight components of 2nd-order total energy (hartree) are
 1,2,3: 0th-order hamiltonian combined with 1st-order wavefunctions
     kin0=   3.11930480E+01 eigvalue=   2.75761653E+00  local=  -1.38249261E+01
 4,5,6: 1st-order hamiltonian combined with 1st and 0th-order wfs
     kin1=  -7.99493318E+01  Hartree=   0.00000000E+00     xc=   0.00000000E+00
 7,8,9: eventually, occupation + non-local contributions
    edocc=   2.08564217E+01     enl0=   3.98139933E-01   enl1=  -2.81126820E+00
 1-9 gives the relaxation energy (to be shifted if some occ is /=2.0)
   erelax=  -4.13803000E+01
  No Ewald or frozen-wf contrib.: the relaxation energy is the total one
 2DEtotal=   -0.4138030001E+02 Ha. Also 2DEtotal=   -0.112601522785E+04 eV
    (  non-var. 2DEtotal :   -4.1380300011E+01 Ha)

 CALCULATION OF EFFECTIVE MASSES
 NOTE : Additional infos (eff. mass eigenvalues, eigenvectors and, if degenerate, average mass) are available in stdout.

 K-point ( 0.000, 0.000, 0.000) | band =    24
 Effective mass tensor:
             -0.4683713638              0.0606062438             -0.0953998497
              0.0606062438             -0.4377629243             -0.1224847330
             -0.0953998497             -0.1224847330             -0.3227735009
 Effective mass tensor eigenvalues:
             -0.5155758316             -0.5155758309             -0.1977561266
 Angular average effective mass 1/(<1/m>)=  -0.3357247705
 Angular average effective mass for Frohlich model (<m**0.5>)**2=  -0.3595181611
 Effective masses along directions: (cart. coord. / red. coord. -> eff. mass)
    1:   1.000000  0.000000  0.000000 /   0.971312 -0.237810  0.000000 ->  -0.4162231880
    2:   0.000000  1.000000  0.000000 /   0.000000  1.000000  0.000000 ->  -0.3699917877
    3:   0.000000  0.000000  1.000000 /  -0.460419 -0.460419  0.758965 ->  -0.2610576663
    4:   0.577350  0.577350  0.577350 /   0.184999 -0.029956  0.982282 ->  -0.5127556309
    5:   0.000000  0.707107  0.707107 /  -0.513631  0.138975  0.846681 ->  -0.4841806324
    6:   0.707107  0.000000  0.707107 /   0.145412 -0.618657  0.772088 ->  -0.4585286382
    7:   0.707107  0.707107  0.000000 /   0.809714  0.586825  0.000000 ->  -0.3177546771

 K-point ( 0.000, 0.000, 0.000) | band =    25
 Effective mass tensor:
              0.3401132626              0.0062875087             -0.0098971217
              0.0062875087              0.3432886918             -0.0127070044
             -0.0098971217             -0.0127070044              0.3552181061
 Effective mass tensor eigenvalues:
              0.3352161022              0.3352161025              0.3681878558
 Angular average effective mass 1/(<1/m>)=   0.3455303494
 Angular average effective mass for Frohlich model (<m**0.5>)**2=   0.3457297685
 Effective masses along directions: (cart. coord. / red. coord. -> eff. mass)
    1:   1.000000  0.000000  0.000000 /   0.971312 -0.237810  0.000000 ->   0.3397348170
    2:   0.000000  1.000000  0.000000 /   0.000000  1.000000  0.000000 ->   0.3427305351
    3:   0.000000  0.000000  1.000000 /  -0.460419 -0.460419  0.758965 ->   0.3544730415
    4:   0.577350  0.577350  0.577350 /   0.184999 -0.029956  0.982282 ->   0.3353188684
    5:   0.000000  0.707107  0.707107 /  -0.513631  0.138975  0.846681 ->   0.3364316568
    6:   0.707107  0.000000  0.707107 /   0.145412 -0.618657  0.772088 ->   0.3375562090
    7:   0.707107  0.707107  0.000000 /   0.809714  0.586825  0.000000 ->   0.3472625915

 END OF EFFECTIVE MASSES SECTION

 ---- first-order wavefunction calculations are completed ----

 Total localisation tensor (bohr^2) in cartesian coordinates
  WARNING : still subject to testing - especially symmetries.
      direction              matrix element
   alpha     beta       real part   imaginary part
     1        1       2.7890181952    0.0000000000
     1        2      -0.6246208482    0.0000000000
     1        3      -1.5163124258    0.0000000000
     2        1      -0.6246208482    0.0000000000
     2        2       2.4735611255    0.0000000000
     2        3      -1.9468073183    0.0000000000
     3        1      -1.5163124258    0.0000000000
     3        2      -1.9468073183    0.0000000000
     3        3       9.5005148948    0.0000000000

 respfn : d/dk was computed, but no 2DTE, so no DDB output.

== END DATASET(S) ==============================================================

 -outvars: echo values of variables after computation  --------
            acell      1.0000000000E+00  1.0000000000E+00  1.0000000000E+00 Bohr
              amu      2.43050000E+01  2.80855000E+01  3.09737620E+01
             ecut      4.20000000E+01 Hartree
           etotal     -4.1380300011E+01
            fcart      0.0000000000E+00  0.0000000000E+00  0.0000000000E+00
                       0.0000000000E+00  0.0000000000E+00  0.0000000000E+00
                       0.0000000000E+00  0.0000000000E+00  0.0000000000E+00
                       0.0000000000E+00  0.0000000000E+00  0.0000000000E+00
                       0.0000000000E+00  0.0000000000E+00  0.0000000000E+00
                       0.0000000000E+00  0.0000000000E+00  0.0000000000E+00
                       0.0000000000E+00  0.0000000000E+00  0.0000000000E+00
                       0.0000000000E+00  0.0000000000E+00  0.0000000000E+00
-          fftalg         512
           irdden           1
           irdwfk           1
           istwfk        1
              ixc     -116133
           kptopt           0
P           mkmem           1
P          mkqmem           1
P          mk1mem           1
            natom           8
            nband          33
           nbdbuf           4
            ngfft          72      72      72
             nkpt           1
            nstep        2000
             nsym           8
           ntypat           3
              occ      2.000000  2.000000  2.000000  2.000000  2.000000  2.000000
                       2.000000  2.000000  2.000000  2.000000  2.000000  2.000000
                       2.000000  2.000000  2.000000  2.000000  2.000000  2.000000
                       2.000000  2.000000  2.000000  2.000000  2.000000  2.000000
                       0.000000  0.000000  0.000000  0.000000  0.000000  0.000000
                       0.000000  0.000000  0.000000
        optdriver           1
            prtwf          -1
            rfdir           1       1       1
           rfelfd           2
            rprim      9.7126138738E+00  0.0000000000E+00 -7.4116250362E+00
                      -2.3779731427E+00  9.4170118399E+00 -7.4116250362E+00
                       0.0000000000E+00  0.0000000000E+00  1.2217489674E+01
          spgroup         122
           strten      0.0000000000E+00  0.0000000000E+00  0.0000000000E+00
                       0.0000000000E+00  0.0000000000E+00  0.0000000000E+00
           symrel      1  0  0   0  1  0   0  0  1      -1 -1 -1   0  0  1   0  1  0
                       0  1  0   1  0  0  -1 -1 -1       0  0  1  -1 -1 -1   1  0  0
                       0  1  0   1  0  0   0  0  1      -1 -1 -1   0  0  1   1  0  0
                       1  0  0   0  1  0  -1 -1 -1       0  0  1  -1 -1 -1   0  1  0
            tnons      0.0000000  0.0000000  0.0000000    -0.2500000  0.2500000  0.5000000
                       0.0000000  0.0000000  0.0000000    -0.2500000  0.2500000  0.5000000
                      -0.2500000  0.2500000  0.5000000     0.0000000  0.0000000  0.0000000
                      -0.2500000  0.2500000  0.5000000     0.0000000  0.0000000  0.0000000
           tolwfr      1.00000000E-20
            typat      1  1  2  2  3  3  3  3
           useylm           1
           xangst      3.4114658215E-01  3.7374510290E+00 -6.8945450691E-01
                       1.9406623540E+00  2.4916340193E+00 -3.9220630478E+00
                       3.5401781259E+00  1.2458170097E+00 -6.8945450691E-01
                       0.0000000000E+00  0.0000000000E+00  0.0000000000E+00
                       7.7248417020E-01  4.5735238075E+00 -4.7937928528E+00
                       2.6531004234E-01  6.2290850484E-01  2.1433068220E+00
                       2.6456834887E+00  3.1145425242E+00 -1.5611843119E+00
                       4.0791717149E+00  1.6555612409E+00  1.4538523150E+00
            xcart      6.4467361143E-01  7.0627588799E+00 -1.3028801992E+00
                       3.6673203656E+00  4.7085059200E+00 -7.4116250362E+00
                       6.6899671197E+00  2.3542529600E+00 -1.3028801992E+00
                       0.0000000000E+00  0.0000000000E+00  0.0000000000E+00
                       1.4597835237E+00  8.6427074584E+00 -9.0589556295E+00
                       5.0136332032E-01  1.1771264800E+00  4.0502629122E+00
                       4.9996172280E+00  5.8856323999E+00 -2.9502107924E+00
                       7.7085173902E+00  3.1285573415E+00  2.7473827131E+00
             xred      2.5000000000E-01  7.5000000000E-01  5.0000000000E-01
                       5.0000000000E-01  5.0000000000E-01  8.3266726847E-17
                       7.5000000000E-01  2.5000000000E-01  5.0000000000E-01
                       0.0000000000E+00  0.0000000000E+00  0.0000000000E+00
                       3.7500000000E-01  9.1777600000E-01  4.2776000000E-02
                       8.2224000000E-02  1.2500000000E-01  4.5722400000E-01
                       6.6777600000E-01  6.2500000000E-01  5.4277600000E-01
                       8.7500000000E-01  3.3222400000E-01  9.5722400000E-01
            znucl       12.00000   14.00000   15.00000

- Timing analysis has been suppressed with timopt=0

 Suggested references for the acknowledgment of ABINIT usage.

 Calculation completed.
.Delivered   6 WARNINGs and   5 COMMENTs to log file.