.Version 9.5.1 of ABINIT

 ABINIT is a project of the Universite Catholique de Louvain,
 Corning Inc. and other collaborators, see ~abinit/doc/developers/contributors.txt .
 acknowledgments of the ABINIT effort.

.Starting date : Sun 25 Apr 2021.
- ( at 18h03 )

- input  file    -> /scratch/users/j/a/jabreu/flow_simple2/flow/w243/t1/run.abi
- output file    -> /scratch/users/j/a/jabreu/flow_simple2/flow/w243/t1/run.abo
- root for input  files -> /scratch/users/j/a/jabreu/flow_simple2/flow/w243/t1/indata/in
- root for output files -> /scratch/users/j/a/jabreu/flow_simple2/flow/w243/t1/outdata/out

 Symmetries : space group Pm -3 m (#221); Bravais cP (primitive cubic)
     intxc =       0      iscf =       7    lmnmax =      32     lnmax =       8
     mgfft =      45  mpssoang =       4    mqgrid =    3001     natom =       2
  nloc_mem =       1    nspden =       1   nspinor =       1    nsppol =       1
      nsym =      48    n1xccc =    2501    ntypat =       2    occopt =       1
   xclevel =       2
-    mband =          23        mffmem =           1         mkmem =           2
-   mkqmem =           2        mk1mem =           2           mpw =        5520
      nfft =       91125          nkpt =           2
  Rough estimation (10% accuracy) of disk space for files :

------------- Echo of variables that govern the present computation ------------
-
- outvars: echo of selected default values
-   iomode0 =  0 , fftalg0 =512 , wfoptalg0 =  0
-
- outvars: echo of global parameters not present in the input file
-  max_nthreads =    0
-
 -outvars: echo values of preprocessed input variables --------
            acell      1.0000000000E+00  1.0000000000E+00  1.0000000000E+00 Bohr
              amu      1.32905430E+02  1.96966540E+02
             ecut      3.80000000E+01 Hartree
-          fftalg         512
           irdden           1
           irdwfk           1
           istwfk        1    1
              ixc     -116133
              kpt      5.00000000E-01  5.00000000E-01  5.00000000E-01
                       0.00000000E+00  5.00000000E-01  0.00000000E+00
           kptopt           0
P           mkmem           2
P          mkqmem           2
P          mk1mem           2
            natom           2
            nband          23
           nbdbuf           4
            ngfft          45      45      45
             nkpt           2
            nstep         100
             nsym          48
           ntypat           2
              occ      2.000000  2.000000  2.000000  2.000000  2.000000  2.000000
                       2.000000  2.000000  2.000000  2.000000  2.000000  2.000000
                       2.000000  2.000000  0.000000  0.000000  0.000000  0.000000
                       0.000000  0.000000  0.000000  0.000000  0.000000
        optdriver           1
            prtwf          -1
            rfdir           1       1       1
           rfelfd           2
            rprim      7.8561771073E+00  0.0000000000E+00  0.0000000000E+00
                       0.0000000000E+00  7.8561771073E+00  0.0000000000E+00
                       0.0000000000E+00  0.0000000000E+00  7.8561771073E+00
          spgroup         221
           symrel      1  0  0   0  1  0   0  0  1      -1  0  0   0 -1  0   0  0 -1
                      -1  0  0   0  1  0   0  0 -1       1  0  0   0 -1  0   0  0  1
                      -1  0  0   0 -1  0   0  0  1       1  0  0   0  1  0   0  0 -1
                       1  0  0   0 -1  0   0  0 -1      -1  0  0   0  1  0   0  0  1
                       0  1  0   1  0  0   0  0  1       0 -1  0  -1  0  0   0  0 -1
                       0 -1  0   1  0  0   0  0 -1       0  1  0  -1  0  0   0  0  1
                       0 -1  0  -1  0  0   0  0  1       0  1  0   1  0  0   0  0 -1
                       0  1  0  -1  0  0   0  0 -1       0 -1  0   1  0  0   0  0  1
                       0  0  1   1  0  0   0  1  0       0  0 -1  -1  0  0   0 -1  0
                       0  0 -1   1  0  0   0 -1  0       0  0  1  -1  0  0   0  1  0
                       0  0 -1  -1  0  0   0  1  0       0  0  1   1  0  0   0 -1  0
                       0  0  1  -1  0  0   0 -1  0       0  0 -1   1  0  0   0  1  0
                       1  0  0   0  0  1   0  1  0      -1  0  0   0  0 -1   0 -1  0
                      -1  0  0   0  0  1   0 -1  0       1  0  0   0  0 -1   0  1  0
                      -1  0  0   0  0 -1   0  1  0       1  0  0   0  0  1   0 -1  0
                       1  0  0   0  0 -1   0 -1  0      -1  0  0   0  0  1   0  1  0
                       0  1  0   0  0  1   1  0  0       0 -1  0   0  0 -1  -1  0  0
                       0 -1  0   0  0  1  -1  0  0       0  1  0   0  0 -1   1  0  0
                       0 -1  0   0  0 -1   1  0  0       0  1  0   0  0  1  -1  0  0
                       0  1  0   0  0 -1  -1  0  0       0 -1  0   0  0  1   1  0  0
                       0  0  1   0  1  0   1  0  0       0  0 -1   0 -1  0  -1  0  0
                       0  0 -1   0  1  0  -1  0  0       0  0  1   0 -1  0   1  0  0
                       0  0 -1   0 -1  0   1  0  0       0  0  1   0  1  0  -1  0  0
                       0  0  1   0 -1  0  -1  0  0       0  0 -1   0  1  0   1  0  0
           tolwfr      1.00000000E-20
            typat      1  2
           useylm           1
              wtk        0.50000    0.50000
           xangst      0.0000000000E+00  0.0000000000E+00  0.0000000000E+00
                       2.0786549359E+00  2.0786549359E+00  2.0786549359E+00
            xcart      0.0000000000E+00  0.0000000000E+00  0.0000000000E+00
                       3.9280885536E+00  3.9280885536E+00  3.9280885536E+00
             xred      0.0000000000E+00  0.0000000000E+00  0.0000000000E+00
                       5.0000000000E-01  5.0000000000E-01  5.0000000000E-01
            znucl       55.00000   79.00000

 chkinp: Checking input parameters for consistency.

== DATASET  1 ==================================================================
-   mpi_nproc: 1, omp_nthreads: -1 (-1 if OMP is not activated)

--- !DatasetInfo
iteration_state: {dtset: 1, }
dimensions: {natom: 2, nkpt: 2, mband: 23, nsppol: 1, nspinor: 1, nspden: 1, mpw: 5520, }
cutoff_energies: {ecut:  38.0, pawecutdg:  -1.0, }
electrons: {nelect:   2.80000000E+01, charge:   0.00000000E+00, occopt:   1.00000000E+00, tsmear:   1.00000000E-02, }
meta: {optdriver: 1, rfelfd: 2, }
...

 Real(R)+Recip(G) space primitive vectors, cartesian coordinates (Bohr,Bohr^-1):
 R(1)=  7.8561771  0.0000000  0.0000000  G(1)=  0.1272884  0.0000000  0.0000000
 R(2)=  0.0000000  7.8561771  0.0000000  G(2)=  0.0000000  0.1272884  0.0000000
 R(3)=  0.0000000  0.0000000  7.8561771  G(3)=  0.0000000  0.0000000  0.1272884
 Unit cell volume ucvol=  4.8487947E+02 bohr^3
 Angles (23,13,12)=  9.00000000E+01  9.00000000E+01  9.00000000E+01 degrees

 getcut: wavevector=  0.0000  0.0000  0.0000  ngfft=  45  45  45
         ecut(hartree)=     38.000   => boxcut(ratio)=   2.01829

--- Pseudopotential description ------------------------------------------------
- pspini: atom type   1  psp file is /scratch/users/j/a/jabreu/pseudos/PBEsol/Cs.psp8
- pspatm: opening atomic psp file    /scratch/users/j/a/jabreu/pseudos/PBEsol/Cs.psp8
- Cs    ONCVPSP-3.3.0  r_core=   2.27353   1.85623   2.01788   1.90105
- 55.00000   9.00000    180112                znucl, zion, pspdat
    8 -116133    3    4       600   0.00000   pspcod,pspxc,lmax,lloc,mmax,r2well
    5.99000000000000    5.00000000000000    0.00000000000000   rchrg,fchrg,qchrg
     nproj     2     2     2     2
     extension_switch     1
  pspatm : epsatm=   22.12462445
         --- l  ekb(1:nproj) -->
             0    6.214110    0.767882
             1    6.311966    0.793598
             2    3.769790    0.913105
             3   -9.247129   -2.432478
 pspatm: atomic psp has been read  and splines computed

- pspini: atom type   2  psp file is /scratch/users/j/a/jabreu/pseudos/PBEsol/Au.psp8
- pspatm: opening atomic psp file    /scratch/users/j/a/jabreu/pseudos/PBEsol/Au.psp8
- Au    ONCVPSP-3.3.0  r_core=   1.45604   1.56407   1.56407   1.60183
- 79.00000  19.00000    180112                znucl, zion, pspdat
    8 -116133    3    4       500   0.00000   pspcod,pspxc,lmax,lloc,mmax,r2well
    4.99000000000000    5.00000000000000    0.00000000000000   rchrg,fchrg,qchrg
     nproj     2     2     2     1
     extension_switch     1
  pspatm : epsatm=   32.21965837
         --- l  ekb(1:nproj) -->
             0    9.413866   -0.196587
             1    2.474292   -1.517497
             2    1.503483    0.298081
             3    1.177996
 pspatm: atomic psp has been read  and splines computed

   1.52163992E+03                                ecore*ucvol(ha*bohr**3)

-inwffil : will read wavefunctions from disk file /scratch/users/j/a/jabreu/flow_simple2/flow/w243/t1/indata/in_WFK

 ==>  initialize data related to q vector <==

 The list of irreducible perturbations for this q vector is:
    1)    idir= 1    ipert=   3
    2)    idir= 2    ipert=   3
    3)    idir= 3    ipert=   3

 Perturbation wavevector (in red.coord.)   0.000000  0.000000  0.000000
 Perturbation : derivative vs k along direction   1

 dfpt_looppert : COMMENT -
  In a d/dk calculation, iscf is set to -3 automatically.
 The set of symmetries contains only one element for this perturbation.
 symkpt : not enough symmetry to change the number of k points.

[...]

 Initialisation of the first-order wave-functions :
  ireadwf=   0

--- !BeginCycle
iteration_state: {dtset: 1, }
solver: {iscf: 7, nstep: 100, nline: 4, wfoptalg: 0, }
tolerances: {tolwfr: 1.00E-20, }
...

     iter   2DEtotal(Ha)        deltaE(Ha) residm    vres2
-ETOT  1  -26.410004822029     -2.641E+01 5.757E-02 0.000E+00
 ETOT  2  -26.415737720326     -5.733E-03 1.773E-02 0.000E+00
 ETOT  3  -26.415742686117     -4.966E-06 3.955E-04 0.000E+00
 ETOT  4  -26.415742707630     -2.151E-08 6.014E-05 0.000E+00
 ETOT  5  -26.415742707836     -2.053E-10 6.606E-06 0.000E+00
 ETOT  6  -26.415742707839     -3.212E-12 1.638E-06 0.000E+00
 ETOT  7  -26.415742707839     -6.395E-14 1.952E-07 0.000E+00
 ETOT  8  -26.415742707839     -3.553E-15 7.240E-08 0.000E+00
 ETOT  9  -26.415742707839      3.553E-15 6.970E-09 0.000E+00
 ETOT 10  -26.415742707839     -1.066E-14 2.160E-09 0.000E+00
 ETOT 11  -26.415742707839      0.000E+00 2.394E-10 0.000E+00
 ETOT 12  -26.415742707839     -3.553E-15 7.186E-11 0.000E+00
 ETOT 13  -26.415742707839      1.421E-14 8.482E-12 0.000E+00
 ETOT 14  -26.415742707839     -1.421E-14 2.502E-12 0.000E+00
 ETOT 15  -26.415742707839      3.553E-15 3.011E-13 0.000E+00
 ETOT 16  -26.415742707839      0.000E+00 8.822E-14 0.000E+00
 ETOT 17  -26.415742707839      0.000E+00 1.081E-14 0.000E+00
 ETOT 18  -26.415742707839      1.066E-14 3.136E-15 0.000E+00
 ETOT 19  -26.415742707839     -1.066E-14 3.928E-16 0.000E+00
 ETOT 20  -26.415742707839      7.105E-15 1.126E-16 0.000E+00
 ETOT 21  -26.415742707839     -1.066E-14 1.441E-17 0.000E+00
 ETOT 22  -26.415742707839      3.553E-15 4.077E-18 0.000E+00
 ETOT 23  -26.415742707839      3.553E-15 5.309E-19 0.000E+00
 ETOT 24  -26.415742707839      0.000E+00 1.487E-19 0.000E+00
 ETOT 25  -26.415742707839      3.553E-15 1.961E-20 0.000E+00
 ETOT 26  -26.415742707839      0.000E+00 9.688E-21 0.000E+00

 At SCF step   26   max residual=  9.69E-21 < tolwfr=  1.00E-20 =>converged.

 ----iterations are completed or convergence reached----

 dfpt_looppert: DFPT cycle converged with prtwf=-1. Will skip output of the 1st-order WFK file.
 dfpt_looppert : ek2=    3.5819971233E+01
          f-sum rule ratio=    1.3792529848E+00
 prteigrs : about to open file /scratch/users/j/a/jabreu/flow_simple2/flow/w243/t1/tmpdata/tmp_1WF1_EIG
 Expectation of eigenvalue derivatives (hartree) for nkpt=   2  k points:
  (in case of degenerate eigenvalues, averaged derivative)
 kpt#   1, nband= 23, wtk=  0.50000, kpt=  0.5000  0.5000  0.5000 (reduced coord)
  -0.00000    0.00000    0.00000    0.00000    0.00000    0.00000    0.00000    0.00000
  -0.00000   -0.00000   -0.00000   -0.00000   -0.00000   -0.00000    0.00000    0.00000
   0.00000   -0.00000   -0.00000   -0.00000   -0.00000   -0.00000   -0.00000
 prteigrs : prtvol=0 or 1, do not print more k-points.

 Eight components of 2nd-order total energy (hartree) are
 1,2,3: 0th-order hamiltonian combined with 1st-order wavefunctions
     kin0=   2.17176618E+01 eigvalue=  -8.50740724E-02  local=  -1.11320770E+01
 4,5,6: 1st-order hamiltonian combined with 1st and 0th-order wfs
     kin1=  -4.94048022E+01  Hartree=   0.00000000E+00     xc=   0.00000000E+00
 7,8,9: eventually, occupation + non-local contributions
    edocc=   1.43269645E+01     enl0=   1.58826757E+00   enl1=  -3.42668318E+00
 1-9 gives the relaxation energy (to be shifted if some occ is /=2.0)
   erelax=  -2.64157427E+01
  No Ewald or frozen-wf contrib.: the relaxation energy is the total one
 2DEtotal=   -0.2641574271E+02 Ha. Also 2DEtotal=   -0.718808914770E+03 eV
    (  non-var. 2DEtotal :   -2.6415742708E+01 Ha)

 Perturbation wavevector (in red.coord.)   0.000000  0.000000  0.000000
 Perturbation : derivative vs k along direction   2
 The set of symmetries contains only one element for this perturbation.
 symkpt : not enough symmetry to change the number of k points.

[...]

 Perturbation wavevector (in red.coord.)   0.000000  0.000000  0.000000
 Perturbation : derivative vs k along direction   3
 The set of symmetries contains only one element for this perturbation.
 symkpt : not enough symmetry to change the number of k points.

-inwffil : will read wavefunctions from disk file /scratch/users/j/a/jabreu/flow_simple2/flow/w243/t1/indata/in_WFK

 Initialisation of the first-order wave-functions :
  ireadwf=   0

--- !BeginCycle
iteration_state: {dtset: 1, }
solver: {iscf: 7, nstep: 100, nline: 4, wfoptalg: 0, }
tolerances: {tolwfr: 1.00E-20, }
...

     iter   2DEtotal(Ha)        deltaE(Ha) residm    vres2
-ETOT  1  -26.410016773838     -2.641E+01 5.060E-02 0.000E+00
 ETOT  2  -26.415737718885     -5.721E-03 1.613E-03 0.000E+00
 ETOT  3  -26.415742687021     -4.968E-06 6.189E-04 0.000E+00
 ETOT  4  -26.415742710165     -2.314E-08 3.875E-05 0.000E+00
 ETOT  5  -26.415742710439     -2.736E-10 1.798E-05 0.000E+00
 ETOT  6  -26.415742710446     -7.262E-12 2.581E-06 0.000E+00
 ETOT  7  -26.415742710446     -2.700E-13 9.942E-07 0.000E+00
 ETOT  8  -26.415742710446      0.000E+00 1.292E-07 0.000E+00
 ETOT  9  -26.415742710446      7.105E-15 5.438E-08 0.000E+00
 ETOT 10  -26.415742710446     -1.066E-14 6.666E-09 0.000E+00
 ETOT 11  -26.415742710446      7.105E-15 3.083E-09 0.000E+00
 ETOT 12  -26.415742710446      0.000E+00 3.586E-10 0.000E+00
 ETOT 13  -26.415742710446     -1.066E-14 1.729E-10 0.000E+00
 ETOT 14  -26.415742710446      7.105E-15 1.971E-11 0.000E+00
 ETOT 15  -26.415742710446      3.553E-15 9.749E-12 0.000E+00
 ETOT 16  -26.415742710446      0.000E+00 1.102E-12 0.000E+00
 ETOT 17  -26.415742710446      0.000E+00 5.539E-13 0.000E+00
 ETOT 18  -26.415742710446      0.000E+00 6.233E-14 0.000E+00
 ETOT 19  -26.415742710446      3.553E-15 3.162E-14 0.000E+00
 ETOT 20  -26.415742710446      3.553E-15 3.550E-15 0.000E+00
 ETOT 21  -26.415742710446     -7.105E-15 1.810E-15 0.000E+00
 ETOT 22  -26.415742710446      0.000E+00 2.029E-16 0.000E+00
 ETOT 23  -26.415742710446      0.000E+00 1.038E-16 0.000E+00
 ETOT 24  -26.415742710446     -7.105E-15 1.162E-17 0.000E+00
 ETOT 25  -26.415742710446      7.105E-15 5.956E-18 0.000E+00
 ETOT 26  -26.415742710446      0.000E+00 6.663E-19 0.000E+00
 ETOT 27  -26.415742710446      0.000E+00 3.423E-19 0.000E+00
 ETOT 28  -26.415742710446     -1.066E-14 3.824E-20 0.000E+00
 ETOT 29  -26.415742710446      1.066E-14 1.969E-20 0.000E+00
 ETOT 30  -26.415742710446      3.553E-15 9.718E-21 0.000E+00

 At SCF step   30   max residual=  9.72E-21 < tolwfr=  1.00E-20 =>converged.

 ----iterations are completed or convergence reached----

 dfpt_looppert: DFPT cycle converged with prtwf=-1. Will skip output of the 1st-order WFK file.
 dfpt_looppert : ek2=    3.5819971233E+01
          f-sum rule ratio=    1.3792529849E+00
 prteigrs : about to open file /scratch/users/j/a/jabreu/flow_simple2/flow/w243/t1/tmpdata/tmp_1WF1_EIG
 Expectation of eigenvalue derivatives (hartree) for nkpt=   2  k points:
  (in case of degenerate eigenvalues, averaged derivative)
 kpt#   1, nband= 23, wtk=  0.50000, kpt=  0.5000  0.5000  0.5000 (reduced coord)
  -0.00000    0.00000    0.00000    0.00000   -0.00000   -0.00000   -0.00000   -0.00000
   0.00000    0.00000    0.00000    0.00000    0.00000   -0.00000    0.00000    0.00000
   0.00000    0.00000    0.00000    0.00000   -0.00000   -0.00000   -0.00000
 prteigrs : prtvol=0 or 1, do not print more k-points.

 Eight components of 2nd-order total energy (hartree) are
 1,2,3: 0th-order hamiltonian combined with 1st-order wavefunctions
     kin0=   2.17306697E+01 eigvalue=  -6.62201294E-02  local=  -1.11424048E+01
 4,5,6: 1st-order hamiltonian combined with 1st and 0th-order wfs
     kin1=  -4.94048022E+01  Hartree=   0.00000000E+00     xc=   0.00000000E+00
 7,8,9: eventually, occupation + non-local contributions
    edocc=   1.43020440E+01     enl0=   1.59165389E+00   enl1=  -3.42668318E+00
 1-9 gives the relaxation energy (to be shifted if some occ is /=2.0)
   erelax=  -2.64157427E+01
  No Ewald or frozen-wf contrib.: the relaxation energy is the total one
 2DEtotal=   -0.2641574271E+02 Ha. Also 2DEtotal=   -0.718808914841E+03 eV
    (  non-var. 2DEtotal :   -2.6415742710E+01 Ha)

 CALCULATION OF EFFECTIVE MASSES
 NOTE : Additional infos (eff. mass eigenvalues, eigenvectors and, if degenerate, average mass) are available in stdout.

 K-point ( 0.500, 0.500, 0.500) | band =    14
 Effective mass tensor:
             -0.1387835828              0.0000000000             -0.0000000000
              0.0000000000             -0.1387835828             -0.0000000000
             -0.0000000000             -0.0000000000             -0.1387835829
 Effective mass tensor eigenvalues:
             -0.1387835829             -0.1387835828             -0.1387835828
 Angular average effective mass 1/(<1/m>)=  -0.1387835828
 Angular average effective mass for Frohlich model (<m**0.5>)**2=  -0.1387835828
 Effective masses along directions: (cart. coord. / red. coord. -> eff. mass)
    1:   1.000000  0.000000  0.000000 /   1.000000  0.000000  0.000000 ->  -0.1387835828
    2:   0.000000  1.000000  0.000000 /   0.000000  1.000000  0.000000 ->  -0.1387835828
    3:   0.000000  0.000000  1.000000 /   0.000000  0.000000  1.000000 ->  -0.1387835829
    4:   0.577350  0.577350  0.577350 /   0.577350  0.577350  0.577350 ->  -0.1387835828
    5:   0.000000  0.707107  0.707107 /   0.000000  0.707107  0.707107 ->  -0.1387835828
    6:   0.707107  0.000000  0.707107 /   0.707107  0.000000  0.707107 ->  -0.1387835828
    7:   0.707107  0.707107  0.000000 /   0.707107  0.707107  0.000000 ->  -0.1387835828

 K-point ( 0.000, 0.500, 0.000) | band =    15
 Effective mass tensor:
              0.3769125048             -0.0000000000             -0.0000000000
             -0.0000000000              0.1143771015              0.0000000000
             -0.0000000000              0.0000000000              0.3769125048
 Effective mass tensor eigenvalues:
              0.1143771015              0.3769125048              0.3769125048
 Angular average effective mass 1/(<1/m>)=   0.2135340737
 Angular average effective mass for Frohlich model (<m**0.5>)**2=   0.2376725664
 Effective masses along directions: (cart. coord. / red. coord. -> eff. mass)
    1:   1.000000  0.000000  0.000000 /   1.000000  0.000000  0.000000 ->   0.3769125048
    2:   0.000000  1.000000  0.000000 /   0.000000  1.000000  0.000000 ->   0.1143771015
    3:   0.000000  0.000000  1.000000 /   0.000000  0.000000  1.000000 ->   0.3769125048
    4:   0.577350  0.577350  0.577350 /   0.577350  0.577350  0.577350 ->   0.2135340737
    5:   0.000000  0.707107  0.707107 /   0.000000  0.707107  0.707107 ->   0.1754979518
    6:   0.707107  0.000000  0.707107 /   0.707107  0.000000  0.707107 ->   0.3769125048
    7:   0.707107  0.707107  0.000000 /   0.707107  0.707107  0.000000 ->   0.1754979517

 END OF EFFECTIVE MASSES SECTION

 ---- first-order wavefunction calculations are completed ----

 Total localisation tensor (bohr^2) in cartesian coordinates
  WARNING : still subject to testing - especially symmetries.
      direction              matrix element
   alpha     beta       real part   imaginary part
     1        1       4.3149064628    0.0000000000
     1        2       0.0000000000    0.0000000000
     1        3       0.0000000000    0.0000000000
     2        1       0.0000000000    0.0000000000
     2        2       6.3243996367    0.0000000000
     2        3       0.0000000000    0.0000000000
     3        1       0.0000000000    0.0000000000
     3        2       0.0000000000    0.0000000000
     3        3       4.3149064626    0.0000000000

 respfn : d/dk was computed, but no 2DTE, so no DDB output.

== END DATASET(S) ==============================================================

 -outvars: echo values of variables after computation  --------
            acell      1.0000000000E+00  1.0000000000E+00  1.0000000000E+00 Bohr
              amu      1.32905430E+02  1.96966540E+02
             ecut      3.80000000E+01 Hartree
           etotal     -2.6415742710E+01
            fcart      0.0000000000E+00  0.0000000000E+00  0.0000000000E+00
                       0.0000000000E+00  0.0000000000E+00  0.0000000000E+00
-          fftalg         512
           irdden           1
           irdwfk           1
           istwfk        1    1
              ixc     -116133
              kpt      5.00000000E-01  5.00000000E-01  5.00000000E-01
                       0.00000000E+00  5.00000000E-01  0.00000000E+00
           kptopt           0
P           mkmem           2
P          mkqmem           2
P          mk1mem           2
            natom           2
            nband          23
           nbdbuf           4
            ngfft          45      45      45
             nkpt           2
            nstep         100
             nsym          48
           ntypat           2
              occ      2.000000  2.000000  2.000000  2.000000  2.000000  2.000000
                       2.000000  2.000000  2.000000  2.000000  2.000000  2.000000
                       2.000000  2.000000  0.000000  0.000000  0.000000  0.000000
                       0.000000  0.000000  0.000000  0.000000  0.000000
        optdriver           1
            prtwf          -1
            rfdir           1       1       1
           rfelfd           2
            rprim      7.8561771073E+00  0.0000000000E+00  0.0000000000E+00
                       0.0000000000E+00  7.8561771073E+00  0.0000000000E+00
                       0.0000000000E+00  0.0000000000E+00  7.8561771073E+00
          spgroup         221
           strten      0.0000000000E+00  0.0000000000E+00  0.0000000000E+00
                       0.0000000000E+00  0.0000000000E+00  0.0000000000E+00
           symrel      1  0  0   0  1  0   0  0  1      -1  0  0   0 -1  0   0  0 -1
                      -1  0  0   0  1  0   0  0 -1       1  0  0   0 -1  0   0  0  1
                      -1  0  0   0 -1  0   0  0  1       1  0  0   0  1  0   0  0 -1
                       1  0  0   0 -1  0   0  0 -1      -1  0  0   0  1  0   0  0  1
                       0  1  0   1  0  0   0  0  1       0 -1  0  -1  0  0   0  0 -1
                       0 -1  0   1  0  0   0  0 -1       0  1  0  -1  0  0   0  0  1
                       0 -1  0  -1  0  0   0  0  1       0  1  0   1  0  0   0  0 -1
                       0  1  0  -1  0  0   0  0 -1       0 -1  0   1  0  0   0  0  1
                       0  0  1   1  0  0   0  1  0       0  0 -1  -1  0  0   0 -1  0
                       0  0 -1   1  0  0   0 -1  0       0  0  1  -1  0  0   0  1  0
                       0  0 -1  -1  0  0   0  1  0       0  0  1   1  0  0   0 -1  0
                       0  0  1  -1  0  0   0 -1  0       0  0 -1   1  0  0   0  1  0
                       1  0  0   0  0  1   0  1  0      -1  0  0   0  0 -1   0 -1  0
                      -1  0  0   0  0  1   0 -1  0       1  0  0   0  0 -1   0  1  0
                      -1  0  0   0  0 -1   0  1  0       1  0  0   0  0  1   0 -1  0
                       1  0  0   0  0 -1   0 -1  0      -1  0  0   0  0  1   0  1  0
                       0  1  0   0  0  1   1  0  0       0 -1  0   0  0 -1  -1  0  0
                       0 -1  0   0  0  1  -1  0  0       0  1  0   0  0 -1   1  0  0
                       0 -1  0   0  0 -1   1  0  0       0  1  0   0  0  1  -1  0  0
                       0  1  0   0  0 -1  -1  0  0       0 -1  0   0  0  1   1  0  0
                       0  0  1   0  1  0   1  0  0       0  0 -1   0 -1  0  -1  0  0
                       0  0 -1   0  1  0  -1  0  0       0  0  1   0 -1  0   1  0  0
                       0  0 -1   0 -1  0   1  0  0       0  0  1   0  1  0  -1  0  0
                       0  0  1   0 -1  0  -1  0  0       0  0 -1   0  1  0   1  0  0
           tolwfr      1.00000000E-20
            typat      1  2
           useylm           1
              wtk        0.50000    0.50000
           xangst      0.0000000000E+00  0.0000000000E+00  0.0000000000E+00
                       2.0786549359E+00  2.0786549359E+00  2.0786549359E+00
            xcart      0.0000000000E+00  0.0000000000E+00  0.0000000000E+00
                       3.9280885536E+00  3.9280885536E+00  3.9280885536E+00
             xred      0.0000000000E+00  0.0000000000E+00  0.0000000000E+00
                       5.0000000000E-01  5.0000000000E-01  5.0000000000E-01
            znucl       55.00000   79.00000

- Timing analysis has been suppressed with timopt=0

 Suggested references for the acknowledgment of ABINIT usage.

 Calculation completed.
.Delivered  14 WARNINGs and   9 COMMENTs to log file.