.Version 9.5.1 of ABINIT

 ABINIT is a project of the Universite Catholique de Louvain,
 Corning Inc. and other collaborators, see ~abinit/doc/developers/contributors.txt .
 acknowledgments of the ABINIT effort.

.Starting date : Sun 25 Apr 2021.
- ( at 17h21 )

- input  file    -> /scratch/users/j/a/jabreu/flow_simple2/flow/w194/t1/run.abi
- output file    -> /scratch/users/j/a/jabreu/flow_simple2/flow/w194/t1/run.abo
- root for input  files -> /scratch/users/j/a/jabreu/flow_simple2/flow/w194/t1/indata/in
- root for output files -> /scratch/users/j/a/jabreu/flow_simple2/flow/w194/t1/outdata/out

 Symmetries : space group F-4 3 m (#216); Bravais cF (face-center cubic)
     intxc =       0      iscf =       7    lmnmax =      18     lnmax =       6
     mgfft =      50  mpssoang =       3    mqgrid =    3001     natom =       2
  nloc_mem =       1    nspden =       1   nspinor =       1    nsppol =       1
      nsym =      24    n1xccc =    2501    ntypat =       2    occopt =       1
   xclevel =       2
-    mband =          18        mffmem =           1         mkmem =           2
-   mkqmem =           2        mk1mem =           2           mpw =        5125
      nfft =      125000          nkpt =           2
  Rough estimation (10% accuracy) of disk space for files :

------------- Echo of variables that govern the present computation ------------
-
- outvars: echo of selected default values
-   iomode0 =  0 , fftalg0 =512 , wfoptalg0 =  0
-
- outvars: echo of global parameters not present in the input file
-  max_nthreads =    0
-
 -outvars: echo values of preprocessed input variables --------
            acell      1.0000000000E+00  1.0000000000E+00  1.0000000000E+00 Bohr
              amu      2.69815390E+01  1.21753000E+02
             ecut      4.20000000E+01 Hartree
-          fftalg         512
           irdden           1
           irdwfk           1
           istwfk        1    0
              ixc     -116133
              kpt      0.00000000E+00  0.00000000E+00  0.00000000E+00
                       4.52380952E-01  1.23259516E-32  4.52380952E-01
           kptopt           0
P           mkmem           2
P          mkqmem           2
P          mk1mem           2
            natom           2
            nband          18
           nbdbuf           4
            ngfft          50      50      50
             nkpt           2
            nstep         100
             nsym          24
           ntypat           2
              occ      2.000000  2.000000  2.000000  2.000000  2.000000  2.000000
                       2.000000  2.000000  2.000000  0.000000  0.000000  0.000000
                       0.000000  0.000000  0.000000  0.000000  0.000000  0.000000
        optdriver           1
            prtwf          -1
            rfdir           1       1       1
           rfelfd           2
            rprim      7.1252634297E+00  0.0000000000E+00  4.1137727592E+00
                       2.3750878099E+00  6.7177627852E+00  4.1137727592E+00
                       0.0000000000E+00  0.0000000000E+00  8.2275455184E+00
          spgroup         216
           symrel      1  0  0   0  1  0   0  0  1       0 -1  1   0 -1  0   1 -1  0
                      -1  0  0  -1  0  1  -1  1  0       0  1 -1   1  0 -1   0  0 -1
                      -1  0  0  -1  1  0  -1  0  1       0 -1  1   1 -1  0   0 -1  0
                       1  0  0   0  0  1   0  1  0       0  1 -1   0  0 -1   1  0 -1
                      -1  0  1  -1  1  0  -1  0  0       0 -1  0   1 -1  0   0 -1  1
                       1  0 -1   0  0 -1   0  1 -1       0  1  0   0  0  1   1  0  0
                       1  0 -1   0  1 -1   0  0 -1       0 -1  0   0 -1  1   1 -1  0
                      -1  0  1  -1  0  0  -1  1  0       0  1  0   1  0  0   0  0  1
                       0  0 -1   0  1 -1   1  0 -1       1 -1  0   0 -1  1   0 -1  0
                       0  0  1   1  0  0   0  1  0      -1  1  0  -1  0  0  -1  0  1
                       0  0  1   0  1  0   1  0  0       1 -1  0   0 -1  0   0 -1  1
                       0  0 -1   1  0 -1   0  1 -1      -1  1  0  -1  0  1  -1  0  0
           tolwfr      1.00000000E-20
            typat      1  2
           useylm           1
              wtk        0.50000    0.50000
           xangst      0.0000000000E+00  0.0000000000E+00  0.0000000000E+00
                       1.2568423374E+00  8.8872173966E-01  2.1769147855E+00
            xcart      0.0000000000E+00  0.0000000000E+00  0.0000000000E+00
                       2.3750878099E+00  1.6794406963E+00  4.1137727592E+00
             xred      0.0000000000E+00  0.0000000000E+00  0.0000000000E+00
                       2.5000000000E-01  2.5000000000E-01  2.5000000000E-01
            znucl       13.00000   51.00000

 chkinp: Checking input parameters for consistency.

== DATASET  1 ==================================================================
-   mpi_nproc: 1, omp_nthreads: -1 (-1 if OMP is not activated)

--- !DatasetInfo
iteration_state: {dtset: 1, }
dimensions: {natom: 2, nkpt: 2, mband: 18, nsppol: 1, nspinor: 1, nspden: 1, mpw: 5125, }
cutoff_energies: {ecut:  42.0, pawecutdg:  -1.0, }
electrons: {nelect:   1.80000000E+01, charge:   0.00000000E+00, occopt:   1.00000000E+00, tsmear:   1.00000000E-02, }
meta: {optdriver: 1, rfelfd: 2, }
...

 Real(R)+Recip(G) space primitive vectors, cartesian coordinates (Bohr,Bohr^-1):
 R(1)=  7.1252634  0.0000000  4.1137728  G(1)=  0.1403457 -0.0496197  0.0000000
 R(2)=  2.3750878  6.7177628  4.1137728  G(2)=  0.0000000  0.1488591  0.0000000
 R(3)=  0.0000000  0.0000000  8.2275455  G(3)= -0.0701728 -0.0496197  0.1215429
 Unit cell volume ucvol=  3.9381829E+02 bohr^3
 Angles (23,13,12)=  6.00000000E+01  6.00000000E+01  6.00000000E+01 degrees

 getcut: wavevector=  0.0000  0.0000  0.0000  ngfft=  50  50  50
         ecut(hartree)=     42.000   => boxcut(ratio)=   2.08393

--- Pseudopotential description ------------------------------------------------
- pspini: atom type   1  psp file is /scratch/users/j/a/jabreu/pseudos/PBEsol/Al.psp8
- pspatm: opening atomic psp file    /scratch/users/j/a/jabreu/pseudos/PBEsol/Al.psp8
- Al    ONCVPSP-3.3.0  r_core=   1.76802   1.76802   1.70587
- 13.00000   3.00000    180112                znucl, zion, pspdat
    8 -116133    2    4       600   0.00000   pspcod,pspxc,lmax,lloc,mmax,r2well
    5.99000000000000    5.00000000000000    0.00000000000000   rchrg,fchrg,qchrg
     nproj     2     2     2
     extension_switch     1
  pspatm : epsatm=    0.68509324
         --- l  ekb(1:nproj) -->
             0    5.834965    0.726662
             1    6.225605    0.924840
             2   -2.432733   -0.548689
 pspatm: atomic psp has been read  and splines computed

- pspini: atom type   2  psp file is /scratch/users/j/a/jabreu/pseudos/PBEsol/Sb.psp8
- pspatm: opening atomic psp file    /scratch/users/j/a/jabreu/pseudos/PBEsol/Sb.psp8
- Sb    ONCVPSP-3.3.0  r_core=   1.81962   2.12485   1.81962
- 51.00000  15.00000    180112                znucl, zion, pspdat
    8 -116133    2    4       600   0.00000   pspcod,pspxc,lmax,lloc,mmax,r2well
    5.99000000000000    5.00000000000000    0.00000000000000   rchrg,fchrg,qchrg
     nproj     2     2     2
     extension_switch     1
  pspatm : epsatm=   26.35641246
         --- l  ekb(1:nproj) -->
             0    9.727814    1.485032
             1    5.505335    0.704623
             2   -4.710637   -1.436443
 pspatm: atomic psp has been read  and splines computed

   4.86747103E+02                                ecore*ucvol(ha*bohr**3)

-inwffil : will read wavefunctions from disk file /scratch/users/j/a/jabreu/flow_simple2/flow/w194/t1/indata/in_WFK

 ==>  initialize data related to q vector <==

 The list of irreducible perturbations for this q vector is:
    1)    idir= 1    ipert=   3
    2)    idir= 2    ipert=   3
    3)    idir= 3    ipert=   3

 Perturbation wavevector (in red.coord.)   0.000000  0.000000  0.000000
 Perturbation : derivative vs k along direction   1

 dfpt_looppert : COMMENT -
  In a d/dk calculation, iscf is set to -3 automatically.
 The set of symmetries contains only one element for this perturbation.
 symkpt : not enough symmetry to change the number of k points.

[...]

 Initialisation of the first-order wave-functions :
  ireadwf=   0

--- !BeginCycle
iteration_state: {dtset: 1, }
solver: {iscf: 7, nstep: 100, nline: 4, wfoptalg: 0, }
tolerances: {tolwfr: 1.00E-20, }
...

     iter   2DEtotal(Ha)        deltaE(Ha) residm    vres2
-ETOT  1  -46.800821227606     -4.680E+01 1.371E-01 0.000E+00
 ETOT  2  -46.814346033442     -1.352E-02 1.418E-03 0.000E+00
 ETOT  3  -46.814353902796     -7.869E-06 8.973E-05 0.000E+00
 ETOT  4  -46.814353955534     -5.274E-08 1.324E-06 0.000E+00
 ETOT  5  -46.814353956225     -6.911E-10 9.291E-08 0.000E+00
 ETOT  6  -46.814353956235     -9.756E-12 1.525E-09 0.000E+00
 ETOT  7  -46.814353956235     -1.705E-13 1.056E-10 0.000E+00
 ETOT  8  -46.814353956235     -1.421E-14 1.819E-12 0.000E+00
 ETOT  9  -46.814353956235     -1.421E-14 1.227E-13 0.000E+00
 ETOT 10  -46.814353956235      1.421E-14 2.212E-15 0.000E+00
 ETOT 11  -46.814353956235     -7.105E-15 1.455E-16 0.000E+00
 ETOT 12  -46.814353956235      7.105E-15 2.743E-18 0.000E+00
 ETOT 13  -46.814353956235     -7.105E-15 1.765E-19 0.000E+00
 ETOT 14  -46.814353956235      0.000E+00 9.861E-21 0.000E+00

 At SCF step   14   max residual=  9.86E-21 < tolwfr=  1.00E-20 =>converged.

 ----iterations are completed or convergence reached----

 dfpt_looppert: DFPT cycle converged with prtwf=-1. Will skip output of the 1st-order WFK file.
 dfpt_looppert : ek2=    3.1492918493E+01
          f-sum rule ratio=    1.9493299233E+00
 prteigrs : about to open file /scratch/users/j/a/jabreu/flow_simple2/flow/w194/t1/tmpdata/tmp_1WF1_EIG
 Expectation of eigenvalue derivatives (hartree) for nkpt=   2  k points:
  (in case of degenerate eigenvalues, averaged derivative)
 kpt#   1, nband= 18, wtk=  0.50000, kpt=  0.0000  0.0000  0.0000 (reduced coord)
  -0.00000   -0.00000   -0.00000   -0.00000   -0.00000   -0.00000    0.00000    0.00000
   0.00000   -0.00000   -0.00000   -0.00000   -0.00000   -0.00000   -0.00000   -0.00000
  -0.00000   -0.00000
 prteigrs : prtvol=0 or 1, do not print more k-points.

 Eight components of 2nd-order total energy (hartree) are
 1,2,3: 0th-order hamiltonian combined with 1st-order wavefunctions
     kin0=   3.00115193E+01 eigvalue=   5.17901627E+00  local=  -1.77409373E+01
 4,5,6: 1st-order hamiltonian combined with 1st and 0th-order wfs
     kin1=  -6.13900884E+01  Hartree=   0.00000000E+00     xc=   0.00000000E+00
 7,8,9: eventually, occupation + non-local contributions
    edocc=   2.35034050E+01     enl0=   5.86135070E+00   enl1=  -3.22386195E+01
 1-9 gives the relaxation energy (to be shifted if some occ is /=2.0)
   erelax=  -4.68143540E+01
  No Ewald or frozen-wf contrib.: the relaxation energy is the total one
 2DEtotal=   -0.4681435396E+02 Ha. Also 2DEtotal=   -0.127388335566E+04 eV
    (  non-var. 2DEtotal :   -4.6814353956E+01 Ha)

 Perturbation wavevector (in red.coord.)   0.000000  0.000000  0.000000
 Perturbation : derivative vs k along direction   2
 The set of symmetries contains only one element for this perturbation.
 symkpt : not enough symmetry to change the number of k points.

[...]

 Perturbation wavevector (in red.coord.)   0.000000  0.000000  0.000000
 Perturbation : derivative vs k along direction   3
 The set of symmetries contains only one element for this perturbation.
 symkpt : not enough symmetry to change the number of k points.

-inwffil : will read wavefunctions from disk file /scratch/users/j/a/jabreu/flow_simple2/flow/w194/t1/indata/in_WFK

 Initialisation of the first-order wave-functions :
  ireadwf=   0

--- !BeginCycle
iteration_state: {dtset: 1, }
solver: {iscf: 7, nstep: 100, nline: 4, wfoptalg: 0, }
tolerances: {tolwfr: 1.00E-20, }
...

     iter   2DEtotal(Ha)        deltaE(Ha) residm    vres2
-ETOT  1  -46.800849256604     -4.680E+01 1.371E-01 0.000E+00
 ETOT  2  -46.814347151377     -1.350E-02 1.418E-03 0.000E+00
 ETOT  3  -46.814353966890     -6.816E-06 8.973E-05 0.000E+00
 ETOT  4  -46.814354011194     -4.430E-08 1.324E-06 0.000E+00
 ETOT  5  -46.814354011763     -5.694E-10 9.291E-08 0.000E+00
 ETOT  6  -46.814354011771     -8.015E-12 1.525E-09 0.000E+00
 ETOT  7  -46.814354011771     -2.842E-14 1.056E-10 0.000E+00
 ETOT  8  -46.814354011771     -6.395E-14 1.819E-12 0.000E+00
 ETOT  9  -46.814354011771      9.237E-14 1.227E-13 0.000E+00
 ETOT 10  -46.814354011771     -2.132E-14 2.212E-15 0.000E+00
 ETOT 11  -46.814354011771     -7.105E-15 1.455E-16 0.000E+00
 ETOT 12  -46.814354011771      1.421E-14 2.743E-18 0.000E+00
 ETOT 13  -46.814354011771      2.132E-14 1.765E-19 0.000E+00
 ETOT 14  -46.814354011771     -1.421E-14 9.952E-21 0.000E+00

 At SCF step   14   max residual=  9.95E-21 < tolwfr=  1.00E-20 =>converged.

 ----iterations are completed or convergence reached----

 dfpt_looppert: DFPT cycle converged with prtwf=-1. Will skip output of the 1st-order WFK file.
 dfpt_looppert : ek2=    3.1492918493E+01
          f-sum rule ratio=    1.9493299252E+00
 prteigrs : about to open file /scratch/users/j/a/jabreu/flow_simple2/flow/w194/t1/tmpdata/tmp_1WF1_EIG
 Expectation of eigenvalue derivatives (hartree) for nkpt=   2  k points:
  (in case of degenerate eigenvalues, averaged derivative)
 kpt#   1, nband= 18, wtk=  0.50000, kpt=  0.0000  0.0000  0.0000 (reduced coord)
   0.00000    0.00000    0.00000    0.00000    0.00000   -0.00000   -0.00000   -0.00000
  -0.00000    0.00000    0.00000    0.00000    0.00000    0.00000    0.00000    0.00000
  -0.00000   -0.00000
 prteigrs : prtvol=0 or 1, do not print more k-points.

 Eight components of 2nd-order total energy (hartree) are
 1,2,3: 0th-order hamiltonian combined with 1st-order wavefunctions
     kin0=   3.00272461E+01 eigvalue=   5.17803155E+00  local=  -1.77498609E+01
 4,5,6: 1st-order hamiltonian combined with 1st and 0th-order wfs
     kin1=  -6.13900885E+01  Hartree=   0.00000000E+00     xc=   0.00000000E+00
 7,8,9: eventually, occupation + non-local contributions
    edocc=   2.34949398E+01     enl0=   5.86399745E+00   enl1=  -3.22386196E+01
 1-9 gives the relaxation energy (to be shifted if some occ is /=2.0)
   erelax=  -4.68143540E+01
  No Ewald or frozen-wf contrib.: the relaxation energy is the total one
 2DEtotal=   -0.4681435401E+02 Ha. Also 2DEtotal=   -0.127388335717E+04 eV
    (  non-var. 2DEtotal :   -4.6814354012E+01 Ha)

 CALCULATION OF EFFECTIVE MASSES
 NOTE : Additional infos (eff. mass eigenvalues, eigenvectors and, if degenerate, average mass) are available in stdout.

 COMMENTS:
 - At k-point ( 0.000, 0.000, 0.000), bands     7 through     9
   are DEGENERATE (effective mass tensor is therefore not defined).
   See Section IIIB Eqs. (67)-(70) and Appendix E of PRB 93 205147 (2016).
 - Angular average effective mass for Frohlich model is to be averaged over degenerate bands. See later.
 - Associated theta integrals calculated with ntheta=   1000 points.

 K-point ( 0.000, 0.000, 0.000) | band =     7
 Transport equivalent effective mass tensor:
             -0.0753857354              0.0000000004              0.0000000004
              0.0000000004             -0.0753857359             -0.0000000003
              0.0000000004             -0.0000000003             -0.0753857358
 Transport equivalent effective mass tensor eigenvalues:
             -0.0753857365             -0.0753857355             -0.0753857351
 Angular average effective mass 1/(<1/m>)=  -0.0721445243
 Angular average effective mass for Frohlich model (<m**0.5>)**2=  -0.0723603271
 Effective masses along directions: (cart. coord. / red. coord. -> eff. mass)
    1:   1.000000  0.000000  0.000000 /   0.948683  0.316228  0.000000 ->  -0.0694704419
    2:   0.000000  1.000000  0.000000 /   0.000000  1.000000  0.000000 ->  -0.0660844296
    3:   0.000000  0.000000  1.000000 /   0.408248  0.408248  0.816497 ->  -0.0699958073
    4:   0.577350  0.577350  0.577350 /   0.585539  0.688047  0.428644 ->  -0.0694268435
    5:   0.000000  0.707107  0.707107 /   0.289489  0.762222  0.578977 ->  -0.0748019270
    6:   0.707107  0.000000  0.707107 /   0.731423  0.422287  0.535439 ->  -0.0697299027
    7:   0.707107  0.707107  0.000000 /   0.616798  0.787122  0.000000 ->  -0.0826244908

[...]

 K-point ( 0.000, 0.000, 0.000) | band =     9
 Transport equivalent effective mass tensor:
            -13.0099164634              0.0000131114             -0.0000000214
              0.0000131114            -13.0099121162             -0.0000001786
             -0.0000000214             -0.0000001786            -13.0098957523
 Transport equivalent effective mass tensor eigenvalues:
            -13.0099275804            -13.0099010037            -13.0098957477
 Angular average effective mass 1/(<1/m>)=  -0.8751209256
 Angular average effective mass for Frohlich model (<m**0.5>)**2=  -1.0956167223
 Effective masses along directions: (cart. coord. / red. coord. -> eff. mass)
    1:   1.000000  0.000000  0.000000 /   0.948683  0.316228  0.000000 ->  -0.9518965339
    2:   0.000000  1.000000  0.000000 /   0.000000  1.000000  0.000000 ->  -0.8631289217
    3:   0.000000  0.000000  1.000000 /   0.408248  0.408248  0.816497 ->  -3.1950107546
    4:   0.577350  0.577350  0.577350 /   0.585539  0.688047  0.428644 ->  -1.1717155113
    5:   0.000000  0.707107  0.707107 /   0.289489  0.762222  0.578977 ->  -0.7703090412
    6:   0.707107  0.000000  0.707107 /   0.731423  0.422287  0.535439 ->  -1.6725441460
    7:   0.707107  0.707107  0.000000 /   0.616798  0.787122  0.000000 ->  -0.3892339486

 Angular average effective mass for Frohlich model, averaged over degenerate bands.
 Value of     (<<m**0.5>>)**2 =     4.283420E-01
 Absolute Value of <<m**0.5>> =     6.544784E-01

 K-point ( 0.452, 0.000, 0.452) | band =    10
 Effective mass tensor:
              0.4963220509             -0.3886983273              0.4760562811
             -0.3886983273              0.7711732762             -0.6732452509
              0.4760562811             -0.6732452509              1.0460244949
 Effective mass tensor eigenvalues:
              0.2214708285              0.2214708292              1.8705781643
 Angular average effective mass 1/(<1/m>)=   0.3136392702
 Angular average effective mass for Frohlich model (<m**0.5>)**2=   0.3736175469
 Effective masses along directions: (cart. coord. / red. coord. -> eff. mass)
    1:   1.000000  0.000000  0.000000 /   0.948683  0.316228  0.000000 ->   0.2596174102
    2:   0.000000  1.000000  0.000000 /   0.000000  1.000000  0.000000 ->   0.3136392708
    3:   0.000000  0.000000  1.000000 /   0.408248  0.408248  0.816497 ->   0.3960504728
    4:   0.577350  0.577350  0.577350 /   0.585539  0.688047  0.428644 ->   0.2420604287
    5:   0.000000  0.707107  0.707107 /   0.289489  0.762222  0.578977 ->   0.2231268017
    6:   0.707107  0.000000  0.707107 /   0.731423  0.422287  0.535439 ->   0.4903751939
    7:   0.707107  0.707107  0.000000 /   0.616798  0.787122  0.000000 ->   0.2242980904

 END OF EFFECTIVE MASSES SECTION

 ---- first-order wavefunction calculations are completed ----

 Total localisation tensor (bohr^2) in cartesian coordinates
  WARNING : still subject to testing - especially symmetries.
      direction              matrix element
   alpha     beta       real part   imaginary part
     1        1      11.3232662026    0.0000000000
     1        2       3.2027033266    0.0000000000
     1        3       7.8449889481    0.0000000000
     2        1       3.2027033266    0.0000000000
     2        2       9.0586129614    0.0000000000
     2        3       5.5472448832    0.0000000000
     3        1       7.8449889481    0.0000000000
     3        2       5.5472448832    0.0000000000
     3        3      20.3818791741    0.0000000000

 respfn : d/dk was computed, but no 2DTE, so no DDB output.

== END DATASET(S) ==============================================================

 -outvars: echo values of variables after computation  --------
            acell      1.0000000000E+00  1.0000000000E+00  1.0000000000E+00 Bohr
              amu      2.69815390E+01  1.21753000E+02
             ecut      4.20000000E+01 Hartree
           etotal     -4.6814354012E+01
            fcart      0.0000000000E+00  0.0000000000E+00  0.0000000000E+00
                       0.0000000000E+00  0.0000000000E+00  0.0000000000E+00
-          fftalg         512
           irdden           1
           irdwfk           1
           istwfk        1    0
              ixc     -116133
              kpt      0.00000000E+00  0.00000000E+00  0.00000000E+00
                       4.52380952E-01  1.23259516E-32  4.52380952E-01
           kptopt           0
P           mkmem           2
P          mkqmem           2
P          mk1mem           2
            natom           2
            nband          18
           nbdbuf           4
            ngfft          50      50      50
             nkpt           2
            nstep         100
             nsym          24
           ntypat           2
              occ      2.000000  2.000000  2.000000  2.000000  2.000000  2.000000
                       2.000000  2.000000  2.000000  0.000000  0.000000  0.000000
                       0.000000  0.000000  0.000000  0.000000  0.000000  0.000000
        optdriver           1
            prtwf          -1
            rfdir           1       1       1
           rfelfd           2
            rprim      7.1252634297E+00  0.0000000000E+00  4.1137727592E+00
                       2.3750878099E+00  6.7177627852E+00  4.1137727592E+00
                       0.0000000000E+00  0.0000000000E+00  8.2275455184E+00
          spgroup         216
           strten      0.0000000000E+00  0.0000000000E+00  0.0000000000E+00
                       0.0000000000E+00  0.0000000000E+00  0.0000000000E+00
           symrel      1  0  0   0  1  0   0  0  1       0 -1  1   0 -1  0   1 -1  0
                      -1  0  0  -1  0  1  -1  1  0       0  1 -1   1  0 -1   0  0 -1
                      -1  0  0  -1  1  0  -1  0  1       0 -1  1   1 -1  0   0 -1  0
                       1  0  0   0  0  1   0  1  0       0  1 -1   0  0 -1   1  0 -1
                      -1  0  1  -1  1  0  -1  0  0       0 -1  0   1 -1  0   0 -1  1
                       1  0 -1   0  0 -1   0  1 -1       0  1  0   0  0  1   1  0  0
                       1  0 -1   0  1 -1   0  0 -1       0 -1  0   0 -1  1   1 -1  0
                      -1  0  1  -1  0  0  -1  1  0       0  1  0   1  0  0   0  0  1
                       0  0 -1   0  1 -1   1  0 -1       1 -1  0   0 -1  1   0 -1  0
                       0  0  1   1  0  0   0  1  0      -1  1  0  -1  0  0  -1  0  1
                       0  0  1   0  1  0   1  0  0       1 -1  0   0 -1  0   0 -1  1
                       0  0 -1   1  0 -1   0  1 -1      -1  1  0  -1  0  1  -1  0  0
           tolwfr      1.00000000E-20
            typat      1  2
           useylm           1
              wtk        0.50000    0.50000
           xangst      0.0000000000E+00  0.0000000000E+00  0.0000000000E+00
                       1.2568423374E+00  8.8872173966E-01  2.1769147855E+00
            xcart      0.0000000000E+00  0.0000000000E+00  0.0000000000E+00
                       2.3750878099E+00  1.6794406963E+00  4.1137727592E+00
             xred      0.0000000000E+00  0.0000000000E+00  0.0000000000E+00
                       2.5000000000E-01  2.5000000000E-01  2.5000000000E-01
            znucl       13.00000   51.00000

- Timing analysis has been suppressed with timopt=0

 Suggested references for the acknowledgment of ABINIT usage.

 Calculation completed.
.Delivered  14 WARNINGs and   9 COMMENTs to log file.