.Version 9.5.1 of ABINIT

 ABINIT is a project of the Universite Catholique de Louvain,
 Corning Inc. and other collaborators, see ~abinit/doc/developers/contributors.txt .
 acknowledgments of the ABINIT effort.

.Starting date : Tue 27 Apr 2021.
- ( at 15h32 )

- input  file    -> /scratch/users/j/a/jabreu/flow_simple/flow/w144/t1/run.abi
- output file    -> /scratch/users/j/a/jabreu/flow_simple/flow/w144/t1/run.abo
- root for input  files -> /scratch/users/j/a/jabreu/flow_simple/flow/w144/t1/indata/in
- root for output files -> /scratch/users/j/a/jabreu/flow_simple/flow/w144/t1/outdata/out

 Symmetries : space group Fm -3 m (#225); Bravais cF (face-center cubic)
     intxc =       0      iscf =       7    lmnmax =      13     lnmax =       5
     mgfft =      48  mpssoang =       3    mqgrid =    3001     natom =       3
  nloc_mem =       1    nspden =       1   nspinor =       1    nsppol =       1
      nsym =      48    n1xccc =    2501    ntypat =       2    occopt =       1
   xclevel =       2
-    mband =          21        mffmem =           1         mkmem =           2
-   mkqmem =           2        mk1mem =           2           mpw =        3931
      nfft =      110592          nkpt =           2
  Rough estimation (10% accuracy) of disk space for files :

------------- Echo of variables that govern the present computation ------------
-
- outvars: echo of selected default values
-   iomode0 =  0 , fftalg0 =512 , wfoptalg0 =  0
-
- outvars: echo of global parameters not present in the input file
-  max_nthreads =    0
-
 -outvars: echo values of preprocessed input variables --------
            acell      1.0000000000E+00  1.0000000000E+00  1.0000000000E+00 Bohr
              amu      2.29897680E+01  1.59994000E+01
             ecut      4.40000000E+01 Hartree
-          fftalg         512
           irdden           1
           irdwfk           1
           istwfk        0    1
              ixc     -116133
              kpt      1.21621622E-01  1.21621622E-01  2.43243243E-01
                       0.00000000E+00  0.00000000E+00  0.00000000E+00
           kptopt           0
P           mkmem           2
P          mkqmem           2
P          mk1mem           2
            natom           3
            nband          21
           nbdbuf           4
            ngfft          48      48      48
             nkpt           2
            nstep         100
             nsym          48
           ntypat           2
              occ      2.000000  2.000000  2.000000  2.000000  2.000000  2.000000
                       2.000000  2.000000  2.000000  2.000000  2.000000  2.000000
                       0.000000  0.000000  0.000000  0.000000  0.000000  0.000000
                       0.000000  0.000000  0.000000
        optdriver           1
            prtwf          -1
            rfdir           1       1       1
           rfelfd           2
            rprim      6.3915426881E+00  0.0000000000E+00  3.6901588915E+00
                       2.1305142294E+00  6.0260042360E+00  3.6901588915E+00
                       0.0000000000E+00  0.0000000000E+00  7.3803177830E+00
          spgroup         225
           symrel      1  0  0   0  1  0   0  0  1      -1  0  0   0 -1  0   0  0 -1
                       0 -1  1   0 -1  0   1 -1  0       0  1 -1   0  1  0  -1  1  0
                      -1  0  0  -1  0  1  -1  1  0       1  0  0   1  0 -1   1 -1  0
                       0  1 -1   1  0 -1   0  0 -1       0 -1  1  -1  0  1   0  0  1
                      -1  0  0  -1  1  0  -1  0  1       1  0  0   1 -1  0   1  0 -1
                       0 -1  1   1 -1  0   0 -1  0       0  1 -1  -1  1  0   0  1  0
                       1  0  0   0  0  1   0  1  0      -1  0  0   0  0 -1   0 -1  0
                       0  1 -1   0  0 -1   1  0 -1       0 -1  1   0  0  1  -1  0  1
                      -1  0  1  -1  1  0  -1  0  0       1  0 -1   1 -1  0   1  0  0
                       0 -1  0   1 -1  0   0 -1  1       0  1  0  -1  1  0   0  1 -1
                       1  0 -1   0  0 -1   0  1 -1      -1  0  1   0  0  1   0 -1  1
                       0  1  0   0  0  1   1  0  0       0 -1  0   0  0 -1  -1  0  0
                       1  0 -1   0  1 -1   0  0 -1      -1  0  1   0 -1  1   0  0  1
                       0 -1  0   0 -1  1   1 -1  0       0  1  0   0  1 -1  -1  1  0
                      -1  0  1  -1  0  0  -1  1  0       1  0 -1   1  0  0   1 -1  0
                       0  1  0   1  0  0   0  0  1       0 -1  0  -1  0  0   0  0 -1
                       0  0 -1   0  1 -1   1  0 -1       0  0  1   0 -1  1  -1  0  1
                       1 -1  0   0 -1  1   0 -1  0      -1  1  0   0  1 -1   0  1  0
                       0  0  1   1  0  0   0  1  0       0  0 -1  -1  0  0   0 -1  0
                      -1  1  0  -1  0  0  -1  0  1       1 -1  0   1  0  0   1  0 -1
                       0  0  1   0  1  0   1  0  0       0  0 -1   0 -1  0  -1  0  0
                       1 -1  0   0 -1  0   0 -1  1      -1  1  0   0  1  0   0  1 -1
                       0  0 -1   1  0 -1   0  1 -1       0  0  1  -1  0  1   0 -1  1
                      -1  1  0  -1  0  1  -1  0  0       1 -1  0   1  0 -1   1  0  0
           tolwfr      1.00000000E-20
            typat      1  1  2
           useylm           1
              wtk        0.50000    0.50000
           xangst      3.3822587183E+00  2.3916180754E+00  5.8582439444E+00
                       1.1274195728E+00  7.9720602514E-01  1.9527479815E+00
                       0.0000000000E+00  0.0000000000E+00  0.0000000000E+00
            xcart      6.3915426881E+00  4.5195031770E+00  1.1070476675E+01
                       2.1305142294E+00  1.5065010590E+00  3.6901588915E+00
                       0.0000000000E+00  0.0000000000E+00  0.0000000000E+00
             xred      7.5000000000E-01  7.5000000000E-01  7.5000000000E-01
                       2.5000000000E-01  2.5000000000E-01  2.5000000000E-01
                       0.0000000000E+00  0.0000000000E+00  0.0000000000E+00
            znucl       11.00000    8.00000

 chkinp: Checking input parameters for consistency.

== DATASET  1 ==================================================================
-   mpi_nproc: 1, omp_nthreads: -1 (-1 if OMP is not activated)

--- !DatasetInfo
iteration_state: {dtset: 1, }
dimensions: {natom: 3, nkpt: 2, mband: 21, nsppol: 1, nspinor: 1, nspden: 1, mpw: 3931, }
cutoff_energies: {ecut:  44.0, pawecutdg:  -1.0, }
electrons: {nelect:   2.40000000E+01, charge:   0.00000000E+00, occopt:   1.00000000E+00, tsmear:   1.00000000E-02, }
meta: {optdriver: 1, rfelfd: 2, }
...

 Real(R)+Recip(G) space primitive vectors, cartesian coordinates (Bohr,Bohr^-1):
 R(1)=  6.3915427  0.0000000  3.6901589  G(1)=  0.1564568 -0.0553158  0.0000000
 R(2)=  2.1305142  6.0260042  3.6901589  G(2)=  0.0000000  0.1659474  0.0000000
 R(3)=  0.0000000  0.0000000  7.3803178  G(3)= -0.0782284 -0.0553158  0.1354955
 Unit cell volume ucvol=  2.8425636E+02 bohr^3
 Angles (23,13,12)=  6.00000000E+01  6.00000000E+01  6.00000000E+01 degrees

 getcut: wavevector=  0.0000  0.0000  0.0000  ngfft=  48  48  48
         ecut(hartree)=     44.000   => boxcut(ratio)=   2.17808

--- Pseudopotential description ------------------------------------------------
- pspini: atom type   1  psp file is /scratch/users/j/a/jabreu/pseudos/PBEsol/Na.psp8
- pspatm: opening atomic psp file    /scratch/users/j/a/jabreu/pseudos/PBEsol/Na.psp8
- Na    ONCVPSP-3.3.0  r_core=   1.20708   1.55069
- 11.00000   9.00000    180112                znucl, zion, pspdat
    8 -116133    1    4       400   0.00000   pspcod,pspxc,lmax,lloc,mmax,r2well
    3.99000000000000    0.00000000000000    0.00000000000000   rchrg,fchrg,qchrg
     nproj     2     2
     extension_switch     1
  pspatm : epsatm=    9.32878306
         --- l  ekb(1:nproj) -->
             0    2.657905   -0.678300
             1   -6.761319   -2.404728
 pspatm: atomic psp has been read  and splines computed

- pspini: atom type   2  psp file is /scratch/users/j/a/jabreu/pseudos/PBEsol/O.psp8
- pspatm: opening atomic psp file    /scratch/users/j/a/jabreu/pseudos/PBEsol/O.psp8
- O     ONCVPSP-3.3.0  r_core=   1.35509   1.45563   1.26150
-  8.00000   6.00000    180112                znucl, zion, pspdat
    8 -116133    2    4       600   0.00000   pspcod,pspxc,lmax,lloc,mmax,r2well
    5.99000000000000    4.00000000000000    0.00000000000000   rchrg,fchrg,qchrg
     nproj     2     2     1
     extension_switch     1
  pspatm : epsatm=    6.22910522
         --- l  ekb(1:nproj) -->
             0    6.050032    0.820363
             1   -4.739617   -1.153841
             2   -1.335834
 pspatm: atomic psp has been read  and splines computed

   5.97280112E+02                                ecore*ucvol(ha*bohr**3)

-inwffil : will read wavefunctions from disk file /scratch/users/j/a/jabreu/flow_simple/flow/w144/t1/indata/in_WFK

 ==>  initialize data related to q vector <==

 The list of irreducible perturbations for this q vector is:
    1)    idir= 1    ipert=   4
    2)    idir= 2    ipert=   4
    3)    idir= 3    ipert=   4

 Perturbation wavevector (in red.coord.)   0.000000  0.000000  0.000000
 Perturbation : derivative vs k along direction   1

 dfpt_looppert : COMMENT -
  In a d/dk calculation, iscf is set to -3 automatically.
 The set of symmetries contains only one element for this perturbation.
 symkpt : not enough symmetry to change the number of k points.

[...]

 Initialisation of the first-order wave-functions :
  ireadwf=   0

--- !BeginCycle
iteration_state: {dtset: 1, }
solver: {iscf: 7, nstep: 100, nline: 4, wfoptalg: 0, }
tolerances: {tolwfr: 1.00E-20, }
...

     iter   2DEtotal(Ha)        deltaE(Ha) residm    vres2
-ETOT  1  -33.399449192472     -3.340E+01 1.173E-02 0.000E+00
 ETOT  2  -33.402669720429     -3.221E-03 7.533E-06 0.000E+00
 ETOT  3  -33.402670245121     -5.247E-07 2.153E-09 0.000E+00
 ETOT  4  -33.402670245429     -3.081E-10 7.587E-13 0.000E+00
 ETOT  5  -33.402670245429     -6.395E-14 9.174E-16 0.000E+00
 ETOT  6  -33.402670245429      4.263E-14 2.870E-19 0.000E+00
 ETOT  7  -33.402670245429     -1.421E-14 8.826E-21 0.000E+00

 At SCF step    7   max residual=  8.83E-21 < tolwfr=  1.00E-20 =>converged.

 ----iterations are completed or convergence reached----

 dfpt_looppert: DFPT cycle converged with prtwf=-1. Will skip output of the 1st-order WFK file.
 dfpt_looppert : ek2=    5.2184569952E+01
          f-sum rule ratio=    1.1704702072E+00
 prteigrs : about to open file /scratch/users/j/a/jabreu/flow_simple/flow/w144/t1/tmpdata/tmp_1WF1_EIG
 Expectation of eigenvalue derivatives (hartree) for nkpt=   2  k points:
  (in case of degenerate eigenvalues, averaged derivative)
 kpt#   1, nband= 21, wtk=  0.50000, kpt=  0.1216  0.1216  0.2432 (reduced coord)
   0.00000   -0.00000    0.00000   -0.00000    0.00000    0.00000   -0.00000   -0.00000
   0.00000    0.00000   -0.00000   -0.00000    0.00000    0.00000   -0.00000   -0.00000
   0.00000   -0.00000    0.00000   -0.00000   -0.00000
 prteigrs : prtvol=0 or 1, do not print more k-points.

 Eight components of 2nd-order total energy (hartree) are
 1,2,3: 0th-order hamiltonian combined with 1st-order wavefunctions
     kin0=   3.19414169E+01 eigvalue=   3.99149213E+00  local=  -1.08492106E+01
 4,5,6: 1st-order hamiltonian combined with 1st and 0th-order wfs
     kin1=  -6.10804844E+01  Hartree=   0.00000000E+00     xc=   0.00000000E+00
 7,8,9: eventually, occupation + non-local contributions
    edocc=   9.11694796E+00     enl0=  -7.97976193E-01   enl1=  -5.72485609E+00
 1-9 gives the relaxation energy (to be shifted if some occ is /=2.0)
   erelax=  -3.34026702E+01
  No Ewald or frozen-wf contrib.: the relaxation energy is the total one
 2DEtotal=   -0.3340267025E+02 Ha. Also 2DEtotal=   -0.908932881997E+03 eV
    (  non-var. 2DEtotal :   -3.3402670245E+01 Ha)

 Perturbation wavevector (in red.coord.)   0.000000  0.000000  0.000000
 Perturbation : derivative vs k along direction   2
 The set of symmetries contains only one element for this perturbation.
 symkpt : not enough symmetry to change the number of k points.

[...]

 Perturbation wavevector (in red.coord.)   0.000000  0.000000  0.000000
 Perturbation : derivative vs k along direction   3
 The set of symmetries contains only one element for this perturbation.
 symkpt : not enough symmetry to change the number of k points.

-inwffil : will read wavefunctions from disk file /scratch/users/j/a/jabreu/flow_simple/flow/w144/t1/indata/in_WFK

 Initialisation of the first-order wave-functions :
  ireadwf=   0

--- !BeginCycle
iteration_state: {dtset: 1, }
solver: {iscf: 7, nstep: 100, nline: 4, wfoptalg: 0, }
tolerances: {tolwfr: 1.00E-20, }
...

     iter   2DEtotal(Ha)        deltaE(Ha) residm    vres2
-ETOT  1  -32.579891492058     -3.258E+01 1.951E-02 0.000E+00
 ETOT  2  -32.583805820102     -3.914E-03 7.466E-06 0.000E+00
 ETOT  3  -32.583806338912     -5.188E-07 1.577E-09 0.000E+00
 ETOT  4  -32.583806339135     -2.225E-10 7.488E-13 0.000E+00
 ETOT  5  -32.583806339135     -1.137E-13 7.244E-16 0.000E+00
 ETOT  6  -32.583806339135      7.105E-15 2.175E-19 0.000E+00
 ETOT  7  -32.583806339135     -1.421E-14 9.887E-21 0.000E+00

 At SCF step    7   max residual=  9.89E-21 < tolwfr=  1.00E-20 =>converged.

 ----iterations are completed or convergence reached----

 dfpt_looppert: DFPT cycle converged with prtwf=-1. Will skip output of the 1st-order WFK file.
 dfpt_looppert : ek2=    5.2184569952E+01
          f-sum rule ratio=    1.1287280620E+00
 prteigrs : about to open file /scratch/users/j/a/jabreu/flow_simple/flow/w144/t1/tmpdata/tmp_1WF1_EIG
 Expectation of eigenvalue derivatives (hartree) for nkpt=   2  k points:
  (in case of degenerate eigenvalues, averaged derivative)
 kpt#   1, nband= 21, wtk=  0.50000, kpt=  0.1216  0.1216  0.2432 (reduced coord)
   0.00251   -0.00229   -0.00504    0.00792    0.00985   -0.01527   -0.01081    0.00247
   0.02108   -0.11981   -0.02874   -0.00003    0.28309   -0.43014   -0.27494   -0.23609
   0.11131    0.16749    0.17735    0.30283    0.31311
 prteigrs : prtvol=0 or 1, do not print more k-points.

 Eight components of 2nd-order total energy (hartree) are
 1,2,3: 0th-order hamiltonian combined with 1st-order wavefunctions
     kin0=   3.20238232E+01 eigvalue=   3.99070077E+00  local=  -1.08676923E+01
 4,5,6: 1st-order hamiltonian combined with 1st and 0th-order wfs
     kin1=  -5.89021885E+01  Hartree=   0.00000000E+00     xc=   0.00000000E+00
 7,8,9: eventually, occupation + non-local contributions
    edocc=   8.33836214E+00     enl0=  -9.01387415E-01   enl1=  -6.26542417E+00
 1-9 gives the relaxation energy (to be shifted if some occ is /=2.0)
   erelax=  -3.25838063E+01
  No Ewald or frozen-wf contrib.: the relaxation energy is the total one
 2DEtotal=   -0.3258380634E+02 Ha. Also 2DEtotal=   -0.886650461914E+03 eV
    (  non-var. 2DEtotal :   -3.2583806339E+01 Ha)

 CALCULATION OF EFFECTIVE MASSES
 NOTE : Additional infos (eff. mass eigenvalues, eigenvectors and, if degenerate, average mass) are available in stdout.

 K-point ( 0.122, 0.122, 0.243) | band =    12
 Effective mass tensor:
             -7.8552470972             -4.1203699145             -0.0000000075
             -4.1203699145             -4.9417055932              0.0000000061
             -0.0000000075              0.0000000061            -22.1631688706
 Effective mass tensor eigenvalues:
            -22.1631688706            -10.7687886059             -2.0281640845
 Angular average effective mass 1/(<1/m>)=  -4.7540747920
 Angular average effective mass for Frohlich model (<m**0.5>)**2=  -6.4459096393
 Effective masses along directions: (cart. coord. / red. coord. -> eff. mass)
    1:   1.000000  0.000000  0.000000 /   0.948683  0.316228  0.000000 ->  -4.4197028480
    2:   0.000000  1.000000  0.000000 /   0.000000  1.000000  0.000000 ->  -2.7804179823
    3:   0.000000  0.000000  1.000000 /   0.408248  0.408248  0.816497 -> -22.1631688706
    4:   0.577350  0.577350  0.577350 /   0.585539  0.688047  0.428644 -> -11.8236202447
    5:   0.000000  0.707107  0.707107 /   0.289489  0.762222  0.578977 ->  -4.9409793055
    6:   0.707107  0.000000  0.707107 /   0.731423  0.422287  0.535439 ->  -7.3697546080
    7:   0.707107  0.707107  0.000000 /   0.616798  0.787122  0.000000 ->  -9.5872914407

 K-point ( 0.000, 0.000, 0.000) | band =    13
 Effective mass tensor:
              0.3193507347             -0.0000000000             -0.0000000000
             -0.0000000000              0.3193507348              0.0000000000
             -0.0000000000              0.0000000000              0.3193507348
 Effective mass tensor eigenvalues:
              0.3193507347              0.3193507348              0.3193507348
 Angular average effective mass 1/(<1/m>)=   0.3193507348
 Angular average effective mass for Frohlich model (<m**0.5>)**2=   0.3193507348
 Effective masses along directions: (cart. coord. / red. coord. -> eff. mass)
    1:   1.000000  0.000000  0.000000 /   0.948683  0.316228  0.000000 ->   0.3193507347
    2:   0.000000  1.000000  0.000000 /   0.000000  1.000000  0.000000 ->   0.3193507348
    3:   0.000000  0.000000  1.000000 /   0.408248  0.408248  0.816497 ->   0.3193507348
    4:   0.577350  0.577350  0.577350 /   0.585539  0.688047  0.428644 ->   0.3193507348
    5:   0.000000  0.707107  0.707107 /   0.289489  0.762222  0.578977 ->   0.3193507348
    6:   0.707107  0.000000  0.707107 /   0.731423  0.422287  0.535439 ->   0.3193507347
    7:   0.707107  0.707107  0.000000 /   0.616798  0.787122  0.000000 ->   0.3193507347

 END OF EFFECTIVE MASSES SECTION

 ---- first-order wavefunction calculations are completed ----

 Total localisation tensor (bohr^2) in cartesian coordinates
  WARNING : still subject to testing - especially symmetries.
      direction              matrix element
   alpha     beta       real part   imaginary part
     1        1       1.4532173694    0.0000000000
     1        2       0.4110319425    0.0000000000
     1        3       1.0068185273    0.0000000000
     2        1       0.4110319425    0.0000000000
     2        2       1.1625738953    0.0000000000
     2        3       0.7119282079    0.0000000000
     3        1       1.0068185273    0.0000000000
     3        2       0.7119282079    0.0000000000
     3        3       2.4266437250    0.0000000000

 respfn : d/dk was computed, but no 2DTE, so no DDB output.

== END DATASET(S) ==============================================================

 -outvars: echo values of variables after computation  --------
            acell      1.0000000000E+00  1.0000000000E+00  1.0000000000E+00 Bohr
              amu      2.29897680E+01  1.59994000E+01
             ecut      4.40000000E+01 Hartree
           etotal     -3.2583806339E+01
            fcart      0.0000000000E+00  0.0000000000E+00  0.0000000000E+00
                       0.0000000000E+00  0.0000000000E+00  0.0000000000E+00
                       0.0000000000E+00  0.0000000000E+00  0.0000000000E+00
-          fftalg         512
           irdden           1
           irdwfk           1
           istwfk        0    1
              ixc     -116133
              kpt      1.21621622E-01  1.21621622E-01  2.43243243E-01
                       0.00000000E+00  0.00000000E+00  0.00000000E+00
           kptopt           0
P           mkmem           2
P          mkqmem           2
P          mk1mem           2
            natom           3
            nband          21
           nbdbuf           4
            ngfft          48      48      48
             nkpt           2
            nstep         100
             nsym          48
           ntypat           2
              occ      2.000000  2.000000  2.000000  2.000000  2.000000  2.000000
                       2.000000  2.000000  2.000000  2.000000  2.000000  2.000000
                       0.000000  0.000000  0.000000  0.000000  0.000000  0.000000
                       0.000000  0.000000  0.000000
        optdriver           1
            prtwf          -1
            rfdir           1       1       1
           rfelfd           2
            rprim      6.3915426881E+00  0.0000000000E+00  3.6901588915E+00
                       2.1305142294E+00  6.0260042360E+00  3.6901588915E+00
                       0.0000000000E+00  0.0000000000E+00  7.3803177830E+00
          spgroup         225
           strten      0.0000000000E+00  0.0000000000E+00  0.0000000000E+00
                       0.0000000000E+00  0.0000000000E+00  0.0000000000E+00
           symrel      1  0  0   0  1  0   0  0  1      -1  0  0   0 -1  0   0  0 -1
                       0 -1  1   0 -1  0   1 -1  0       0  1 -1   0  1  0  -1  1  0
                      -1  0  0  -1  0  1  -1  1  0       1  0  0   1  0 -1   1 -1  0
                       0  1 -1   1  0 -1   0  0 -1       0 -1  1  -1  0  1   0  0  1
                      -1  0  0  -1  1  0  -1  0  1       1  0  0   1 -1  0   1  0 -1
                       0 -1  1   1 -1  0   0 -1  0       0  1 -1  -1  1  0   0  1  0
                       1  0  0   0  0  1   0  1  0      -1  0  0   0  0 -1   0 -1  0
                       0  1 -1   0  0 -1   1  0 -1       0 -1  1   0  0  1  -1  0  1
                      -1  0  1  -1  1  0  -1  0  0       1  0 -1   1 -1  0   1  0  0
                       0 -1  0   1 -1  0   0 -1  1       0  1  0  -1  1  0   0  1 -1
                       1  0 -1   0  0 -1   0  1 -1      -1  0  1   0  0  1   0 -1  1
                       0  1  0   0  0  1   1  0  0       0 -1  0   0  0 -1  -1  0  0
                       1  0 -1   0  1 -1   0  0 -1      -1  0  1   0 -1  1   0  0  1
                       0 -1  0   0 -1  1   1 -1  0       0  1  0   0  1 -1  -1  1  0
                      -1  0  1  -1  0  0  -1  1  0       1  0 -1   1  0  0   1 -1  0
                       0  1  0   1  0  0   0  0  1       0 -1  0  -1  0  0   0  0 -1
                       0  0 -1   0  1 -1   1  0 -1       0  0  1   0 -1  1  -1  0  1
                       1 -1  0   0 -1  1   0 -1  0      -1  1  0   0  1 -1   0  1  0
                       0  0  1   1  0  0   0  1  0       0  0 -1  -1  0  0   0 -1  0
                      -1  1  0  -1  0  0  -1  0  1       1 -1  0   1  0  0   1  0 -1
                       0  0  1   0  1  0   1  0  0       0  0 -1   0 -1  0  -1  0  0
                       1 -1  0   0 -1  0   0 -1  1      -1  1  0   0  1  0   0  1 -1
                       0  0 -1   1  0 -1   0  1 -1       0  0  1  -1  0  1   0 -1  1
                      -1  1  0  -1  0  1  -1  0  0       1 -1  0   1  0 -1   1  0  0
           tolwfr      1.00000000E-20
            typat      1  1  2
           useylm           1
              wtk        0.50000    0.50000
           xangst      3.3822587183E+00  2.3916180754E+00  5.8582439444E+00
                       1.1274195728E+00  7.9720602514E-01  1.9527479815E+00
                       0.0000000000E+00  0.0000000000E+00  0.0000000000E+00
            xcart      6.3915426881E+00  4.5195031770E+00  1.1070476675E+01
                       2.1305142294E+00  1.5065010590E+00  3.6901588915E+00
                       0.0000000000E+00  0.0000000000E+00  0.0000000000E+00
             xred      7.5000000000E-01  7.5000000000E-01  7.5000000000E-01
                       2.5000000000E-01  2.5000000000E-01  2.5000000000E-01
                       0.0000000000E+00  0.0000000000E+00  0.0000000000E+00
            znucl       11.00000    8.00000

- Timing analysis has been suppressed with timopt=0

 Suggested references for the acknowledgment of ABINIT usage.

 Calculation completed.
.Delivered  14 WARNINGs and   9 COMMENTs to log file.