.Version 9.5.1 of ABINIT

 ABINIT is a project of the Universite Catholique de Louvain,
 Corning Inc. and other collaborators, see ~abinit/doc/developers/contributors.txt .
 acknowledgments of the ABINIT effort.

.Starting date : Sun 25 Apr 2021.
- ( at 17h26 )

- input  file    -> /scratch/users/j/a/jabreu/flow_simple2/flow/w228/t1/run.abi
- output file    -> /scratch/users/j/a/jabreu/flow_simple2/flow/w228/t1/run.abo
- root for input  files -> /scratch/users/j/a/jabreu/flow_simple2/flow/w228/t1/indata/in
- root for output files -> /scratch/users/j/a/jabreu/flow_simple2/flow/w228/t1/outdata/out

 Symmetries : space group Fm -3 m (#225); Bravais cF (face-center cubic)
     intxc =       0      iscf =       7    lmnmax =      18     lnmax =       6
     mgfft =      45  mpssoang =       3    mqgrid =    3001     natom =       2
  nloc_mem =       1    nspden =       1   nspinor =       1    nsppol =       1
      nsym =      48    n1xccc =    2501    ntypat =       2    occopt =       1
   xclevel =       2
-    mband =          17        mffmem =           1         mkmem =           1
-   mkqmem =           1        mk1mem =           1           mpw =        3383
      nfft =       91125          nkpt =           1
  Rough estimation (10% accuracy) of disk space for files :

------------- Echo of variables that govern the present computation ------------
-
- outvars: echo of selected default values
-   iomode0 =  0 , fftalg0 =512 , wfoptalg0 =  0
-
- outvars: echo of global parameters not present in the input file
-  max_nthreads =    0
-
 -outvars: echo values of preprocessed input variables --------
            acell      1.0000000000E+00  1.0000000000E+00  1.0000000000E+00 Bohr
              amu      8.54678000E+01  3.54527000E+01
             ecut      2.80000000E+01 Hartree
-          fftalg         512
           irdden           1
           irdwfk           1
           istwfk        1
              ixc     -116133
           kptopt           0
P           mkmem           1
P          mkqmem           1
P          mk1mem           1
            natom           2
            nband          17
           nbdbuf           4
            ngfft          45      45      45
             nkpt           1
            nstep         100
             nsym          48
           ntypat           2
              occ      2.000000  2.000000  2.000000  2.000000  2.000000  2.000000
                       2.000000  2.000000  0.000000  0.000000  0.000000  0.000000
                       0.000000  0.000000  0.000000  0.000000  0.000000
        optdriver           1
            prtwf          -1
            rfdir           1       1       1
           rfelfd           2
            rprim      7.5724200296E+00  0.0000000000E+00  4.3719387425E+00
                       2.5241400099E+00  7.1393460706E+00  4.3719387425E+00
                       0.0000000000E+00  0.0000000000E+00  8.7438774850E+00
          spgroup         225
           symrel      1  0  0   0  1  0   0  0  1      -1  0  0   0 -1  0   0  0 -1
                       0 -1  1   0 -1  0   1 -1  0       0  1 -1   0  1  0  -1  1  0
                      -1  0  0  -1  0  1  -1  1  0       1  0  0   1  0 -1   1 -1  0
                       0  1 -1   1  0 -1   0  0 -1       0 -1  1  -1  0  1   0  0  1
                      -1  0  0  -1  1  0  -1  0  1       1  0  0   1 -1  0   1  0 -1
                       0 -1  1   1 -1  0   0 -1  0       0  1 -1  -1  1  0   0  1  0
                       1  0  0   0  0  1   0  1  0      -1  0  0   0  0 -1   0 -1  0
                       0  1 -1   0  0 -1   1  0 -1       0 -1  1   0  0  1  -1  0  1
                      -1  0  1  -1  1  0  -1  0  0       1  0 -1   1 -1  0   1  0  0
                       0 -1  0   1 -1  0   0 -1  1       0  1  0  -1  1  0   0  1 -1
                       1  0 -1   0  0 -1   0  1 -1      -1  0  1   0  0  1   0 -1  1
                       0  1  0   0  0  1   1  0  0       0 -1  0   0  0 -1  -1  0  0
                       1  0 -1   0  1 -1   0  0 -1      -1  0  1   0 -1  1   0  0  1
                       0 -1  0   0 -1  1   1 -1  0       0  1  0   0  1 -1  -1  1  0
                      -1  0  1  -1  0  0  -1  1  0       1  0 -1   1  0  0   1 -1  0
                       0  1  0   1  0  0   0  0  1       0 -1  0  -1  0  0   0  0 -1
                       0  0 -1   0  1 -1   1  0 -1       0  0  1   0 -1  1  -1  0  1
                       1 -1  0   0 -1  1   0 -1  0      -1  1  0   0  1 -1   0  1  0
                       0  0  1   1  0  0   0  1  0       0  0 -1  -1  0  0   0 -1  0
                      -1  1  0  -1  0  0  -1  0  1       1 -1  0   1  0  0   1  0 -1
                       0  0  1   0  1  0   1  0  0       0  0 -1   0 -1  0  -1  0  0
                       1 -1  0   0 -1  0   0 -1  1      -1  1  0   0  1  0   0  1 -1
                       0  0 -1   1  0 -1   0  1 -1       0  0  1  -1  0  1   0 -1  1
                      -1  1  0  -1  0  1  -1  0  0       1 -1  0   1  0 -1   1  0  0
           tolwfr      1.00000000E-20
            typat      1  2
           useylm           1
           xangst      2.6714347290E+00  1.8889896124E+00  4.6270606798E+00
                       0.0000000000E+00  0.0000000000E+00  0.0000000000E+00
            xcart      5.0482800197E+00  3.5696730353E+00  8.7438774850E+00
                       0.0000000000E+00  0.0000000000E+00  0.0000000000E+00
             xred      5.0000000000E-01  5.0000000000E-01  5.0000000000E-01
                       0.0000000000E+00  0.0000000000E+00  0.0000000000E+00
            znucl       37.00000   17.00000

 chkinp: Checking input parameters for consistency.

== DATASET  1 ==================================================================
-   mpi_nproc: 1, omp_nthreads: -1 (-1 if OMP is not activated)

--- !DatasetInfo
iteration_state: {dtset: 1, }
dimensions: {natom: 2, nkpt: 1, mband: 17, nsppol: 1, nspinor: 1, nspden: 1, mpw: 3383, }
cutoff_energies: {ecut:  28.0, pawecutdg:  -1.0, }
electrons: {nelect:   1.60000000E+01, charge:   0.00000000E+00, occopt:   1.00000000E+00, tsmear:   1.00000000E-02, }
meta: {optdriver: 1, rfelfd: 2, }
...

 Real(R)+Recip(G) space primitive vectors, cartesian coordinates (Bohr,Bohr^-1):
 R(1)=  7.5724200  0.0000000  4.3719387  G(1)=  0.1320582 -0.0466896  0.0000000
 R(2)=  2.5241400  7.1393461  4.3719387  G(2)=  0.0000000  0.1400689  0.0000000
 R(3)=  0.0000000  0.0000000  8.7438775  G(3)= -0.0660291 -0.0466896  0.1143657
 Unit cell volume ucvol=  4.7271262E+02 bohr^3
 Angles (23,13,12)=  6.00000000E+01  6.00000000E+01  6.00000000E+01 degrees

 getcut: wavevector=  0.0000  0.0000  0.0000  ngfft=  45  45  45
         ecut(hartree)=     28.000   => boxcut(ratio)=   2.11254

--- Pseudopotential description ------------------------------------------------
- pspini: atom type   1  psp file is /scratch/users/j/a/jabreu/pseudos/PBEsol/Rb.psp8
- pspatm: opening atomic psp file    /scratch/users/j/a/jabreu/pseudos/PBEsol/Rb.psp8
- Rb    ONCVPSP-3.3.0  r_core=   1.71227   1.75361   1.90633
- 37.00000   9.00000    180112                znucl, zion, pspdat
    8 -116133    2    4       600   0.00000   pspcod,pspxc,lmax,lloc,mmax,r2well
    5.99000000000000    7.00000000000000    0.00000000000000   rchrg,fchrg,qchrg
     nproj     2     2     2
     extension_switch     1
  pspatm : epsatm=   34.48400912
         --- l  ekb(1:nproj) -->
             0    8.196957   -0.477221
             1    3.231347   -0.378736
             2   -1.047201    0.996637
 pspatm: atomic psp has been read  and splines computed

- pspini: atom type   2  psp file is /scratch/users/j/a/jabreu/pseudos/PBEsol/Cl.psp8
- pspatm: opening atomic psp file    /scratch/users/j/a/jabreu/pseudos/PBEsol/Cl.psp8
- Cl    ONCVPSP-3.3.0  r_core=   1.56009   1.35202   1.75774
- 17.00000   7.00000    180112                znucl, zion, pspdat
    8 -116133    2    4       600   0.00000   pspcod,pspxc,lmax,lloc,mmax,r2well
    5.99000000000000    8.00000000000000    0.00000000000000   rchrg,fchrg,qchrg
     nproj     2     2     2
     extension_switch     1
  pspatm : epsatm=    8.95520722
         --- l  ekb(1:nproj) -->
             0    8.193503    0.707970
             1    3.869736    1.114731
             2   -2.915303   -0.810552
 pspatm: atomic psp has been read  and splines computed

   6.95027461E+02                                ecore*ucvol(ha*bohr**3)

-inwffil : will read wavefunctions from disk file /scratch/users/j/a/jabreu/flow_simple2/flow/w228/t1/indata/in_WFK

 ==>  initialize data related to q vector <==

 The list of irreducible perturbations for this q vector is:
    1)    idir= 1    ipert=   3
    2)    idir= 2    ipert=   3
    3)    idir= 3    ipert=   3

 Perturbation wavevector (in red.coord.)   0.000000  0.000000  0.000000
 Perturbation : derivative vs k along direction   1

 dfpt_looppert : COMMENT -
  In a d/dk calculation, iscf is set to -3 automatically.
 The set of symmetries contains only one element for this perturbation.
 symkpt : not enough symmetry to change the number of k points.

[...]

 Initialisation of the first-order wave-functions :
  ireadwf=   0

--- !BeginCycle
iteration_state: {dtset: 1, }
solver: {iscf: 7, nstep: 100, nline: 4, wfoptalg: 0, }
tolerances: {tolwfr: 1.00E-20, }
...

     iter   2DEtotal(Ha)        deltaE(Ha) residm    vres2
-ETOT  1  -14.970757900695     -1.497E+01 4.390E-03 0.000E+00
 ETOT  2  -14.976200606345     -5.443E-03 3.813E-05 0.000E+00
 ETOT  3  -14.976221045262     -2.044E-05 1.880E-07 0.000E+00
 ETOT  4  -14.976221158925     -1.137E-07 1.332E-09 0.000E+00
 ETOT  5  -14.976221159695     -7.704E-10 1.293E-11 0.000E+00
 ETOT  6  -14.976221159701     -5.691E-12 1.013E-13 0.000E+00
 ETOT  7  -14.976221159701     -5.329E-14 1.023E-15 0.000E+00
 ETOT  8  -14.976221159701     -7.105E-15 7.917E-18 0.000E+00
 ETOT  9  -14.976221159701     -7.105E-15 8.057E-20 0.000E+00
 ETOT 10  -14.976221159701     -1.599E-14 9.813E-21 0.000E+00

 At SCF step   10   max residual=  9.81E-21 < tolwfr=  1.00E-20 =>converged.

 ----iterations are completed or convergence reached----

 dfpt_looppert: DFPT cycle converged with prtwf=-1. Will skip output of the 1st-order WFK file.
 dfpt_looppert : ek2=    2.4785223892E+01
          f-sum rule ratio=    1.2465843742E+00
 prteigrs : about to open file /scratch/users/j/a/jabreu/flow_simple2/flow/w228/t1/tmpdata/tmp_1WF1_EIG
 Expectation of eigenvalue derivatives (hartree) for nkpt=   1  k points:
  (in case of degenerate eigenvalues, averaged derivative)
 kpt#   1, nband= 17, wtk=  1.00000, kpt=  0.0000  0.0000  0.0000 (reduced coord)
   0.00000   -0.00000    0.00000    0.00000    0.00000   -0.00000   -0.00000   -0.00000
   0.00000    0.00000    0.00000    0.00000   -0.00000   -0.00000    0.00000   -0.00001
  -0.00001

 Eight components of 2nd-order total energy (hartree) are
 1,2,3: 0th-order hamiltonian combined with 1st-order wavefunctions
     kin0=   4.81410881E+00 eigvalue=   5.79532760E-01  local=  -2.46127736E+00
 4,5,6: 1st-order hamiltonian combined with 1st and 0th-order wfs
     kin1=  -3.08968728E+01  Hartree=   0.00000000E+00     xc=   0.00000000E+00
 7,8,9: eventually, occupation + non-local contributions
    edocc=   1.16903470E+01     enl0=   3.53509958E-01   enl1=   9.44430497E-01
 1-9 gives the relaxation energy (to be shifted if some occ is /=2.0)
   erelax=  -1.49762212E+01
  No Ewald or frozen-wf contrib.: the relaxation energy is the total one
 2DEtotal=   -0.1497622116E+02 Ha. Also 2DEtotal=   -0.407523702749E+03 eV
    (  non-var. 2DEtotal :   -1.4976221160E+01 Ha)

 Perturbation wavevector (in red.coord.)   0.000000  0.000000  0.000000
 Perturbation : derivative vs k along direction   2
 The set of symmetries contains only one element for this perturbation.
 symkpt : not enough symmetry to change the number of k points.

[...]

 Perturbation wavevector (in red.coord.)   0.000000  0.000000  0.000000
 Perturbation : derivative vs k along direction   3
 The set of symmetries contains only one element for this perturbation.
 symkpt : not enough symmetry to change the number of k points.

-inwffil : will read wavefunctions from disk file /scratch/users/j/a/jabreu/flow_simple2/flow/w228/t1/indata/in_WFK

 Initialisation of the first-order wave-functions :
  ireadwf=   0

--- !BeginCycle
iteration_state: {dtset: 1, }
solver: {iscf: 7, nstep: 100, nline: 4, wfoptalg: 0, }
tolerances: {tolwfr: 1.00E-20, }
...

     iter   2DEtotal(Ha)        deltaE(Ha) residm    vres2
-ETOT  1  -14.968046939232     -1.497E+01 8.454E-03 0.000E+00
 ETOT  2  -14.976185480633     -8.139E-03 9.977E-05 0.000E+00
 ETOT  3  -14.976218148151     -3.267E-05 2.654E-07 0.000E+00
 ETOT  4  -14.976218317787     -1.696E-07 3.395E-09 0.000E+00
 ETOT  5  -14.976218318798     -1.011E-09 1.325E-11 0.000E+00
 ETOT  6  -14.976218318805     -6.450E-12 1.716E-13 0.000E+00
 ETOT  7  -14.976218318805     -5.329E-14 7.391E-16 0.000E+00
 ETOT  8  -14.976218318805     -3.020E-14 9.393E-18 0.000E+00
 ETOT  9  -14.976218318805      2.309E-14 4.100E-20 0.000E+00
 ETOT 10  -14.976218318805     -1.599E-14 8.611E-21 0.000E+00

 At SCF step   10   max residual=  8.61E-21 < tolwfr=  1.00E-20 =>converged.

 ----iterations are completed or convergence reached----

 dfpt_looppert: DFPT cycle converged with prtwf=-1. Will skip output of the 1st-order WFK file.
 dfpt_looppert : ek2=    2.4785223892E+01
          f-sum rule ratio=    1.2465842021E+00
 prteigrs : about to open file /scratch/users/j/a/jabreu/flow_simple2/flow/w228/t1/tmpdata/tmp_1WF1_EIG
 Expectation of eigenvalue derivatives (hartree) for nkpt=   1  k points:
  (in case of degenerate eigenvalues, averaged derivative)
 kpt#   1, nband= 17, wtk=  1.00000, kpt=  0.0000  0.0000  0.0000 (reduced coord)
  -0.00000    0.00000   -0.00000   -0.00000   -0.00000    0.00000    0.00000    0.00000
   0.00000    0.00000    0.00000    0.00000   -0.00000   -0.00000    0.00000    0.00001
   0.00001

 Eight components of 2nd-order total energy (hartree) are
 1,2,3: 0th-order hamiltonian combined with 1st-order wavefunctions
     kin0=   6.10097666E+00 eigvalue=   7.09000823E-01  local=  -3.15668223E+00
 4,5,6: 1st-order hamiltonian combined with 1st and 0th-order wfs
     kin1=  -3.08968686E+01  Hartree=   0.00000000E+00     xc=   0.00000000E+00
 7,8,9: eventually, occupation + non-local contributions
    edocc=   1.10155023E+01     enl0=   3.07420736E-01   enl1=   9.44431913E-01
 1-9 gives the relaxation energy (to be shifted if some occ is /=2.0)
   erelax=  -1.49762183E+01
  No Ewald or frozen-wf contrib.: the relaxation energy is the total one
 2DEtotal=   -0.1497621832E+02 Ha. Also 2DEtotal=   -0.407523625444E+03 eV
    (  non-var. 2DEtotal :   -1.4976218319E+01 Ha)

 CALCULATION OF EFFECTIVE MASSES
 NOTE : Additional infos (eff. mass eigenvalues, eigenvectors and, if degenerate, average mass) are available in stdout.

 COMMENTS:
 - At k-point ( 0.000, 0.000, 0.000), bands     6 through     8
   are DEGENERATE (effective mass tensor is therefore not defined).
   See Section IIIB Eqs. (67)-(70) and Appendix E of PRB 93 205147 (2016).
 - Angular average effective mass for Frohlich model is to be averaged over degenerate bands. See later.
 - Associated theta integrals calculated with ntheta=   1000 points.

 K-point ( 0.000, 0.000, 0.000) | band =     6
 Transport equivalent effective mass tensor:
             -0.8332182169              0.0000004501              0.0000003767
              0.0000004501             -0.8332186941              0.0000002863
              0.0000003767              0.0000002863             -0.8332169268
 Transport equivalent effective mass tensor eigenvalues:
             -0.8332189663             -0.8332181296             -0.8332167419
 Angular average effective mass 1/(<1/m>)=  -0.7552234481
 Angular average effective mass for Frohlich model (<m**0.5>)**2=  -0.7603874478
 Effective masses along directions: (cart. coord. / red. coord. -> eff. mass)
    1:   1.000000  0.000000  0.000000 /   0.948683  0.316228  0.000000 ->  -0.7901752984
    2:   0.000000  1.000000  0.000000 /   0.000000  1.000000  0.000000 ->  -0.8960844161
    3:   0.000000  0.000000  1.000000 /   0.408248  0.408248  0.816497 ->  -0.8101472220
    4:   0.577350  0.577350  0.577350 /   0.585539  0.688047  0.428644 ->  -0.7962166457
    5:   0.000000  0.707107  0.707107 /   0.289489  0.762222  0.578977 ->  -0.7081677329
    6:   0.707107  0.000000  0.707107 /   0.731423  0.422287  0.535439 ->  -0.7997024806
    7:   0.707107  0.707107  0.000000 /   0.616798  0.787122  0.000000 ->  -0.6414803383

[...]

 K-point ( 0.000, 0.000, 0.000) | band =     8
 Transport equivalent effective mass tensor:
            -15.2980101353              0.0000131778              0.0000070705
              0.0000131778            -15.2980064883             -0.0000061925
              0.0000070705             -0.0000061925            -15.2980076941
 Transport equivalent effective mass tensor eigenvalues:
            -15.2980263503            -15.2980029591            -15.2979950083
 Angular average effective mass 1/(<1/m>)=  -5.4301015525
 Angular average effective mass for Frohlich model (<m**0.5>)**2=  -5.7633067511
 Effective masses along directions: (cart. coord. / red. coord. -> eff. mass)
    1:   1.000000  0.000000  0.000000 /   0.948683  0.316228  0.000000 ->  -4.0170833192
    2:   0.000000  1.000000  0.000000 /   0.000000  1.000000  0.000000 ->  -2.7224851066
    3:   0.000000  0.000000  1.000000 /   0.408248  0.408248  0.816497 ->  -7.6591766706
    4:   0.577350  0.577350  0.577350 /   0.585539  0.688047  0.428644 ->  -4.6305715311
    5:   0.000000  0.707107  0.707107 /   0.289489  0.762222  0.578977 ->  -7.2195948379
    6:   0.707107  0.000000  0.707107 /   0.731423  0.422287  0.535439 ->  -5.8140445176
    7:   0.707107  0.707107  0.000000 /   0.616798  0.787122  0.000000 ->  -7.1064473786

 Angular average effective mass for Frohlich model, averaged over degenerate bands.
 Value of     (<<m**0.5>>)**2 =     2.835067E+00
 Absolute Value of <<m**0.5>> =     1.683766E+00

 K-point ( 0.000, 0.000, 0.000) | band =     9
 Effective mass tensor:
              0.4158458093              0.0000000000             -0.0000000000
              0.0000000000              0.4158458093             -0.0000000000
             -0.0000000000             -0.0000000000              0.4158458094
 Effective mass tensor eigenvalues:
              0.4158458093              0.4158458093              0.4158458094
 Angular average effective mass 1/(<1/m>)=   0.4158458093
 Angular average effective mass for Frohlich model (<m**0.5>)**2=   0.4158458093
 Effective masses along directions: (cart. coord. / red. coord. -> eff. mass)
    1:   1.000000  0.000000  0.000000 /   0.948683  0.316228  0.000000 ->   0.4158458093
    2:   0.000000  1.000000  0.000000 /   0.000000  1.000000  0.000000 ->   0.4158458093
    3:   0.000000  0.000000  1.000000 /   0.408248  0.408248  0.816497 ->   0.4158458094
    4:   0.577350  0.577350  0.577350 /   0.585539  0.688047  0.428644 ->   0.4158458093
    5:   0.000000  0.707107  0.707107 /   0.289489  0.762222  0.578977 ->   0.4158458093
    6:   0.707107  0.000000  0.707107 /   0.731423  0.422287  0.535439 ->   0.4158458093
    7:   0.707107  0.707107  0.000000 /   0.616798  0.787122  0.000000 ->   0.4158458093

 END OF EFFECTIVE MASSES SECTION

 ---- first-order wavefunction calculations are completed ----

 Total localisation tensor (bohr^2) in cartesian coordinates
  WARNING : still subject to testing - especially symmetries.
      direction              matrix element
   alpha     beta       real part   imaginary part
     1        1       1.7705594666    0.0000000000
     1        2       0.5007897881    0.0000000000
     1        3       1.2266795595    0.0000000000
     2        1       0.5007897881    0.0000000000
     2        2       1.4164474204    0.0000000000
     2        3       0.8673933569    0.0000000000
     3        1       1.2266795595    0.0000000000
     3        2       0.8673933569    0.0000000000
     3        3       3.1870068622    0.0000000000

 respfn : d/dk was computed, but no 2DTE, so no DDB output.

== END DATASET(S) ==============================================================

 -outvars: echo values of variables after computation  --------
            acell      1.0000000000E+00  1.0000000000E+00  1.0000000000E+00 Bohr
              amu      8.54678000E+01  3.54527000E+01
             ecut      2.80000000E+01 Hartree
           etotal     -1.4976218319E+01
            fcart      0.0000000000E+00  0.0000000000E+00  0.0000000000E+00
                       0.0000000000E+00  0.0000000000E+00  0.0000000000E+00
-          fftalg         512
           irdden           1
           irdwfk           1
           istwfk        1
              ixc     -116133
           kptopt           0
P           mkmem           1
P          mkqmem           1
P          mk1mem           1
            natom           2
            nband          17
           nbdbuf           4
            ngfft          45      45      45
             nkpt           1
            nstep         100
             nsym          48
           ntypat           2
              occ      2.000000  2.000000  2.000000  2.000000  2.000000  2.000000
                       2.000000  2.000000  0.000000  0.000000  0.000000  0.000000
                       0.000000  0.000000  0.000000  0.000000  0.000000
        optdriver           1
            prtwf          -1
            rfdir           1       1       1
           rfelfd           2
            rprim      7.5724200296E+00  0.0000000000E+00  4.3719387425E+00
                       2.5241400099E+00  7.1393460706E+00  4.3719387425E+00
                       0.0000000000E+00  0.0000000000E+00  8.7438774850E+00
          spgroup         225
           strten      0.0000000000E+00  0.0000000000E+00  0.0000000000E+00
                       0.0000000000E+00  0.0000000000E+00  0.0000000000E+00
           symrel      1  0  0   0  1  0   0  0  1      -1  0  0   0 -1  0   0  0 -1
                       0 -1  1   0 -1  0   1 -1  0       0  1 -1   0  1  0  -1  1  0
                      -1  0  0  -1  0  1  -1  1  0       1  0  0   1  0 -1   1 -1  0
                       0  1 -1   1  0 -1   0  0 -1       0 -1  1  -1  0  1   0  0  1
                      -1  0  0  -1  1  0  -1  0  1       1  0  0   1 -1  0   1  0 -1
                       0 -1  1   1 -1  0   0 -1  0       0  1 -1  -1  1  0   0  1  0
                       1  0  0   0  0  1   0  1  0      -1  0  0   0  0 -1   0 -1  0
                       0  1 -1   0  0 -1   1  0 -1       0 -1  1   0  0  1  -1  0  1
                      -1  0  1  -1  1  0  -1  0  0       1  0 -1   1 -1  0   1  0  0
                       0 -1  0   1 -1  0   0 -1  1       0  1  0  -1  1  0   0  1 -1
                       1  0 -1   0  0 -1   0  1 -1      -1  0  1   0  0  1   0 -1  1
                       0  1  0   0  0  1   1  0  0       0 -1  0   0  0 -1  -1  0  0
                       1  0 -1   0  1 -1   0  0 -1      -1  0  1   0 -1  1   0  0  1
                       0 -1  0   0 -1  1   1 -1  0       0  1  0   0  1 -1  -1  1  0
                      -1  0  1  -1  0  0  -1  1  0       1  0 -1   1  0  0   1 -1  0
                       0  1  0   1  0  0   0  0  1       0 -1  0  -1  0  0   0  0 -1
                       0  0 -1   0  1 -1   1  0 -1       0  0  1   0 -1  1  -1  0  1
                       1 -1  0   0 -1  1   0 -1  0      -1  1  0   0  1 -1   0  1  0
                       0  0  1   1  0  0   0  1  0       0  0 -1  -1  0  0   0 -1  0
                      -1  1  0  -1  0  0  -1  0  1       1 -1  0   1  0  0   1  0 -1
                       0  0  1   0  1  0   1  0  0       0  0 -1   0 -1  0  -1  0  0
                       1 -1  0   0 -1  0   0 -1  1      -1  1  0   0  1  0   0  1 -1
                       0  0 -1   1  0 -1   0  1 -1       0  0  1  -1  0  1   0 -1  1
                      -1  1  0  -1  0  1  -1  0  0       1 -1  0   1  0 -1   1  0  0
           tolwfr      1.00000000E-20
            typat      1  2
           useylm           1
           xangst      2.6714347290E+00  1.8889896124E+00  4.6270606798E+00
                       0.0000000000E+00  0.0000000000E+00  0.0000000000E+00
            xcart      5.0482800197E+00  3.5696730353E+00  8.7438774850E+00
                       0.0000000000E+00  0.0000000000E+00  0.0000000000E+00
             xred      5.0000000000E-01  5.0000000000E-01  5.0000000000E-01
                       0.0000000000E+00  0.0000000000E+00  0.0000000000E+00
            znucl       37.00000   17.00000

- Timing analysis has been suppressed with timopt=0

 Suggested references for the acknowledgment of ABINIT usage.

 Calculation completed.
.Delivered   6 WARNINGs and   5 COMMENTs to log file.