.Version 9.5.1 of ABINIT

 ABINIT is a project of the Universite Catholique de Louvain,
 Corning Inc. and other collaborators, see ~abinit/doc/developers/contributors.txt .
 acknowledgments of the ABINIT effort.

.Starting date : Tue 27 Apr 2021.
- ( at 18h25 )

- input  file    -> /scratch/users/j/a/jabreu/flow_simple_4atoms/flow/w146/t1/run.abi
- output file    -> /scratch/users/j/a/jabreu/flow_simple_4atoms/flow/w146/t1/run.abo
- root for input  files -> /scratch/users/j/a/jabreu/flow_simple_4atoms/flow/w146/t1/indata/in
- root for output files -> /scratch/users/j/a/jabreu/flow_simple_4atoms/flow/w146/t1/outdata/out

 Symmetries : space group Im m m (# 71); Bravais oI (body-center ortho.)
     intxc =       0      iscf =       7    lmnmax =      32     lnmax =       8
     mgfft =      60  mpssoang =       4    mqgrid =    3001     natom =       4
  nloc_mem =       1    nspden =       1   nspinor =       1    nsppol =       1
      nsym =       8    n1xccc =    2501    ntypat =       2    occopt =       1
   xclevel =       2
-    mband =          24        mffmem =           1         mkmem =           2
-   mkqmem =           2        mk1mem =           2           mpw =        7397
      nfft =      216000          nkpt =           2
  Rough estimation (10% accuracy) of disk space for files :

------------- Echo of variables that govern the present computation ------------
-
- outvars: echo of selected default values
-   iomode0 =  0 , fftalg0 =512 , wfoptalg0 =  0
-
- outvars: echo of global parameters not present in the input file
-  max_nthreads =    0
-
 -outvars: echo values of preprocessed input variables --------
            acell      1.0000000000E+00  1.0000000000E+00  1.0000000000E+00 Bohr
              amu      1.32905430E+02  3.20660000E+01
             ecut      2.70000000E+01 Hartree
-          fftalg         512
           irdden           1
           irdwfk           1
           istwfk        1    0
              ixc     -116133
              kpt      0.00000000E+00  0.00000000E+00  0.00000000E+00
                       2.29012974E-01 -2.29012974E-01  2.29012974E-01
           kptopt           0
P           mkmem           2
P          mkqmem           2
P          mk1mem           2
            natom           4
            nband          24
           nbdbuf           4
            ngfft          60      60      60
             nkpt           2
            nstep         100
             nsym           8
           ntypat           2
              occ      2.000000  2.000000  2.000000  2.000000  2.000000  2.000000
                       2.000000  2.000000  2.000000  2.000000  2.000000  2.000000
                       2.000000  2.000000  2.000000  0.000000  0.000000  0.000000
                       0.000000  0.000000  0.000000  0.000000  0.000000  0.000000
        optdriver           1
            prtwf          -1
            rfdir           1       1       1
           rfelfd           2
            rprim      1.1159046032E+01  0.0000000000E+00 -3.8541881026E+00
                      -2.8193632897E+00  8.3557337016E+00 -7.8493298585E+00
                       0.0000000000E+00  0.0000000000E+00  1.1805891507E+01
          spgroup          71
           symrel      1  0  0   0  1  0   0  0  1      -1  0  0   0 -1  0   0  0 -1
                       0  0  1  -1 -1 -1   1  0  0       0  0 -1   1  1  1  -1  0  0
                      -1 -1 -1   0  0  1   0  1  0       1  1  1   0  0 -1   0 -1  0
                       0  1  0   1  0  0  -1 -1 -1       0 -1  0  -1  0  0   1  1  1
           tolwfr      1.00000000E-20
            typat      1  1  2  2
           useylm           1
              wtk        0.50000    0.50000
           xangst      2.7460506478E-01  3.2333726317E+00 -3.8536781394E-01
                       4.1385649694E+00  1.1882912043E+00  4.3954156130E-01
                       8.5792431748E-01  0.0000000000E+00  6.1133897078E-01
                       5.0471885124E+00  0.0000000000E+00  3.5965212404E+00
            xcart      5.1892836713E-01  6.1101887594E+00 -7.2823962878E-01
                       7.8207543754E+00  2.2455449422E+00  8.3061317488E-01
                       1.6212420028E+00  0.0000000000E+00  1.1552632291E+00
                       9.5378040294E+00  0.0000000000E+00  6.7964401755E+00
             xred      2.3125700000E-01  7.3125700000E-01  5.0000000000E-01
                       7.6874300000E-01  2.6874300000E-01  5.0000000000E-01
                       1.4528500000E-01  0.0000000000E+00  1.4528500000E-01
                       8.5471500000E-01  0.0000000000E+00  8.5471500000E-01
            znucl       55.00000   16.00000

 chkinp: Checking input parameters for consistency.

== DATASET  1 ==================================================================
-   mpi_nproc: 1, omp_nthreads: -1 (-1 if OMP is not activated)

--- !DatasetInfo
iteration_state: {dtset: 1, }
dimensions: {natom: 4, nkpt: 2, mband: 24, nsppol: 1, nspinor: 1, nspden: 1, mpw: 7397, }
cutoff_energies: {ecut:  27.0, pawecutdg:  -1.0, }
electrons: {nelect:   3.00000000E+01, charge:   0.00000000E+00, occopt:   1.00000000E+00, tsmear:   1.00000000E-02, }
meta: {optdriver: 1, rfelfd: 2, }
...

 Real(R)+Recip(G) space primitive vectors, cartesian coordinates (Bohr,Bohr^-1):
 R(1)= 11.1590460  0.0000000 -3.8541881  G(1)=  0.0896134  0.0302370  0.0000000
 R(2)= -2.8193633  8.3557337 -7.8493299  G(2)=  0.0000000  0.1196783  0.0000000
 R(3)=  0.0000000  0.0000000 11.8058915  G(3)=  0.0292555  0.0894413  0.0847035
 Unit cell volume ucvol=  1.1008051E+03 bohr^3
 Angles (23,13,12)=  1.31672007E+02  1.09054241E+02  9.04968406E+01 degrees

 getcut: wavevector=  0.0000  0.0000  0.0000  ngfft=  60  60  60
         ecut(hartree)=     27.000   => boxcut(ratio)=   2.17281

--- Pseudopotential description ------------------------------------------------
- pspini: atom type   1  psp file is /scratch/users/j/a/jabreu/pseudos/PBEsol/Cs.psp8
- pspatm: opening atomic psp file    /scratch/users/j/a/jabreu/pseudos/PBEsol/Cs.psp8
- Cs    ONCVPSP-3.3.0  r_core=   2.27353   1.85623   2.01788   1.90105
- 55.00000   9.00000    180112                znucl, zion, pspdat
    8 -116133    3    4       600   0.00000   pspcod,pspxc,lmax,lloc,mmax,r2well
    5.99000000000000    5.00000000000000    0.00000000000000   rchrg,fchrg,qchrg
     nproj     2     2     2     2
     extension_switch     1
  pspatm : epsatm=   22.12462445
         --- l  ekb(1:nproj) -->
             0    6.214110    0.767882
             1    6.311966    0.793598
             2    3.769790    0.913105
             3   -9.247129   -2.432478
 pspatm: atomic psp has been read  and splines computed

- pspini: atom type   2  psp file is /scratch/users/j/a/jabreu/pseudos/PBEsol/S.psp8
- pspatm: opening atomic psp file    /scratch/users/j/a/jabreu/pseudos/PBEsol/S.psp8
- S     ONCVPSP-3.3.0  r_core=   1.45376   1.45376   1.61851
- 16.00000   6.00000    180112                znucl, zion, pspdat
    8 -116133    2    4       600   0.00000   pspcod,pspxc,lmax,lloc,mmax,r2well
    5.99000000000000    6.00000000000000    0.00000000000000   rchrg,fchrg,qchrg
     nproj     2     2     2
     extension_switch     1
  pspatm : epsatm=    8.71840985
         --- l  ekb(1:nproj) -->
             0    6.834532    0.579453
             1    3.282851    0.896984
             2   -3.496974   -0.974265
 pspatm: atomic psp has been read  and splines computed

   1.85058206E+03                                ecore*ucvol(ha*bohr**3)

-inwffil : will read wavefunctions from disk file /scratch/users/j/a/jabreu/flow_simple_4atoms/flow/w146/t1/indata/in_WFK

 ==>  initialize data related to q vector <==

 The list of irreducible perturbations for this q vector is:
    1)    idir= 1    ipert=   5
    2)    idir= 2    ipert=   5
    3)    idir= 3    ipert=   5

 Perturbation wavevector (in red.coord.)   0.000000  0.000000  0.000000
 Perturbation : derivative vs k along direction   1

 dfpt_looppert : COMMENT -
  In a d/dk calculation, iscf is set to -3 automatically.
 The set of symmetries contains only one element for this perturbation.
 symkpt : not enough symmetry to change the number of k points.

[...]

 Initialisation of the first-order wave-functions :
  ireadwf=   0

--- !BeginCycle
iteration_state: {dtset: 1, }
solver: {iscf: 7, nstep: 100, nline: 4, wfoptalg: 0, }
tolerances: {tolwfr: 1.00E-20, }
...

     iter   2DEtotal(Ha)        deltaE(Ha) residm    vres2
-ETOT  1  -11.207323367168     -1.121E+01 5.219E-02 0.000E+00
 ETOT  2  -11.219463733131     -1.214E-02 2.339E-03 0.000E+00
 ETOT  3  -11.220103141575     -6.394E-04 2.395E-04 0.000E+00
 ETOT  4  -11.220144545494     -4.140E-05 2.728E-05 0.000E+00
 ETOT  5  -11.220147463924     -2.918E-06 4.178E-06 0.000E+00
 ETOT  6  -11.220147679987     -2.161E-07 5.338E-07 0.000E+00
 ETOT  7  -11.220147696482     -1.650E-08 9.107E-08 0.000E+00
 ETOT  8  -11.220147697771     -1.289E-09 1.098E-08 0.000E+00
 ETOT  9  -11.220147697873     -1.022E-10 1.985E-09 0.000E+00
 ETOT 10  -11.220147697881     -8.255E-12 2.314E-10 0.000E+00
 ETOT 11  -11.220147697882     -6.555E-13 4.318E-11 0.000E+00
 ETOT 12  -11.220147697882     -6.040E-14 4.932E-12 0.000E+00
 ETOT 13  -11.220147697882     -1.776E-15 9.401E-13 0.000E+00
 ETOT 14  -11.220147697882     -3.553E-15 1.059E-13 0.000E+00
 ETOT 15  -11.220147697882      1.421E-14 2.047E-14 0.000E+00
 ETOT 16  -11.220147697882     -1.243E-14 2.286E-15 0.000E+00
 ETOT 17  -11.220147697882      3.553E-15 4.461E-16 0.000E+00
 ETOT 18  -11.220147697882     -5.329E-15 4.952E-17 0.000E+00
 ETOT 19  -11.220147697882      3.553E-15 9.727E-18 0.000E+00
 ETOT 20  -11.220147697882      1.776E-15 1.076E-18 0.000E+00
 ETOT 21  -11.220147697882     -3.553E-15 2.122E-19 0.000E+00
 ETOT 22  -11.220147697882      0.000E+00 2.345E-20 0.000E+00
 ETOT 23  -11.220147697882      1.776E-15 9.572E-21 0.000E+00

 At SCF step   23   max residual=  9.57E-21 < tolwfr=  1.00E-20 =>converged.

 ----iterations are completed or convergence reached----

 dfpt_looppert: DFPT cycle converged with prtwf=-1. Will skip output of the 1st-order WFK file.
 dfpt_looppert : ek2=    2.1187686792E+01
          f-sum rule ratio=    9.9394812881E-01
 prteigrs : about to open file /scratch/users/j/a/jabreu/flow_simple_4atoms/flow/w146/t1/tmpdata/tmp_1WF1_EIG
 Expectation of eigenvalue derivatives (hartree) for nkpt=   2  k points:
  (in case of degenerate eigenvalues, averaged derivative)
 kpt#   1, nband= 24, wtk=  0.50000, kpt=  0.0000  0.0000  0.0000 (reduced coord)
   0.00000   -0.00000   -0.00000    0.00000   -0.00000   -0.00000    0.00000    0.00000
   0.00000   -0.00000    0.00000    0.00000    0.00000    0.00000    0.00000   -0.00000
  -0.00000   -0.00000   -0.00000    0.00000   -0.00000    0.00000    0.00000    0.00000
 prteigrs : prtvol=0 or 1, do not print more k-points.

 Eight components of 2nd-order total energy (hartree) are
 1,2,3: 0th-order hamiltonian combined with 1st-order wavefunctions
     kin0=   1.09203299E+01 eigvalue=   5.22421593E-01  local=  -7.21421759E+00
 4,5,6: 1st-order hamiltonian combined with 1st and 0th-order wfs
     kin1=  -2.10594616E+01  Hartree=   0.00000000E+00     xc=   0.00000000E+00
 7,8,9: eventually, occupation + non-local contributions
    edocc=   4.91604897E+00     enl0=   2.07556486E+00   enl1=  -1.38083376E+00
 1-9 gives the relaxation energy (to be shifted if some occ is /=2.0)
   erelax=  -1.12201477E+01
  No Ewald or frozen-wf contrib.: the relaxation energy is the total one
 2DEtotal=   -0.1122014770E+02 Ha. Also 2DEtotal=   -0.305315745973E+03 eV
    (  non-var. 2DEtotal :   -1.1220147698E+01 Ha)

 Perturbation wavevector (in red.coord.)   0.000000  0.000000  0.000000
 Perturbation : derivative vs k along direction   2
 The set of symmetries contains only one element for this perturbation.
 symkpt : not enough symmetry to change the number of k points.

[...]

 Perturbation wavevector (in red.coord.)   0.000000  0.000000  0.000000
 Perturbation : derivative vs k along direction   3
 The set of symmetries contains only one element for this perturbation.
 symkpt : not enough symmetry to change the number of k points.

-inwffil : will read wavefunctions from disk file /scratch/users/j/a/jabreu/flow_simple_4atoms/flow/w146/t1/indata/in_WFK

 Initialisation of the first-order wave-functions :
  ireadwf=   0

--- !BeginCycle
iteration_state: {dtset: 1, }
solver: {iscf: 7, nstep: 100, nline: 4, wfoptalg: 0, }
tolerances: {tolwfr: 1.00E-20, }
...

     iter   2DEtotal(Ha)        deltaE(Ha) residm    vres2
-ETOT  1  -20.625574673170     -2.063E+01 5.025E-02 0.000E+00
 ETOT  2  -20.644636230306     -1.906E-02 3.036E-03 0.000E+00
 ETOT  3  -20.645567958893     -9.317E-04 2.527E-04 0.000E+00
 ETOT  4  -20.645625438288     -5.748E-05 3.092E-05 0.000E+00
 ETOT  5  -20.645629233146     -3.795E-06 4.210E-06 0.000E+00
 ETOT  6  -20.645629494321     -2.612E-07 5.831E-07 0.000E+00
 ETOT  7  -20.645629512727     -1.841E-08 8.924E-08 0.000E+00
 ETOT  8  -20.645629514047     -1.320E-09 1.156E-08 0.000E+00
 ETOT  9  -20.645629514143     -9.591E-11 1.880E-09 0.000E+00
 ETOT 10  -20.645629514150     -7.216E-12 2.342E-10 0.000E+00
 ETOT 11  -20.645629514151     -6.146E-13 3.957E-11 0.000E+00
 ETOT 12  -20.645629514151     -2.842E-14 4.797E-12 0.000E+00
 ETOT 13  -20.645629514151      1.421E-14 8.326E-13 0.000E+00
 ETOT 14  -20.645629514151     -1.421E-14 9.891E-14 0.000E+00
 ETOT 15  -20.645629514151     -1.776E-14 1.752E-14 0.000E+00
 ETOT 16  -20.645629514151      1.066E-14 2.050E-15 0.000E+00
 ETOT 17  -20.645629514151      1.421E-14 3.690E-16 0.000E+00
 ETOT 18  -20.645629514151     -3.553E-15 4.265E-17 0.000E+00
 ETOT 19  -20.645629514151      0.000E+00 7.774E-18 0.000E+00
 ETOT 20  -20.645629514151     -7.105E-15 8.906E-19 0.000E+00
 ETOT 21  -20.645629514151      0.000E+00 1.639E-19 0.000E+00
 ETOT 22  -20.645629514151      0.000E+00 1.865E-20 0.000E+00
 ETOT 23  -20.645629514151      7.105E-15 9.915E-21 0.000E+00

 At SCF step   23   max residual=  9.92E-21 < tolwfr=  1.00E-20 =>converged.

 ----iterations are completed or convergence reached----

 dfpt_looppert: DFPT cycle converged with prtwf=-1. Will skip output of the 1st-order WFK file.
 dfpt_looppert : ek2=    3.7971048230E+01
          f-sum rule ratio=    1.0255282497E+00
 prteigrs : about to open file /scratch/users/j/a/jabreu/flow_simple_4atoms/flow/w146/t1/tmpdata/tmp_1WF1_EIG
 Expectation of eigenvalue derivatives (hartree) for nkpt=   2  k points:
  (in case of degenerate eigenvalues, averaged derivative)
 kpt#   1, nband= 24, wtk=  0.50000, kpt=  0.0000  0.0000  0.0000 (reduced coord)
  -0.00000   -0.00000    0.00000    0.00000   -0.00000   -0.00000    0.00000   -0.00000
  -0.00000   -0.00000   -0.00000    0.00000   -0.00000    0.00000    0.00000   -0.00000
  -0.00000   -0.00000   -0.00000    0.00000   -0.00000   -0.00000    0.00000   -0.00001
 prteigrs : prtvol=0 or 1, do not print more k-points.

 Eight components of 2nd-order total energy (hartree) are
 1,2,3: 0th-order hamiltonian combined with 1st-order wavefunctions
     kin0=   1.84828869E+01 eigvalue=   9.31107129E-01  local=  -1.19503194E+01
 4,5,6: 1st-order hamiltonian combined with 1st and 0th-order wfs
     kin1=  -3.89403826E+01  Hartree=   0.00000000E+00     xc=   0.00000000E+00
 7,8,9: eventually, occupation + non-local contributions
    edocc=   9.83785811E+00     enl0=   3.34409675E+00   enl1=  -2.35087640E+00
 1-9 gives the relaxation energy (to be shifted if some occ is /=2.0)
   erelax=  -2.06456295E+01
  No Ewald or frozen-wf contrib.: the relaxation energy is the total one
 2DEtotal=   -0.2064562951E+02 Ha. Also 2DEtotal=   -0.561796149741E+03 eV
    (  non-var. 2DEtotal :   -2.0645629514E+01 Ha)

 CALCULATION OF EFFECTIVE MASSES
 NOTE : Additional infos (eff. mass eigenvalues, eigenvectors and, if degenerate, average mass) are available in stdout.

 K-point ( 0.000, 0.000, 0.000) | band =    15
 Effective mass tensor:
             -1.3433942799              0.1047747196              0.1164296947
              0.1047747196             -1.7123301980             -0.1470359067
              0.1164296947             -0.1470359067             -1.4238208576
 Effective mass tensor eigenvalues:
             -1.8173065721             -1.4018098551             -1.2604289082
 Angular average effective mass 1/(<1/m>)=  -1.4584281441
 Angular average effective mass for Frohlich model (<m**0.5>)**2=  -1.4683710732
 Effective masses along directions: (cart. coord. / red. coord. -> eff. mass)
    1:   1.000000  0.000000  0.000000 /   0.969534 -0.244955  0.000000 ->  -1.3288045367
    2:   0.000000  1.000000  0.000000 /   0.000000  1.000000  0.000000 ->  -1.6906965388
    3:   0.000000  0.000000  1.000000 /  -0.262338 -0.534270  0.803576 ->  -1.4025623224
    4:   0.577350  0.577350  0.577350 /   0.519016 -0.164338  0.838818 ->  -1.4029092589
    5:   0.000000  0.707107  0.707107 /  -0.310086  0.040742  0.949835 ->  -1.6820597984
    6:   0.707107  0.000000  0.707107 /   0.417209 -0.609330  0.674280 ->  -1.2657270142
    7:   0.707107  0.707107  0.000000 /   0.895809  0.444440  0.000000 ->  -1.4022446515

 K-point ( 0.229,-0.229, 0.229) | band =    16
 Effective mass tensor:
              0.6245217078             -0.0517533168             -0.0448734642
             -0.0517533168              0.7890231451              0.0726281655
             -0.0448734642              0.0726281655              0.6555191232
 Effective mass tensor eigenvalues:
              0.5925458146              0.6356420916              0.8408760699
 Angular average effective mass 1/(<1/m>)=   0.6741449606
 Angular average effective mass for Frohlich model (<m**0.5>)**2=   0.6785475166
 Effective masses along directions: (cart. coord. / red. coord. -> eff. mass)
    1:   1.000000  0.000000  0.000000 /   0.969534 -0.244955  0.000000 ->   0.6186476206
    2:   0.000000  1.000000  0.000000 /   0.000000  1.000000  0.000000 ->   0.7774546885
    3:   0.000000  0.000000  1.000000 /  -0.262338 -0.534270  0.803576 ->   0.6462437247
    4:   0.577350  0.577350  0.577350 /   0.519016 -0.164338  0.838818 ->   0.6561937842
    5:   0.000000  0.707107  0.707107 /  -0.310086  0.040742  0.949835 ->   0.7806738448
    6:   0.707107  0.000000  0.707107 /   0.417209 -0.609330  0.674280 ->   0.5945865316
    7:   0.707107  0.707107  0.000000 /   0.895809  0.444440  0.000000 ->   0.6459259078

 END OF EFFECTIVE MASSES SECTION

 ---- first-order wavefunction calculations are completed ----

 Total localisation tensor (bohr^2) in cartesian coordinates
  WARNING : still subject to testing - especially symmetries.
      direction              matrix element
   alpha     beta       real part   imaginary part
     1        1       1.5699027501    0.0000000000
     1        2      -0.4556410921    0.0000000000
     1        3      -0.0610970218    0.0000000000
     2        1      -0.4556410921    0.0000000000
     2        2       1.3503813586    0.0000000000
     2        3      -1.2685407526    0.0000000000
     3        1      -0.0610970218    0.0000000000
     3        2      -1.2685407526    0.0000000000
     3        3       4.3971178028    0.0000000000

 respfn : d/dk was computed, but no 2DTE, so no DDB output.

== END DATASET(S) ==============================================================

 -outvars: echo values of variables after computation  --------
            acell      1.0000000000E+00  1.0000000000E+00  1.0000000000E+00 Bohr
              amu      1.32905430E+02  3.20660000E+01
             ecut      2.70000000E+01 Hartree
           etotal     -2.0645629514E+01
            fcart      0.0000000000E+00  0.0000000000E+00  0.0000000000E+00
                       0.0000000000E+00  0.0000000000E+00  0.0000000000E+00
                       0.0000000000E+00  0.0000000000E+00  0.0000000000E+00
                       0.0000000000E+00  0.0000000000E+00  0.0000000000E+00
-          fftalg         512
           irdden           1
           irdwfk           1
           istwfk        1    0
              ixc     -116133
              kpt      0.00000000E+00  0.00000000E+00  0.00000000E+00
                       2.29012974E-01 -2.29012974E-01  2.29012974E-01
           kptopt           0
P           mkmem           2
P          mkqmem           2
P          mk1mem           2
            natom           4
            nband          24
           nbdbuf           4
            ngfft          60      60      60
             nkpt           2
            nstep         100
             nsym           8
           ntypat           2
              occ      2.000000  2.000000  2.000000  2.000000  2.000000  2.000000
                       2.000000  2.000000  2.000000  2.000000  2.000000  2.000000
                       2.000000  2.000000  2.000000  0.000000  0.000000  0.000000
                       0.000000  0.000000  0.000000  0.000000  0.000000  0.000000
        optdriver           1
            prtwf          -1
            rfdir           1       1       1
           rfelfd           2
            rprim      1.1159046032E+01  0.0000000000E+00 -3.8541881026E+00
                      -2.8193632897E+00  8.3557337016E+00 -7.8493298585E+00
                       0.0000000000E+00  0.0000000000E+00  1.1805891507E+01
          spgroup          71
           strten      0.0000000000E+00  0.0000000000E+00  0.0000000000E+00
                       0.0000000000E+00  0.0000000000E+00  0.0000000000E+00
           symrel      1  0  0   0  1  0   0  0  1      -1  0  0   0 -1  0   0  0 -1
                       0  0  1  -1 -1 -1   1  0  0       0  0 -1   1  1  1  -1  0  0
                      -1 -1 -1   0  0  1   0  1  0       1  1  1   0  0 -1   0 -1  0
                       0  1  0   1  0  0  -1 -1 -1       0 -1  0  -1  0  0   1  1  1
           tolwfr      1.00000000E-20
            typat      1  1  2  2
           useylm           1
              wtk        0.50000    0.50000
           xangst      2.7460506478E-01  3.2333726317E+00 -3.8536781394E-01
                       4.1385649694E+00  1.1882912043E+00  4.3954156130E-01
                       8.5792431748E-01  0.0000000000E+00  6.1133897078E-01
                       5.0471885124E+00  0.0000000000E+00  3.5965212404E+00
            xcart      5.1892836713E-01  6.1101887594E+00 -7.2823962878E-01
                       7.8207543754E+00  2.2455449422E+00  8.3061317488E-01
                       1.6212420028E+00  0.0000000000E+00  1.1552632291E+00
                       9.5378040294E+00  0.0000000000E+00  6.7964401755E+00
             xred      2.3125700000E-01  7.3125700000E-01  5.0000000000E-01
                       7.6874300000E-01  2.6874300000E-01  5.0000000000E-01
                       1.4528500000E-01  0.0000000000E+00  1.4528500000E-01
                       8.5471500000E-01  0.0000000000E+00  8.5471500000E-01
            znucl       55.00000   16.00000

- Timing analysis has been suppressed with timopt=0

 Suggested references for the acknowledgment of ABINIT usage.

 Calculation completed.
.Delivered  14 WARNINGs and   9 COMMENTs to log file.