.Version 9.5.2 of ABINIT

 ABINIT is a project of the Universite Catholique de Louvain,
 Corning Inc. and other collaborators, see ~abinit/doc/developers/contributors.txt .
 acknowledgments of the ABINIT effort.

.Starting date : Mon 24 May 2021.
- ( at 12h00 )

- input  file    -> /scratch/users/j/a/jabreu/flow_simple_10atoms/flow/w375/t1/run.abi
- output file    -> /scratch/users/j/a/jabreu/flow_simple_10atoms/flow/w375/t1/run.abo
- root for input  files -> /scratch/users/j/a/jabreu/flow_simple_10atoms/flow/w375/t1/indata/in
- root for output files -> /scratch/users/j/a/jabreu/flow_simple_10atoms/flow/w375/t1/outdata/out

 Symmetries : space group P2_1/m (# 11); Bravais mP (primitive monocl.)
     intxc =       0      iscf =       7    lmnmax =      18     lnmax =       6
     mgfft =     108  mpssoang =       3    mqgrid =    4754     natom =      10
  nloc_mem =       1    nspden =       1   nspinor =       1    nsppol =       1
      nsym =       4    n1xccc =    2501    ntypat =       4    occopt =       1
   xclevel =       2
-    mband =          41        mffmem =           1         mkmem =           2
-   mkqmem =           2        mk1mem =           2           mpw =       24027
      nfft =      432000          nkpt =           2
  Rough estimation (10% accuracy) of disk space for files :

------------- Echo of variables that govern the present computation ------------
-
- outvars: echo of selected default values
-   iomode0 =  0 , fftalg0 =512 , wfoptalg0 =  0
-
- outvars: echo of global parameters not present in the input file
-  max_nthreads =    0
-
 -outvars: echo values of preprocessed input variables --------
            acell      1.0000000000E+00  1.0000000000E+00  1.0000000000E+00 Bohr
              amu      8.54678000E+01  1.00794000E+00  7.99040000E+01
                       1.59994000E+01
             ecut      4.40000000E+01 Hartree
-          fftalg         512
           irdden           1
           irdwfk           1
           istwfk        1    1
              ixc     -116133
              kpt      0.00000000E+00  5.00000000E-01  0.00000000E+00
                       0.00000000E+00  0.00000000E+00  0.00000000E+00
           kptopt           0
P           mkmem           2
P          mkqmem           2
P          mk1mem           2
            natom          10
            nband          41
           nbdbuf           4
            ngfft          50      80     108
             nkpt           2
            nstep        2000
             nsym           4
           ntypat           4
              occ      2.000000  2.000000  2.000000  2.000000  2.000000  2.000000
                       2.000000  2.000000  2.000000  2.000000  2.000000  2.000000
                       2.000000  2.000000  2.000000  2.000000  2.000000  2.000000
                       2.000000  2.000000  2.000000  2.000000  2.000000  2.000000
                       2.000000  2.000000  2.000000  2.000000  2.000000  2.000000
                       2.000000  2.000000  0.000000  0.000000  0.000000  0.000000
                       0.000000  0.000000  0.000000  0.000000  0.000000
        optdriver           1
            prtwf          -1
            rfdir           1       1       1
           rfelfd           2
            rprim      8.3180934275E+00  0.0000000000E+00  0.0000000000E+00
                       0.0000000000E+00  1.2357183002E+01  4.1016419988E+00
                       0.0000000000E+00  0.0000000000E+00  1.6772116764E+01
          spgroup          11
           symrel      1  0  0   0  1  0   0  0  1      -1  0  0   0 -1  0   0  0 -1
                       1  0  0   0 -1  0   0  0 -1      -1  0  0   0  1  0   0  0  1
            tnons      0.0000000  0.0000000  0.0000000     0.0000000  0.0000000  0.0000000
                       0.5000000  0.0000000  0.0000000     0.5000000  0.0000000  0.0000000
           tolwfr      1.00000000E-20
            typat      1  1  1  1  2  2  3  3  4  4
           useylm           1
              wtk        0.50000    0.50000
           xangst      1.1004363652E+00  1.8683237337E+00  9.1758169216E+00
                       3.3013090956E+00  4.6153966653E+00  7.0020063657E+00
                       1.1004363652E+00  1.9237429419E+00  4.0439110290E+00
                       3.3013090956E+00  4.6708158734E+00  1.8701004732E+00
                       3.3013090956E+00  1.0542727832E+00  2.2203711752E+00
                       1.1004363652E+00  5.4848668240E+00  8.8255462196E+00
                       3.3013090956E+00  1.1346584264E+00  6.5881195721E+00
                       1.1004363652E+00  5.4044811808E+00  4.4577978227E+00
                       3.3013090956E+00  2.0270351911E+00  2.1998906321E+00
                       1.1004363652E+00  4.5121044160E+00  8.8460267627E+00
            xcart      2.0795233569E+00  3.5306201843E+00  1.7339781027E+01
                       6.2385700706E+00  8.7218356920E+00  1.3231874412E+01
                       2.0795233569E+00  3.6353473102E+00  7.6418843506E+00
                       6.2385700706E+00  8.8265628179E+00  3.5339777353E+00
                       6.2385700706E+00  1.9922868295E+00  4.1958934344E+00
                       2.0795233569E+00  1.0364896173E+01  1.6677865328E+01
                       6.2385700706E+00  2.1441936802E+00  1.2449741722E+01
                       2.0795233569E+00  1.0212989322E+01  8.4240170406E+00
                       6.2385700706E+00  3.8305413729E+00  4.1571908169E+00
                       2.0795233569E+00  8.5266416293E+00  1.6716567946E+01
             xred      2.5000000000E-01  2.8571400000E-01  9.6397400000E-01
                       7.5000000000E-01  7.0581100000E-01  6.1631400000E-01
                       2.5000000000E-01  2.9418900000E-01  3.8368600000E-01
                       7.5000000000E-01  7.1428600000E-01  3.6026000000E-02
                       7.5000000000E-01  1.6122500000E-01  2.1074300000E-01
                       2.5000000000E-01  8.3877500000E-01  7.8925700000E-01
                       7.5000000000E-01  1.7351800000E-01  6.9985400000E-01
                       2.5000000000E-01  8.2648200000E-01  3.0014600000E-01
                       7.5000000000E-01  3.0998500000E-01  1.7205600000E-01
                       2.5000000000E-01  6.9001500000E-01  8.2794400000E-01
            znucl       37.00000    1.00000   35.00000    8.00000

 chkinp: Checking input parameters for consistency.

== DATASET  1 ==================================================================
-   mpi_nproc: 1, omp_nthreads: -1 (-1 if OMP is not activated)

--- !DatasetInfo
iteration_state: {dtset: 1, }
dimensions: {natom: 10, nkpt: 2, mband: 41, nsppol: 1, nspinor: 1, nspden: 1, mpw: 24027, }
cutoff_energies: {ecut:  44.0, pawecutdg:  -1.0, }
electrons: {nelect:   6.40000000E+01, charge:   0.00000000E+00, occopt:   1.00000000E+00, tsmear:   1.00000000E-02, }
meta: {optdriver: 1, rfelfd: 2, }
...

 Real(R)+Recip(G) space primitive vectors, cartesian coordinates (Bohr,Bohr^-1):
 R(1)=  8.3180934  0.0000000  0.0000000  G(1)=  0.1202199  0.0000000  0.0000000
 R(2)=  0.0000000 12.3571830  4.1016420  G(2)=  0.0000000  0.0809246  0.0000000
 R(3)=  0.0000000  0.0000000 16.7721168  G(3)=  0.0000000 -0.0197902  0.0596228
 Unit cell volume ucvol=  1.7239757E+03 bohr^3
 Angles (23,13,12)=  7.16377709E+01  9.00000000E+01  9.00000000E+01 degrees

 getcut: wavevector=  0.0000  0.0000  0.0000  ngfft=  50  80 108
         ecut(hartree)=     44.000   => boxcut(ratio)=   2.01305

--- Pseudopotential description ------------------------------------------------
- pspini: atom type   1  psp file is /scratch/users/j/a/jabreu/pseudos/PBEsol/Rb.psp8
- pspatm: opening atomic psp file    /scratch/users/j/a/jabreu/pseudos/PBEsol/Rb.psp8
- Rb    ONCVPSP-3.3.0  r_core=   1.71227   1.75361   1.90633
- 37.00000   9.00000    180112                znucl, zion, pspdat
    8 -116133    2    4       600   0.00000   pspcod,pspxc,lmax,lloc,mmax,r2well
    5.99000000000000    7.00000000000000    0.00000000000000   rchrg,fchrg,qchrg
     nproj     2     2     2
     extension_switch     1
  pspatm : epsatm=   34.48400912
         --- l  ekb(1:nproj) -->
             0    8.196957   -0.477221
             1    3.231347   -0.378736
             2   -1.047201    0.996637
 pspatm: atomic psp has been read  and splines computed

- pspini: atom type   2  psp file is /scratch/users/j/a/jabreu/pseudos/PBEsol/H.psp8
- pspatm: opening atomic psp file    /scratch/users/j/a/jabreu/pseudos/PBEsol/H.psp8
- H     ONCVPSP-3.3.0  r_core=   1.00957   0.70586
-  1.00000   1.00000    180112                znucl, zion, pspdat
    8 -116133    1    4       300   0.00000   pspcod,pspxc,lmax,lloc,mmax,r2well
    2.99000000000000    0.00000000000000    0.00000000000000   rchrg,fchrg,qchrg
     nproj     2     1
     extension_switch     1
  pspatm : epsatm=    0.35627032
         --- l  ekb(1:nproj) -->
             0   -1.674911   -0.523609
             1   -0.494138
 pspatm: atomic psp has been read  and splines computed

[...]

- pspini: atom type   4  psp file is /scratch/users/j/a/jabreu/pseudos/PBEsol/O.psp8
- pspatm: opening atomic psp file    /scratch/users/j/a/jabreu/pseudos/PBEsol/O.psp8
- O     ONCVPSP-3.3.0  r_core=   1.35509   1.45563   1.26150
-  8.00000   6.00000    180112                znucl, zion, pspdat
    8 -116133    2    4       600   0.00000   pspcod,pspxc,lmax,lloc,mmax,r2well
    5.99000000000000    4.00000000000000    0.00000000000000   rchrg,fchrg,qchrg
     nproj     2     2     1
     extension_switch     1
  pspatm : epsatm=    6.22910522
         --- l  ekb(1:nproj) -->
             0    6.050032    0.820363
             1   -4.739617   -1.153841
             2   -1.335834
 pspatm: atomic psp has been read  and splines computed

   1.10723487E+04                                ecore*ucvol(ha*bohr**3)

 ==>  initialize data related to q vector <==

 The list of irreducible perturbations for this q vector is:
    1)    idir= 1    ipert=  11
    2)    idir= 2    ipert=  11
    3)    idir= 3    ipert=  11

 Perturbation wavevector (in red.coord.)   0.000000  0.000000  0.000000
 Perturbation : derivative vs k along direction   1

 dfpt_looppert : COMMENT -
  In a d/dk calculation, iscf is set to -3 automatically.
 The set of symmetries contains only one element for this perturbation.
 symkpt : not enough symmetry to change the number of k points.

 Initialisation of the first-order wave-functions :
  ireadwf=   0

--- !BeginCycle
iteration_state: {dtset: 1, }
solver: {iscf: 7, nstep: 2000, nline: 4, wfoptalg: 0, }
tolerances: {tolwfr: 1.00E-20, }
...

     iter   2DEtotal(Ha)        deltaE(Ha) residm    vres2
-ETOT  1  -40.193859756679     -4.019E+01 3.319E-02 0.000E+00
 ETOT  2  -40.221686569348     -2.783E-02 6.123E-04 0.000E+00
 ETOT  3  -40.221871127454     -1.846E-04 8.769E-06 0.000E+00
 ETOT  4  -40.221874059663     -2.932E-06 4.512E-07 0.000E+00
 ETOT  5  -40.221874117126     -5.746E-08 2.662E-08 0.000E+00
 ETOT  6  -40.221874118338     -1.212E-09 2.737E-09 0.000E+00
 ETOT  7  -40.221874118365     -2.702E-11 1.636E-10 0.000E+00
 ETOT  8  -40.221874118365     -6.679E-13 1.599E-11 0.000E+00
 ETOT  9  -40.221874118365      1.421E-14 1.039E-12 0.000E+00
 ETOT 10  -40.221874118365      1.421E-14 1.037E-13 0.000E+00
 ETOT 11  -40.221874118365     -2.132E-14 6.692E-15 0.000E+00
 ETOT 12  -40.221874118365     -7.105E-15 6.832E-16 0.000E+00
 ETOT 13  -40.221874118365      0.000E+00 4.361E-17 0.000E+00
 ETOT 14  -40.221874118365      0.000E+00 4.527E-18 0.000E+00
 ETOT 15  -40.221874118365      0.000E+00 2.891E-19 0.000E+00
 ETOT 16  -40.221874118365      0.000E+00 3.011E-20 0.000E+00
 ETOT 17  -40.221874118365     -1.421E-14 9.759E-21 0.000E+00

 At SCF step   17   max residual=  9.76E-21 < tolwfr=  1.00E-20 =>converged.

 ----iterations are completed or convergence reached----

 dfpt_looppert: DFPT cycle converged with prtwf=-1. Will skip output of the 1st-order WFK file.
 dfpt_looppert : ek2=    7.3033500752E+01
          f-sum rule ratio=    1.0739366260E+00
 prteigrs : about to open file /scratch/users/j/a/jabreu/flow_simple_10atoms/flow/w375/t1/tmpdata/tmp_1WF1_EIG
 Expectation of eigenvalue derivatives (hartree) for nkpt=   2  k points:
  (in case of degenerate eigenvalues, averaged derivative)
 kpt#   1, nband= 41, wtk=  0.50000, kpt=  0.0000  0.5000  0.0000 (reduced coord)
   0.00000   -0.00000   -0.00000    0.00000   -0.00000    0.00000   -0.00000    0.00000
  -0.00000   -0.00000    0.00000    0.00000    0.00000   -0.00000   -0.00000   -0.00000
  -0.00000   -0.00000   -0.00000    0.00000   -0.00000    0.00000    0.00000   -0.00000
   0.00000   -0.00000    0.00000   -0.00000   -0.00000   -0.00000    0.00000   -0.00000
   0.00000    0.00000   -0.00000   -0.00000    0.00000    0.00000   -0.00000   -0.00000
  -0.00011
 prteigrs : prtvol=0 or 1, do not print more k-points.

 Eight components of 2nd-order total energy (hartree) are
 1,2,3: 0th-order hamiltonian combined with 1st-order wavefunctions
     kin0=   5.19997794E+01 eigvalue=   7.16793281E+00  local=  -2.75538868E+01
 4,5,6: 1st-order hamiltonian combined with 1st and 0th-order wfs
     kin1=  -7.84333514E+01  Hartree=   0.00000000E+00     xc=   0.00000000E+00
 7,8,9: eventually, occupation + non-local contributions
    edocc=   9.15175300E+00     enl0=  -5.43704234E-01   enl1=  -2.01039685E+00
 1-9 gives the relaxation energy (to be shifted if some occ is /=2.0)
   erelax=  -4.02218741E+01
  No Ewald or frozen-wf contrib.: the relaxation energy is the total one
 2DEtotal=   -0.4022187412E+02 Ha. Also 2DEtotal=   -0.109449285620E+04 eV
    (  non-var. 2DEtotal :   -4.0221874118E+01 Ha)

 Perturbation wavevector (in red.coord.)   0.000000  0.000000  0.000000
 Perturbation : derivative vs k along direction   2
 The set of symmetries contains only one element for this perturbation.
 symkpt : not enough symmetry to change the number of k points.

[...]

 Perturbation wavevector (in red.coord.)   0.000000  0.000000  0.000000
 Perturbation : derivative vs k along direction   3
 The set of symmetries contains only one element for this perturbation.
 symkpt : not enough symmetry to change the number of k points.

 Initialisation of the first-order wave-functions :
  ireadwf=   0

--- !BeginCycle
iteration_state: {dtset: 1, }
solver: {iscf: 7, nstep: 2000, nline: 4, wfoptalg: 0, }
tolerances: {tolwfr: 1.00E-20, }
...

     iter   2DEtotal(Ha)        deltaE(Ha) residm    vres2
-ETOT  1  -10.437986384970     -1.044E+01 2.821E-02 0.000E+00
 ETOT  2  -10.444865901224     -6.880E-03 3.795E-03 0.000E+00
 ETOT  3  -10.444912858046     -4.696E-05 8.040E-05 0.000E+00
 ETOT  4  -10.444913670065     -8.120E-07 4.731E-05 0.000E+00
 ETOT  5  -10.444913687744     -1.768E-08 1.571E-06 0.000E+00
 ETOT  6  -10.444913688168     -4.233E-10 9.104E-07 0.000E+00
 ETOT  7  -10.444913688179     -1.069E-11 3.450E-08 0.000E+00
 ETOT  8  -10.444913688179     -2.807E-13 1.941E-08 0.000E+00
 ETOT  9  -10.444913688179      3.553E-15 7.896E-10 0.000E+00
 ETOT 10  -10.444913688179      1.776E-15 4.319E-10 0.000E+00
 ETOT 11  -10.444913688179      1.776E-15 1.833E-11 0.000E+00
 ETOT 12  -10.444913688179     -5.329E-15 9.847E-12 0.000E+00
 ETOT 13  -10.444913688179      5.329E-15 4.273E-13 0.000E+00
 ETOT 14  -10.444913688179     -7.105E-15 2.277E-13 0.000E+00
 ETOT 15  -10.444913688179      8.882E-15 9.976E-15 0.000E+00
 ETOT 16  -10.444913688179     -1.776E-15 5.314E-15 0.000E+00
 ETOT 17  -10.444913688179     -1.776E-15 2.332E-16 0.000E+00
 ETOT 18  -10.444913688179      1.776E-15 1.247E-16 0.000E+00
 ETOT 19  -10.444913688179     -7.105E-15 5.458E-18 0.000E+00
 ETOT 20  -10.444913688179     -1.776E-15 2.935E-18 0.000E+00
 ETOT 21  -10.444913688179      1.776E-15 1.280E-19 0.000E+00
 ETOT 22  -10.444913688179      0.000E+00 6.927E-20 0.000E+00
 ETOT 23  -10.444913688179      5.329E-15 9.939E-21 0.000E+00

 At SCF step   23   max residual=  9.94E-21 < tolwfr=  1.00E-20 =>converged.

 ----iterations are completed or convergence reached----

 dfpt_looppert: DFPT cycle converged with prtwf=-1. Will skip output of the 1st-order WFK file.
 dfpt_looppert : ek2=    1.9942736399E+01
          f-sum rule ratio=    1.0207523227E+00
 prteigrs : about to open file /scratch/users/j/a/jabreu/flow_simple_10atoms/flow/w375/t1/tmpdata/tmp_1WF1_EIG
 Expectation of eigenvalue derivatives (hartree) for nkpt=   2  k points:
  (in case of degenerate eigenvalues, averaged derivative)
 kpt#   1, nband= 41, wtk=  0.50000, kpt=  0.0000  0.5000  0.0000 (reduced coord)
  -0.00000   -0.00000   -0.00000    0.00000    0.00000   -0.00000    0.00000   -0.00000
   0.00000    0.00000    0.00000    0.00000   -0.00000   -0.00000   -0.00000    0.00000
   0.00000   -0.00000    0.00000   -0.00000   -0.00000   -0.00000   -0.00000   -0.00000
  -0.00000   -0.00000   -0.00000    0.00000    0.00000    0.00000   -0.00000    0.00000
   0.00000   -0.00000    0.00000    0.00000   -0.00000    0.00000    0.00000    0.00001
   0.00724
 prteigrs : prtvol=0 or 1, do not print more k-points.

 Eight components of 2nd-order total energy (hartree) are
 1,2,3: 0th-order hamiltonian combined with 1st-order wavefunctions
     kin0=   1.34438322E+01 eigvalue=   1.86807472E+00  local=  -7.14086812E+00
 4,5,6: 1st-order hamiltonian combined with 1st and 0th-order wfs
     kin1=  -2.03565945E+01  Hartree=   0.00000000E+00     xc=   0.00000000E+00
 7,8,9: eventually, occupation + non-local contributions
    edocc=   2.32800301E+00     enl0=  -5.41281172E-02   enl1=  -5.33232876E-01
 1-9 gives the relaxation energy (to be shifted if some occ is /=2.0)
   erelax=  -1.04449137E+01
  No Ewald or frozen-wf contrib.: the relaxation energy is the total one
 2DEtotal=   -0.1044491369E+02 Ha. Also 2DEtotal=   -0.284220555754E+03 eV
    (  non-var. 2DEtotal :   -1.0444913688E+01 Ha)

 CALCULATION OF EFFECTIVE MASSES
 NOTE : Additional infos (eff. mass eigenvalues, eigenvectors and, if degenerate, average mass) are available in stdout.

 K-point ( 0.000, 0.500, 0.000) | band =    32
 Effective mass tensor:
             -1.3965979254              0.0001774092             -0.0000005027
              0.0001774092            -17.4748512153             -0.7244137671
             -0.0000005027             -0.7244137671             -3.4210702696
 Effective mass tensor eigenvalues:
            -17.5120930353             -3.3838284516             -1.3965979234
 Angular average effective mass 1/(<1/m>)=  -2.8072740445
 Angular average effective mass for Frohlich model (<m**0.5>)**2=  -3.5422109005
 Effective masses along directions: (cart. coord. / red. coord. -> eff. mass)
    1:   1.000000  0.000000  0.000000 /   1.000000  0.000000  0.000000 ->  -1.3965979236
    2:   0.000000  1.000000  0.000000 /   0.000000  1.000000  0.000000 -> -17.3214561250
    3:   0.000000  0.000000  1.000000 /   0.000000  0.237551  0.971375 ->  -3.3910399535
    4:   0.577350  0.577350  0.577350 /   0.333689  0.660264  0.672832 ->  -2.8729737950
    5:   0.000000  0.707107  0.707107 /   0.000000  0.700409  0.713741 ->  -6.0942697963
    6:   0.707107  0.000000  0.707107 /   0.434013  0.214011  0.875118 ->  -1.9784014681
    7:   0.707107  0.707107  0.000000 /   0.558411  0.829564  0.000000 ->  -2.5847399268

 K-point ( 0.000, 0.000, 0.000) | band =    33
 Effective mass tensor:
              0.3837993604             -0.0000000001             -0.0000000000
             -0.0000000001              0.3761377539             -0.0040368977
             -0.0000000000             -0.0040368977              0.3897286224
 Effective mass tensor eigenvalues:
              0.3750291089              0.3837993604              0.3908372674
 Angular average effective mass 1/(<1/m>)=   0.3831125334
 Angular average effective mass for Frohlich model (<m**0.5>)**2=   0.3831453855
 Effective masses along directions: (cart. coord. / red. coord. -> eff. mass)
    1:   1.000000  0.000000  0.000000 /   1.000000  0.000000  0.000000 ->   0.3837993604
    2:   0.000000  1.000000  0.000000 /   0.000000  1.000000  0.000000 ->   0.3760959388
    3:   0.000000  0.000000  1.000000 /   0.000000  0.237551  0.971375 ->   0.3896852964
    4:   0.577350  0.577350  0.577350 /   0.333689  0.660264  0.672832 ->   0.3804364232
    5:   0.000000  0.707107  0.707107 /   0.000000  0.700409  0.713741 ->   0.3787769584
    6:   0.707107  0.000000  0.707107 /   0.434013  0.214011  0.875118 ->   0.3867199335
    7:   0.707107  0.707107  0.000000 /   0.558411  0.829564  0.000000 ->   0.3799086029

 END OF EFFECTIVE MASSES SECTION

 ---- first-order wavefunction calculations are completed ----

 Total localisation tensor (bohr^2) in cartesian coordinates
  WARNING : still subject to testing - especially symmetries.
      direction              matrix element
   alpha     beta       real part   imaginary part
     1        1       1.0514523609    0.0000000000
     1        2       0.0000000000    0.0000000000
     1        3       0.0000000000    0.0000000000
     2        1       0.0000000000    0.0000000000
     2        2       0.8774294617    0.0000000000
     2        3       0.2912396402    0.0000000000
     3        1       0.0000000000    0.0000000000
     3        2       0.2912396402    0.0000000000
     3        3       1.1380684804    0.0000000000

 respfn : d/dk was computed, but no 2DTE, so no DDB output.

== END DATASET(S) ==============================================================

 -outvars: echo values of variables after computation  --------
            acell      1.0000000000E+00  1.0000000000E+00  1.0000000000E+00 Bohr
              amu      8.54678000E+01  1.00794000E+00  7.99040000E+01
                       1.59994000E+01
             ecut      4.40000000E+01 Hartree
           etotal     -1.0444913688E+01
            fcart      0.0000000000E+00  0.0000000000E+00  0.0000000000E+00
                       0.0000000000E+00  0.0000000000E+00  0.0000000000E+00
                       0.0000000000E+00  0.0000000000E+00  0.0000000000E+00
                       0.0000000000E+00  0.0000000000E+00  0.0000000000E+00
                       0.0000000000E+00  0.0000000000E+00  0.0000000000E+00
                       0.0000000000E+00  0.0000000000E+00  0.0000000000E+00
                       0.0000000000E+00  0.0000000000E+00  0.0000000000E+00
                       0.0000000000E+00  0.0000000000E+00  0.0000000000E+00
                       0.0000000000E+00  0.0000000000E+00  0.0000000000E+00
                       0.0000000000E+00  0.0000000000E+00  0.0000000000E+00
-          fftalg         512
           irdden           1
           irdwfk           1
           istwfk        1    1
              ixc     -116133
              kpt      0.00000000E+00  5.00000000E-01  0.00000000E+00
                       0.00000000E+00  0.00000000E+00  0.00000000E+00
           kptopt           0
P           mkmem           2
P          mkqmem           2
P          mk1mem           2
            natom          10
            nband          41
           nbdbuf           4
            ngfft          50      80     108
             nkpt           2
            nstep        2000
             nsym           4
           ntypat           4
              occ      2.000000  2.000000  2.000000  2.000000  2.000000  2.000000
                       2.000000  2.000000  2.000000  2.000000  2.000000  2.000000
                       2.000000  2.000000  2.000000  2.000000  2.000000  2.000000
                       2.000000  2.000000  2.000000  2.000000  2.000000  2.000000
                       2.000000  2.000000  2.000000  2.000000  2.000000  2.000000
                       2.000000  2.000000  0.000000  0.000000  0.000000  0.000000
                       0.000000  0.000000  0.000000  0.000000  0.000000
        optdriver           1
            prtwf          -1
            rfdir           1       1       1
           rfelfd           2
            rprim      8.3180934275E+00  0.0000000000E+00  0.0000000000E+00
                       0.0000000000E+00  1.2357183002E+01  4.1016419988E+00
                       0.0000000000E+00  0.0000000000E+00  1.6772116764E+01
          spgroup          11
           strten      0.0000000000E+00  0.0000000000E+00  0.0000000000E+00
                       0.0000000000E+00  0.0000000000E+00  0.0000000000E+00
           symrel      1  0  0   0  1  0   0  0  1      -1  0  0   0 -1  0   0  0 -1
                       1  0  0   0 -1  0   0  0 -1      -1  0  0   0  1  0   0  0  1
            tnons      0.0000000  0.0000000  0.0000000     0.0000000  0.0000000  0.0000000
                       0.5000000  0.0000000  0.0000000     0.5000000  0.0000000  0.0000000
           tolwfr      1.00000000E-20
            typat      1  1  1  1  2  2  3  3  4  4
           useylm           1
              wtk        0.50000    0.50000
           xangst      1.1004363652E+00  1.8683237337E+00  9.1758169216E+00
                       3.3013090956E+00  4.6153966653E+00  7.0020063657E+00
                       1.1004363652E+00  1.9237429419E+00  4.0439110290E+00
                       3.3013090956E+00  4.6708158734E+00  1.8701004732E+00
                       3.3013090956E+00  1.0542727832E+00  2.2203711752E+00
                       1.1004363652E+00  5.4848668240E+00  8.8255462196E+00
                       3.3013090956E+00  1.1346584264E+00  6.5881195721E+00
                       1.1004363652E+00  5.4044811808E+00  4.4577978227E+00
                       3.3013090956E+00  2.0270351911E+00  2.1998906321E+00
                       1.1004363652E+00  4.5121044160E+00  8.8460267627E+00
            xcart      2.0795233569E+00  3.5306201843E+00  1.7339781027E+01
                       6.2385700706E+00  8.7218356920E+00  1.3231874412E+01
                       2.0795233569E+00  3.6353473102E+00  7.6418843506E+00
                       6.2385700706E+00  8.8265628179E+00  3.5339777353E+00
                       6.2385700706E+00  1.9922868295E+00  4.1958934344E+00
                       2.0795233569E+00  1.0364896173E+01  1.6677865328E+01
                       6.2385700706E+00  2.1441936802E+00  1.2449741722E+01
                       2.0795233569E+00  1.0212989322E+01  8.4240170406E+00
                       6.2385700706E+00  3.8305413729E+00  4.1571908169E+00
                       2.0795233569E+00  8.5266416293E+00  1.6716567946E+01
             xred      2.5000000000E-01  2.8571400000E-01  9.6397400000E-01
                       7.5000000000E-01  7.0581100000E-01  6.1631400000E-01
                       2.5000000000E-01  2.9418900000E-01  3.8368600000E-01
                       7.5000000000E-01  7.1428600000E-01  3.6026000000E-02
                       7.5000000000E-01  1.6122500000E-01  2.1074300000E-01
                       2.5000000000E-01  8.3877500000E-01  7.8925700000E-01
                       7.5000000000E-01  1.7351800000E-01  6.9985400000E-01
                       2.5000000000E-01  8.2648200000E-01  3.0014600000E-01
                       7.5000000000E-01  3.0998500000E-01  1.7205600000E-01
                       2.5000000000E-01  6.9001500000E-01  8.2794400000E-01
            znucl       37.00000    1.00000   35.00000    8.00000

- Timing analysis has been suppressed with timopt=0

 Suggested references for the acknowledgment of ABINIT usage.

 Calculation completed.
.Delivered   2 WARNINGs and   5 COMMENTs to log file.